     Program PWSCF v.7.0 starts on 21May2023 at 11:30:47

     Reading input from espresso_25527.pwi
Warning: card &CELL ignored
Warning: card / ignored

     Current dimensions of program PWSCF are:
     Max number of different atomic species (ntypx) = 10
     Max number of k-points (npk) =  40000
     Max angular momentum in pseudopotentials (lmaxx) =  4
     file Mg.pbe-n-kjpaw_psl.0.3.0.UPF: wavefunction(s)  3S renormalized

     gamma-point specific algorithms are used
     Message from routine setup:
     using ibrav=0 with symmetry is DISCOURAGED, use correct ibrav instead

     Subspace diagonalization in iterative solution of the eigenvalue problem:
     a serial algorithm will be used

     Using Slab Decomposition

     bravais-lattice index     =            0
     lattice parameter (alat)  =       8.7151  a.u.
     unit-cell volume          =     468.0663 (a.u.)^3
     number of atoms/cell      =            4
     number of atomic types    =            4
     number of electrons       =        37.00
     number of Kohn-Sham states=           23
     kinetic-energy cutoff     =      30.0000  Ry
     charge density cutoff     =     240.0000  Ry
     scf convergence threshold =      1.0E-06
     mixing beta               =       0.7000
     number of iterations used =            8  plain     mixing
     Exchange-correlation= PBE
                           (   1   4   3   4   0   0   0)

     celldm(1)=   8.715135  celldm(2)=   0.000000  celldm(3)=   0.000000
     celldm(4)=   0.000000  celldm(5)=   0.000000  celldm(6)=   0.000000

     crystal axes: (cart. coord. in units of alat)
               a(1) = (   1.000000   0.000000   0.000000 )
               a(2) = (   0.500000   0.866025   0.000000 )
               a(3) = (   0.500000   0.288675   0.816497 )

     reciprocal axes: (cart. coord. in units 2 pi/alat)
               b(1) = (  1.000000 -0.577350 -0.408248 )
               b(2) = (  0.000000  1.154701 -0.408248 )
               b(3) = (  0.000000  0.000000  1.224745 )

     PseudoPot. # 1 for Li read from file:
     /home/pragov/projects/rrg-bengioy-ad/pragov/crystal_structure_design/SSSP/li_pbe_v1.4.uspp.F.UPF
     MD5 check sum: e912e257baa3777c20ea3d68f190483c
     Pseudo is Ultrasoft, Zval =  3.0
     Generated by new atomic code, or converted to UPF format
     Using radial grid of  751 points,  5 beta functions with:
                l(1) =   0
                l(2) =   0
                l(3) =   0
                l(4) =   1
                l(5) =   1
     Q(r) pseudized with 10 coefficients,  rinner =    1.150   1.150   1.150

     PseudoPot. # 2 for Mg read from file:
     /home/pragov/projects/rrg-bengioy-ad/pragov/crystal_structure_design/SSSP/Mg.pbe-n-kjpaw_psl.0.3.0.UPF
     MD5 check sum: 24ecedc7f3e3cbe212e682f4413594e4
     Pseudo is Projector augmented-wave + core cor, Zval =  2.0
     Generated using "atomic" code by A. Dal Corso  v.5.0.99 svn rev. 10869
     Shape of augmentation charge: PSQ
     Using radial grid of 1129 points,  4 beta functions with:
                l(1) =   0
                l(2) =   0
                l(3) =   1
                l(4) =   1
     Q(r) pseudized with 0 coefficients

     PseudoPot. # 3 for Sn read from file:
     /home/pragov/projects/rrg-bengioy-ad/pragov/crystal_structure_design/SSSP/Sn_pbe_v1.uspp.F.UPF
     MD5 check sum: 4cf58ce39ec5d5d420df3dd08604eb00
     Pseudo is Ultrasoft + core correction, Zval = 14.0
     Generated by new atomic code, or converted to UPF format
     Using radial grid of  891 points,  6 beta functions with:
                l(1) =   0
                l(2) =   0
                l(3) =   1
                l(4) =   1
                l(5) =   2
                l(6) =   2
     Q(r) pseudized with  6 coefficients,  rinner =    1.200   1.200   1.200
                                                       1.200   1.200

     PseudoPot. # 4 for Pd read from file:
     /home/pragov/projects/rrg-bengioy-ad/pragov/crystal_structure_design/SSSP/Pd_ONCV_PBE-1.0.oncvpsp.upf
     MD5 check sum: eb77f42b51d86fb18e25f68156a31cf1
     Pseudo is Norm-conserving, Zval = 18.0
     Generated using ONCVPSP code by D. R. Hamann
     Using radial grid of 1410 points,  6 beta functions with:
                l(1) =   0
                l(2) =   0
                l(3) =   1
                l(4) =   1
                l(5) =   2
                l(6) =   2

     atomic species   valence    mass     pseudopotential
        Li             3.00     6.94000     Li( 1.00)
        Mg             2.00    24.30500     Mg( 1.00)
        Sn            14.00   118.71000     Sn( 1.00)
        Pd            18.00   106.42000     Pd( 1.00)

      6 Sym. Ops. (no inversion) found

                                    s                        frac. trans.

      isym =  1     identity

 cryst.   s( 1) = (     1          0          0      )
                  (     0          1          0      )
                  (     0          0          1      )

 cart.    s( 1) = (  1.0000000  0.0000000  0.0000000 )
                  (  0.0000000  1.0000000  0.0000000 )
                  (  0.0000000  0.0000000  1.0000000 )

      isym =  2     120 deg rotation - cryst. axis [0,0,1]

[...]

      isym =  3     120 deg rotation - cryst. axis [0,0,-1]

[...]

      isym =  4     inv. 180 deg rotation - cart. axis [1,0,0]

[...]

      isym =  5     inv. 180 deg rotation - cryst. axis [0,1,0]

[...]

      isym =  6     inv. 180 deg rotation - cryst. axis [1,1,0]

 cryst.   s( 6) = (     1         -1          0      )
                  (     0         -1          0      )
                  (     0         -1          1      )

 cart.    s( 6) = (  0.5000000 -0.8660254  0.0000000 )
                  ( -0.8660254 -0.5000000  0.0000000 )
                  (  0.0000000  0.0000000  1.0000000 )

   Cartesian axes

     site n.     atom                  positions (alat units)
         1           Li  tau(   1) = (   1.5000000   0.8660254   0.6123724  )
         2           Mg  tau(   2) = (   1.0000000   0.5773503   0.4082483  )
         3           Sn  tau(   3) = (   0.0000000   0.0000000   0.0000000  )
         4           Pd  tau(   4) = (   0.5000000   0.2886751   0.2041241  )

   Crystallographic axes

     site n.     atom                  positions (cryst. coord.)
         1           Li  tau(   1) = (  0.7500000  0.7500000  0.7500000  )
         2           Mg  tau(   2) = (  0.5000000  0.5000000  0.5000000  )
         3           Sn  tau(   3) = (  0.0000000  0.0000000  0.0000000  )
         4           Pd  tau(   4) = (  0.2500000  0.2500000  0.2500000  )

     number of k points=     1  Methfessel-Paxton smearing, width (Ry)=  0.0010
                       cart. coord. in units 2pi/alat
        k(    1) = (   0.0000000   0.0000000   0.0000000), wk =   2.0000000

                       cryst. coord.
        k(    1) = (   0.0000000   0.0000000   0.0000000), wk =   2.0000000

     Initial potential from superposition of free atoms

     starting charge      35.5479, renormalised to      37.0000
     Starting wfcs are   28 randomized atomic wfcs
     Checking if some PAW data can be deallocated...

     Self-consistent Calculation

     iteration #  1     ecut=    30.00 Ry     beta= 0.70
     Davidson diagonalization with overlap

     ethr =  1.00E-02,  avg # of iterations =  4.0

     total energy              =    -460.46215460 Ry
     estimated scf accuracy    <       4.33807027 Ry

[...]

     total energy              =    -463.26867279 Ry
     estimated scf accuracy    <       0.00000160 Ry

     iteration # 40     ecut=    30.00 Ry     beta= 0.70
     Davidson diagonalization with overlap

     ethr =  3.59E-09,  avg # of iterations =  1.0

     End of self-consistent calculation

          k = 0.0000 0.0000 0.0000 (   646 PWs)   bands (ev):

   -76.1112 -41.4862 -41.4861 -41.4859 -34.9246  -8.8731  -8.8731  -8.8727
    -8.8601  -8.8593   1.4556   6.0237   6.0239   6.0239   6.7447   6.7449
    12.1463  13.0898  13.0898  13.0898  13.2166  13.2167  13.2167

     occupation numbers
     1.0000   1.0000   1.0000   1.0000   1.0000   1.0000   1.0000   1.0000
     1.0000   1.0000   1.0000   1.0000   1.0000   1.0000   1.0000   1.0000
     1.0000   0.5015   0.4995   0.4990  -0.0000  -0.0000  -0.0000

     the Fermi energy is    13.0898 ev

!    total energy              =    -463.26867253 Ry
     estimated scf accuracy    <       0.00000058 Ry
     smearing contrib. (-TS)   =      -0.00084628 Ry
     internal energy E=F+TS    =    -463.26782625 Ry

     The total energy is F=E-TS. E is the sum of the following terms:
     one-electron contribution =    -229.07804322 Ry
     hartree contribution      =     131.37035178 Ry
     xc contribution           =     -77.72891986 Ry
     ewald contribution        =    -256.49758320 Ry
     one-center paw contrib.   =     -31.33363175 Ry
      -> PAW hartree energy AE =       1.09253015 Ry
      -> PAW hartree energy PS =      -1.08946458 Ry
      -> PAW xc energy AE      =     -32.79722160 Ry
      -> PAW xc energy PS      =       1.46052427 Ry
      -> total E_H with PAW    =     131.37341735 Ry
      -> total E_XC with PAW   =    -109.06561719 Ry

     convergence has been achieved in  40 iterations

     Forces acting on atoms (cartesian axes, Ry/au):

     atom    1 type  1   force =     0.00000000    0.00000000    0.00012808
     atom    2 type  2   force =     0.00000000    0.00000000    0.00020972
     atom    3 type  3   force =     0.00000000    0.00000000   -0.00042404
     atom    4 type  4   force =     0.00000000    0.00000000    0.00008624
     The non-local contrib.  to forces
     atom    1 type  1   force =    -0.00000000   -0.00000000    0.00002755
     atom    2 type  2   force =     0.00000000    0.00000000   -0.00004577
     atom    3 type  3   force =     0.00000000    0.00000000   -0.00117014
     atom    4 type  4   force =     0.00000000    0.00000000    0.00025140
     The ionic contribution  to forces
     atom    1 type  1   force =     0.00000000    0.00000000   -0.00000000
     atom    2 type  2   force =    -0.00000000    0.00000000    0.00000000
     atom    3 type  3   force =    -0.00000000    0.00000000    0.00000000
     atom    4 type  4   force =     0.00000000   -0.00000000   -0.00000000
     The local contribution  to forces
     atom    1 type  1   force =     0.00039655    0.00038611   -0.00039428
     atom    2 type  2   force =    -0.00001962   -0.00001677    0.00001854
     atom    3 type  3   force =    -0.00223989   -0.00197373    0.00189905
     atom    4 type  4   force =     0.00083051    0.00066804   -0.00046078
     The core correction contribution to forces
     atom    1 type  1   force =     0.00000000    0.00000000    0.00000000
     atom    2 type  2   force =    -0.00000468   -0.00000399    0.00000376
     atom    3 type  3   force =    -0.00006347   -0.00005663    0.00005447
     atom    4 type  4   force =     0.00000000    0.00000000    0.00000000
     The Hubbard contrib.    to forces
     atom    1 type  1   force =     0.00000000    0.00000000    0.00000000
     atom    2 type  2   force =     0.00000000    0.00000000    0.00000000
     atom    3 type  3   force =     0.00000000    0.00000000    0.00000000
     atom    4 type  4   force =     0.00000000    0.00000000    0.00000000
     The SCF correction term to forces
     atom    1 type  1   force =    -0.00026249   -0.00026040    0.00027284
     atom    2 type  2   force =    -0.00001397   -0.00001220    0.00001121
     atom    3 type  3   force =     0.00175468    0.00150942   -0.00142939
     atom    4 type  4   force =    -0.00044986   -0.00024026    0.00007363

     Total force =     0.000498     Total SCF correction =     0.002807
     SCF correction compared to forces is large: reduce conv_thr to get better values

     Computing stress (Cartesian axis) and pressure

          total   stress  (Ry/bohr**3)                   (kbar)     P=       60.82
   0.00041304  -0.00000000  -0.00000000           60.76       -0.00       -0.00
   0.00000000   0.00041304   0.00000000            0.00       60.76        0.00
  -0.00000000  -0.00000000   0.00041424           -0.00       -0.00       60.94

     kinetic stress (kbar)  23416.32     -0.00     -0.00
                               -0.00  23416.32     -0.00
                               -0.00     -0.00  23417.25

     local   stress (kbar) -10132.57     -0.42     -1.03
                               -0.42 -10131.39     -0.86
                               -1.03     -0.86 -10133.88

     nonloc. stress (kbar)   5491.82     -0.00      0.00
                                0.00   5491.82      0.00
                                0.00      0.00   5492.26

     hartree stress (kbar)  13762.38      0.01      0.52
                                0.01  13762.09      0.40
                                0.52      0.40  13762.95

     exc-cor stress (kbar)   3686.53      0.00      0.01
                                0.00   3686.52      0.01
                                0.01      0.01   3686.54

     corecor stress (kbar)  -9293.26     -0.01     -0.00
                               -0.01  -9293.25     -0.01
                               -0.00     -0.01  -9293.27

     ewald   stress (kbar) -26870.91     -0.00      0.00
                               -0.00 -26870.91     -0.00
                                0.00     -0.00 -26870.91

     hubbard stress (kbar)      0.00      0.00      0.00
                                0.00      0.00      0.00
                                0.00      0.00      0.00

     DFT-D   stress (kbar)      0.00      0.00      0.00
                                0.00      0.00      0.00
                                0.00      0.00      0.00

     XDM     stress (kbar)      0.00      0.00      0.00
                                0.00      0.00      0.00
                                0.00      0.00      0.00

     dft-nl  stress (kbar)      0.00      0.00      0.00
                                0.00      0.00      0.00
                                0.00      0.00      0.00

     TS-vdW  stress (kbar)      0.00      0.00      0.00
                                0.00      0.00      0.00
                                0.00      0.00      0.00

[...]

                                0.00      0.00      0.00

     Writing all to output data dir new_calculations/myprefix.save/

     General routines

     Parallel routines

     PAW routines

   This run was terminated on:  11:31: 2  21May2023

   JOB DONE.