     Program PWSCF v.7.0 starts on 21May2023 at  2: 8: 1

     Reading input from espresso_2867.pwi
Warning: card &CELL ignored
Warning: card / ignored

     Current dimensions of program PWSCF are:
     Max number of different atomic species (ntypx) = 10
     Max number of k-points (npk) =  40000
     Max angular momentum in pseudopotentials (lmaxx) =  4
     file O.pbe-n-kjpaw_psl.0.1.UPF: wavefunction(s)  2P renormalized

     gamma-point specific algorithms are used
     Message from routine setup:
     using ibrav=0 with symmetry is DISCOURAGED, use correct ibrav instead

     Subspace diagonalization in iterative solution of the eigenvalue problem:
     a serial algorithm will be used

     Using Slab Decomposition

     bravais-lattice index     =            0
     lattice parameter (alat)  =       9.1682  a.u.
     unit-cell volume          =     495.1217 (a.u.)^3
     number of atoms/cell      =            3
     number of atomic types    =            2
     number of electrons       =        21.00
     number of Kohn-Sham states=           15
     kinetic-energy cutoff     =      30.0000  Ry
     charge density cutoff     =     240.0000  Ry
     scf convergence threshold =      1.0E-06
     mixing beta               =       0.7000
     number of iterations used =            8  plain     mixing
     Exchange-correlation= SLA  PW   PBX  PBC
                           (   1   4   3   4   0   0   0)

     celldm(1)=   9.168153  celldm(2)=   0.000000  celldm(3)=   0.000000
     celldm(4)=   0.000000  celldm(5)=   0.000000  celldm(6)=   0.000000

     crystal axes: (cart. coord. in units of alat)
               a(1) = (   1.000000   0.000000   0.000000 )
               a(2) = (   0.154282   0.988027   0.000000 )
               a(3) = (  -0.577141  -0.494013   0.650276 )

     reciprocal axes: (cart. coord. in units 2 pi/alat)
               b(1) = (  1.000000 -0.156152  0.768904 )
               b(2) = (  0.000000  1.012118  0.768904 )
               b(3) = (  0.000000  0.000000  1.537809 )

     PseudoPot. # 1 for Cs read from file:
     /home/pragov/projects/rrg-bengioy-ad/pragov/crystal_structure_design/SSSP/Cs_pbe_v1.uspp.F.UPF
     MD5 check sum: 3476d69cb178dfad3ffaa59df4e07ca4
     Pseudo is Ultrasoft + core correction, Zval =  9.0
     Generated by new atomic code, or converted to UPF format
     Using radial grid of  905 points,  6 beta functions with:
                l(1) =   0
                l(2) =   0
                l(3) =   1
                l(4) =   1
                l(5) =   2
                l(6) =   2
     Q(r) pseudized with  6 coefficients,  rinner =    1.500   1.500   1.500
                                                       1.500   1.500

     PseudoPot. # 2 for O  read from file:
     /home/pragov/projects/rrg-bengioy-ad/pragov/crystal_structure_design/SSSP/O.pbe-n-kjpaw_psl.0.1.UPF
     MD5 check sum: 0234752ac141de4415c5fc33072bef88
     Pseudo is Projector augmented-wave + core cor, Zval =  6.0
     Generated using "atomic" code by A. Dal Corso  v.5.0.99 svn rev. 10869
     Shape of augmentation charge: BESSEL
     Using radial grid of 1095 points,  4 beta functions with:
                l(1) =   0
                l(2) =   0
                l(3) =   1
                l(4) =   1
     Q(r) pseudized with 0 coefficients

     atomic species   valence    mass     pseudopotential
        Cs             9.00   132.90545     Cs( 1.00)
        O              6.00    15.99900     O ( 1.00)

      4 Sym. Ops., with inversion, found

                                    s                        frac. trans.

      isym =  1     identity

 cryst.   s( 1) = (     1          0          0      )
                  (     0          1          0      )
                  (     0          0          1      )

 cart.    s( 1) = (  1.0000000 -0.0000000  0.0000000 )
                  (  0.0000000  1.0000000  0.0000000 )
                  (  0.0000000  0.0000000  1.0000000 )

      isym =  2     180 deg rotation - cart. axis [0,0,1]

[...]

      isym =  3     inversion

[...]

      isym =  4     inv. 180 deg rotation - cart. axis [0,0,1]

 cryst.   s( 4) = (     1          0          0      )
                  (     0          1          0      )
                  (    -1         -1         -1      )

 cart.    s( 4) = (  1.0000000 -0.0000000  0.0000000 )
                  (  0.0000000  1.0000000  0.0000000 )
                  (  0.0000000  0.0000000 -1.0000000 )

   Cartesian axes

     site n.     atom                  positions (alat units)
         1           Cs  tau(   1) = (   0.0000000   0.0000000   0.0000000  )
         2           O   tau(   2) = (   0.6829149   0.5845522   0.0000000  )
         3           O   tau(   3) = (   0.4713673   0.4034746   0.0000000  )

   Crystallographic axes

     site n.     atom                  positions (cryst. coord.)
         1           Cs  tau(   1) = (  0.0000000  0.0000000  0.0000000  )
         2           O   tau(   2) = (  0.5916360  0.5916360  0.0000000  )
         3           O   tau(   3) = (  0.4083640  0.4083640  0.0000000  )

     number of k points=     1  Methfessel-Paxton smearing, width (Ry)=  0.0010
                       cart. coord. in units 2pi/alat
        k(    1) = (   0.0000000   0.0000000   0.0000000), wk =   2.0000000

                       cryst. coord.
        k(    1) = (   0.0000000   0.0000000   0.0000000), wk =   2.0000000

     Check: negative core charge=   -0.000008

     Initial potential from superposition of free atoms

     starting charge      20.9606, renormalised to      21.0000
     Starting wfcs are   21 randomized atomic wfcs
     Checking if some PAW data can be deallocated...

     Self-consistent Calculation

     iteration #  1     ecut=    30.00 Ry     beta= 0.70
     Davidson diagonalization with overlap

     ethr =  1.00E-02,  avg # of iterations =  2.0

     Threshold (ethr) on eigenvalues was too large:
     Diagonalizing with lowered threshold

     Davidson diagonalization with overlap

[...]

     total energy              =    -146.06347969 Ry
     estimated scf accuracy    <       0.14555256 Ry

[...]

     total energy              =    -146.10161959 Ry
     estimated scf accuracy    <       0.00001063 Ry

     iteration # 17     ecut=    30.00 Ry     beta= 0.70
     Davidson diagonalization with overlap

     ethr =  1.44E-08,  avg # of iterations =  1.0

     End of self-consistent calculation

          k = 0.0000 0.0000 0.0000 (   679 PWs)   bands (ev):

   -19.2924 -16.2710 -10.4150  -3.2295  -3.2293  -3.0025  -2.5903  -0.8432
    -0.8427   3.4944   3.4945   7.9248   9.3092  10.9090  11.3607

     occupation numbers
     1.0000   1.0000   1.0000   1.0000   1.0000   1.0000   1.0000   1.0000
     1.0000   0.7512   0.7488  -0.0000  -0.0000  -0.0000  -0.0000

     the Fermi energy is     3.4987 ev

!    total energy              =    -146.10161945 Ry
     estimated scf accuracy    <       0.00000049 Ry
     smearing contrib. (-TS)   =      -0.00041261 Ry
     internal energy E=F+TS    =    -146.10120684 Ry

     The total energy is F=E-TS. E is the sum of the following terms:
     one-electron contribution =     -45.02736514 Ry
     hartree contribution      =      32.58450945 Ry
     xc contribution           =     -44.93877210 Ry
     ewald contribution        =     -69.63733152 Ry
     one-center paw contrib.   =     -19.08224753 Ry
      -> PAW hartree energy AE =      55.68123239 Ry
      -> PAW hartree energy PS =     -55.50346506 Ry
      -> PAW xc energy AE      =     -33.80202231 Ry
      -> PAW xc energy PS      =      14.54200745 Ry
      -> total E_H with PAW    =      32.76227678 Ry
      -> total E_XC with PAW   =     -64.19878696 Ry

     convergence has been achieved in  17 iterations

     Forces acting on atoms (cartesian axes, Ry/au):

     atom    1 type  1   force =     0.00000000    0.00000000    0.00000000
     atom    2 type  2   force =    -0.01395116   -0.01189402   -0.00000000
     atom    3 type  2   force =     0.01395116    0.01189402    0.00000000
     The non-local contrib.  to forces
     atom    1 type  1   force =     0.00000000    0.00000000    0.00000000
     atom    2 type  2   force =    -1.44069904   -1.23317365   -0.00000000
     atom    3 type  2   force =     1.44069904    1.23317365    0.00000000
     The ionic contribution  to forces
     atom    1 type  1   force =     0.00000000    0.00000000   -0.00000000
     atom    2 type  2   force =     6.97951781    5.97423259    0.00000000
     atom    3 type  2   force =    -6.97951781   -5.97423259   -0.00000000
     The local contribution  to forces
     atom    1 type  1   force =    -0.00001468   -0.00000672   -0.00005049
     atom    2 type  2   force =    -5.56860512   -4.76651127   -0.00002007
     atom    3 type  2   force =     5.56861184    4.76651148    0.00002757
     The core correction contribution to forces
     atom    1 type  1   force =    -0.00000087   -0.00000053   -0.00000357
     atom    2 type  2   force =     0.01583711    0.01355635   -0.00000027
     atom    3 type  2   force =    -0.01583706   -0.01355635    0.00000030
     The Hubbard contrib.    to forces
     atom    1 type  1   force =     0.00000000    0.00000000    0.00000000
     atom    2 type  2   force =     0.00000000    0.00000000    0.00000000
     atom    3 type  2   force =     0.00000000    0.00000000    0.00000000
     The SCF correction term to forces
     atom    1 type  1   force =     0.00000568    0.00000189    0.00001861
     atom    2 type  2   force =    -0.00000198    0.00000141   -0.00000514
     atom    3 type  2   force =    -0.00000490   -0.00000274   -0.00000317

     Total force =     0.025927     Total SCF correction =     0.000021

     Computing stress (Cartesian axis) and pressure

          total   stress  (Ry/bohr**3)                   (kbar)     P=     -161.56
  -0.00127311  -0.00035443  -0.00000000         -187.28      -52.14       -0.00
  -0.00035443  -0.00116132  -0.00000000          -52.14     -170.84       -0.00
  -0.00000000  -0.00000000  -0.00086030           -0.00       -0.00     -126.55

     kinetic stress (kbar)   8696.21   -621.48      0.00
                             -621.48   8890.30      0.00
                                0.00      0.00   9420.06

     local   stress (kbar) -10412.51  -3717.45      0.67
                            -3717.45  -9251.52     -0.79
                                0.67     -0.79  -6063.53

     nonloc. stress (kbar)   5470.34    -42.17      0.00
                              -42.17   5483.66      0.00
                                0.00      0.00   5517.56

     hartree stress (kbar)   3881.63   1325.06     -0.14
                             1325.06   3467.81      0.17
                               -0.14      0.17   2331.71

     exc-cor stress (kbar)   4966.84     10.97     -0.00
                               10.97   4963.41      0.00
                               -0.00      0.00   4953.98

     corecor stress (kbar)  -7368.14      4.30      0.01
                                4.30  -7369.48     -0.01
                                0.01     -0.01  -7373.14

     ewald   stress (kbar)  -5421.66   2988.64     -0.00
                             2988.64  -6355.02     -0.00
                               -0.00     -0.00  -8913.20

     hubbard stress (kbar)      0.00      0.00      0.00
                                0.00      0.00      0.00
                                0.00      0.00      0.00

     DFT-D   stress (kbar)      0.00      0.00      0.00
                                0.00      0.00      0.00
                                0.00      0.00      0.00

     XDM     stress (kbar)      0.00      0.00      0.00
                                0.00      0.00      0.00
                                0.00      0.00      0.00

     dft-nl  stress (kbar)      0.00      0.00      0.00
                                0.00      0.00      0.00
                                0.00      0.00      0.00

     TS-vdW  stress (kbar)      0.00      0.00      0.00
                                0.00      0.00      0.00
                                0.00      0.00      0.00

[...]

                                0.00      0.00      0.00

     Writing all to output data dir new_calculations/myprefix.save/

     General routines

     Parallel routines

     PAW routines

   This run was terminated on:   2: 8:15  21May2023

   JOB DONE.