     Program PWSCF v.7.0 starts on 20May2023 at 23:30:13

     Reading input from espresso_2774.pwi
Warning: card &CELL ignored
Warning: card / ignored

     Current dimensions of program PWSCF are:
     Max number of different atomic species (ntypx) = 10
     Max number of k-points (npk) =  40000
     Max angular momentum in pseudopotentials (lmaxx) =  4

     gamma-point specific algorithms are used

     Subspace diagonalization in iterative solution of the eigenvalue problem:
     a serial algorithm will be used

     Using Slab Decomposition

     bravais-lattice index     =            0
     lattice parameter (alat)  =       7.0432  a.u.
     unit-cell volume          =    1927.5130 (a.u.)^3
     number of atoms/cell      =           19
     number of atomic types    =            2
     number of electrons       =       239.00
     number of Kohn-Sham states=          144
     kinetic-energy cutoff     =      30.0000  Ry
     charge density cutoff     =     240.0000  Ry
     scf convergence threshold =      1.0E-06
     mixing beta               =       0.7000
     number of iterations used =            8  plain     mixing
     Exchange-correlation= PBE
                           (   1   4   3   4   0   0   0)

     celldm(1)=   7.043159  celldm(2)=   0.000000  celldm(3)=   0.000000
     celldm(4)=   0.000000  celldm(5)=   0.000000  celldm(6)=   0.000000

     crystal axes: (cart. coord. in units of alat)
               a(1) = (   1.000000   0.000000   0.000000 )
               a(2) = (   0.000000   2.523958   0.000000 )
               a(3) = (   0.000000  -1.261979   2.185812 )

     reciprocal axes: (cart. coord. in units 2 pi/alat)
               b(1) = (  1.000000  0.000000  0.000000 )
               b(2) = (  0.000000  0.396203  0.228748 )
               b(3) = (  0.000000  0.000000  0.457496 )

     PseudoPot. # 1 for As read from file:
     /home/pragov/projects/rrg-bengioy-ad/pragov/crystal_structure_design/SSSP/As.pbe-n-rrkjus_psl.0.2.UPF
     MD5 check sum: 767315de957beeeb34f87d97bf945c8f
     Pseudo is Ultrasoft + core correction, Zval =  5.0
     Generated using "atomic" code by A. Dal Corso  v.5.0.99 svn rev. 10869
     Using radial grid of 1209 points,  4 beta functions with:
                l(1) =   0
                l(2) =   0
                l(3) =   1
                l(4) =   1
     Q(r) pseudized with 0 coefficients

     PseudoPot. # 2 for Rh read from file:
     /home/pragov/projects/rrg-bengioy-ad/pragov/crystal_structure_design/SSSP/Rh_ONCV_PBE-1.0.oncvpsp.upf
     MD5 check sum: ba07c69523b14cacd10683cd4c4284c1
     Pseudo is Norm-conserving, Zval = 17.0
     Generated using ONCVPSP code by D. R. Hamann
     Using radial grid of 1442 points,  6 beta functions with:
                l(1) =   0
                l(2) =   0
                l(3) =   1
                l(4) =   1
                l(5) =   2
                l(6) =   2

     atomic species   valence    mass     pseudopotential
        As             5.00    74.92159     As( 1.00)
        Rh            17.00   102.90550     Rh( 1.00)

     No symmetry found

                                    s                        frac. trans.

      isym =  1     identity

 cryst.   s( 1) = (     1          0          0      )
                  (     0          1          0      )
                  (     0          0          1      )

 cart.    s( 1) = (  1.0000000  0.0000000  0.0000000 )
                  (  0.0000000  1.0000000  0.0000000 )
                  (  0.0000000  0.0000000  1.0000000 )

   Cartesian axes

     site n.     atom                  positions (alat units)
         1           As  tau(   1) = (   0.5876640   0.0000000   0.0000000  )
         2           As  tau(   2) = (   0.7498750  -0.3389409   1.8395859  )
         3           As  tau(   3) = (   0.7498750  -0.1616783   0.9724874  )
         4           As  tau(   4) = (   0.7498750   0.5006197   1.5595506  )
         5           As  tau(   5) = (   0.2532380   1.6015827   0.3525977  )
         6           As  tau(   6) = (   0.2532380   1.4178083   1.2107125  )
         7           As  tau(   7) = (   0.2532380   0.7665463   0.6225018  )
         8           Rh  tau(   8) = (   0.7554910   1.5545514   1.6361633  )
         9           Rh  tau(   9) = (   0.7554910   0.3297224   0.5282015  )
        10           Rh  tau(  10) = (   0.7554910   1.9016598   0.0214494  )
        11           Rh  tau(  11) = (   0.2545260  -0.2781818   0.5149226  )
        12           Rh  tau(  12) = (   0.2545260   0.9551341   1.6874381  )
        13           Rh  tau(  13) = (   0.2545260  -0.6769518   2.1692632  )
        14           Rh  tau(  14) = (   0.7542970   1.1319384   0.2929840  )
        15           Rh  tau(  15) = (   0.7542970   1.7042573   0.8337955  )
        16           Rh  tau(  16) = (   0.7542970   0.9497416   1.0590324  )
        17           Rh  tau(  17) = (   0.2476860   0.1310630   1.8852956  )
        18           Rh  tau(  18) = (   0.2476860  -0.4362673   1.3566701  )
        19           Rh  tau(  19) = (   0.2476860   0.3052009   1.1296604  )

   Crystallographic axes

     site n.     atom                  positions (cryst. coord.)
         1           As  tau(   1) = (  0.5876640  0.0000000  0.0000000  )
         2           As  tau(   2) = (  0.7498750  0.2865120  0.8416030  )
         3           As  tau(   3) = (  0.7498750  0.1583970  0.4449090  )
         4           As  tau(   4) = (  0.7498750  0.5550910  0.7134880  )
         5           As  tau(   5) = (  0.2532380  0.7152080  0.1613120  )
         6           As  tau(   6) = (  0.2532380  0.8386880  0.5538960  )
         7           As  tau(   7) = (  0.2532380  0.4461040  0.2847920  )
         8           Rh  tau(   8) = (  0.7554910  0.9901870  0.7485380  )
         9           Rh  tau(   9) = (  0.7554910  0.2514620  0.2416500  )
        10           Rh  tau(  10) = (  0.7554910  0.7583500  0.0098130  )
        11           Rh  tau(  11) = (  0.2545260  0.0075710  0.2355750  )
        12           Rh  tau(  12) = (  0.2545260  0.7644250  0.7719960  )
        13           Rh  tau(  13) = (  0.2545260  0.2280040  0.9924290  )
        14           Rh  tau(  14) = (  0.7542970  0.5154970  0.1340390  )
        15           Rh  tau(  15) = (  0.7542970  0.8659610  0.3814580  )
        16           Rh  tau(  16) = (  0.7542970  0.6185420  0.4845030  )
        17           Rh  tau(  17) = (  0.2476860  0.4831850  0.8625150  )
        18           Rh  tau(  18) = (  0.2476860  0.1374850  0.6206710  )
        19           Rh  tau(  19) = (  0.2476860  0.3793290  0.5168150  )

     number of k points=     1  Methfessel-Paxton smearing, width (Ry)=  0.0010
                       cart. coord. in units 2pi/alat
        k(    1) = (   0.0000000   0.0000000   0.0000000), wk =   2.0000000

                       cryst. coord.
        k(    1) = (   0.0000000   0.0000000   0.0000000), wk =   2.0000000

     Initial potential from superposition of free atoms

     starting charge     238.9931, renormalised to     239.0000
     Starting wfcs are  148 randomized atomic wfcs

     Self-consistent Calculation

     iteration #  1     ecut=    30.00 Ry     beta= 0.70
     Davidson diagonalization with overlap

     ethr =  1.00E-02,  avg # of iterations =  3.0

     total energy              =   -2729.35275186 Ry
     estimated scf accuracy    <       2.75581556 Ry

[...]

     total energy              =   -2730.94586060 Ry
     estimated scf accuracy    <       0.00000176 Ry

     iteration # 21     ecut=    30.00 Ry     beta= 0.70
     Davidson diagonalization with overlap

     ethr =  7.37E-10,  avg # of iterations =  2.0

     End of self-consistent calculation

          k = 0.0000 0.0000 0.0000 (  2677 PWs)   bands (ev):

   -60.7689 -60.7600 -60.7594 -60.7092 -60.7087 -60.7085 -60.6291 -60.6182
   -60.6178 -60.3801 -60.3798 -60.3794 -28.8104 -28.8102 -28.8013 -28.7030
   -28.7027 -28.6972 -28.6816 -28.6401 -28.6397 -28.6114 -28.6068 -28.6058
   -28.6057 -28.5820 -28.5819 -28.5668 -28.5605 -28.5601 -28.5362 -28.5091
   -28.5088 -28.4811 -28.4809 -28.4750 -28.4553 -28.4138 -28.4135 -28.3957
   -28.3721 -28.3718 -28.2575 -28.2571 -28.2511 -28.1160 -28.1145 -28.1141
     4.1318   5.0297   5.5343   5.5343   5.5732   5.6448   5.6451  11.0960
    11.1905  11.1906  11.2835  11.3709  11.3711  12.4369  12.4370  12.5778
    12.5779  12.8330  12.8479  12.8481  12.9426  13.2230  13.2230  13.3005
    13.6687  13.6834  13.6836  13.7570  14.0327  14.1112  14.1114  14.2663
    14.3504  14.3506  14.5620  14.6767  14.8158  14.8160  15.0642  15.1232
    15.1232  15.1903  15.2821  15.2822  15.4199  15.4201  15.4810  15.6945
    15.6945  15.9727  16.0287  16.0289  16.0538  16.1982  16.1983  16.2692
    16.3118  16.3120  16.4927  16.4928  16.5333  16.7634  16.7636  16.7905
    16.9809  16.9810  17.0504  17.0504  17.0808  17.1729  17.3549  17.6426
    17.7322  17.7323  18.1992  18.9551  18.9551  19.0195  19.2831  19.2831
    19.8802  20.2269  20.2610  20.9072  20.9073  21.2066  21.2067  21.6366
    21.6366  22.8314  22.9548  22.9548  23.1077  23.1507  23.1508  25.0464

     occupation numbers
     1.0000   1.0000   1.0000   1.0000   1.0000   1.0000   1.0000   1.0000
     1.0000   1.0000   1.0000   1.0000   1.0000   1.0000   1.0000   1.0000
     1.0000   1.0000   1.0000   1.0000   1.0000   1.0000   1.0000   1.0000
     1.0000   1.0000   1.0000   1.0000   1.0000   1.0000   1.0000   1.0000
     1.0000   1.0000   1.0000   1.0000   1.0000   1.0000   1.0000   1.0000
     1.0000   1.0000   1.0000   1.0000   1.0000   1.0000   1.0000   1.0000
     1.0000   1.0000   1.0000   1.0000   1.0000   1.0000   1.0000   1.0000
     1.0000   1.0000   1.0000   1.0000   1.0000   1.0000   1.0000   1.0000
     1.0000   1.0000   1.0000   1.0000   1.0000   1.0000   1.0000   1.0000
     1.0000   1.0000   1.0000   1.0000   1.0000   1.0000   1.0000   1.0000
     1.0000   1.0000   1.0000   1.0000   1.0000   1.0000   1.0000   1.0000
     1.0000   1.0000   1.0000   1.0000   1.0000   1.0000   1.0000   1.0000
     1.0000   1.0000   1.0000   1.0000   1.0000   1.0000   1.0000   1.0000
     1.0000   1.0000   1.0000   1.0000   1.0000   1.0000   1.0000   1.0000
     1.0000   1.0000   1.0000   1.0000   1.0000   1.0000   1.0000   0.5000
    -0.0000  -0.0000  -0.0000  -0.0000  -0.0000  -0.0000  -0.0000  -0.0000
    -0.0000  -0.0000  -0.0000  -0.0000  -0.0000  -0.0000  -0.0000  -0.0000
    -0.0000  -0.0000  -0.0000  -0.0000  -0.0000  -0.0000  -0.0000  -0.0000

     the Fermi energy is    17.6426 ev

!    total energy              =   -2730.94586023 Ry
     estimated scf accuracy    <       0.00000068 Ry
     smearing contrib. (-TS)   =      -0.00028209 Ry
     internal energy E=F+TS    =   -2730.94557814 Ry

     The total energy is F=E-TS. E is the sum of the following terms:
     one-electron contribution =    -920.95101662 Ry
     hartree contribution      =     593.46745108 Ry
     xc contribution           =    -329.74588426 Ry
     ewald contribution        =   -2073.71612835 Ry

     convergence has been achieved in  21 iterations

     Forces acting on atoms (cartesian axes, Ry/au):

     atom    1 type  1   force =     0.01015691    0.00000514   -0.00004389
     atom    2 type  1   force =    -0.00186239   -0.01284036    0.01120831
     atom    3 type  1   force =    -0.00186238   -0.00324898   -0.01670096
     atom    4 type  1   force =    -0.00186409    0.01614040    0.00552496
     atom    5 type  1   force =     0.00267315    0.01646746   -0.01465379
     atom    6 type  1   force =     0.00267001    0.00438592    0.02162431
     atom    7 type  1   force =     0.00266722   -0.02091504   -0.00695758
     atom    8 type  2   force =     0.00583431   -0.03161674   -0.02289715
     atom    9 type  2   force =     0.00583819    0.03566460   -0.01593462
     atom   10 type  2   force =     0.00582749   -0.00403841    0.03883919
     atom   11 type  2   force =    -0.00930197    0.01902227    0.03860566
     atom   12 type  2   force =    -0.00930353   -0.04292758   -0.00284168
     atom   13 type  2   force =    -0.00930928    0.02392323   -0.03576829
     atom   14 type  2   force =    -0.00388433   -0.00311656    0.03973662
     atom   15 type  2   force =    -0.00388590   -0.03287840   -0.02258719
     atom   16 type  2   force =    -0.00388531    0.03595505   -0.01715756
     atom   17 type  2   force =     0.00316610    0.00416552   -0.03857809
     atom   18 type  2   force =     0.00315821    0.03133456    0.02290054
     atom   19 type  2   force =     0.00316761   -0.03548206    0.01568119
     The non-local contrib.  to forces
     atom    1 type  1   force =     0.02921945   -0.00000161   -0.00006807
     atom    2 type  1   force =     0.00462325   -0.06830419    0.05497872
     atom    3 type  1   force =     0.00463061   -0.01337478   -0.08659989
     atom    4 type  1   force =     0.00462480    0.08177185    0.03168305
     atom    5 type  1   force =     0.00492565    0.08163426   -0.09749681
     atom    6 type  1   force =     0.00492956    0.04347352    0.11950728
     atom    7 type  1   force =     0.00493086   -0.12520960   -0.02199549
     atom    8 type  2   force =    -0.00904592   -0.13019333   -0.09678986
     atom    9 type  2   force =    -0.00903393    0.14891480   -0.06432958
     atom   10 type  2   force =    -0.00903591   -0.01874110    0.16110652
     atom   11 type  2   force =     0.01088767    0.13232127    0.02151616
     atom   12 type  2   force =     0.01088318   -0.08484490    0.10378711
     atom   13 type  2   force =     0.01086654   -0.04746900   -0.12534217
     atom   14 type  2   force =     0.01037308    0.07502424    0.09725860
     atom   15 type  2   force =     0.01037229   -0.12177482    0.01632325
     atom   16 type  2   force =     0.01036726    0.04671291   -0.11359521
     atom   17 type  2   force =    -0.00690093   -0.06990414   -0.07196912
     atom   18 type  2   force =    -0.00690510    0.09731377   -0.02453351
     atom   19 type  2   force =    -0.00690880   -0.02734750    0.09657125
     The ionic contribution  to forces
     atom    1 type  1   force =     0.61344756   -0.00003487    0.00002072
     atom    2 type  1   force =    -0.02414396    2.13644171   -1.76837768
     atom    3 type  1   force =    -0.02414402    0.46318221    2.73445047
     atom    4 type  1   force =    -0.02414347   -2.59966311   -0.96605046
     atom    5 type  1   force =     0.07471897   -2.46553006    2.47411816
     atom    6 type  1   force =     0.07471863   -0.90988425   -3.37227400
     atom    7 type  1   force =     0.07471801    3.37535491    0.89819037
     atom    8 type  2   force =     0.70338112   -1.29330597    2.37115895
     atom    9 type  2   force =     0.70337357   -1.40665504   -2.30564925
     atom   10 type  2   force =     0.70336419    2.70027667   -0.06568775
     atom   11 type  2   force =    -1.11546944    1.55679787   -1.91465699
     atom   12 type  2   force =    -1.11546941    0.87955101    2.30555767
     atom   13 type  2   force =    -1.11546916   -2.43657878   -0.39077266
     atom   14 type  2   force =    -0.12165841    1.17508782    3.28761868
     atom   15 type  2   force =    -0.12165757   -3.43468388   -0.62588597
     atom   16 type  2   force =    -0.12165639    2.25930771   -2.66156700
     atom   17 type  2   force =     0.27869754   -2.57727319   -3.10386953
     atom   18 type  2   force =     0.27869610    3.97667026   -0.68033556
     atom   19 type  2   force =     0.27869615   -1.39906102    3.78401182
     The local contribution  to forces
     atom    1 type  1   force =    -0.62479260    0.00004752   -0.00048049
     atom    2 type  1   force =     0.01804244   -2.08275797    1.72550051
     atom    3 type  1   force =     0.01803503   -0.45238511   -2.66626752
     atom    4 type  1   force =     0.01803644    2.53579033    0.94115419
     atom    5 type  1   force =    -0.07540498    2.40146707   -2.39624513
     atom    6 type  1   force =    -0.07540865    0.87359693    3.27827222
     atom    7 type  1   force =    -0.07541840   -3.27564771   -0.88191134
     atom    8 type  2   force =    -0.68848152    1.39081846   -2.29763245
     atom    9 type  2   force =    -0.68846420    1.29517699    2.35459438
     atom   10 type  2   force =    -0.68846795   -2.68662650   -0.05800484
     atom   11 type  2   force =     1.09524171   -1.67006789    1.93089438
     atom   12 type  2   force =     1.09523813   -0.83777827   -2.41312999
     atom   13 type  2   force =     1.09526141    2.50842206    0.48025984
     atom   14 type  2   force =     0.10740007   -1.25322704   -3.34449899
     atom   15 type  2   force =     0.10739390    3.52113879    0.58692000
     atom   16 type  2   force =     0.10740201   -2.26980198    2.75821036
     atom   17 type  2   force =    -0.26861325    2.65218377    3.13709643
     atom   18 type  2   force =    -0.26862374   -4.04266592    0.72941159
     atom   19 type  2   force =    -0.26860331    1.39224177   -3.86407168
     The core correction contribution to forces
     atom    1 type  1   force =    -0.00767780    0.00000072    0.00000294
     atom    2 type  1   force =    -0.00038816    0.00182881   -0.00080337
     atom    3 type  1   force =    -0.00038918   -0.00022263    0.00198218
     atom    4 type  1   force =    -0.00038853   -0.00160947   -0.00118204
     atom    5 type  1   force =    -0.00157073   -0.00144191    0.00463947
     atom    6 type  1   force =    -0.00157172   -0.00328944   -0.00357165
     atom    7 type  1   force =    -0.00157208    0.00473581   -0.00106840
     atom    8 type  2   force =     0.00000000    0.00000000    0.00000000
     atom    9 type  2   force =     0.00000000    0.00000000    0.00000000
     atom   10 type  2   force =     0.00000000    0.00000000    0.00000000
     atom   11 type  2   force =     0.00000000    0.00000000    0.00000000
     atom   12 type  2   force =     0.00000000    0.00000000    0.00000000
     atom   13 type  2   force =     0.00000000    0.00000000    0.00000000
     atom   14 type  2   force =     0.00000000    0.00000000    0.00000000
     atom   15 type  2   force =     0.00000000    0.00000000    0.00000000
     atom   16 type  2   force =     0.00000000    0.00000000    0.00000000
     atom   17 type  2   force =     0.00000000    0.00000000    0.00000000
     atom   18 type  2   force =     0.00000000    0.00000000    0.00000000
     atom   19 type  2   force =     0.00000000    0.00000000    0.00000000
     The Hubbard contrib.    to forces
     atom    1 type  1   force =     0.00000000    0.00000000    0.00000000
     atom    2 type  1   force =     0.00000000    0.00000000    0.00000000
     atom    3 type  1   force =     0.00000000    0.00000000    0.00000000
     atom    4 type  1   force =     0.00000000    0.00000000    0.00000000
     atom    5 type  1   force =     0.00000000    0.00000000    0.00000000
     atom    6 type  1   force =     0.00000000    0.00000000    0.00000000
     atom    7 type  1   force =     0.00000000    0.00000000    0.00000000
     atom    8 type  2   force =     0.00000000    0.00000000    0.00000000
     atom    9 type  2   force =     0.00000000    0.00000000    0.00000000
     atom   10 type  2   force =     0.00000000    0.00000000    0.00000000
     atom   11 type  2   force =     0.00000000    0.00000000    0.00000000
     atom   12 type  2   force =     0.00000000    0.00000000    0.00000000
     atom   13 type  2   force =     0.00000000    0.00000000    0.00000000
     atom   14 type  2   force =     0.00000000    0.00000000    0.00000000
     atom   15 type  2   force =     0.00000000    0.00000000    0.00000000
     atom   16 type  2   force =     0.00000000    0.00000000    0.00000000
     atom   17 type  2   force =     0.00000000    0.00000000    0.00000000
     atom   18 type  2   force =     0.00000000    0.00000000    0.00000000
     atom   19 type  2   force =     0.00000000    0.00000000    0.00000000
     The SCF correction term to forces
     atom    1 type  1   force =    -0.00004265   -0.00000839    0.00048257
     atom    2 type  1   force =     0.00000108   -0.00005050   -0.00008832
     atom    3 type  1   force =     0.00000222   -0.00045044   -0.00026466
     atom    4 type  1   force =     0.00000371   -0.00015098   -0.00007822
     atom    5 type  1   force =     0.00000128    0.00033634    0.00033208
     atom    6 type  1   force =    -0.00000077    0.00048739   -0.00030799
     atom    7 type  1   force =     0.00000585   -0.00015023   -0.00017117
     atom    8 type  2   force =    -0.00002233    0.00106234    0.00036776
     atom    9 type  2   force =    -0.00004021   -0.00177391   -0.00054863
     atom   10 type  2   force =    -0.00003580    0.00105076    0.00142681
     atom   11 type  2   force =     0.00003513   -0.00003075    0.00085367
     atom   12 type  2   force =     0.00004161    0.00014281    0.00094508
     atom   13 type  2   force =     0.00002897   -0.00045283    0.00008826
     atom   14 type  2   force =    -0.00000203   -0.00000336   -0.00064012
     atom   15 type  2   force =     0.00000252    0.00243974    0.00005708
     atom   16 type  2   force =    -0.00000115   -0.00026536   -0.00020416
     atom   17 type  2   force =    -0.00002021   -0.00084269    0.00016568
     atom   18 type  2   force =    -0.00001202    0.00001469   -0.00164043
     atom   19 type  2   force =    -0.00001938   -0.00131708   -0.00082865

     Total force =     0.149382     Total SCF correction =     0.004816

     Computing stress (Cartesian axis) and pressure

          total   stress  (Ry/bohr**3)                   (kbar)     P=     -103.03
  -0.00125532   0.00000002   0.00000005         -184.66        0.00        0.01
   0.00000002  -0.00042295   0.00000003            0.00      -62.22        0.00
   0.00000005   0.00000003  -0.00042294            0.01        0.00      -62.22

     kinetic stress (kbar)  44358.40      0.00     -0.01
                                0.00  44539.32      0.01
                               -0.01      0.01  44539.27

     local   stress (kbar)  -1989.04      0.00      0.03
                                0.00  -8610.90     -0.04
                                0.03     -0.04  -8610.69

     nonloc. stress (kbar)   6725.16     -0.00      0.00
                               -0.00   6659.14      0.00
                                0.00      0.00   6659.15

     hartree stress (kbar)  13251.13      0.00     -0.01
                                0.00  16020.79      0.03
                               -0.01      0.03  16020.67

     exc-cor stress (kbar)  -3973.31      0.00     -0.00
                                0.00  -3971.99     -0.00
                               -0.00     -0.00  -3971.99

     corecor stress (kbar)  -3231.36     -0.00      0.00
                               -0.00  -3229.88      0.00
                                0.00      0.00  -3229.88

     ewald   stress (kbar) -55325.65      0.00     -0.00
                                0.00 -51468.69      0.01
                               -0.00      0.01 -51468.75

     hubbard stress (kbar)      0.00      0.00      0.00
                                0.00      0.00      0.00
                                0.00      0.00      0.00

     DFT-D   stress (kbar)      0.00      0.00      0.00
                                0.00      0.00      0.00
                                0.00      0.00      0.00

     XDM     stress (kbar)      0.00      0.00      0.00
                                0.00      0.00      0.00
                                0.00      0.00      0.00

     dft-nl  stress (kbar)      0.00      0.00      0.00
                                0.00      0.00      0.00
                                0.00      0.00      0.00

     TS-vdW  stress (kbar)      0.00      0.00      0.00
                                0.00      0.00      0.00
                                0.00      0.00      0.00

[...]

                                0.00      0.00      0.00

     Writing all to output data dir new_calculations/myprefix.save/

     General routines

     Parallel routines

   This run was terminated on:  23:30:31  20May2023

   JOB DONE.