     Program PWSCF v.7.0 starts on 21May2023 at 16:50:16

     Reading input from espresso_26882.pwi
Warning: card &CELL ignored
Warning: card / ignored

     Current dimensions of program PWSCF are:
     Max number of different atomic species (ntypx) = 10
     Max number of k-points (npk) =  40000
     Max angular momentum in pseudopotentials (lmaxx) =  4

     gamma-point specific algorithms are used
     Message from routine setup:
     using ibrav=0 with symmetry is DISCOURAGED, use correct ibrav instead

     Subspace diagonalization in iterative solution of the eigenvalue problem:
     a serial algorithm will be used

     Using Slab Decomposition

     bravais-lattice index     =            0
     lattice parameter (alat)  =       8.8238  a.u.
     unit-cell volume          =     485.7909 (a.u.)^3
     number of atoms/cell      =            4
     number of atomic types    =            3
     number of electrons       =        57.00
     number of Kohn-Sham states=           35
     kinetic-energy cutoff     =      30.0000  Ry
     charge density cutoff     =     240.0000  Ry
     scf convergence threshold =      1.0E-06
     mixing beta               =       0.7000
     number of iterations used =            8  plain     mixing
     Exchange-correlation= PBE
                           (   1   4   3   4   0   0   0)

     celldm(1)=   8.823782  celldm(2)=   0.000000  celldm(3)=   0.000000
     celldm(4)=   0.000000  celldm(5)=   0.000000  celldm(6)=   0.000000

     crystal axes: (cart. coord. in units of alat)
               a(1) = (   1.000000   0.000000   0.000000 )
               a(2) = (   0.500000   0.866025   0.000000 )
               a(3) = (   0.500000   0.288675   0.816497 )

     reciprocal axes: (cart. coord. in units 2 pi/alat)
               b(1) = (  1.000000 -0.577350 -0.408248 )
               b(2) = (  0.000000  1.154701 -0.408248 )
               b(3) = (  0.000000  0.000000  1.224745 )

     PseudoPot. # 1 for Hf read from file:
     /home/pragov/projects/rrg-bengioy-ad/pragov/crystal_structure_design/SSSP/Hf-sp.oncvpsp.upf
     MD5 check sum: 417ed15784afe83d2e06dacf143de3f8
     Pseudo is Norm-conserving + core correction, Zval = 12.0
     Generated using ONCVPSP code by D. R. Hamann
     Using radial grid of 1656 points,  8 beta functions with:
                l(1) =   0
                l(2) =   0
                l(3) =   1
                l(4) =   1
                l(5) =   2
                l(6) =   2
                l(7) =   3
                l(8) =   3

     PseudoPot. # 2 for Ir read from file:
     /home/pragov/projects/rrg-bengioy-ad/pragov/crystal_structure_design/SSSP/Ir_pbe_v1.2.uspp.F.UPF
     MD5 check sum: 8836f839c3459d2b385c504ce6d91f2c
     Pseudo is Ultrasoft + core correction, Zval = 15.0
     Generated by new atomic code, or converted to UPF format
     Using radial grid of  983 points,  7 beta functions with:
                l(1) =   0
                l(2) =   0
                l(3) =   1
                l(4) =   1
                l(5) =   1
                l(6) =   2
                l(7) =   2
     Q(r) pseudized with  8 coefficients,  rinner =    1.400   1.400   1.400
                                                       1.400   1.400

     PseudoPot. # 3 for Pd read from file:
     /home/pragov/projects/rrg-bengioy-ad/pragov/crystal_structure_design/SSSP/Pd_ONCV_PBE-1.0.oncvpsp.upf
     MD5 check sum: eb77f42b51d86fb18e25f68156a31cf1
     Pseudo is Norm-conserving, Zval = 18.0
     Generated using ONCVPSP code by D. R. Hamann
     Using radial grid of 1410 points,  6 beta functions with:
                l(1) =   0
                l(2) =   0
                l(3) =   1
                l(4) =   1
                l(5) =   2
                l(6) =   2

     atomic species   valence    mass     pseudopotential
        Hf            12.00   178.49000     Hf( 1.00)
        Ir            15.00   192.21700     Ir( 1.00)
        Pd            18.00   106.42000     Pd( 1.00)

     12 Sym. Ops., with inversion, found

                                    s                        frac. trans.

      isym =  1     identity

 cryst.   s( 1) = (     1          0          0      )
                  (     0          1          0      )
                  (     0          0          1      )

 cart.    s( 1) = (  1.0000000  0.0000000  0.0000000 )
                  (  0.0000000  1.0000000  0.0000000 )
                  (  0.0000000  0.0000000  1.0000000 )

      isym =  2     180 deg rotation - cart. axis [1,0,0]

[...]

      isym =  3     120 deg rotation - cryst. axis [0,0,1]

[...]

      isym =  6     180 deg rotation - cryst. axis [1,1,0]

[...]

      isym =  7     inversion

[...]

      isym =  8     inv. 180 deg rotation - cart. axis [1,0,0]

[...]

      isym =  9     inv. 120 deg rotation - cryst. axis [0,0,1]

 cryst.   s( 9) = (     1         -1          0      )
                  (     1          0          0      )
                  (     1          0         -1      )

 cart.    s( 9) = (  0.5000000  0.8660254 -0.0000002 )
                  ( -0.8660254  0.5000000 -0.0000003 )
                  (  0.0000000  0.0000000 -1.0000000 )

[...]

 cryst.   s(10) = (     0          1          0      )
                  (    -1          1          0      )
                  (     0          1         -1      )

 cart.    s(10) = (  0.5000000 -0.8660254  0.0000002 )
                  (  0.8660254  0.5000000 -0.0000003 )
                  (  0.0000000  0.0000000 -1.0000000 )

[...]

      isym = 12     inv. 180 deg rotation - cryst. axis [1,1,0]

 cryst.   s(12) = (     1         -1          0      )
                  (     0         -1          0      )
                  (     0         -1          1      )

 cart.    s(12) = (  0.5000000 -0.8660254  0.0000002 )
                  ( -0.8660254 -0.5000000  0.0000003 )
                  (  0.0000000  0.0000000  1.0000000 )

   Cartesian axes

     site n.     atom                  positions (alat units)
         1           Hf  tau(   1) = (   0.5000000   0.2886752   0.2041242  )
         2           Hf  tau(   2) = (   1.5000000   0.8660255   0.6123725  )
         3           Ir  tau(   3) = (   1.0000000   0.5773504   0.4082484  )
         4           Pd  tau(   4) = (   0.0000000   0.0000000   0.0000000  )

   Crystallographic axes

     site n.     atom                  positions (cryst. coord.)
         1           Hf  tau(   1) = (  0.2500000  0.2500000  0.2500000  )
         2           Hf  tau(   2) = (  0.7500000  0.7500000  0.7500000  )
         3           Ir  tau(   3) = (  0.5000000  0.5000000  0.5000000  )
         4           Pd  tau(   4) = (  0.0000000  0.0000000  0.0000000  )

     number of k points=     1  Methfessel-Paxton smearing, width (Ry)=  0.0010
                       cart. coord. in units 2pi/alat
        k(    1) = (   0.0000000   0.0000000   0.0000000), wk =   2.0000000

                       cryst. coord.
        k(    1) = (   0.0000000   0.0000000   0.0000000), wk =   2.0000000

     Initial potential from superposition of free atoms

     starting charge      56.4959, renormalised to      57.0000

     negative rho (up, down):  3.649E-01 0.000E+00
     Starting wfcs are   42 randomized atomic wfcs

     Self-consistent Calculation

     iteration #  1     ecut=    30.00 Ry     beta= 0.70
     Davidson diagonalization with overlap

     ethr =  1.00E-02,  avg # of iterations =  2.0

     negative rho (up, down):  2.952E-01 0.000E+00

     total energy              =    -659.83309385 Ry
     estimated scf accuracy    <       1.50332708 Ry

[...]

     total energy              =    -660.74625590 Ry
     estimated scf accuracy    <       0.00001154 Ry

     iteration # 23     ecut=    30.00 Ry     beta= 0.70
     Davidson diagonalization with overlap

     ethr =  8.69E-09,  avg # of iterations =  1.0

[...]

     End of self-consistent calculation

          k = 0.0000 0.0000 0.0000 (   682 PWs)   bands (ev):

   -67.9862 -43.2001 -43.1543 -33.4163 -33.4163 -33.4163 -30.6638 -30.6638
   -30.6638 -12.0603 -12.0603 -12.0603 -11.8135 -11.8135 -11.8135   9.9964
    13.0486  13.0486  14.2314  14.2314  14.2314  15.6906  15.6906  15.6906
    16.4233  16.4233  16.4233  16.6960  16.6960  20.1097  20.1097  22.3410
    23.5880  23.5880  23.5880

     occupation numbers
     1.0000   1.0000   1.0000   1.0000   1.0000   1.0000   1.0000   1.0000
     1.0000   1.0000   1.0000   1.0000   1.0000   1.0000   1.0000   1.0000
     1.0000   1.0000   1.0000   1.0000   1.0000   1.0000   1.0000   1.0000
     1.0000   1.0000   1.0000   0.7501   0.7499  -0.0000  -0.0000  -0.0000
    -0.0000  -0.0000  -0.0000

     the Fermi energy is    16.7002 ev

!    total energy              =    -660.74625601 Ry
     estimated scf accuracy    <          5.7E-09 Ry
     smearing contrib. (-TS)   =      -0.00041261 Ry
     internal energy E=F+TS    =    -660.74584340 Ry

     The total energy is F=E-TS. E is the sum of the following terms:
     one-electron contribution =    -156.10995386 Ry
     hartree contribution      =     109.30025341 Ry
     xc contribution           =    -132.30833770 Ry
     ewald contribution        =    -481.62780525 Ry

     convergence has been achieved in  23 iterations

     negative rho (up, down):  3.220E-01 0.000E+00

     Forces acting on atoms (cartesian axes, Ry/au):

     atom    1 type  1   force =    -0.00000000   -0.00000000   -0.00000046
     atom    2 type  1   force =     0.00000000   -0.00000000    0.00000046
     atom    3 type  2   force =     0.00000000   -0.00000000    0.00000000
     atom    4 type  3   force =     0.00000000    0.00000000   -0.00000000
     The non-local contrib.  to forces
     atom    1 type  1   force =     0.00000000    0.00000000   -0.00000048
     atom    2 type  1   force =     0.00000000    0.00000000    0.00000048
     atom    3 type  2   force =     0.00000000    0.00000000    0.00000000
     atom    4 type  3   force =     0.00000000    0.00000000    0.00000000
     The ionic contribution  to forces
     atom    1 type  1   force =    -0.00000000   -0.00000058    0.00000082
     atom    2 type  1   force =     0.00000000    0.00000058   -0.00000082
     atom    3 type  2   force =     0.00000000    0.00000000   -0.00000000
     atom    4 type  3   force =     0.00000000    0.00000000   -0.00000000
     The local contribution  to forces
     atom    1 type  1   force =     0.00000103    0.00000099   -0.00000017
     atom    2 type  1   force =    -0.00000388   -0.00000260    0.00000131
     atom    3 type  2   force =    -0.00000187    0.00000106   -0.00000088
     atom    4 type  3   force =     0.00000045    0.00000329    0.00000144
     The core correction contribution to forces
     atom    1 type  1   force =    -0.00000003    0.00000002    0.00000013
     atom    2 type  1   force =    -0.00000024   -0.00000009    0.00000011
     atom    3 type  2   force =    -0.00000007    0.00000023    0.00000057
     atom    4 type  3   force =     0.00000000    0.00000000    0.00000000
     The Hubbard contrib.    to forces
     atom    1 type  1   force =     0.00000000    0.00000000    0.00000000
     atom    2 type  1   force =     0.00000000    0.00000000    0.00000000
     atom    3 type  2   force =     0.00000000    0.00000000    0.00000000
     atom    4 type  3   force =     0.00000000    0.00000000    0.00000000
     The SCF correction term to forces
     atom    1 type  1   force =    -0.00000202   -0.00000038    0.00000027
     atom    2 type  1   force =     0.00000267    0.00000257    0.00000042
     atom    3 type  2   force =     0.00000223   -0.00000264   -0.00000041
     atom    4 type  3   force =     0.00000004   -0.00000429   -0.00000212

     Total force =     0.000001     Total SCF correction =     0.000007
     SCF correction compared to forces is large: reduce conv_thr to get better values

     Computing stress (Cartesian axis) and pressure

     negative rho (up, down):  3.220E-01 0.000E+00
          total   stress  (Ry/bohr**3)                   (kbar)     P=     -674.20
  -0.00458310   0.00000000   0.00000000         -674.20        0.00        0.00
   0.00000000  -0.00458310   0.00000000            0.00     -674.20        0.00
   0.00000000   0.00000000  -0.00458310            0.00        0.00     -674.20

     kinetic stress (kbar)  38222.00      0.00     -0.00
                                0.00  38222.00     -0.01
                               -0.00     -0.01  38222.01

     local   stress (kbar)  -1553.67     -0.26      0.35
                               -0.26  -1554.01     -0.24
                                0.35     -0.24  -1553.83

     nonloc. stress (kbar)   9246.73      0.00     -0.00
                                0.00   9246.73     -0.00
                               -0.00     -0.00   9246.72

     hartree stress (kbar)  11032.56      0.07     -0.10
                                0.07  11032.66      0.06
                               -0.10      0.06  11032.61

     exc-cor stress (kbar)  11057.33      0.00     -0.00
                                0.00  11057.33      0.00
                               -0.00      0.00  11057.33

     corecor stress (kbar) -20064.21     -0.00      0.01
                               -0.00 -20064.22     -0.00
                                0.01     -0.00 -20064.21

     ewald   stress (kbar) -48614.81     -0.00     -0.00
                               -0.00 -48614.81     -0.00
                               -0.00     -0.00 -48614.82

     hubbard stress (kbar)      0.00      0.00      0.00
                                0.00      0.00      0.00
                                0.00      0.00      0.00

     DFT-D   stress (kbar)      0.00      0.00      0.00
                                0.00      0.00      0.00
                                0.00      0.00      0.00

     XDM     stress (kbar)      0.00      0.00      0.00
                                0.00      0.00      0.00
                                0.00      0.00      0.00

     dft-nl  stress (kbar)      0.00      0.00      0.00
                                0.00      0.00      0.00
                                0.00      0.00      0.00

     TS-vdW  stress (kbar)      0.00      0.00      0.00
                                0.00      0.00      0.00
                                0.00      0.00      0.00

[...]

                                0.00      0.00      0.00

     Writing all to output data dir new_calculations/myprefix.save/

     General routines

     Parallel routines

   This run was terminated on:  16:50:23  21May2023

   JOB DONE.