     Program PWSCF v.7.0 starts on 20May2023 at 18:20: 7

     Reading input from espresso_1593.pwi
Warning: card &CELL ignored
Warning: card / ignored

     Current dimensions of program PWSCF are:
     Max number of different atomic species (ntypx) = 10
     Max number of k-points (npk) =  40000
     Max angular momentum in pseudopotentials (lmaxx) =  4

     gamma-point specific algorithms are used
     Message from routine setup:
     using ibrav=0 with symmetry is DISCOURAGED, use correct ibrav instead

     Subspace diagonalization in iterative solution of the eigenvalue problem:
     a serial algorithm will be used

     Using Slab Decomposition

     bravais-lattice index     =            0
     lattice parameter (alat)  =       8.2414  a.u.
     unit-cell volume          =     395.8043 (a.u.)^3
     number of atoms/cell      =            4
     number of atomic types    =            4
     number of electrons       =        63.00
     number of Kohn-Sham states=           38
     kinetic-energy cutoff     =      30.0000  Ry
     charge density cutoff     =     240.0000  Ry
     scf convergence threshold =      1.0E-06
     mixing beta               =       0.7000
     number of iterations used =            8  plain     mixing
     Exchange-correlation= PBE
                           (   1   4   3   4   0   0   0)

     celldm(1)=   8.241353  celldm(2)=   0.000000  celldm(3)=   0.000000
     celldm(4)=   0.000000  celldm(5)=   0.000000  celldm(6)=   0.000000

     crystal axes: (cart. coord. in units of alat)
               a(1) = (   1.000000   0.000000   0.000000 )
               a(2) = (   0.500000   0.866025   0.000000 )
               a(3) = (   0.500000   0.288675   0.816497 )

     reciprocal axes: (cart. coord. in units 2 pi/alat)
               b(1) = (  1.000000 -0.577350 -0.408248 )
               b(2) = (  0.000000  1.154701 -0.408248 )
               b(3) = (  0.000000  0.000000  1.224745 )

     PseudoPot. # 1 for Mn read from file:
     /home/pragov/projects/rrg-bengioy-ad/pragov/crystal_structure_design/SSSP/mn_pbe_v1.5.uspp.F.UPF
     MD5 check sum: 82ef2b46521d7a7d9e736dc3972e4928
     Pseudo is Ultrasoft + core correction, Zval = 15.0
     Generated by new atomic code, or converted to UPF format
     Using radial grid of  859 points,  6 beta functions with:
                l(1) =   0
                l(2) =   0
                l(3) =   1
                l(4) =   1
                l(5) =   2
                l(6) =   2
     Q(r) pseudized with  8 coefficients,  rinner =    0.950   0.950   0.950
                                                       0.950   0.950

     PseudoPot. # 2 for Co read from file:
     /home/pragov/projects/rrg-bengioy-ad/pragov/crystal_structure_design/SSSP/Co_pbe_v1.2.uspp.F.UPF
     MD5 check sum: 5f91765df6ddd3222702df6e7b74a16d
     Pseudo is Ultrasoft + core correction, Zval = 17.0
     Generated by new atomic code, or converted to UPF format
     Using radial grid of  863 points,  6 beta functions with:
                l(1) =   0
                l(2) =   0
                l(3) =   1
                l(4) =   1
                l(5) =   2
                l(6) =   2
     Q(r) pseudized with  8 coefficients,  rinner =    1.200   1.200   1.200
                                                       1.200   1.200

     PseudoPot. # 3 for Sn read from file:
     /home/pragov/projects/rrg-bengioy-ad/pragov/crystal_structure_design/SSSP/Sn_pbe_v1.uspp.F.UPF
     MD5 check sum: 4cf58ce39ec5d5d420df3dd08604eb00
     Pseudo is Ultrasoft + core correction, Zval = 14.0
     Generated by new atomic code, or converted to UPF format
     Using radial grid of  891 points,  6 beta functions with:
                l(1) =   0
                l(2) =   0
                l(3) =   1
                l(4) =   1
                l(5) =   2
                l(6) =   2
     Q(r) pseudized with  6 coefficients,  rinner =    1.200   1.200   1.200
                                                       1.200   1.200

     PseudoPot. # 4 for Rh read from file:
     /home/pragov/projects/rrg-bengioy-ad/pragov/crystal_structure_design/SSSP/Rh_ONCV_PBE-1.0.oncvpsp.upf
     MD5 check sum: ba07c69523b14cacd10683cd4c4284c1
     Pseudo is Norm-conserving, Zval = 17.0
     Generated using ONCVPSP code by D. R. Hamann
     Using radial grid of 1442 points,  6 beta functions with:
                l(1) =   0
                l(2) =   0
                l(3) =   1
                l(4) =   1
                l(5) =   2
                l(6) =   2

     atomic species   valence    mass     pseudopotential
        Mn            15.00    54.93804     Mn( 1.00)
        Co            17.00    58.93319     Co( 1.00)
        Sn            14.00   118.71000     Sn( 1.00)
        Rh            17.00   102.90550     Rh( 1.00)

      6 Sym. Ops. (no inversion) found

                                    s                        frac. trans.

      isym =  1     identity

 cryst.   s( 1) = (     1          0          0      )
                  (     0          1          0      )
                  (     0          0          1      )

 cart.    s( 1) = (  1.0000000  0.0000000  0.0000000 )
                  (  0.0000000  1.0000000  0.0000000 )
                  (  0.0000000  0.0000000  1.0000000 )

      isym =  2     120 deg rotation - cryst. axis [0,0,1]

[...]

      isym =  3     120 deg rotation - cryst. axis [0,0,-1]

[...]

      isym =  4     inv. 180 deg rotation - cart. axis [1,0,0]

[...]

      isym =  5     inv. 180 deg rotation - cryst. axis [0,1,0]

[...]

      isym =  6     inv. 180 deg rotation - cryst. axis [1,1,0]

 cryst.   s( 6) = (     1         -1          0      )
                  (     0         -1          0      )
                  (     0         -1          1      )

 cart.    s( 6) = (  0.5000000 -0.8660254 -0.0000000 )
                  ( -0.8660254 -0.5000000 -0.0000000 )
                  (  0.0000000  0.0000000  1.0000000 )

   Cartesian axes

     site n.     atom                  positions (alat units)
         1           Mn  tau(   1) = (   0.0000000   0.0000000   0.0000000  )
         2           Co  tau(   2) = (   1.5000000   0.8660254   0.6123724  )
         3           Sn  tau(   3) = (   1.0000000   0.5773503   0.4082483  )
         4           Rh  tau(   4) = (   0.5000000   0.2886751   0.2041241  )

   Crystallographic axes

     site n.     atom                  positions (cryst. coord.)
         1           Mn  tau(   1) = (  0.0000000  0.0000000  0.0000000  )
         2           Co  tau(   2) = (  0.7500000  0.7500000  0.7500000  )
         3           Sn  tau(   3) = (  0.5000000  0.5000000  0.5000000  )
         4           Rh  tau(   4) = (  0.2500000  0.2500000  0.2500000  )

     number of k points=     1  Methfessel-Paxton smearing, width (Ry)=  0.0010
                       cart. coord. in units 2pi/alat
        k(    1) = (   0.0000000   0.0000000   0.0000000), wk =   2.0000000

                       cryst. coord.
        k(    1) = (   0.0000000   0.0000000   0.0000000), wk =   2.0000000

     Check: negative core charge=   -0.000022

     Initial potential from superposition of free atoms

     starting charge      60.4994, renormalised to      63.0000
     Starting wfcs are   45 randomized atomic wfcs

     Self-consistent Calculation

     iteration #  1     ecut=    30.00 Ry     beta= 0.70
     Davidson diagonalization with overlap

     ethr =  1.00E-02,  avg # of iterations =  2.0

     total energy              =    -879.49052838 Ry
     estimated scf accuracy    <      13.23831635 Ry

[...]

     ethr =  1.00E-02,  avg # of iterations =  5.0
     Minimization algorithm failed to find Fermi energy: reverting to bisection
     Possible cause: smearing is larger than the electronic band-gap.

[...]

     total energy              =    -889.25600840 Ry
     estimated scf accuracy    <       0.00000488 Ry

     iteration # 29     ecut=    30.00 Ry     beta= 0.70
     Davidson diagonalization with overlap

     ethr =  7.75E-09,  avg # of iterations =  1.0

     End of self-consistent calculation

          k = 0.0000 0.0000 0.0000 (   534 PWs)   bands (ev):

   -75.1596 -59.8289 -59.4814 -38.4940 -38.4939 -38.4939 -28.6252 -28.6251
   -28.6250 -27.4396 -27.4396 -27.4396  -4.4347  -4.4347  -4.4347  -4.4065
    -4.4065   7.0211  13.9295  13.9296  13.9296  14.9857  14.9857  17.0772
    17.0772  17.0772  18.4126  18.4126  18.4126  18.7688  18.7689  19.1928
    19.1929  20.3737  22.1799  22.1799  22.1799  24.0798

     occupation numbers
     1.0000   1.0000   1.0000   1.0000   1.0000   1.0000   1.0000   1.0000
     1.0000   1.0000   1.0000   1.0000   1.0000   1.0000   1.0000   1.0000
     1.0000   1.0000   1.0000   1.0000   1.0000   1.0000   1.0000   1.0000
     1.0000   1.0000   1.0000   1.0000   1.0000   1.0000   1.0000   0.2505
     0.2495  -0.0000  -0.0000  -0.0000  -0.0000  -0.0000

     the Fermi energy is    19.1886 ev

!    total energy              =    -889.25600846 Ry
     estimated scf accuracy    <       0.00000013 Ry
     smearing contrib. (-TS)   =      -0.00041261 Ry
     internal energy E=F+TS    =    -889.25559585 Ry

     The total energy is F=E-TS. E is the sum of the following terms:
     one-electron contribution =    -363.76101178 Ry
     hartree contribution      =     225.82124564 Ry
     xc contribution           =    -129.33147408 Ry
     ewald contribution        =    -621.98435563 Ry

     convergence has been achieved in  29 iterations

     Forces acting on atoms (cartesian axes, Ry/au):

     atom    1 type  1   force =     0.00000000    0.00000000   -0.00000362
     atom    2 type  2   force =     0.00000000    0.00000000    0.00000055
     atom    3 type  3   force =     0.00000000    0.00000000    0.00001290
     atom    4 type  4   force =     0.00000000    0.00000000   -0.00000983
     The non-local contrib.  to forces
     atom    1 type  1   force =     0.00000000    0.00000000   -0.00000465
     atom    2 type  2   force =     0.00000000    0.00000000    0.00001980
     atom    3 type  3   force =     0.00000000    0.00000000   -0.00000020
     atom    4 type  4   force =    -0.00000000   -0.00000000   -0.00000274
     The ionic contribution  to forces
     atom    1 type  1   force =     0.00000000    0.00000000    0.00000000
     atom    2 type  2   force =    -0.00000000    0.00000000   -0.00000000
     atom    3 type  3   force =    -0.00000000   -0.00000000   -0.00000000
     atom    4 type  4   force =    -0.00000000   -0.00000000    0.00000000
     The local contribution  to forces
     atom    1 type  1   force =     0.00000585    0.00002035    0.00000277
     atom    2 type  2   force =    -0.00000673   -0.00002584   -0.00001744
     atom    3 type  3   force =    -0.00000143   -0.00000169    0.00000076
     atom    4 type  4   force =     0.00000191   -0.00001396   -0.00002132
     The core correction contribution to forces
     atom    1 type  1   force =     0.00000027    0.00000038    0.00000029
     atom    2 type  2   force =    -0.00000009   -0.00000063   -0.00000052
     atom    3 type  3   force =    -0.00000004    0.00000034    0.00000028
     atom    4 type  4   force =     0.00000000    0.00000000    0.00000000
     The Hubbard contrib.    to forces
     atom    1 type  1   force =     0.00000000    0.00000000    0.00000000
     atom    2 type  2   force =     0.00000000    0.00000000    0.00000000
     atom    3 type  3   force =     0.00000000    0.00000000    0.00000000
     atom    4 type  4   force =     0.00000000    0.00000000    0.00000000
     The SCF correction term to forces
     atom    1 type  1   force =    -0.00000513   -0.00002140   -0.00000441
     atom    2 type  2   force =     0.00000523   -0.00000460   -0.00000367
     atom    3 type  3   force =     0.00000437    0.00001551    0.00000969
     atom    4 type  4   force =    -0.00000027    0.00000691    0.00001185

     Total force =     0.000017     Total SCF correction =     0.000033
     SCF correction compared to forces is large: reduce conv_thr to get better values

     Computing stress (Cartesian axis) and pressure

          total   stress  (Ry/bohr**3)                   (kbar)     P=     -306.41
  -0.00208293   0.00000000   0.00000000         -306.41        0.00        0.00
  -0.00000000  -0.00208293  -0.00000000           -0.00     -306.41       -0.00
  -0.00000000  -0.00000000  -0.00208295           -0.00       -0.00     -306.41

     kinetic stress (kbar)  44123.85      0.00     -0.00
                                0.00  44123.85      0.00
                               -0.00      0.00  44123.85

     local   stress (kbar)    527.55     -0.94      1.33
                               -0.94    525.62     -1.38
                                1.33     -1.38    526.60

     nonloc. stress (kbar)  16757.62     -0.00     -0.00
                               -0.00  16757.62      0.00
                                0.00      0.00  16757.59

     hartree stress (kbar)  27976.02      0.29     -0.41
                                0.29  27976.62      0.41
                               -0.41      0.41  27976.33

     exc-cor stress (kbar)    234.75      0.00     -0.01
                                0.00    234.76      0.01
                               -0.01      0.01    234.76

     corecor stress (kbar) -12869.74     -0.01      0.01
                               -0.01 -12869.75     -0.01
                                0.01     -0.01 -12869.74

     ewald   stress (kbar) -77055.80      0.00     -0.00
                                0.00 -77055.80     -0.00
                               -0.00     -0.00 -77055.80

     hubbard stress (kbar)      0.00      0.00      0.00
                                0.00      0.00      0.00
                                0.00      0.00      0.00

     DFT-D   stress (kbar)      0.00      0.00      0.00
                                0.00      0.00      0.00
                                0.00      0.00      0.00

     XDM     stress (kbar)      0.00      0.00      0.00
                                0.00      0.00      0.00
                                0.00      0.00      0.00

     dft-nl  stress (kbar)      0.00      0.00      0.00
                                0.00      0.00      0.00
                                0.00      0.00      0.00

     TS-vdW  stress (kbar)      0.00      0.00      0.00
                                0.00      0.00      0.00
                                0.00      0.00      0.00

[...]

                                0.00      0.00      0.00

     Writing all to output data dir new_calculations/myprefix.save/

     General routines

     Parallel routines

   This run was terminated on:  18:20:22  20May2023

   JOB DONE.