     Program PWSCF v.7.0 starts on 21May2023 at  2: 2:47

     Reading input from espresso_5831.pwi
Warning: card &CELL ignored
Warning: card / ignored

     Current dimensions of program PWSCF are:
     Max number of different atomic species (ntypx) = 10
     Max number of k-points (npk) =  40000
     Max angular momentum in pseudopotentials (lmaxx) =  4
     file O.pbe-n-kjpaw_psl.0.1.UPF: wavefunction(s)  2P renormalized

     gamma-point specific algorithms are used

     Subspace diagonalization in iterative solution of the eigenvalue problem:
     a serial algorithm will be used

     Using Slab Decomposition

     bravais-lattice index     =            0
     lattice parameter (alat)  =      10.1462  a.u.
     unit-cell volume          =    1171.5310 (a.u.)^3
     number of atoms/cell      =           16
     number of atomic types    =            3
     number of electrons       =       142.00
     number of Kohn-Sham states=           85
     kinetic-energy cutoff     =      30.0000  Ry
     charge density cutoff     =     240.0000  Ry
     scf convergence threshold =      1.0E-06
     mixing beta               =       0.7000
     number of iterations used =            8  plain     mixing
     Exchange-correlation= SLA  PW   PBX  PBC
                           (   1   4   3   4   0   0   0)

     celldm(1)=  10.146153  celldm(2)=   0.000000  celldm(3)=   0.000000
     celldm(4)=   0.000000  celldm(5)=   0.000000  celldm(6)=   0.000000

     crystal axes: (cart. coord. in units of alat)
               a(1) = (   1.000000   0.000000   0.000000 )
               a(2) = (  -0.500634   1.228179   0.000000 )
               a(3) = (  -0.000382   0.407403   0.913246 )

     reciprocal axes: (cart. coord. in units 2 pi/alat)
               b(1) = (  1.000000  0.407623 -0.181424 )
               b(2) = (  0.000000  0.814214 -0.363224 )
               b(3) = (  0.000000  0.000000  1.094995 )

     PseudoPot. # 1 for Ni read from file:
     /home/pragov/projects/rrg-bengioy-ad/pragov/crystal_structure_design/SSSP/ni_pbe_v1.4.uspp.F.UPF
     MD5 check sum: 1ee80287db30b12d2bc1f57a5b5d6409
     Pseudo is Ultrasoft + core correction, Zval = 18.0
     Generated by new atomic code, or converted to UPF format
     Using radial grid of  865 points,  6 beta functions with:
                l(1) =   0
                l(2) =   0
                l(3) =   1
                l(4) =   1
                l(5) =   2
                l(6) =   2
     Q(r) pseudized with 10 coefficients,  rinner =    0.980   0.980   0.980
                                                       0.980   0.980

     PseudoPot. # 2 for P  read from file:
     /home/pragov/projects/rrg-bengioy-ad/pragov/crystal_structure_design/SSSP/P.pbe-n-rrkjus_psl.1.0.0.UPF
     MD5 check sum: 8b930f418f0a4573dca56cd030ffe088
     Pseudo is Ultrasoft + core correction, Zval =  5.0
     Generated using "atomic" code by A. Dal Corso  v.5.1
     Using radial grid of 1147 points,  6 beta functions with:
                l(1) =   0
                l(2) =   0
                l(3) =   1
                l(4) =   1
                l(5) =   2
                l(6) =   2
     Q(r) pseudized with 0 coefficients

     PseudoPot. # 3 for O  read from file:
     /home/pragov/projects/rrg-bengioy-ad/pragov/crystal_structure_design/SSSP/O.pbe-n-kjpaw_psl.0.1.UPF
     MD5 check sum: 0234752ac141de4415c5fc33072bef88
     Pseudo is Projector augmented-wave + core cor, Zval =  6.0
     Generated using "atomic" code by A. Dal Corso  v.5.0.99 svn rev. 10869
     Shape of augmentation charge: BESSEL
     Using radial grid of 1095 points,  4 beta functions with:
                l(1) =   0
                l(2) =   0
                l(3) =   1
                l(4) =   1
     Q(r) pseudized with 0 coefficients

     atomic species   valence    mass     pseudopotential
        Ni            18.00    58.69340     Ni( 1.00)
        P              5.00    30.97376     P ( 1.00)
        O              6.00    15.99900     O ( 1.00)

     No symmetry found

                                    s                        frac. trans.

      isym =  1     identity

 cryst.   s( 1) = (     1          0          0      )
                  (     0          1          0      )
                  (     0          0          1      )

 cart.    s( 1) = (  1.0000000  0.0000000 -0.0000000 )
                  (  0.0000000  1.0000000  0.0000000 )
                  (  0.0000000  0.0000000  1.0000000 )

   Cartesian axes

     site n.     atom                  positions (alat units)
         1           Ni  tau(   1) = (   0.2496833   0.6140868   0.0000411  )
         2           Ni  tau(   2) = (   0.4997669   0.2037218   0.4566140  )
         3           Ni  tau(   3) = (  -0.0001496   0.2037251   0.4566131  )
         4           Ni  tau(   4) = (   0.2494922   0.8177535   0.4566031  )
         5           P   tau(   5) = (  -0.2505865   0.9720305   0.1140910  )
         6           P   tau(   6) = (   0.7495704   0.6635501   0.7991563  )
         7           O   tau(   7) = (   0.7499149   0.2139287   0.1707506  )
         8           O   tau(   8) = (  -0.0075280   0.8310230   0.1769579  )
         9           O   tau(   9) = (   0.2494007   0.4596993   0.3421980  )
        10           O   tau(  10) = (   0.5064806   0.8308607   0.1770319  )
        11           O   tau(  11) = (  -0.2507364   1.2120498   0.2731693  )
        12           O   tau(  12) = (   0.7497209   0.4234934   0.6400907  )
        13           O   tau(  13) = (   0.5065104   0.8045932   0.7362729  )
        14           O   tau(  14) = (  -0.0074951   0.8047551   0.7361980  )
        15           O   tau(  15) = (   0.2495807   1.1758838   0.5710465  )
        16           O   tau(  16) = (  -0.2509314   1.4216162   0.7425131  )

   Crystallographic axes

     site n.     atom                  positions (cryst. coord.)
         1           Ni  tau(   1) = (  0.4999920  0.4999830  0.0000450  )
         2           Ni  tau(   2) = (  0.4999680  0.0000200  0.4999900  )
         3           Ni  tau(   3) = (  0.0000530  0.0000230  0.4999890  )
         4           Ni  tau(   4) = (  0.4999890  0.4999770  0.4999780  )
         5           P   tau(   5) = (  0.1249370  0.7500000  0.1249290  )
         6           P   tau(   6) = (  0.8750630  0.2499990  0.8750720  )
         7           O   tau(   7) = (  0.8061390  0.1121630  0.1869710  )
         8           O   tau(   8) = (  0.2991120  0.6123550  0.1937680  )
         9           O   tau(   9) = (  0.3747020  0.2499990  0.3747050  )
        10           O   tau(  10) = (  0.8130410  0.6121960  0.1938490  )
        11           O   tau(  11) = (  0.1937640  0.8876460  0.2991190  )
        12           O   tau(  12) = (  0.8062190  0.1123180  0.7008960  )
        13           O   tau(  13) = (  0.7009040  0.3876790  0.8062150  )
        14           O   tau(  14) = (  0.1869780  0.3878380  0.8061330  )
        15           O   tau(  15) = (  0.6252970  0.7500030  0.6252930  )
        16           O   tau(  16) = (  0.1938430  0.8878010  0.8130480  )

     number of k points=     1  Methfessel-Paxton smearing, width (Ry)=  0.0010
                       cart. coord. in units 2pi/alat
        k(    1) = (   0.0000000   0.0000000   0.0000000), wk =   2.0000000

                       cryst. coord.
        k(    1) = (   0.0000000   0.0000000   0.0000000), wk =   2.0000000

     Check: negative core charge=   -0.000016

     Initial potential from superposition of free atoms

     starting charge     133.9997, renormalised to     142.0000
     Starting wfcs are  100 randomized atomic wfcs
     Checking if some PAW data can be deallocated...

     Self-consistent Calculation

     iteration #  1     ecut=    30.00 Ry     beta= 0.70
     Davidson diagonalization with overlap

     ethr =  1.00E-02,  avg # of iterations =  4.0

     total energy              =   -1753.27596324 Ry
     estimated scf accuracy    <      86.46716920 Ry

[...]

     total energy              =   -1816.67166771 Ry
     estimated scf accuracy    <       0.00000464 Ry

     iteration # 31     ecut=    30.00 Ry     beta= 0.70
     Davidson diagonalization with overlap

     ethr =  3.27E-09,  avg # of iterations =  1.0

     End of self-consistent calculation

          k = 0.0000 0.0000 0.0000 (  1626 PWs)   bands (ev):

   -95.6660 -95.6612 -95.6591 -95.6562 -56.1256 -56.1198 -56.0926 -56.0925
   -56.0114 -56.0070 -56.0040 -56.0034 -55.8470 -55.8335 -55.8233 -55.8230
   -14.1960 -13.8898 -11.6339 -11.6329 -11.6217 -11.5284 -11.5274 -11.3775
   -10.4004 -10.1145  -2.3956  -1.6753  -0.4629   0.3829   0.3843   0.5447
     1.3115   1.3133   1.7967   2.6914   2.6930   2.7895   3.0404   3.4428
     3.4442   3.5452   3.6550   3.7313   3.9061   4.0244   4.0253   4.2793
     4.7796   5.1263   5.1268   5.5875   5.5878   5.6284   5.7292   6.0638
     6.0643   6.2944   6.4516   6.6965   6.7353   6.7355   6.7932   6.7940
     6.9823   7.0502   7.3547   7.3549   7.4142   7.9328   8.2158   8.2159
     8.8313   8.8314   8.8810   9.3171  11.9554  14.9639  15.0583  15.5928
    15.5930  15.6877  16.6705  17.1571  17.1629

     occupation numbers
     1.0000   1.0000   1.0000   1.0000   1.0000   1.0000   1.0000   1.0000
     1.0000   1.0000   1.0000   1.0000   1.0000   1.0000   1.0000   1.0000
     1.0000   1.0000   1.0000   1.0000   1.0000   1.0000   1.0000   1.0000
     1.0000   1.0000   1.0000   1.0000   1.0000   1.0000   1.0000   1.0000
     1.0000   1.0000   1.0000   1.0000   1.0000   1.0000   1.0000   1.0000
     1.0000   1.0000   1.0000   1.0000   1.0000   1.0000   1.0000   1.0000
     1.0000   1.0000   1.0000   1.0000   1.0000   1.0000   1.0000   1.0000
     1.0000   1.0000   1.0000   1.0000   1.0000   1.0000   1.0000   1.0000
     1.0000   1.0000   1.0000   1.0000   1.0000   1.0000   0.5046   0.4954
    -0.0000  -0.0000  -0.0000  -0.0000  -0.0000  -0.0000  -0.0000  -0.0000
    -0.0000  -0.0000  -0.0000  -0.0000  -0.0000

     the Fermi energy is     8.2159 ev

!    total energy              =   -1816.67166960 Ry
     estimated scf accuracy    <       0.00000008 Ry
     smearing contrib. (-TS)   =      -0.00056414 Ry
     internal energy E=F+TS    =   -1816.67110546 Ry

     The total energy is F=E-TS. E is the sum of the following terms:
     one-electron contribution =   -1333.41420135 Ry
     hartree contribution      =     735.58034191 Ry
     xc contribution           =    -225.30670591 Ry
     ewald contribution        =    -898.35027884 Ry
     one-center paw contrib.   =     -95.18026127 Ry
      -> PAW hartree energy AE =     303.54528541 Ry
      -> PAW hartree energy PS =    -302.45866460 Ry
      -> PAW xc energy AE      =    -172.79474261 Ry
      -> PAW xc energy PS      =      76.52786052 Ry
      -> total E_H with PAW    =     736.66696273 Ry
      -> total E_XC with PAW   =    -321.57358800 Ry

     convergence has been achieved in  31 iterations

     Forces acting on atoms (cartesian axes, Ry/au):

     atom    1 type  1   force =     0.00000683    0.00003232   -0.00033049
     atom    2 type  1   force =     0.00031415   -0.00015473    0.00006924
     atom    3 type  1   force =    -0.00032246   -0.00017226    0.00007067
     atom    4 type  1   force =     0.00001050    0.00027659    0.00017601
     atom    5 type  2   force =     0.00037326    0.00015324    0.00040170
     atom    6 type  2   force =    -0.00037127   -0.00016484   -0.00041491
     atom    7 type  3   force =     0.00001883    0.01256631    0.01058622
     atom    8 type  3   force =     0.01472543    0.00670390   -0.00273764
     atom    9 type  3   force =     0.00056127    0.00022857    0.00052048
     atom   10 type  3   force =    -0.01490061    0.00639139   -0.00290040
     atom   11 type  3   force =     0.00023920   -0.00059582    0.01639336
     atom   12 type  3   force =    -0.00024835    0.00081680   -0.01631852
     atom   13 type  3   force =    -0.01457622   -0.00685005    0.00280877
     atom   14 type  3   force =     0.01474492   -0.00653887    0.00297218
     atom   15 type  3   force =    -0.00055263   -0.00021879   -0.00051970
     atom   16 type  3   force =    -0.00002284   -0.01247378   -0.01077696
     The non-local contrib.  to forces
     atom    1 type  1   force =     0.00001029   -0.00002040    0.00014445
     atom    2 type  1   force =    -0.00015443    0.00006519   -0.00002564
     atom    3 type  1   force =     0.00015473    0.00003881   -0.00002110
     atom    4 type  1   force =     0.00001585   -0.00010677   -0.00009437
     atom    5 type  2   force =    -0.00016259   -0.00004337   -0.00009629
     atom    6 type  2   force =     0.00016750    0.00003955    0.00008309
     atom    7 type  3   force =     0.00094291    0.21400345   -1.18129701
     atom    8 type  3   force =    -0.99452457    0.61642163   -0.27347658
     atom    9 type  3   force =    -0.00075283   -0.00029264   -0.00046844
     atom   10 type  3   force =     0.99165970    0.61664629   -0.27597348
     atom   11 type  3   force =     0.00202739   -1.02077426   -0.63335524
     atom   12 type  3   force =    -0.00201652    1.02171881    0.63289455
     atom   13 type  3   force =     0.99443222   -0.61734610    0.27385291
     atom   14 type  3   force =    -0.99157149   -0.61757848    0.27636667
     atom   15 type  3   force =     0.00073875    0.00023902    0.00052098
     atom   16 type  3   force =    -0.00092380   -0.21301538    1.18088301
     The ionic contribution  to forces
     atom    1 type  1   force =     0.00009783   -0.00060685   -0.02318956
     atom    2 type  1   force =     0.02453984   -0.00797444    0.00335093
     atom    3 type  1   force =    -0.02471063   -0.00831138    0.00340796
     atom    4 type  1   force =     0.00019437    0.01675381    0.01589110
     atom    5 type  2   force =     0.00744522    0.00265664    0.00613699
     atom    6 type  2   force =    -0.00748395   -0.00278918   -0.00604936
     atom    7 type  3   force =    -0.01496436   -0.74608063   -9.68739369
     atom    8 type  3   force =    -9.12920018    2.98763608   -1.33370274
     atom    9 type  3   force =     0.01375249    0.00546273    0.00971347
     atom   10 type  3   force =     9.15210151    2.99507013   -1.31594451
     atom   11 type  3   force =     0.00252628   -6.70903890   -7.00528559
     atom   12 type  3   force =    -0.00281640    6.70386627    7.00713365
     atom   13 type  3   force =     9.12964109   -2.98292118    1.33206843
     atom   14 type  3   force =    -9.15249142   -2.99030269    1.31436172
     atom   15 type  3   force =    -0.01345736   -0.00451439   -0.01086655
     atom   16 type  3   force =     0.01482569    0.74109398    9.69036775
     The local contribution  to forces
     atom    1 type  1   force =    -0.00012828    0.00059481    0.02295066
     atom    2 type  1   force =    -0.02426958    0.00789368   -0.00332311
     atom    3 type  1   force =     0.02443526    0.00825989   -0.00338345
     atom    4 type  1   force =    -0.00023011   -0.01658626   -0.01573034
     atom    5 type  2   force =    -0.00691319   -0.00253885   -0.00563749
     atom    6 type  2   force =     0.00697143    0.00266085    0.00554779
     atom    7 type  3   force =     0.01404904    0.54636584   10.86946006
     atom    8 type  3   force =    10.13040123   -3.59248343    1.60222896
     atom    9 type  3   force =    -0.01245274   -0.00469318   -0.00889326
     atom   10 type  3   force =   -10.15064937   -3.60045402    1.58678390
     atom   11 type  3   force =    -0.00428887    7.72079992    7.64969010
     atom   12 type  3   force =     0.00457138   -7.71631189   -7.65102137
     atom   13 type  3   force =   -10.13060280    3.58850125   -1.60088035
     atom   14 type  3   force =    10.15080339    3.59643016   -1.58550567
     atom   15 type  3   force =     0.01217522    0.00380319    0.00999713
     atom   16 type  3   force =    -0.01392518   -0.54223340  -10.87221965
     The core correction contribution to forces
     atom    1 type  1   force =    -0.00000007    0.00000070   -0.00000255
     atom    2 type  1   force =     0.00000242   -0.00000169    0.00000057
     atom    3 type  1   force =    -0.00000248   -0.00000171    0.00000062
     atom    4 type  1   force =    -0.00000015    0.00000252    0.00000095
     atom    5 type  2   force =     0.00000937    0.00000218    0.00000553
     atom    6 type  2   force =    -0.00000949   -0.00000153   -0.00000458
     atom    7 type  3   force =    -0.00000996   -0.00167771    0.00965750
     atom    8 type  3   force =     0.00816396   -0.00497839    0.00220250
     atom    9 type  3   force =     0.00000452    0.00000160    0.00000191
     atom   10 type  3   force =    -0.00813517   -0.00497610    0.00222999
     atom   11 type  3   force =    -0.00002257    0.00829507    0.00523628
     atom   12 type  3   force =     0.00002247   -0.00830812   -0.00523254
     atom   13 type  3   force =    -0.00816513    0.00499011   -0.00220736
     atom   14 type  3   force =     0.00813641    0.00498794   -0.00223507
     atom   15 type  3   force =    -0.00000440   -0.00000113   -0.00000237
     atom   16 type  3   force =     0.00000973    0.00166616   -0.00965036
     The Hubbard contrib.    to forces
     atom    1 type  1   force =     0.00000000    0.00000000    0.00000000
     atom    2 type  1   force =     0.00000000    0.00000000    0.00000000
     atom    3 type  1   force =     0.00000000    0.00000000    0.00000000
     atom    4 type  1   force =     0.00000000    0.00000000    0.00000000
     atom    5 type  2   force =     0.00000000    0.00000000    0.00000000
     atom    6 type  2   force =     0.00000000    0.00000000    0.00000000
     atom    7 type  3   force =     0.00000000    0.00000000    0.00000000
     atom    8 type  3   force =     0.00000000    0.00000000    0.00000000
     atom    9 type  3   force =     0.00000000    0.00000000    0.00000000
     atom   10 type  3   force =     0.00000000    0.00000000    0.00000000
     atom   11 type  3   force =     0.00000000    0.00000000    0.00000000
     atom   12 type  3   force =     0.00000000    0.00000000    0.00000000
     atom   13 type  3   force =     0.00000000    0.00000000    0.00000000
     atom   14 type  3   force =     0.00000000    0.00000000    0.00000000
     atom   15 type  3   force =     0.00000000    0.00000000    0.00000000
     atom   16 type  3   force =     0.00000000    0.00000000    0.00000000
     The SCF correction term to forces
     atom    1 type  1   force =     0.00002891    0.00006341   -0.00023332
     atom    2 type  1   force =     0.00019774   -0.00013812    0.00006665
     atom    3 type  1   force =    -0.00019751   -0.00015852    0.00006680
     atom    4 type  1   force =     0.00003239    0.00021264    0.00010884
     atom    5 type  2   force =    -0.00000372    0.00007600   -0.00000686
     atom    6 type  2   force =    -0.00001492   -0.00007517    0.00000832
     atom    7 type  3   force =     0.00000303   -0.00004530    0.00015952
     atom    8 type  3   force =    -0.00011317    0.00010737    0.00001038
     atom    9 type  3   force =     0.00001167   -0.00025058    0.00016696
     atom   10 type  3   force =     0.00012456    0.00010445    0.00000387
     atom   11 type  3   force =    -0.00000119    0.00012171    0.00010799
     atom   12 type  3   force =    -0.00000744   -0.00014891   -0.00009264
     atom   13 type  3   force =     0.00012025   -0.00007477   -0.00002470
     atom   14 type  3   force =    -0.00013014   -0.00007644   -0.00001530
     atom   15 type  3   force =    -0.00000300    0.00025388   -0.00016872
     atom   16 type  3   force =    -0.00000744    0.00001422   -0.00015755

     Total force =     0.046445     Total SCF correction =     0.000805

     Computing stress (Cartesian axis) and pressure

          total   stress  (Ry/bohr**3)                   (kbar)     P=     -970.41
  -0.00645247   0.00001150   0.00000260         -949.19        1.69        0.38
   0.00001150  -0.00681930   0.00015580            1.69    -1003.15       22.92
   0.00000260   0.00015580  -0.00651847            0.38       22.92     -958.90

     kinetic stress (kbar)  30901.12     -1.04     -0.33
                               -1.04  31371.56   -209.01
                               -0.33   -209.01  30993.93

     local   stress (kbar) -32862.61    -50.54     23.41
                              -50.54 -15576.83  -7658.27
                               23.41  -7658.27 -29469.46

     nonloc. stress (kbar)   9623.48      0.45      0.00
                                0.45   9561.38     27.39
                                0.00     27.39   9611.40

     hartree stress (kbar)  33316.06     19.79    -10.19
                               19.79  26975.17   2807.79
                              -10.19   2807.79  32073.04

     exc-cor stress (kbar)  -7181.47      0.03     -0.02
                                0.03  -7191.02      4.23
                               -0.02      4.23  -7183.34

     corecor stress (kbar)  -1691.23      0.00      0.00
                                0.00  -1688.93     -1.02
                                0.00     -1.02  -1690.77

     ewald   stress (kbar) -33054.55     33.00    -12.49
                               33.00 -44454.47   5051.82
                              -12.49   5051.82 -35293.69

     hubbard stress (kbar)      0.00      0.00      0.00
                                0.00      0.00      0.00
                                0.00      0.00      0.00

     DFT-D   stress (kbar)      0.00      0.00      0.00
                                0.00      0.00      0.00
                                0.00      0.00      0.00

     XDM     stress (kbar)      0.00      0.00      0.00
                                0.00      0.00      0.00
                                0.00      0.00      0.00

     dft-nl  stress (kbar)      0.00      0.00      0.00
                                0.00      0.00      0.00
                                0.00      0.00      0.00

     TS-vdW  stress (kbar)      0.00      0.00      0.00
                                0.00      0.00      0.00
                                0.00      0.00      0.00

[...]

                                0.00      0.00      0.00

     Writing all to output data dir new_calculations/myprefix.save/

     General routines

     Parallel routines

     PAW routines

   This run was terminated on:   2: 4: 0  21May2023

   JOB DONE.