     Program PWSCF v.7.0 starts on 20May2023 at 18:52:28

     Reading input from espresso_10600.pwi
Warning: card &CELL ignored
Warning: card / ignored

     Current dimensions of program PWSCF are:
     Max number of different atomic species (ntypx) = 10
     Max number of k-points (npk) =  40000
     Max angular momentum in pseudopotentials (lmaxx) =  4

     gamma-point specific algorithms are used
     Message from routine setup:
     using ibrav=0 with symmetry is DISCOURAGED, use correct ibrav instead

     Subspace diagonalization in iterative solution of the eigenvalue problem:
     a serial algorithm will be used

     Using Slab Decomposition

     bravais-lattice index     =            0
     lattice parameter (alat)  =      19.0017  a.u.
     unit-cell volume          =    1578.9208 (a.u.)^3
     number of atoms/cell      =           17
     number of atomic types    =            3
     number of electrons       =       179.00
     number of Kohn-Sham states=          108
     kinetic-energy cutoff     =      30.0000  Ry
     charge density cutoff     =     240.0000  Ry
     scf convergence threshold =      1.0E-06
     mixing beta               =       0.7000
     number of iterations used =            8  plain     mixing
     Exchange-correlation= SLA  PW   PBE  PBE
                           (   1   4   3   4   0   0   0)

     celldm(1)=  19.001730  celldm(2)=   0.000000  celldm(3)=   0.000000
     celldm(4)=   0.000000  celldm(5)=   0.000000  celldm(6)=   0.000000

     crystal axes: (cart. coord. in units of alat)
               a(1) = (   1.000000   0.000000   0.000000 )
               a(2) = (   0.773109   0.500893   0.000000 )
               a(3) = (   0.226891  -0.199503   0.459448 )

     reciprocal axes: (cart. coord. in units 2 pi/alat)
               b(1) = (  1.000000 -1.543461 -1.164042 )
               b(2) = (  0.000000  1.996435  0.866899 )
               b(3) = (  0.000000  0.000000  2.176526 )

     PseudoPot. # 1 for Y  read from file:
     /home/pragov/projects/rrg-bengioy-ad/pragov/crystal_structure_design/SSSP/Y_pbe_v1.uspp.F.UPF
     MD5 check sum: 2cf71db95cafeb975fc457bd7f14888e
     Pseudo is Ultrasoft + core correction, Zval = 11.0
     Generated by new atomic code, or converted to UPF format
     Using radial grid of  885 points,  6 beta functions with:
                l(1) =   0
                l(2) =   0
                l(3) =   1
                l(4) =   1
                l(5) =   2
                l(6) =   2
     Q(r) pseudized with  6 coefficients,  rinner =    1.200   1.200   1.200
                                                       1.200   1.200

     PseudoPot. # 2 for B  read from file:
     /home/pragov/projects/rrg-bengioy-ad/pragov/crystal_structure_design/SSSP/b_pbe_v1.4.uspp.F.UPF
     MD5 check sum: cc6de2960df11db49a60e589f9ebb39b
     Pseudo is Ultrasoft + core correction, Zval =  3.0
     Generated by new atomic code, or converted to UPF format
     Using radial grid of  781 points,  4 beta functions with:
                l(1) =   0
                l(2) =   0
                l(3) =   1
                l(4) =   1
     Q(r) pseudized with  8 coefficients,  rinner =    1.100   1.100   1.100

     PseudoPot. # 3 for Os read from file:
     /home/pragov/projects/rrg-bengioy-ad/pragov/crystal_structure_design/SSSP/Os_pbe_v1.2.uspp.F.UPF
     MD5 check sum: a3fb40a04f0c37c25c34bbc47164c9a8
     Pseudo is Ultrasoft + core correction, Zval = 16.0
     Generated by new atomic code, or converted to UPF format
     Using radial grid of  983 points,  8 beta functions with:
                l(1) =   0
                l(2) =   0
                l(3) =   1
                l(4) =   1
                l(5) =   2
                l(6) =   2
                l(7) =   3
                l(8) =   3
     Q(r) pseudized with  8 coefficients,  rinner =    1.150   1.150   1.150
                                                       1.150   1.150   1.150
                                                       1.150

     atomic species   valence    mass     pseudopotential
        Y             11.00    88.90584     Y ( 1.00)
        B              3.00    10.81000     B ( 1.00)
        Os            16.00   190.23000     Os( 1.00)

      2 Sym. Ops., with inversion, found

                                    s                        frac. trans.

      isym =  1     identity

 cryst.   s( 1) = (     1          0          0      )
                  (     0          1          0      )
                  (     0          0          1      )

 cart.    s( 1) = (  1.0000000  0.0000000 -0.0000000 )
                  (  0.0000000  1.0000000 -0.0000000 )
                  (  0.0000000  0.0000000  1.0000000 )

      isym =  2     inversion

 cryst.   s( 2) = (    -1          0          0      )
                  (     0         -1          0      )
                  (     0          0         -1      )

 cart.    s( 2) = ( -1.0000000 -0.0000000  0.0000000 )
                  (  0.0000000 -1.0000000  0.0000000 )
                  (  0.0000000  0.0000000 -1.0000000 )

   Cartesian axes

     site n.     atom                  positions (alat units)
         1           Y   tau(   1) = (   0.0000000   0.0000000   0.0000000  )
         2           Y   tau(   2) = (   0.5047574  -0.0736370   0.3768817  )
         3           Y   tau(   3) = (   1.4952426   0.3750268   0.0825660  )
         4           B   tau(   4) = (   1.3384074   0.1692344   0.2175623  )
         5           B   tau(   5) = (   0.6615926   0.1321554   0.2418854  )
         6           B   tau(   6) = (   0.7965834  -0.0761977   0.3785615  )
         7           B   tau(   7) = (   1.0825789   0.0232375   0.3133337  )
         8           B   tau(   8) = (   1.2034166   0.3775874   0.0808862  )
         9           B   tau(   9) = (   0.9174211   0.2781522   0.1461140  )
        10           Os  tau(  10) = (   0.8766938   0.0948404   0.2663634  )
        11           Os  tau(  11) = (   1.2530227   0.1141681   0.4179733  )
        12           Os  tau(  12) = (   0.2530227  -0.0365268   0.1882495  )
        13           Os  tau(  13) = (   1.7469773   0.3379166   0.2711982  )
        14           Os  tau(  14) = (   1.1233062   0.2065494   0.1930843  )
        15           Os  tau(  15) = (   0.5000000   0.0753474   0.1148619  )
        16           Os  tau(  16) = (   0.7469773   0.1872217   0.0414743  )
        17           Os  tau(  17) = (   1.5000000   0.2260423   0.3445858  )

   Crystallographic axes

     site n.     atom                  positions (cryst. coord.)
         1           Y   tau(   1) = (  0.0000000  0.0000000  0.0000000  )
         2           Y   tau(   2) = (  0.1797070  0.1797070  0.8202930  )
         3           Y   tau(   3) = (  0.8202930  0.8202930  0.1797070  )
         4           B   tau(   4) = (  0.8239490  0.5264700  0.4735300  )
         5           B   tau(   5) = (  0.1760510  0.4735300  0.5264700  )
         6           B   tau(   6) = (  0.4735300  0.1760510  0.8239490  )
         7           B   tau(   7) = (  0.6819790  0.3180210  0.6819790  )
         8           B   tau(   8) = (  0.5264700  0.8239490  0.1760510  )
         9           B   tau(   9) = (  0.3180210  0.6819790  0.3180210  )
        10           Os  tau(  10) = (  0.4202530  0.4202530  0.5797470  )
        11           Os  tau(  11) = (  0.5902700  0.5902700  0.9097300  )
        12           Os  tau(  12) = (  0.0902700  0.0902700  0.4097300  )
        13           Os  tau(  13) = (  0.9097300  0.9097300  0.5902700  )
        14           Os  tau(  14) = (  0.5797470  0.5797470  0.4202530  )
        15           Os  tau(  15) = (  0.2500000  0.2500000  0.2500000  )
        16           Os  tau(  16) = (  0.4097300  0.4097300  0.0902700  )
        17           Os  tau(  17) = (  0.7500000  0.7500000  0.7500000  )

     number of k points=     1  Methfessel-Paxton smearing, width (Ry)=  0.0010
                       cart. coord. in units 2pi/alat
        k(    1) = (   0.0000000   0.0000000   0.0000000), wk =   2.0000000

                       cryst. coord.
        k(    1) = (   0.0000000   0.0000000   0.0000000), wk =   2.0000000

     Check: negative core charge=   -0.000003

     Initial potential from superposition of free atoms

     starting charge     174.9846, renormalised to     179.0000

     negative rho (up, down):  1.152E+00 0.000E+00
     Starting wfcs are  167 randomized atomic wfcs

     Self-consistent Calculation

     iteration #  1     ecut=    30.00 Ry     beta= 0.70
     Davidson diagonalization with overlap

     ethr =  1.00E-02,  avg # of iterations =  2.0

     negative rho (up, down):  1.178E+00 0.000E+00

     total energy              =   -1886.53205576 Ry
     estimated scf accuracy    <       4.50522843 Ry

[...]

     total energy              =   -1888.94863919 Ry
     estimated scf accuracy    <       0.00003353 Ry

     iteration # 20     ecut=    30.00 Ry     beta= 0.70
     Davidson diagonalization with overlap

     ethr =  1.87E-08,  avg # of iterations =  2.0

[...]

     End of self-consistent calculation

          k = 0.0000 0.0000 0.0000 (  2170 PWs)   bands (ev):

   -68.1742 -68.1724 -68.1459 -68.1444 -68.0374 -68.0280 -67.6828 -67.6565
   -28.1162 -28.1071 -27.7326 -27.7229 -27.7109 -27.6555 -27.6481 -27.6166
   -27.5686 -27.5523 -27.5353 -27.4362 -27.3485 -27.2979 -27.2543 -27.2008
   -27.1877 -27.1506 -27.1441 -27.0176 -27.0095 -26.9470 -26.7300 -26.6775
   -23.5402 -23.5171 -23.3695  -4.0045  -3.7894  -3.6906  -3.5918  -3.5022
    -3.4763  -3.4453  -3.3536  -3.3534   6.6945   8.3318   9.0714   9.2353
    10.4473  11.0974  11.4362  11.5839  11.7423  12.2357  12.2720  13.0165
    13.0205  13.1387  13.1601  13.4160  13.7331  13.7946  13.9935  14.0799
    14.3067  14.3310  14.6352  14.8000  14.8698  14.8816  15.4144  15.4820
    15.7032  16.4226  16.5074  16.6831  16.7607  16.7897  17.0470  17.1798
    17.3880  17.4427  17.4640  17.5723  17.7972  17.8711  17.8860  17.9078
    18.3015  18.3569  18.4036  18.4273  18.5066  18.5112  18.7846  19.1377
    20.0223  20.0452  20.1835  20.6000  20.6733  20.6798  21.4582  21.5322
    21.6967  21.7451  22.6231  22.8937

     occupation numbers
     1.0000   1.0000   1.0000   1.0000   1.0000   1.0000   1.0000   1.0000
     1.0000   1.0000   1.0000   1.0000   1.0000   1.0000   1.0000   1.0000
     1.0000   1.0000   1.0000   1.0000   1.0000   1.0000   1.0000   1.0000
     1.0000   1.0000   1.0000   1.0000   1.0000   1.0000   1.0000   1.0000
     1.0000   1.0000   1.0000   1.0000   1.0000   1.0000   1.0000   1.0000
     1.0000   1.0000   1.0000   1.0000   1.0000   1.0000   1.0000   1.0000
     1.0000   1.0000   1.0000   1.0000   1.0000   1.0000   1.0000   1.0000
     1.0000   1.0000   1.0000   1.0000   1.0000   1.0000   1.0000   1.0000
     1.0000   1.0000   1.0000   1.0000   1.0000   1.0000   1.0000   1.0000
     1.0000   1.0000   1.0000   1.0000   1.0000   1.0000   1.0000   1.0000
     1.0000   1.0000   1.0000   1.0000   1.0000   1.0000   1.0000   1.0000
     1.0000   0.5000  -0.0000  -0.0000  -0.0000  -0.0000  -0.0000  -0.0000
    -0.0000  -0.0000  -0.0000  -0.0000  -0.0000  -0.0000  -0.0000  -0.0000
    -0.0000  -0.0000  -0.0000  -0.0000

     the Fermi energy is    18.3569 ev

!    total energy              =   -1888.94864239 Ry
     estimated scf accuracy    <       0.00000069 Ry
     smearing contrib. (-TS)   =      -0.00028205 Ry
     internal energy E=F+TS    =   -1888.94836034 Ry

     The total energy is F=E-TS. E is the sum of the following terms:
     one-electron contribution =    -455.90911751 Ry
     hartree contribution      =     321.47825536 Ry
     xc contribution           =    -383.88840879 Ry
     ewald contribution        =   -1370.62908940 Ry

     convergence has been achieved in  20 iterations

     negative rho (up, down):  1.120E+00 0.000E+00

     Forces acting on atoms (cartesian axes, Ry/au):

     atom    1 type  1   force =     0.00000000    0.00000000    0.00000000
     atom    2 type  1   force =     0.02375419    0.01075857   -0.00705949
     atom    3 type  1   force =    -0.02375419   -0.01075857    0.00705949
     atom    4 type  2   force =     0.01989765    0.01173165   -0.00768936
     atom    5 type  2   force =    -0.01989765   -0.01173165    0.00768936
     atom    6 type  2   force =    -0.02260890   -0.00752352    0.00494609
     atom    7 type  2   force =    -0.01640439    0.02531915   -0.01660883
     atom    8 type  2   force =     0.02260890    0.00752352   -0.00494609
     atom    9 type  2   force =     0.01640439   -0.02531915    0.01660883
     atom   10 type  3   force =     0.17525098    0.07937277   -0.05207884
     atom   11 type  3   force =     0.04268332    0.01933078   -0.01268251
     atom   12 type  3   force =     0.04268358    0.01933129   -0.01268311
     atom   13 type  3   force =    -0.04268358   -0.01933129    0.01268311
     atom   14 type  3   force =    -0.17525098   -0.07937277    0.05207884
     atom   15 type  3   force =    -0.00000793   -0.00000293    0.00000066
     atom   16 type  3   force =    -0.04268332   -0.01933078    0.01268251
     atom   17 type  3   force =     0.00000793    0.00000293   -0.00000066
     The non-local contrib.  to forces
     atom    1 type  1   force =     0.00000000    0.00000000    0.00000000
     atom    2 type  1   force =    -0.01694186   -0.00767416    0.00503241
     atom    3 type  1   force =     0.01694186    0.00767416   -0.00503241
     atom    4 type  2   force =    -0.01608230   -0.02865746    0.01880179
     atom    5 type  2   force =     0.01608230    0.02865746   -0.01880179
     atom    6 type  2   force =     0.03751237   -0.00437912    0.00287092
     atom    7 type  2   force =     0.00695126   -0.01071050    0.00703013
     atom    8 type  2   force =    -0.03751237    0.00437912   -0.00287092
     atom    9 type  2   force =    -0.00695126    0.01071050   -0.00703013
     atom   10 type  3   force =     0.52445635    0.23755236   -0.15584419
     atom   11 type  3   force =     0.11639298    0.05271645   -0.03458319
     atom   12 type  3   force =     0.11638368    0.05271398   -0.03458437
     atom   13 type  3   force =    -0.11638368   -0.05271398    0.03458437
     atom   14 type  3   force =    -0.52445635   -0.23755236    0.15584419
     atom   15 type  3   force =     0.00000013   -0.00000122   -0.00000078
     atom   16 type  3   force =    -0.11639298   -0.05271645    0.03458319
     atom   17 type  3   force =    -0.00000013    0.00000122    0.00000078
     The ionic contribution  to forces
     atom    1 type  1   force =    -0.00000000   -0.00000000   -0.00000000
     atom    2 type  1   force =     4.06498895    1.84133343   -1.20788307
     atom    3 type  1   force =    -4.06498895   -1.84133344    1.20788307
     atom    4 type  2   force =     0.50901766    3.66284270   -2.40276184
     atom    5 type  2   force =    -0.50901766   -3.66284270    2.40276184
     atom    6 type  2   force =    -3.94741772    1.64419430   -1.07856320
     atom    7 type  2   force =     0.32018450   -0.49419235    0.32418168
     atom    8 type  2   force =     3.94741772   -1.64419430    1.07856320
     atom    9 type  2   force =    -0.32018450    0.49419235   -0.32418169
     atom   10 type  3   force =    -8.15432842   -3.69369701    2.42300174
     atom   11 type  3   force =     2.87977526    1.30446270   -0.85570510
     atom   12 type  3   force =     2.87977526    1.30446271   -0.85570510
     atom   13 type  3   force =    -2.87977526   -1.30446271    0.85570511
     atom   14 type  3   force =     8.15432842    3.69369701   -2.42300174
     atom   15 type  3   force =    -0.00000000    0.00000000   -0.00000000
     atom   16 type  3   force =    -2.87977526   -1.30446270    0.85570510
     atom   17 type  3   force =     0.00000000   -0.00000000    0.00000000
     The local contribution  to forces
     atom    1 type  1   force =    -0.00008412   -0.00004119    0.00002811
     atom    2 type  1   force =    -4.02477287   -1.82312656    1.19592815
     atom    3 type  1   force =     4.02498789    1.82321346   -1.19599276
     atom    4 type  2   force =    -0.47455685   -3.62143461    2.37567697
     atom    5 type  2   force =     0.47465843    3.62153100   -2.37557367
     atom    6 type  2   force =     3.88721026   -1.64572093    1.07947548
     atom    7 type  2   force =    -0.34320922    0.52959134   -0.34742608
     atom    8 type  2   force =    -3.88713758    1.64570441   -1.07962811
     atom    9 type  2   force =     0.34309060   -0.52964712    0.34746063
     atom   10 type  3   force =     7.76378625    3.51678610   -2.30696585
     atom   11 type  3   force =    -2.96644829   -1.34372073    0.88146003
     atom   12 type  3   force =    -2.96667798   -1.34383960    0.88153634
     atom   13 type  3   force =     2.96616342    1.34360356   -0.88138252
     atom   14 type  3   force =    -7.76416317   -3.51694636    2.30707452
     atom   15 type  3   force =     0.00023933    0.00010487   -0.00007460
     atom   16 type  3   force =     2.96635305    1.34366882   -0.88142583
     atom   17 type  3   force =     0.00029008    0.00013772   -0.00008547
     The core correction contribution to forces
     atom    1 type  1   force =     0.00000276    0.00000114   -0.00000074
     atom    2 type  1   force =     0.00083328    0.00037703   -0.00024736
     atom    3 type  1   force =    -0.00083468   -0.00037825    0.00024809
     atom    4 type  2   force =     0.00144460   -0.00088277    0.00058287
     atom    5 type  2   force =    -0.00144338    0.00088239   -0.00058349
     atom    6 type  2   force =     0.00010098   -0.00149158    0.00099219
     atom    7 type  2   force =    -0.00054193    0.00082675   -0.00054209
     atom    8 type  2   force =    -0.00010041    0.00149291   -0.00099208
     atom    9 type  2   force =     0.00054127   -0.00082706    0.00054223
     atom   10 type  3   force =     0.04101378    0.01857786   -0.01218714
     atom   11 type  3   force =     0.01333713    0.00604108   -0.00396265
     atom   12 type  3   force =     0.01334092    0.00604293   -0.00396458
     atom   13 type  3   force =    -0.01334023   -0.00604257    0.00396417
     atom   14 type  3   force =    -0.04101745   -0.01857942    0.01218832
     atom   15 type  3   force =    -0.00000060   -0.00000093    0.00000002
     atom   16 type  3   force =    -0.01334516   -0.00604441    0.00396565
     atom   17 type  3   force =    -0.00000184   -0.00000118    0.00000034
     The Hubbard contrib.    to forces
     atom    1 type  1   force =     0.00000000    0.00000000    0.00000000
     atom    2 type  1   force =     0.00000000    0.00000000    0.00000000
     atom    3 type  1   force =     0.00000000    0.00000000    0.00000000
     atom    4 type  2   force =     0.00000000    0.00000000    0.00000000
     atom    5 type  2   force =     0.00000000    0.00000000    0.00000000
     atom    6 type  2   force =     0.00000000    0.00000000    0.00000000
     atom    7 type  2   force =     0.00000000    0.00000000    0.00000000
     atom    8 type  2   force =     0.00000000    0.00000000    0.00000000
     atom    9 type  2   force =     0.00000000    0.00000000    0.00000000
     atom   10 type  3   force =     0.00000000    0.00000000    0.00000000
     atom   11 type  3   force =     0.00000000    0.00000000    0.00000000
     atom   12 type  3   force =     0.00000000    0.00000000    0.00000000
     atom   13 type  3   force =     0.00000000    0.00000000    0.00000000
     atom   14 type  3   force =     0.00000000    0.00000000    0.00000000
     atom   15 type  3   force =     0.00000000    0.00000000    0.00000000
     atom   16 type  3   force =     0.00000000    0.00000000    0.00000000
     atom   17 type  3   force =     0.00000000    0.00000000    0.00000000
     The SCF correction term to forces
     atom    1 type  1   force =     0.00010300    0.00004790   -0.00003304
     atom    2 type  1   force =    -0.00034721   -0.00015150    0.00010930
     atom    3 type  1   force =     0.00014578    0.00006516   -0.00004758
     atom    4 type  2   force =     0.00007719   -0.00012948    0.00001122
     atom    5 type  2   force =    -0.00017471    0.00004691   -0.00011318
     atom    6 type  2   force =    -0.00000972   -0.00012887    0.00016866
     atom    7 type  2   force =     0.00021307   -0.00019587    0.00014688
     atom    8 type  2   force =    -0.00005337    0.00013869   -0.00002021
     atom    9 type  2   force =    -0.00008964    0.00025239   -0.00018284
     atom   10 type  3   force =     0.00033546    0.00016002   -0.00008680
     atom   11 type  3   force =    -0.00035476   -0.00016068    0.00010002
     atom   12 type  3   force =    -0.00013751   -0.00004932    0.00003435
     atom   13 type  3   force =     0.00065294    0.00028380   -0.00018828
     atom   14 type  3   force =     0.00007000    0.00001491   -0.00002986
     atom   15 type  3   force =    -0.00022236   -0.00009074    0.00007143
     atom   16 type  3   force =     0.00049604    0.00023202   -0.00015398
     atom   17 type  3   force =    -0.00025576   -0.00011990    0.00007910

     Total force =     0.308346     Total SCF correction =     0.001376

     Computing stress (Cartesian axis) and pressure

     negative rho (up, down):  1.120E+00 0.000E+00
          total   stress  (Ry/bohr**3)                   (kbar)     P=      -25.43
  -0.00090010  -0.00057746   0.00037878         -132.41      -84.95       55.72
  -0.00057746   0.00011504   0.00017449          -84.95       16.92       25.67
   0.00037878   0.00017449   0.00026652           55.72       25.67       39.21

     kinetic stress (kbar)  36560.65   -430.65    282.50
                             -430.65  37116.31   -176.89
                              282.50   -176.89  36962.69

     local   stress (kbar)  29926.99  -2345.97   1538.92
                            -2345.97  30058.88  -5376.98
                             1538.92  -5376.98  25389.28

     nonloc. stress (kbar) -24017.05    106.19    -69.66
                              106.19 -24167.24     23.53
                              -69.66     23.53 -24146.82

     hartree stress (kbar)   9370.18    997.11   -654.09
                              997.11   9304.61   2270.89
                             -654.09   2270.89  11276.74

     exc-cor stress (kbar)   9149.29     -0.74      0.48
                               -0.74   9149.65     -1.20
                                0.48     -1.20   9148.61

     corecor stress (kbar) -17813.72      5.90     -3.87
                                5.90 -17823.08     -0.26
                               -3.87     -0.26 -17823.32

     ewald   stress (kbar) -43308.75   1583.21  -1038.56
                             1583.21 -43622.20   3286.59
                            -1038.56   3286.59 -40767.98

     hubbard stress (kbar)      0.00      0.00      0.00
                                0.00      0.00      0.00
                                0.00      0.00      0.00

     DFT-D   stress (kbar)      0.00      0.00      0.00
                                0.00      0.00      0.00
                                0.00      0.00      0.00

     XDM     stress (kbar)      0.00      0.00      0.00
                                0.00      0.00      0.00
                                0.00      0.00      0.00

     dft-nl  stress (kbar)      0.00      0.00      0.00
                                0.00      0.00      0.00
                                0.00      0.00      0.00

     TS-vdW  stress (kbar)      0.00      0.00      0.00
                                0.00      0.00      0.00
                                0.00      0.00      0.00

[...]

                                0.00      0.00      0.00

     Writing all to output data dir new_calculations/myprefix.save/

     General routines

     Parallel routines

   This run was terminated on:  18:53:25  20May2023

   JOB DONE.