     Program PWSCF v.7.0 starts on 21May2023 at  3:10:20

     Reading input from espresso_25275.pwi
Warning: card &CELL ignored
Warning: card / ignored

     Current dimensions of program PWSCF are:
     Max number of different atomic species (ntypx) = 10
     Max number of k-points (npk) =  40000
     Max angular momentum in pseudopotentials (lmaxx) =  4

     gamma-point specific algorithms are used
     Message from routine setup:
     using ibrav=0 with symmetry is DISCOURAGED, use correct ibrav instead

     Subspace diagonalization in iterative solution of the eigenvalue problem:
     a serial algorithm will be used

     Using Slab Decomposition

     bravais-lattice index     =            0
     lattice parameter (alat)  =      12.5422  a.u.
     unit-cell volume          =     529.1986 (a.u.)^3
     number of atoms/cell      =            4
     number of atomic types    =            3
     number of electrons       =        34.00
     number of Kohn-Sham states=           21
     kinetic-energy cutoff     =      30.0000  Ry
     charge density cutoff     =     240.0000  Ry
     scf convergence threshold =      1.0E-06
     mixing beta               =       0.7000
     number of iterations used =            8  plain     mixing
     Exchange-correlation=  SLA  PW   PBX  PBC
                           (   1   4   3   4   0   0   0)

     celldm(1)=  12.542221  celldm(2)=   0.000000  celldm(3)=   0.000000
     celldm(4)=   0.000000  celldm(5)=   0.000000  celldm(6)=   0.000000

     crystal axes: (cart. coord. in units of alat)
               a(1) = (   1.000000   0.000000   0.000000 )
               a(2) = (   0.835906   0.548872   0.000000 )
               a(3) = (   0.835906   0.249907   0.488679 )

     reciprocal axes: (cart. coord. in units 2 pi/alat)
               b(1) = (  1.000000 -1.522951 -0.931715 )
               b(2) = (  0.000000  1.821917 -0.931715 )
               b(3) = (  0.000000  0.000000  2.046332 )

     PseudoPot. # 1 for Y  read from file:
     /home/pragov/projects/rrg-bengioy-ad/pragov/crystal_structure_design/SSSP/Y_pbe_v1.uspp.F.UPF
     MD5 check sum: 2cf71db95cafeb975fc457bd7f14888e
     Pseudo is Ultrasoft + core correction, Zval = 11.0
     Generated by new atomic code, or converted to UPF format
     Using radial grid of  885 points,  6 beta functions with:
                l(1) =   0
                l(2) =   0
                l(3) =   1
                l(4) =   1
                l(5) =   2
                l(6) =   2
     Q(r) pseudized with  6 coefficients,  rinner =    1.200   1.200   1.200
                                                       1.200   1.200

     PseudoPot. # 2 for Sc read from file:
     /home/pragov/projects/rrg-bengioy-ad/pragov/crystal_structure_design/SSSP/Sc_ONCV_PBE-1.0.oncvpsp.upf
     MD5 check sum: e21af8023abb52e52cb7cd3133e4a229
     Pseudo is Norm-conserving, Zval = 11.0
     Generated using ONCVPSP code by D. R. Hamann
     Using radial grid of 1662 points,  6 beta functions with:
                l(1) =   0
                l(2) =   0
                l(3) =   1
                l(4) =   1
                l(5) =   2
                l(6) =   2

     PseudoPot. # 3 for S  read from file:
     /home/pragov/projects/rrg-bengioy-ad/pragov/crystal_structure_design/SSSP/s_pbe_v1.4.uspp.F.UPF
     MD5 check sum: 88d86576ff6df21479756cfb9bdac1df
     Pseudo is Ultrasoft + core correction, Zval =  6.0
     Generated by new atomic code, or converted to UPF format
     Using radial grid of  907 points,  6 beta functions with:
                l(1) =   0
                l(2) =   0
                l(3) =   1
                l(4) =   1
                l(5) =   2
                l(6) =   2
     Q(r) pseudized with  8 coefficients,  rinner =    1.300   1.300   1.300
                                                       1.300   1.300

     atomic species   valence    mass     pseudopotential
        Y             11.00    88.90584     Y ( 1.00)
        Sc            11.00    44.95591     Sc( 1.00)
        S              6.00    32.06000     S ( 1.00)

      2 Sym. Ops., with inversion, found

                                    s                        frac. trans.

      isym =  1     identity

 cryst.   s( 1) = (     1          0          0      )
                  (     0          1          0      )
                  (     0          0          1      )

 cart.    s( 1) = (  1.0000000 -0.0000000  0.0000000 )
                  (  0.0000000  1.0000000  0.0000000 )
                  (  0.0000000  0.0000000  1.0000000 )

      isym =  2     inversion

 cryst.   s( 2) = (    -1          0          0      )
                  (     0         -1          0      )
                  (     0          0         -1      )

 cart.    s( 2) = ( -1.0000000  0.0000000 -0.0000000 )
                  (  0.0000000 -1.0000000 -0.0000000 )
                  (  0.0000000  0.0000000 -1.0000000 )

   Cartesian axes

     site n.     atom                  positions (alat units)
         1           Y   tau(   1) = (   1.3359061   0.3993897   0.2443396  )
         2           Sc  tau(   2) = (   0.0000000   0.0000000   0.0000000  )
         3           S   tau(   3) = (   0.6839144   0.2044668   0.1250892  )
         4           S   tau(   4) = (   1.9878977   0.5943127   0.3635900  )

   Crystallographic axes

     site n.     atom                  positions (cryst. coord.)
         1           Y   tau(   1) = (  0.5000000  0.5000000  0.5000000  )
         2           Sc  tau(   2) = (  0.0000000  0.0000000  0.0000000  )
         3           S   tau(   3) = (  0.2559740  0.2559740  0.2559740  )
         4           S   tau(   4) = (  0.7440260  0.7440260  0.7440260  )

     number of k points=     1  Methfessel-Paxton smearing, width (Ry)=  0.0010
                       cart. coord. in units 2pi/alat
        k(    1) = (   0.0000000   0.0000000   0.0000000), wk =   2.0000000

                       cryst. coord.
        k(    1) = (   0.0000000   0.0000000   0.0000000), wk =   2.0000000

     Check: negative core charge=   -0.000004

     Initial potential from superposition of free atoms

     starting charge      33.9928, renormalised to      34.0000

     negative rho (up, down):  4.245E-02 0.000E+00
     Starting wfcs are   31 randomized atomic wfcs

     Self-consistent Calculation

     iteration #  1     ecut=    30.00 Ry     beta= 0.70
     Davidson diagonalization with overlap

     ethr =  1.00E-02,  avg # of iterations =  2.0

     negative rho (up, down):  4.161E-02 0.000E+00

     total energy              =    -227.33152486 Ry
     estimated scf accuracy    <       0.35550468 Ry

[...]

     total energy              =    -227.44980976 Ry
     estimated scf accuracy    <       0.00000884 Ry

     iteration #  9     ecut=    30.00 Ry     beta= 0.70
     Davidson diagonalization with overlap

     ethr =  2.60E-08,  avg # of iterations =  5.0

[...]

     End of self-consistent calculation

          k = 0.0000 0.0000 0.0000 (   728 PWs)   bands (ev):

   -38.4136 -31.1448 -17.0943 -17.0933 -16.8703 -11.2262 -11.1297 -11.1291
    -2.2957  -0.9220   5.5465   7.6416   7.6418   9.6148   9.6150   9.8083
    11.9855  12.1630  12.1631  12.8018  12.8024

     occupation numbers
     1.0000   1.0000   1.0000   1.0000   1.0000   1.0000   1.0000   1.0000
     1.0000   1.0000   1.0000   1.0000   1.0000   1.0000   1.0000   1.0000
     1.0000  -0.0000  -0.0000  -0.0000  -0.0000

     the Fermi energy is    12.0837 ev

!    total energy              =    -227.44981072 Ry
     estimated scf accuracy    <       0.00000078 Ry
     smearing contrib. (-TS)   =       0.00000000 Ry
     internal energy E=F+TS    =    -227.44981072 Ry

     The total energy is F=E-TS. E is the sum of the following terms:
     one-electron contribution =     -42.25365351 Ry
     hartree contribution      =      35.57767949 Ry
     xc contribution           =     -51.51276448 Ry
     ewald contribution        =    -169.26107222 Ry

     convergence has been achieved in   9 iterations

     negative rho (up, down):  4.139E-02 0.000E+00

     Forces acting on atoms (cartesian axes, Ry/au):

     atom    1 type  1   force =     0.00000000    0.00000000    0.00000000
     atom    2 type  2   force =     0.00000000    0.00000000    0.00000000
     atom    3 type  3   force =    -0.01118712   -0.00333127   -0.00205419
     atom    4 type  3   force =     0.01118712    0.00333127    0.00205419
     The non-local contrib.  to forces
     atom    1 type  1   force =     0.00000000    0.00000000    0.00000000
     atom    2 type  2   force =     0.00000000    0.00000000    0.00000000
     atom    3 type  3   force =    -0.07762655   -0.02324692   -0.01418950
     atom    4 type  3   force =     0.07762655    0.02324692    0.01418950
     The ionic contribution  to forces
     atom    1 type  1   force =    -0.00000000   -0.00000000    0.00000000
     atom    2 type  2   force =    -0.00000000    0.00000000    0.00000000
     atom    3 type  3   force =    -1.04761261   -0.31319995   -0.19161074
     atom    4 type  3   force =     1.04761261    0.31319995    0.19161074
     The local contribution  to forces
     atom    1 type  1   force =     0.00126438    0.00047447    0.00027427
     atom    2 type  2   force =    -0.00121478   -0.00036050   -0.00019510
     atom    3 type  3   force =     1.11005669    0.33209661    0.20320561
     atom    4 type  3   force =    -1.11039440   -0.33214362   -0.20321500
     The core correction contribution to forces
     atom    1 type  1   force =    -0.00000136    0.00001170   -0.00000286
     atom    2 type  2   force =     0.00000000    0.00000000    0.00000000
     atom    3 type  3   force =     0.00441909    0.00132678    0.00080760
     atom    4 type  3   force =    -0.00442310   -0.00132285   -0.00080618
     The Hubbard contrib.    to forces
     atom    1 type  1   force =     0.00000000    0.00000000    0.00000000
     atom    2 type  2   force =     0.00000000    0.00000000    0.00000000
     atom    3 type  3   force =     0.00000000    0.00000000    0.00000000
     atom    4 type  3   force =     0.00000000    0.00000000    0.00000000
     The SCF correction term to forces
     atom    1 type  1   force =    -0.00136962   -0.00043856   -0.00027522
     atom    2 type  2   force =     0.00144567    0.00038582    0.00025287
     atom    3 type  3   force =    -0.00046875   -0.00029012   -0.00024863
     atom    4 type  3   force =     0.00072045    0.00036854    0.00029365

     Total force =     0.016761     Total SCF correction =     0.002357
     SCF correction compared to forces is large: reduce conv_thr to get better values

     Computing stress (Cartesian axis) and pressure

     negative rho (up, down):  4.139E-02 0.000E+00
          total   stress  (Ry/bohr**3)                   (kbar)     P=      173.57
   0.00096573  -0.00010278  -0.00006112          142.06      -15.12       -8.99
  -0.00010278   0.00127387  -0.00001788          -15.12      187.39       -2.63
  -0.00006112  -0.00001788   0.00130013           -8.99       -2.63      191.26

     kinetic stress (kbar)  13475.44     78.50     48.31
                               78.50  13236.70     14.06
                               48.31     14.06  13221.25

     local   stress (kbar)  -1498.35     52.01     31.94
                               52.01  -1658.38     10.06
                               31.94     10.06  -1665.64

     nonloc. stress (kbar)   4183.74    -27.44    -16.82
                              -27.44   4267.07     -4.90
                              -16.82     -4.90   4272.39

     hartree stress (kbar)   3157.63    -66.30    -40.67
                              -66.30   3360.30    -12.36
                              -40.67    -12.36   3371.85

     exc-cor stress (kbar)   2204.59      1.92      1.17
                                1.92   2198.77      0.34
                                1.17      0.34   2198.38

     corecor stress (kbar)  -5585.59     -0.38     -0.24
                               -0.38  -5584.42     -0.07
                               -0.24     -0.07  -5584.33

     ewald   stress (kbar) -15795.40    -53.43    -32.69
                              -53.43 -15632.65     -9.77
                              -32.69     -9.77 -15622.65

     hubbard stress (kbar)      0.00      0.00      0.00
                                0.00      0.00      0.00
                                0.00      0.00      0.00

     DFT-D   stress (kbar)      0.00      0.00      0.00
                                0.00      0.00      0.00
                                0.00      0.00      0.00

     XDM     stress (kbar)      0.00      0.00      0.00
                                0.00      0.00      0.00
                                0.00      0.00      0.00

     dft-nl  stress (kbar)      0.00      0.00      0.00
                                0.00      0.00      0.00
                                0.00      0.00      0.00

     TS-vdW  stress (kbar)      0.00      0.00      0.00
                                0.00      0.00      0.00
                                0.00      0.00      0.00

[...]

                                0.00      0.00      0.00

     Writing all to output data dir new_calculations/myprefix.save/

     General routines

     Parallel routines

   This run was terminated on:   3:10:36  21May2023

   JOB DONE.