     Program PWSCF v.7.0 starts on 21May2023 at 16:19:57

     Reading input from espresso_23781.pwi
Warning: card &CELL ignored
Warning: card / ignored

     Current dimensions of program PWSCF are:
     Max number of different atomic species (ntypx) = 10
     Max number of k-points (npk) =  40000
     Max angular momentum in pseudopotentials (lmaxx) =  4
     file O.pbe-n-kjpaw_psl.0.1.UPF: wavefunction(s)  2P renormalized

     gamma-point specific algorithms are used
     Message from routine setup:
     using ibrav=0 with symmetry is DISCOURAGED, use correct ibrav instead

     Subspace diagonalization in iterative solution of the eigenvalue problem:
     a serial algorithm will be used

     Using Slab Decomposition

     bravais-lattice index     =            0
     lattice parameter (alat)  =      12.9468  a.u.
     unit-cell volume          =    1272.5153 (a.u.)^3
     number of atoms/cell      =           10
     number of atomic types    =            3
     number of electrons       =       116.00
     number of Kohn-Sham states=           70
     kinetic-energy cutoff     =      30.0000  Ry
     charge density cutoff     =     240.0000  Ry
     scf convergence threshold =      1.0E-06
     mixing beta               =       0.7000
     number of iterations used =            8  plain     mixing
     Exchange-correlation= SLA  PW   PBX  PBC
                           (   1   4   3   4   0   0   0)

     celldm(1)=  12.946824  celldm(2)=   0.000000  celldm(3)=   0.000000
     celldm(4)=   0.000000  celldm(5)=   0.000000  celldm(6)=   0.000000

     crystal axes: (cart. coord. in units of alat)
               a(1) = (   1.000000   0.000000   0.000000 )
               a(2) = (   0.527939   0.770797   0.000000 )
               a(3) = (   0.472061   0.124144   0.760734 )

     reciprocal axes: (cart. coord. in units 2 pi/alat)
               b(1) = (  1.000000 -0.684926 -0.508760 )
               b(2) = (  0.000000  1.297358 -0.211715 )
               b(3) = (  0.000000  0.000000  1.314519 )

     PseudoPot. # 1 for Cu read from file:
     /home/pragov/projects/rrg-bengioy-ad/pragov/crystal_structure_design/SSSP/Cu_pbe_v1.2.uspp.F.UPF
     MD5 check sum: 6e991ff952a84172a2a52a1c1e996048
     Pseudo is Ultrasoft + core correction, Zval = 19.0
     Generated by new atomic code, or converted to UPF format
     Using radial grid of  867 points,  6 beta functions with:
                l(1) =   0
                l(2) =   0
                l(3) =   1
                l(4) =   1
                l(5) =   2
                l(6) =   2
     Q(r) pseudized with  8 coefficients,  rinner =    1.150   1.150   1.150
                                                       1.150   1.150

     PseudoPot. # 2 for Cl read from file:
     /home/pragov/projects/rrg-bengioy-ad/pragov/crystal_structure_design/SSSP/cl_pbe_v1.4.uspp.F.UPF
     MD5 check sum: fc6f6913ecf08c9257cb748ef0700058
     Pseudo is Ultrasoft + core correction, Zval =  7.0
     Generated by new atomic code, or converted to UPF format
     Using radial grid of  909 points,  6 beta functions with:
                l(1) =   0
                l(2) =   0
                l(3) =   1
                l(4) =   1
                l(5) =   2
                l(6) =   2
     Q(r) pseudized with  8 coefficients,  rinner =    1.300   1.300   1.300
                                                       1.300   1.300

     PseudoPot. # 3 for O  read from file:
     /home/pragov/projects/rrg-bengioy-ad/pragov/crystal_structure_design/SSSP/O.pbe-n-kjpaw_psl.0.1.UPF
     MD5 check sum: 0234752ac141de4415c5fc33072bef88
     Pseudo is Projector augmented-wave + core cor, Zval =  6.0
     Generated using "atomic" code by A. Dal Corso  v.5.0.99 svn rev. 10869
     Shape of augmentation charge: BESSEL
     Using radial grid of 1095 points,  4 beta functions with:
                l(1) =   0
                l(2) =   0
                l(3) =   1
                l(4) =   1
     Q(r) pseudized with 0 coefficients

     atomic species   valence    mass     pseudopotential
        Cu            19.00    63.54600     Cu( 1.00)
        Cl             7.00    35.45000     Cl( 1.00)
        O              6.00    15.99900     O ( 1.00)

      2 Sym. Ops., with inversion, found ( 1 have fractional translation)

                                    s                        frac. trans.

      isym =  1     identity

 cryst.   s( 1) = (     1          0          0      )
                  (     0          1          0      )
                  (     0          0          1      )

 cart.    s( 1) = (  1.0000000  0.0000000 -0.0000000 )
                  (  0.0000000  1.0000000 -0.0000000 )
                  (  0.0000000  0.0000000  1.0000000 )

      isym =  2     inversion

 cryst.   s( 2) = (    -1          0          0      )    f =( -0.2500000 )
                  (     0         -1          0      )       ( -0.2500000 )
                  (     0          0         -1      )       ( -0.2500000 )

 cart.    s( 2) = ( -1.0000000 -0.0000000  0.0000000 )    f =( -0.5000000 )
                  (  0.0000000 -1.0000000  0.0000000 )       ( -0.2237353 )
                  (  0.0000000  0.0000000 -1.0000000 )       ( -0.1901836 )

   Cartesian axes

     site n.     atom                  positions (alat units)
         1           Cu  tau(   1) = (   0.5139697   0.4972663   0.0950918  )
         2           Cu  tau(   2) = (   0.4860303   0.1739396   0.4754590  )
         3           Cu  tau(   3) = (   0.2500000   0.1118677   0.0950918  )
         4           Cu  tau(   4) = (   0.7500000   0.1118677   0.0950918  )
         5           Cl  tau(   5) = (   0.7763100   0.3104758   0.5415303  )
         6           Cl  tau(   6) = (   1.2236900   0.5844654   0.2192041  )
         7           Cl  tau(   7) = (   1.2763100   0.5342111   0.7317139  )
         8           Cl  tau(   8) = (   1.7236900   0.8082008   0.4093877  )
         9           O   tau(   9) = (   0.0000000   0.0000000   0.0000000  )
        10           O   tau(  10) = (   0.5000000   0.2237353   0.1901836  )

   Crystallographic axes

     site n.     atom                  positions (cryst. coord.)
         1           Cu  tau(   1) = (  0.1250000  0.6250000  0.1250000  )
         2           Cu  tau(   2) = (  0.1250000  0.1250000  0.6250000  )
         3           Cu  tau(   3) = (  0.1250000  0.1250000  0.1250000  )
         4           Cu  tau(   4) = (  0.6250000  0.1250000  0.1250000  )
         5           Cl  tau(   5) = (  0.2881480  0.2881480  0.7118520  )
         6           Cl  tau(   6) = (  0.7118520  0.7118520  0.2881480  )
         7           Cl  tau(   7) = (  0.5381480  0.5381480  0.9618520  )
         8           Cl  tau(   8) = (  0.9618520  0.9618520  0.5381480  )
         9           O   tau(   9) = (  0.0000000  0.0000000  0.0000000  )
        10           O   tau(  10) = (  0.2500000  0.2500000  0.2500000  )

     number of k points=     1  Methfessel-Paxton smearing, width (Ry)=  0.0010
                       cart. coord. in units 2pi/alat
        k(    1) = (   0.0000000   0.0000000   0.0000000), wk =   2.0000000

                       cryst. coord.
        k(    1) = (   0.0000000   0.0000000   0.0000000), wk =   2.0000000

     Check: negative core charge=   -0.000005

     Initial potential from superposition of free atoms

     starting charge     112.0000, renormalised to     116.0000

     negative rho (up, down):  6.321E-02 0.000E+00
     Starting wfcs are   76 randomized atomic wfcs
     Checking if some PAW data can be deallocated...

     Self-consistent Calculation

     iteration #  1     ecut=    30.00 Ry     beta= 0.70
     Davidson diagonalization with overlap

     ethr =  1.00E-02,  avg # of iterations =  3.0

     negative rho (up, down):  6.052E-02 0.000E+00

     total energy              =   -1828.93345519 Ry
     estimated scf accuracy    <       3.73854807 Ry

[...]

     total energy              =   -1831.29178507 Ry
     estimated scf accuracy    <       0.00000417 Ry

     iteration # 15     ecut=    30.00 Ry     beta= 0.70
     Davidson diagonalization with overlap

     ethr =  3.60E-09,  avg # of iterations =  2.0

[...]

     End of self-consistent calculation

          k = 0.0000 0.0000 0.0000 (  1776 PWs)   bands (ev):

  -107.1006-107.0821-107.0791-107.0741 -64.7044 -64.6973 -64.6960 -64.6886
   -64.5193 -64.5145 -64.5107 -64.5056 -64.1502 -64.1448 -64.1430 -64.1402
   -13.4217 -13.0151  -9.9531  -9.8133  -9.6340  -9.5435  -1.2793  -1.0562
    -0.4089   0.2010   0.5780   0.6446   0.6511   0.6988   0.8347   0.9490
     1.2760   1.5988   1.6334   2.6268   2.6561   2.7526   2.9173   3.0223
     3.0286   3.0771   3.1113   3.1563   3.1667   3.2022   3.2161   3.2280
     3.3370   3.3677   3.3848   3.6649   3.7041   3.7652   3.9310   4.0866
     4.6172   5.7729   5.9013   5.9870   8.3194   9.2857  10.9303  11.4687
    11.8685  11.9287  12.1207  13.3982  13.5693  13.7528

     occupation numbers
     1.0000   1.0000   1.0000   1.0000   1.0000   1.0000   1.0000   1.0000
     1.0000   1.0000   1.0000   1.0000   1.0000   1.0000   1.0000   1.0000
     1.0000   1.0000   1.0000   1.0000   1.0000   1.0000   1.0000   1.0000
     1.0000   1.0000   1.0000   1.0000   1.0000   1.0000   1.0000   1.0000
     1.0000   1.0000   1.0000   1.0000   1.0000   1.0000   1.0000   1.0000
     1.0000   1.0000   1.0000   1.0000   1.0000   1.0000   1.0000   1.0000
     1.0000   1.0000   1.0000   1.0000   1.0000   1.0000   1.0000   1.0000
     1.0000   1.0000  -0.0000  -0.0000  -0.0000  -0.0000  -0.0000  -0.0000
    -0.0000  -0.0000  -0.0000  -0.0000  -0.0000  -0.0000

     the Fermi energy is     5.8371 ev

!    total energy              =   -1831.29178501 Ry
     estimated scf accuracy    <       0.00000051 Ry
     smearing contrib. (-TS)   =       0.00000000 Ry
     internal energy E=F+TS    =   -1831.29178501 Ry

     The total energy is F=E-TS. E is the sum of the following terms:
     one-electron contribution =   -1847.34810470 Ry
     hartree contribution      =     962.28802716 Ry
     xc contribution           =    -207.45179152 Ry
     ewald contribution        =    -719.71598013 Ry
     one-center paw contrib.   =     -19.06393583 Ry
      -> PAW hartree energy AE =      56.58337204 Ry
      -> PAW hartree energy PS =     -56.39042939 Ry
      -> PAW xc energy AE      =     -33.93422744 Ry
      -> PAW xc energy PS      =      14.67734896 Ry
      -> total E_H with PAW    =     962.48096981 Ry
      -> total E_XC with PAW   =    -226.70866999 Ry

     convergence has been achieved in  15 iterations

     negative rho (up, down):  5.967E-02 0.000E+00

     Forces acting on atoms (cartesian axes, Ry/au):

     atom    1 type  1   force =     0.00000000    0.00000000    0.00000000
     atom    2 type  1   force =     0.00000000    0.00000000    0.00000000
     atom    3 type  1   force =     0.00000000    0.00000000    0.00000000
     atom    4 type  1   force =     0.00000000    0.00000000    0.00000000
     atom    5 type  2   force =     0.01105463    0.00801252   -0.01011016
     atom    6 type  2   force =    -0.01361132   -0.00745117    0.00835285
     atom    7 type  2   force =     0.01361132    0.00745117   -0.00835285
     atom    8 type  2   force =    -0.01105463   -0.00801252    0.01011016
     atom    9 type  3   force =    -0.00194393   -0.00077553    0.00158079
     atom   10 type  3   force =     0.00194393    0.00077553   -0.00158079
     The non-local contrib.  to forces
     atom    1 type  1   force =     0.00000000    0.00000000    0.00000000
     atom    2 type  1   force =     0.00000000    0.00000000    0.00000000
     atom    3 type  1   force =     0.00000000    0.00000000    0.00000000
     atom    4 type  1   force =     0.00000000    0.00000000    0.00000000
     atom    5 type  2   force =    -0.22000758   -0.13348593    0.15635642
     atom    6 type  2   force =     0.21809183    0.13433069   -0.15842392
     atom    7 type  2   force =    -0.21809183   -0.13433069    0.15842392
     atom    8 type  2   force =     0.22000758    0.13348593   -0.15635642
     atom    9 type  3   force =     0.00142490    0.00003712    0.00027018
     atom   10 type  3   force =    -0.00142490   -0.00003712   -0.00027018
     The ionic contribution  to forces
     atom    1 type  1   force =    -0.00000000   -0.00000000    0.00000000
     atom    2 type  1   force =     0.00000000    0.00000000   -0.00000000
     atom    3 type  1   force =     0.00000000    0.00000000   -0.00000000
     atom    4 type  1   force =    -0.00000000    0.00000000    0.00000000
     atom    5 type  2   force =    11.90875027    7.29329558   -8.57995996
     atom    6 type  2   force =   -11.90875026   -7.29329557    8.57995993
     atom    7 type  2   force =    11.90875026    7.29329556   -8.57995993
     atom    8 type  2   force =   -11.90875027   -7.29329558    8.57995997
     atom    9 type  3   force =    -0.00000002   -0.00000003    0.00000006
     atom   10 type  3   force =     0.00000002    0.00000003   -0.00000006
     The local contribution  to forces
     atom    1 type  1   force =    -0.00002752    0.00012033   -0.00003086
     atom    2 type  1   force =     0.00005435   -0.00001626    0.00012724
     atom    3 type  1   force =    -0.00003022   -0.00004162   -0.00006214
     atom    4 type  1   force =     0.00004209   -0.00005288    0.00000254
     atom    5 type  2   force =   -11.68356604   -7.15548216    8.41747542
     atom    6 type  2   force =    11.68284169    7.15533900   -8.41735861
     atom    7 type  2   force =   -11.68278382   -7.15529750    8.41731420
     atom    8 type  2   force =    11.68352242    7.15543091   -8.41742940
     atom    9 type  3   force =    -0.00355658   -0.00051332    0.00096651
     atom   10 type  3   force =     0.00356809    0.00052498   -0.00102121
     The core correction contribution to forces
     atom    1 type  1   force =     0.00000002   -0.00000009   -0.00000001
     atom    2 type  1   force =     0.00000004    0.00000001    0.00000003
     atom    3 type  1   force =     0.00000007   -0.00000000    0.00000012
     atom    4 type  1   force =    -0.00000004    0.00000001    0.00000005
     atom    5 type  2   force =     0.00579233    0.00356737   -0.00419418
     atom    6 type  2   force =    -0.00592755   -0.00359900    0.00423586
     atom    7 type  2   force =     0.00592811    0.00359793   -0.00423538
     atom    8 type  2   force =    -0.00579252   -0.00356853    0.00419557
     atom    9 type  3   force =    -0.00003086   -0.00000527    0.00000395
     atom   10 type  3   force =     0.00003110    0.00000567   -0.00000407
     The Hubbard contrib.    to forces
     atom    1 type  1   force =     0.00000000    0.00000000    0.00000000
     atom    2 type  1   force =     0.00000000    0.00000000    0.00000000
     atom    3 type  1   force =     0.00000000    0.00000000    0.00000000
     atom    4 type  1   force =     0.00000000    0.00000000    0.00000000
     atom    5 type  2   force =     0.00000000    0.00000000    0.00000000
     atom    6 type  2   force =     0.00000000    0.00000000    0.00000000
     atom    7 type  2   force =     0.00000000    0.00000000    0.00000000
     atom    8 type  2   force =     0.00000000    0.00000000    0.00000000
     atom    9 type  3   force =     0.00000000    0.00000000    0.00000000
     atom   10 type  3   force =     0.00000000    0.00000000    0.00000000
     The SCF correction term to forces
     atom    1 type  1   force =     0.00002624   -0.00016151    0.00002804
     atom    2 type  1   force =    -0.00007720   -0.00001346   -0.00010881
     atom    3 type  1   force =     0.00001554    0.00000765    0.00006356
     atom    4 type  1   force =    -0.00005079    0.00003947   -0.00002982
     atom    5 type  2   force =     0.00007908    0.00010904    0.00022339
     atom    6 type  2   force =     0.00014398   -0.00021720   -0.00006941
     atom    7 type  2   force =    -0.00018040    0.00019495    0.00009533
     atom    8 type  2   force =    -0.00004840   -0.00007388   -0.00024832
     atom    9 type  3   force =     0.00021828   -0.00028986    0.00033249
     atom   10 type  3   force =    -0.00023074    0.00028614   -0.00029287

     Total force =     0.034815     Total SCF correction =     0.000899

     Computing stress (Cartesian axis) and pressure

     negative rho (up, down):  5.967E-02 0.000E+00
          total   stress  (Ry/bohr**3)                   (kbar)     P=     -351.84
  -0.00245505  -0.00007493   0.00007018         -361.15      -11.02       10.32
  -0.00007493  -0.00237210   0.00001149          -11.02     -348.95        1.69
   0.00007018   0.00001149  -0.00234814           10.32        1.69     -345.42

     kinetic stress (kbar)  18784.91   -102.90    121.25
                             -102.90  19022.51    187.55
                              121.25    187.55  18960.62

     local   stress (kbar) -42795.22  -4382.64   5157.29
                            -4382.64 -28338.19  11640.75
                             5157.29  11640.75 -32144.77

     nonloc. stress (kbar)  13087.50    -49.57     54.64
                              -49.57  13111.05      6.49
                               54.64      6.49  13117.21

     hartree stress (kbar)  40694.94   1723.53  -2028.23
                             1723.53  34446.84  -5055.05
                            -2028.23  -5055.05  36100.46

     exc-cor stress (kbar)  -5297.02      2.63     -3.12
                                2.63  -5301.69     -3.53
                               -3.12     -3.53  -5300.52

     corecor stress (kbar)  -2000.59      0.87     -1.01
                                0.87  -2001.68     -0.80
                               -1.01     -0.80  -2001.43

     ewald   stress (kbar) -22835.68   2797.05  -3290.50
                             2797.05 -31287.80  -6773.72
                            -3290.50  -6773.72 -29077.00

     hubbard stress (kbar)      0.00      0.00      0.00
                                0.00      0.00      0.00
                                0.00      0.00      0.00

     DFT-D   stress (kbar)      0.00      0.00      0.00
                                0.00      0.00      0.00
                                0.00      0.00      0.00

     XDM     stress (kbar)      0.00      0.00      0.00
                                0.00      0.00      0.00
                                0.00      0.00      0.00

     dft-nl  stress (kbar)      0.00      0.00      0.00
                                0.00      0.00      0.00
                                0.00      0.00      0.00

     TS-vdW  stress (kbar)      0.00      0.00      0.00
                                0.00      0.00      0.00
                                0.00      0.00      0.00

[...]

                                0.00      0.00      0.00

     Writing all to output data dir new_calculations/myprefix.save/

     General routines

     Parallel routines

     PAW routines

   This run was terminated on:  16:20:32  21May2023

   JOB DONE.