     Program PWSCF v.7.0 starts on 20May2023 at 20:44: 6

     Reading input from espresso_25096.pwi
Warning: card &CELL ignored
Warning: card / ignored

     Current dimensions of program PWSCF are:
     Max number of different atomic species (ntypx) = 10
     Max number of k-points (npk) =  40000
     Max angular momentum in pseudopotentials (lmaxx) =  4
     file O.pbe-n-kjpaw_psl.0.1.UPF: wavefunction(s)  2P renormalized

     gamma-point specific algorithms are used
     Message from routine setup:
     using ibrav=0 with symmetry is DISCOURAGED, use correct ibrav instead

     Subspace diagonalization in iterative solution of the eigenvalue problem:
     a serial algorithm will be used

     Using Slab Decomposition

     bravais-lattice index     =            0
     lattice parameter (alat)  =       9.0280  a.u.
     unit-cell volume          =    1413.5883 (a.u.)^3
     number of atoms/cell      =           18
     number of atomic types    =            3
     number of electrons       =       160.00
     number of Kohn-Sham states=           96
     kinetic-energy cutoff     =      30.0000  Ry
     charge density cutoff     =     240.0000  Ry
     scf convergence threshold =      1.0E-06
     mixing beta               =       0.7000
     number of iterations used =            8  plain     mixing
     Exchange-correlation= SLA  PW   PBX  PBC
                           (   1   4   3   4   0   0   0)

     celldm(1)=   9.027981  celldm(2)=   0.000000  celldm(3)=   0.000000
     celldm(4)=   0.000000  celldm(5)=   0.000000  celldm(6)=   0.000000

     crystal axes: (cart. coord. in units of alat)
               a(1) = (   1.000000   0.000000   0.000000 )
               a(2) = (   0.000000   1.000000   0.000000 )
               a(3) = (   0.000000   0.000000   1.921104 )

     reciprocal axes: (cart. coord. in units 2 pi/alat)
               b(1) = (  1.000000  0.000000  0.000000 )
               b(2) = (  0.000000  1.000000  0.000000 )
               b(3) = (  0.000000  0.000000  0.520534 )

     PseudoPot. # 1 for Ta read from file:
     /home/pragov/projects/rrg-bengioy-ad/pragov/crystal_structure_design/SSSP/Ta_pbe_v1.uspp.F.UPF
     MD5 check sum: f8bbe9446314a3b8ea5d9f3e3836c939
     Pseudo is Ultrasoft + core correction, Zval = 13.0
     Generated by new atomic code, or converted to UPF format
     Using radial grid of  921 points,  7 beta functions with:
                l(1) =   0
                l(2) =   0
                l(3) =   1
                l(4) =   1
                l(5) =   2
                l(6) =   2
                l(7) =   3
     Q(r) pseudized with  6 coefficients,  rinner =    1.300   1.300   1.300
                                                       1.300   1.300   1.300
                                                       1.300

     PseudoPot. # 2 for Ni read from file:
     /home/pragov/projects/rrg-bengioy-ad/pragov/crystal_structure_design/SSSP/ni_pbe_v1.4.uspp.F.UPF
     MD5 check sum: 1ee80287db30b12d2bc1f57a5b5d6409
     Pseudo is Ultrasoft + core correction, Zval = 18.0
     Generated by new atomic code, or converted to UPF format
     Using radial grid of  865 points,  6 beta functions with:
                l(1) =   0
                l(2) =   0
                l(3) =   1
                l(4) =   1
                l(5) =   2
                l(6) =   2
     Q(r) pseudized with 10 coefficients,  rinner =    0.980   0.980   0.980
                                                       0.980   0.980

     PseudoPot. # 3 for O  read from file:
     /home/pragov/projects/rrg-bengioy-ad/pragov/crystal_structure_design/SSSP/O.pbe-n-kjpaw_psl.0.1.UPF
     MD5 check sum: 0234752ac141de4415c5fc33072bef88
     Pseudo is Projector augmented-wave + core cor, Zval =  6.0
     Generated using "atomic" code by A. Dal Corso  v.5.0.99 svn rev. 10869
     Shape of augmentation charge: BESSEL
     Using radial grid of 1095 points,  4 beta functions with:
                l(1) =   0
                l(2) =   0
                l(3) =   1
                l(4) =   1
     Q(r) pseudized with 0 coefficients

     atomic species   valence    mass     pseudopotential
        Ta            13.00   180.94788     Ta( 1.00)
        Ni            18.00    58.69340     Ni( 1.00)
        O              6.00    15.99900     O ( 1.00)

     16 Sym. Ops., with inversion, found ( 8 have fractional translation)

                                    s                        frac. trans.

      isym =  1     identity

 cryst.   s( 1) = (     1          0          0      )
                  (     0          1          0      )
                  (     0          0          1      )

 cart.    s( 1) = (  1.0000000  0.0000000  0.0000000 )
                  (  0.0000000  1.0000000  0.0000000 )
                  (  0.0000000  0.0000000  1.0000000 )

      isym =  2     180 deg rotation - cart. axis [0,0,1]

[...]

 cryst.   s( 3) = (    -1          0          0      )    f =(  0.5000000 )
                  (     0          1          0      )       (  0.5000000 )
                  (     0          0         -1      )       (  0.5000000 )

 cart.    s( 3) = ( -1.0000000  0.0000000  0.0000000 )    f =(  0.5000000 )
                  (  0.0000000  1.0000000  0.0000000 )       (  0.5000000 )
                  (  0.0000000  0.0000000 -1.0000000 )       (  0.9605522 )

[...]

      isym =  8      90 deg rotation - cart. axis [0,0,1]

 cryst.   s( 8) = (     0          1          0      )    f =(  0.5000000 )
                  (    -1          0          0      )       (  0.5000000 )
                  (     0          0          1      )       (  0.5000000 )

 cart.    s( 8) = (  0.0000000 -1.0000000  0.0000000 )    f =(  0.5000000 )
                  (  1.0000000  0.0000000  0.0000000 )       (  0.5000000 )
                  (  0.0000000  0.0000000  1.0000000 )       (  0.9605522 )

      isym =  9     inversion

 cryst.   s( 9) = (    -1          0          0      )
                  (     0         -1          0      )
                  (     0          0         -1      )

 cart.    s( 9) = ( -1.0000000  0.0000000  0.0000000 )
                  (  0.0000000 -1.0000000  0.0000000 )
                  (  0.0000000  0.0000000 -1.0000000 )

      isym = 10     inv. 180 deg rotation - cart. axis [0,0,1]

 cryst.   s(10) = (     1          0          0      )
                  (     0          1          0      )
                  (     0          0         -1      )

 cart.    s(10) = (  1.0000000  0.0000000  0.0000000 )
                  (  0.0000000  1.0000000  0.0000000 )
                  (  0.0000000  0.0000000 -1.0000000 )

[...]

 cryst.   s(11) = (     1          0          0      )    f =(  0.5000000 )
                  (     0         -1          0      )       (  0.5000000 )
                  (     0          0          1      )       (  0.5000000 )

 cart.    s(11) = (  1.0000000  0.0000000  0.0000000 )    f =(  0.5000000 )
                  (  0.0000000 -1.0000000  0.0000000 )       (  0.5000000 )
                  (  0.0000000  0.0000000  1.0000000 )       (  0.9605522 )

[...]

 cryst.   s(14) = (     0          1          0      )
                  (     1          0          0      )
                  (     0          0          1      )

 cart.    s(14) = (  0.0000000  1.0000000  0.0000000 )
                  (  1.0000000  0.0000000  0.0000000 )
                  (  0.0000000  0.0000000  1.0000000 )

[...]

      isym = 16     inv.  90 deg rotation - cart. axis [0,0,1]

 cryst.   s(16) = (     0         -1          0      )    f =(  0.5000000 )
                  (     1          0          0      )       (  0.5000000 )
                  (     0          0         -1      )       (  0.5000000 )

 cart.    s(16) = (  0.0000000  1.0000000  0.0000000 )    f =(  0.5000000 )
                  ( -1.0000000  0.0000000  0.0000000 )       (  0.5000000 )
                  (  0.0000000  0.0000000 -1.0000000 )       (  0.9605522 )

   Cartesian axes

     site n.     atom                  positions (alat units)
         1           Ta  tau(   1) = (   0.5000000   0.5000000   0.3239943  )
         2           Ta  tau(   2) = (   0.0000000   0.0000000   1.2845465  )
         3           Ta  tau(   3) = (   0.5000000   0.5000000   1.5971101  )
         4           Ta  tau(   4) = (   0.0000000   0.0000000   0.6365579  )
         5           Ni  tau(   5) = (   0.5000000   0.5000000   0.9605522  )
         6           Ni  tau(   6) = (   0.0000000   0.0000000   0.0000000  )
         7           O   tau(   7) = (   0.1893500   0.8106500   0.9605522  )
         8           O   tau(   8) = (   0.8106500   0.1893500   0.9605522  )
         9           O   tau(   9) = (   0.3106500   0.3106500   0.0000000  )
        10           O   tau(  10) = (   0.6893500   0.6893500   0.0000000  )
        11           O   tau(  11) = (   0.2029650   0.7970350   0.3355170  )
        12           O   tau(  12) = (   0.7970350   0.2029650   0.3355170  )
        13           O   tau(  13) = (   0.2970350   0.2970350   1.2960692  )
        14           O   tau(  14) = (   0.7029650   0.7029650   1.2960692  )
        15           O   tau(  15) = (   0.7970350   0.2029650   1.5855874  )
        16           O   tau(  16) = (   0.2029650   0.7970350   1.5855874  )
        17           O   tau(  17) = (   0.7029650   0.7029650   0.6250352  )
        18           O   tau(  18) = (   0.2970350   0.2970350   0.6250352  )

   Crystallographic axes

     site n.     atom                  positions (cryst. coord.)
         1           Ta  tau(   1) = (  0.5000000  0.5000000  0.1686500  )
         2           Ta  tau(   2) = (  0.0000000  0.0000000  0.6686500  )
         3           Ta  tau(   3) = (  0.5000000  0.5000000  0.8313500  )
         4           Ta  tau(   4) = (  0.0000000  0.0000000  0.3313500  )
         5           Ni  tau(   5) = (  0.5000000  0.5000000  0.5000000  )
         6           Ni  tau(   6) = (  0.0000000  0.0000000  0.0000000  )
         7           O   tau(   7) = (  0.1893500  0.8106500  0.5000000  )
         8           O   tau(   8) = (  0.8106500  0.1893500  0.5000000  )
         9           O   tau(   9) = (  0.3106500  0.3106500  0.0000000  )
        10           O   tau(  10) = (  0.6893500  0.6893500  0.0000000  )
        11           O   tau(  11) = (  0.2029650  0.7970350  0.1746480  )
        12           O   tau(  12) = (  0.7970350  0.2029650  0.1746480  )
        13           O   tau(  13) = (  0.2970350  0.2970350  0.6746480  )
        14           O   tau(  14) = (  0.7029650  0.7029650  0.6746480  )
        15           O   tau(  15) = (  0.7970350  0.2029650  0.8253520  )
        16           O   tau(  16) = (  0.2029650  0.7970350  0.8253520  )
        17           O   tau(  17) = (  0.7029650  0.7029650  0.3253520  )
        18           O   tau(  18) = (  0.2970350  0.2970350  0.3253520  )

     number of k points=     1  Methfessel-Paxton smearing, width (Ry)=  0.0010
                       cart. coord. in units 2pi/alat
        k(    1) = (   0.0000000   0.0000000   0.0000000), wk =   2.0000000

                       cryst. coord.
        k(    1) = (   0.0000000   0.0000000   0.0000000), wk =   2.0000000

     Check: negative core charge=   -0.000010

     Initial potential from superposition of free atoms

     starting charge     155.9955, renormalised to     160.0000

     negative rho (up, down):  3.753E-01 0.000E+00
     Starting wfcs are  126 randomized atomic wfcs
     Checking if some PAW data can be deallocated...

     Self-consistent Calculation

     iteration #  1     ecut=    30.00 Ry     beta= 0.70
     Davidson diagonalization with overlap

     ethr =  1.00E-02,  avg # of iterations =  2.0

     negative rho (up, down):  3.668E-01 0.000E+00

     total energy              =   -1749.98131852 Ry
     estimated scf accuracy    <       8.48134505 Ry

[...]

     total energy              =   -1754.10474294 Ry
     estimated scf accuracy    <       0.00000163 Ry

     iteration # 33     ecut=    30.00 Ry     beta= 0.70
     Davidson diagonalization with overlap

     ethr =  1.02E-09,  avg # of iterations =  1.0

[...]

     End of self-consistent calculation

          k = 0.0000 0.0000 0.0000 (  1936 PWs)   bands (ev):

   -92.9010 -92.8963 -58.4801 -58.4759 -58.4692 -58.4660 -53.3915 -53.3861
   -53.3861 -53.3798 -52.8794 -52.8792 -25.1801 -25.1569 -25.0717 -25.0717
   -25.0341 -25.0341 -24.9617 -24.9617 -24.9191 -24.9191 -24.8986 -24.8730
    -9.0374  -8.4445  -8.0820  -7.8819  -7.7799  -7.7798  -7.7069  -7.4293
    -7.4292  -7.2180  -7.0619  -7.0617   3.0439   3.7526   3.9110   4.0740
     4.4259   4.8897   4.9535   4.9639   4.9639   5.0555   5.0556   5.1022
     5.4712   5.5070   5.7648   5.7648   5.8220   5.8933   6.2986   6.6047
     6.6048   7.0588   7.0589   7.3523   7.3523   7.3614   7.7625   7.7626
     7.7649   7.7650   8.2631   8.3464   8.4198   8.6433   8.6434   9.1802
     9.2030   9.2042   9.7144   9.7576   9.7577   9.7838  10.2397  10.5814
    10.5815  10.5815  12.2688  12.7637  13.1712  13.2489  13.5977  13.7318
    13.8517  13.8517  14.0553  14.0554  14.8213  15.1960  15.2858  16.7385

     occupation numbers
     1.0000   1.0000   1.0000   1.0000   1.0000   1.0000   1.0000   1.0000
     1.0000   1.0000   1.0000   1.0000   1.0000   1.0000   1.0000   1.0000
     1.0000   1.0000   1.0000   1.0000   1.0000   1.0000   1.0000   1.0000
     1.0000   1.0000   1.0000   1.0000   1.0000   1.0000   1.0000   1.0000
     1.0000   1.0000   1.0000   1.0000   1.0000   1.0000   1.0000   1.0000
     1.0000   1.0000   1.0000   1.0000   1.0000   1.0000   1.0000   1.0000
     1.0000   1.0000   1.0000   1.0000   1.0000   1.0000   1.0000   1.0000
     1.0000   1.0000   1.0000   1.0000   1.0000   1.0000   1.0000   1.0000
     1.0000   1.0000   1.0000   1.0000   1.0000   1.0000   1.0000   1.0000
     1.0000   1.0000   1.0000   1.0000   1.0000   1.0000   1.0000   0.3384
     0.3309   0.3307  -0.0000  -0.0000  -0.0000  -0.0000  -0.0000  -0.0000
    -0.0000  -0.0000  -0.0000  -0.0000  -0.0000  -0.0000  -0.0000  -0.0000

     the Fermi energy is    10.5787 ev

!    total energy              =   -1754.10474272 Ry
     estimated scf accuracy    <       0.00000036 Ry
     smearing contrib. (-TS)   =      -0.00074667 Ry
     internal energy E=F+TS    =   -1754.10399605 Ry

     The total energy is F=E-TS. E is the sum of the following terms:
     one-electron contribution =    -789.45931100 Ry
     hartree contribution      =     475.99272859 Ry
     xc contribution           =    -328.82200426 Ry
     ewald contribution        =    -997.58505795 Ry
     one-center paw contrib.   =    -114.23035142 Ry
      -> PAW hartree energy AE =     363.00226649 Ry
      -> PAW hartree energy PS =    -361.72102377 Ry
      -> PAW xc energy AE      =    -207.14958832 Ry
      -> PAW xc energy PS      =      91.63799417 Ry
      -> total E_H with PAW    =     477.27397131 Ry
      -> total E_XC with PAW   =    -444.33359841 Ry

     convergence has been achieved in  33 iterations

     negative rho (up, down):  3.718E-01 0.000E+00

     Forces acting on atoms (cartesian axes, Ry/au):

     atom    1 type  1   force =     0.00000000    0.00000000   -0.05771494
     atom    2 type  1   force =     0.00000000    0.00000000   -0.05771494
     atom    3 type  1   force =     0.00000000    0.00000000    0.05771494
     atom    4 type  1   force =     0.00000000    0.00000000    0.05771494
     atom    5 type  2   force =     0.00000000    0.00000000    0.00000000
     atom    6 type  2   force =     0.00000000    0.00000000   -0.00000000
     atom    7 type  3   force =     0.01109020   -0.01109020    0.00000000
     atom    8 type  3   force =    -0.01109020    0.01109020    0.00000000
     atom    9 type  3   force =    -0.01109020   -0.01109020   -0.00000000
     atom   10 type  3   force =     0.01109020    0.01109020   -0.00000000
     atom   11 type  3   force =    -0.00183909    0.00183909   -0.02198716
     atom   12 type  3   force =     0.00183909   -0.00183909   -0.02198716
     atom   13 type  3   force =     0.00183909    0.00183909   -0.02198716
     atom   14 type  3   force =    -0.00183909   -0.00183909   -0.02198716
     atom   15 type  3   force =     0.00183909   -0.00183909    0.02198716
     atom   16 type  3   force =    -0.00183909    0.00183909    0.02198716
     atom   17 type  3   force =    -0.00183909   -0.00183909    0.02198716
     atom   18 type  3   force =     0.00183909    0.00183909    0.02198716
     The non-local contrib.  to forces
     atom    1 type  1   force =     0.00000000    0.00000000    0.01595621
     atom    2 type  1   force =     0.00000000    0.00000000    0.01595621
     atom    3 type  1   force =     0.00000000    0.00000000   -0.01595621
     atom    4 type  1   force =     0.00000000    0.00000000   -0.01595621
     atom    5 type  2   force =     0.00000000    0.00000000    0.00000000
     atom    6 type  2   force =     0.00000000    0.00000000    0.00000000
     atom    7 type  3   force =    -0.35077426    0.35077426    0.00000000
     atom    8 type  3   force =     0.35077426   -0.35077426    0.00000000
     atom    9 type  3   force =     0.35077426    0.35077426    0.00000000
     atom   10 type  3   force =    -0.35077426   -0.35077426   -0.00000000
     atom   11 type  3   force =    -0.06302906    0.06302906    0.11253191
     atom   12 type  3   force =     0.06302906   -0.06302906    0.11253191
     atom   13 type  3   force =     0.06302906    0.06302906    0.11253191
     atom   14 type  3   force =    -0.06302906   -0.06302906    0.11253191
     atom   15 type  3   force =     0.06302906   -0.06302906   -0.11253191
     atom   16 type  3   force =    -0.06302906    0.06302906   -0.11253191
     atom   17 type  3   force =    -0.06302906   -0.06302906   -0.11253191
     atom   18 type  3   force =     0.06302906    0.06302906   -0.11253191
     The ionic contribution  to forces
     atom    1 type  1   force =    -0.00000000    0.00000000   -1.23631103
     atom    2 type  1   force =    -0.00000000   -0.00000000   -1.23631103
     atom    3 type  1   force =     0.00000000    0.00000000    1.23631103
     atom    4 type  1   force =    -0.00000000   -0.00000000    1.23631103
     atom    5 type  2   force =     0.00000000    0.00000000    0.00000000
     atom    6 type  2   force =    -0.00000000   -0.00000000    0.00000000
     atom    7 type  3   force =     0.74312719   -0.74312719    0.00000000
     atom    8 type  3   force =    -0.74312719    0.74312719    0.00000000
     atom    9 type  3   force =    -0.74312719   -0.74312719   -0.00000000
     atom   10 type  3   force =     0.74312719    0.74312719   -0.00000000
     atom   11 type  3   force =     2.28248189   -2.28248189    0.76162253
     atom   12 type  3   force =    -2.28248189    2.28248189    0.76162253
     atom   13 type  3   force =    -2.28248189   -2.28248189    0.76162253
     atom   14 type  3   force =     2.28248189    2.28248189    0.76162253
     atom   15 type  3   force =    -2.28248189    2.28248189   -0.76162253
     atom   16 type  3   force =     2.28248189   -2.28248189   -0.76162253
     atom   17 type  3   force =     2.28248189    2.28248189   -0.76162253
     atom   18 type  3   force =    -2.28248189   -2.28248189   -0.76162253
     The local contribution  to forces
     atom    1 type  1   force =     0.00010104    0.00004073    1.15717079
     atom    2 type  1   force =     0.00014464    0.00010863    1.15594075
     atom    3 type  1   force =    -0.00010480   -0.00002176   -1.15727767
     atom    4 type  1   force =    -0.00013512   -0.00010321   -1.15587930
     atom    5 type  2   force =    -0.00000530   -0.00001481    0.00015829
     atom    6 type  2   force =    -0.00000425   -0.00002244   -0.00010338
     atom    7 type  3   force =    -0.38334170    0.38334294    0.00009742
     atom    8 type  3   force =     0.38333896   -0.38334030    0.00002450
     atom    9 type  3   force =     0.38356739    0.38357113   -0.00014476
     atom   10 type  3   force =    -0.38356401   -0.38356579    0.00005459
     atom   11 type  3   force =    -2.22218347    2.22222335   -0.89619355
     atom   12 type  3   force =     2.22229329   -2.22219852   -0.89627348
     atom   13 type  3   force =     2.22248145    2.22242958   -0.89704818
     atom   14 type  3   force =    -2.22235794   -2.22236107   -0.89681275
     atom   15 type  3   force =     2.22218384   -2.22222875    0.89613508
     atom   16 type  3   force =    -2.22229211    2.22220048    0.89622987
     atom   17 type  3   force =    -2.22248030   -2.22242478    0.89706992
     atom   18 type  3   force =     2.22235112    2.22235454    0.89685340
     The core correction contribution to forces
     atom    1 type  1   force =    -0.00000057    0.00000186    0.00627691
     atom    2 type  1   force =    -0.00000218   -0.00000192    0.00627255
     atom    3 type  1   force =     0.00000046   -0.00000125   -0.00627805
     atom    4 type  1   force =     0.00000214    0.00000208   -0.00627265
     atom    5 type  2   force =     0.00000000   -0.00000001    0.00000004
     atom    6 type  2   force =     0.00000002   -0.00000001   -0.00000007
     atom    7 type  3   force =     0.00217255   -0.00217256    0.00000028
     atom    8 type  3   force =    -0.00217258    0.00217257   -0.00000045
     atom    9 type  3   force =    -0.00217213   -0.00217215   -0.00000090
     atom   10 type  3   force =     0.00217212    0.00217212    0.00000100
     atom   11 type  3   force =     0.00100895   -0.00100833    0.00046265
     atom   12 type  3   force =    -0.00100737    0.00100853    0.00046172
     atom   13 type  3   force =    -0.00100661   -0.00100722    0.00046058
     atom   14 type  3   force =     0.00100870    0.00100861    0.00046318
     atom   15 type  3   force =    -0.00100896    0.00100833   -0.00046261
     atom   16 type  3   force =     0.00100738   -0.00100852   -0.00046157
     atom   17 type  3   force =     0.00100666    0.00100730   -0.00046071
     atom   18 type  3   force =    -0.00100880   -0.00100869   -0.00046320
     The Hubbard contrib.    to forces
     atom    1 type  1   force =     0.00000000    0.00000000    0.00000000
     atom    2 type  1   force =     0.00000000    0.00000000    0.00000000
     atom    3 type  1   force =     0.00000000    0.00000000    0.00000000
     atom    4 type  1   force =     0.00000000    0.00000000    0.00000000
     atom    5 type  2   force =     0.00000000    0.00000000    0.00000000
     atom    6 type  2   force =     0.00000000    0.00000000    0.00000000
     atom    7 type  3   force =     0.00000000    0.00000000    0.00000000
     atom    8 type  3   force =     0.00000000    0.00000000    0.00000000
     atom    9 type  3   force =     0.00000000    0.00000000    0.00000000
     atom   10 type  3   force =     0.00000000    0.00000000    0.00000000
     atom   11 type  3   force =     0.00000000    0.00000000    0.00000000
     atom   12 type  3   force =     0.00000000    0.00000000    0.00000000
     atom   13 type  3   force =     0.00000000    0.00000000    0.00000000
     atom   14 type  3   force =     0.00000000    0.00000000    0.00000000
     atom   15 type  3   force =     0.00000000    0.00000000    0.00000000
     atom   16 type  3   force =     0.00000000    0.00000000    0.00000000
     atom   17 type  3   force =     0.00000000    0.00000000    0.00000000
     atom   18 type  3   force =     0.00000000    0.00000000    0.00000000
     The SCF correction term to forces
     atom    1 type  1   force =    -0.00009291   -0.00005038   -0.00080751
     atom    2 type  1   force =    -0.00012645   -0.00009481    0.00043029
     atom    3 type  1   force =     0.00009691    0.00002843    0.00093927
     atom    4 type  1   force =     0.00011617    0.00008656   -0.00050733
     atom    5 type  2   force =     0.00000695    0.00001595   -0.00016880
     atom    6 type  2   force =     0.00000239    0.00002424    0.00010769
     atom    7 type  3   force =    -0.00008271    0.00008076   -0.00008174
     atom    8 type  3   force =     0.00008372   -0.00008288   -0.00005502
     atom    9 type  3   force =    -0.00012003   -0.00012509    0.00009119
     atom   10 type  3   force =     0.00011736    0.00011915    0.00001352
     atom   11 type  3   force =    -0.00006618    0.00006967   -0.00037559
     atom   12 type  3   force =     0.00004745   -0.00006624   -0.00034757
     atom   13 type  3   force =    -0.00010755   -0.00009503    0.00036079
     atom   14 type  3   force =     0.00008808    0.00008353    0.00027307
     atom   15 type  3   force =     0.00006735   -0.00006748    0.00044325
     atom   16 type  3   force =    -0.00005034    0.00006695    0.00040458
     atom   17 type  3   force =     0.00010865    0.00009581   -0.00040000
     atom   18 type  3   force =    -0.00008579   -0.00008219   -0.00032437

     Total force =     0.135017     Total SCF correction =     0.001839

     Computing stress (Cartesian axis) and pressure

     negative rho (up, down):  3.718E-01 0.000E+00
          total   stress  (Ry/bohr**3)                   (kbar)     P=     -683.49
  -0.00456539   0.00000000   0.00000000         -671.59        0.00        0.00
   0.00000000  -0.00456539   0.00000000            0.00     -671.59        0.00
   0.00000000   0.00000000  -0.00480799            0.00        0.00     -707.28

     kinetic stress (kbar)  32073.03      0.00      0.00
                                0.00  32073.03      0.00
                                0.00      0.00  31660.38

     local   stress (kbar)   4369.71      0.06      0.51
                                0.06   4369.68      0.22
                                0.51      0.22 -20440.89

     nonloc. stress (kbar)  -2173.44      0.00      0.00
                                0.00  -2173.44      0.00
                                0.00      0.00  -2274.67

     hartree stress (kbar)  13381.48     -0.04     -0.21
                               -0.04  13381.49     -0.09
                               -0.21     -0.09  22771.22

     exc-cor stress (kbar)   4493.20     -0.00     -0.00
                               -0.00   4493.20     -0.00
                               -0.00     -0.00   4507.94

     corecor stress (kbar) -12913.90      0.00      0.00
                                0.00 -12913.90      0.00
                                0.00      0.00 -12920.87

     ewald   stress (kbar) -39901.66     -0.00     -0.00
                               -0.00 -39901.66     -0.00
                               -0.00     -0.00 -24010.38

     hubbard stress (kbar)      0.00      0.00      0.00
                                0.00      0.00      0.00
                                0.00      0.00      0.00

     DFT-D   stress (kbar)      0.00      0.00      0.00
                                0.00      0.00      0.00
                                0.00      0.00      0.00

     XDM     stress (kbar)      0.00      0.00      0.00
                                0.00      0.00      0.00
                                0.00      0.00      0.00

     dft-nl  stress (kbar)      0.00      0.00      0.00
                                0.00      0.00      0.00
                                0.00      0.00      0.00

     TS-vdW  stress (kbar)      0.00      0.00      0.00
                                0.00      0.00      0.00
                                0.00      0.00      0.00

[...]

                                0.00      0.00      0.00

     Writing all to output data dir new_calculations/myprefix.save/

     General routines

     Parallel routines

     PAW routines

   This run was terminated on:  20:44:43  20May2023

   JOB DONE.