     Program PWSCF v.7.0 starts on 21May2023 at 19:32:26

     Reading input from espresso_27064.pwi
Warning: card &CELL ignored
Warning: card / ignored

     Current dimensions of program PWSCF are:
     Max number of different atomic species (ntypx) = 10
     Max number of k-points (npk) =  40000
     Max angular momentum in pseudopotentials (lmaxx) =  4
     file O.pbe-n-kjpaw_psl.0.1.UPF: wavefunction(s)  2P renormalized

     gamma-point specific algorithms are used
     Message from routine setup:
     using ibrav=0 with symmetry is DISCOURAGED, use correct ibrav instead

     Subspace diagonalization in iterative solution of the eigenvalue problem:
     a serial algorithm will be used

     Using Slab Decomposition

     bravais-lattice index     =            0
     lattice parameter (alat)  =       9.9670  a.u.
     unit-cell volume          =    1300.7153 (a.u.)^3
     number of atoms/cell      =           16
     number of atomic types    =            3
     number of electrons       =       142.00
     number of Kohn-Sham states=           85
     kinetic-energy cutoff     =      30.0000  Ry
     charge density cutoff     =     240.0000  Ry
     scf convergence threshold =      1.0E-06
     mixing beta               =       0.7000
     number of iterations used =            8  plain     mixing
     Exchange-correlation= SLA  PW   PBX  PBC
                           (   1   4   3   4   0   0   0)

     celldm(1)=   9.967014  celldm(2)=   0.000000  celldm(3)=   0.000000
     celldm(4)=   0.000000  celldm(5)=   0.000000  celldm(6)=   0.000000

     crystal axes: (cart. coord. in units of alat)
               a(1) = (   1.000000   0.000000   0.000000 )
               a(2) = (  -0.713672   0.700480   0.000000 )
               a(3) = (   0.000000   0.000000   1.875388 )

     reciprocal axes: (cart. coord. in units 2 pi/alat)
               b(1) = (  1.000000  1.018832  0.000000 )
               b(2) = (  0.000000  1.427592  0.000000 )
               b(3) = (  0.000000  0.000000  0.533223 )

     PseudoPot. # 1 for Sc read from file:
     /home/pragov/projects/rrg-bengioy-ad/pragov/crystal_structure_design/SSSP/Sc_ONCV_PBE-1.0.oncvpsp.upf
     MD5 check sum: e21af8023abb52e52cb7cd3133e4a229
     Pseudo is Norm-conserving, Zval = 11.0
     Generated using ONCVPSP code by D. R. Hamann
     Using radial grid of 1662 points,  6 beta functions with:
                l(1) =   0
                l(2) =   0
                l(3) =   1
                l(4) =   1
                l(5) =   2
                l(6) =   2

     PseudoPot. # 2 for Mn read from file:
     /home/pragov/projects/rrg-bengioy-ad/pragov/crystal_structure_design/SSSP/mn_pbe_v1.5.uspp.F.UPF
     MD5 check sum: 82ef2b46521d7a7d9e736dc3972e4928
     Pseudo is Ultrasoft + core correction, Zval = 15.0
     Generated by new atomic code, or converted to UPF format
     Using radial grid of  859 points,  6 beta functions with:
                l(1) =   0
                l(2) =   0
                l(3) =   1
                l(4) =   1
                l(5) =   2
                l(6) =   2
     Q(r) pseudized with  8 coefficients,  rinner =    0.950   0.950   0.950
                                                       0.950   0.950

     PseudoPot. # 3 for O  read from file:
     /home/pragov/projects/rrg-bengioy-ad/pragov/crystal_structure_design/SSSP/O.pbe-n-kjpaw_psl.0.1.UPF
     MD5 check sum: 0234752ac141de4415c5fc33072bef88
     Pseudo is Projector augmented-wave + core cor, Zval =  6.0
     Generated using "atomic" code by A. Dal Corso  v.5.0.99 svn rev. 10869
     Shape of augmentation charge: BESSEL
     Using radial grid of 1095 points,  4 beta functions with:
                l(1) =   0
                l(2) =   0
                l(3) =   1
                l(4) =   1
     Q(r) pseudized with 0 coefficients

     atomic species   valence    mass     pseudopotential
        Sc            11.00    44.95591     Sc( 1.00)
        Mn            15.00    54.93804     Mn( 1.00)
        O              6.00    15.99900     O ( 1.00)

      4 Sym. Ops., with inversion, found ( 2 have fractional translation)

                                    s                        frac. trans.

      isym =  1     identity

 cryst.   s( 1) = (     1          0          0      )
                  (     0          1          0      )
                  (     0          0          1      )

 cart.    s( 1) = (  1.0000000 -0.0000000  0.0000000 )
                  (  0.0000000  1.0000000  0.0000000 )
                  (  0.0000000  0.0000000  1.0000000 )

      isym =  2     180 deg rotation - cart. axis [0,0,1]

 cryst.   s( 2) = (    -1          0          0      )    f =(  0.0000000 )
                  (     0         -1          0      )       ( -0.0000000 )
                  (     0          0          1      )       ( -0.5000000 )

 cart.    s( 2) = ( -1.0000000  0.0000000  0.0000000 )    f =(  0.0000000 )
                  (  0.0000000 -1.0000000  0.0000000 )       ( -0.0000000 )
                  (  0.0000000  0.0000000  1.0000000 )       ( -0.9376940 )

      isym =  3     inversion

 cryst.   s( 3) = (    -1          0          0      )
                  (     0         -1          0      )
                  (     0          0         -1      )

 cart.    s( 3) = ( -1.0000000  0.0000000  0.0000000 )
                  (  0.0000000 -1.0000000  0.0000000 )
                  (  0.0000000  0.0000000 -1.0000000 )

      isym =  4     inv. 180 deg rotation - cart. axis [0,0,1]

 cryst.   s( 4) = (     1          0          0      )    f =(  0.0000000 )
                  (     0          1          0      )       (  0.0000000 )
                  (     0          0         -1      )       (  0.5000000 )

 cart.    s( 4) = (  1.0000000 -0.0000000  0.0000000 )    f =(  0.0000000 )
                  (  0.0000000  1.0000000  0.0000000 )       (  0.0000000 )
                  (  0.0000000  0.0000000 -1.0000000 )       (  0.9376940 )

   Cartesian axes

     site n.     atom                  positions (alat units)
         1           Sc  tau(   1) = (   0.6511821   0.1425828   0.4688470  )
         2           Sc  tau(   2) = (  -0.3648539   0.5578975   1.4065410  )
         3           Mn  tau(   3) = (   0.7630660   0.0968491   1.0424494  )
         4           Mn  tau(   4) = (   0.7630660   0.0968491   1.7706325  )
         5           Mn  tau(   5) = (  -0.4767378   0.6036312   0.1047554  )
         6           Mn  tau(   6) = (  -0.4767378   0.6036312   0.8329385  )
         7           O   tau(   7) = (   0.9180197   0.0335103   0.2158215  )
         8           O   tau(   8) = (   0.9180197   0.0335103   0.7218724  )
         9           O   tau(   9) = (   0.4644879   0.2188959   0.8358698  )
        10           O   tau(  10) = (   0.4644879   0.2188959   0.1018242  )
        11           O   tau(  11) = (  -0.3376973   0.5467970   0.4688470  )
        12           O   tau(  12) = (  -0.6316914   0.6669700   1.1535155  )
        13           O   tau(  13) = (  -0.1781596   0.4815844   1.0395182  )
        14           O   tau(  14) = (   0.6240256   0.1536833   1.4065410  )
        15           O   tau(  15) = (  -0.6316914   0.6669700   1.6595664  )
        16           O   tau(  16) = (  -0.1781596   0.4815844   1.7735637  )

   Crystallographic axes

     site n.     atom                  positions (cryst. coord.)
         1           Sc  tau(   1) = (  0.7964500  0.2035500  0.2500000  )
         2           Sc  tau(   2) = (  0.2035500  0.7964500  0.7500000  )
         3           Mn  tau(   3) = (  0.8617390  0.1382610  0.5558580  )
         4           Mn  tau(   4) = (  0.8617390  0.1382610  0.9441420  )
         5           Mn  tau(   5) = (  0.1382610  0.8617390  0.0558580  )
         6           Mn  tau(   6) = (  0.1382610  0.8617390  0.4441420  )
         7           O   tau(   7) = (  0.9521610  0.0478390  0.1150810  )
         8           O   tau(   8) = (  0.9521610  0.0478390  0.3849190  )
         9           O   tau(   9) = (  0.6875060  0.3124940  0.4457050  )
        10           O   tau(  10) = (  0.6875060  0.3124940  0.0542950  )
        11           O   tau(  11) = (  0.2193970  0.7806030  0.2500000  )
        12           O   tau(  12) = (  0.0478390  0.9521610  0.6150810  )
        13           O   tau(  13) = (  0.3124940  0.6875060  0.5542950  )
        14           O   tau(  14) = (  0.7806030  0.2193970  0.7500000  )
        15           O   tau(  15) = (  0.0478390  0.9521610  0.8849190  )
        16           O   tau(  16) = (  0.3124940  0.6875060  0.9457050  )

     number of k points=     1  Methfessel-Paxton smearing, width (Ry)=  0.0010
                       cart. coord. in units 2pi/alat
        k(    1) = (   0.0000000   0.0000000   0.0000000), wk =   2.0000000

                       cryst. coord.
        k(    1) = (   0.0000000   0.0000000   0.0000000), wk =   2.0000000

     Check: negative core charge=   -0.000027

     Initial potential from superposition of free atoms

     starting charge     139.9944, renormalised to     142.0000
     Starting wfcs are  112 randomized atomic wfcs
     Checking if some PAW data can be deallocated...

     Self-consistent Calculation

     iteration #  1     ecut=    30.00 Ry     beta= 0.70
     Davidson diagonalization with overlap

     ethr =  1.00E-02,  avg # of iterations =  2.0

     total energy              =   -1439.20117179 Ry
     estimated scf accuracy    <       9.23489787 Ry

[...]

     negative rho (up, down):  1.433E-06 0.000E+00

[...]

     negative rho (up, down):  7.743E-06 0.000E+00

[...]

     c_bands:  1 eigenvalues not converged
     ethr =  3.27E-05,  avg # of iterations = 20.0

[...]

     total energy              =   -1444.95084882 Ry
     estimated scf accuracy    <       0.00001348 Ry

     iteration # 34     ecut=    30.00 Ry     beta= 0.70
     Davidson diagonalization with overlap

     ethr =  1.37E-09,  avg # of iterations =  1.0

     End of self-consistent calculation

          k = 0.0000 0.0000 0.0000 (  1828 PWs)   bands (ev):

   -71.3765 -71.3764 -71.3709 -71.3705 -40.3234 -40.3230 -40.2695 -40.2680
   -40.2576 -40.2568 -40.2539 -40.2535 -40.2005 -40.2004 -39.7487 -39.7368
   -39.7361 -39.7356 -19.1215 -19.1113 -19.0160 -19.0145 -18.9533 -18.9530
   -10.7123 -10.2617  -9.7496  -9.6427  -9.5347  -9.4770  -9.4186  -9.2909
    -9.0988  -9.0925   2.5738   2.6603   3.0054   3.0142   3.0763   3.1979
     3.2391   3.5304   3.5514   3.6190   3.6958   4.2618   4.3016   4.5261
     4.5783   4.6479   4.7019   4.7698   4.8212   4.9607   5.5206   5.5350
     5.6288   5.8376   5.9426   5.9832   6.0026   6.0162   6.2952   6.8582
     7.8478   8.0861   8.3069   8.4617   8.5276   8.5522   8.6111   8.6207
     8.7702   8.7796   8.9307   8.9308   9.2681   9.3114   9.4330   9.5901
    10.3714  10.8501  10.9547  11.3197  12.2552

     occupation numbers
     1.0000   1.0000   1.0000   1.0000   1.0000   1.0000   1.0000   1.0000
     1.0000   1.0000   1.0000   1.0000   1.0000   1.0000   1.0000   1.0000
     1.0000   1.0000   1.0000   1.0000   1.0000   1.0000   1.0000   1.0000
     1.0000   1.0000   1.0000   1.0000   1.0000   1.0000   1.0000   1.0000
     1.0000   1.0000   1.0000   1.0000   1.0000   1.0000   1.0000   1.0000
     1.0000   1.0000   1.0000   1.0000   1.0000   1.0000   1.0000   1.0000
     1.0000   1.0000   1.0000   1.0000   1.0000   1.0000   1.0000   1.0000
     1.0000   1.0000   1.0000   1.0000   1.0000   1.0000   1.0000   1.0000
     1.0000   1.0000   1.0000   1.0000   1.0000   1.0000   0.7777   0.2223
    -0.0000  -0.0000  -0.0000  -0.0000  -0.0000  -0.0000  -0.0000  -0.0000
    -0.0000  -0.0000  -0.0000  -0.0000  -0.0000

     the Fermi energy is     8.6159 ev

!    total energy              =   -1444.95084916 Ry
     estimated scf accuracy    <       0.00000037 Ry
     smearing contrib. (-TS)   =      -0.00037586 Ry
     internal energy E=F+TS    =   -1444.95047330 Ry

     The total energy is F=E-TS. E is the sum of the following terms:
     one-electron contribution =    -807.62411631 Ry
     hartree contribution      =     463.97725975 Ry
     xc contribution           =    -203.23871265 Ry
     ewald contribution        =    -802.86046530 Ry
     one-center paw contrib.   =     -95.20443879 Ry
      -> PAW hartree energy AE =     290.68683499 Ry
      -> PAW hartree energy PS =    -289.62944438 Ry
      -> PAW xc energy AE      =    -170.83467995 Ry
      -> PAW xc energy PS      =      74.57285056 Ry
      -> total E_H with PAW    =     465.03465036 Ry
      -> total E_XC with PAW   =    -299.50054205 Ry

     convergence has been achieved in  34 iterations

     Forces acting on atoms (cartesian axes, Ry/au):

     atom    1 type  1   force =     0.01859027   -0.00759748    0.00000000
     atom    2 type  1   force =    -0.01859027    0.00759748    0.00000000
     atom    3 type  2   force =     0.13582770   -0.05552072    0.03192268
     atom    4 type  2   force =     0.13582770   -0.05552072   -0.03192268
     atom    5 type  2   force =    -0.13582770    0.05552072    0.03192268
     atom    6 type  2   force =    -0.13582770    0.05552072   -0.03192268
     atom    7 type  3   force =     0.05374233   -0.02196680   -0.07274660
     atom    8 type  3   force =     0.05374233   -0.02196680    0.07274660
     atom    9 type  3   force =     0.08278150   -0.03383766    0.00108589
     atom   10 type  3   force =     0.08278150   -0.03383766   -0.00108589
     atom   11 type  3   force =    -0.08557765    0.03497987    0.00000000
     atom   12 type  3   force =    -0.05374233    0.02196680   -0.07274660
     atom   13 type  3   force =    -0.08278150    0.03383766   -0.00108589
     atom   14 type  3   force =     0.08557765   -0.03497987    0.00000000
     atom   15 type  3   force =    -0.05374233    0.02196680    0.07274660
     atom   16 type  3   force =    -0.08278150    0.03383766    0.00108589
     The non-local contrib.  to forces
     atom    1 type  1   force =    -0.08227621    0.03363236    0.00000000
     atom    2 type  1   force =     0.08227621   -0.03363236    0.00000000
     atom    3 type  2   force =    -0.09579572    0.03915532   -0.02277699
     atom    4 type  2   force =    -0.09579572    0.03915532    0.02277699
     atom    5 type  2   force =     0.09579572   -0.03915532   -0.02277699
     atom    6 type  2   force =     0.09579572   -0.03915532    0.02277699
     atom    7 type  3   force =     0.05035664   -0.02058286   -0.52899839
     atom    8 type  3   force =     0.05035664   -0.02058286    0.52899839
     atom    9 type  3   force =    -0.22175807    0.09064293    0.02602387
     atom   10 type  3   force =    -0.22175807    0.09064293   -0.02602387
     atom   11 type  3   force =     0.18521921   -0.07571034    0.00000000
     atom   12 type  3   force =    -0.05035664    0.02058286   -0.52899839
     atom   13 type  3   force =     0.22175807   -0.09064293   -0.02602387
     atom   14 type  3   force =    -0.18521921    0.07571034    0.00000000
     atom   15 type  3   force =    -0.05035664    0.02058286    0.52899839
     atom   16 type  3   force =     0.22175807   -0.09064293    0.02602387
     The ionic contribution  to forces
     atom    1 type  1   force =     2.72497736   -1.11386140   -0.00000000
     atom    2 type  1   force =    -2.72497736    1.11386140   -0.00000000
     atom    3 type  2   force =     4.63257946   -1.89361259    8.04855472
     atom    4 type  2   force =     4.63257946   -1.89361259   -8.04855472
     atom    5 type  2   force =    -4.63257946    1.89361259    8.04855472
     atom    6 type  2   force =    -4.63257946    1.89361259   -8.04855472
     atom    7 type  3   force =     0.78834268   -0.32224285    9.98992024
     atom    8 type  3   force =     0.78834268   -0.32224285   -9.98992024
     atom    9 type  3   force =    -6.91220559    2.82543228   -2.32190480
     atom   10 type  3   force =    -6.91220559    2.82543228    2.32190480
     atom   11 type  3   force =     2.16411008   -0.88460136   -0.00000000
     atom   12 type  3   force =    -0.78834269    0.32224286    9.98992024
     atom   13 type  3   force =     6.91220559   -2.82543228    2.32190480
     atom   14 type  3   force =    -2.16411008    0.88460136   -0.00000000
     atom   15 type  3   force =    -0.78834269    0.32224286   -9.98992024
     atom   16 type  3   force =     6.91220559   -2.82543228   -2.32190480
     The local contribution  to forces
     atom    1 type  1   force =    -2.62413751    1.07265712    0.00107244
     atom    2 type  1   force =     2.62395083   -1.07255603   -0.00092972
     atom    3 type  2   force =    -4.40569353    1.80090143   -7.99783112
     atom    4 type  2   force =    -4.40596460    1.80107985    7.99661883
     atom    5 type  2   force =     4.40604487   -1.80097996   -7.99656535
     atom    6 type  2   force =     4.40578680   -1.80082171    7.99743893
     atom    7 type  3   force =    -0.78375089    0.32042168   -9.53888790
     atom    8 type  3   force =    -0.78355867    0.32032004    9.53972213
     atom    9 type  3   force =     7.21233483   -2.94812642    2.29786037
     atom   10 type  3   force =     7.21237954   -2.94811351   -2.29757782
     atom   11 type  3   force =    -2.43269811    0.99437244    0.00068419
     atom   12 type  3   force =     0.78387826   -0.32038076   -9.53988358
     atom   13 type  3   force =    -7.21265652    2.94824970   -2.29803704
     atom   14 type  3   force =     2.43259676   -0.99436985   -0.00051831
     atom   15 type  3   force =     0.78385418   -0.32038075    9.53894920
     atom   16 type  3   force =    -7.21247766    2.94814476    2.29760553
     The core correction contribution to forces
     atom    1 type  1   force =     0.00000000    0.00000000    0.00000000
     atom    2 type  1   force =     0.00000000    0.00000000    0.00000000
     atom    3 type  2   force =     0.00515872   -0.00211056    0.00335034
     atom    4 type  2   force =     0.00515770   -0.00210292   -0.00335589
     atom    5 type  2   force =    -0.00515446    0.00210478    0.00335637
     atom    6 type  2   force =    -0.00515449    0.00211144   -0.00335076
     atom    7 type  3   force =    -0.00118738    0.00048539    0.00572984
     atom    8 type  3   force =    -0.00118701    0.00048542   -0.00572935
     atom    9 type  3   force =     0.00430578   -0.00176041   -0.00080773
     atom   10 type  3   force =     0.00430601   -0.00175980    0.00080762
     atom   11 type  3   force =    -0.00226056    0.00092404   -0.00000027
     atom   12 type  3   force =     0.00118714   -0.00048524    0.00572941
     atom   13 type  3   force =    -0.00430624    0.00176046    0.00080835
     atom   14 type  3   force =     0.00226063   -0.00092405    0.00000013
     atom   15 type  3   force =     0.00118725   -0.00048501   -0.00572944
     atom   16 type  3   force =    -0.00430639    0.00175977   -0.00080795
     The Hubbard contrib.    to forces
     atom    1 type  1   force =     0.00000000    0.00000000    0.00000000
     atom    2 type  1   force =     0.00000000    0.00000000    0.00000000
     atom    3 type  2   force =     0.00000000    0.00000000    0.00000000
     atom    4 type  2   force =     0.00000000    0.00000000    0.00000000
     atom    5 type  2   force =     0.00000000    0.00000000    0.00000000
     atom    6 type  2   force =     0.00000000    0.00000000    0.00000000
     atom    7 type  3   force =     0.00000000    0.00000000    0.00000000
     atom    8 type  3   force =     0.00000000    0.00000000    0.00000000
     atom    9 type  3   force =     0.00000000    0.00000000    0.00000000
     atom   10 type  3   force =     0.00000000    0.00000000    0.00000000
     atom   11 type  3   force =     0.00000000    0.00000000    0.00000000
     atom   12 type  3   force =     0.00000000    0.00000000    0.00000000
     atom   13 type  3   force =     0.00000000    0.00000000    0.00000000
     atom   14 type  3   force =     0.00000000    0.00000000    0.00000000
     atom   15 type  3   force =     0.00000000    0.00000000    0.00000000
     atom   16 type  3   force =     0.00000000    0.00000000    0.00000000
     The SCF correction term to forces
     atom    1 type  1   force =     0.00002876   -0.00002769   -0.00106644
     atom    2 type  1   force =     0.00016219   -0.00007765    0.00092083
     atom    3 type  2   force =    -0.00038373    0.00010967    0.00055531
     atom    4 type  2   force =    -0.00012078    0.00000973    0.00058350
     atom    5 type  2   force =     0.00008687   -0.00008696   -0.00056343
     atom    6 type  2   force =     0.00036835   -0.00018658   -0.00021226
     atom    7 type  3   force =    -0.00001856   -0.00004049   -0.00050377
     atom    8 type  3   force =    -0.00020852    0.00006563   -0.00032313
     atom    9 type  3   force =     0.00008157   -0.00004411   -0.00008824
     atom   10 type  3   force =     0.00005600   -0.00002490   -0.00020893
     atom   11 type  3   force =     0.00005722   -0.00000669   -0.00070391
     atom   12 type  3   force =    -0.00010569    0.00001104    0.00048730
     atom   13 type  3   force =     0.00020586   -0.00007838    0.00028347
     atom   14 type  3   force =     0.00005504    0.00000055    0.00052916
     atom   15 type  3   force =    -0.00008419    0.00002273    0.00045572
     atom   16 type  3   force =     0.00002405   -0.00001395    0.00018093

     Total force =     0.418032     Total SCF correction =     0.002296

     Computing stress (Cartesian axis) and pressure

          total   stress  (Ry/bohr**3)                   (kbar)     P=     -534.70
  -0.00343348  -0.00019746   0.00000000         -505.08      -29.05        0.00
  -0.00019746  -0.00383584   0.00000000          -29.05     -564.27        0.00
   0.00000000   0.00000000  -0.00363504            0.00        0.00     -534.73

     kinetic stress (kbar)  30094.61     -9.59      0.00
                               -9.59  30075.07      0.00
                                0.00      0.00  30674.04

     local   stress (kbar) -19318.72   4467.55     -0.23
                             4467.55 -10215.35     -0.35
                               -0.23     -0.35 -26879.33

     nonloc. stress (kbar)   7827.46     42.71      0.00
                               42.71   7914.49      0.00
                                0.00      0.00   8042.96

     hartree stress (kbar)  17787.70  -1702.73      0.06
                            -1702.73  14318.11      0.09
                                0.06      0.09  20367.95

     exc-cor stress (kbar)  -5060.43     -6.31      0.00
                               -6.31  -5073.29      0.00
                                0.00      0.00  -5049.99

     corecor stress (kbar)  -2099.86     -1.13     -0.00
                               -1.13  -2102.17     -0.00
                               -0.00     -0.00  -2107.42

     ewald   stress (kbar) -29735.85  -2819.55     -0.00
                            -2819.55 -35481.13      0.00
                               -0.00      0.00 -25582.95

     hubbard stress (kbar)      0.00      0.00      0.00
                                0.00      0.00      0.00
                                0.00      0.00      0.00

     DFT-D   stress (kbar)      0.00      0.00      0.00
                                0.00      0.00      0.00
                                0.00      0.00      0.00

     XDM     stress (kbar)      0.00      0.00      0.00
                                0.00      0.00      0.00
                                0.00      0.00      0.00

     dft-nl  stress (kbar)      0.00      0.00      0.00
                                0.00      0.00      0.00
                                0.00      0.00      0.00

     TS-vdW  stress (kbar)      0.00      0.00      0.00
                                0.00      0.00      0.00
                                0.00      0.00      0.00

[...]

                                0.00      0.00      0.00

     Writing all to output data dir new_calculations/myprefix.save/

     General routines

     Parallel routines

     PAW routines

   This run was terminated on:  19:32:59  21May2023

   JOB DONE.