     Program PWSCF v.7.0 starts on 20May2023 at 22: 8:59

     Reading input from espresso_20259.pwi
Warning: card &CELL ignored
Warning: card / ignored

     Current dimensions of program PWSCF are:
     Max number of different atomic species (ntypx) = 10
     Max number of k-points (npk) =  40000
     Max angular momentum in pseudopotentials (lmaxx) =  4
     file Ba.pbe-spn-kjpaw_psl.1.0.0.UPF: wavefunction(s)  5S 6S renormalized
     file O.pbe-n-kjpaw_psl.0.1.UPF: wavefunction(s)  2P renormalized

     gamma-point specific algorithms are used
     Message from routine setup:
     using ibrav=0 with symmetry is DISCOURAGED, use correct ibrav instead

     Subspace diagonalization in iterative solution of the eigenvalue problem:
     a serial algorithm will be used

     Using Slab Decomposition

     bravais-lattice index     =            0
     lattice parameter (alat)  =      11.2869  a.u.
     unit-cell volume          =    1016.7486 (a.u.)^3
     number of atoms/cell      =           10
     number of atomic types    =            4
     number of electrons       =        81.00
     number of Kohn-Sham states=           49
     kinetic-energy cutoff     =      30.0000  Ry
     charge density cutoff     =     240.0000  Ry
     scf convergence threshold =      1.0E-06
     mixing beta               =       0.7000
     number of iterations used =            8  plain     mixing
     Exchange-correlation= SLA  PW   PBX  PBC
                           (   1   4   3   4   0   0   0)

     celldm(1)=  11.286939  celldm(2)=   0.000000  celldm(3)=   0.000000
     celldm(4)=   0.000000  celldm(5)=   0.000000  celldm(6)=   0.000000

     crystal axes: (cart. coord. in units of alat)
               a(1) = (   1.000000   0.000000   0.000000 )
               a(2) = (   0.500000   0.866025   0.000000 )
               a(3) = (   0.500000   0.288675   0.816497 )

     reciprocal axes: (cart. coord. in units 2 pi/alat)
               b(1) = (  1.000000 -0.577350 -0.408248 )
               b(2) = (  0.000000  1.154701 -0.408248 )
               b(3) = (  0.000000  0.000000  1.224745 )

     PseudoPot. # 1 for Ba read from file:
     /home/pragov/projects/rrg-bengioy-ad/pragov/crystal_structure_design/SSSP/Ba.pbe-spn-kjpaw_psl.1.0.0.UPF
     MD5 check sum: c432291d3e53af55f19d5e8866385beb
     Pseudo is Projector augmented-wave + core cor, Zval = 10.0
     Generated using "atomic" code by A. Dal Corso  v.5.1
     Shape of augmentation charge: PSQ
     Using radial grid of 1251 points,  7 beta functions with:
                l(1) =   0
                l(2) =   0
                l(3) =   0
                l(4) =   1
                l(5) =   1
                l(6) =   2
                l(7) =   2
     Q(r) pseudized with 0 coefficients

     PseudoPot. # 2 for Ce read from file:
     /home/pragov/projects/rrg-bengioy-ad/pragov/crystal_structure_design/SSSP/Ce.GGA-PBE-paw-v1.0.UPF
     MD5 check sum: f2b950f613061344c13339c8d844425d
     Pseudo is Projector augmented-wave + core cor, Zval = 12.0
     Generated using ATOMPAW code
     Shape of augmentation charge: BESSEL
     Using radial grid of 1102 points,  8 beta functions with:
                l(1) =   0
                l(2) =   0
                l(3) =   1
                l(4) =   1
                l(5) =   2
                l(6) =   2
                l(7) =   3
                l(8) =   3
     Q(r) pseudized with 0 coefficients

     PseudoPot. # 3 for V  read from file:
     /home/pragov/projects/rrg-bengioy-ad/pragov/crystal_structure_design/SSSP/v_pbe_v1.4.uspp.F.UPF
     MD5 check sum: 22b79981416ebb76fdaf5b1b8640f6fb
     Pseudo is Ultrasoft + core correction, Zval = 13.0
     Generated by new atomic code, or converted to UPF format
     Using radial grid of  853 points,  6 beta functions with:
                l(1) =   0
                l(2) =   0
                l(3) =   1
                l(4) =   1
                l(5) =   2
                l(6) =   2
     Q(r) pseudized with  8 coefficients,  rinner =    1.100   1.100   1.100
                                                       1.100   1.100

     PseudoPot. # 4 for O  read from file:
     /home/pragov/projects/rrg-bengioy-ad/pragov/crystal_structure_design/SSSP/O.pbe-n-kjpaw_psl.0.1.UPF
     MD5 check sum: 0234752ac141de4415c5fc33072bef88
     Pseudo is Projector augmented-wave + core cor, Zval =  6.0
     Generated using "atomic" code by A. Dal Corso  v.5.0.99 svn rev. 10869
     Shape of augmentation charge: BESSEL
     Using radial grid of 1095 points,  4 beta functions with:
                l(1) =   0
                l(2) =   0
                l(3) =   1
                l(4) =   1
     Q(r) pseudized with 0 coefficients

     atomic species   valence    mass     pseudopotential
        Ba            10.00   137.32700     Ba( 1.00)
        Ce            12.00   140.11600     Ce( 1.00)
        V             13.00    50.94150     V ( 1.00)
        O              6.00    15.99900     O ( 1.00)

     12 Sym. Ops., with inversion, found

                                    s                        frac. trans.

      isym =  1     identity

 cryst.   s( 1) = (     1          0          0      )
                  (     0          1          0      )
                  (     0          0          1      )

 cart.    s( 1) = (  1.0000000  0.0000000  0.0000000 )
                  (  0.0000000  1.0000000 -0.0000000 )
                  (  0.0000000  0.0000000  1.0000000 )

      isym =  2     180 deg rotation - cart. axis [1,0,0]

[...]

      isym =  3     120 deg rotation - cryst. axis [0,0,1]

[...]

      isym =  6     180 deg rotation - cryst. axis [1,1,0]

[...]

      isym =  7     inversion

[...]

      isym =  8     inv. 180 deg rotation - cart. axis [1,0,0]

[...]

      isym =  9     inv. 120 deg rotation - cryst. axis [0,0,1]

 cryst.   s( 9) = (     1         -1          0      )
                  (     1          0          0      )
                  (     1          0         -1      )

 cart.    s( 9) = (  0.5000000  0.8660254  0.0000000 )
                  ( -0.8660254  0.5000000  0.0000000 )
                  (  0.0000000  0.0000000 -1.0000000 )

[...]

 cryst.   s(10) = (     0          1          0      )
                  (    -1          1          0      )
                  (     0          1         -1      )

 cart.    s(10) = (  0.5000000 -0.8660254 -0.0000000 )
                  (  0.8660254  0.5000000  0.0000000 )
                  (  0.0000000  0.0000000 -1.0000000 )

[...]

      isym = 12     inv. 180 deg rotation - cryst. axis [1,1,0]

 cryst.   s(12) = (     1         -1          0      )
                  (     0         -1          0      )
                  (     0         -1          1      )

 cart.    s(12) = (  0.5000000 -0.8660254 -0.0000000 )
                  ( -0.8660254 -0.5000000 -0.0000000 )
                  (  0.0000000  0.0000000  1.0000000 )

   Cartesian axes

     site n.     atom                  positions (alat units)
         1           Ba  tau(   1) = (   0.5000000   0.2886751   0.2041241  )
         2           Ba  tau(   2) = (   1.5000000   0.8660254   0.6123724  )
         3           Ce  tau(   3) = (   0.0000000   0.0000000   0.0000000  )
         4           V   tau(   4) = (   1.0000000   0.5773503   0.4082483  )
         5           O   tau(   5) = (   1.0000000   0.3078142   0.2176575  )
         6           O   tau(   6) = (   1.0000000   0.8468864   0.5988391  )
         7           O   tau(   7) = (   1.2334251   0.4425822   0.5988391  )
         8           O   tau(   8) = (   0.7665749   0.7121183   0.2176575  )
         9           O   tau(   9) = (   1.2334251   0.7121183   0.2176575  )
        10           O   tau(  10) = (   0.7665749   0.4425822   0.5988391  )

   Crystallographic axes

     site n.     atom                  positions (cryst. coord.)
         1           Ba  tau(   1) = (  0.2500000  0.2500000  0.2500000  )
         2           Ba  tau(   2) = (  0.7500000  0.7500000  0.7500000  )
         3           Ce  tau(   3) = (  0.0000000  0.0000000  0.0000000  )
         4           V   tau(   4) = (  0.5000000  0.5000000  0.5000000  )
         5           O   tau(   5) = (  0.7334251  0.2665749  0.2665749  )
         6           O   tau(   6) = (  0.2665749  0.7334251  0.7334251  )
         7           O   tau(   7) = (  0.7334251  0.2665749  0.7334251  )
         8           O   tau(   8) = (  0.2665749  0.7334251  0.2665749  )
         9           O   tau(   9) = (  0.7334251  0.7334251  0.2665749  )
        10           O   tau(  10) = (  0.2665749  0.2665749  0.7334251  )

     number of k points=     1  Methfessel-Paxton smearing, width (Ry)=  0.0010
                       cart. coord. in units 2pi/alat
        k(    1) = (   0.0000000   0.0000000   0.0000000), wk =   2.0000000

                       cryst. coord.
        k(    1) = (   0.0000000   0.0000000   0.0000000), wk =   2.0000000

     Check: negative core charge=   -0.000011

     Initial potential from superposition of free atoms

     starting charge      80.9578, renormalised to      81.0000

     negative rho (up, down):  1.045E-03 0.000E+00
     Starting wfcs are   76 randomized atomic wfcs
     Checking if some PAW data can be deallocated...

     Self-consistent Calculation

     iteration #  1     ecut=    30.00 Ry     beta= 0.70
     Davidson diagonalization with overlap

     ethr =  1.00E-02,  avg # of iterations =  2.0

     negative rho (up, down):  1.978E-03 0.000E+00

     total energy              =   -1746.35246702 Ry
     estimated scf accuracy    <       5.33148212 Ry

[...]

     ethr =  1.55E-05,  avg # of iterations =  1.0
     Minimization algorithm failed to find Fermi energy: reverting to bisection
     Possible cause: smearing is larger than the electronic band-gap.

[...]

     ethr =  5.10E-07,  avg # of iterations =  5.0

[...]

     total energy              =   -1749.62285426 Ry
     estimated scf accuracy    <       0.00001120 Ry

     iteration # 75     ecut=    30.00 Ry     beta= 0.70
     Davidson diagonalization with overlap

     ethr =  1.55E-09,  avg # of iterations =  2.0
     Minimization algorithm failed to find Fermi energy: reverting to bisection
     Possible cause: smearing is larger than the electronic band-gap.

[...]

     End of self-consistent calculation

          k = 0.0000 0.0000 0.0000 (  1371 PWs)   bands (ev):

   -54.1732 -27.9443 -27.9442 -27.9441 -22.1117 -16.4042 -16.3078  -7.2092
    -7.2092  -7.2090  -6.2149  -5.7949  -5.7948  -3.3677  -3.3677  -3.3676
    -1.8730  -1.8730  -1.8730  -1.3771  -1.3771  -1.3771   6.6172   6.6173
     6.9169   7.4724   7.4725   7.4725   8.8357   8.8357   8.8358   9.2276
     9.2277   9.2277   9.7886   9.7887   9.7887  10.3470  10.3471  10.3471
    11.8726  11.8726  11.8726  12.7184  13.0836  13.0836  13.0836  13.4716
    13.4716

     occupation numbers
     1.0000   1.0000   1.0000   1.0000   1.0000   1.0000   1.0000   1.0000
     1.0000   1.0000   1.0000   1.0000   1.0000   1.0000   1.0000   1.0000
     1.0000   1.0000   1.0000   1.0000   1.0000   1.0000   1.0000   1.0000
     1.0000   1.0000   1.0000   1.0000   1.0000   1.0000   1.0000   1.0000
     1.0000   1.0000   1.0000   1.0000   1.0000   1.0000   1.0000   1.0000
     0.1680   0.1666   0.1654  -0.0000  -0.0000  -0.0000  -0.0000  -0.0000
    -0.0000

     the Fermi energy is    11.8667 ev

!    total energy              =   -1749.62285410 Ry
     estimated scf accuracy    <       0.00000095 Ry
     smearing contrib. (-TS)   =      -0.00043272 Ry
     internal energy E=F+TS    =   -1749.62242138 Ry

     The total energy is F=E-TS. E is the sum of the following terms:
     one-electron contribution =    -146.62914906 Ry
     hartree contribution      =     127.94622344 Ry
     xc contribution           =    -115.73273302 Ry
     ewald contribution        =    -399.89057089 Ry
     one-center paw contrib.   =   -1215.31619184 Ry
      -> PAW hartree energy AE =     284.34632950 Ry
      -> PAW hartree energy PS =    -283.23738062 Ry
      -> PAW xc energy AE      =   -1309.33650731 Ry
      -> PAW xc energy PS      =      92.91136659 Ry
      -> total E_H with PAW    =     129.05517232 Ry
      -> total E_XC with PAW   =   -1332.15787374 Ry

     convergence has been achieved in  75 iterations

     negative rho (up, down):  1.465E-03 0.000E+00

     Forces acting on atoms (cartesian axes, Ry/au):

     atom    1 type  1   force =    -0.00000000   -0.00000000    0.00003568
     atom    2 type  1   force =     0.00000000    0.00000000   -0.00003568
     atom    3 type  2   force =     0.00000000    0.00000000    0.00000000
     atom    4 type  3   force =     0.00000000    0.00000000    0.00000000
     atom    5 type  4   force =     0.00000000    0.01845366    0.01303295
     atom    6 type  4   force =     0.00000000   -0.01845366   -0.01303295
     atom    7 type  4   force =    -0.01598134    0.00922683   -0.01303295
     atom    8 type  4   force =     0.01598134   -0.00922683    0.01303295
     atom    9 type  4   force =    -0.01598134   -0.00922683    0.01303295
     atom   10 type  4   force =     0.01598134    0.00922683   -0.01303295
     The non-local contrib.  to forces
     atom    1 type  1   force =    -0.00000000   -0.00000000   -0.00002457
     atom    2 type  1   force =     0.00000000    0.00000000    0.00002457
     atom    3 type  2   force =     0.00000000    0.00000000   -0.00000000
     atom    4 type  3   force =     0.00000000    0.00000000    0.00000000
     atom    5 type  4   force =     0.00000000    0.22022044    0.15571718
     atom    6 type  4   force =     0.00000000   -0.22022044   -0.15571718
     atom    7 type  4   force =    -0.19071649    0.11011022   -0.15571718
     atom    8 type  4   force =     0.19071649   -0.11011022    0.15571718
     atom    9 type  4   force =    -0.19071649   -0.11011022    0.15571718
     atom   10 type  4   force =     0.19071649    0.11011022   -0.15571718
     The ionic contribution  to forces
     atom    1 type  1   force =    -0.00000000   -0.00000000    0.00000000
     atom    2 type  1   force =     0.00000000    0.00000000   -0.00000000
     atom    3 type  2   force =    -0.00000000    0.00000000   -0.00000000
     atom    4 type  3   force =     0.00000000   -0.00000000   -0.00000000
     atom    5 type  4   force =     0.00000000   -4.01175378   -2.83673830
     atom    6 type  4   force =    -0.00000000    4.01175379    2.83673831
     atom    7 type  4   force =     3.47428069   -2.00587689    2.83673831
     atom    8 type  4   force =    -3.47428069    2.00587689   -2.83673831
     atom    9 type  4   force =     3.47428069    2.00587689   -2.83673831
     atom   10 type  4   force =    -3.47428069   -2.00587689    2.83673831
     The local contribution  to forces
     atom    1 type  1   force =    -0.00028260   -0.00048741    0.00027054
     atom    2 type  1   force =     0.00035181   -0.00085395    0.00010261
     atom    3 type  2   force =     0.00000662   -0.00000113   -0.00001428
     atom    4 type  3   force =    -0.00000884    0.00000324    0.00001986
     atom    5 type  4   force =    -0.00000223    3.81282531    2.69612951
     atom    6 type  4   force =     0.00000364   -3.81281811   -2.69612935
     atom    7 type  4   force =    -3.30201476    1.90639548   -2.69609949
     atom    8 type  4   force =     3.30201432   -1.90639128    2.69609921
     atom    9 type  4   force =    -3.30199520   -1.90637819    2.69608585
     atom   10 type  4   force =     3.30199625    1.90637671   -2.69608806
     The core correction contribution to forces
     atom    1 type  1   force =    -0.00000685   -0.00001148    0.00000932
     atom    2 type  1   force =     0.00000997   -0.00002027   -0.00000095
     atom    3 type  2   force =     0.00000000    0.00000000   -0.00000000
     atom    4 type  3   force =    -0.00000003    0.00000008    0.00000018
     atom    5 type  4   force =     0.00000004   -0.00289474   -0.00204703
     atom    6 type  4   force =    -0.00000000    0.00289479    0.00204698
     atom    7 type  4   force =     0.00250700   -0.00144734    0.00204701
     atom    8 type  4   force =    -0.00250698    0.00144742   -0.00204702
     atom    9 type  4   force =     0.00250697    0.00144739   -0.00204701
     atom   10 type  4   force =    -0.00250695   -0.00144735    0.00204697
     The Hubbard contrib.    to forces
     atom    1 type  1   force =     0.00000000    0.00000000    0.00000000
     atom    2 type  1   force =     0.00000000    0.00000000    0.00000000
     atom    3 type  2   force =     0.00000000    0.00000000    0.00000000
     atom    4 type  3   force =     0.00000000    0.00000000    0.00000000
     atom    5 type  4   force =     0.00000000    0.00000000    0.00000000
     atom    6 type  4   force =     0.00000000    0.00000000    0.00000000
     atom    7 type  4   force =     0.00000000    0.00000000    0.00000000
     atom    8 type  4   force =     0.00000000    0.00000000    0.00000000
     atom    9 type  4   force =     0.00000000    0.00000000    0.00000000
     atom   10 type  4   force =     0.00000000    0.00000000    0.00000000
     The SCF correction term to forces
     atom    1 type  1   force =     0.00003593    0.00007503   -0.00005488
     atom    2 type  1   force =    -0.00004360    0.00009672    0.00000281
     atom    3 type  2   force =    -0.00000676    0.00000209    0.00001410
     atom    4 type  3   force =     0.00000968   -0.00000278   -0.00001984
     atom    5 type  4   force =     0.00000409    0.00004131   -0.00004749
     atom    6 type  4   force =    -0.00000363   -0.00004447    0.00004487
     atom    7 type  4   force =    -0.00002389    0.00004841    0.00000347
     atom    8 type  4   force =     0.00002601   -0.00004719   -0.00000237
     atom    9 type  4   force =    -0.00007767   -0.00008104    0.00003671
     atom   10 type  4   force =     0.00007852    0.00008519   -0.00003650

     Total force =     0.055339     Total SCF correction =     0.000254

     Computing stress (Cartesian axis) and pressure

     negative rho (up, down):  1.465E-03 0.000E+00
          total   stress  (Ry/bohr**3)                   (kbar)     P=     -200.15
  -0.00136117   0.00000000   0.00000000         -200.24        0.00        0.00
   0.00000000  -0.00136117  -0.00000000            0.00     -200.24       -0.00
   0.00000000  -0.00000000  -0.00135945            0.00       -0.00     -199.98

     kinetic stress (kbar)  19143.62      0.00      0.00
                                0.00  19143.62      0.00
                                0.00      0.00  19143.12

     local   stress (kbar)  -7407.01      0.52     -0.83
                                0.52  -7408.71     -0.43
                               -0.83     -0.43  -7406.74

     nonloc. stress (kbar)   5651.98     -0.00     -0.00
                               -0.00   5651.98      0.00
                               -0.00      0.00   5651.91

     hartree stress (kbar)   6170.27     -0.26      0.39
                               -0.26   6170.92      0.25
                                0.39      0.25   6170.30

     exc-cor stress (kbar)     22.55     -0.00      0.01
                               -0.00     22.56      0.00
                                0.01      0.00     22.55

     corecor stress (kbar)  -4495.48      0.00     -0.01
                                0.00  -4495.49     -0.00
                               -0.01     -0.00  -4495.47

     ewald   stress (kbar) -19285.64     -0.00     -0.00
                               -0.00 -19285.64      0.00
                               -0.00      0.00 -19285.64

     hubbard stress (kbar)      0.00      0.00      0.00
                                0.00      0.00      0.00
                                0.00      0.00      0.00

     DFT-D   stress (kbar)      0.00      0.00      0.00
                                0.00      0.00      0.00
                                0.00      0.00      0.00

     XDM     stress (kbar)      0.00      0.00      0.00
                                0.00      0.00      0.00
                                0.00      0.00      0.00

     dft-nl  stress (kbar)      0.00      0.00      0.00
                                0.00      0.00      0.00
                                0.00      0.00      0.00

     TS-vdW  stress (kbar)      0.00      0.00      0.00
                                0.00      0.00      0.00
                                0.00      0.00      0.00

[...]

                                0.00      0.00      0.00

     Writing all to output data dir new_calculations/myprefix.save/

     General routines

     Parallel routines

     PAW routines

   This run was terminated on:  22:11:48  20May2023

   JOB DONE.