     Program PWSCF v.7.0 starts on 20May2023 at 14:16:31

     Reading input from espresso_13456.pwi
Warning: card &CELL ignored
Warning: card / ignored

     Current dimensions of program PWSCF are:
     Max number of different atomic species (ntypx) = 10
     Max number of k-points (npk) =  40000
     Max angular momentum in pseudopotentials (lmaxx) =  4

     gamma-point specific algorithms are used
     Message from routine setup:
     using ibrav=0 with symmetry is DISCOURAGED, use correct ibrav instead

     Subspace diagonalization in iterative solution of the eigenvalue problem:
     a serial algorithm will be used

     Using Slab Decomposition

     bravais-lattice index     =            0
     lattice parameter (alat)  =       8.9342  a.u.
     unit-cell volume          =     516.9999 (a.u.)^3
     number of atoms/cell      =            6
     number of atomic types    =            2
     number of electrons       =       101.00
     number of Kohn-Sham states=           61
     kinetic-energy cutoff     =      30.0000  Ry
     charge density cutoff     =     240.0000  Ry
     scf convergence threshold =      1.0E-06
     mixing beta               =       0.7000
     number of iterations used =            8  plain     mixing
     Exchange-correlation=  SLA  PW   PBX  PBC
                           (   1   4   3   4   0   0   0)

     celldm(1)=   8.934239  celldm(2)=   0.000000  celldm(3)=   0.000000
     celldm(4)=   0.000000  celldm(5)=   0.000000  celldm(6)=   0.000000

     crystal axes: (cart. coord. in units of alat)
               a(1) = (   1.000000   0.000000   0.000000 )
               a(2) = (  -0.500000   0.866025   0.000000 )
               a(3) = (   0.000000   0.000000   0.837119 )

     reciprocal axes: (cart. coord. in units 2 pi/alat)
               b(1) = (  1.000000  0.577350  0.000000 )
               b(2) = (  0.000000  1.154700  0.000000 )
               b(3) = (  0.000000  0.000000  1.194573 )

     PseudoPot. # 1 for Sc read from file:
     /home/pragov/projects/rrg-bengioy-ad/pragov/crystal_structure_design/SSSP/Sc_ONCV_PBE-1.0.oncvpsp.upf
     MD5 check sum: e21af8023abb52e52cb7cd3133e4a229
     Pseudo is Norm-conserving, Zval = 11.0
     Generated using ONCVPSP code by D. R. Hamann
     Using radial grid of 1662 points,  6 beta functions with:
                l(1) =   0
                l(2) =   0
                l(3) =   1
                l(4) =   1
                l(5) =   2
                l(6) =   2

     PseudoPot. # 2 for Ni read from file:
     /home/pragov/projects/rrg-bengioy-ad/pragov/crystal_structure_design/SSSP/ni_pbe_v1.4.uspp.F.UPF
     MD5 check sum: 1ee80287db30b12d2bc1f57a5b5d6409
     Pseudo is Ultrasoft + core correction, Zval = 18.0
     Generated by new atomic code, or converted to UPF format
     Using radial grid of  865 points,  6 beta functions with:
                l(1) =   0
                l(2) =   0
                l(3) =   1
                l(4) =   1
                l(5) =   2
                l(6) =   2
     Q(r) pseudized with 10 coefficients,  rinner =    0.980   0.980   0.980
                                                       0.980   0.980

     atomic species   valence    mass     pseudopotential
        Sc            11.00    44.95591     Sc( 1.00)
        Ni            18.00    58.69340     Ni( 1.00)

     24 Sym. Ops., with inversion, found

                                    s                        frac. trans.

      isym =  1     identity

 cryst.   s( 1) = (     1          0          0      )
                  (     0          1          0      )
                  (     0          0          1      )

 cart.    s( 1) = (  1.0000000 -0.0000000  0.0000000 )
                  (  0.0000000  1.0000000  0.0000000 )
                  (  0.0000000  0.0000000  1.0000000 )

      isym =  2     180 deg rotation - cart. axis [0,0,1]

[...]

      isym =  4     180 deg rotation - cart. axis [1,0,0]

[...]

      isym =  5      60 deg rotation - cryst. axis [0,0,1]

[...]

 cryst.   s( 9) = (     0         -1          0      )
                  (    -1          0          0      )
                  (     0          0         -1      )

 cart.    s( 9) = (  0.4999999 -0.8660255  0.0000000 )
                  ( -0.8660255 -0.4999999  0.0000000 )
                  (  0.0000000  0.0000000 -1.0000000 )

[...]

 cryst.   s(10) = (     1          1          0      )
                  (     0         -1          0      )
                  (     0          0         -1      )

 cart.    s(10) = (  0.5000001  0.8660253  0.0000000 )
                  (  0.8660255 -0.5000001  0.0000000 )
                  (  0.0000000  0.0000000 -1.0000000 )

[...]

      isym = 12     180 deg rotation - cryst. axis [1,1,0]

[...]

      isym = 13     inversion

[...]

      isym = 14     inv. 180 deg rotation - cart. axis [0,0,1]

[...]

      isym = 16     inv. 180 deg rotation - cart. axis [1,0,0]

[...]

      isym = 17     inv.  60 deg rotation - cryst. axis [0,0,1]

[...]

      isym = 24     inv. 180 deg rotation - cryst. axis [1,1,0]

 cryst.   s(24) = (     0         -1          0      )
                  (    -1          0          0      )
                  (     0          0          1      )

 cart.    s(24) = (  0.4999999 -0.8660255  0.0000000 )
                  ( -0.8660255 -0.4999999  0.0000000 )
                  (  0.0000000  0.0000000  1.0000000 )

   Cartesian axes

     site n.     atom                  positions (alat units)
         1           Sc  tau(   1) = (   0.0000000   0.0000000   0.0000000  )
         2           Ni  tau(   2) = (   0.2500000   0.4330127   0.4185594  )
         3           Ni  tau(   3) = (   0.5000005   0.2886749   0.0000000  )
         4           Ni  tau(   4) = (  -0.2500000   0.4330127   0.4185594  )
         5           Ni  tau(   5) = (  -0.0000004   0.5773506   0.0000000  )
         6           Ni  tau(   6) = (   0.5000000   0.0000000   0.4185594  )

   Crystallographic axes

     site n.     atom                  positions (cryst. coord.)
         1           Sc  tau(   1) = (  0.0000000  0.0000000  0.0000000  )
         2           Ni  tau(   2) = (  0.5000000  0.5000000  0.5000000  )
         3           Ni  tau(   3) = (  0.6666670  0.3333330  0.0000000  )
         4           Ni  tau(   4) = ( -0.0000000  0.5000000  0.5000000  )
         5           Ni  tau(   5) = (  0.3333330  0.6666670  0.0000000  )
         6           Ni  tau(   6) = (  0.5000000  0.0000000  0.5000000  )

     number of k points=     1  Methfessel-Paxton smearing, width (Ry)=  0.0010
                       cart. coord. in units 2pi/alat
        k(    1) = (   0.0000000   0.0000000   0.0000000), wk =   2.0000000

                       cryst. coord.
        k(    1) = (   0.0000000   0.0000000   0.0000000), wk =   2.0000000

     Check: negative core charge=   -0.000012

     Initial potential from superposition of free atoms

     starting charge      90.9974, renormalised to     101.0000
     Starting wfcs are   75 randomized atomic wfcs

     Self-consistent Calculation

     iteration #  1     ecut=    30.00 Ry     beta= 0.70
     Davidson diagonalization with overlap

     ethr =  1.00E-02,  avg # of iterations =  4.0

     total energy              =   -1648.29966531 Ry
     estimated scf accuracy    <     236.53758495 Ry

[...]

     total energy              =   -1807.16069897 Ry
     estimated scf accuracy    <       0.00000543 Ry

     iteration # 34     ecut=    30.00 Ry     beta= 0.70
     Davidson diagonalization with overlap

     ethr =  5.38E-09,  avg # of iterations =  2.0

     End of self-consistent calculation

          k = 0.0000 0.0000 0.0000 (   706 PWs)   bands (ev):

   -87.2236 -87.2149 -87.0319 -86.9945 -86.9942 -47.7576 -47.6615 -47.5926
   -47.5029 -47.5029 -47.4970 -47.4970 -47.4477 -47.4474 -47.4376 -47.3697
   -47.3695 -47.1796 -47.1794 -47.1045 -33.8284 -12.5168 -12.3670 -12.3670
     7.5146  11.3918  12.6210  12.6337  12.6338  12.9314  12.9703  12.9703
    13.2538  13.2538  13.3549  13.9933  13.9933  14.0060  14.0060  14.5695
    15.0231  15.0232  15.2274  15.2275  15.4886  15.5765  15.5767  16.2531
    16.2532  16.6393  16.7363  17.3609  17.3610  17.5721  17.6644  18.3706
    18.3706  18.6626  18.6626  22.4799  22.4799

     occupation numbers
     1.0000   1.0000   1.0000   1.0000   1.0000   1.0000   1.0000   1.0000
     1.0000   1.0000   1.0000   1.0000   1.0000   1.0000   1.0000   1.0000
     1.0000   1.0000   1.0000   1.0000   1.0000   1.0000   1.0000   1.0000
     1.0000   1.0000   1.0000   1.0000   1.0000   1.0000   1.0000   1.0000
     1.0000   1.0000   1.0000   1.0000   1.0000   1.0000   1.0000   1.0000
     1.0000   1.0000   1.0000   1.0000   1.0000   1.0000   1.0000   1.0000
     1.0000   1.0000   0.5000  -0.0000  -0.0000  -0.0000  -0.0000  -0.0000
    -0.0000  -0.0000  -0.0000  -0.0000  -0.0000

     the Fermi energy is    16.7363 ev

!    total energy              =   -1807.16069940 Ry
     estimated scf accuracy    <       0.00000014 Ry
     smearing contrib. (-TS)   =      -0.00028209 Ry
     internal energy E=F+TS    =   -1807.16041730 Ry

     The total energy is F=E-TS. E is the sum of the following terms:
     one-electron contribution =   -1203.41229320 Ry
     hartree contribution      =     658.72018214 Ry
     xc contribution           =    -189.90787256 Ry
     ewald contribution        =   -1072.56043369 Ry

     convergence has been achieved in  34 iterations

     Forces acting on atoms (cartesian axes, Ry/au):

     atom    1 type  1   force =     0.00000000    0.00000000    0.00000000
     atom    2 type  2   force =    -0.00000000   -0.00000000    0.00000000
     atom    3 type  2   force =    -0.00000000   -0.00000000    0.00000000
     atom    4 type  2   force =     0.00000000   -0.00000000   -0.00000000
     atom    5 type  2   force =     0.00000000    0.00000000    0.00000000
     atom    6 type  2   force =     0.00000000    0.00000000   -0.00000000
     The non-local contrib.  to forces
     atom    1 type  1   force =     0.00000000    0.00000000    0.00000000
     atom    2 type  2   force =    -0.00000000   -0.00000000    0.00000000
     atom    3 type  2   force =     0.00000000   -0.00000000    0.00000000
     atom    4 type  2   force =     0.00000000    0.00000000   -0.00000000
     atom    5 type  2   force =    -0.00000000    0.00000000    0.00000000
     atom    6 type  2   force =     0.00000000   -0.00000000    0.00000000
     The ionic contribution  to forces
     atom    1 type  1   force =     0.00000000    0.00000000   -0.00000000
     atom    2 type  2   force =     0.00000000   -0.00000000    0.00000000
     atom    3 type  2   force =    -0.00010960    0.00006328   -0.00000000
     atom    4 type  2   force =    -0.00000000    0.00000000    0.00000000
     atom    5 type  2   force =     0.00010960   -0.00006328   -0.00000000
     atom    6 type  2   force =    -0.00000000    0.00000000    0.00000000
     The local contribution  to forces
     atom    1 type  1   force =    -0.00009530    0.00007567   -0.00000075
     atom    2 type  2   force =    -0.00004131    0.00000188    0.00000113
     atom    3 type  2   force =     0.00002663    0.00014945   -0.00000060
     atom    4 type  2   force =     0.00004981   -0.00012022    0.00000058
     atom    5 type  2   force =     0.00007025   -0.00019400   -0.00000052
     atom    6 type  2   force =     0.00010799    0.00001462    0.00000051
     The core correction contribution to forces
     atom    1 type  1   force =     0.00000000    0.00000000    0.00000000
     atom    2 type  2   force =     0.00000040   -0.00000012   -0.00000000
     atom    3 type  2   force =     0.00000023   -0.00000054    0.00000000
     atom    4 type  2   force =    -0.00000022    0.00000027   -0.00000000
     atom    5 type  2   force =    -0.00000030    0.00000053    0.00000000
     atom    6 type  2   force =    -0.00000033    0.00000011   -0.00000000
     The Hubbard contrib.    to forces
     atom    1 type  1   force =     0.00000000    0.00000000    0.00000000
     atom    2 type  2   force =     0.00000000    0.00000000    0.00000000
     atom    3 type  2   force =     0.00000000    0.00000000    0.00000000
     atom    4 type  2   force =     0.00000000    0.00000000    0.00000000
     atom    5 type  2   force =     0.00000000    0.00000000    0.00000000
     atom    6 type  2   force =     0.00000000    0.00000000    0.00000000
     The SCF correction term to forces
     atom    1 type  1   force =     0.00009889   -0.00007868    0.00000076
     atom    2 type  2   force =     0.00007560   -0.00000618   -0.00000133
     atom    3 type  2   force =     0.00008093   -0.00016252    0.00000061
     atom    4 type  2   force =    -0.00010104    0.00013213   -0.00000052
     atom    5 type  2   force =    -0.00019202    0.00018180    0.00000068
     atom    6 type  2   force =    -0.00013444    0.00003847   -0.00000024

     Total force =     0.000000     Total SCF correction =     0.000415

     Computing stress (Cartesian axis) and pressure

          total   stress  (Ry/bohr**3)                   (kbar)     P=    -1592.62
  -0.01056245   0.00000000   0.00000000        -1553.79        0.00        0.00
   0.00000000  -0.01056245   0.00000000            0.00    -1553.79        0.00
   0.00000000   0.00000000  -0.01135435            0.00        0.00    -1670.28

     kinetic stress (kbar)  51382.73     -0.00      0.00
                               -0.00  51382.73     -0.00
                                0.00     -0.00  51353.28

     local   stress (kbar)   7537.81     -0.12      0.00
                               -0.12   7538.83      0.00
                                0.00      0.00 -55743.50

     nonloc. stress (kbar)  17087.47     -0.00      0.00
                               -0.00  17087.47      0.00
                                0.00      0.00  16645.34

     hartree stress (kbar)  52555.80      0.00      0.00
                                0.00  52554.85     -0.00
                                0.00     -0.00  82318.94

     exc-cor stress (kbar) -14545.77     -0.00     -0.00
                               -0.00 -14545.77     -0.00
                               -0.00     -0.00 -14533.26

     corecor stress (kbar)  -2560.16      0.00     -0.00
                                0.00  -2560.16     -0.00
                               -0.00     -0.00  -2552.46

     ewald   stress (kbar)-113011.78      0.14     -0.00
                                0.14-113011.62      0.00
                               -0.00      0.00 -79158.64

     hubbard stress (kbar)      0.00      0.00      0.00
                                0.00      0.00      0.00
                                0.00      0.00      0.00

     DFT-D   stress (kbar)      0.00      0.00      0.00
                                0.00      0.00      0.00
                                0.00      0.00      0.00

     XDM     stress (kbar)      0.00      0.00      0.00
                                0.00      0.00      0.00
                                0.00      0.00      0.00

     dft-nl  stress (kbar)      0.00      0.00      0.00
                                0.00      0.00      0.00
                                0.00      0.00      0.00

     TS-vdW  stress (kbar)      0.00      0.00      0.00
                                0.00      0.00      0.00
                                0.00      0.00      0.00

[...]

                                0.00      0.00      0.00

     Writing all to output data dir new_calculations/myprefix.save/

     General routines

     Parallel routines

   This run was terminated on:  14:16:44  20May2023

   JOB DONE.