     Program PWSCF v.7.0 starts on 20May2023 at 20: 6:17

     Reading input from espresso_19491.pwi
Warning: card &CELL ignored
Warning: card / ignored

     Current dimensions of program PWSCF are:
     Max number of different atomic species (ntypx) = 10
     Max number of k-points (npk) =  40000
     Max angular momentum in pseudopotentials (lmaxx) =  4
     file In.pbe-dn-rrkjus_psl.0.2.2.UPF: wavefunction(s)  5S renormalized

     gamma-point specific algorithms are used
     Message from routine setup:
     using ibrav=0 with symmetry is DISCOURAGED, use correct ibrav instead

     Subspace diagonalization in iterative solution of the eigenvalue problem:
     a serial algorithm will be used

     Using Slab Decomposition

     bravais-lattice index     =            0
     lattice parameter (alat)  =      19.5517  a.u.
     unit-cell volume          =    4338.1718 (a.u.)^3
     number of atoms/cell      =           16
     number of atomic types    =            2
     number of electrons       =       178.00
     number of Kohn-Sham states=          107
     kinetic-energy cutoff     =      30.0000  Ry
     charge density cutoff     =     240.0000  Ry
     scf convergence threshold =      1.0E-06
     mixing beta               =       0.7000
     number of iterations used =            8  plain     mixing
     Exchange-correlation= PBE
                           (   1   4   3   4   0   0   0)

     celldm(1)=  19.551654  celldm(2)=   0.000000  celldm(3)=   0.000000
     celldm(4)=   0.000000  celldm(5)=   0.000000  celldm(6)=   0.000000

     crystal axes: (cart. coord. in units of alat)
               a(1) = (   1.000000   0.000000   0.000000 )
               a(2) = (   0.272243   0.962228   0.000000 )
               a(3) = (  -0.636122  -0.481114   0.603223 )

     reciprocal axes: (cart. coord. in units 2 pi/alat)
               b(1) = (  1.000000 -0.282930  0.828881 )
               b(2) = (  0.000000  1.039254  0.828881 )
               b(3) = (  0.000000  0.000000  1.657761 )

     PseudoPot. # 1 for Sr read from file:
     /home/pragov/projects/rrg-bengioy-ad/pragov/crystal_structure_design/SSSP/Sr_pbe_v1.uspp.F.UPF
     MD5 check sum: 6b418c05fbe9db5448babca5e47b7a5b
     Pseudo is Ultrasoft + core correction, Zval = 10.0
     Generated by new atomic code, or converted to UPF format
     Using radial grid of  883 points,  6 beta functions with:
                l(1) =   0
                l(2) =   0
                l(3) =   1
                l(4) =   1
                l(5) =   2
                l(6) =   2
     Q(r) pseudized with  6 coefficients,  rinner =    1.400   1.400   1.400
                                                       1.400   1.400

     PseudoPot. # 2 for In read from file:
     /home/pragov/projects/rrg-bengioy-ad/pragov/crystal_structure_design/SSSP/In.pbe-dn-rrkjus_psl.0.2.2.UPF
     MD5 check sum: 25e7c42c3b55b68f4bf926be2e7201a4
     Pseudo is Ultrasoft + core correction, Zval = 13.0
     Generated using "atomic" code by A. Dal Corso  v.5.0.99 svn rev. 10869
     Using radial grid of 1241 points,  6 beta functions with:
                l(1) =   0
                l(2) =   0
                l(3) =   1
                l(4) =   1
                l(5) =   2
                l(6) =   2
     Q(r) pseudized with 0 coefficients

     atomic species   valence    mass     pseudopotential
        Sr            10.00    87.62000     Sr( 1.00)
        In            13.00   114.81800     In( 1.00)

      4 Sym. Ops., with inversion, found ( 2 have fractional translation)

                                    s                        frac. trans.

      isym =  1     identity

 cryst.   s( 1) = (     1          0          0      )
                  (     0          1          0      )
                  (     0          0          1      )

 cart.    s( 1) = (  1.0000000  0.0000000 -0.0000000 )
                  (  0.0000000  1.0000000  0.0000000 )
                  (  0.0000000  0.0000000  1.0000000 )

      isym =  2     180 deg rotation - cart. axis [0,0,1]

 cryst.   s( 2) = (    -1          0          0      )    f =( -0.5000000 )
                  (     0         -1          0      )       (  0.5000000 )
                  (     1          1          1      )       (  0.0000000 )

 cart.    s( 2) = ( -1.0000000 -0.0000000 -0.0000000 )    f =( -0.3638783 )
                  (  0.0000000 -1.0000000 -0.0000000 )       (  0.4811142 )
                  (  0.0000000  0.0000000  1.0000000 )       (  0.0000000 )

      isym =  3     inversion

 cryst.   s( 3) = (    -1          0          0      )
                  (     0         -1          0      )
                  (     0          0         -1      )

 cart.    s( 3) = ( -1.0000000 -0.0000000  0.0000000 )
                  (  0.0000000 -1.0000000 -0.0000000 )
                  (  0.0000000  0.0000000 -1.0000000 )

      isym =  4     inv. 180 deg rotation - cart. axis [0,0,1]

 cryst.   s( 4) = (     1          0          0      )    f =( -0.5000000 )
                  (     0          1          0      )       ( -0.5000000 )
                  (    -1         -1         -1      )       (  0.0000000 )

 cart.    s( 4) = (  1.0000000  0.0000000  0.0000000 )    f =( -0.6361217 )
                  (  0.0000000  1.0000000  0.0000000 )       ( -0.4811142 )
                  (  0.0000000  0.0000000 -1.0000000 )       (  0.0000000 )

   Cartesian axes

     site n.     atom                  positions (alat units)
         1           Sr  tau(   1) = (  -0.3673820   0.1003022   0.5132338  )
         2           Sr  tau(   2) = (   0.0035037   0.3808120   0.5132338  )
         3           Sr  tau(   3) = (   1.0035037   0.3808120   0.0899894  )
         4           Sr  tau(   4) = (   0.0000000   0.0000000   0.0000000  )
         5           Sr  tau(   5) = (   0.2397266   0.0684818   0.3016116  )
         6           Sr  tau(   6) = (  -0.1311591  -0.2120280   0.3016116  )
         7           Sr  tau(   7) = (   0.6326180   0.1003022   0.0899894  )
         8           Sr  tau(   8) = (   0.3963952   0.4126324   0.3016116  )
         9           Sr  tau(   9) = (   0.7672808   0.6931422   0.3016116  )
        10           Sr  tau(  10) = (   0.6361217   0.4811142   0.0000000  )
        11           In  tau(  11) = (   0.7336520   0.3521612   0.3016116  )
        12           In  tau(  12) = (   0.1819398  -0.2405566   0.4415407  )
        13           In  tau(  13) = (  -0.0975303   0.1289530   0.3016116  )
        14           In  tau(  14) = (   0.3180609   0.2405571   0.0000000  )
        15           In  tau(  15) = (   0.4541819   0.7216708   0.1616825  )
        16           In  tau(  16) = (   0.9541826   0.7216713   0.0000000  )

   Crystallographic axes

     site n.     atom                  positions (cryst. coord.)
         1           Sr  tau(   1) = (  0.0296490  0.5296490  0.8508190  )
         2           Sr  tau(   2) = (  0.3211700  0.8211700  0.8508190  )
         3           Sr  tau(   3) = (  0.9703510  0.4703510  0.1491810  )
         4           Sr  tau(   4) = (  0.0000000  0.0000000  0.0000000  )
         5           Sr  tau(   5) = (  0.4703510  0.3211700  0.5000000  )
         6           Sr  tau(   6) = (  0.1788300  0.0296490  0.5000000  )
         7           Sr  tau(   7) = (  0.6788300  0.1788300  0.1491810  )
         8           Sr  tau(   8) = (  0.5296490  0.6788300  0.5000000  )
         9           Sr  tau(   9) = (  0.8211700  0.9703510  0.5000000  )
        10           Sr  tau(  10) = (  0.5000000  0.5000000  0.0000000  )
        11           In  tau(  11) = (  0.8840150  0.6159850  0.5000000  )
        12           In  tau(  12) = (  0.6159850  0.1159850  0.7319690  )
        13           In  tau(  13) = (  0.1159850  0.3840150  0.5000000  )
        14           In  tau(  14) = (  0.2500000  0.2500000  0.0000000  )
        15           In  tau(  15) = (  0.3840150  0.8840150  0.2680310  )
        16           In  tau(  16) = (  0.7500000  0.7500000  0.0000000  )

     number of k points=     1  Methfessel-Paxton smearing, width (Ry)=  0.0010
                       cart. coord. in units 2pi/alat
        k(    1) = (   0.0000000   0.0000000   0.0000000), wk =   2.0000000

                       cryst. coord.
        k(    1) = (   0.0000000   0.0000000   0.0000000), wk =   2.0000000

     Check: negative core charge=   -0.000003

     Initial potential from superposition of free atoms

     starting charge     177.6412, renormalised to     178.0000

     negative rho (up, down):  6.305E-01 0.000E+00
     Starting wfcs are  184 randomized atomic wfcs

     Self-consistent Calculation

     iteration #  1     ecut=    30.00 Ry     beta= 0.70
     Davidson diagonalization with overlap

     ethr =  1.00E-02,  avg # of iterations =  3.0

     Threshold (ethr) on eigenvalues was too large:
     Diagonalizing with lowered threshold

     Davidson diagonalization with overlap

[...]

     negative rho (up, down):  5.680E-01 0.000E+00

     total energy              =   -1572.41041682 Ry
     estimated scf accuracy    <       0.58249417 Ry

[...]

     total energy              =   -1572.51561352 Ry
     estimated scf accuracy    <       0.00002680 Ry

     iteration # 16     ecut=    30.00 Ry     beta= 0.70
     Davidson diagonalization with overlap

     ethr =  1.51E-08,  avg # of iterations =  2.0

[...]

     End of self-consistent calculation

          k = 0.0000 0.0000 0.0000 (  6024 PWs)   bands (ev):

   -29.5373 -29.5343 -29.3331 -29.2300 -29.2225 -29.2175 -29.1519 -29.1357
   -29.0875 -28.9963 -12.7310 -12.1868 -12.0664 -12.0369 -11.8925 -11.7919
   -11.7663 -11.7559 -11.7421 -11.7068 -11.6737 -11.6684 -11.6398 -11.6023
   -11.5305 -11.4616 -11.4609 -11.4148 -11.3978 -11.2996 -11.2493 -11.2217
   -11.1535 -11.1029 -11.0984 -11.0849 -11.0810 -11.0509 -11.0386 -10.9529
    -8.1810  -8.1800  -8.1469  -8.1268  -8.1259  -8.1089  -8.0929  -8.0858
    -8.0430  -8.0394  -7.9913  -7.9780  -7.9435  -7.9375  -7.9060  -7.8673
    -7.7758  -7.7390  -7.7386  -7.6654  -7.6595  -7.6274  -7.6014  -7.5430
    -7.5138  -7.4697  -7.4434  -7.3619  -7.2592  -7.0488   0.1444   0.7155
     1.7962   2.0465   2.3049   2.3432   4.3824   4.7313   4.9981   5.0391
     5.0592   5.4081   5.4371   5.4434   5.6445   6.4962   6.5253   6.5348
     6.6677   6.6858   6.7571   6.8691   6.8811   6.9830   7.8024   7.8371
     7.9368   7.9607   8.0788   8.0914   8.2057   8.2077   8.3471   8.8501
     8.8853   8.9377   8.9762

     occupation numbers
     1.0000   1.0000   1.0000   1.0000   1.0000   1.0000   1.0000   1.0000
     1.0000   1.0000   1.0000   1.0000   1.0000   1.0000   1.0000   1.0000
     1.0000   1.0000   1.0000   1.0000   1.0000   1.0000   1.0000   1.0000
     1.0000   1.0000   1.0000   1.0000   1.0000   1.0000   1.0000   1.0000
     1.0000   1.0000   1.0000   1.0000   1.0000   1.0000   1.0000   1.0000
     1.0000   1.0000   1.0000   1.0000   1.0000   1.0000   1.0000   1.0000
     1.0000   1.0000   1.0000   1.0000   1.0000   1.0000   1.0000   1.0000
     1.0000   1.0000   1.0000   1.0000   1.0000   1.0000   1.0000   1.0000
     1.0000   1.0000   1.0000   1.0000   1.0000   1.0000   1.0000   1.0000
     1.0000   1.0000   1.0000   1.0000   1.0000   1.0000   1.0000   1.0000
     1.0000   1.0000   1.0000   1.0000   1.0000   1.0000   1.0000   1.0000
     0.9469   0.0531  -0.0000  -0.0000  -0.0000  -0.0000  -0.0000  -0.0000
    -0.0000  -0.0000  -0.0000  -0.0000  -0.0000  -0.0000  -0.0000  -0.0000
    -0.0000  -0.0000  -0.0000

     the Fermi energy is     6.6767 ev

!    total energy              =   -1572.51561452 Ry
     estimated scf accuracy    <       0.00000024 Ry
     smearing contrib. (-TS)   =      -0.00004233 Ry
     internal energy E=F+TS    =   -1572.51557218 Ry

     The total energy is F=E-TS. E is the sum of the following terms:
     one-electron contribution =    -640.29321852 Ry
     hartree contribution      =     398.68733577 Ry
     xc contribution           =    -467.93207700 Ry
     ewald contribution        =    -862.97761244 Ry

     convergence has been achieved in  16 iterations

     negative rho (up, down):  5.429E-01 0.000E+00

     Forces acting on atoms (cartesian axes, Ry/au):

     atom    1 type  1   force =    -0.01536321   -0.01375043   -0.00568753
     atom    2 type  1   force =     0.01536321    0.01375043   -0.00568753
     atom    3 type  1   force =     0.01536321    0.01375043    0.00568753
     atom    4 type  1   force =     0.00000000    0.00000000    0.00000000
     atom    5 type  1   force =     0.01500315    0.02313629    0.00000000
     atom    6 type  1   force =    -0.00902824   -0.02547034   -0.00000000
     atom    7 type  1   force =    -0.01536321   -0.01375043    0.00568753
     atom    8 type  1   force =    -0.01500315   -0.02313629   -0.00000000
     atom    9 type  1   force =     0.00902824    0.02547034    0.00000000
     atom   10 type  1   force =     0.00000000    0.00000000   -0.00000000
     atom   11 type  2   force =     0.00828020   -0.01129309   -0.00000000
     atom   12 type  2   force =     0.00000000    0.00000000   -0.03954466
     atom   13 type  2   force =    -0.00828020    0.01129309    0.00000000
     atom   14 type  2   force =     0.00000000    0.00000000    0.00075097
     atom   15 type  2   force =     0.00000000    0.00000000    0.03954466
     atom   16 type  2   force =     0.00000000    0.00000000   -0.00075097
     The non-local contrib.  to forces
     atom    1 type  1   force =    -0.01908756   -0.00022396    0.00706503
     atom    2 type  1   force =     0.01908756    0.00022396    0.00706503
     atom    3 type  1   force =     0.01908756    0.00022396   -0.00706503
     atom    4 type  1   force =     0.00000000   -0.00000000    0.00000000
     atom    5 type  1   force =     0.01018977   -0.00281593    0.00000000
     atom    6 type  1   force =    -0.03062451   -0.00742158   -0.00000000
     atom    7 type  1   force =    -0.01908756   -0.00022396   -0.00706503
     atom    8 type  1   force =    -0.01018977    0.00281593   -0.00000000
     atom    9 type  1   force =     0.03062451    0.00742158    0.00000000
     atom   10 type  1   force =    -0.00000000    0.00000000    0.00000000
     atom   11 type  2   force =    -0.02645452    0.03724114    0.00000000
     atom   12 type  2   force =     0.00000000    0.00000000    0.04429473
     atom   13 type  2   force =     0.02645452   -0.03724114   -0.00000000
     atom   14 type  2   force =     0.00000000    0.00000000    0.00235374
     atom   15 type  2   force =     0.00000000    0.00000000   -0.04429473
     atom   16 type  2   force =     0.00000000    0.00000000   -0.00235374
     The ionic contribution  to forces
     atom    1 type  1   force =    -3.75533752   -2.84025239   -0.27670961
     atom    2 type  1   force =     3.75533084    2.84024733   -0.27667325
     atom    3 type  1   force =     3.75533752    2.84025239    0.27670962
     atom    4 type  1   force =    -0.00000000   -0.00000000   -0.00000000
     atom    5 type  1   force =     3.92225770    2.61959408   -0.00002003
     atom    6 type  1   force =    -3.58845675   -3.06094050    0.00002003
     atom    7 type  1   force =    -3.75533084   -2.84024733    0.27667325
     atom    8 type  1   force =    -3.92225770   -2.61959408    0.00002003
     atom    9 type  1   force =     3.58845675    3.06094050   -0.00002003
     atom   10 type  1   force =    -0.00000000    0.00000000    0.00000000
     atom   11 type  2   force =    -2.70867090    3.58136252   -0.00000000
     atom   12 type  2   force =     0.00000478    0.00000362    4.49048017
     atom   13 type  2   force =     2.70867090   -3.58136252    0.00000000
     atom   14 type  2   force =     0.00000969   -0.00001282    0.00000000
     atom   15 type  2   force =    -0.00000478   -0.00000362   -4.49048017
     atom   16 type  2   force =    -0.00000969    0.00001282    0.00000000
     The local contribution  to forces
     atom    1 type  1   force =     3.76331231    2.82405244    0.26186816
     atom    2 type  1   force =    -3.75244862   -2.82931972    0.27156860
     atom    3 type  1   force =    -3.76358292   -2.82379772   -0.26193642
     atom    4 type  1   force =    -0.00020169   -0.00003355   -0.00004524
     atom    5 type  1   force =    -3.91890125   -2.59520909   -0.05537047
     atom    6 type  1   force =     3.60603759    3.04546356   -0.02166853
     atom    7 type  1   force =     3.75269470    2.82893894   -0.27159139
     atom    8 type  1   force =     3.91893537    2.59524457    0.05590484
     atom    9 type  1   force =    -3.60602100   -3.04538919    0.02138367
     atom   10 type  1   force =     0.00021688    0.00010514   -0.00009832
     atom   11 type  2   force =     2.73712436   -3.62123216   -0.01164492
     atom   12 type  2   force =    -0.00856253   -0.00156512   -4.56061050
     atom   13 type  2   force =    -2.73708400    3.62118831    0.01174506
     atom   14 type  2   force =    -0.01127046    0.00393288   -0.00139223
     atom   15 type  2   force =     0.00868182    0.00160608    4.56078802
     atom   16 type  2   force =     0.01117668   -0.00399392    0.00131130
     The core correction contribution to forces
     atom    1 type  1   force =     0.00360877   -0.00205764   -0.00194516
     atom    2 type  1   force =     0.00130280   -0.00238469   -0.00332956
     atom    3 type  1   force =    -0.00360919    0.00205646    0.00194620
     atom    4 type  1   force =     0.00000214    0.00000169    0.00000135
     atom    5 type  1   force =     0.00139280    0.00128870   -0.01090082
     atom    6 type  1   force =     0.00412458   -0.00251963   -0.00946944
     atom    7 type  1   force =    -0.00130601    0.00238464    0.00332999
     atom    8 type  1   force =    -0.00139218   -0.00128651    0.01090199
     atom    9 type  1   force =    -0.00412205    0.00252173    0.00947152
     atom   10 type  1   force =    -0.00000207   -0.00000151   -0.00000051
     atom   11 type  2   force =     0.00609706   -0.00811192   -0.00164577
     atom   12 type  2   force =    -0.00095500   -0.00000426   -0.01357331
     atom   13 type  2   force =    -0.00609665    0.00810873    0.00164741
     atom   14 type  2   force =    -0.00139069    0.00011637   -0.00061542
     atom   15 type  2   force =     0.00096179    0.00000612    0.01357792
     atom   16 type  2   force =     0.00138934   -0.00011724    0.00061495
     The Hubbard contrib.    to forces
     atom    1 type  1   force =     0.00000000    0.00000000    0.00000000
     atom    2 type  1   force =     0.00000000    0.00000000    0.00000000
     atom    3 type  1   force =     0.00000000    0.00000000    0.00000000
     atom    4 type  1   force =     0.00000000    0.00000000    0.00000000
     atom    5 type  1   force =     0.00000000    0.00000000    0.00000000
     atom    6 type  1   force =     0.00000000    0.00000000    0.00000000
     atom    7 type  1   force =     0.00000000    0.00000000    0.00000000
     atom    8 type  1   force =     0.00000000    0.00000000    0.00000000
     atom    9 type  1   force =     0.00000000    0.00000000    0.00000000
     atom   10 type  1   force =     0.00000000    0.00000000    0.00000000
     atom   11 type  2   force =     0.00000000    0.00000000    0.00000000
     atom   12 type  2   force =     0.00000000    0.00000000    0.00000000
     atom   13 type  2   force =     0.00000000    0.00000000    0.00000000
     atom   14 type  2   force =     0.00000000    0.00000000    0.00000000
     atom   15 type  2   force =     0.00000000    0.00000000    0.00000000
     atom   16 type  2   force =     0.00000000    0.00000000    0.00000000
     The SCF correction term to forces
     atom    1 type  1   force =     0.00001211   -0.00007888   -0.00012975
     atom    2 type  1   force =    -0.00002900    0.00017060   -0.00014719
     atom    3 type  1   force =     0.00023922   -0.00018208    0.00020843
     atom    4 type  1   force =     0.00020876    0.00005750    0.00005368
     atom    5 type  1   force =     0.00007207    0.00029279   -0.00027701
     atom    6 type  1   force =    -0.00010149   -0.00003800    0.00013885
     atom    7 type  1   force =    -0.00021548    0.00019691    0.00017277
     atom    8 type  1   force =    -0.00009093   -0.00030196   -0.00022772
     atom    9 type  1   force =     0.00009769   -0.00001010    0.00015984
     atom   10 type  1   force =    -0.00022311   -0.00013226    0.00009270
     atom   11 type  2   force =     0.00018365   -0.00055787   -0.00005489
     atom   12 type  2   force =    -0.00003067   -0.00004437   -0.00011011
     atom   13 type  2   force =    -0.00022552    0.00059451   -0.00011796
     atom   14 type  2   force =     0.00000306   -0.00004705    0.00040489
     atom   15 type  2   force =    -0.00005754    0.00004804   -0.00002073
     atom   16 type  2   force =     0.00009160    0.00010471   -0.00032345

     Total force =     0.091279     Total SCF correction =     0.001383

     Computing stress (Cartesian axis) and pressure

     negative rho (up, down):  5.429E-01 0.000E+00
          total   stress  (Ry/bohr**3)                   (kbar)     P=      110.63
   0.00065202  -0.00068335   0.00000000           95.92     -100.52        0.00
  -0.00068335   0.00053879  -0.00000000         -100.52       79.26       -0.00
   0.00000000  -0.00000000   0.00106532            0.00       -0.00      156.71

     kinetic stress (kbar)   8498.48    -52.06      0.00
                              -52.06   8506.64      0.00
                                0.00      0.00   8547.51

     local   stress (kbar)  -4064.49   1947.63     -3.78
                             1947.63  -5197.98     12.15
                               -3.78     12.15  -6666.04

     nonloc. stress (kbar)   5074.87    -26.96      0.00
                              -26.96   5074.12      0.00
                                0.00      0.00   5089.94

     hartree stress (kbar)   3942.39   -900.03     -0.04
                             -900.03   4448.60     -0.03
                               -0.04     -0.03   5128.29

     exc-cor stress (kbar)   6425.51     -0.79      0.03
                               -0.79   6425.94     -0.04
                                0.03     -0.04   6426.53

     corecor stress (kbar)  -9354.71     -0.93      0.30
                               -0.93  -9355.92      0.09
                                0.30      0.09  -9354.68

     ewald   stress (kbar) -10426.13  -1067.39      0.00
                            -1067.39  -9822.14      0.00
                                0.00      0.00  -9014.84

     hubbard stress (kbar)      0.00      0.00      0.00
                                0.00      0.00      0.00
                                0.00      0.00      0.00

     DFT-D   stress (kbar)      0.00      0.00      0.00
                                0.00      0.00      0.00
                                0.00      0.00      0.00

     XDM     stress (kbar)      0.00      0.00      0.00
                                0.00      0.00      0.00
                                0.00      0.00      0.00

     dft-nl  stress (kbar)      0.00      0.00      0.00
                                0.00      0.00      0.00
                                0.00      0.00      0.00

     TS-vdW  stress (kbar)      0.00      0.00      0.00
                                0.00      0.00      0.00
                                0.00      0.00      0.00

[...]

                                0.00      0.00      0.00

     Writing all to output data dir new_calculations/myprefix.save/

     General routines

     Parallel routines

   This run was terminated on:  20: 7:49  20May2023

   JOB DONE.