     Program PWSCF v.7.0 starts on 20May2023 at 20:37:21

     Reading input from espresso_16600.pwi
Warning: card &CELL ignored
Warning: card / ignored

     Current dimensions of program PWSCF are:
     Max number of different atomic species (ntypx) = 10
     Max number of k-points (npk) =  40000
     Max angular momentum in pseudopotentials (lmaxx) =  4

     gamma-point specific algorithms are used
     Message from routine setup:
     using ibrav=0 with symmetry is DISCOURAGED, use correct ibrav instead

     Subspace diagonalization in iterative solution of the eigenvalue problem:
     a serial algorithm will be used

     Using Slab Decomposition

     bravais-lattice index     =            0
     lattice parameter (alat)  =      12.6431  a.u.
     unit-cell volume          =    1238.6344 (a.u.)^3
     number of atoms/cell      =           14
     number of atomic types    =            2
     number of electrons       =       216.00
     number of Kohn-Sham states=          130
     kinetic-energy cutoff     =      30.0000  Ry
     charge density cutoff     =     240.0000  Ry
     scf convergence threshold =      1.0E-06
     mixing beta               =       0.7000
     number of iterations used =            8  plain     mixing
     Exchange-correlation=  SLA  PW   PBX  PBC
                           (   1   4   3   4   0   0   0)

     celldm(1)=  12.643089  celldm(2)=   0.000000  celldm(3)=   0.000000
     celldm(4)=   0.000000  celldm(5)=   0.000000  celldm(6)=   0.000000

     crystal axes: (cart. coord. in units of alat)
               a(1) = (   1.000000   0.000000   0.000000 )
               a(2) = (  -0.404833   0.914391   0.000000 )
               a(3) = (  -0.404833  -0.621968   0.670273 )

     reciprocal axes: (cart. coord. in units 2 pi/alat)
               b(1) = (  1.000000  0.442735  1.014810 )
               b(2) = (  0.000000  1.093624  1.014810 )
               b(3) = (  0.000000  0.000000  1.491929 )

     PseudoPot. # 1 for Ti read from file:
     /home/pragov/projects/rrg-bengioy-ad/pragov/crystal_structure_design/SSSP/ti_pbe_v1.4.uspp.F.UPF
     MD5 check sum: 88a00a6731bd790ddea75d31a80cb452
     Pseudo is Ultrasoft + core correction, Zval = 12.0
     Generated by new atomic code, or converted to UPF format
     Using radial grid of  851 points,  6 beta functions with:
                l(1) =   0
                l(2) =   0
                l(3) =   1
                l(4) =   1
                l(5) =   2
                l(6) =   2
     Q(r) pseudized with  6 coefficients,  rinner =    1.000   1.000   1.000
                                                       1.000   1.000

     PseudoPot. # 2 for Ni read from file:
     /home/pragov/projects/rrg-bengioy-ad/pragov/crystal_structure_design/SSSP/ni_pbe_v1.4.uspp.F.UPF
     MD5 check sum: 1ee80287db30b12d2bc1f57a5b5d6409
     Pseudo is Ultrasoft + core correction, Zval = 18.0
     Generated by new atomic code, or converted to UPF format
     Using radial grid of  865 points,  6 beta functions with:
                l(1) =   0
                l(2) =   0
                l(3) =   1
                l(4) =   1
                l(5) =   2
                l(6) =   2
     Q(r) pseudized with 10 coefficients,  rinner =    0.980   0.980   0.980
                                                       0.980   0.980

     atomic species   valence    mass     pseudopotential
        Ti            12.00    47.86700     Ti( 1.00)
        Ni            18.00    58.69340     Ni( 1.00)

      2 Sym. Ops., with inversion, found

                                    s                        frac. trans.

      isym =  1     identity

 cryst.   s( 1) = (     1          0          0      )
                  (     0          1          0      )
                  (     0          0          1      )

 cart.    s( 1) = (  1.0000000 -0.0000000  0.0000000 )
                  (  0.0000000  1.0000000  0.0000000 )
                  (  0.0000000  0.0000000  1.0000000 )

      isym =  2     inversion

 cryst.   s( 2) = (    -1          0          0      )
                  (     0         -1          0      )
                  (     0          0         -1      )

 cart.    s( 2) = ( -1.0000000  0.0000000 -0.0000000 )
                  (  0.0000000 -1.0000000 -0.0000000 )
                  (  0.0000000  0.0000000 -1.0000000 )

   Cartesian axes

     site n.     atom                  positions (alat units)
         1           Ti  tau(   1) = (   0.3633449  -0.0515650   0.1626223  )
         2           Ti  tau(   2) = (   0.1963554  -0.1022748   0.5974559  )
         3           Ti  tau(   3) = (  -0.1730102   0.3439874   0.5076508  )
         4           Ti  tau(   4) = (   0.3845791   0.3850056   0.3314192  )
         5           Ti  tau(   5) = (  -0.1942444  -0.0925832   0.3388539  )
         6           Ti  tau(   6) = (  -0.0060208   0.3946972   0.0728171  )
         7           Ni  tau(   7) = (  -0.0687269  -0.3500993   0.6298757  )
         8           Ni  tau(   8) = (   0.2590616   0.6425217   0.0403974  )
         9           Ni  tau(   9) = (  -0.2923047   0.6008675   0.2784824  )
        10           Ni  tau(  10) = (   0.6677622   0.2204801   0.1718091  )
        11           Ni  tau(  11) = (   0.4826393  -0.3084451   0.3917907  )
        12           Ni  tau(  12) = (   0.0000000   0.0000000   0.0000000  )
        13           Ni  tau(  13) = (  -0.4774275   0.0719423   0.4984640  )
        14           Ni  tau(  14) = (   0.0951673   0.1462112   0.3351365  )

   Crystallographic axes

     site n.     atom                  positions (cryst. coord.)
         1           Ti  tau(   1) = (  0.5055460  0.1086380  0.2426210  )
         2           Ti  tau(   2) = (  0.7573790  0.4944540  0.8913620  )
         3           Ti  tau(   3) = (  0.4944540  0.8913620  0.7573790  )
         4           Ti  tau(   4) = (  0.8913620  0.7573790  0.4944540  )
         5           Ti  tau(   5) = (  0.1086380  0.2426210  0.5055460  )
         6           Ti  tau(   6) = (  0.2426210  0.5055460  0.1086380  )
         7           Ni  tau(   7) = (  0.4154760  0.2563270  0.9397300  )
         8           Ni  tau(   8) = (  0.5845240  0.7436730  0.0602700  )
         9           Ni  tau(   9) = (  0.2563270  0.9397300  0.4154760  )
        10           Ni  tau(  10) = (  0.9397300  0.4154760  0.2563270  )
        11           Ni  tau(  11) = (  0.7436730  0.0602700  0.5845240  )
        12           Ni  tau(  12) = (  0.0000000  0.0000000  0.0000000  )
        13           Ni  tau(  13) = (  0.0602700  0.5845240  0.7436730  )
        14           Ni  tau(  14) = (  0.5000000  0.5000000  0.5000000  )

     number of k points=     1  Methfessel-Paxton smearing, width (Ry)=  0.0010
                       cart. coord. in units 2pi/alat
        k(    1) = (   0.0000000   0.0000000   0.0000000), wk =   2.0000000

                       cryst. coord.
        k(    1) = (   0.0000000   0.0000000   0.0000000), wk =   2.0000000

     Check: negative core charge=   -0.000013

     Initial potential from superposition of free atoms

     starting charge     193.9997, renormalised to     216.0000

     negative rho (up, down):  1.078E-02 0.000E+00
     Starting wfcs are  164 randomized atomic wfcs

     Self-consistent Calculation

     iteration #  1     ecut=    30.00 Ry     beta= 0.70
     Davidson diagonalization with overlap

     ethr =  1.00E-02,  avg # of iterations =  5.0

     total energy              =   -3117.78536840 Ry
     estimated scf accuracy    <     509.52579310 Ry

[...]

     negative rho (up, down):  1.243E-03 0.000E+00

[...]

     total energy              =   -3460.94016909 Ry
     estimated scf accuracy    <       0.00000243 Ry

     iteration # 68     ecut=    30.00 Ry     beta= 0.70
     Davidson diagonalization with overlap

     ethr =  5.00E-10,  avg # of iterations =  1.0

[...]

     End of self-consistent calculation

          k = 0.0000 0.0000 0.0000 (  1722 PWs)   bands (ev):

   -87.6450 -87.6412 -87.6387 -87.6385 -87.6364 -87.6361 -87.6344 -87.4699
   -48.0263 -48.0229 -48.0227 -48.0016 -47.9974 -47.9971 -47.9816 -47.9816
   -47.9755 -47.9753 -47.9680 -47.9643 -47.9643 -47.9640 -47.9468 -47.8911
   -47.8743 -47.8730 -47.8728 -47.8700 -47.8698 -47.8464 -47.7503 -47.7503
   -40.9918 -40.9669 -40.9667 -40.9570 -40.9567 -40.9533 -17.3352 -17.3253
   -17.3227 -17.3225 -17.2809 -17.2808 -17.2514 -17.2513 -17.2459 -17.2218
   -17.2218 -17.1935 -17.1809 -17.1299 -17.1297 -17.0951 -17.0949 -17.0541
     8.4007  11.7498  11.9682  12.0924  12.0924  12.2611  12.2612  12.4519
    12.4519  12.5609  12.6526  12.9147  12.9148  12.9327  12.9327  13.2823
    13.2823  13.3957  13.3958  13.4579  13.5895  13.6987  13.6987  13.6994
    13.6995  13.7434  13.9038  13.9353  14.0721  14.0722  14.1104  14.1105
    14.2527  14.3291  14.3325  14.3325  14.3771  14.5158  14.5158  14.6132
    14.6133  14.6228  14.8255  14.8255  15.1072  15.1846  15.1846  15.4625
    15.6444  15.6445  15.7284  15.7284  16.5332  16.7006  16.7007  16.8972
    16.9484  16.9791  16.9792  16.9869  16.9870  17.0814  17.0815  17.3498
    17.7347  18.0662  18.2902  18.3312  18.3661  18.3662  18.4385  18.4386
    18.5756  18.8136

     occupation numbers
     1.0000   1.0000   1.0000   1.0000   1.0000   1.0000   1.0000   1.0000
     1.0000   1.0000   1.0000   1.0000   1.0000   1.0000   1.0000   1.0000
     1.0000   1.0000   1.0000   1.0000   1.0000   1.0000   1.0000   1.0000
     1.0000   1.0000   1.0000   1.0000   1.0000   1.0000   1.0000   1.0000
     1.0000   1.0000   1.0000   1.0000   1.0000   1.0000   1.0000   1.0000
     1.0000   1.0000   1.0000   1.0000   1.0000   1.0000   1.0000   1.0000
     1.0000   1.0000   1.0000   1.0000   1.0000   1.0000   1.0000   1.0000
     1.0000   1.0000   1.0000   1.0000   1.0000   1.0000   1.0000   1.0000
     1.0000   1.0000   1.0000   1.0000   1.0000   1.0000   1.0000   1.0000
     1.0000   1.0000   1.0000   1.0000   1.0000   1.0000   1.0000   1.0000
     1.0000   1.0000   1.0000   1.0000   1.0000   1.0000   1.0000   1.0000
     1.0000   1.0000   1.0000   1.0000   1.0000   1.0000   1.0000   1.0000
     1.0000   1.0000   1.0000   1.0000   1.0000   1.0000   1.0000   1.0000
     1.0000   1.0000   1.0000   1.0000  -0.0000  -0.0000  -0.0000  -0.0000
    -0.0000  -0.0000  -0.0000  -0.0000  -0.0000  -0.0000  -0.0000  -0.0000
    -0.0000  -0.0000  -0.0000  -0.0000  -0.0000  -0.0000  -0.0000  -0.0000
    -0.0000  -0.0000

     the Fermi energy is    16.4481 ev

!    total energy              =   -3460.94016886 Ry
     estimated scf accuracy    <       0.00000039 Ry
     smearing contrib. (-TS)   =       0.00000000 Ry
     internal energy E=F+TS    =   -3460.94016886 Ry

     The total energy is F=E-TS. E is the sum of the following terms:
     one-electron contribution =   -1969.83403801 Ry
     hartree contribution      =    1097.04518173 Ry
     xc contribution           =    -392.14149676 Ry
     ewald contribution        =   -2196.00981583 Ry

     convergence has been achieved in  68 iterations

     negative rho (up, down):  4.952E-03 0.000E+00

     Forces acting on atoms (cartesian axes, Ry/au):

     atom    1 type  1   force =     0.01796567   -0.00442985   -0.02328553
     atom    2 type  1   force =     0.02013827   -0.01073685    0.01909307
     atom    3 type  1   force =    -0.01796567    0.00442985    0.02328553
     atom    4 type  1   force =     0.01132458    0.02703658    0.00512060
     atom    5 type  1   force =    -0.01132458   -0.02703658   -0.00512060
     atom    6 type  1   force =    -0.02013827    0.01073685   -0.01909307
     atom    7 type  2   force =    -0.02769489   -0.03536258    0.04265915
     atom    8 type  2   force =     0.02769489    0.03536258   -0.04265915
     atom    9 type  2   force =    -0.02130758    0.05828574    0.00005373
     atom   10 type  2   force =     0.06186062   -0.00281212    0.00326132
     atom   11 type  2   force =     0.02130758   -0.05828574   -0.00005373
     atom   12 type  2   force =     0.00000000    0.00000000    0.00000000
     atom   13 type  2   force =    -0.06186062    0.00281212   -0.00326132
     atom   14 type  2   force =     0.00000000    0.00000000    0.00000000
     The non-local contrib.  to forces
     atom    1 type  1   force =     0.02113184   -0.02040270   -0.00959788
     atom    2 type  1   force =     0.00234355   -0.02207950    0.02149099
     atom    3 type  1   force =    -0.02113184    0.02040270    0.00959788
     atom    4 type  1   force =     0.02719500    0.01460063   -0.00155541
     atom    5 type  1   force =    -0.02719500   -0.01460063    0.00155541
     atom    6 type  1   force =    -0.00234355    0.02207950   -0.02149099
     atom    7 type  2   force =    -0.08983858   -0.06695964   -0.00302195
     atom    8 type  2   force =     0.08983858    0.06695964    0.00302195
     atom    9 type  2   force =    -0.02506076    0.07215882   -0.08203993
     atom   10 type  2   force =     0.07607098   -0.06446313   -0.05096105
     atom   11 type  2   force =     0.02506076   -0.07215882    0.08203993
     atom   12 type  2   force =     0.00000000    0.00000000    0.00000000
     atom   13 type  2   force =    -0.07607098    0.06446313    0.05096105
     atom   14 type  2   force =     0.00000000    0.00000000    0.00000000
     The ionic contribution  to forces
     atom    1 type  1   force =     0.79674038    1.61330752   -2.43069857
     atom    2 type  1   force =     2.95520601    0.43703782    0.47076198
     atom    3 type  1   force =    -0.79674039   -1.61330752    2.43069857
     atom    4 type  1   force =    -1.15264852    2.72156608    0.64057077
     atom    5 type  1   force =     1.15264853   -2.72156608   -0.64057077
     atom    6 type  1   force =    -2.95520601   -0.43703782   -0.47076198
     atom    7 type  2   force =    -3.87835573   -4.44070049   -0.83485755
     atom    8 type  2   force =     3.87835573    4.44070049    0.83485754
     atom    9 type  2   force =    -2.49045067    3.02306659   -4.48521795
     atom   10 type  2   force =     3.77247728   -2.57126048   -3.82302136
     atom   11 type  2   force =     2.49045067   -3.02306659    4.48521795
     atom   12 type  2   force =    -0.00000000    0.00000000    0.00000000
     atom   13 type  2   force =    -3.77247728    2.57126048    3.82302135
     atom   14 type  2   force =    -0.00000000   -0.00000000    0.00000000
     The local contribution  to forces
     atom    1 type  1   force =    -0.79199927   -1.60085261    2.41629586
     atom    2 type  1   force =    -2.93592381   -0.43324989   -0.47043411
     atom    3 type  1   force =     0.79251225    1.60036443   -2.41610636
     atom    4 type  1   force =     1.14255096   -2.70493408   -0.63757086
     atom    5 type  1   force =    -1.14326318    2.70503792    0.63768237
     atom    6 type  1   force =     2.93617703    0.43358043    0.47015866
     atom    7 type  2   force =     3.93929311    4.47176717    0.87947658
     atom    8 type  2   force =    -3.94002156   -4.47146860   -0.87920923
     atom    9 type  2   force =     2.49472108   -3.03704170    4.56537621
     atom   10 type  2   force =    -3.78668541    2.63122772    3.87556454
     atom   11 type  2   force =    -2.49406962    3.03741776   -4.56558535
     atom   12 type  2   force =    -0.00017404    0.00007943   -0.00014746
     atom   13 type  2   force =     3.78708977   -2.63205974   -3.87543872
     atom   14 type  2   force =    -0.00007344    0.00011018    0.00007703
     The core correction contribution to forces
     atom    1 type  1   force =    -0.00770679    0.00334596    0.00051466
     atom    2 type  1   force =    -0.00138441    0.00781484   -0.00280246
     atom    3 type  1   force =     0.00770788   -0.00334731   -0.00051417
     atom    4 type  1   force =    -0.00617910   -0.00424884    0.00382127
     atom    5 type  1   force =     0.00617906    0.00424932   -0.00382189
     atom    6 type  1   force =     0.00138532   -0.00781539    0.00280245
     atom    7 type  2   force =     0.00084815    0.00044116    0.00144238
     atom    8 type  2   force =    -0.00084869   -0.00044126   -0.00144128
     atom    9 type  2   force =     0.00006062    0.00040872    0.00168028
     atom   10 type  2   force =     0.00034891    0.00108212    0.00130468
     atom   11 type  2   force =    -0.00006054   -0.00040742   -0.00168008
     atom   12 type  2   force =     0.00000001   -0.00000001   -0.00000009
     atom   13 type  2   force =    -0.00034817   -0.00108215   -0.00130386
     atom   14 type  2   force =     0.00000000   -0.00000080   -0.00000103
     The Hubbard contrib.    to forces
     atom    1 type  1   force =     0.00000000    0.00000000    0.00000000
     atom    2 type  1   force =     0.00000000    0.00000000    0.00000000
     atom    3 type  1   force =     0.00000000    0.00000000    0.00000000
     atom    4 type  1   force =     0.00000000    0.00000000    0.00000000
     atom    5 type  1   force =     0.00000000    0.00000000    0.00000000
     atom    6 type  1   force =     0.00000000    0.00000000    0.00000000
     atom    7 type  2   force =     0.00000000    0.00000000    0.00000000
     atom    8 type  2   force =     0.00000000    0.00000000    0.00000000
     atom    9 type  2   force =     0.00000000    0.00000000    0.00000000
     atom   10 type  2   force =     0.00000000    0.00000000    0.00000000
     atom   11 type  2   force =     0.00000000    0.00000000    0.00000000
     atom   12 type  2   force =     0.00000000    0.00000000    0.00000000
     atom   13 type  2   force =     0.00000000    0.00000000    0.00000000
     atom   14 type  2   force =     0.00000000    0.00000000    0.00000000
     The SCF correction term to forces
     atom    1 type  1   force =    -0.00018321    0.00015294    0.00020713
     atom    2 type  1   force =    -0.00009099   -0.00025564    0.00006787
     atom    3 type  1   force =    -0.00029628    0.00029853   -0.00038365
     atom    4 type  1   force =     0.00038630    0.00005797   -0.00014293
     atom    5 type  1   force =     0.00028606   -0.00015194    0.00003653
     atom    6 type  1   force =    -0.00013898   -0.00006539    0.00018998
     atom    7 type  2   force =     0.00032665    0.00009369   -0.00036487
     atom    8 type  2   force =     0.00033933   -0.00038320    0.00012731
     atom    9 type  2   force =    -0.00055677   -0.00028612    0.00025158
     atom   10 type  2   force =    -0.00033458    0.00057372    0.00037977
     atom   11 type  2   force =    -0.00005260   -0.00005013   -0.00004971
     atom   12 type  2   force =     0.00016950   -0.00006735    0.00013784
     atom   13 type  2   force =    -0.00003740    0.00020246   -0.00049589
     atom   14 type  2   force =     0.00007167   -0.00010937   -0.00008868

     Total force =     0.168459     Total SCF correction =     0.001668

     Computing stress (Cartesian axis) and pressure

     negative rho (up, down):  4.952E-03 0.000E+00
          total   stress  (Ry/bohr**3)                   (kbar)     P=    -1032.54
  -0.00693668  -0.00002969  -0.00006813        -1020.42       -4.37      -10.02
  -0.00002969  -0.00696310  -0.00010461           -4.37    -1024.31      -15.39
  -0.00006813  -0.00010461  -0.00715731          -10.02      -15.39    -1052.88

     kinetic stress (kbar)  42056.48    -33.21    -76.10
                              -33.21  42027.07   -116.90
                              -76.10   -116.90  41810.11

     local   stress (kbar)  -1362.96   -375.70   -861.22
                             -375.70  -1695.71  -1323.18
                             -861.22  -1323.18  -4151.34

     nonloc. stress (kbar)  17404.83     13.21     30.29
                               13.21  17416.53     46.55
                               30.29     46.55  17502.92

     hartree stress (kbar)  42960.17    169.59    388.74
                              169.59  43110.39    597.26
                              388.74    597.26  44218.82

     exc-cor stress (kbar) -10208.32     -0.69     -1.58
                               -0.69 -10208.93     -2.43
                               -1.58     -2.43 -10213.44

     corecor stress (kbar)  -4317.32     -0.67     -1.53
                               -0.67  -4317.91     -2.35
                               -1.53     -2.35  -4322.27

     ewald   stress (kbar) -87553.30    223.10    511.38
                              223.10 -87355.75    785.66
                              511.38    785.66 -85897.68

     hubbard stress (kbar)      0.00      0.00      0.00
                                0.00      0.00      0.00
                                0.00      0.00      0.00

     DFT-D   stress (kbar)      0.00      0.00      0.00
                                0.00      0.00      0.00
                                0.00      0.00      0.00

     XDM     stress (kbar)      0.00      0.00      0.00
                                0.00      0.00      0.00
                                0.00      0.00      0.00

     dft-nl  stress (kbar)      0.00      0.00      0.00
                                0.00      0.00      0.00
                                0.00      0.00      0.00

     TS-vdW  stress (kbar)      0.00      0.00      0.00
                                0.00      0.00      0.00
                                0.00      0.00      0.00

[...]

                                0.00      0.00      0.00

     Writing all to output data dir new_calculations/myprefix.save/

     General routines

     Parallel routines

   This run was terminated on:  20:40: 1  20May2023

   JOB DONE.