     Program PWSCF v.7.0 starts on 20May2023 at 15:40:40

     Reading input from espresso_6406.pwi
Warning: card &CELL ignored
Warning: card / ignored

     Current dimensions of program PWSCF are:
     Max number of different atomic species (ntypx) = 10
     Max number of k-points (npk) =  40000
     Max angular momentum in pseudopotentials (lmaxx) =  4
     file O.pbe-n-kjpaw_psl.0.1.UPF: wavefunction(s)  2P renormalized

     gamma-point specific algorithms are used
     Message from routine setup:
     using ibrav=0 with symmetry is DISCOURAGED, use correct ibrav instead

     Subspace diagonalization in iterative solution of the eigenvalue problem:
     a serial algorithm will be used

     Using Slab Decomposition

     bravais-lattice index     =            0
     lattice parameter (alat)  =      18.5559  a.u.
     unit-cell volume          =    1747.1125 (a.u.)^3
     number of atoms/cell      =           18
     number of atomic types    =            4
     number of electrons       =       161.00
     number of Kohn-Sham states=           97
     kinetic-energy cutoff     =      30.0000  Ry
     charge density cutoff     =     240.0000  Ry
     scf convergence threshold =      1.0E-06
     mixing beta               =       0.7000
     number of iterations used =            8  plain     mixing
     Exchange-correlation= SLA  PW   PBX  PBC
                           (   1   4   3   4   0   0   0)

     celldm(1)=  18.555915  celldm(2)=   0.000000  celldm(3)=   0.000000
     celldm(4)=   0.000000  celldm(5)=   0.000000  celldm(6)=   0.000000

     crystal axes: (cart. coord. in units of alat)
               a(1) = (   1.000000   0.000000   0.000000 )
               a(2) = (   0.703729   0.710468   0.000000 )
               a(3) = (  -0.851865  -0.355234   0.384883 )

     reciprocal axes: (cart. coord. in units 2 pi/alat)
               b(1) = (  1.000000 -0.990515  1.299095 )
               b(2) = (  0.000000  1.407523  1.299095 )
               b(3) = (  0.000000  0.000000  2.598189 )

     PseudoPot. # 1 for Sr read from file:
     /home/pragov/projects/rrg-bengioy-ad/pragov/crystal_structure_design/SSSP/Sr_pbe_v1.uspp.F.UPF
     MD5 check sum: 6b418c05fbe9db5448babca5e47b7a5b
     Pseudo is Ultrasoft + core correction, Zval = 10.0
     Generated by new atomic code, or converted to UPF format
     Using radial grid of  883 points,  6 beta functions with:
                l(1) =   0
                l(2) =   0
                l(3) =   1
                l(4) =   1
                l(5) =   2
                l(6) =   2
     Q(r) pseudized with  6 coefficients,  rinner =    1.400   1.400   1.400
                                                       1.400   1.400

     PseudoPot. # 2 for Ni read from file:
     /home/pragov/projects/rrg-bengioy-ad/pragov/crystal_structure_design/SSSP/ni_pbe_v1.4.uspp.F.UPF
     MD5 check sum: 1ee80287db30b12d2bc1f57a5b5d6409
     Pseudo is Ultrasoft + core correction, Zval = 18.0
     Generated by new atomic code, or converted to UPF format
     Using radial grid of  865 points,  6 beta functions with:
                l(1) =   0
                l(2) =   0
                l(3) =   1
                l(4) =   1
                l(5) =   2
                l(6) =   2
     Q(r) pseudized with 10 coefficients,  rinner =    0.980   0.980   0.980
                                                       0.980   0.980

     PseudoPot. # 3 for Bi read from file:
     /home/pragov/projects/rrg-bengioy-ad/pragov/crystal_structure_design/SSSP/Bi_pbe_v1.uspp.F.UPF
     MD5 check sum: cceb9f28ec65b6d7ff33140f5b0b1758
     Pseudo is Ultrasoft + core correction, Zval = 15.0
     Generated by new atomic code, or converted to UPF format
     Using radial grid of  899 points,  6 beta functions with:
                l(1) =   0
                l(2) =   0
                l(3) =   1
                l(4) =   1
                l(5) =   2
                l(6) =   2
     Q(r) pseudized with  6 coefficients,  rinner =    1.000   1.000   1.000
                                                       1.000   1.000

     PseudoPot. # 4 for O  read from file:
     /home/pragov/projects/rrg-bengioy-ad/pragov/crystal_structure_design/SSSP/O.pbe-n-kjpaw_psl.0.1.UPF
     MD5 check sum: 0234752ac141de4415c5fc33072bef88
     Pseudo is Projector augmented-wave + core cor, Zval =  6.0
     Generated using "atomic" code by A. Dal Corso  v.5.0.99 svn rev. 10869
     Shape of augmentation charge: BESSEL
     Using radial grid of 1095 points,  4 beta functions with:
                l(1) =   0
                l(2) =   0
                l(3) =   1
                l(4) =   1
     Q(r) pseudized with 0 coefficients

     atomic species   valence    mass     pseudopotential
        Sr            10.00    87.62000     Sr( 1.00)
        Ni            18.00    58.69340     Ni( 1.00)
        Bi            15.00   208.98040     Bi( 1.00)
        O              6.00    15.99900     O ( 1.00)

      4 Sym. Ops., with inversion, found

                                    s                        frac. trans.

      isym =  1     identity

 cryst.   s( 1) = (     1          0          0      )
                  (     0          1          0      )
                  (     0          0          1      )

 cart.    s( 1) = (  1.0000000 -0.0000000 -0.0000000 )
                  (  0.0000000  1.0000000  0.0000000 )
                  (  0.0000000  0.0000000  1.0000000 )

      isym =  2     180 deg rotation - cart. axis [0,0,1]

[...]

      isym =  3     inversion

[...]

      isym =  4     inv. 180 deg rotation - cart. axis [0,0,1]

 cryst.   s( 4) = (     1          0          0      )
                  (     0          1          0      )
                  (    -1         -1         -1      )

 cart.    s( 4) = (  1.0000000 -0.0000000 -0.0000000 )
                  (  0.0000000  1.0000000 -0.0000000 )
                  (  0.0000000  0.0000000 -1.0000000 )

   Cartesian axes

     site n.     atom                  positions (alat units)
         1           Sr  tau(   1) = (   0.0000000   0.0000000   0.0000000  )
         2           Sr  tau(   2) = (   0.5213262   0.4259007   0.1924417  )
         3           Sr  tau(   3) = (   0.6694615   0.0706667   0.1924417  )
         4           Sr  tau(   4) = (   0.3305385  -0.0706667   0.1924417  )
         5           Sr  tau(   5) = (   0.1824033   0.2845673   0.1924417  )
         6           Ni  tau(   6) = (   0.4153556   0.1732064   0.0000000  )
         7           Ni  tau(   7) = (   1.2883739   0.5372616   0.0000000  )
         8           Bi  tau(   8) = (   0.8518647   0.3552340   0.0000000  )
         9           O   tau(   9) = (   1.2777971   0.5328510   0.1924417  )
        10           O   tau(  10) = (   0.4259324   0.1776170   0.1924417  )
        11           O   tau(  11) = (   0.3518647   0.3552340   0.0000000  )
        12           O   tau(  12) = (   0.5000000   0.0000000   0.0000000  )
        13           O   tau(  13) = (   1.4778098   0.6162578   0.0000000  )
        14           O   tau(  14) = (   0.2259196   0.0942102   0.0000000  )
        15           O   tau(  15) = (   0.6449315   0.2689413   0.0000000  )
        16           O   tau(  16) = (   1.0587980   0.4415268   0.0000000  )
        17           O   tau(  17) = (   0.9259324   0.1776170   0.1924417  )
        18           O   tau(  18) = (   0.7777971   0.5328510   0.1924417  )

   Crystallographic axes

     site n.     atom                  positions (cryst. coord.)
         1           Sr  tau(   1) = (  0.0000000  0.0000000  0.0000000  )
         2           Sr  tau(   2) = (  0.3494650  0.8494650  0.5000000  )
         3           Sr  tau(   3) = (  0.8494650  0.3494650  0.5000000  )
         4           Sr  tau(   4) = (  0.6505350  0.1505350  0.5000000  )
         5           Sr  tau(   5) = (  0.1505350  0.6505350  0.5000000  )
         6           Ni  tau(   6) = (  0.2437920  0.2437920  0.0000000  )
         7           Ni  tau(   7) = (  0.7562080  0.7562080  0.0000000  )
         8           Bi  tau(   8) = (  0.5000000  0.5000000  0.0000000  )
         9           O   tau(   9) = (  1.0000000  1.0000000  0.5000000  )
        10           O   tau(  10) = (  0.5000000  0.5000000  0.5000000  )
        11           O   tau(  11) = ( -0.0000000  0.5000000  0.0000000  )
        12           O   tau(  12) = (  0.5000000  0.0000000  0.0000000  )
        13           O   tau(  13) = (  0.8673970  0.8673970  0.0000000  )
        14           O   tau(  14) = (  0.1326030  0.1326030  0.0000000  )
        15           O   tau(  15) = (  0.3785410  0.3785410  0.0000000  )
        16           O   tau(  16) = (  0.6214590  0.6214590  0.0000000  )
        17           O   tau(  17) = (  1.0000000  0.5000000  0.5000000  )
        18           O   tau(  18) = (  0.5000000  1.0000000  0.5000000  )

     number of k points=     1  Methfessel-Paxton smearing, width (Ry)=  0.0010
                       cart. coord. in units 2pi/alat
        k(    1) = (   0.0000000   0.0000000   0.0000000), wk =   2.0000000

                       cryst. coord.
        k(    1) = (   0.0000000   0.0000000   0.0000000), wk =   2.0000000

     Check: negative core charge=   -0.000013

     Initial potential from superposition of free atoms

     starting charge     155.8317, renormalised to     161.0000

     negative rho (up, down):  3.705E-01 0.000E+00
     Starting wfcs are  140 randomized atomic wfcs
     Checking if some PAW data can be deallocated...

     Self-consistent Calculation

     iteration #  1     ecut=    30.00 Ry     beta= 0.70
     Davidson diagonalization with overlap

     ethr =  1.00E-02,  avg # of iterations =  6.0

     negative rho (up, down):  1.011E-01 0.000E+00

     total energy              =   -1635.48479269 Ry
     estimated scf accuracy    <      22.96477139 Ry

[...]

     total energy              =   -1650.97759910 Ry
     estimated scf accuracy    <       0.00000655 Ry

     iteration # 31     ecut=    30.00 Ry     beta= 0.70
     Davidson diagonalization with overlap

     ethr =  9.15E-10,  avg # of iterations =  1.0

[...]

     End of self-consistent calculation

          k = 0.0000 0.0000 0.0000 (  2427 PWs)   bands (ev):

   -95.3565 -95.3548 -64.2215 -56.0098 -55.9580 -55.6671 -55.2974 -54.8911
   -52.9805 -27.0087 -23.8715 -21.3875 -21.3412 -15.5585 -14.3142 -12.1308
   -11.1346 -10.7672 -10.5573 -10.2736 -10.0758  -9.9098  -9.8390  -8.8274
    -8.6969  -8.4110  -7.9651  -7.6816  -7.6343  -7.6090  -6.9558  -5.8397
    -5.6028  -4.9964  -4.6431  -4.0370  -3.9519  -3.8922  -3.8325  -3.7824
    -3.7304  -3.6544  -3.5241   1.3528   1.7193   2.8795   3.5485   3.9057
     4.1764   4.2343   4.3808   4.7123   4.8646   4.9958   5.2401   5.6874
     6.1047   6.2494   6.4616   6.4617   6.5615   6.7421   6.8191   6.8226
     6.9626   7.2184   7.4253   7.6140   7.6352   7.7515   7.7556   7.8099
     7.8705   7.9174   7.9941   7.9998   8.0706   8.4975   8.4994   8.7766
     8.8910   9.1255   9.3942   9.4309  11.3705  11.8748  12.0463  13.1850
    13.6216  14.2291  14.3480  14.7391  14.7829  15.3182  15.4460  15.5823
    15.6587

     occupation numbers
     1.0000   1.0000   1.0000   1.0000   1.0000   1.0000   1.0000   1.0000
     1.0000   1.0000   1.0000   1.0000   1.0000   1.0000   1.0000   1.0000
     1.0000   1.0000   1.0000   1.0000   1.0000   1.0000   1.0000   1.0000
     1.0000   1.0000   1.0000   1.0000   1.0000   1.0000   1.0000   1.0000
     1.0000   1.0000   1.0000   1.0000   1.0000   1.0000   1.0000   1.0000
     1.0000   1.0000   1.0000   1.0000   1.0000   1.0000   1.0000   1.0000
     1.0000   1.0000   1.0000   1.0000   1.0000   1.0000   1.0000   1.0000
     1.0000   1.0000   1.0000   1.0000   1.0000   1.0000   1.0000   1.0000
     1.0000   1.0000   1.0000   1.0000   1.0000   1.0000   1.0000   1.0000
     1.0000   1.0000   1.0000   1.0000   1.0000   1.0000   1.0000   1.0000
     0.5000  -0.0000  -0.0000  -0.0000  -0.0000  -0.0000  -0.0000  -0.0000
    -0.0000  -0.0000  -0.0000  -0.0000  -0.0000  -0.0000  -0.0000  -0.0000
    -0.0000

     the Fermi energy is     8.8910 ev

!    total energy              =   -1650.97759915 Ry
     estimated scf accuracy    <       0.00000022 Ry
     smearing contrib. (-TS)   =      -0.00028209 Ry
     internal energy E=F+TS    =   -1650.97731706 Ry

     The total energy is F=E-TS. E is the sum of the following terms:
     one-electron contribution =   -1004.38156593 Ry
     hartree contribution      =     588.51068855 Ry
     xc contribution           =    -303.43027219 Ry
     ewald contribution        =    -836.43759029 Ry
     one-center paw contrib.   =     -95.23857721 Ry
      -> PAW hartree energy AE =     267.70399488 Ry
      -> PAW hartree energy PS =    -266.77306385 Ry
      -> PAW xc energy AE      =    -167.06441836 Ry
      -> PAW xc energy PS      =      70.89491011 Ry
      -> total E_H with PAW    =     589.44161958 Ry
      -> total E_XC with PAW   =    -399.59978043 Ry

     convergence has been achieved in  31 iterations

     negative rho (up, down):  1.027E-01 0.000E+00

     Forces acting on atoms (cartesian axes, Ry/au):

     atom    1 type  1   force =     0.00000000    0.00000000    0.00000000
     atom    2 type  1   force =     0.22966156    0.23901277    0.00184412
     atom    3 type  1   force =     0.22966156    0.23901277   -0.00184412
     atom    4 type  1   force =    -0.22966156   -0.23901277   -0.00184412
     atom    5 type  1   force =    -0.22966156   -0.23901277    0.00184412
     atom    6 type  2   force =     0.00906423    0.00101269   -0.00000000
     atom    7 type  2   force =    -0.00906423   -0.00101269    0.00000000
     atom    8 type  3   force =     0.00000000    0.00000000    0.00000000
     atom    9 type  4   force =     0.00000000    0.00000000    0.00000000
     atom   10 type  4   force =     0.00000000    0.00000000    0.00000000
     atom   11 type  4   force =     0.00000000    0.00000000    0.00000000
     atom   12 type  4   force =     0.00000000    0.00000000    0.00000000
     atom   13 type  4   force =     0.00032271   -0.00957826    0.00000000
     atom   14 type  4   force =    -0.00032271    0.00957826   -0.00000000
     atom   15 type  4   force =    -0.02925189   -0.01482562    0.00000000
     atom   16 type  4   force =     0.02925189    0.01482562   -0.00000000
     atom   17 type  4   force =     0.00000000    0.00000000   -0.00000000
     atom   18 type  4   force =     0.00000000    0.00000000    0.00000000
     The non-local contrib.  to forces
     atom    1 type  1   force =     0.00000000    0.00000000    0.00000000
     atom    2 type  1   force =     0.30975139    0.26839910    0.00389643
     atom    3 type  1   force =     0.30975139    0.26839910   -0.00389643
     atom    4 type  1   force =    -0.30975139   -0.26839910   -0.00389643
     atom    5 type  1   force =    -0.30975139   -0.26839910    0.00389643
     atom    6 type  2   force =     0.12642564    0.07091548   -0.00000000
     atom    7 type  2   force =    -0.12642564   -0.07091548    0.00000000
     atom    8 type  3   force =     0.00000000    0.00000000    0.00000000
     atom    9 type  4   force =     0.00000000    0.00000000    0.00000000
     atom   10 type  4   force =     0.00000000    0.00000000    0.00000000
     atom   11 type  4   force =     0.00000000    0.00000000    0.00000000
     atom   12 type  4   force =     0.00000000    0.00000000    0.00000000
     atom   13 type  4   force =    -0.53124158   -0.23224681    0.00000000
     atom   14 type  4   force =     0.53124158    0.23224681   -0.00000000
     atom   15 type  4   force =     0.04945451    0.00918430   -0.00000000
     atom   16 type  4   force =    -0.04945451   -0.00918430    0.00000000
     atom   17 type  4   force =     0.00000000    0.00000000    0.00000000
     atom   18 type  4   force =     0.00000000    0.00000000    0.00000000
     The ionic contribution  to forces
     atom    1 type  1   force =     0.00000000    0.00000000    0.00000000
     atom    2 type  1   force =    21.24843026    8.86075560   -0.00000001
     atom    3 type  1   force =    21.24843026    8.86075559   -0.00000001
     atom    4 type  1   force =   -21.24843026   -8.86075560    0.00000001
     atom    5 type  1   force =   -21.24843026   -8.86075560    0.00000000
     atom    6 type  2   force =    -0.09569668   -0.03990623    0.00000000
     atom    7 type  2   force =     0.09569668    0.03990624    0.00000000
     atom    8 type  3   force =     0.00000000   -0.00000000    0.00000000
     atom    9 type  4   force =     0.00000000    0.00000000   -0.00000000
     atom   10 type  4   force =     0.00000000    0.00000000   -0.00000000
     atom   11 type  4   force =     0.00000000   -0.00000000    0.00000000
     atom   12 type  4   force =     0.00000000    0.00000000    0.00000000
     atom   13 type  4   force =    18.27865837    7.62233833   -0.00000000
     atom   14 type  4   force =   -18.27865838   -7.62233833    0.00000000
     atom   15 type  4   force =    10.11572561    4.21833383   -0.00000000
     atom   16 type  4   force =   -10.11572561   -4.21833384    0.00000000
     atom   17 type  4   force =    -0.00000000    0.00000000   -0.00000000
     atom   18 type  4   force =    -0.00000000   -0.00000000   -0.00000000
     The local contribution  to forces
     atom    1 type  1   force =     0.00056444    0.00022997   -0.00000156
     atom    2 type  1   force =   -21.35549626   -8.91787553   -0.02579854
     atom    3 type  1   force =   -21.34918342   -8.91654604   -0.02145302
     atom    4 type  1   force =    21.35519126    8.91776945    0.02579501
     atom    5 type  1   force =    21.34884719    8.91644477    0.02145768
     atom    6 type  2   force =    -0.02240532   -0.03050110    0.02681942
     atom    7 type  2   force =     0.02022412    0.02955325   -0.02683723
     atom    8 type  3   force =     0.00104924    0.00043367    0.00000054
     atom    9 type  4   force =    -0.00036605   -0.00016548    0.00015627
     atom   10 type  4   force =    -0.00035002   -0.00016668   -0.00015990
     atom   11 type  4   force =    -0.00027336   -0.00028302   -0.00000849
     atom   12 type  4   force =    -0.00040149    0.00000654   -0.00001398
     atom   13 type  4   force =   -17.75384158   -7.40253549    0.01017456
     atom   14 type  4   force =    17.75399750    7.40258407   -0.01016183
     atom   15 type  4   force =   -10.19491718   -4.24268680    0.00472367
     atom   16 type  4   force =    10.19483104    4.24261337   -0.00470145
     atom   17 type  4   force =     0.00029594    0.00012368    0.00000766
     atom   18 type  4   force =     0.00027528    0.00011647   -0.00000974
     The core correction contribution to forces
     atom    1 type  1   force =     0.00000008   -0.00000010    0.00000001
     atom    2 type  1   force =     0.02375742    0.02659372   -0.00497145
     atom    3 type  1   force =     0.02347895    0.02740650   -0.00535259
     atom    4 type  1   force =    -0.02375692   -0.02659186    0.00497149
     atom    5 type  1   force =    -0.02347904   -0.02740439    0.00535283
     atom    6 type  2   force =    -0.00018549   -0.00035621    0.00052390
     atom    7 type  2   force =     0.00018288    0.00035532   -0.00052399
     atom    8 type  3   force =    -0.00000001    0.00000008   -0.00000039
     atom    9 type  4   force =     0.00000044    0.00000019    0.00000014
     atom   10 type  4   force =     0.00000049    0.00000020   -0.00000017
     atom   11 type  4   force =     0.00000022   -0.00000013    0.00000003
     atom   12 type  4   force =    -0.00000007    0.00000021   -0.00000007
     atom   13 type  4   force =     0.00677528    0.00290682    0.00001807
     atom   14 type  4   force =    -0.00677370   -0.00290620   -0.00001796
     atom   15 type  4   force =     0.00040140    0.00026167   -0.00000506
     atom   16 type  4   force =    -0.00040169   -0.00026192    0.00000510
     atom   17 type  4   force =    -0.00000039   -0.00000012    0.00000009
     atom   18 type  4   force =    -0.00000041   -0.00000014   -0.00000006
     The Hubbard contrib.    to forces
     atom    1 type  1   force =     0.00000000    0.00000000    0.00000000
     atom    2 type  1   force =     0.00000000    0.00000000    0.00000000
     atom    3 type  1   force =     0.00000000    0.00000000    0.00000000
     atom    4 type  1   force =     0.00000000    0.00000000    0.00000000
     atom    5 type  1   force =     0.00000000    0.00000000    0.00000000
     atom    6 type  2   force =     0.00000000    0.00000000    0.00000000
     atom    7 type  2   force =     0.00000000    0.00000000    0.00000000
     atom    8 type  3   force =     0.00000000    0.00000000    0.00000000
     atom    9 type  4   force =     0.00000000    0.00000000    0.00000000
     atom   10 type  4   force =     0.00000000    0.00000000    0.00000000
     atom   11 type  4   force =     0.00000000    0.00000000    0.00000000
     atom   12 type  4   force =     0.00000000    0.00000000    0.00000000
     atom   13 type  4   force =     0.00000000    0.00000000    0.00000000
     atom   14 type  4   force =     0.00000000    0.00000000    0.00000000
     atom   15 type  4   force =     0.00000000    0.00000000    0.00000000
     atom   16 type  4   force =     0.00000000    0.00000000    0.00000000
     atom   17 type  4   force =     0.00000000    0.00000000    0.00000000
     atom   18 type  4   force =     0.00000000    0.00000000    0.00000000
     The SCF correction term to forces
     atom    1 type  1   force =    -0.00055630   -0.00022864    0.00000135
     atom    2 type  1   force =     0.00025123    0.00008071   -0.00007233
     atom    3 type  1   force =     0.00015693    0.00007722    0.00007211
     atom    4 type  1   force =     0.00006176    0.00004183    0.00007278
     atom    5 type  1   force =     0.00018097    0.00004447   -0.00007165
     atom    6 type  2   force =     0.00088511    0.00084169    0.00012482
     atom    7 type  2   force =     0.00121676    0.00006892   -0.00011037
     atom    8 type  3   force =    -0.00101959   -0.00042245   -0.00000287
     atom    9 type  4   force =     0.00036816    0.00015934   -0.00015363
     atom   10 type  4   force =     0.00035791    0.00016124    0.00015452
     atom   11 type  4   force =     0.00028964    0.00028261    0.00000615
     atom   12 type  4   force =     0.00040508   -0.00000078    0.00000396
     atom   13 type  4   force =     0.00000960   -0.00002907   -0.00001295
     atom   14 type  4   force =    -0.00009234    0.00000395    0.00001065
     atom   15 type  4   force =     0.00007458    0.00006979    0.00000079
     atom   16 type  4   force =    -0.00000654   -0.00001927   -0.00001344
     atom   17 type  4   force =    -0.00032201   -0.00013625   -0.00000206
     atom   18 type  4   force =    -0.00030636   -0.00012753    0.00000436

     Total force =     0.664831     Total SCF correction =     0.002385

     Computing stress (Cartesian axis) and pressure

     negative rho (up, down):  1.027E-01 0.000E+00
          total   stress  (Ry/bohr**3)                   (kbar)     P=     -729.84
  -0.00684344   0.00006959   0.00000000        -1006.70       10.24        0.00
   0.00006959  -0.00519610   0.00000000           10.24     -764.37        0.00
   0.00000000   0.00000000  -0.00284459            0.00        0.00     -418.45

     kinetic stress (kbar)  21883.58    -97.43     -0.00
                              -97.43  22339.83     -0.00
                               -0.00     -0.00  22467.66

     local   stress (kbar)   7922.87  18750.17     90.60
                            18750.17 -29291.09     59.47
                               90.60     59.47 -36510.00

     nonloc. stress (kbar)   9613.07    -60.50     -0.00
                              -60.50   9737.49     -0.00
                               -0.00     -0.00   9718.44

     hartree stress (kbar)   3399.71  -9021.60    -43.31
                            -9021.60  21335.95    -13.77
                              -43.31    -13.77  24816.34

     exc-cor stress (kbar)   2526.99     -1.11     -0.89
                               -1.11   2529.31     -0.15
                               -0.89     -0.15   2528.02

     corecor stress (kbar)  -8921.26      1.61      0.76
                                1.61  -8924.62     -1.84
                                0.76     -1.84  -8934.64

     ewald   stress (kbar) -37431.67  -9560.90      0.00
                            -9560.90 -18491.24      0.00
                                0.00      0.00 -14504.28

     hubbard stress (kbar)      0.00      0.00      0.00
                                0.00      0.00      0.00
                                0.00      0.00      0.00

     DFT-D   stress (kbar)      0.00      0.00      0.00
                                0.00      0.00      0.00
                                0.00      0.00      0.00

     XDM     stress (kbar)      0.00      0.00      0.00
                                0.00      0.00      0.00
                                0.00      0.00      0.00

     dft-nl  stress (kbar)      0.00      0.00      0.00
                                0.00      0.00      0.00
                                0.00      0.00      0.00

     TS-vdW  stress (kbar)      0.00      0.00      0.00
                                0.00      0.00      0.00
                                0.00      0.00      0.00

[...]

                                0.00      0.00      0.00

     Writing all to output data dir new_calculations/myprefix.save/

     General routines

     Parallel routines

     PAW routines

   This run was terminated on:  15:42:41  20May2023

   JOB DONE.