     Program PWSCF v.7.0 starts on 21May2023 at 16: 8:32

     Reading input from espresso_21055.pwi
Warning: card &CELL ignored
Warning: card / ignored

     Current dimensions of program PWSCF are:
     Max number of different atomic species (ntypx) = 10
     Max number of k-points (npk) =  40000
     Max angular momentum in pseudopotentials (lmaxx) =  4
     file Mg.pbe-n-kjpaw_psl.0.3.0.UPF: wavefunction(s)  3S renormalized

     gamma-point specific algorithms are used

     Subspace diagonalization in iterative solution of the eigenvalue problem:
     a serial algorithm will be used

     Using Slab Decomposition

     bravais-lattice index     =            0
     lattice parameter (alat)  =      14.2208  a.u.
     unit-cell volume          =    2006.8418 (a.u.)^3
     number of atoms/cell      =           14
     number of atomic types    =            4
     number of electrons       =        98.00
     number of Kohn-Sham states=           59
     kinetic-energy cutoff     =      30.0000  Ry
     charge density cutoff     =     240.0000  Ry
     scf convergence threshold =      1.0E-06
     mixing beta               =       0.7000
     number of iterations used =            8  plain     mixing
     Exchange-correlation=  SLA  PW   PBX  PBC
                           (   1   4   3   4   0   0   0)

     celldm(1)=  14.220774  celldm(2)=   0.000000  celldm(3)=   0.000000
     celldm(4)=   0.000000  celldm(5)=   0.000000  celldm(6)=   0.000000

     crystal axes: (cart. coord. in units of alat)
               a(1) = (   1.000000   0.000000   0.000000 )
               a(2) = (   0.499813   0.856623   0.000000 )
               a(3) = (   0.499930   0.290265   0.814618 )

     reciprocal axes: (cart. coord. in units 2 pi/alat)
               b(1) = (  1.000000 -0.583469 -0.405797 )
               b(2) = (  0.000000  1.167375 -0.415959 )
               b(3) = (  0.000000  0.000000  1.227570 )

     PseudoPot. # 1 for Mg read from file:
     /home/pragov/projects/rrg-bengioy-ad/pragov/crystal_structure_design/SSSP/Mg.pbe-n-kjpaw_psl.0.3.0.UPF
     MD5 check sum: 24ecedc7f3e3cbe212e682f4413594e4
     Pseudo is Projector augmented-wave + core cor, Zval =  2.0
     Generated using "atomic" code by A. Dal Corso  v.5.0.99 svn rev. 10869
     Shape of augmentation charge: PSQ
     Using radial grid of 1129 points,  4 beta functions with:
                l(1) =   0
                l(2) =   0
                l(3) =   1
                l(4) =   1
     Q(r) pseudized with 0 coefficients

     PseudoPot. # 2 for Sc read from file:
     /home/pragov/projects/rrg-bengioy-ad/pragov/crystal_structure_design/SSSP/Sc_ONCV_PBE-1.0.oncvpsp.upf
     MD5 check sum: e21af8023abb52e52cb7cd3133e4a229
     Pseudo is Norm-conserving, Zval = 11.0
     Generated using ONCVPSP code by D. R. Hamann
     Using radial grid of 1662 points,  6 beta functions with:
                l(1) =   0
                l(2) =   0
                l(3) =   1
                l(4) =   1
                l(5) =   2
                l(6) =   2

     PseudoPot. # 3 for V  read from file:
     /home/pragov/projects/rrg-bengioy-ad/pragov/crystal_structure_design/SSSP/v_pbe_v1.4.uspp.F.UPF
     MD5 check sum: 22b79981416ebb76fdaf5b1b8640f6fb
     Pseudo is Ultrasoft + core correction, Zval = 13.0
     Generated by new atomic code, or converted to UPF format
     Using radial grid of  853 points,  6 beta functions with:
                l(1) =   0
                l(2) =   0
                l(3) =   1
                l(4) =   1
                l(5) =   2
                l(6) =   2
     Q(r) pseudized with  8 coefficients,  rinner =    1.100   1.100   1.100
                                                       1.100   1.100

     PseudoPot. # 4 for S  read from file:
     /home/pragov/projects/rrg-bengioy-ad/pragov/crystal_structure_design/SSSP/s_pbe_v1.4.uspp.F.UPF
     MD5 check sum: 88d86576ff6df21479756cfb9bdac1df
     Pseudo is Ultrasoft + core correction, Zval =  6.0
     Generated by new atomic code, or converted to UPF format
     Using radial grid of  907 points,  6 beta functions with:
                l(1) =   0
                l(2) =   0
                l(3) =   1
                l(4) =   1
                l(5) =   2
                l(6) =   2
     Q(r) pseudized with  8 coefficients,  rinner =    1.300   1.300   1.300
                                                       1.300   1.300

     atomic species   valence    mass     pseudopotential
        Mg             2.00    24.30500     Mg( 1.00)
        Sc            11.00    44.95591     Sc( 1.00)
        V             13.00    50.94150     V ( 1.00)
        S              6.00    32.06000     S ( 1.00)

     No symmetry found

                                    s                        frac. trans.

      isym =  1     identity

 cryst.   s( 1) = (     1          0          0      )
                  (     0          1          0      )
                  (     0          0          1      )

 cart.    s( 1) = (  1.0000000 -0.0000000  0.0000000 )
                  (  0.0000000  1.0000000 -0.0000000 )
                  (  0.0000000  0.0000000  1.0000000 )

   Cartesian axes

     site n.     atom                  positions (alat units)
         1           Mg  tau(   1) = (   1.7497176   1.0031379   0.7129763  )
         2           Mg  tau(   2) = (   0.2500353   0.1437490   0.1016399  )
         3           Sc  tau(   3) = (   0.9998729   0.5734354   0.4072975  )
         4           Sc  tau(   4) = (   0.7498979   0.4283105   0.0000000  )
         5           Sc  tau(   5) = (   1.4998669   0.5734590   0.4073227  )
         6           V   tau(   6) = (   1.2497788   1.0017546   0.4073122  )
         7           S   tau(   7) = (   1.4792751   0.8586084   0.5989070  )
         8           S   tau(   8) = (   0.7498298   0.4211111   0.5893548  )
         9           S   tau(   9) = (   0.7499659   0.6973696   0.2100370  )
        10           S   tau(  10) = (   0.9791693   0.2879953   0.2158566  )
        11           S   tau(  11) = (   1.2497595   0.4495102   0.6045686  )
        12           S   tau(  12) = (   1.0205725   0.8588859   0.5987579  )
        13           S   tau(  13) = (   0.5204713   0.2882801   0.2157279  )
        14           S   tau(  14) = (   1.2499306   0.7257801   0.2252589  )

   Crystallographic axes

     site n.     atom                  positions (cryst. coord.)
         1           Mg  tau(   1) = (  0.8750940  0.8744690  0.8752280  )
         2           Mg  tau(   2) = (  0.1249170  0.1255310  0.1247700  )
         3           Sc  tau(   3) = (  0.5000110  0.4999950  0.4999860  )
         4           Sc  tau(   4) = (  0.4999920  0.4999990  0.0000000  )
         5           Sc  tau(   5) = (  0.9999810  0.5000120  0.5000170  )
         6           V   tau(   6) = (  0.5000000  0.9999980  0.5000040  )
         7           S   tau(   7) = (  0.7352690  0.7531970  0.7352000  )
         8           S   tau(   8) = (  0.2649660  0.2464470  0.7234740  )
         9           S   tau(   9) = (  0.2578400  0.7267250  0.2578350  )
        10           S   tau(  10) = (  0.7235390  0.2464110  0.2649790  )
        11           S   tau(  11) = (  0.7421520  0.2732710  0.7421500  )
        12           S   tau(  12) = (  0.2764650  0.7535830  0.7350170  )
        13           S   tau(  13) = (  0.2647270  0.2467970  0.2648210  )
        14           S   tau(  14) = (  0.7350510  0.7535590  0.2765210  )

     number of k points=     1  Methfessel-Paxton smearing, width (Ry)=  0.0010
                       cart. coord. in units 2pi/alat
        k(    1) = (   0.0000000   0.0000000   0.0000000), wk =   2.0000000

                       cryst. coord.
        k(    1) = (   0.0000000   0.0000000   0.0000000), wk =   2.0000000

     Check: negative core charge=   -0.000001

     Initial potential from superposition of free atoms

     starting charge      97.9887, renormalised to      98.0000

     negative rho (up, down):  1.206E-03 0.000E+00
     Starting wfcs are   80 randomized atomic wfcs
     Checking if some PAW data can be deallocated...

     Self-consistent Calculation

     iteration #  1     ecut=    30.00 Ry     beta= 0.70
     Davidson diagonalization with overlap

     ethr =  1.00E-02,  avg # of iterations =  2.0

     negative rho (up, down):  1.576E-03 0.000E+00

     total energy              =    -681.30451042 Ry
     estimated scf accuracy    <       1.31775929 Ry

[...]

     total energy              =    -681.84995018 Ry
     estimated scf accuracy    <       0.00001545 Ry

     iteration # 23     ecut=    30.00 Ry     beta= 0.70
     Davidson diagonalization with overlap

     ethr =  1.09E-08,  avg # of iterations =  1.0

[...]

     End of self-consistent calculation

          k = 0.0000 0.0000 0.0000 (  2797 PWs)   bands (ev):

   -58.3800 -43.2779 -43.2726 -43.2706 -32.2582 -32.2571 -32.0327 -21.9110
   -21.8827 -21.8807 -21.8691 -21.8573 -21.8552 -21.8401 -21.8180 -21.8156
    -6.5309  -5.4601  -5.3226  -5.3201  -5.3181  -5.3149  -5.3146  -5.2236
     1.0145   1.6914   1.8177   1.8843   1.8862   2.7277   2.7309   3.7041
     3.7102   4.1091   4.1140   4.1314   4.1622   4.1959   4.2013   4.3316
     4.3333   4.4701   4.8509   4.8551   4.9157   5.8149   5.8192   5.8556
     6.6018   6.6070   6.6071   7.8486   7.9402   7.9426   8.4966   8.5042
     8.9625   9.3570   9.3624

     occupation numbers
     1.0000   1.0000   1.0000   1.0000   1.0000   1.0000   1.0000   1.0000
     1.0000   1.0000   1.0000   1.0000   1.0000   1.0000   1.0000   1.0000
     1.0000   1.0000   1.0000   1.0000   1.0000   1.0000   1.0000   1.0000
     1.0000   1.0000   1.0000   1.0000   1.0000   1.0000   1.0000   1.0000
     1.0000   1.0000   1.0000   1.0000   1.0000   1.0000   1.0000   1.0000
     1.0000   1.0000   1.0000   1.0000   1.0000   1.0000   1.0000   1.0000
     0.5409   0.2330   0.2262  -0.0000  -0.0000  -0.0000  -0.0000  -0.0000
    -0.0000  -0.0000  -0.0000

     the Fermi energy is     6.6024 ev

!    total energy              =    -681.84995019 Ry
     estimated scf accuracy    <       0.00000070 Ry
     smearing contrib. (-TS)   =      -0.00066606 Ry
     internal energy E=F+TS    =    -681.84928413 Ry

     The total energy is F=E-TS. E is the sum of the following terms:
     one-electron contribution =    -317.27911144 Ry
     hartree contribution      =     188.25207248 Ry
     xc contribution           =    -126.78152464 Ry
     ewald contribution        =    -363.48035459 Ry
     one-center paw contrib.   =     -62.56036593 Ry
      -> PAW hartree energy AE =       1.37560817 Ry
      -> PAW hartree energy PS =      -1.37274163 Ry
      -> PAW xc energy AE      =     -65.07769362 Ry
      -> PAW xc energy PS      =       2.51446115 Ry
      -> total E_H with PAW    =     188.25493902 Ry
      -> total E_XC with PAW   =    -189.34475712 Ry

     convergence has been achieved in  23 iterations

     negative rho (up, down):  1.406E-03 0.000E+00

     Forces acting on atoms (cartesian axes, Ry/au):

     atom    1 type  1   force =     0.00020971    0.00456954   -0.00183269
     atom    2 type  1   force =    -0.00021097   -0.00457126    0.00183489
     atom    3 type  2   force =    -0.00000387    0.00000147    0.00000064
     atom    4 type  2   force =     0.00000099   -0.00000110    0.00000413
     atom    5 type  2   force =    -0.00000301    0.00000031   -0.00000300
     atom    6 type  3   force =    -0.00001780    0.00000621   -0.00000943
     atom    7 type  4   force =    -0.01073953    0.00851091   -0.00913869
     atom    8 type  4   force =     0.00008025   -0.01396826   -0.00757064
     atom    9 type  4   force =    -0.00004075   -0.00476135    0.00200789
     atom   10 type  4   force =    -0.01044239   -0.00837372    0.00900275
     atom   11 type  4   force =     0.00004087    0.00476695   -0.00201534
     atom   12 type  4   force =     0.01045251    0.00837586   -0.00901905
     atom   13 type  4   force =     0.01074728   -0.00852631    0.00915669
     atom   14 type  4   force =    -0.00007328    0.01397076    0.00758185
     The non-local contrib.  to forces
     atom    1 type  1   force =     0.00062218   -0.02150939    0.00725266
     atom    2 type  1   force =    -0.00062276    0.02151232   -0.00724701
     atom    3 type  2   force =     0.00000202    0.00002871   -0.00001422
     atom    4 type  2   force =     0.00001099   -0.00001363   -0.00000378
     atom    5 type  2   force =     0.00000910   -0.00001549    0.00000108
     atom    6 type  3   force =     0.00001775   -0.00001201    0.00000888
     atom    7 type  4   force =     0.00544989    0.03365366   -0.00764368
     atom    8 type  4   force =     0.00034187   -0.02793451    0.01803965
     atom    9 type  4   force =    -0.00032855    0.02960965   -0.00994914
     atom   10 type  4   force =     0.00617161   -0.03265523    0.00730960
     atom   11 type  4   force =     0.00037739   -0.02958126    0.00999681
     atom   12 type  4   force =    -0.00617889    0.03264831   -0.00733013
     atom   13 type  4   force =    -0.00547614   -0.03363135    0.00763506
     atom   14 type  4   force =    -0.00039720    0.02793298   -0.01802036
     The ionic contribution  to forces
     atom    1 type  1   force =     0.00187601   -0.19429303    0.06658746
     atom    2 type  1   force =    -0.00183922    0.19431906   -0.06656073
     atom    3 type  2   force =     0.00031170    0.00083712   -0.00069071
     atom    4 type  2   force =    -0.00055152   -0.00051167    0.00014657
     atom    5 type  2   force =     0.00140649   -0.00104071    0.00018844
     atom    6 type  3   force =    -0.00048246    0.00021066    0.00013964
     atom    7 type  4   force =     6.91462318    2.55647048    3.33788949
     atom    8 type  4   force =    -0.00124157    1.51600326    7.96201928
     atom    9 type  4   force =    -0.00273380    6.65303397   -2.35458436
     atom   10 type  4   force =     6.92361524   -2.54756927   -3.34657155
     atom   11 type  4   force =     0.00301957   -6.65305468    2.35503481
     atom   12 type  4   force =    -6.92396542    2.54715252    3.34578792
     atom   13 type  4   force =    -6.91483021   -2.55575568   -3.33715729
     atom   14 type  4   force =     0.00079201   -1.51580203   -7.96222897
     The local contribution  to forces
     atom    1 type  1   force =    -0.00222495    0.21761641   -0.07474969
     atom    2 type  1   force =     0.00218821   -0.21764555    0.07472029
     atom    3 type  2   force =    -0.00032340   -0.00086742    0.00070034
     atom    4 type  2   force =     0.00054307    0.00052620   -0.00013177
     atom    5 type  2   force =    -0.00141414    0.00105840   -0.00019329
     atom    6 type  3   force =     0.00045402   -0.00018885   -0.00015909
     atom    7 type  4   force =    -6.93027868   -2.57946814   -3.33960224
     atom    8 type  4   force =     0.00130088   -1.50352525   -7.98637936
     atom    9 type  4   force =     0.00330529   -6.68555057    2.36595584
     atom   10 type  4   force =    -6.93966291    2.57010141    3.34871861
     atom   11 type  4   force =    -0.00363637    6.68554722   -2.36645954
     atom   12 type  4   force =     6.94002955   -2.56967153   -3.34792999
     atom   13 type  4   force =     6.93051878    2.57871834    3.33889447
     atom   14 type  4   force =    -0.00078716    1.50333057    7.98658117
     The core correction contribution to forces
     atom    1 type  1   force =    -0.00007266    0.00274013   -0.00092771
     atom    2 type  1   force =     0.00007256   -0.00274051    0.00092706
     atom    3 type  2   force =     0.00000000    0.00000000    0.00000000
     atom    4 type  2   force =     0.00000000    0.00000000    0.00000000
     atom    5 type  2   force =     0.00000000    0.00000000    0.00000000
     atom    6 type  3   force =     0.00000005   -0.00000012    0.00000025
     atom    7 type  4   force =    -0.00049348   -0.00207169    0.00036833
     atom    8 type  4   force =    -0.00001895    0.00162125   -0.00128352
     atom    9 type  4   force =     0.00001892   -0.00191691    0.00064268
     atom   10 type  4   force =    -0.00053857    0.00201433   -0.00034613
     atom   11 type  4   force =    -0.00002131    0.00191555   -0.00064508
     atom   12 type  4   force =     0.00053874   -0.00201385    0.00034738
     atom   13 type  4   force =     0.00049511    0.00207005   -0.00036754
     atom   14 type  4   force =     0.00002245   -0.00162114    0.00128235
     The Hubbard contrib.    to forces
     atom    1 type  1   force =     0.00000000    0.00000000    0.00000000
     atom    2 type  1   force =     0.00000000    0.00000000    0.00000000
     atom    3 type  2   force =     0.00000000    0.00000000    0.00000000
     atom    4 type  2   force =     0.00000000    0.00000000    0.00000000
     atom    5 type  2   force =     0.00000000    0.00000000    0.00000000
     atom    6 type  3   force =     0.00000000    0.00000000    0.00000000
     atom    7 type  4   force =     0.00000000    0.00000000    0.00000000
     atom    8 type  4   force =     0.00000000    0.00000000    0.00000000
     atom    9 type  4   force =     0.00000000    0.00000000    0.00000000
     atom   10 type  4   force =     0.00000000    0.00000000    0.00000000
     atom   11 type  4   force =     0.00000000    0.00000000    0.00000000
     atom   12 type  4   force =     0.00000000    0.00000000    0.00000000
     atom   13 type  4   force =     0.00000000    0.00000000    0.00000000
     atom   14 type  4   force =     0.00000000    0.00000000    0.00000000
     The SCF correction term to forces
     atom    1 type  1   force =     0.00000946    0.00001602    0.00000464
     atom    2 type  1   force =    -0.00000944   -0.00001598   -0.00000467
     atom    3 type  2   force =     0.00000614    0.00000366    0.00000529
     atom    4 type  2   force =    -0.00000121   -0.00000141   -0.00000685
     atom    5 type  2   force =    -0.00000412   -0.00000128    0.00000082
     atom    6 type  3   force =    -0.00000682   -0.00000288    0.00000094
     atom    7 type  4   force =    -0.00004011   -0.00007280   -0.00015054
     atom    8 type  4   force =    -0.00030164   -0.00013242    0.00003337
     atom    9 type  4   force =    -0.00030228    0.00006311   -0.00005708
     atom   10 type  4   force =    -0.00002742   -0.00026436   -0.00010773
     atom   11 type  4   force =     0.00030193   -0.00005927    0.00005772
     atom   12 type  4   force =     0.00002886    0.00026100    0.00010583
     atom   13 type  4   force =     0.00004007    0.00007292    0.00015203
     atom   14 type  4   force =     0.00029696    0.00013098   -0.00003230

     Total force =     0.040884     Total SCF correction =     0.000797

     Computing stress (Cartesian axis) and pressure

     negative rho (up, down):  1.406E-03 0.000E+00
          total   stress  (Ry/bohr**3)                   (kbar)     P=       12.04
   0.00008395   0.00000055   0.00000041           12.35        0.08        0.06
   0.00000055   0.00007242   0.00001202            0.08       10.65        1.77
   0.00000041   0.00001202   0.00008913            0.06        1.77       13.11

     kinetic stress (kbar)   9589.92      0.20      0.03
                                0.20   9595.58     -0.44
                                0.03     -0.44   9592.13

     local   stress (kbar)  -2825.35     -2.32      3.54
                               -2.32  -6024.42   1115.91
                                3.54   1115.91  -3236.47

     nonloc. stress (kbar)   1076.63      0.11      0.06
                                0.11   1089.94     -5.15
                                0.06     -5.15   1078.39

     hartree stress (kbar)   4042.33      0.59     -1.08
                                0.59   5525.08   -523.03
                               -1.08   -523.03   4231.80

     exc-cor stress (kbar)    231.33      0.01     -0.01
                                0.01    231.70     -0.06
                               -0.01     -0.06    231.40

     corecor stress (kbar)  -2583.17     -0.02     -0.01
                               -0.02  -2583.67      0.16
                               -0.01      0.16  -2583.27

     ewald   stress (kbar)  -9519.34      1.51     -2.48
                                1.51  -7823.56   -585.64
                               -2.48   -585.64  -9300.86

     hubbard stress (kbar)      0.00      0.00      0.00
                                0.00      0.00      0.00
                                0.00      0.00      0.00

     DFT-D   stress (kbar)      0.00      0.00      0.00
                                0.00      0.00      0.00
                                0.00      0.00      0.00

     XDM     stress (kbar)      0.00      0.00      0.00
                                0.00      0.00      0.00
                                0.00      0.00      0.00

     dft-nl  stress (kbar)      0.00      0.00      0.00
                                0.00      0.00      0.00
                                0.00      0.00      0.00

     TS-vdW  stress (kbar)      0.00      0.00      0.00
                                0.00      0.00      0.00
                                0.00      0.00      0.00

[...]

                                0.00      0.00      0.00

     Writing all to output data dir new_calculations/myprefix.save/

     General routines

     Parallel routines

     PAW routines

   This run was terminated on:  16: 9: 5  21May2023

   JOB DONE.