     Program PWSCF v.7.0 starts on 20May2023 at 10: 2:34

     Reading input from espresso_8357.pwi
Warning: card &CELL ignored
Warning: card / ignored

     Current dimensions of program PWSCF are:
     Max number of different atomic species (ntypx) = 10
     Max number of k-points (npk) =  40000
     Max angular momentum in pseudopotentials (lmaxx) =  4
     file C.pbe-n-kjpaw_psl.1.0.0.UPF: wavefunction(s)  2S 2P renormalized

     gamma-point specific algorithms are used
     Message from routine setup:
     using ibrav=0 with symmetry is DISCOURAGED, use correct ibrav instead

     Subspace diagonalization in iterative solution of the eigenvalue problem:
     a serial algorithm will be used

     Using Slab Decomposition

     bravais-lattice index     =            0
     lattice parameter (alat)  =      23.5580  a.u.
     unit-cell volume          =     659.8191 (a.u.)^3
     number of atoms/cell      =           10
     number of atomic types    =            3
     number of electrons       =        82.00
     number of Kohn-Sham states=           49
     kinetic-energy cutoff     =      30.0000  Ry
     charge density cutoff     =     240.0000  Ry
     scf convergence threshold =      1.0E-06
     mixing beta               =       0.7000
     number of iterations used =            8  plain     mixing
     Exchange-correlation= SLA  PW   PBX  PBC
                           (   1   4   3   4   0   0   0)

     celldm(1)=  23.557965  celldm(2)=   0.000000  celldm(3)=   0.000000
     celldm(4)=   0.000000  celldm(5)=   0.000000  celldm(6)=   0.000000

     crystal axes: (cart. coord. in units of alat)
               a(1) = (   1.000000   0.000000   0.000000 )
               a(2) = (   0.970572   0.240809   0.000000 )
               a(3) = (   0.970573   0.118606   0.209575 )

     reciprocal axes: (cart. coord. in units 2 pi/alat)
               b(1) = (  1.000000 -4.030464 -2.350157 )
               b(2) = (  0.000000  4.152667 -2.350157 )
               b(3) = (  0.000000  0.000000  4.771570 )

     PseudoPot. # 1 for Ti read from file:
     /home/pragov/projects/rrg-bengioy-ad/pragov/crystal_structure_design/SSSP/ti_pbe_v1.4.uspp.F.UPF
     MD5 check sum: 88a00a6731bd790ddea75d31a80cb452
     Pseudo is Ultrasoft + core correction, Zval = 12.0
     Generated by new atomic code, or converted to UPF format
     Using radial grid of  851 points,  6 beta functions with:
                l(1) =   0
                l(2) =   0
                l(3) =   1
                l(4) =   1
                l(5) =   2
                l(6) =   2
     Q(r) pseudized with  6 coefficients,  rinner =    1.000   1.000   1.000
                                                       1.000   1.000

     PseudoPot. # 2 for Cr read from file:
     /home/pragov/projects/rrg-bengioy-ad/pragov/crystal_structure_design/SSSP/cr_pbe_v1.5.uspp.F.UPF
     MD5 check sum: 0d52af634a40206e4dee301ad30da4bf
     Pseudo is Ultrasoft + core correction, Zval = 14.0
     Generated by new atomic code, or converted to UPF format
     Using radial grid of  857 points,  6 beta functions with:
                l(1) =   0
                l(2) =   0
                l(3) =   1
                l(4) =   1
                l(5) =   2
                l(6) =   2
     Q(r) pseudized with  8 coefficients,  rinner =    0.950   0.950   0.950
                                                       0.950   0.950

     PseudoPot. # 3 for C  read from file:
     /home/pragov/projects/rrg-bengioy-ad/pragov/crystal_structure_design/SSSP/C.pbe-n-kjpaw_psl.1.0.0.UPF
     MD5 check sum: 5d2aebdfa2cae82b50a7e79e9516da0f
     Pseudo is Projector augmented-wave + core cor, Zval =  4.0
     Generated using "atomic" code by A. Dal Corso  v.5.1
     Shape of augmentation charge: PSQ
     Using radial grid of 1073 points,  4 beta functions with:
                l(1) =   0
                l(2) =   0
                l(3) =   1
                l(4) =   1
     Q(r) pseudized with 0 coefficients

     atomic species   valence    mass     pseudopotential
        Ti            12.00    47.86700     Ti( 1.00)
        Cr            14.00    51.99610     Cr( 1.00)
        C              4.00    12.01100     C ( 1.00)

      2 Sym. Ops., with inversion, found

                                    s                        frac. trans.

      isym =  1     identity

 cryst.   s( 1) = (     1          0          0      )
                  (     0          1          0      )
                  (     0          0          1      )

 cart.    s( 1) = (  1.0000000 -0.0000000  0.0000000 )
                  (  0.0000000  1.0000000  0.0000000 )
                  (  0.0000000  0.0000000  1.0000000 )

      isym =  2     inversion

 cryst.   s( 2) = (    -1          0          0      )
                  (     0         -1          0      )
                  (     0          0         -1      )

 cart.    s( 2) = ( -1.0000000  0.0000000 -0.0000000 )
                  (  0.0000000 -1.0000000 -0.0000000 )
                  (  0.0000000  0.0000000 -1.0000000 )

   Cartesian axes

     site n.     atom                  positions (alat units)
         1           Ti  tau(   1) = (   1.7705987   0.2163718   0.1261660  )
         2           Ti  tau(   2) = (   0.5899996   0.0720995   0.0420411  )
         3           Ti  tau(   3) = (   2.3511454   0.2873161   0.1675335  )
         4           Ti  tau(   4) = (   1.1705463   0.1430438   0.0834086  )
         5           Cr  tau(   5) = (   0.0000000   0.0000000   0.0000000  )
         6           C   tau(   6) = (   0.2894057   0.0353661   0.0206219  )
         7           C   tau(   7) = (   2.6517393   0.3240495   0.1889527  )
         8           C   tau(   8) = (   1.4705725   0.1797078   0.1047873  )
         9           C   tau(   9) = (   2.0499634   0.2505109   0.1460725  )
        10           C   tau(  10) = (   0.8911816   0.1089047   0.0635022  )

   Crystallographic axes

     site n.     atom                  positions (cryst. coord.)
         1           Ti  tau(   1) = (  0.6020100  0.6020100  0.6020100  )
         2           Ti  tau(   2) = (  0.2006020  0.2006020  0.2006020  )
         3           Ti  tau(   3) = (  0.7993980  0.7993980  0.7993980  )
         4           Ti  tau(   4) = (  0.3979900  0.3979900  0.3979900  )
         5           Cr  tau(   5) = (  0.0000000  0.0000000  0.0000000  )
         6           C   tau(   6) = (  0.0983990  0.0983990  0.0983990  )
         7           C   tau(   7) = (  0.9016010  0.9016010  0.9016010  )
         8           C   tau(   8) = (  0.5000000  0.5000000  0.5000000  )
         9           C   tau(   9) = (  0.6969950  0.6969950  0.6969950  )
        10           C   tau(  10) = (  0.3030050  0.3030050  0.3030050  )

     number of k points=     1  Methfessel-Paxton smearing, width (Ry)=  0.0010
                       cart. coord. in units 2pi/alat
        k(    1) = (   0.0000000   0.0000000   0.0000000), wk =   2.0000000

                       cryst. coord.
        k(    1) = (   0.0000000   0.0000000   0.0000000), wk =   2.0000000

     Check: negative core charge=   -0.000027

     Initial potential from superposition of free atoms

     starting charge      76.9996, renormalised to      82.0000

     negative rho (up, down):  7.058E-03 0.000E+00
     Starting wfcs are   70 randomized atomic wfcs
     Checking if some PAW data can be deallocated...

     Self-consistent Calculation

     iteration #  1     ecut=    30.00 Ry     beta= 0.70
     Davidson diagonalization with overlap

     ethr =  1.00E-02,  avg # of iterations =  3.0

     negative rho (up, down):  1.270E-02 0.000E+00

     total energy              =    -723.87044688 Ry
     estimated scf accuracy    <      25.72403055 Ry

[...]

     total energy              =    -743.43748089 Ry
     estimated scf accuracy    <       0.00000169 Ry

     iteration # 44     ecut=    30.00 Ry     beta= 0.70
     Davidson diagonalization with overlap

     ethr =  2.06E-09,  avg # of iterations =  5.0

[...]

     End of self-consistent calculation

          k = 0.0000 0.0000 0.0000 (   891 PWs)   bands (ev):

   -54.2889 -40.2358 -40.1950 -39.8064 -39.8059 -25.8927 -25.5517 -25.5517
   -16.9555 -16.7012 -16.3723 -16.3329 -16.3194 -16.3194 -16.2950 -16.2950
   -15.8922 -15.8922 -15.8917 -15.8917   2.4982   3.3099   3.5614   5.4343
     5.6236  10.1440  10.2075  12.5436  12.5436  12.7372  12.7372  13.4132
    13.6248  14.1272  14.1272  14.3883  14.3883  16.3534  16.4051  16.4051
    16.8257  16.8258  17.0365  17.0365  17.0523  17.5982  17.5982  17.6763
    17.6763

     occupation numbers
     1.0000   1.0000   1.0000   1.0000   1.0000   1.0000   1.0000   1.0000
     1.0000   1.0000   1.0000   1.0000   1.0000   1.0000   1.0000   1.0000
     1.0000   1.0000   1.0000   1.0000   1.0000   1.0000   1.0000   1.0000
     1.0000   1.0000   1.0000   1.0000   1.0000   1.0000   1.0000   1.0000
     1.0000   1.0000   1.0000   1.0000   1.0000   1.0000   1.0000   1.0000
     0.5004   0.4996  -0.0000  -0.0000  -0.0000  -0.0000  -0.0000  -0.0000
    -0.0000

     the Fermi energy is    16.8257 ev

!    total energy              =    -743.43748078 Ry
     estimated scf accuracy    <       0.00000032 Ry
     smearing contrib. (-TS)   =      -0.00056419 Ry
     internal energy E=F+TS    =    -743.43691659 Ry

     The total energy is F=E-TS. E is the sum of the following terms:
     one-electron contribution =    -196.20149390 Ry
     hartree contribution      =     145.22555053 Ry
     xc contribution           =    -118.72906974 Ry
     ewald contribution        =    -542.89446888 Ry
     one-center paw contrib.   =     -30.83743460 Ry
      -> PAW hartree energy AE =      37.01409709 Ry
      -> PAW hartree energy PS =     -36.97210348 Ry
      -> PAW xc energy AE      =     -50.83342662 Ry
      -> PAW xc energy PS      =      19.95399841 Ry
      -> total E_H with PAW    =     145.26754414 Ry
      -> total E_XC with PAW   =    -149.60849795 Ry

     convergence has been achieved in  44 iterations

     negative rho (up, down):  4.462E-03 0.000E+00

     Forces acting on atoms (cartesian axes, Ry/au):

     atom    1 type  1   force =     0.02555261    0.00312755    0.00182371
     atom    2 type  1   force =    -0.00814166   -0.00099295   -0.00058137
     atom    3 type  1   force =     0.00814166    0.00099295    0.00058137
     atom    4 type  1   force =    -0.02555261   -0.00312755   -0.00182371
     atom    5 type  2   force =     0.00000000    0.00000000    0.00000000
     atom    6 type  3   force =    -0.03251387   -0.00396698   -0.00231729
     atom    7 type  3   force =     0.03251387    0.00396698    0.00231729
     atom    8 type  3   force =     0.00000000    0.00000000    0.00000000
     atom    9 type  3   force =    -0.02589743   -0.00315218   -0.00184485
     atom   10 type  3   force =     0.02589743    0.00315218    0.00184485
     The non-local contrib.  to forces
     atom    1 type  1   force =    -0.00339928   -0.00041938   -0.00024080
     atom    2 type  1   force =    -0.00550391   -0.00067285   -0.00039254
     atom    3 type  1   force =     0.00550391    0.00067285    0.00039254
     atom    4 type  1   force =     0.00339928    0.00041938    0.00024080
     atom    5 type  2   force =     0.00000000    0.00000000    0.00000000
     atom    6 type  3   force =    -0.02918285   -0.00357022   -0.00207796
     atom    7 type  3   force =     0.02918285    0.00357022    0.00207796
     atom    8 type  3   force =     0.00000000    0.00000000    0.00000000
     atom    9 type  3   force =    -0.03364287   -0.00410969   -0.00239425
     atom   10 type  3   force =     0.03364287    0.00410969    0.00239425
     The ionic contribution  to forces
     atom    1 type  1   force =   -11.43284623   -1.39712372   -0.81465987
     atom    2 type  1   force =    -3.76159355   -0.45967657   -0.26803646
     atom    3 type  1   force =     3.76159355    0.45967657    0.26803646
     atom    4 type  1   force =    11.43284623    1.39712372    0.81465986
     atom    5 type  2   force =     0.00000000    0.00000000    0.00000000
     atom    6 type  3   force =     2.68224883    0.32777782    0.19112660
     atom    7 type  3   force =    -2.68224883   -0.32777782   -0.19112660
     atom    8 type  3   force =     0.00000000   -0.00000000    0.00000000
     atom    9 type  3   force =     3.89694701    0.47621712    0.27768144
     atom   10 type  3   force =    -3.89694701   -0.47621712   -0.27768144
     The local contribution  to forces
     atom    1 type  1   force =    11.46409767    1.40095172    0.81688118
     atom    2 type  1   force =     3.75907201    0.45938126    0.26785748
     atom    3 type  1   force =    -3.75893940   -0.45934768   -0.26784711
     atom    4 type  1   force =   -11.46377539   -1.40091309   -0.81686266
     atom    5 type  2   force =    -0.00045428   -0.00005250   -0.00002760
     atom    6 type  3   force =    -2.68595656   -0.32821073   -0.19139664
     atom    7 type  3   force =     2.68580115    0.32820561    0.19137890
     atom    8 type  3   force =     0.00002088   -0.00000091   -0.00000374
     atom    9 type  3   force =    -3.89015968   -0.47537341   -0.27719997
     atom   10 type  3   force =     3.89024134    0.47538132    0.27720757
     The core correction contribution to forces
     atom    1 type  1   force =    -0.00158050   -0.00019222   -0.00011261
     atom    2 type  1   force =    -0.00019065   -0.00002279   -0.00001353
     atom    3 type  1   force =     0.00018959    0.00002309    0.00001329
     atom    4 type  1   force =     0.00158208    0.00019281    0.00011298
     atom    5 type  2   force =     0.00000045   -0.00000014    0.00000024
     atom    6 type  3   force =     0.00035362    0.00004349    0.00002512
     atom    7 type  3   force =    -0.00035278   -0.00004309   -0.00002518
     atom    8 type  3   force =    -0.00000097   -0.00000018   -0.00000018
     atom    9 type  3   force =     0.00045229    0.00005533    0.00003216
     atom   10 type  3   force =    -0.00045218   -0.00005545   -0.00003217
     The Hubbard contrib.    to forces
     atom    1 type  1   force =     0.00000000    0.00000000    0.00000000
     atom    2 type  1   force =     0.00000000    0.00000000    0.00000000
     atom    3 type  1   force =     0.00000000    0.00000000    0.00000000
     atom    4 type  1   force =     0.00000000    0.00000000    0.00000000
     atom    5 type  2   force =     0.00000000    0.00000000    0.00000000
     atom    6 type  3   force =     0.00000000    0.00000000    0.00000000
     atom    7 type  3   force =     0.00000000    0.00000000    0.00000000
     atom    8 type  3   force =     0.00000000    0.00000000    0.00000000
     atom    9 type  3   force =     0.00000000    0.00000000    0.00000000
     atom   10 type  3   force =     0.00000000    0.00000000    0.00000000
     The SCF correction term to forces
     atom    1 type  1   force =    -0.00070657   -0.00008412   -0.00004398
     atom    2 type  1   force =     0.00009641   -0.00000110    0.00000472
     atom    3 type  1   force =    -0.00018400   -0.00003100   -0.00001276
     atom    4 type  1   force =     0.00040766    0.00005435    0.00002554
     atom    5 type  2   force =     0.00043449    0.00004826    0.00002681
     atom    6 type  3   force =     0.00003662    0.00000032    0.00000409
     atom    7 type  3   force =     0.00014501    0.00001973    0.00001072
     atom    8 type  3   force =    -0.00005636   -0.00000489   -0.00000352
     atom    9 type  3   force =     0.00049867    0.00005645    0.00003593
     atom   10 type  3   force =    -0.00059475   -0.00006828   -0.00004321

     Total force =     0.070653     Total SCF correction =     0.001246

     Computing stress (Cartesian axis) and pressure

     negative rho (up, down):  4.462E-03 0.000E+00
          total   stress  (Ry/bohr**3)                   (kbar)     P=      197.54
  -0.00285103  -0.00077584  -0.00045282         -419.40     -114.13      -66.61
  -0.00077584   0.00340855  -0.00005487         -114.13      501.41       -8.07
  -0.00045282  -0.00005487   0.00347098          -66.61       -8.07      510.60

     kinetic stress (kbar)  25173.66   -295.19   -172.15
                             -295.19  27552.78    -20.61
                             -172.15    -20.61  27576.57

     local   stress (kbar)   8303.41   1112.35    648.45
                             1112.35   -660.23     78.90
                              648.45     78.90   -749.98

     nonloc. stress (kbar)   8606.35     18.73     10.93
                               18.73   8455.16      1.34
                               10.93      1.34   8453.65

     hartree stress (kbar)   7986.27   -519.79   -302.99
                             -519.79  12174.73    -37.04
                             -302.99    -37.04  12216.68

     exc-cor stress (kbar)  -2752.95     -3.40     -1.98
                               -3.40  -2725.57     -0.24
                               -1.98     -0.24  -2725.29

     corecor stress (kbar)  -5073.29      2.21      1.29
                                2.21  -5091.07      0.14
                                1.29      0.14  -5091.25

     ewald   stress (kbar) -42662.84   -429.04   -250.17
                             -429.04 -39204.38    -30.57
                             -250.17    -30.57 -39169.78

     hubbard stress (kbar)      0.00      0.00      0.00
                                0.00      0.00      0.00
                                0.00      0.00      0.00

     DFT-D   stress (kbar)      0.00      0.00      0.00
                                0.00      0.00      0.00
                                0.00      0.00      0.00

     XDM     stress (kbar)      0.00      0.00      0.00
                                0.00      0.00      0.00
                                0.00      0.00      0.00

     dft-nl  stress (kbar)      0.00      0.00      0.00
                                0.00      0.00      0.00
                                0.00      0.00      0.00

     TS-vdW  stress (kbar)      0.00      0.00      0.00
                                0.00      0.00      0.00
                                0.00      0.00      0.00

[...]

                                0.00      0.00      0.00

     Writing all to output data dir new_calculations/myprefix.save/

     General routines

     Parallel routines

     PAW routines

   This run was terminated on:  10: 3:41  20May2023

   JOB DONE.