     Program PWSCF v.7.0 starts on 20May2023 at 19:39:17

     Reading input from espresso_4606.pwi
Warning: card &CELL ignored
Warning: card / ignored

     Current dimensions of program PWSCF are:
     Max number of different atomic species (ntypx) = 10
     Max number of k-points (npk) =  40000
     Max angular momentum in pseudopotentials (lmaxx) =  4
     file K.pbe-spn-kjpaw_psl.1.0.0.UPF: wavefunction(s)  3S renormalized
     file Pb.pbe-dn-kjpaw_psl.0.2.2.UPF: wavefunction(s)  6S renormalized

     gamma-point specific algorithms are used
     Message from routine setup:
     using ibrav=0 with symmetry is DISCOURAGED, use correct ibrav instead

     Subspace diagonalization in iterative solution of the eigenvalue problem:
     a serial algorithm will be used

     Using Slab Decomposition

     bravais-lattice index     =            0
     lattice parameter (alat)  =      12.7622  a.u.
     unit-cell volume          =    2968.5404 (a.u.)^3
     number of atoms/cell      =           12
     number of atomic types    =            2
     number of electrons       =       148.00
     number of Kohn-Sham states=           89
     kinetic-energy cutoff     =      30.0000  Ry
     charge density cutoff     =     240.0000  Ry
     scf convergence threshold =      1.0E-06
     mixing beta               =       0.7000
     number of iterations used =            8  plain     mixing
     Exchange-correlation= SLA  PW   PBX  PBC
                           (   1   4   3   4   0   0   0)

     celldm(1)=  12.762183  celldm(2)=   0.000000  celldm(3)=   0.000000
     celldm(4)=   0.000000  celldm(5)=   0.000000  celldm(6)=   0.000000

     crystal axes: (cart. coord. in units of alat)
               a(1) = (   1.000000   0.000000   0.000000 )
               a(2) = (  -0.500000   0.866025   0.000000 )
               a(3) = (   0.000000   0.000000   1.649064 )

     reciprocal axes: (cart. coord. in units 2 pi/alat)
               b(1) = (  1.000000  0.577350  0.000000 )
               b(2) = (  0.000000  1.154701  0.000000 )
               b(3) = (  0.000000  0.000000  0.606405 )

     PseudoPot. # 1 for K  read from file:
     /home/pragov/projects/rrg-bengioy-ad/pragov/crystal_structure_design/SSSP/K.pbe-spn-kjpaw_psl.1.0.0.UPF
     MD5 check sum: 7d58810084cac21f60fbe77ea2b688fd
     Pseudo is Projector augmented-wave + core cor, Zval =  9.0
     Generated using "atomic" code by A. Dal Corso  v.5.1
     Shape of augmentation charge: PSQ
     Using radial grid of 1165 points,  6 beta functions with:
                l(1) =   0
                l(2) =   0
                l(3) =   1
                l(4) =   1
                l(5) =   2
                l(6) =   2
     Q(r) pseudized with 0 coefficients

     PseudoPot. # 2 for Pb read from file:
     /home/pragov/projects/rrg-bengioy-ad/pragov/crystal_structure_design/SSSP/Pb.pbe-dn-kjpaw_psl.0.2.2.UPF
     MD5 check sum: 9d431e6316058b74ade52399a6cf67da
     Pseudo is Projector augmented-wave + core cor, Zval = 14.0
     Generated using "atomic" code by A. Dal Corso  v.5.0.99 svn rev. 10869
     Shape of augmentation charge: PSQ
     Using radial grid of 1281 points,  6 beta functions with:
                l(1) =   0
                l(2) =   0
                l(3) =   1
                l(4) =   1
                l(5) =   2
                l(6) =   2
     Q(r) pseudized with 0 coefficients

     atomic species   valence    mass     pseudopotential
        K              9.00    39.09830     K ( 1.00)
        Pb            14.00   207.20000     Pb( 1.00)

     24 Sym. Ops., with inversion, found (12 have fractional translation)

                                    s                        frac. trans.

      isym =  1     identity

 cryst.   s( 1) = (     1          0          0      )
                  (     0          1          0      )
                  (     0          0          1      )

 cart.    s( 1) = (  1.0000000 -0.0000000  0.0000000 )
                  (  0.0000000  1.0000000  0.0000000 )
                  (  0.0000000  0.0000000  1.0000000 )

      isym =  2     180 deg rotation - cart. axis [0,0,1]

 cryst.   s( 2) = (    -1          0          0      )    f =(  0.0000000 )
                  (     0         -1          0      )       (  0.0000000 )
                  (     0          0          1      )       ( -0.5000000 )

 cart.    s( 2) = ( -1.0000000  0.0000000  0.0000000 )    f =(  0.0000000 )
                  (  0.0000000 -1.0000000  0.0000000 )       (  0.0000000 )
                  (  0.0000000  0.0000000  1.0000000 )       ( -0.8245319 )

[...]

      isym =  4     180 deg rotation - cart. axis [1,0,0]

[...]

      isym =  5      60 deg rotation - cryst. axis [0,0,1]

[...]

 cryst.   s( 8) = (    -1         -1          0      )
                  (     1          0          0      )
                  (     0          0          1      )

 cart.    s( 8) = ( -0.4999999  0.8660254  0.0000000 )
                  ( -0.8660254 -0.5000001  0.0000000 )
                  (  0.0000000  0.0000000  1.0000000 )

[...]

 cryst.   s( 9) = (     0         -1          0      )    f =(  0.0000000 )
                  (    -1          0          0      )       (  0.0000000 )
                  (     0          0         -1      )       (  0.5000000 )

 cart.    s( 9) = (  0.5000001 -0.8660254  0.0000000 )    f =(  0.0000000 )
                  ( -0.8660254 -0.5000001  0.0000000 )       (  0.0000000 )
                  (  0.0000000  0.0000000 -1.0000000 )       (  0.8245319 )

[...]

 cryst.   s(10) = (     1          1          0      )    f =(  0.0000000 )
                  (     0         -1          0      )       ( -0.0000010 )
                  (     0          0         -1      )       (  0.5000000 )

 cart.    s(10) = (  0.4999999  0.8660255  0.0000000 )    f =(  0.0000005 )
                  (  0.8660254 -0.4999999  0.0000000 )       ( -0.0000009 )
                  (  0.0000000  0.0000000 -1.0000000 )       (  0.8245319 )

[...]

 cryst.   s(11) = (    -1         -1          0      )
                  (     0          1          0      )
                  (     0          0         -1      )

 cart.    s(11) = ( -0.4999999 -0.8660255  0.0000000 )
                  ( -0.8660254  0.4999999  0.0000000 )
                  (  0.0000000  0.0000000 -1.0000000 )

      isym = 12     180 deg rotation - cryst. axis [1,1,0]

[...]

      isym = 13     inversion

[...]

      isym = 14     inv. 180 deg rotation - cart. axis [0,0,1]

[...]

      isym = 16     inv. 180 deg rotation - cart. axis [1,0,0]

[...]

      isym = 17     inv.  60 deg rotation - cryst. axis [0,0,1]

[...]

 cryst.   s(22) = (    -1         -1          0      )    f =(  0.0000000 )
                  (     0          1          0      )       ( -0.0000010 )
                  (     0          0          1      )       ( -0.5000000 )

 cart.    s(22) = ( -0.4999999 -0.8660255  0.0000000 )    f =(  0.0000005 )
                  ( -0.8660254  0.4999999  0.0000000 )       ( -0.0000009 )
                  (  0.0000000  0.0000000  1.0000000 )       ( -0.8245319 )

[...]

      isym = 24     inv. 180 deg rotation - cryst. axis [1,1,0]

 cryst.   s(24) = (     0         -1          0      )
                  (    -1          0          0      )
                  (     0          0          1      )

 cart.    s(24) = (  0.5000001 -0.8660254  0.0000000 )
                  ( -0.8660254 -0.5000001  0.0000000 )
                  (  0.0000000  0.0000000  1.0000000 )

   Cartesian axes

     site n.     atom                  positions (alat units)
         1           K   tau(   1) = (  -0.0000005   0.5773505   0.1046529  )
         2           K   tau(   2) = (   0.5000005   0.2886748   0.9291847  )
         3           K   tau(   3) = (   0.5000005   0.2886748   1.5444108  )
         4           K   tau(   4) = (  -0.0000005   0.5773505   0.7198790  )
         5           Pb  tau(   5) = (   0.0000000   0.0000000   0.0000000  )
         6           Pb  tau(   6) = (   0.0000000   0.0000000   0.8245319  )
         7           Pb  tau(   7) = (   0.5000000   0.5792930   0.4122659  )
         8           Pb  tau(   8) = (  -0.2516826   0.7226592   1.2367978  )
         9           Pb  tau(   9) = (   0.2516824   0.7226592   1.2367978  )
        10           Pb  tau(  10) = (   0.2483175   0.1433662   0.4122659  )
        11           Pb  tau(  11) = (   0.7516825   0.1433662   0.4122659  )
        12           Pb  tau(  12) = (  -0.0000000   0.2867323   1.2367978  )

   Crystallographic axes

     site n.     atom                  positions (cryst. coord.)
         1           K   tau(   1) = (  0.3333330  0.6666670  0.0634620  )
         2           K   tau(   2) = (  0.6666670  0.3333330  0.5634620  )
         3           K   tau(   3) = (  0.6666670  0.3333330  0.9365380  )
         4           K   tau(   4) = (  0.3333330  0.6666670  0.4365380  )
         5           Pb  tau(   5) = (  0.0000000  0.0000000  0.0000000  )
         6           Pb  tau(   6) = (  0.0000000  0.0000000  0.5000000  )
         7           Pb  tau(   7) = (  0.8344550  0.6689100  0.2500000  )
         8           Pb  tau(   8) = (  0.1655450  0.8344550  0.7500000  )
         9           Pb  tau(   9) = (  0.6689100  0.8344550  0.7500000  )
        10           Pb  tau(  10) = (  0.3310900  0.1655450  0.2500000  )
        11           Pb  tau(  11) = (  0.8344550  0.1655450  0.2500000  )
        12           Pb  tau(  12) = (  0.1655450  0.3310900  0.7500000  )

     number of k points=     1  Methfessel-Paxton smearing, width (Ry)=  0.0010
                       cart. coord. in units 2pi/alat
        k(    1) = (   0.0000000   0.0000000   0.0000000), wk =   2.0000000

                       cryst. coord.
        k(    1) = (   0.0000000   0.0000000   0.0000000), wk =   2.0000000

     Check: negative core charge=   -0.000002

     Initial potential from superposition of free atoms

     starting charge     147.9059, renormalised to     148.0000
     Starting wfcs are  104 randomized atomic wfcs
     Checking if some PAW data can be deallocated...

     Self-consistent Calculation

     iteration #  1     ecut=    30.00 Ry     beta= 0.70
     Davidson diagonalization with overlap

     ethr =  1.00E-02,  avg # of iterations =  4.0

     Threshold (ethr) on eigenvalues was too large:
     Diagonalizing with lowered threshold

     Davidson diagonalization with overlap

[...]

     total energy              =   -7417.07188794 Ry
     estimated scf accuracy    <       0.17527163 Ry

[...]

     total energy              =   -7417.12230250 Ry
     estimated scf accuracy    <       0.00000249 Ry

     iteration # 11     ecut=    30.00 Ry     beta= 0.70
     Davidson diagonalization with overlap

     ethr =  1.68E-09,  avg # of iterations =  2.0

     End of self-consistent calculation

          k = 0.0000 0.0000 0.0000 (  4117 PWs)   bands (ev):

   -23.9248 -23.9216 -23.9144 -23.9112  -9.6689  -9.6628  -9.6627  -9.6596
    -9.6596  -9.6507  -9.6327  -9.6327  -9.6289  -9.6289  -9.1926  -9.1893
    -9.1189  -9.0965  -9.0964  -9.0887  -9.0887  -9.0823  -9.0321  -9.0320
    -9.0149  -9.0147  -9.0017  -8.9991  -8.9398  -8.9396  -8.9358  -8.9356
    -8.9214  -8.9214  -8.9193  -8.9191  -8.8979  -8.8978  -8.7832  -8.7829
    -8.7825  -8.7823  -8.6456  -8.6456  -7.4588  -7.4585  -7.4585  -7.4451
    -7.4451  -7.4439  -7.3939  -7.3920  -7.3911  -7.3910  -7.3809  -7.3808
    -2.9187  -2.1533  -1.3064   0.0511   0.5120   0.5122   0.6705   0.6706
     4.1352   4.7743   5.0451   5.7309   5.7309   5.7834   5.7835   6.0691
     6.0692   6.5553   8.0166   8.0166   8.1677   8.1678   9.0969   9.6364
     9.8606  10.6719  10.9314  10.9314  11.2021  11.2629  11.2629  11.3021
    11.3021

     occupation numbers
     1.0000   1.0000   1.0000   1.0000   1.0000   1.0000   1.0000   1.0000
     1.0000   1.0000   1.0000   1.0000   1.0000   1.0000   1.0000   1.0000
     1.0000   1.0000   1.0000   1.0000   1.0000   1.0000   1.0000   1.0000
     1.0000   1.0000   1.0000   1.0000   1.0000   1.0000   1.0000   1.0000
     1.0000   1.0000   1.0000   1.0000   1.0000   1.0000   1.0000   1.0000
     1.0000   1.0000   1.0000   1.0000   1.0000   1.0000   1.0000   1.0000
     1.0000   1.0000   1.0000   1.0000   1.0000   1.0000   1.0000   1.0000
     1.0000   1.0000   1.0000   1.0000   1.0000   1.0000   1.0000   1.0000
     1.0000   1.0000   1.0000   1.0000   1.0000   1.0000   1.0000   1.0000
     1.0000   1.0000  -0.0000  -0.0000  -0.0000  -0.0000  -0.0000  -0.0000
    -0.0000  -0.0000  -0.0000  -0.0000  -0.0000  -0.0000  -0.0000  -0.0000
    -0.0000

     the Fermi energy is     7.0008 ev

!    total energy              =   -7417.12230267 Ry

     total all-electron energy =   -338930.304875 Ry
     estimated scf accuracy    <       0.00000032 Ry
     smearing contrib. (-TS)   =       0.00000000 Ry
     internal energy E=F+TS    =   -7417.12230267 Ry

     The total energy is F=E-TS. E is the sum of the following terms:
     one-electron contribution =    -472.96438238 Ry
     hartree contribution      =     334.25360185 Ry
     xc contribution           =    -400.03684990 Ry
     ewald contribution        =    -828.91289034 Ry
     one-center paw contrib.   =   -6049.46178190 Ry
      -> PAW hartree energy AE =     949.52879030 Ry
      -> PAW hartree energy PS =    -947.01265384 Ry
      -> PAW xc energy AE      =   -6445.08193967 Ry
      -> PAW xc energy PS      =     393.10402131 Ry
      -> total E_H with PAW    =     336.76973830 Ry
      -> total E_XC with PAW   =   -6452.01476826 Ry

     convergence has been achieved in  11 iterations

     Forces acting on atoms (cartesian axes, Ry/au):

     atom    1 type  1   force =    -0.00000000   -0.00000000    0.00341819
     atom    2 type  1   force =     0.00000000    0.00000000    0.00341819
     atom    3 type  1   force =     0.00000000    0.00000000   -0.00341819
     atom    4 type  1   force =     0.00000000   -0.00000000   -0.00341819
     atom    5 type  2   force =     0.00000000   -0.00000000    0.00000000
     atom    6 type  2   force =    -0.00000000   -0.00000000    0.00000000
     atom    7 type  2   force =    -0.00000000   -0.01305618   -0.00000000
     atom    8 type  2   force =     0.01130698   -0.00652809   -0.00000000
     atom    9 type  2   force =    -0.01130698   -0.00652809    0.00000000
     atom   10 type  2   force =     0.01130698    0.00652809    0.00000000
     atom   11 type  2   force =    -0.01130698    0.00652809   -0.00000000
     atom   12 type  2   force =     0.00000000    0.01305618    0.00000000
     The non-local contrib.  to forces
     atom    1 type  1   force =    -0.00000000   -0.00000000    0.05535350
     atom    2 type  1   force =    -0.00000000   -0.00000000    0.05535350
     atom    3 type  1   force =     0.00000000    0.00000000   -0.05535350
     atom    4 type  1   force =     0.00000000    0.00000000   -0.05535350
     atom    5 type  2   force =     0.00000000    0.00000000    0.00000000
     atom    6 type  2   force =     0.00000000    0.00000000    0.00000000
     atom    7 type  2   force =     0.00000000    0.03302416   -0.00000000
     atom    8 type  2   force =    -0.02859976    0.01651208    0.00000000
     atom    9 type  2   force =     0.02859976    0.01651208   -0.00000000
     atom   10 type  2   force =    -0.02859976   -0.01651208    0.00000000
     atom   11 type  2   force =     0.02859976   -0.01651208    0.00000000
     atom   12 type  2   force =    -0.00000000   -0.03302416    0.00000000
     The ionic contribution  to forces
     atom    1 type  1   force =     0.00002611   -0.00001508   -0.27733803
     atom    2 type  1   force =    -0.00002611    0.00001508   -0.27733803
     atom    3 type  1   force =    -0.00002611    0.00001508    0.27733803
     atom    4 type  1   force =     0.00002611   -0.00001508    0.27733803
     atom    5 type  2   force =    -0.00000000   -0.00000000   -0.00000000
     atom    6 type  2   force =    -0.00000000   -0.00000000    0.00000000
     atom    7 type  2   force =    -0.00002191   -4.97232781    0.00000000
     atom    8 type  2   force =     4.30615207   -2.48615783    0.00000000
     atom    9 type  2   force =    -4.30615104   -2.48618322    0.00000000
     atom   10 type  2   force =     4.30615104    2.48618322    0.00000000
     atom   11 type  2   force =    -4.30615207    2.48615783    0.00000000
     atom   12 type  2   force =     0.00002191    4.97232781    0.00000000
     The local contribution  to forces
     atom    1 type  1   force =     0.00007158    0.00001131    0.22697860
     atom    2 type  1   force =    -0.00000487   -0.00005197    0.22695178
     atom    3 type  1   force =    -0.00003916   -0.00002666   -0.22705761
     atom    4 type  1   force =     0.00008780    0.00003713   -0.22686716
     atom    5 type  2   force =    -0.00007071   -0.00002425   -0.00005618
     atom    6 type  2   force =    -0.00010877   -0.00001578    0.00008641
     atom    7 type  2   force =    -0.00007802    4.92489341    0.00013627
     atom    8 type  2   force =    -4.26497769    2.46244261   -0.00018993
     atom    9 type  2   force =     4.26496810    2.46246063   -0.00017420
     atom   10 type  2   force =    -4.26507274   -2.46240907    0.00014052
     atom   11 type  2   force =     4.26507057   -2.46250749    0.00017071
     atom   12 type  2   force =     0.00001155   -4.92482988   -0.00017602
     The core correction contribution to forces
     atom    1 type  1   force =    -0.00000015   -0.00000037   -0.00155874
     atom    2 type  1   force =     0.00000029   -0.00000047   -0.00156016
     atom    3 type  1   force =    -0.00000025    0.00000010    0.00155903
     atom    4 type  1   force =     0.00000042    0.00000010    0.00155954
     atom    5 type  2   force =    -0.00000095   -0.00000056   -0.00000125
     atom    6 type  2   force =    -0.00000241   -0.00000073    0.00000039
     atom    7 type  2   force =    -0.00000046    0.00100514    0.00000050
     atom    8 type  2   force =    -0.00086825    0.00050159   -0.00000308
     atom    9 type  2   force =     0.00086992    0.00050404   -0.00000062
     atom   10 type  2   force =    -0.00087137   -0.00050258    0.00000074
     atom   11 type  2   force =     0.00087058   -0.00050276    0.00000222
     atom   12 type  2   force =    -0.00000018   -0.00100443   -0.00000225
     The Hubbard contrib.    to forces
     atom    1 type  1   force =     0.00000000    0.00000000    0.00000000
     atom    2 type  1   force =     0.00000000    0.00000000    0.00000000
     atom    3 type  1   force =     0.00000000    0.00000000    0.00000000
     atom    4 type  1   force =     0.00000000    0.00000000    0.00000000
     atom    5 type  2   force =     0.00000000    0.00000000    0.00000000
     atom    6 type  2   force =     0.00000000    0.00000000    0.00000000
     atom    7 type  2   force =     0.00000000    0.00000000    0.00000000
     atom    8 type  2   force =     0.00000000    0.00000000    0.00000000
     atom    9 type  2   force =     0.00000000    0.00000000    0.00000000
     atom   10 type  2   force =     0.00000000    0.00000000    0.00000000
     atom   11 type  2   force =     0.00000000    0.00000000    0.00000000
     atom   12 type  2   force =     0.00000000    0.00000000    0.00000000
     The SCF correction term to forces
     atom    1 type  1   force =    -0.00009461   -0.00000182   -0.00001066
     atom    2 type  1   force =     0.00004255    0.00002854    0.00001494
     atom    3 type  1   force =     0.00006322    0.00001827    0.00009965
     atom    4 type  1   force =    -0.00010990   -0.00002488   -0.00008861
     atom    5 type  2   force =     0.00008307    0.00002793    0.00003142
     atom    6 type  2   force =     0.00012616    0.00001930   -0.00008002
     atom    7 type  2   force =     0.00015022    0.00033186   -0.00015444
     atom    8 type  2   force =    -0.00041519    0.00015249    0.00021464
     atom    9 type  2   force =     0.00044900    0.00018739    0.00022291
     atom   10 type  2   force =    -0.00029028   -0.00024113   -0.00018223
     atom   11 type  2   force =     0.00028930   -0.00006844   -0.00019538
     atom   12 type  2   force =    -0.00006009   -0.00042160    0.00019864

     Total force =     0.032703     Total SCF correction =     0.001134

     Computing stress (Cartesian axis) and pressure

          total   stress  (Ry/bohr**3)                   (kbar)     P=      -27.90
  -0.00016144  -0.00000000   0.00000000          -23.75       -0.00        0.00
  -0.00000000  -0.00016144   0.00000000           -0.00      -23.75        0.00
  -0.00000000  -0.00000000  -0.00024613           -0.00       -0.00      -36.21

     kinetic stress (kbar)  11271.85      0.00      0.00
                                0.00  11271.85      0.00
                                0.00     -0.00  11188.46

     local   stress (kbar)   -736.17     -0.01     -0.00
                               -0.01   -736.15      0.00
                               -0.00      0.00   -870.18

     nonloc. stress (kbar)   1539.45      0.00      0.00
                                0.00   1539.45      0.00
                                0.00      0.00   1478.17

     hartree stress (kbar)   5511.17      0.02      0.00
                                0.02   5511.16     -0.00
                                0.00     -0.00   5541.51

     exc-cor stress (kbar)   8052.04      0.00      0.00
                                0.00   8052.04      0.00
                                0.00      0.00   8049.51

     corecor stress (kbar) -11891.25     -0.00      0.00
                               -0.00 -11891.25      0.00
                                0.00      0.00 -11888.83

     ewald   stress (kbar) -13770.83     -0.01      0.00
                               -0.01 -13770.84     -0.00
                                0.00     -0.00 -13534.85

     hubbard stress (kbar)      0.00      0.00      0.00
                                0.00      0.00      0.00
                                0.00      0.00      0.00

     DFT-D   stress (kbar)      0.00      0.00      0.00
                                0.00      0.00      0.00
                                0.00      0.00      0.00

     XDM     stress (kbar)      0.00      0.00      0.00
                                0.00      0.00      0.00
                                0.00      0.00      0.00

     dft-nl  stress (kbar)      0.00      0.00      0.00
                                0.00      0.00      0.00
                                0.00      0.00      0.00

     TS-vdW  stress (kbar)      0.00      0.00      0.00
                                0.00      0.00      0.00
                                0.00      0.00      0.00

[...]

                                0.00      0.00      0.00

     Writing all to output data dir new_calculations/myprefix.save/

     General routines

     Parallel routines

     PAW routines

   This run was terminated on:  19:39:59  20May2023

   JOB DONE.