     Program PWSCF v.7.0 starts on 20May2023 at 20:58:45

     Reading input from espresso_12543.pwi
Warning: card &CELL ignored
Warning: card / ignored

     Current dimensions of program PWSCF are:
     Max number of different atomic species (ntypx) = 10
     Max number of k-points (npk) =  40000
     Max angular momentum in pseudopotentials (lmaxx) =  4

     gamma-point specific algorithms are used
     Message from routine setup:
     using ibrav=0 with symmetry is DISCOURAGED, use correct ibrav instead

     Subspace diagonalization in iterative solution of the eigenvalue problem:
     a serial algorithm will be used

     Using Slab Decomposition

     bravais-lattice index     =            0
     lattice parameter (alat)  =       8.9166  a.u.
     unit-cell volume          =     356.1478 (a.u.)^3
     number of atoms/cell      =            4
     number of atomic types    =            2
     number of electrons       =        78.00
     number of Kohn-Sham states=           47
     kinetic-energy cutoff     =      30.0000  Ry
     charge density cutoff     =     240.0000  Ry
     scf convergence threshold =      1.0E-06
     mixing beta               =       0.7000
     number of iterations used =            8  plain     mixing
     Exchange-correlation=  SLA  PW   PBX  PBC
                           (   1   4   3   4   0   0   0)

     celldm(1)=   8.916551  celldm(2)=   0.000000  celldm(3)=   0.000000
     celldm(4)=   0.000000  celldm(5)=   0.000000  celldm(6)=   0.000000

     crystal axes: (cart. coord. in units of alat)
               a(1) = (   1.000000   0.000000   0.000000 )
               a(2) = (   0.399403   0.916775   0.000000 )
               a(3) = (  -0.699702  -0.458388   0.547995 )

     reciprocal axes: (cart. coord. in units 2 pi/alat)
               b(1) = (  1.000000 -0.435661  0.912417 )
               b(2) = (  0.000000  1.090780  0.912417 )
               b(3) = (  0.000000  0.000000  1.824834 )

     PseudoPot. # 1 for Zn read from file:
     /home/pragov/projects/rrg-bengioy-ad/pragov/crystal_structure_design/SSSP/Zn_pbe_v1.uspp.F.UPF
     MD5 check sum: df62231357ef9e81f77b2b3087fa5675
     Pseudo is Ultrasoft, Zval = 20.0
     Generated by new atomic code, or converted to UPF format
     Using radial grid of  943 points,  6 beta functions with:
                l(1) =   0
                l(2) =   0
                l(3) =   1
                l(4) =   1
                l(5) =   2
                l(6) =   2
     Q(r) pseudized with  8 coefficients,  rinner =    1.100   1.100   1.100
                                                       1.100   1.100

     PseudoPot. # 2 for Ni read from file:
     /home/pragov/projects/rrg-bengioy-ad/pragov/crystal_structure_design/SSSP/ni_pbe_v1.4.uspp.F.UPF
     MD5 check sum: 1ee80287db30b12d2bc1f57a5b5d6409
     Pseudo is Ultrasoft + core correction, Zval = 18.0
     Generated by new atomic code, or converted to UPF format
     Using radial grid of  865 points,  6 beta functions with:
                l(1) =   0
                l(2) =   0
                l(3) =   1
                l(4) =   1
                l(5) =   2
                l(6) =   2
     Q(r) pseudized with 10 coefficients,  rinner =    0.980   0.980   0.980
                                                       0.980   0.980

     atomic species   valence    mass     pseudopotential
        Zn            20.00    65.38000     Zn( 1.00)
        Ni            18.00    58.69340     Ni( 1.00)

      4 Sym. Ops., with inversion, found

                                    s                        frac. trans.

      isym =  1     identity

 cryst.   s( 1) = (     1          0          0      )
                  (     0          1          0      )
                  (     0          0          1      )

 cart.    s( 1) = (  1.0000000  0.0000000 -0.0000000 )
                  (  0.0000000  1.0000000  0.0000000 )
                  (  0.0000000  0.0000000  1.0000000 )

      isym =  2     180 deg rotation - cart. axis [0,0,1]

[...]

      isym =  3     inversion

[...]

      isym =  4     inv. 180 deg rotation - cart. axis [0,0,1]

 cryst.   s( 4) = (     1          0          0      )
                  (     0          1          0      )
                  (    -1         -1         -1      )

 cart.    s( 4) = (  1.0000000  0.0000000 -0.0000000 )
                  (  0.0000000  1.0000000 -0.0000000 )
                  (  0.0000000  0.0000000 -1.0000000 )

   Cartesian axes

     site n.     atom                  positions (alat units)
         1           Zn  tau(   1) = (   0.5000000   0.0000000   0.2739975  )
         2           Zn  tau(   2) = (   0.1997016   0.4583877   0.2739975  )
         3           Zn  tau(   3) = (   0.6997016   0.4583877   0.0000000  )
         4           Ni  tau(   4) = (   0.0000000   0.0000000   0.0000000  )

   Crystallographic axes

     site n.     atom                  positions (cryst. coord.)
         1           Zn  tau(   1) = (  0.7500000  0.2500000  0.5000000  )
         2           Zn  tau(   2) = (  0.2500000  0.7500000  0.5000000  )
         3           Zn  tau(   3) = (  0.5000000  0.5000000  0.0000000  )
         4           Ni  tau(   4) = (  0.0000000  0.0000000  0.0000000  )

     number of k points=     1  Methfessel-Paxton smearing, width (Ry)=  0.0010
                       cart. coord. in units 2pi/alat
        k(    1) = (   0.0000000   0.0000000   0.0000000), wk =   2.0000000

                       cryst. coord.
        k(    1) = (   0.0000000   0.0000000   0.0000000), wk =   2.0000000

     Check: negative core charge=   -0.000005

     Initial potential from superposition of free atoms

     starting charge      75.9996, renormalised to      78.0000
     Starting wfcs are   52 randomized atomic wfcs

     Self-consistent Calculation

     iteration #  1     ecut=    30.00 Ry     beta= 0.70
     Davidson diagonalization with overlap

     ethr =  1.00E-02,  avg # of iterations =  2.0

     total energy              =   -1713.36710178 Ry
     estimated scf accuracy    <      19.24224353 Ry

[...]

     total energy              =   -1726.26834819 Ry
     estimated scf accuracy    <       0.00000169 Ry

     iteration # 14     ecut=    30.00 Ry     beta= 0.70
     Davidson diagonalization with overlap

     ethr =  2.16E-09,  avg # of iterations =  2.0

     End of self-consistent calculation

          k = 0.0000 0.0000 0.0000 (   497 PWs)   bands (ev):

  -111.6869-111.6589-110.6897 -87.1260 -65.7731 -65.7517 -65.7189 -65.6435
   -65.5602 -65.1820 -64.7862 -64.6698 -64.3578 -47.4544 -47.4261 -47.2427
     4.8732   6.8212   6.9566   7.1358   7.3062   7.3261   7.8075   7.9233
     7.9458   8.1435   8.3336   8.4188   8.4657   8.4892   8.6744   8.7246
    13.7784  14.1160  14.2136  14.2808  14.3500  15.0600  18.4117  19.0257
    19.0543  19.4951  19.5269  20.2950  21.0077  22.2008  22.5024

     occupation numbers
     1.0000   1.0000   1.0000   1.0000   1.0000   1.0000   1.0000   1.0000
     1.0000   1.0000   1.0000   1.0000   1.0000   1.0000   1.0000   1.0000
     1.0000   1.0000   1.0000   1.0000   1.0000   1.0000   1.0000   1.0000
     1.0000   1.0000   1.0000   1.0000   1.0000   1.0000   1.0000   1.0000
     1.0000   1.0000   1.0000   1.0000   1.0000   1.0000   1.0000  -0.0000
    -0.0000  -0.0000  -0.0000  -0.0000  -0.0000  -0.0000  -0.0000

     the Fermi energy is    18.9611 ev

!    total energy              =   -1726.26834836 Ry
     estimated scf accuracy    <       0.00000007 Ry
     smearing contrib. (-TS)   =       0.00000000 Ry
     internal energy E=F+TS    =   -1726.26834836 Ry

     The total energy is F=E-TS. E is the sum of the following terms:
     one-electron contribution =   -1233.34486034 Ry
     hartree contribution      =     653.83736150 Ry
     xc contribution           =    -162.12049465 Ry
     ewald contribution        =    -984.64035488 Ry

     convergence has been achieved in  14 iterations

     Forces acting on atoms (cartesian axes, Ry/au):

     atom    1 type  1   force =     0.00000000    0.00000000    0.00585815
     atom    2 type  1   force =     0.00000000    0.00000000   -0.00585815
     atom    3 type  1   force =     0.00000000    0.00000000   -0.00000000
     atom    4 type  2   force =     0.00000000    0.00000000    0.00000000
     The non-local contrib.  to forces
     atom    1 type  1   force =     0.00000000    0.00000000    0.00289344
     atom    2 type  1   force =     0.00000000    0.00000000   -0.00289344
     atom    3 type  1   force =     0.00000000    0.00000000    0.00000000
     atom    4 type  2   force =     0.00000000    0.00000000    0.00000000
     The ionic contribution  to forces
     atom    1 type  1   force =     0.00000000   -0.00000000   -0.00000000
     atom    2 type  1   force =    -0.00000000    0.00000000   -0.00000000
     atom    3 type  1   force =    -0.00000000    0.00000000    0.00000000
     atom    4 type  2   force =     0.00000000   -0.00000000    0.00000000
     The local contribution  to forces
     atom    1 type  1   force =    -0.00314569   -0.00010107    0.00272913
     atom    2 type  1   force =     0.00314465    0.00010174   -0.00272741
     atom    3 type  1   force =    -0.00001971    0.00003075    0.00000522
     atom    4 type  2   force =     0.00001476   -0.00002185   -0.00000314
     The core correction contribution to forces
     atom    1 type  1   force =     0.00000000    0.00000000    0.00000000
     atom    2 type  1   force =     0.00000000    0.00000000    0.00000000
     atom    3 type  1   force =     0.00000000    0.00000000    0.00000000
     atom    4 type  2   force =     0.00000002   -0.00000004    0.00000002
     The Hubbard contrib.    to forces
     atom    1 type  1   force =     0.00000000    0.00000000    0.00000000
     atom    2 type  1   force =     0.00000000    0.00000000    0.00000000
     atom    3 type  1   force =     0.00000000    0.00000000    0.00000000
     atom    4 type  2   force =     0.00000000    0.00000000    0.00000000
     The SCF correction term to forces
     atom    1 type  1   force =     0.00006217   -0.00009072    0.00023528
     atom    2 type  1   force =    -0.00005974    0.00008955   -0.00023759
     atom    3 type  1   force =     0.00002453   -0.00003786   -0.00000517
     atom    4 type  2   force =    -0.00001718    0.00002510    0.00000410

     Total force =     0.008285     Total SCF correction =     0.000372

     Computing stress (Cartesian axis) and pressure

          total   stress  (Ry/bohr**3)                   (kbar)     P=    -1465.90
  -0.00037430   0.00704405  -0.00000000          -55.06     1036.22       -0.00
   0.00704405  -0.01018555  -0.00000000         1036.22    -1498.35       -0.00
  -0.00000000  -0.00000000  -0.01933503           -0.00       -0.00    -2844.28

     kinetic stress (kbar)  48105.94   1145.53     -0.00
                             1145.53  47112.97     -0.00
                               -0.00     -0.00  46296.61

     local   stress (kbar)  18866.41   1401.19    -35.64
                             1401.19  17500.07    178.35
                              -35.64    178.35  16431.00

     nonloc. stress (kbar)   1321.69    140.15     -0.00
                              140.15    703.01     -0.00
                               -0.00     -0.00     81.65

     hartree stress (kbar)  89580.87   -441.87     19.22
                             -441.87  90058.71    -87.68
                               19.22    -87.68  90424.72

     exc-cor stress (kbar) -20649.18      6.38      0.50
                                6.38 -20651.84     -1.74
                                0.50     -1.74 -20653.50

     corecor stress (kbar)   -742.01      0.75      0.04
                                0.75   -741.94     -0.02
                                0.04     -0.02   -742.02

     ewald   stress (kbar)-136538.79  -1215.93     -0.00
                            -1215.93-135479.32     -0.00
                               -0.00     -0.00-134682.75

     hubbard stress (kbar)      0.00      0.00      0.00
                                0.00      0.00      0.00
                                0.00      0.00      0.00

     DFT-D   stress (kbar)      0.00      0.00      0.00
                                0.00      0.00      0.00
                                0.00      0.00      0.00

     XDM     stress (kbar)      0.00      0.00      0.00
                                0.00      0.00      0.00
                                0.00      0.00      0.00

     dft-nl  stress (kbar)      0.00      0.00      0.00
                                0.00      0.00      0.00
                                0.00      0.00      0.00

     TS-vdW  stress (kbar)      0.00      0.00      0.00
                                0.00      0.00      0.00
                                0.00      0.00      0.00

[...]

                                0.00      0.00      0.00

     Writing all to output data dir new_calculations/myprefix.save/

     General routines

     Parallel routines

   This run was terminated on:  20:58:55  20May2023

   JOB DONE.