     Program PWSCF v.7.0 starts on 21May2023 at 20: 6:32

     Reading input from espresso_23893.pwi
Warning: card &CELL ignored
Warning: card / ignored

     Current dimensions of program PWSCF are:
     Max number of different atomic species (ntypx) = 10
     Max number of k-points (npk) =  40000
     Max angular momentum in pseudopotentials (lmaxx) =  4
     file O.pbe-n-kjpaw_psl.0.1.UPF: wavefunction(s)  2P renormalized

     gamma-point specific algorithms are used

     Subspace diagonalization in iterative solution of the eigenvalue problem:
     a serial algorithm will be used

     Using Slab Decomposition

     bravais-lattice index     =            0
     lattice parameter (alat)  =      11.7975  a.u.
     unit-cell volume          =     971.1461 (a.u.)^3
     number of atoms/cell      =           12
     number of atomic types    =            3
     number of electrons       =       106.00
     number of Kohn-Sham states=           64
     kinetic-energy cutoff     =      30.0000  Ry
     charge density cutoff     =     240.0000  Ry
     scf convergence threshold =      1.0E-06
     mixing beta               =       0.7000
     number of iterations used =            8  plain     mixing
     Exchange-correlation= SLA  PW   PBX  PBC
                           (   1   4   3   4   0   0   0)

     celldm(1)=  11.797517  celldm(2)=   0.000000  celldm(3)=   0.000000
     celldm(4)=   0.000000  celldm(5)=   0.000000  celldm(6)=   0.000000

     crystal axes: (cart. coord. in units of alat)
               a(1) = (   1.000000   0.000000   0.000000 )
               a(2) = (  -0.819427   0.573183   0.000000 )
               a(3) = (  -0.291278   0.091763   1.031856 )

     reciprocal axes: (cart. coord. in units 2 pi/alat)
               b(1) = (  1.000000  1.429608  0.155151 )
               b(2) = (  0.000000  1.744643 -0.155151 )
               b(3) = (  0.000000  0.000000  0.969127 )

     PseudoPot. # 1 for V  read from file:
     /home/pragov/projects/rrg-bengioy-ad/pragov/crystal_structure_design/SSSP/v_pbe_v1.4.uspp.F.UPF
     MD5 check sum: 22b79981416ebb76fdaf5b1b8640f6fb
     Pseudo is Ultrasoft + core correction, Zval = 13.0
     Generated by new atomic code, or converted to UPF format
     Using radial grid of  853 points,  6 beta functions with:
                l(1) =   0
                l(2) =   0
                l(3) =   1
                l(4) =   1
                l(5) =   2
                l(6) =   2
     Q(r) pseudized with  8 coefficients,  rinner =    1.100   1.100   1.100
                                                       1.100   1.100

     PseudoPot. # 2 for Cu read from file:
     /home/pragov/projects/rrg-bengioy-ad/pragov/crystal_structure_design/SSSP/Cu_pbe_v1.2.uspp.F.UPF
     MD5 check sum: 6e991ff952a84172a2a52a1c1e996048
     Pseudo is Ultrasoft + core correction, Zval = 19.0
     Generated by new atomic code, or converted to UPF format
     Using radial grid of  867 points,  6 beta functions with:
                l(1) =   0
                l(2) =   0
                l(3) =   1
                l(4) =   1
                l(5) =   2
                l(6) =   2
     Q(r) pseudized with  8 coefficients,  rinner =    1.150   1.150   1.150
                                                       1.150   1.150

     PseudoPot. # 3 for O  read from file:
     /home/pragov/projects/rrg-bengioy-ad/pragov/crystal_structure_design/SSSP/O.pbe-n-kjpaw_psl.0.1.UPF
     MD5 check sum: 0234752ac141de4415c5fc33072bef88
     Pseudo is Projector augmented-wave + core cor, Zval =  6.0
     Generated using "atomic" code by A. Dal Corso  v.5.0.99 svn rev. 10869
     Shape of augmentation charge: BESSEL
     Using radial grid of 1095 points,  4 beta functions with:
                l(1) =   0
                l(2) =   0
                l(3) =   1
                l(4) =   1
     Q(r) pseudized with 0 coefficients

     atomic species   valence    mass     pseudopotential
        V             13.00    50.94150     V ( 1.00)
        Cu            19.00    63.54600     Cu( 1.00)
        O              6.00    15.99900     O ( 1.00)

     No symmetry found

                                    s                        frac. trans.

      isym =  1     identity

 cryst.   s( 1) = (     1          0          0      )
                  (     0          1          0      )
                  (     0          0          1      )

 cart.    s( 1) = (  1.0000000  0.0000000 -0.0000000 )
                  (  0.0000000  1.0000000 -0.0000000 )
                  (  0.0000000  0.0000000  1.0000000 )

   Cartesian axes

     site n.     atom                  positions (alat units)
         1           V   tau(   1) = (  -0.1752216   0.3702359   0.2700306  )
         2           V   tau(   2) = (   0.0731188   0.2920001   0.7504681  )
         3           V   tau(   3) = (  -0.4702824   0.4631904   0.7107974  )
         4           Cu  tau(   4) = (   0.3698859   0.1985080   0.3077749  )
         5           O   tau(   5) = (  -0.7786739   0.5603446   0.7052883  )
         6           O   tau(   6) = (  -0.4777071   0.4655295   0.3812008  )
         7           O   tau(   7) = (  -0.4541133   0.4580967   1.0282377  )
         8           O   tau(   8) = (  -0.1983001   0.3775065   0.6762384  )
         9           O   tau(   9) = (   0.0721636   0.2923010   0.3630772  )
        10           O   tau(  10) = (   0.0427151   0.3015783   1.0101482  )
        11           O   tau(  11) = (   0.3703620   0.1983580   0.7117322  )
        12           O   tau(  12) = (   0.6705386   0.1037919   0.3080019  )

   Crystallographic axes

     site n.     atom                  positions (cryst. coord.)
         1           V   tau(   1) = (  0.3959660  0.6040340  0.2616940  )
         2           V   tau(   2) = (  0.6070000  0.3930000  0.7272990  )
         3           V   tau(   3) = (  0.3021790  0.6978210  0.6888530  )
         4           Cu  tau(   4) = (  0.7014260  0.2985740  0.2982730  )
         5           O   tau(   5) = (  0.1318250  0.8681750  0.6835140  )
         6           O   tau(   6) = (  0.2469610  0.7530390  0.3694320  )
         7           O   tau(   7) = (  0.3603170  0.6396830  0.9964930  )
         8           O   tau(   8) = (  0.4463050  0.5536950  0.6553610  )
         9           O   tau(   9) = (  0.5463710  0.4536290  0.3518680  )
        10           O   tau(  10) = (  0.6305790  0.3694210  0.9789620  )
        11           O   tau(  11) = (  0.7643620  0.2356380  0.6897590  )
        12           O   tau(  12) = (  0.8667070  0.1332930  0.2984930  )

     number of k points=     1  Methfessel-Paxton smearing, width (Ry)=  0.0010
                       cart. coord. in units 2pi/alat
        k(    1) = (   0.0000000   0.0000000   0.0000000), wk =   2.0000000

                       cryst. coord.
        k(    1) = (   0.0000000   0.0000000   0.0000000), wk =   2.0000000

     Check: negative core charge=   -0.000017

     Initial potential from superposition of free atoms

     starting charge     104.9963, renormalised to     106.0000

     negative rho (up, down):  1.604E-03 0.000E+00
     Starting wfcs are   75 randomized atomic wfcs
     Checking if some PAW data can be deallocated...

     Self-consistent Calculation

     iteration #  1     ecut=    30.00 Ry     beta= 0.70
     Davidson diagonalization with overlap

     ethr =  1.00E-02,  avg # of iterations =  2.0

     negative rho (up, down):  1.007E-02 0.000E+00

     total energy              =   -1165.04833669 Ry
     estimated scf accuracy    <      10.88305133 Ry

[...]

     total energy              =   -1171.93971224 Ry
     estimated scf accuracy    <       0.00004383 Ry

     iteration # 31     ecut=    30.00 Ry     beta= 0.70
     Davidson diagonalization with overlap

     ethr =  4.95E-09,  avg # of iterations =  1.0

[...]

     End of self-consistent calculation

          k = 0.0000 0.0000 0.0000 (  1351 PWs)   bands (ev):

  -104.2789 -61.8272 -61.6820 -61.4827 -58.6786 -58.5342 -58.0359 -32.6186
   -32.5294 -32.4535 -32.3702 -32.3124 -32.2862 -32.0221 -31.8402 -31.7932
   -11.9917 -11.1063 -11.0418 -10.7742 -10.6834 -10.4567 -10.2930  -9.9551
     1.2053   1.3648   1.6194   1.6252   1.8232   2.0208   2.1713   2.4176
     2.7275   2.8334   3.4531   3.5013   3.6526   3.8990   4.0300   4.1998
     4.3725   4.4612   4.6758   4.8654   4.9402   5.2309   5.3563   5.6520
     6.1205   6.4681   6.7263   7.1486   7.3261   7.3425   7.7028   8.1567
     8.8096   8.8491   8.9166   9.3002   9.4519   9.6072   9.7338  10.1971

     occupation numbers
     1.0000   1.0000   1.0000   1.0000   1.0000   1.0000   1.0000   1.0000
     1.0000   1.0000   1.0000   1.0000   1.0000   1.0000   1.0000   1.0000
     1.0000   1.0000   1.0000   1.0000   1.0000   1.0000   1.0000   1.0000
     1.0000   1.0000   1.0000   1.0000   1.0000   1.0000   1.0000   1.0000
     1.0000   1.0000   1.0000   1.0000   1.0000   1.0000   1.0000   1.0000
     1.0000   1.0000   1.0000   1.0000   1.0000   1.0000   1.0000   1.0000
     1.0000   1.0000   1.0000   1.0000   0.9202   0.0798  -0.0000  -0.0000
    -0.0000  -0.0000  -0.0000  -0.0000  -0.0000  -0.0000  -0.0000  -0.0000

     the Fermi energy is     7.3343 ev

!    total energy              =   -1171.93971216 Ry
     estimated scf accuracy    <       0.00000065 Ry
     smearing contrib. (-TS)   =      -0.00010973 Ry
     internal energy E=F+TS    =   -1171.93960243 Ry

     The total energy is F=E-TS. E is the sum of the following terms:
     one-electron contribution =    -795.46941753 Ry
     hartree contribution      =     441.10918353 Ry
     xc contribution           =    -156.31723453 Ry
     ewald contribution        =    -585.06292555 Ry
     one-center paw contrib.   =     -76.19920835 Ry
      -> PAW hartree energy AE =     235.58631136 Ry
      -> PAW hartree energy PS =    -234.75779943 Ry
      -> PAW xc energy AE      =    -137.15912527 Ry
      -> PAW xc energy PS      =      60.13140499 Ry
      -> total E_H with PAW    =     441.93769546 Ry
      -> total E_XC with PAW   =    -233.34495481 Ry

     convergence has been achieved in  31 iterations

     negative rho (up, down):  4.190E-03 0.000E+00

     Forces acting on atoms (cartesian axes, Ry/au):

     atom    1 type  1   force =     0.24980677   -0.07868371   -0.18102894
     atom    2 type  1   force =    -0.24537179    0.07730379    0.15803945
     atom    3 type  1   force =     0.23475586   -0.07406940   -0.03429076
     atom    4 type  2   force =    -0.06532199    0.02084122   -0.05313866
     atom    5 type  3   force =     0.15522350   -0.04890964   -0.09739488
     atom    6 type  3   force =     0.02901463   -0.00931188    0.12329083
     atom    7 type  3   force =    -0.01142337    0.00361085    0.00181572
     atom    8 type  3   force =     0.01662747   -0.00525394    0.02651900
     atom    9 type  3   force =    -0.09215789    0.02904778   -0.00115264
     atom   10 type  3   force =     0.03008271   -0.00948252   -0.07427276
     atom   11 type  3   force =    -0.17703373    0.05582386   -0.00372784
     atom   12 type  3   force =    -0.12420217    0.03908360    0.13534149
     The non-local contrib.  to forces
     atom    1 type  1   force =    -0.02706190    0.00856617    0.07665641
     atom    2 type  1   force =     0.01083940   -0.00340491    0.09417786
     atom    3 type  1   force =    -0.02729538    0.00856655   -0.02404548
     atom    4 type  2   force =    -0.25880052    0.08186777    0.12697452
     atom    5 type  3   force =    -0.29635042    0.09334858    0.72212896
     atom    6 type  3   force =     0.01433539   -0.00565362    0.23733771
     atom    7 type  3   force =    -0.01942620    0.00616339    0.28333471
     atom    8 type  3   force =    -0.04168118    0.01312612    0.27354576
     atom    9 type  3   force =    -0.30462703    0.09596921   -0.37093140
     atom   10 type  3   force =     0.16314453   -0.05142692   -0.76323495
     atom   11 type  3   force =     0.46035242   -0.14501473    0.00038623
     atom   12 type  3   force =     0.40460887   -0.12730296   -0.61980451
     The ionic contribution  to forces
     atom    1 type  1   force =     9.24427787   -2.91227491   -7.55146065
     atom    2 type  1   force =    -9.74342168    3.06952155    4.69393562
     atom    3 type  1   force =     7.72038708   -2.43219687   15.18151194
     atom    4 type  2   force =   -13.50300798    4.25392750  -19.07114983
     atom    5 type  3   force =    -7.85336263    2.47408350    1.48947633
     atom    6 type  3   force =    -2.66944022    0.84096347   -2.92654971
     atom    7 type  3   force =     5.15677226   -1.62456526   -4.26044057
     atom    8 type  3   force =     2.23936165   -0.70547788    4.78666516
     atom    9 type  3   force =    -1.04888765    0.33043688   -2.50083969
     atom   10 type  3   force =    -6.43120770    2.02605675    3.90734051
     atom   11 type  3   force =     5.83670684   -1.83876498    7.87849576
     atom   12 type  3   force =    11.05182216   -3.48170976   -1.62698487
     The local contribution  to forces
     atom    1 type  1   force =    -8.96939431    2.82570409    7.30068269
     atom    2 type  1   force =     9.49895395   -2.99244293   -4.61870217
     atom    3 type  1   force =    -7.47155993    2.35362252  -15.19606031
     atom    4 type  2   force =    13.69680658   -4.31513082   18.89128500
     atom    5 type  3   force =     8.30014279   -2.61486743   -2.30022912
     atom    6 type  3   force =     2.68371331   -0.84421837    2.81536033
     atom    7 type  3   force =    -5.14862599    1.62195029    3.97984316
     atom    8 type  3   force =    -2.18208709    0.68748211   -5.03114856
     atom    9 type  3   force =     1.26013831   -0.39690819    2.86663004
     atom   10 type  3   force =     6.29923222   -1.98438972   -3.22253626
     atom   11 type  3   force =    -6.46621868    2.03724552   -7.88249919
     atom   12 type  3   force =   -11.57469191    3.64613967    2.37460213
     The core correction contribution to forces
     atom    1 type  1   force =     0.00167959   -0.00053408   -0.00686680
     atom    2 type  1   force =    -0.01190971    0.00375185   -0.01127288
     atom    3 type  1   force =     0.01386327   -0.00437287    0.00451477
     atom    4 type  2   force =     0.00042420   -0.00013562   -0.00023050
     atom    5 type  3   force =     0.00508792   -0.00160269   -0.00872718
     atom    6 type  3   force =     0.00093173   -0.00027692   -0.00232820
     atom    7 type  3   force =    -0.00017368    0.00005417   -0.00103539
     atom    8 type  3   force =     0.00011266   -0.00003549   -0.00264283
     atom    9 type  3   force =     0.00064041   -0.00020168    0.00379124
     atom   10 type  3   force =    -0.00113764    0.00035886    0.00445076
     atom   11 type  3   force =    -0.00724924    0.00228381    0.00002345
     atom   12 type  3   force =    -0.00586587    0.00184535    0.00761137
     The Hubbard contrib.    to forces
     atom    1 type  1   force =     0.00000000    0.00000000    0.00000000
     atom    2 type  1   force =     0.00000000    0.00000000    0.00000000
     atom    3 type  1   force =     0.00000000    0.00000000    0.00000000
     atom    4 type  2   force =     0.00000000    0.00000000    0.00000000
     atom    5 type  3   force =     0.00000000    0.00000000    0.00000000
     atom    6 type  3   force =     0.00000000    0.00000000    0.00000000
     atom    7 type  3   force =     0.00000000    0.00000000    0.00000000
     atom    8 type  3   force =     0.00000000    0.00000000    0.00000000
     atom    9 type  3   force =     0.00000000    0.00000000    0.00000000
     atom   10 type  3   force =     0.00000000    0.00000000    0.00000000
     atom   11 type  3   force =     0.00000000    0.00000000    0.00000000
     atom   12 type  3   force =     0.00000000    0.00000000    0.00000000
     The SCF correction term to forces
     atom    1 type  1   force =     0.00026701   -0.00012404   -0.00002331
     atom    2 type  1   force =     0.00012776   -0.00010083   -0.00008171
     atom    3 type  1   force =    -0.00067767    0.00033220   -0.00019441
     atom    4 type  2   force =    -0.00078276    0.00033332   -0.00000058
     atom    5 type  3   force =    -0.00033266    0.00014934   -0.00002660
     atom    6 type  3   force =    -0.00056408   -0.00010549   -0.00051203
     atom    7 type  3   force =    -0.00000826    0.00002918    0.00013108
     atom    8 type  3   force =     0.00088294   -0.00032786    0.00011676
     atom    9 type  3   force =     0.00053958   -0.00022750    0.00021443
     atom   10 type  3   force =     0.00001281   -0.00006054   -0.00027555
     atom   11 type  3   force =    -0.00066356    0.00009518   -0.00011683
     atom   12 type  3   force =    -0.00011391    0.00013223   -0.00006536

     Total force =     0.632985     Total SCF correction =     0.002015

     Computing stress (Cartesian axis) and pressure

     negative rho (up, down):  4.190E-03 0.000E+00
          total   stress  (Ry/bohr**3)                   (kbar)     P=     -521.32
  -0.00335600   0.00012485  -0.00013034         -493.69       18.37      -19.17
   0.00012485  -0.00299719   0.00004114           18.37     -440.90        6.05
  -0.00013034   0.00004114  -0.00427844          -19.17        6.05     -629.38

     kinetic stress (kbar)  28959.16    -47.35     -8.87
                              -47.35  28823.28      2.63
                               -8.87      2.63  29341.62

     local   stress (kbar) -23894.11   -614.38   7197.62
                             -614.38 -25649.74  -2266.88
                             7197.62  -2266.88 -10958.77

     nonloc. stress (kbar)   5254.77     55.44    -30.96
                               55.44   5413.25      9.55
                              -30.96      9.55   5241.78

     hartree stress (kbar)  23519.92    568.63  -3275.44
                              568.63  25145.54   1031.64
                            -3275.44   1031.64  18151.88

     exc-cor stress (kbar)  -5683.23     -3.90     -0.79
                               -3.90  -5694.38      0.25
                               -0.79      0.25  -5685.15

     corecor stress (kbar)  -1740.59     -0.73      0.40
                               -0.73  -1742.67     -0.13
                                0.40     -0.13  -1743.69

     ewald   stress (kbar) -26909.61     60.66  -3901.13
                               60.66 -26736.18   1228.99
                            -3901.13   1228.99 -34977.05

     hubbard stress (kbar)      0.00      0.00      0.00
                                0.00      0.00      0.00
                                0.00      0.00      0.00

     DFT-D   stress (kbar)      0.00      0.00      0.00
                                0.00      0.00      0.00
                                0.00      0.00      0.00

     XDM     stress (kbar)      0.00      0.00      0.00
                                0.00      0.00      0.00
                                0.00      0.00      0.00

     dft-nl  stress (kbar)      0.00      0.00      0.00
                                0.00      0.00      0.00
                                0.00      0.00      0.00

     TS-vdW  stress (kbar)      0.00      0.00      0.00
                                0.00      0.00      0.00
                                0.00      0.00      0.00

[...]

                                0.00      0.00      0.00

     Writing all to output data dir new_calculations/myprefix.save/

     General routines

     Parallel routines

     PAW routines

   This run was terminated on:  20: 7:12  21May2023

   JOB DONE.