     Program PWSCF v.7.0 starts on 21May2023 at 19: 0:52

     Reading input from espresso_20792.pwi
Warning: card &CELL ignored
Warning: card / ignored

     Current dimensions of program PWSCF are:
     Max number of different atomic species (ntypx) = 10
     Max number of k-points (npk) =  40000
     Max angular momentum in pseudopotentials (lmaxx) =  4

     gamma-point specific algorithms are used
     Message from routine setup:
     using ibrav=0 with symmetry is DISCOURAGED, use correct ibrav instead

     Subspace diagonalization in iterative solution of the eigenvalue problem:
     a serial algorithm will be used

     Using Slab Decomposition

     bravais-lattice index     =            0
     lattice parameter (alat)  =      10.1597  a.u.
     unit-cell volume          =     286.5093 (a.u.)^3
     number of atoms/cell      =            6
     number of atomic types    =            3
     number of electrons       =        30.00
     number of Kohn-Sham states=           19
     kinetic-energy cutoff     =      30.0000  Ry
     charge density cutoff     =     240.0000  Ry
     scf convergence threshold =      1.0E-06
     mixing beta               =       0.7000
     number of iterations used =            8  plain     mixing
     Exchange-correlation= PBE
                           (   1   4   3   4   0   0   0)

     celldm(1)=  10.159748  celldm(2)=   0.000000  celldm(3)=   0.000000
     celldm(4)=   0.000000  celldm(5)=   0.000000  celldm(6)=   0.000000

     crystal axes: (cart. coord. in units of alat)
               a(1) = (   1.000000   0.000000   0.000000 )
               a(2) = (   0.832654   0.553794   0.000000 )
               a(3) = (   0.832654   0.251613   0.493335 )

     reciprocal axes: (cart. coord. in units 2 pi/alat)
               b(1) = (  1.000000 -1.503543 -0.920964 )
               b(2) = (  0.000000  1.805725 -0.920964 )
               b(3) = (  0.000000  0.000000  2.027022 )

     PseudoPot. # 1 for Ta read from file:
     /home/pragov/projects/rrg-bengioy-ad/pragov/crystal_structure_design/SSSP/Ta_pbe_v1.uspp.F.UPF
     MD5 check sum: f8bbe9446314a3b8ea5d9f3e3836c939
     Pseudo is Ultrasoft + core correction, Zval = 13.0
     Generated by new atomic code, or converted to UPF format
     Using radial grid of  921 points,  7 beta functions with:
                l(1) =   0
                l(2) =   0
                l(3) =   1
                l(4) =   1
                l(5) =   2
                l(6) =   2
                l(7) =   3
     Q(r) pseudized with  6 coefficients,  rinner =    1.300   1.300   1.300
                                                       1.300   1.300   1.300
                                                       1.300

     PseudoPot. # 2 for V  read from file:
     /home/pragov/projects/rrg-bengioy-ad/pragov/crystal_structure_design/SSSP/v_pbe_v1.4.uspp.F.UPF
     MD5 check sum: 22b79981416ebb76fdaf5b1b8640f6fb
     Pseudo is Ultrasoft + core correction, Zval = 13.0
     Generated by new atomic code, or converted to UPF format
     Using radial grid of  853 points,  6 beta functions with:
                l(1) =   0
                l(2) =   0
                l(3) =   1
                l(4) =   1
                l(5) =   2
                l(6) =   2
     Q(r) pseudized with  8 coefficients,  rinner =    1.100   1.100   1.100
                                                       1.100   1.100

     PseudoPot. # 3 for H  read from file:
     /home/pragov/projects/rrg-bengioy-ad/pragov/crystal_structure_design/SSSP/H.pbe-rrkjus_psl.1.0.0.UPF
     MD5 check sum: f52b6d4d1c606e5624b1dc7b2218f220
     Pseudo is Ultrasoft, Zval =  1.0
     Generated using "atomic" code by A. Dal Corso  v.5.1
     Using radial grid of  929 points,  2 beta functions with:
                l(1) =   0
                l(2) =   0
     Q(r) pseudized with 0 coefficients

     atomic species   valence    mass     pseudopotential
        Ta            13.00   180.94788     Ta( 1.00)
        V             13.00    50.94150     V ( 1.00)
        H              1.00     1.00800     H ( 1.00)

      2 Sym. Ops., with inversion, found

                                    s                        frac. trans.

      isym =  1     identity

 cryst.   s( 1) = (     1          0          0      )
                  (     0          1          0      )
                  (     0          0          1      )

 cart.    s( 1) = (  1.0000000 -0.0000000 -0.0000000 )
                  (  0.0000000  1.0000000  0.0000000 )
                  (  0.0000000  0.0000000  1.0000000 )

      isym =  2     inversion

 cryst.   s( 2) = (    -1          0          0      )
                  (     0         -1          0      )
                  (     0          0         -1      )

 cart.    s( 2) = ( -1.0000000  0.0000000  0.0000000 )
                  (  0.0000000 -1.0000000 -0.0000000 )
                  (  0.0000000  0.0000000 -1.0000000 )

   Cartesian axes

     site n.     atom                  positions (alat units)
         1           Ta  tau(   1) = (   0.0000000   0.0000000   0.0000000  )
         2           V   tau(   2) = (   1.3326536   0.4027034   0.2466673  )
         3           H   tau(   3) = (   1.6506434   0.4987941   0.3055255  )
         4           H   tau(   4) = (   0.3459569   0.1045418   0.0640348  )
         5           H   tau(   5) = (   2.3193503   0.7008650   0.4292997  )
         6           H   tau(   6) = (   1.0146638   0.3066127   0.1878090  )

   Crystallographic axes

     site n.     atom                  positions (cryst. coord.)
         1           Ta  tau(   1) = (  0.0000000  0.0000000  0.0000000  )
         2           V   tau(   2) = (  0.5000000  0.5000000  0.5000000  )
         3           H   tau(   3) = (  0.6193070  0.6193070  0.6193070  )
         4           H   tau(   4) = (  0.1298000  0.1298000  0.1298000  )
         5           H   tau(   5) = (  0.8702000  0.8702000  0.8702000  )
         6           H   tau(   6) = (  0.3806930  0.3806930  0.3806930  )

     number of k points=     1  Methfessel-Paxton smearing, width (Ry)=  0.0010
                       cart. coord. in units 2pi/alat
        k(    1) = (   0.0000000   0.0000000   0.0000000), wk =   2.0000000

                       cryst. coord.
        k(    1) = (   0.0000000   0.0000000   0.0000000), wk =   2.0000000

     Check: negative core charge=   -0.000004

     Initial potential from superposition of free atoms

     starting charge      29.9976, renormalised to      30.0000

     negative rho (up, down):  9.421E-02 0.000E+00
     Starting wfcs are   27 randomized atomic wfcs

     Self-consistent Calculation

     iteration #  1     ecut=    30.00 Ry     beta= 0.70
     Davidson diagonalization with overlap

     ethr =  1.00E-02,  avg # of iterations =  2.0

     negative rho (up, down):  9.384E-02 0.000E+00

     total energy              =    -290.41798351 Ry
     estimated scf accuracy    <       1.26450063 Ry

[...]

     ethr =  4.42E-04,  avg # of iterations =  1.0
     Minimization algorithm failed to find Fermi energy: reverting to bisection
     Possible cause: smearing is larger than the electronic band-gap.

[...]

     total energy              =    -291.14288599 Ry
     estimated scf accuracy    <       0.00045406 Ry

     iteration # 30     ecut=    30.00 Ry     beta= 0.70
     Davidson diagonalization with overlap

     ethr =  2.66E-07,  avg # of iterations =  1.0

[...]

     End of self-consistent calculation

          k = 0.0000 0.0000 0.0000 (   402 PWs)   bands (ev):

   -51.8942 -48.1291 -22.0445 -22.0247 -22.0246 -18.8464 -18.2003 -18.2002
     3.2086   6.6487   9.4034  14.6283  14.6800  14.6801  14.8364  14.8389
    14.8389  17.0610  17.0612

     occupation numbers
     1.0000   1.0000   1.0000   1.0000   1.0000   1.0000   1.0000   1.0000
     1.0000   1.0000   1.0000   1.0000   1.0000   1.0000   0.4318   0.2848
     0.2835  -0.0000  -0.0000

     the Fermi energy is    14.8353 ev

!    total energy              =    -291.14288692 Ry
     estimated scf accuracy    <       0.00000086 Ry
     smearing contrib. (-TS)   =      -0.00072852 Ry
     internal energy E=F+TS    =    -291.14215839 Ry

     The total energy is F=E-TS. E is the sum of the following terms:
     one-electron contribution =     -80.03497520 Ry
     hartree contribution      =      53.48976129 Ry
     xc contribution           =     -65.29502409 Ry
     ewald contribution        =    -199.30192039 Ry

     convergence has been achieved in  30 iterations

     negative rho (up, down):  9.500E-02 0.000E+00

     Forces acting on atoms (cartesian axes, Ry/au):

     atom    1 type  1   force =     0.00000000    0.00000000    0.00000000
     atom    2 type  2   force =     0.00000000    0.00000000    0.00000000
     atom    3 type  3   force =    -0.00965748   -0.00292660   -0.00180197
     atom    4 type  3   force =    -0.00887714   -0.00269338   -0.00166713
     atom    5 type  3   force =     0.00887714    0.00269338    0.00166713
     atom    6 type  3   force =     0.00965748    0.00292660    0.00180197
     The non-local contrib.  to forces
     atom    1 type  1   force =     0.00000000    0.00000000    0.00000000
     atom    2 type  2   force =     0.00000000    0.00000000    0.00000000
     atom    3 type  3   force =    -0.00278256   -0.00084045   -0.00051475
     atom    4 type  3   force =    -0.00496577   -0.00150016   -0.00091809
     atom    5 type  3   force =     0.00496577    0.00150016    0.00091809
     atom    6 type  3   force =     0.00278256    0.00084045    0.00051475
     The ionic contribution  to forces
     atom    1 type  1   force =     0.00000000    0.00000000    0.00000000
     atom    2 type  2   force =    -0.00000000   -0.00000000   -0.00000000
     atom    3 type  3   force =     0.18761944    0.05669514    0.03472830
     atom    4 type  3   force =    -0.10036459   -0.03032833   -0.01857588
     atom    5 type  3   force =     0.10036459    0.03032833    0.01857588
     atom    6 type  3   force =    -0.18761944   -0.05669514   -0.03472830
     The local contribution  to forces
     atom    1 type  1   force =     0.00000458   -0.00004788   -0.00003025
     atom    2 type  2   force =    -0.00002609    0.00007891    0.00009375
     atom    3 type  3   force =    -0.19442340   -0.05874642   -0.03599807
     atom    4 type  3   force =     0.09635858    0.02907830    0.01776336
     atom    5 type  3   force =    -0.09633713   -0.02911785   -0.01780963
     atom    6 type  3   force =     0.19440726    0.05877750    0.03602074
     The core correction contribution to forces
     atom    1 type  1   force =    -0.00000029   -0.00000056   -0.00000069
     atom    2 type  2   force =     0.00000004   -0.00000001    0.00000021
     atom    3 type  3   force =     0.00000000    0.00000000    0.00000000
     atom    4 type  3   force =     0.00000000    0.00000000    0.00000000
     atom    5 type  3   force =     0.00000000    0.00000000    0.00000000
     atom    6 type  3   force =     0.00000000    0.00000000    0.00000000
     The Hubbard contrib.    to forces
     atom    1 type  1   force =     0.00000000    0.00000000    0.00000000
     atom    2 type  2   force =     0.00000000    0.00000000    0.00000000
     atom    3 type  3   force =     0.00000000    0.00000000    0.00000000
     atom    4 type  3   force =     0.00000000    0.00000000    0.00000000
     atom    5 type  3   force =     0.00000000    0.00000000    0.00000000
     atom    6 type  3   force =     0.00000000    0.00000000    0.00000000
     The SCF correction term to forces
     atom    1 type  1   force =     0.00000130    0.00003453    0.00002072
     atom    2 type  2   force =     0.00001483   -0.00006310   -0.00008077
     atom    3 type  3   force =    -0.00007726   -0.00002177   -0.00000766
     atom    4 type  3   force =     0.00010336    0.00003938    0.00004343
     atom    5 type  3   force =    -0.00010735   -0.00003469   -0.00003726
     atom    6 type  3   force =     0.00008079    0.00001690    0.00000457

     Total force =     0.019693     Total SCF correction =     0.000232

     Computing stress (Cartesian axis) and pressure

     negative rho (up, down):  9.500E-02 0.000E+00
          total   stress  (Ry/bohr**3)                   (kbar)     P=      356.54
   0.00409281   0.00080580   0.00049494          602.07      118.54       72.81
   0.00080580   0.00166911   0.00015149          118.54      245.53       22.29
   0.00049494   0.00015149   0.00150928           72.81       22.29      222.02

     kinetic stress (kbar)  28382.36    -80.75    -49.56
                              -80.75  28624.57    -14.76
                              -49.56    -14.76  28638.88

     local   stress (kbar)  14689.42     82.46     51.06
                               82.46  14442.21     15.62
                               51.06     15.62  14425.87

     nonloc. stress (kbar)  -9902.47    101.61     62.24
                              101.61 -10207.95     18.80
                               62.24     18.80 -10227.02

     hartree stress (kbar)   9024.54    -62.92    -38.78
                              -62.92   9213.43    -11.84
                              -38.78    -11.84   9225.77

     exc-cor stress (kbar)   8526.73     -4.41     -2.70
                               -4.41   8539.97     -0.82
                               -2.70     -0.82   8540.80

     corecor stress (kbar) -16189.13     -4.72     -2.89
                               -4.72 -16174.93     -0.87
                               -2.89     -0.87 -16174.03

     ewald   stress (kbar) -33929.36     87.27     53.45
                               87.27 -34191.78     16.15
                               53.45     16.15 -34208.25

     hubbard stress (kbar)      0.00      0.00      0.00
                                0.00      0.00      0.00
                                0.00      0.00      0.00

     DFT-D   stress (kbar)      0.00      0.00      0.00
                                0.00      0.00      0.00
                                0.00      0.00      0.00

     XDM     stress (kbar)      0.00      0.00      0.00
                                0.00      0.00      0.00
                                0.00      0.00      0.00

     dft-nl  stress (kbar)      0.00      0.00      0.00
                                0.00      0.00      0.00
                                0.00      0.00      0.00

     TS-vdW  stress (kbar)      0.00      0.00      0.00
                                0.00      0.00      0.00
                                0.00      0.00      0.00

[...]

                                0.00      0.00      0.00

     Writing all to output data dir new_calculations/myprefix.save/

     General routines

     Parallel routines

   This run was terminated on:  19: 1: 8  21May2023

   JOB DONE.