     Program PWSCF v.7.0 starts on 21May2023 at 12:28:45

     Reading input from espresso_22739.pwi
Warning: card &CELL ignored
Warning: card / ignored

     Current dimensions of program PWSCF are:
     Max number of different atomic species (ntypx) = 10
     Max number of k-points (npk) =  40000
     Max angular momentum in pseudopotentials (lmaxx) =  4

     gamma-point specific algorithms are used
     Message from routine setup:
     using ibrav=0 with symmetry is DISCOURAGED, use correct ibrav instead

     Subspace diagonalization in iterative solution of the eigenvalue problem:
     a serial algorithm will be used

     Using Slab Decomposition

     bravais-lattice index     =            0
     lattice parameter (alat)  =       6.8391  a.u.
     unit-cell volume          =     516.3660 (a.u.)^3
     number of atoms/cell      =            6
     number of atomic types    =            3
     number of electrons       =        80.00
     number of Kohn-Sham states=           48
     kinetic-energy cutoff     =      30.0000  Ry
     charge density cutoff     =     240.0000  Ry
     scf convergence threshold =      1.0E-06
     mixing beta               =       0.7000
     number of iterations used =            8  plain     mixing
     Exchange-correlation= PBE
                           (   1   4   3   4   0   0   0)

     celldm(1)=   6.839064  celldm(2)=   0.000000  celldm(3)=   0.000000
     celldm(4)=   0.000000  celldm(5)=   0.000000  celldm(6)=   0.000000

     crystal axes: (cart. coord. in units of alat)
               a(1) = (   1.000000   0.000000   0.000000 )
               a(2) = (   0.000000   1.000000   0.000000 )
               a(3) = (   0.000000   0.000000   1.614238 )

     reciprocal axes: (cart. coord. in units 2 pi/alat)
               b(1) = (  1.000000  0.000000  0.000000 )
               b(2) = (  0.000000  1.000000  0.000000 )
               b(3) = (  0.000000  0.000000  0.619487 )

     PseudoPot. # 1 for Co read from file:
     /home/pragov/projects/rrg-bengioy-ad/pragov/crystal_structure_design/SSSP/Co_pbe_v1.2.uspp.F.UPF
     MD5 check sum: 5f91765df6ddd3222702df6e7b74a16d
     Pseudo is Ultrasoft + core correction, Zval = 17.0
     Generated by new atomic code, or converted to UPF format
     Using radial grid of  863 points,  6 beta functions with:
                l(1) =   0
                l(2) =   0
                l(3) =   1
                l(4) =   1
                l(5) =   2
                l(6) =   2
     Q(r) pseudized with  8 coefficients,  rinner =    1.200   1.200   1.200
                                                       1.200   1.200

     PseudoPot. # 2 for P  read from file:
     /home/pragov/projects/rrg-bengioy-ad/pragov/crystal_structure_design/SSSP/P.pbe-n-rrkjus_psl.1.0.0.UPF
     MD5 check sum: 8b930f418f0a4573dca56cd030ffe088
     Pseudo is Ultrasoft + core correction, Zval =  5.0
     Generated using "atomic" code by A. Dal Corso  v.5.1
     Using radial grid of 1147 points,  6 beta functions with:
                l(1) =   0
                l(2) =   0
                l(3) =   1
                l(4) =   1
                l(5) =   2
                l(6) =   2
     Q(r) pseudized with 0 coefficients

     PseudoPot. # 3 for Pd read from file:
     /home/pragov/projects/rrg-bengioy-ad/pragov/crystal_structure_design/SSSP/Pd_ONCV_PBE-1.0.oncvpsp.upf
     MD5 check sum: eb77f42b51d86fb18e25f68156a31cf1
     Pseudo is Norm-conserving, Zval = 18.0
     Generated using ONCVPSP code by D. R. Hamann
     Using radial grid of 1410 points,  6 beta functions with:
                l(1) =   0
                l(2) =   0
                l(3) =   1
                l(4) =   1
                l(5) =   2
                l(6) =   2

     atomic species   valence    mass     pseudopotential
        Co            17.00    58.93319     Co( 1.00)
        P              5.00    30.97376     P ( 1.00)
        Pd            18.00   106.42000     Pd( 1.00)

     16 Sym. Ops., with inversion, found ( 8 have fractional translation)

                                    s                        frac. trans.

      isym =  1     identity

 cryst.   s( 1) = (     1          0          0      )
                  (     0          1          0      )
                  (     0          0          1      )

 cart.    s( 1) = (  1.0000000  0.0000000  0.0000000 )
                  (  0.0000000  1.0000000  0.0000000 )
                  (  0.0000000  0.0000000  1.0000000 )

      isym =  2     180 deg rotation - cart. axis [0,0,1]

[...]

 cryst.   s( 3) = (    -1          0          0      )    f =(  0.5000000 )
                  (     0          1          0      )       ( -0.5000000 )
                  (     0          0         -1      )       (  0.0000000 )

 cart.    s( 3) = ( -1.0000000  0.0000000  0.0000000 )    f =(  0.5000000 )
                  (  0.0000000  1.0000000  0.0000000 )       ( -0.5000000 )
                  (  0.0000000  0.0000000 -1.0000000 )       (  0.0000000 )

[...]

 cryst.   s( 6) = (     0         -1          0      )
                  (    -1          0          0      )
                  (     0          0         -1      )

 cart.    s( 6) = (  0.0000000 -1.0000000  0.0000000 )
                  ( -1.0000000  0.0000000  0.0000000 )
                  (  0.0000000  0.0000000 -1.0000000 )

[...]

      isym =  8      90 deg rotation - cart. axis [0,0,1]

[...]

      isym =  9     inversion

 cryst.   s( 9) = (    -1          0          0      )    f =(  0.5000000 )
                  (     0         -1          0      )       (  0.5000000 )
                  (     0          0         -1      )       (  0.0000000 )

 cart.    s( 9) = ( -1.0000000  0.0000000  0.0000000 )    f =(  0.5000000 )
                  (  0.0000000 -1.0000000  0.0000000 )       (  0.5000000 )
                  (  0.0000000  0.0000000 -1.0000000 )       (  0.0000000 )

      isym = 10     inv. 180 deg rotation - cart. axis [0,0,1]

 cryst.   s(10) = (     1          0          0      )    f =( -0.5000000 )
                  (     0          1          0      )       ( -0.5000000 )
                  (     0          0         -1      )       (  0.0000000 )

 cart.    s(10) = (  1.0000000  0.0000000  0.0000000 )    f =( -0.5000000 )
                  (  0.0000000  1.0000000  0.0000000 )       ( -0.5000000 )
                  (  0.0000000  0.0000000 -1.0000000 )       (  0.0000000 )

[...]

 cryst.   s(11) = (     1          0          0      )
                  (     0         -1          0      )
                  (     0          0          1      )

 cart.    s(11) = (  1.0000000  0.0000000  0.0000000 )
                  (  0.0000000 -1.0000000  0.0000000 )
                  (  0.0000000  0.0000000  1.0000000 )

[...]

 cryst.   s(14) = (     0          1          0      )    f =( -0.5000000 )
                  (     1          0          0      )       ( -0.5000000 )
                  (     0          0          1      )       (  0.0000000 )

 cart.    s(14) = (  0.0000000  1.0000000  0.0000000 )    f =( -0.5000000 )
                  (  1.0000000  0.0000000  0.0000000 )       ( -0.5000000 )
                  (  0.0000000  0.0000000  1.0000000 )       (  0.0000000 )

[...]

      isym = 16     inv.  90 deg rotation - cart. axis [0,0,1]

 cryst.   s(16) = (     0         -1          0      )
                  (     1          0          0      )
                  (     0          0         -1      )

 cart.    s(16) = (  0.0000000  1.0000000  0.0000000 )
                  ( -1.0000000  0.0000000  0.0000000 )
                  (  0.0000000  0.0000000 -1.0000000 )

   Cartesian axes

     site n.     atom                  positions (alat units)
         1           Co  tau(   1) = (   0.0000000   0.0000000   0.0000000  )
         2           Co  tau(   2) = (   0.5000000   0.5000000   0.0000000  )
         3           P   tau(   3) = (   0.0000000   0.5000000   1.2578305  )
         4           P   tau(   4) = (   0.5000000   0.0000000   0.3564076  )
         5           Pd  tau(   5) = (   0.0000000   0.5000000   0.6093830  )
         6           Pd  tau(   6) = (   0.5000000   0.0000000   1.0048551  )

   Crystallographic axes

     site n.     atom                  positions (cryst. coord.)
         1           Co  tau(   1) = (  0.0000000  0.0000000  0.0000000  )
         2           Co  tau(   2) = (  0.5000000  0.5000000  0.0000000  )
         3           P   tau(   3) = (  0.0000000  0.5000000  0.7792100  )
         4           P   tau(   4) = (  0.5000000  0.0000000  0.2207900  )
         5           Pd  tau(   5) = (  0.0000000  0.5000000  0.3775050  )
         6           Pd  tau(   6) = (  0.5000000  0.0000000  0.6224950  )

     number of k points=     1  Methfessel-Paxton smearing, width (Ry)=  0.0010
                       cart. coord. in units 2pi/alat
        k(    1) = (   0.0000000   0.0000000   0.0000000), wk =   2.0000000

                       cryst. coord.
        k(    1) = (   0.0000000   0.0000000   0.0000000), wk =   2.0000000

     Check: negative core charge=   -0.000013

     Initial potential from superposition of free atoms

     starting charge      77.9990, renormalised to      80.0000
     Starting wfcs are   54 randomized atomic wfcs

     Self-consistent Calculation

     iteration #  1     ecut=    30.00 Ry     beta= 0.70
     Davidson diagonalization with overlap

     ethr =  1.00E-02,  avg # of iterations =  3.0

     total energy              =   -1125.28617632 Ry
     estimated scf accuracy    <       8.03202327 Ry

[...]

     total energy              =   -1131.05424015 Ry
     estimated scf accuracy    <       0.00011879 Ry

     iteration # 36     ecut=    30.00 Ry     beta= 0.70
     Davidson diagonalization with overlap

     ethr =  1.48E-07,  avg # of iterations =  1.0

     End of self-consistent calculation

          k = 0.0000 0.0000 0.0000 (   720 PWs)   bands (ev):

   -77.7546 -77.7267 -67.6597 -67.6454 -41.4245 -41.4245 -41.2973 -41.2972
   -40.4106 -40.3653 -33.2377 -33.2050 -33.0122 -33.0122 -32.9433 -32.9433
     3.8287   5.8068  10.3899  11.6620  12.4082  12.4082  13.2115  13.4405
    13.5743  13.9453  13.9453  14.6717  14.7040  14.7040  15.0580  15.2944
    15.9423  16.0025  16.2072  16.2072  16.3288  16.7807  17.0587  17.0587
    17.0725  19.9889  20.4568  20.4568  21.1389  21.5110  23.7557  23.7558

     occupation numbers
     1.0000   1.0000   1.0000   1.0000   1.0000   1.0000   1.0000   1.0000
     1.0000   1.0000   1.0000   1.0000   1.0000   1.0000   1.0000   1.0000
     1.0000   1.0000   1.0000   1.0000   1.0000   1.0000   1.0000   1.0000
     1.0000   1.0000   1.0000   1.0000   1.0000   1.0000   1.0000   1.0000
     1.0000   1.0000   1.0000   1.0000   1.0000   1.0000   0.9144   0.9139
     0.1718  -0.0000  -0.0000  -0.0000  -0.0000  -0.0000  -0.0000  -0.0000

     the Fermi energy is    17.0667 ev

!    total energy              =   -1131.05424081 Ry
     estimated scf accuracy    <       0.00000029 Ry
     smearing contrib. (-TS)   =      -0.00027287 Ry
     internal energy E=F+TS    =   -1131.05396793 Ry

     The total energy is F=E-TS. E is the sum of the following terms:
     one-electron contribution =    -579.98615626 Ry
     hartree contribution      =     337.74019152 Ry
     xc contribution           =    -124.19540958 Ry
     ewald contribution        =    -764.61259362 Ry

     convergence has been achieved in  36 iterations

     Forces acting on atoms (cartesian axes, Ry/au):

     atom    1 type  1   force =     0.00000000    0.00000000   -0.00000000
     atom    2 type  1   force =     0.00000000    0.00000000    0.00000000
     atom    3 type  2   force =     0.00000000    0.00000000   -0.13318897
     atom    4 type  2   force =     0.00000000    0.00000000    0.13318897
     atom    5 type  3   force =     0.00000000    0.00000000    0.11811696
     atom    6 type  3   force =     0.00000000    0.00000000   -0.11811696
     The non-local contrib.  to forces
     atom    1 type  1   force =     0.00000000    0.00000000    0.00000000
     atom    2 type  1   force =     0.00000000    0.00000000    0.00000000
     atom    3 type  2   force =     0.00000000    0.00000000   -0.21924040
     atom    4 type  2   force =     0.00000000    0.00000000    0.21924040
     atom    5 type  3   force =     0.00000000    0.00000000   -0.07470148
     atom    6 type  3   force =     0.00000000    0.00000000    0.07470148
     The ionic contribution  to forces
     atom    1 type  1   force =    -0.00000000   -0.00000000   -0.00000000
     atom    2 type  1   force =     0.00000000    0.00000000   -0.00000000
     atom    3 type  2   force =     0.00000000   -0.00000000   -7.42457397
     atom    4 type  2   force =     0.00000000   -0.00000000    7.42457397
     atom    5 type  3   force =    -0.00000000    0.00000000   11.92063778
     atom    6 type  3   force =     0.00000000   -0.00000000  -11.92063778
     The local contribution  to forces
     atom    1 type  1   force =     0.00020987    0.00014367    0.00048710
     atom    2 type  1   force =     0.00020756    0.00014044    0.00024710
     atom    3 type  2   force =     0.00004165    0.00002901    7.49596150
     atom    4 type  2   force =     0.00004105    0.00002805   -7.49592734
     atom    5 type  3   force =    -0.00003204   -0.00002395  -11.72850993
     atom    6 type  3   force =    -0.00002583   -0.00002475   11.72784082
     The core correction contribution to forces
     atom    1 type  1   force =     0.00000672    0.00000453    0.00000530
     atom    2 type  1   force =     0.00000672    0.00000456   -0.00000456
     atom    3 type  2   force =    -0.00000001    0.00000001    0.01497043
     atom    4 type  2   force =    -0.00000007   -0.00000003   -0.01496983
     atom    5 type  3   force =     0.00000000    0.00000000    0.00000000
     atom    6 type  3   force =     0.00000000    0.00000000    0.00000000
     The Hubbard contrib.    to forces
     atom    1 type  1   force =     0.00000000    0.00000000    0.00000000
     atom    2 type  1   force =     0.00000000    0.00000000    0.00000000
     atom    3 type  2   force =     0.00000000    0.00000000    0.00000000
     atom    4 type  2   force =     0.00000000    0.00000000    0.00000000
     atom    5 type  3   force =     0.00000000    0.00000000    0.00000000
     atom    6 type  3   force =     0.00000000    0.00000000    0.00000000
     The SCF correction term to forces
     atom    1 type  1   force =    -0.00011470   -0.00008336   -0.00047375
     atom    2 type  1   force =    -0.00011471   -0.00007999   -0.00035265
     atom    3 type  2   force =    -0.00002700   -0.00001912   -0.00030206
     atom    4 type  2   force =    -0.00002724   -0.00001858    0.00027626
     atom    5 type  3   force =     0.00003039    0.00002206    0.00071473
     atom    6 type  3   force =     0.00002439    0.00002530    0.00000264

     Total force =     0.251758     Total SCF correction =     0.001035

     Computing stress (Cartesian axis) and pressure

          total   stress  (Ry/bohr**3)                   (kbar)     P=     -937.09
  -0.00631807   0.00000000   0.00000000         -929.42        0.00        0.00
   0.00000000  -0.00631807   0.00000000            0.00     -929.42        0.00
   0.00000000   0.00000000  -0.00647457            0.00        0.00     -952.44

     kinetic stress (kbar)  50610.74      0.00      0.00
                                0.00  50610.74      0.00
                                0.00      0.00  51030.55

     local   stress (kbar) -20914.36      0.64     -0.00
                                0.64 -20913.38     -0.00
                               -0.00     -0.00  -2581.60

     nonloc. stress (kbar)  14516.07      0.00      0.00
                                0.00  14516.07      0.00
                                0.00      0.00  14953.98

     hartree stress (kbar)  35225.24     -0.24      0.00
                               -0.24  35224.88      0.00
                                0.00      0.00  25767.09

     exc-cor stress (kbar)  -9161.52     -0.00      0.00
                               -0.00  -9161.52      0.00
                                0.00      0.00  -9137.22

     corecor stress (kbar)  -1855.97      0.00      0.00
                                0.00  -1855.96      0.00
                                0.00      0.00  -1858.26

     ewald   stress (kbar) -69349.94     -0.00     -0.00
                               -0.00 -69349.94     -0.00
                               -0.00     -0.00 -79126.98

     hubbard stress (kbar)      0.00      0.00      0.00
                                0.00      0.00      0.00
                                0.00      0.00      0.00

     DFT-D   stress (kbar)      0.00      0.00      0.00
                                0.00      0.00      0.00
                                0.00      0.00      0.00

     XDM     stress (kbar)      0.00      0.00      0.00
                                0.00      0.00      0.00
                                0.00      0.00      0.00

     dft-nl  stress (kbar)      0.00      0.00      0.00
                                0.00      0.00      0.00
                                0.00      0.00      0.00

     TS-vdW  stress (kbar)      0.00      0.00      0.00
                                0.00      0.00      0.00
                                0.00      0.00      0.00

[...]

                                0.00      0.00      0.00

     Writing all to output data dir new_calculations/myprefix.save/

     General routines

     Parallel routines

   This run was terminated on:  12:29: 1  21May2023

   JOB DONE.