     Program PWSCF v.7.0 starts on 21May2023 at 11:21:29

     Reading input from espresso_25518.pwi
Warning: card &CELL ignored
Warning: card / ignored

     Current dimensions of program PWSCF are:
     Max number of different atomic species (ntypx) = 10
     Max number of k-points (npk) =  40000
     Max angular momentum in pseudopotentials (lmaxx) =  4
     file Nb.pbe-spn-kjpaw_psl.0.3.0.UPF: wavefunction(s)  4S 4P renormalized

     gamma-point specific algorithms are used
     Message from routine setup:
     using ibrav=0 with symmetry is DISCOURAGED, use correct ibrav instead

     Subspace diagonalization in iterative solution of the eigenvalue problem:
     a serial algorithm will be used

     Using Slab Decomposition

     bravais-lattice index     =            0
     lattice parameter (alat)  =       6.2023  a.u.
     unit-cell volume          =    1184.6703 (a.u.)^3
     number of atoms/cell      =           10
     number of atomic types    =            3
     number of electrons       =        90.00
     number of Kohn-Sham states=           54
     kinetic-energy cutoff     =      30.0000  Ry
     charge density cutoff     =     240.0000  Ry
     scf convergence threshold =      1.0E-06
     mixing beta               =       0.7000
     number of iterations used =            8  plain     mixing
     Exchange-correlation=  SLA  PW   PBX  PBC
                           (   1   4   3   4   0   0   0)

     celldm(1)=   6.202251  celldm(2)=   0.000000  celldm(3)=   0.000000
     celldm(4)=   0.000000  celldm(5)=   0.000000  celldm(6)=   0.000000

     crystal axes: (cart. coord. in units of alat)
               a(1) = (   1.000000   0.000000   0.000000 )
               a(2) = (   0.000000   1.910107   0.000000 )
               a(3) = (   0.000000   0.657043   2.599512 )

     reciprocal axes: (cart. coord. in units 2 pi/alat)
               b(1) = (  1.000000  0.000000  0.000000 )
               b(2) = (  0.000000  0.523531 -0.132326 )
               b(3) = (  0.000000  0.000000  0.384688 )

     PseudoPot. # 1 for Nb read from file:
     /home/pragov/projects/rrg-bengioy-ad/pragov/crystal_structure_design/SSSP/Nb.pbe-spn-kjpaw_psl.0.3.0.UPF
     MD5 check sum: 411d72ad547312f8017e2943ceca08cc
     Pseudo is Projector augmented-wave + core cor, Zval = 13.0
     Generated using "atomic" code by A. Dal Corso  v.5.0.99 svn rev. 10869
     Shape of augmentation charge: PSQ
     Using radial grid of 1227 points,  6 beta functions with:
                l(1) =   0
                l(2) =   0
                l(3) =   1
                l(4) =   1
                l(5) =   2
                l(6) =   2
     Q(r) pseudized with 0 coefficients

     PseudoPot. # 2 for Mo read from file:
     /home/pragov/projects/rrg-bengioy-ad/pragov/crystal_structure_design/SSSP/Mo_ONCV_PBE-1.0.oncvpsp.upf
     MD5 check sum: 1b5d28e075c9ccadda658a603575cd1f
     Pseudo is Norm-conserving, Zval = 14.0
     Generated using ONCVPSP code by D. R. Hamann
     Using radial grid of 1526 points,  6 beta functions with:
                l(1) =   0
                l(2) =   0
                l(3) =   1
                l(4) =   1
                l(5) =   2
                l(6) =   2

     PseudoPot. # 3 for S  read from file:
     /home/pragov/projects/rrg-bengioy-ad/pragov/crystal_structure_design/SSSP/s_pbe_v1.4.uspp.F.UPF
     MD5 check sum: 88d86576ff6df21479756cfb9bdac1df
     Pseudo is Ultrasoft + core correction, Zval =  6.0
     Generated by new atomic code, or converted to UPF format
     Using radial grid of  907 points,  6 beta functions with:
                l(1) =   0
                l(2) =   0
                l(3) =   1
                l(4) =   1
                l(5) =   2
                l(6) =   2
     Q(r) pseudized with  8 coefficients,  rinner =    1.300   1.300   1.300
                                                       1.300   1.300

     atomic species   valence    mass     pseudopotential
        Nb            13.00    92.90637     Nb( 1.00)
        Mo            14.00    95.95000     Mo( 1.00)
        S              6.00    32.06000     S ( 1.00)

      4 Sym. Ops., with inversion, found ( 2 have fractional translation)

                                    s                        frac. trans.

      isym =  1     identity

 cryst.   s( 1) = (     1          0          0      )
                  (     0          1          0      )
                  (     0          0          1      )

 cart.    s( 1) = (  1.0000000  0.0000000  0.0000000 )
                  (  0.0000000  1.0000000  0.0000000 )
                  (  0.0000000  0.0000000  1.0000000 )

      isym =  2     180 deg rotation - cart. axis [1,0,0]

 cryst.   s( 2) = (     1          0          0      )    f =(  0.5000000 )
                  (     0         -1          0      )       (  0.0000000 )
                  (     0          0         -1      )       ( -0.0000000 )

 cart.    s( 2) = (  1.0000000  0.0000000  0.0000000 )    f =(  0.5000000 )
                  (  0.0000000 -1.0000000 -0.0000000 )       (  0.0000000 )
                  (  0.0000000  0.0000000 -1.0000000 )       ( -0.0000000 )

      isym =  3     inversion

 cryst.   s( 3) = (    -1          0          0      )
                  (     0         -1          0      )
                  (     0          0         -1      )

 cart.    s( 3) = ( -1.0000000  0.0000000  0.0000000 )
                  (  0.0000000 -1.0000000 -0.0000000 )
                  (  0.0000000  0.0000000 -1.0000000 )

      isym =  4     inv. 180 deg rotation - cart. axis [1,0,0]

 cryst.   s( 4) = (    -1          0          0      )    f =(  0.5000000 )
                  (     0          1          0      )       (  0.0000000 )
                  (     0          0          1      )       (  0.0000000 )

 cart.    s( 4) = ( -1.0000000  0.0000000  0.0000000 )    f =(  0.5000000 )
                  (  0.0000000  1.0000000  0.0000000 )       (  0.0000000 )
                  (  0.0000000  0.0000000  1.0000000 )       (  0.0000000 )

   Cartesian axes

     site n.     atom                  positions (alat units)
         1           Nb  tau(   1) = (   0.2500000   1.3241121   0.0165251  )
         2           Nb  tau(   2) = (   0.7500000   1.2430378   2.5829868  )
         3           Mo  tau(   3) = (   0.2500000   2.1040492   1.6210894  )
         4           Mo  tau(   4) = (   0.7500000   0.4631006   0.9784225  )
         5           S   tau(   5) = (   0.2500000   0.1637726   0.4267047  )
         6           S   tau(   6) = (   0.7500000   2.4033773   2.1728072  )
         7           S   tau(   7) = (   0.2500000   1.4659412   2.0736670  )
         8           S   tau(   8) = (   0.7500000   1.1012087   0.5258449  )
         9           S   tau(   9) = (   0.2500000   0.8503951   1.3365130  )
        10           S   tau(  10) = (   0.7500000   1.7167548   1.2629988  )

   Crystallographic axes

     site n.     atom                  positions (cryst. coord.)
         1           Nb  tau(   1) = (  0.2500000  0.6910270  0.0063570  )
         2           Nb  tau(   2) = (  0.7500000  0.3089730  0.9936430  )
         3           Mo  tau(   3) = (  0.2500000  0.8870230  0.6236130  )
         4           Mo  tau(   4) = (  0.7500000  0.1129770  0.3763870  )
         5           S   tau(   5) = (  0.2500000  0.0292760  0.1641480  )
         6           S   tau(   6) = (  0.7500000  0.9707240  0.8358520  )
         7           S   tau(   7) = (  0.2500000  0.4930660  0.7977140  )
         8           S   tau(   8) = (  0.7500000  0.5069340  0.2022860  )
         9           S   tau(   9) = (  0.2500000  0.2683530  0.5141400  )
        10           S   tau(  10) = (  0.7500000  0.7316470  0.4858600  )

     number of k points=     1  Methfessel-Paxton smearing, width (Ry)=  0.0010
                       cart. coord. in units 2pi/alat
        k(    1) = (   0.0000000   0.0000000   0.0000000), wk =   2.0000000

                       cryst. coord.
        k(    1) = (   0.0000000   0.0000000   0.0000000), wk =   2.0000000

     Check: negative core charge=   -0.000009

     Initial potential from superposition of free atoms

     starting charge      89.9936, renormalised to      90.0000
     Starting wfcs are   64 randomized atomic wfcs
     Checking if some PAW data can be deallocated...

     Self-consistent Calculation

     iteration #  1     ecut=    30.00 Ry     beta= 0.70
     Davidson diagonalization with overlap

     ethr =  1.00E-02,  avg # of iterations =  2.0

     total energy              =   -1084.83696068 Ry
     estimated scf accuracy    <       3.58612420 Ry

[...]

     total energy              =   -1087.32105273 Ry
     estimated scf accuracy    <       0.00000116 Ry

     iteration # 16     ecut=    30.00 Ry     beta= 0.70
     Davidson diagonalization with overlap

     ethr =  1.29E-09,  avg # of iterations =  3.0

     End of self-consistent calculation

          k = 0.0000 0.0000 0.0000 (  1653 PWs)   bands (ev):

   -48.3051 -48.2216 -43.2999 -43.2147 -22.9209 -22.4472 -22.3403 -22.2432
   -22.2235 -22.0390 -19.9579 -19.5611 -19.1808 -19.1735 -19.1328 -18.9425
    -2.3866  -1.4824  -0.9312  -0.6619  -0.5782  -0.5246   5.8256   6.0228
     6.4826   6.7456   7.5383   7.5904   8.2098   8.6306   8.7211   8.8816
     8.9836   9.0898   9.4040   9.6198  10.1890  10.4377  10.5703  11.1658
    11.3695  11.4101  11.5883  11.9403  12.1116  12.2998  12.5601  13.3890
    13.6210  14.3072  14.3754  14.4521  14.5701  14.7514

     occupation numbers
     1.0000   1.0000   1.0000   1.0000   1.0000   1.0000   1.0000   1.0000
     1.0000   1.0000   1.0000   1.0000   1.0000   1.0000   1.0000   1.0000
     1.0000   1.0000   1.0000   1.0000   1.0000   1.0000   1.0000   1.0000
     1.0000   1.0000   1.0000   1.0000   1.0000   1.0000   1.0000   1.0000
     1.0000   1.0000   1.0000   1.0000   1.0000   1.0000   1.0000   1.0000
     1.0000   1.0000   1.0000   1.0000   1.0000  -0.0000  -0.0000  -0.0000
    -0.0000  -0.0000  -0.0000  -0.0000  -0.0000  -0.0000

     the Fermi energy is    12.2281 ev

!    total energy              =   -1087.32105232 Ry
     estimated scf accuracy    <       0.00000063 Ry
     smearing contrib. (-TS)   =       0.00000000 Ry
     internal energy E=F+TS    =   -1087.32105232 Ry

     The total energy is F=E-TS. E is the sum of the following terms:
     one-electron contribution =    -203.34574901 Ry
     hartree contribution      =     145.70953243 Ry
     xc contribution           =    -140.39125801 Ry
     ewald contribution        =    -472.32885354 Ry
     one-center paw contrib.   =    -416.96472419 Ry
      -> PAW hartree energy AE =     136.80532055 Ry
      -> PAW hartree energy PS =    -136.06843276 Ry
      -> PAW xc energy AE      =    -471.71104161 Ry
      -> PAW xc energy PS      =      54.00942964 Ry
      -> total E_H with PAW    =     146.44642022 Ry
      -> total E_XC with PAW   =    -558.09286998 Ry

     convergence has been achieved in  16 iterations

     Forces acting on atoms (cartesian axes, Ry/au):

     atom    1 type  1   force =     0.00000000   -0.00012636   -0.02324275
     atom    2 type  1   force =     0.00000000    0.00012636    0.02324275
     atom    3 type  2   force =     0.00000000   -0.04751433   -0.08809168
     atom    4 type  2   force =     0.00000000    0.04751433    0.08809168
     atom    5 type  3   force =    -0.00000000    0.02998671    0.00102882
     atom    6 type  3   force =    -0.00000000   -0.02998671   -0.00102882
     atom    7 type  3   force =    -0.00000000    0.02034774    0.07611984
     atom    8 type  3   force =    -0.00000000   -0.02034774   -0.07611984
     atom    9 type  3   force =     0.00000000   -0.06034963   -0.04711911
     atom   10 type  3   force =     0.00000000    0.06034963    0.04711911
     The non-local contrib.  to forces
     atom    1 type  1   force =     0.00000000   -0.02022746    0.12664608
     atom    2 type  1   force =     0.00000000    0.02022746   -0.12664608
     atom    3 type  2   force =     0.00000000   -0.08079020   -0.14006799
     atom    4 type  2   force =     0.00000000    0.08079020    0.14006799
     atom    5 type  3   force =    -0.00000000    0.02578549    0.08086207
     atom    6 type  3   force =     0.00000000   -0.02578549   -0.08086207
     atom    7 type  3   force =     0.00000000    0.08522491   -0.01863195
     atom    8 type  3   force =     0.00000000   -0.08522491    0.01863195
     atom    9 type  3   force =     0.00000000   -0.07721972   -0.02490131
     atom   10 type  3   force =     0.00000000    0.07721972    0.02490131
     The ionic contribution  to forces
     atom    1 type  1   force =     0.00000000    8.34457509    5.05776410
     atom    2 type  1   force =     0.00000000   -8.34457509   -5.05776410
     atom    3 type  2   force =    -0.00000000   -3.58935330    5.69273647
     atom    4 type  2   force =     0.00000000    3.58935330   -5.69273647
     atom    5 type  3   force =    -0.00000000   -5.48458587    0.09946541
     atom    6 type  3   force =    -0.00000000    5.48458587   -0.09946541
     atom    7 type  3   force =    -0.00000000   -5.41422862   -7.65559747
     atom    8 type  3   force =     0.00000000    5.41422862    7.65559747
     atom    9 type  3   force =    -0.00000000   12.16553110    3.15585358
     atom   10 type  3   force =     0.00000000  -12.16553110   -3.15585358
     The local contribution  to forces
     atom    1 type  1   force =    -0.00000215   -8.32884147   -5.19909589
     atom    2 type  1   force =     0.00000727    8.32883446    5.19833790
     atom    3 type  2   force =     0.00000014    3.62160094   -5.63868268
     atom    4 type  2   force =     0.00000218   -3.62353285    5.63893333
     atom    5 type  3   force =    -0.00000042    5.48986994   -0.17532006
     atom    6 type  3   force =    -0.00000005   -5.49010593    0.17525371
     atom    7 type  3   force =     0.00000037    5.35403401    7.74890816
     atom    8 type  3   force =     0.00000136   -5.35368642   -7.74916784
     atom    9 type  3   force =     0.00000047  -12.15131524   -3.17869913
     atom   10 type  3   force =     0.00000634   12.15145697    3.17897371
     The core correction contribution to forces
     atom    1 type  1   force =    -0.00000020    0.00429529   -0.00921240
     atom    2 type  1   force =     0.00000024   -0.00429535    0.00920505
     atom    3 type  2   force =     0.00000000    0.00000000    0.00000000
     atom    4 type  2   force =     0.00000000    0.00000000    0.00000000
     atom    5 type  3   force =     0.00000008   -0.00108279   -0.00477038
     atom    6 type  3   force =     0.00000029    0.00108174    0.00477174
     atom    7 type  3   force =     0.00000011   -0.00438889    0.00226905
     atom    8 type  3   force =     0.00000015    0.00439160   -0.00227152
     atom    9 type  3   force =    -0.00000015    0.00266200    0.00079884
     atom   10 type  3   force =     0.00000028   -0.00266099   -0.00080123
     The Hubbard contrib.    to forces
     atom    1 type  1   force =     0.00000000    0.00000000    0.00000000
     atom    2 type  1   force =     0.00000000    0.00000000    0.00000000
     atom    3 type  2   force =     0.00000000    0.00000000    0.00000000
     atom    4 type  2   force =     0.00000000    0.00000000    0.00000000
     atom    5 type  3   force =     0.00000000    0.00000000    0.00000000
     atom    6 type  3   force =     0.00000000    0.00000000    0.00000000
     atom    7 type  3   force =     0.00000000    0.00000000    0.00000000
     atom    8 type  3   force =     0.00000000    0.00000000    0.00000000
     atom    9 type  3   force =     0.00000000    0.00000000    0.00000000
     atom   10 type  3   force =     0.00000000    0.00000000    0.00000000
     The SCF correction term to forces
     atom    1 type  1   force =     0.00000115    0.00007700    0.00060257
     atom    2 type  1   force =    -0.00000432   -0.00006032    0.00005719
     atom    3 type  2   force =     0.00000058    0.00100081   -0.00203041
     atom    4 type  2   force =    -0.00000059    0.00087624    0.00187391
     atom    5 type  3   force =     0.00000070   -0.00000158    0.00078402
     atom    6 type  3   force =    -0.00000015    0.00023558   -0.00073458
     atom    7 type  3   force =    -0.00000119   -0.00027511   -0.00085067
     atom    8 type  3   force =    -0.00000036   -0.00003807    0.00106739
     atom    9 type  3   force =    -0.00000040   -0.00000686   -0.00019075
     atom   10 type  3   force =    -0.00000289   -0.00013407   -0.00012076

     Total force =     0.216928     Total SCF correction =     0.003605

     Computing stress (Cartesian axis) and pressure

          total   stress  (Ry/bohr**3)                   (kbar)     P=       46.87
   0.00173814   0.00000000   0.00000000          255.69        0.00        0.00
   0.00000000   0.00004900  -0.00026500            0.00        7.21      -38.98
   0.00000000  -0.00026500  -0.00083121            0.00      -38.98     -122.28

     kinetic stress (kbar)  18783.87      0.00      0.00
                                0.00  17983.58    -73.50
                                0.00    -73.50  17944.08

     local   stress (kbar) -19424.57     -0.00      0.00
                               -0.00   2296.63   8954.26
                                0.00   8954.26 -10731.70

     nonloc. stress (kbar)   8609.78      0.00      0.00
                                0.00   8647.08     16.23
                                0.00     16.23   8653.35

     hartree stress (kbar)  10548.45      0.00      0.00
                                0.00    866.50  -3820.57
                                0.00  -3820.57   6678.36

     exc-cor stress (kbar)   2660.23     -0.00      0.00
                               -0.00   2658.33     -2.99
                                0.00     -2.99   2661.33

     corecor stress (kbar)  -6685.40     -0.00      0.00
                               -0.00  -6677.19      1.42
                                0.00      1.42  -6681.18

     ewald   stress (kbar) -14236.66     -0.00     -0.00
                               -0.00 -25767.72  -5113.82
                               -0.00  -5113.82 -18646.52

     hubbard stress (kbar)      0.00      0.00      0.00
                                0.00      0.00      0.00
                                0.00      0.00      0.00

     DFT-D   stress (kbar)      0.00      0.00      0.00
                                0.00      0.00      0.00
                                0.00      0.00      0.00

     XDM     stress (kbar)      0.00      0.00      0.00
                                0.00      0.00      0.00
                                0.00      0.00      0.00

     dft-nl  stress (kbar)      0.00      0.00      0.00
                                0.00      0.00      0.00
                                0.00      0.00      0.00

     TS-vdW  stress (kbar)      0.00      0.00      0.00
                                0.00      0.00      0.00
                                0.00      0.00      0.00

[...]

                                0.00      0.00      0.00

     Writing all to output data dir new_calculations/myprefix.save/

     General routines

     Parallel routines

     PAW routines

   This run was terminated on:  11:21:52  21May2023

   JOB DONE.