     Program PWSCF v.7.0 starts on 21May2023 at  0:27:56

     Reading input from espresso_3875.pwi
Warning: card &CELL ignored
Warning: card / ignored

     Current dimensions of program PWSCF are:
     Max number of different atomic species (ntypx) = 10
     Max number of k-points (npk) =  40000
     Max angular momentum in pseudopotentials (lmaxx) =  4
     file Al.pbe-n-kjpaw_psl.1.0.0.UPF: wavefunction(s)  3S 3P renormalized

     gamma-point specific algorithms are used
     Message from routine setup:
     using ibrav=0 with symmetry is DISCOURAGED, use correct ibrav instead

     Subspace diagonalization in iterative solution of the eigenvalue problem:
     a serial algorithm will be used

     Using Slab Decomposition

     bravais-lattice index     =            0
     lattice parameter (alat)  =      10.3593  a.u.
     unit-cell volume          =     826.1085 (a.u.)^3
     number of atoms/cell      =            7
     number of atomic types    =            3
     number of electrons       =        64.00
     number of Kohn-Sham states=           38
     kinetic-energy cutoff     =      30.0000  Ry
     charge density cutoff     =     240.0000  Ry
     scf convergence threshold =      1.0E-06
     mixing beta               =       0.7000
     number of iterations used =            8  plain     mixing
     Exchange-correlation= PBE
                           (   1   4   3   4   0   0   0)

     celldm(1)=  10.359289  celldm(2)=   0.000000  celldm(3)=   0.000000
     celldm(4)=   0.000000  celldm(5)=   0.000000  celldm(6)=   0.000000

     crystal axes: (cart. coord. in units of alat)
               a(1) = (   1.000000   0.000000   0.000000 )
               a(2) = (  -0.525315   0.850908   0.000000 )
               a(3) = (  -0.237342  -0.425454   0.873303 )

     reciprocal axes: (cart. coord. in units 2 pi/alat)
               b(1) = (  1.000000  0.617359  0.572539 )
               b(2) = (  0.000000  1.175216  0.572539 )
               b(3) = (  0.000000  0.000000  1.145078 )

     PseudoPot. # 1 for Yb read from file:
     /home/pragov/projects/rrg-bengioy-ad/pragov/crystal_structure_design/SSSP/Yb.GGA-PBE-paw-v1.0.UPF
     MD5 check sum: 43b6465ad8021f06e3edb42ae292e187
     Pseudo is Projector augmented-wave + core cor, Zval = 24.0
     Generated using ATOMPAW code
     Shape of augmentation charge: BESSEL
     Using radial grid of 1117 points,  8 beta functions with:
                l(1) =   0
                l(2) =   0
                l(3) =   1
                l(4) =   1
                l(5) =   2
                l(6) =   2
                l(7) =   3
                l(8) =   3
     Q(r) pseudized with 0 coefficients

     PseudoPot. # 2 for Al read from file:
     /home/pragov/projects/rrg-bengioy-ad/pragov/crystal_structure_design/SSSP/Al.pbe-n-kjpaw_psl.1.0.0.UPF
     MD5 check sum: cfc449ca30b5f3223ec38ddd88ac046d
     Pseudo is Projector augmented-wave + core cor, Zval =  3.0
     Generated using "atomic" code by A. Dal Corso  v.5.1
     Shape of augmentation charge: PSQ
     Using radial grid of 1135 points,  6 beta functions with:
                l(1) =   0
                l(2) =   0
                l(3) =   1
                l(4) =   1
                l(5) =   2
                l(6) =   2
     Q(r) pseudized with 0 coefficients

     PseudoPot. # 3 for Mo read from file:
     /home/pragov/projects/rrg-bengioy-ad/pragov/crystal_structure_design/SSSP/Mo_ONCV_PBE-1.0.oncvpsp.upf
     MD5 check sum: 1b5d28e075c9ccadda658a603575cd1f
     Pseudo is Norm-conserving, Zval = 14.0
     Generated using ONCVPSP code by D. R. Hamann
     Using radial grid of 1526 points,  6 beta functions with:
                l(1) =   0
                l(2) =   0
                l(3) =   1
                l(4) =   1
                l(5) =   2
                l(6) =   2

     atomic species   valence    mass     pseudopotential
        Yb            24.00   173.05400     Yb( 1.00)
        Al             3.00    26.98154     Al( 1.00)
        Mo            14.00    95.95000     Mo( 1.00)

      4 Sym. Ops., with inversion, found

                                    s                        frac. trans.

      isym =  1     identity

 cryst.   s( 1) = (     1          0          0      )
                  (     0          1          0      )
                  (     0          0          1      )

 cart.    s( 1) = (  1.0000000 -0.0000000  0.0000000 )
                  (  0.0000000  1.0000000  0.0000000 )
                  (  0.0000000  0.0000000  1.0000000 )

      isym =  2     180 deg rotation - cart. axis [0,0,1]

[...]

      isym =  3     inversion

[...]

      isym =  4     inv. 180 deg rotation - cart. axis [0,0,1]

 cryst.   s( 4) = (     1          0          0      )
                  (     0          1          0      )
                  (    -1         -1         -1      )

 cart.    s( 4) = (  1.0000000 -0.0000000 -0.0000000 )
                  (  0.0000000  1.0000000 -0.0000000 )
                  (  0.0000000  0.0000000 -1.0000000 )

   Cartesian axes

     site n.     atom                  positions (alat units)
         1           Yb  tau(   1) = (   0.0000000   0.0000000   0.0000000  )
         2           Al  tau(   2) = (   0.0000002   0.0000004   0.5317217  )
         3           Al  tau(   3) = (   0.5356453   0.2590435   0.0000000  )
         4           Al  tau(   4) = (  -0.0609604   0.5918642   0.0000000  )
         5           Al  tau(   5) = (   0.2373422   0.4254535   0.3415810  )
         6           Mo  tau(   6) = (  -0.2626576   0.4254539   0.4366513  )
         7           Mo  tau(   7) = (   0.5000000   0.0000000   0.4366513  )

   Crystallographic axes

     site n.     atom                  positions (cryst. coord.)
         1           Yb  tau(   1) = (  0.0000000  0.0000000  0.0000000  )
         2           Al  tau(   2) = (  0.3044320  0.3044320  0.6088630  )
         3           Al  tau(   3) = (  0.6955680  0.3044320  0.0000000  )
         4           Al  tau(   4) = (  0.3044320  0.6955680  0.0000000  )
         5           Al  tau(   5) = (  0.6955680  0.6955680  0.3911370  )
         6           Mo  tau(   6) = (  0.2500000  0.7500000  0.5000000  )
         7           Mo  tau(   7) = (  0.7500000  0.2500000  0.5000000  )

     number of k points=     1  Methfessel-Paxton smearing, width (Ry)=  0.0010
                       cart. coord. in units 2pi/alat
        k(    1) = (   0.0000000   0.0000000   0.0000000), wk =   2.0000000

                       cryst. coord.
        k(    1) = (   0.0000000   0.0000000   0.0000000), wk =   2.0000000

     Initial potential from superposition of free atoms

     starting charge      63.9849, renormalised to      64.0000
     Starting wfcs are   68 randomized atomic wfcs
     Checking if some PAW data can be deallocated...

     Self-consistent Calculation

     iteration #  1     ecut=    30.00 Ry     beta= 0.70
     Davidson diagonalization with overlap

     ethr =  1.00E-02,  avg # of iterations =  4.0

     Threshold (ethr) on eigenvalues was too large:
     Diagonalizing with lowered threshold

     Davidson diagonalization with overlap

[...]

     total energy              =   -1442.97346012 Ry
     estimated scf accuracy    <       0.49075330 Ry

[...]

     total energy              =   -1443.45380148 Ry
     estimated scf accuracy    <       0.00000101 Ry

     iteration # 22     ecut=    30.00 Ry     beta= 0.70
     Davidson diagonalization with overlap

     ethr =  1.57E-09,  avg # of iterations =  2.0

     End of self-consistent calculation

          k = 0.0000 0.0000 0.0000 (  1133 PWs)   bands (ev):

   -49.1470 -48.9995 -39.0818 -24.2167 -23.4687 -23.2664 -23.0145 -22.8814
   -22.8682 -11.3711 -11.3582 -11.0532   3.5532   6.9584   7.5387   7.5494
     8.1980  10.2018  10.6889  10.7146  10.8628  10.8881  10.8940  11.3435
    11.4352  11.6659  11.6674  11.7128  11.8608  11.8684  11.9490  12.0001
    12.0063  12.1804  13.6337  13.6673  14.3971  15.4662

     occupation numbers
     1.0000   1.0000   1.0000   1.0000   1.0000   1.0000   1.0000   1.0000
     1.0000   1.0000   1.0000   1.0000   1.0000   1.0000   1.0000   1.0000
     1.0000   1.0000   1.0000   1.0000   1.0000   1.0000   1.0000   1.0000
     1.0000   1.0000   1.0000   1.0000   1.0000   1.0000   1.0000   0.6869
     0.3131  -0.0000  -0.0000  -0.0000  -0.0000  -0.0000

     the Fermi energy is    12.0032 ev

!    total energy              =   -1443.45380149 Ry
     estimated scf accuracy    <       0.00000001 Ry
     smearing contrib. (-TS)   =      -0.00048046 Ry
     internal energy E=F+TS    =   -1443.45332103 Ry

     The total energy is F=E-TS. E is the sum of the following terms:
     one-electron contribution =    -527.15517545 Ry
     hartree contribution      =     257.10617168 Ry
     xc contribution           =     -79.78072068 Ry
     ewald contribution        =    -469.99387457 Ry
     one-center paw contrib.   =    -623.62972202 Ry
      -> PAW hartree energy AE =     454.28282989 Ry
      -> PAW hartree energy PS =    -391.61876286 Ry
      -> PAW xc energy AE      =    -731.26877110 Ry
      -> PAW xc energy PS      =      44.97498206 Ry
      -> total E_H with PAW    =     319.77023870 Ry
      -> total E_XC with PAW   =    -766.07450972 Ry

     convergence has been achieved in  22 iterations

     Forces acting on atoms (cartesian axes, Ry/au):

     atom    1 type  1   force =     0.00000000    0.00000000    0.00000000
     atom    2 type  2   force =     0.00000000    0.00000000    0.06862366
     atom    3 type  2   force =    -0.05923142    0.03316073   -0.00000000
     atom    4 type  2   force =     0.05923142   -0.03316073    0.00000000
     atom    5 type  2   force =     0.00000000    0.00000000   -0.06862366
     atom    6 type  3   force =     0.00000000    0.00000000   -0.00281550
     atom    7 type  3   force =     0.00000000    0.00000000    0.00281550
     The non-local contrib.  to forces
     atom    1 type  1   force =     0.00000000    0.00000000   -0.00000000
     atom    2 type  2   force =     0.00000000    0.00000000   -0.05878994
     atom    3 type  2   force =     0.05224659   -0.02822426   -0.00000000
     atom    4 type  2   force =    -0.05224659    0.02822426    0.00000000
     atom    5 type  2   force =     0.00000000    0.00000000    0.05878994
     atom    6 type  3   force =     0.00000000    0.00000000    0.00264521
     atom    7 type  3   force =     0.00000000    0.00000000   -0.00264521
     The ionic contribution  to forces
     atom    1 type  1   force =     0.00000000   -0.00000000    0.00000000
     atom    2 type  2   force =    -0.00000456   -0.00000817    1.50565470
     atom    3 type  2   force =    -1.31488292    0.73351666    0.00000000
     atom    4 type  2   force =     1.31488292   -0.73351666    0.00000000
     atom    5 type  2   force =     0.00000456    0.00000817   -1.50565470
     atom    6 type  3   force =    -0.00000987    0.00000551   -0.00000000
     atom    7 type  3   force =     0.00000987   -0.00000551   -0.00000000
     The local contribution  to forces
     atom    1 type  1   force =    -0.00006847    0.00002605    0.00003945
     atom    2 type  2   force =     0.00074701   -0.00028309   -1.38397870
     atom    3 type  2   force =     1.20853908   -0.67488973   -0.00010733
     atom    4 type  2   force =    -1.20853507    0.67488700    0.00009521
     atom    5 type  2   force =    -0.00075269    0.00028748    1.38398010
     atom    6 type  3   force =     0.00720083    0.00551353   -0.00537153
     atom    7 type  3   force =    -0.00718018   -0.00554963    0.00543403
     The core correction contribution to forces
     atom    1 type  1   force =    -0.00000000   -0.00000000    0.00000000
     atom    2 type  2   force =     0.00025650   -0.00007071    0.00573642
     atom    3 type  2   force =    -0.00513715    0.00275081    0.00005749
     atom    4 type  2   force =     0.00513780   -0.00275044   -0.00005812
     atom    5 type  2   force =    -0.00025663    0.00007084   -0.00573642
     atom    6 type  3   force =     0.00000000    0.00000000    0.00000000
     atom    7 type  3   force =     0.00000000    0.00000000    0.00000000
     The Hubbard contrib.    to forces
     atom    1 type  1   force =     0.00000000    0.00000000    0.00000000
     atom    2 type  2   force =     0.00000000    0.00000000    0.00000000
     atom    3 type  2   force =     0.00000000    0.00000000    0.00000000
     atom    4 type  2   force =     0.00000000    0.00000000    0.00000000
     atom    5 type  2   force =     0.00000000    0.00000000    0.00000000
     atom    6 type  3   force =     0.00000000    0.00000000    0.00000000
     atom    7 type  3   force =     0.00000000    0.00000000    0.00000000
     The SCF correction term to forces
     atom    1 type  1   force =     0.00013198   -0.00007814   -0.00014508
     atom    2 type  2   force =     0.00000264   -0.00000345    0.00000141
     atom    3 type  2   force =     0.00000332    0.00000701    0.00000150
     atom    4 type  2   force =    -0.00000731   -0.00000514    0.00000313
     atom    5 type  2   force =     0.00000256    0.00000041   -0.00000235
     atom    6 type  3   force =    -0.00001953    0.00004581   -0.00008004
     atom    7 type  3   force =    -0.00002121   -0.00000797    0.00003582

     Total force =     0.136566     Total SCF correction =     0.000235

     Computing stress (Cartesian axis) and pressure

          total   stress  (Ry/bohr**3)                   (kbar)     P=      -55.55
  -0.00034688  -0.00055988   0.00000000          -51.03      -82.36        0.00
  -0.00055988  -0.00079841   0.00000000          -82.36     -117.45        0.00
   0.00000000   0.00000000   0.00001244            0.00        0.00        1.83

     kinetic stress (kbar)  13387.04   -237.33     -0.00
                             -237.33  13120.93     -0.00
                               -0.00     -0.00  13532.15

     local   stress (kbar)  -4916.95  -1299.73      1.69
                            -1299.73  -6500.01      1.43
                                1.69      1.43  -4191.59

     nonloc. stress (kbar)   8766.05    -16.24     -0.00
                              -16.24   8738.30     -0.00
                               -0.00     -0.00   8769.36

     hartree stress (kbar)  15183.94    349.94     -0.65
                              349.94  15610.52     -0.87
                               -0.65     -0.87  14988.42

     exc-cor stress (kbar)  -3625.98      1.93     -0.05
                                1.93  -3623.74     -0.06
                               -0.05     -0.06  -3627.10

     corecor stress (kbar)   -695.33     -0.25     -0.00
                               -0.25   -695.69      0.01
                               -0.00      0.01   -695.20

     ewald   stress (kbar) -28149.80   1119.31      0.01
                             1119.31 -26767.76      0.01
                                0.01      0.01 -28774.21

     hubbard stress (kbar)      0.00      0.00      0.00
                                0.00      0.00      0.00
                                0.00      0.00      0.00

     DFT-D   stress (kbar)      0.00      0.00      0.00
                                0.00      0.00      0.00
                                0.00      0.00      0.00

     XDM     stress (kbar)      0.00      0.00      0.00
                                0.00      0.00      0.00
                                0.00      0.00      0.00

     dft-nl  stress (kbar)      0.00      0.00      0.00
                                0.00      0.00      0.00
                                0.00      0.00      0.00

     TS-vdW  stress (kbar)      0.00      0.00      0.00
                                0.00      0.00      0.00
                                0.00      0.00      0.00

[...]

                                0.00      0.00      0.00

     Writing all to output data dir new_calculations/myprefix.save/

     General routines

     Parallel routines

     PAW routines

   This run was terminated on:   0:28:37  21May2023

   JOB DONE.