     Program PWSCF v.7.0 starts on 20May2023 at  8:55:34

     Reading input from espresso_13239.pwi
Warning: card &CELL ignored
Warning: card / ignored

     Current dimensions of program PWSCF are:
     Max number of different atomic species (ntypx) = 10
     Max number of k-points (npk) =  40000
     Max angular momentum in pseudopotentials (lmaxx) =  4

     gamma-point specific algorithms are used
     Message from routine setup:
     using ibrav=0 with symmetry is DISCOURAGED, use correct ibrav instead

     Subspace diagonalization in iterative solution of the eigenvalue problem:
     a serial algorithm will be used

     Using Slab Decomposition

     bravais-lattice index     =            0
     lattice parameter (alat)  =       7.0362  a.u.
     unit-cell volume          =    1295.5947 (a.u.)^3
     number of atoms/cell      =            9
     number of atomic types    =            3
     number of electrons       =       149.00
     number of Kohn-Sham states=           90
     kinetic-energy cutoff     =      30.0000  Ry
     charge density cutoff     =     240.0000  Ry
     scf convergence threshold =      1.0E-06
     mixing beta               =       0.7000
     number of iterations used =            8  plain     mixing
     Exchange-correlation= PBE
                           (   1   4   3   4   0   0   0)

     celldm(1)=   7.036244  celldm(2)=   0.000000  celldm(3)=   0.000000
     celldm(4)=   0.000000  celldm(5)=   0.000000  celldm(6)=   0.000000

     crystal axes: (cart. coord. in units of alat)
               a(1) = (   1.000000   0.000000   0.000000 )
               a(2) = (   0.000000   2.108409   0.000000 )
               a(3) = (   0.000000  -1.054205   1.763972 )

     reciprocal axes: (cart. coord. in units 2 pi/alat)
               b(1) = (  1.000000  0.000000  0.000000 )
               b(2) = (  0.000000  0.474291  0.283451 )
               b(3) = (  0.000000  0.000000  0.566903 )

     PseudoPot. # 1 for Y  read from file:
     /home/pragov/projects/rrg-bengioy-ad/pragov/crystal_structure_design/SSSP/Y_pbe_v1.uspp.F.UPF
     MD5 check sum: 2cf71db95cafeb975fc457bd7f14888e
     Pseudo is Ultrasoft + core correction, Zval = 11.0
     Generated by new atomic code, or converted to UPF format
     Using radial grid of  885 points,  6 beta functions with:
                l(1) =   0
                l(2) =   0
                l(3) =   1
                l(4) =   1
                l(5) =   2
                l(6) =   2
     Q(r) pseudized with  6 coefficients,  rinner =    1.200   1.200   1.200
                                                       1.200   1.200

     PseudoPot. # 2 for Zn read from file:
     /home/pragov/projects/rrg-bengioy-ad/pragov/crystal_structure_design/SSSP/Zn_pbe_v1.uspp.F.UPF
     MD5 check sum: df62231357ef9e81f77b2b3087fa5675
     Pseudo is Ultrasoft, Zval = 20.0
     Generated by new atomic code, or converted to UPF format
     Using radial grid of  943 points,  6 beta functions with:
                l(1) =   0
                l(2) =   0
                l(3) =   1
                l(4) =   1
                l(5) =   2
                l(6) =   2
     Q(r) pseudized with  8 coefficients,  rinner =    1.100   1.100   1.100
                                                       1.100   1.100

     PseudoPot. # 3 for Au read from file:
     /home/pragov/projects/rrg-bengioy-ad/pragov/crystal_structure_design/SSSP/Au_ONCV_PBE-1.0.oncvpsp.upf
     MD5 check sum: d14007822ba0e19f0206237467fc06c2
     Pseudo is Norm-conserving, Zval = 19.0
     Generated using ONCVPSP code by D. R. Hamann
     Using radial grid of 1278 points,  8 beta functions with:
                l(1) =   0
                l(2) =   0
                l(3) =   1
                l(4) =   1
                l(5) =   2
                l(6) =   2
                l(7) =   3
                l(8) =   3

     atomic species   valence    mass     pseudopotential
        Y             11.00    88.90584     Y ( 1.00)
        Zn            20.00    65.38000     Zn( 1.00)
        Au            19.00   196.96657     Au( 1.00)

      4 Sym. Ops. (no inversion) found

                                    s                        frac. trans.

      isym =  1     identity

 cryst.   s( 1) = (     1          0          0      )
                  (     0          1          0      )
                  (     0          0          1      )

 cart.    s( 1) = (  1.0000000  0.0000000  0.0000000 )
                  (  0.0000000  1.0000000  0.0000000 )
                  (  0.0000000  0.0000000  1.0000000 )

      isym =  2     180 deg rotation - cart. axis [0,1,0]

[...]

      isym =  3     inv. 180 deg rotation - cart. axis [0,0,1]

[...]

      isym =  4     inv. 180 deg rotation - cart. axis [1,0,0]

 cryst.   s( 4) = (    -1          0          0      )
                  (     0          1          0      )
                  (     0          0          1      )

 cart.    s( 4) = ( -1.0000000  0.0000000  0.0000000 )
                  (  0.0000000  1.0000000  0.0000000 )
                  (  0.0000000  0.0000000  1.0000000 )

   Cartesian axes

     site n.     atom                  positions (alat units)
         1           Y   tau(   1) = (   0.0000000   0.8630456   0.0000000  )
         2           Y   tau(   2) = (   0.0000000   0.6231644   1.0942534  )
         3           Y   tau(   3) = (   0.0000000   1.6773711   0.6697183  )
         4           Zn  tau(   4) = (   0.5000000   0.2895710   0.4686732  )
         5           Zn  tau(   5) = (   0.5000000  -0.7646336   1.2952985  )
         6           Au  tau(   6) = (   0.5000000   1.0293389   0.6163899  )
         7           Au  tau(   7) = (   0.5000000  -0.0248656   1.1475817  )
         8           Au  tau(   8) = (   0.0000000   0.0477534   0.0000000  )
         9           Au  tau(   9) = (   0.5000000   1.5304857   0.0000000  )

   Crystallographic axes

     site n.     atom                  positions (cryst. coord.)
         1           Y   tau(   1) = (  0.0000000  0.4093350  0.0000000  )
         2           Y   tau(   2) = (  0.0000000  0.6057290  0.6203350  )
         3           Y   tau(   3) = (  0.0000000  0.9853950  0.3796650  )
         4           Zn  tau(   4) = (  0.5000000  0.2701870  0.2656920  )
         5           Zn  tau(   5) = (  0.5000000  0.0044950  0.7343080  )
         6           Au  tau(   6) = (  0.5000000  0.6629230  0.3494330  )
         7           Au  tau(   7) = (  0.5000000  0.3134900  0.6505670  )
         8           Au  tau(   8) = (  0.0000000  0.0226490  0.0000000  )
         9           Au  tau(   9) = (  0.5000000  0.7258960  0.0000000  )

     number of k points=     1  Methfessel-Paxton smearing, width (Ry)=  0.0010
                       cart. coord. in units 2pi/alat
        k(    1) = (   0.0000000   0.0000000   0.0000000), wk =   2.0000000

                       cryst. coord.
        k(    1) = (   0.0000000   0.0000000   0.0000000), wk =   2.0000000

     Check: negative core charge=   -0.000005

     Initial potential from superposition of free atoms

     starting charge     148.9859, renormalised to     149.0000

     negative rho (up, down):  1.299E-01 0.000E+00
     Starting wfcs are  105 randomized atomic wfcs

     Self-consistent Calculation

     iteration #  1     ecut=    30.00 Ry     beta= 0.70
     Davidson diagonalization with overlap

     ethr =  1.00E-02,  avg # of iterations =  3.0

     Threshold (ethr) on eigenvalues was too large:
     Diagonalizing with lowered threshold

     Davidson diagonalization with overlap

[...]

     negative rho (up, down):  1.315E-01 0.000E+00

     total energy              =   -2284.41830172 Ry
     estimated scf accuracy    <       0.34571484 Ry

[...]

     total energy              =   -2284.58063442 Ry
     estimated scf accuracy    <       0.00000198 Ry

     iteration # 10     ecut=    30.00 Ry     beta= 0.70
     Davidson diagonalization with overlap

     ethr =  1.33E-09,  avg # of iterations =  2.0

[...]

     End of self-consistent calculation

          k = 0.0000 0.0000 0.0000 (  1787 PWs)   bands (ev):

  -111.8889-111.8889 -92.7192 -92.7190 -92.2955 -91.9046 -66.0547 -66.0527
   -65.9536 -65.9515 -65.9363 -65.9336 -43.8741 -43.8711 -43.6492 -43.6478
   -43.6029 -43.6026 -43.3532 -43.3025 -43.2156 -43.0218 -42.8421 -42.8176
   -28.2507 -28.2029 -28.1996  -8.3041  -8.2873  -8.2210  -8.2193  -8.2190
    -8.2142  -8.1811  -8.1478  -8.1102   6.3379   7.0169   7.0908   7.1027
     7.1476   7.1690   7.2084   7.2265   7.2654   7.2839   7.3094   8.5422
     8.6935   8.7857   8.9410   8.9833   9.1614   9.2541   9.4527   9.4708
     9.5974   9.7179   9.7386   9.7781   9.8611   9.9643  10.2004  10.2156
    10.6924  10.6946  11.0794  11.0963  11.2233  11.6917  11.6922  12.1942
    12.2718  14.9858  15.2542  15.6159  16.0354  16.0716  16.3333  16.5269
    17.1780  17.2378  17.6655  17.6801  18.1102  18.2637  18.3801  18.4673
    18.5421  19.6294

     occupation numbers
     1.0000   1.0000   1.0000   1.0000   1.0000   1.0000   1.0000   1.0000
     1.0000   1.0000   1.0000   1.0000   1.0000   1.0000   1.0000   1.0000
     1.0000   1.0000   1.0000   1.0000   1.0000   1.0000   1.0000   1.0000
     1.0000   1.0000   1.0000   1.0000   1.0000   1.0000   1.0000   1.0000
     1.0000   1.0000   1.0000   1.0000   1.0000   1.0000   1.0000   1.0000
     1.0000   1.0000   1.0000   1.0000   1.0000   1.0000   1.0000   1.0000
     1.0000   1.0000   1.0000   1.0000   1.0000   1.0000   1.0000   1.0000
     1.0000   1.0000   1.0000   1.0000   1.0000   1.0000   1.0000   1.0000
     1.0000   1.0000   1.0000   1.0000   1.0000   1.0000   1.0000   1.0000
     1.0000   1.0000   0.5000  -0.0000  -0.0000  -0.0000  -0.0000  -0.0000
    -0.0000  -0.0000  -0.0000  -0.0000  -0.0000  -0.0000  -0.0000  -0.0000
    -0.0000  -0.0000

     the Fermi energy is    15.2542 ev

!    total energy              =   -2284.58063476 Ry
     estimated scf accuracy    <       0.00000022 Ry
     smearing contrib. (-TS)   =      -0.00028209 Ry
     internal energy E=F+TS    =   -2284.58035267 Ry

     The total energy is F=E-TS. E is the sum of the following terms:
     one-electron contribution =   -1413.67339357 Ry
     hartree contribution      =     753.39521706 Ry
     xc contribution           =    -251.46708215 Ry
     ewald contribution        =   -1372.83509401 Ry

     convergence has been achieved in  10 iterations

     negative rho (up, down):  1.331E-01 0.000E+00

     Forces acting on atoms (cartesian axes, Ry/au):

     atom    1 type  1   force =     0.00000000   -0.03353166   -0.00000000
     atom    2 type  1   force =    -0.00000000    0.03709128    0.02350139
     atom    3 type  1   force =     0.00000000    0.03709128   -0.02350138
     atom    4 type  2   force =     0.00000000    0.01270007    0.01510113
     atom    5 type  2   force =     0.00000000    0.01270007   -0.01510113
     atom    6 type  3   force =     0.00000000   -0.01741316   -0.00782106
     atom    7 type  3   force =     0.00000000   -0.01741316    0.00782105
     atom    8 type  3   force =     0.00000000    0.00725159    0.00000000
     atom    9 type  3   force =     0.00000000   -0.03847630   -0.00000000
     The non-local contrib.  to forces
     atom    1 type  1   force =     0.00000000    0.04768108    0.00000000
     atom    2 type  1   force =     0.00000000   -0.05130021   -0.01493080
     atom    3 type  1   force =     0.00000000   -0.05130021    0.01493079
     atom    4 type  2   force =     0.00000000    0.02797671    0.08290980
     atom    5 type  2   force =     0.00000000    0.02797671   -0.08290980
     atom    6 type  3   force =     0.00000000   -0.00610811   -0.00298398
     atom    7 type  3   force =     0.00000000   -0.00610811    0.00298398
     atom    8 type  3   force =     0.00000000    0.00267448    0.00000000
     atom    9 type  3   force =     0.00000000   -0.01769273   -0.00000000
     The ionic contribution  to forces
     atom    1 type  1   force =    -0.00000000    4.39261348    0.00001644
     atom    2 type  1   force =     0.00000000   -2.19540904   -0.92728510
     atom    3 type  1   force =     0.00000000   -2.19559742    0.92730521
     atom    4 type  2   force =    -0.00000000    5.36886458   11.88170443
     atom    5 type  2   force =    -0.00000000    5.36878370  -11.88177890
     atom    6 type  3   force =    -0.00000000    2.44856742   -2.95722185
     atom    7 type  3   force =     0.00000000    2.44848580    2.95729338
     atom    8 type  3   force =     0.00000000   -6.79891165   -0.00006308
     atom    9 type  3   force =    -0.00000000   -8.83739687    0.00002947
     The local contribution  to forces
     atom    1 type  1   force =    -0.00000473   -4.46953023    0.00007413
     atom    2 type  1   force =     0.00000145    2.27938488    0.96479121
     atom    3 type  1   force =    -0.00000578    2.27947738   -0.96501121
     atom    4 type  2   force =     0.00000464   -5.38417489  -11.95093528
     atom    5 type  2   force =     0.00000625   -5.38313393   11.95049087
     atom    6 type  3   force =    -0.00000009   -2.46016620    2.95122656
     atom    7 type  3   force =     0.00001627   -2.46193878   -2.95216684
     atom    8 type  3   force =    -0.00001323    6.80435486    0.00059620
     atom    9 type  3   force =     0.00000932    8.81686435    0.00112248
     The core correction contribution to forces
     atom    1 type  1   force =    -0.00000049   -0.00474546   -0.00000018
     atom    2 type  1   force =     0.00000038    0.00445580    0.00090067
     atom    3 type  1   force =    -0.00000023    0.00445778   -0.00090197
     atom    4 type  2   force =     0.00000000    0.00000000    0.00000000
     atom    5 type  2   force =     0.00000000    0.00000000    0.00000000
     atom    6 type  3   force =     0.00000000    0.00000000    0.00000000
     atom    7 type  3   force =     0.00000000    0.00000000    0.00000000
     atom    8 type  3   force =     0.00000000    0.00000000    0.00000000
     atom    9 type  3   force =     0.00000000    0.00000000    0.00000000
     The Hubbard contrib.    to forces
     atom    1 type  1   force =     0.00000000    0.00000000    0.00000000
     atom    2 type  1   force =     0.00000000    0.00000000    0.00000000
     atom    3 type  1   force =     0.00000000    0.00000000    0.00000000
     atom    4 type  2   force =     0.00000000    0.00000000    0.00000000
     atom    5 type  2   force =     0.00000000    0.00000000    0.00000000
     atom    6 type  3   force =     0.00000000    0.00000000    0.00000000
     atom    7 type  3   force =     0.00000000    0.00000000    0.00000000
     atom    8 type  3   force =     0.00000000    0.00000000    0.00000000
     atom    9 type  3   force =     0.00000000    0.00000000    0.00000000
     The SCF correction term to forces
     atom    1 type  1   force =     0.00000406    0.00038434   -0.00008845
     atom    2 type  1   force =    -0.00000114   -0.00011969    0.00001737
     atom    3 type  1   force =     0.00000320    0.00000301    0.00016776
     atom    4 type  2   force =    -0.00000462    0.00004318    0.00146540
     atom    5 type  2   force =    -0.00000629   -0.00106621   -0.00086006
     atom    6 type  3   force =     0.00000224    0.00019696    0.00116529
     atom    7 type  3   force =    -0.00001731    0.00211442   -0.00028239
     atom    8 type  3   force =     0.00001446   -0.00093124   -0.00055810
     atom    9 type  3   force =    -0.00000963   -0.00031619   -0.00118482

     Total force =     0.089560     Total SCF correction =     0.003585

     Computing stress (Cartesian axis) and pressure

     negative rho (up, down):  1.331E-01 0.000E+00
          total   stress  (Ry/bohr**3)                   (kbar)     P=     -514.11
  -0.00502614   0.00000000   0.00000000         -739.37        0.00        0.00
   0.00000000  -0.00271410  -0.00000000            0.00     -399.26       -0.00
   0.00000000  -0.00000000  -0.00274428            0.00       -0.00     -403.70

     kinetic stress (kbar)  35849.26      0.00      0.00
                                0.00  36600.88      0.00
                                0.00      0.00  36476.52

     local   stress (kbar)  -6334.54      0.00     -0.00
                                0.00 -11757.45      0.13
                               -0.00      0.13 -17534.45

     nonloc. stress (kbar)   6634.98      0.00      0.00
                                0.00   6885.60      0.00
                                0.00      0.00   6880.34

     hartree stress (kbar)  26431.56     -0.00      0.00
                               -0.00  28194.99     -0.14
                                0.00     -0.14  30915.84

     exc-cor stress (kbar)  -4122.56      0.00     -0.00
                                0.00  -4113.50      0.00
                               -0.00      0.00  -4114.17

     corecor stress (kbar)  -4180.53      0.00      0.00
                                0.00  -4190.05     -0.00
                                0.00     -0.00  -4189.90

     ewald   stress (kbar) -55017.55     -0.00      0.00
                               -0.00 -52019.74     -0.00
                                0.00     -0.00 -48837.87

     hubbard stress (kbar)      0.00      0.00      0.00
                                0.00      0.00      0.00
                                0.00      0.00      0.00

     DFT-D   stress (kbar)      0.00      0.00      0.00
                                0.00      0.00      0.00
                                0.00      0.00      0.00

     XDM     stress (kbar)      0.00      0.00      0.00
                                0.00      0.00      0.00
                                0.00      0.00      0.00

     dft-nl  stress (kbar)      0.00      0.00      0.00
                                0.00      0.00      0.00
                                0.00      0.00      0.00

     TS-vdW  stress (kbar)      0.00      0.00      0.00
                                0.00      0.00      0.00
                                0.00      0.00      0.00

[...]

                                0.00      0.00      0.00

     Writing all to output data dir new_calculations/myprefix.save/

     General routines

     Parallel routines

   This run was terminated on:   8:55:52  20May2023

   JOB DONE.