     Program PWSCF v.7.1 starts on 16Jul2023 at 16:53:49

     Reading input from espresso_12953.pwi
Warning: card &CELL ignored
Warning: card / ignored

     Current dimensions of program PWSCF are:
     Max number of different atomic species (ntypx) = 10
     Max number of k-points (npk) =  40000
     Max angular momentum in pseudopotentials (lmaxx) =  4
     file Cu.paw.z_11.ld1.psl.v1.0.0-low.upf: wavefunction(s)  4S 3D renormalized
     file O.pbe-n-kjpaw_psl.0.1.UPF: wavefunction(s)  2P renormalized

     K-points division:     npool     =       2
     R & G space division:  proc/nbgrp/npool/nimage =       4
     Subspace diagonalization in iterative solution of the eigenvalue problem:
     a serial algorithm will be used

     Using Slab Decomposition

     bravais-lattice index     =            0
     lattice parameter (alat)  =      12.5976  a.u.
     unit-cell volume          =    1077.1642 (a.u.)^3
     number of atoms/cell      =           12
     number of atomic types    =            4
     number of electrons       =        98.00
     number of Kohn-Sham states=           59
     kinetic-energy cutoff     =      30.0000  Ry
     charge density cutoff     =     240.0000  Ry
     scf convergence threshold =      1.0E-06
     mixing beta               =       0.7000
     number of iterations used =            8  plain     mixing
     Exchange-correlation= SLA  PW   PBX  PBC
                           (   1   4   3   4   0   0   0)

     celldm(1)=  12.597600  celldm(2)=   0.000000  celldm(3)=   0.000000
     celldm(4)=   0.000000  celldm(5)=   0.000000  celldm(6)=   0.000000

     crystal axes: (cart. coord. in units of alat)
               a(1) = (   1.000000   0.000000   0.000000 )
               a(2) = (   0.831730   0.555180   0.000000 )
               a(3) = (   0.252863   0.076640   0.970475 )

     reciprocal axes: (cart. coord. in units 2 pi/alat)
               b(1) = (  1.000000 -1.498125 -0.142246 )
               b(2) = (  0.000000  1.801216 -0.142246 )
               b(3) = (  0.000000  0.000000  1.030424 )

     PseudoPot. # 1 for Sr read from file:
     /lustre07/scratch/pragov/crystal_structure_design/utils/SSSP/Sr_pbe_v1.uspp.F.UPF
     MD5 check sum: 6b418c05fbe9db5448babca5e47b7a5b
     Pseudo is Ultrasoft + core correction, Zval = 10.0
     Generated by new atomic code, or converted to UPF format
     Using radial grid of  883 points,  6 beta functions with:
                l(1) =   0
                l(2) =   0
                l(3) =   1
                l(4) =   1
                l(5) =   2
                l(6) =   2
     Q(r) pseudized with  6 coefficients,  rinner =    1.400   1.400   1.400
                                                       1.400   1.400

     PseudoPot. # 2 for Ca read from file:
     /lustre07/scratch/pragov/crystal_structure_design/utils/SSSP/Ca_pbe_v1.uspp.F.UPF
     MD5 check sum: 403a4c14b9e4d4dfdc3024c9a3812218
     Pseudo is Ultrasoft + core correction, Zval = 10.0
     Generated by new atomic code, or converted to UPF format
     Using radial grid of  845 points,  6 beta functions with:
                l(1) =   0
                l(2) =   0
                l(3) =   1
                l(4) =   1
                l(5) =   2
                l(6) =   2
     Q(r) pseudized with  8 coefficients,  rinner =    1.500   1.500   1.500
                                                       1.500   1.500

     PseudoPot. # 3 for Cu read from file:
     /lustre07/scratch/pragov/crystal_structure_design/utils/SSSP/Cu.paw.z_11.ld1.psl.v1.0.0-low.upf
     MD5 check sum: 619f40885d92a09a85a8b37550532d0c
     Pseudo is Projector augmented-wave + core cor, Zval = 11.0
     Generated using &quot;atomic&quot; code by A. Dal Corso  v.6.3MaX
     Shape of augmentation charge: PSQ
     Using radial grid of 1199 points,  6 beta functions with:
                l(1) =   0
                l(2) =   0
                l(3) =   1
                l(4) =   1
                l(5) =   2
                l(6) =   2
     Q(r) pseudized with 0 coefficients

     PseudoPot. # 4 for O  read from file:
     /lustre07/scratch/pragov/crystal_structure_design/utils/SSSP/O.pbe-n-kjpaw_psl.0.1.UPF
     MD5 check sum: 0234752ac141de4415c5fc33072bef88
     Pseudo is Projector augmented-wave + core cor, Zval =  6.0
     Generated using "atomic" code by A. Dal Corso  v.5.0.99 svn rev. 10869
     Shape of augmentation charge: BESSEL
     Using radial grid of 1095 points,  4 beta functions with:
                l(1) =   0
                l(2) =   0
                l(3) =   1
                l(4) =   1
     Q(r) pseudized with 0 coefficients

     atomic species   valence    mass     pseudopotential
        Sr            10.00    87.62000     Sr( 1.00)
        Ca            10.00    40.07800     Ca( 1.00)
        Cu            11.00    63.54600     Cu( 1.00)
        O              6.00    15.99900     O ( 1.00)

     No symmetry found

                                    s                        frac. trans.

      isym =  1     identity

 cryst.   s( 1) = (     1          0          0      )
                  (     0          1          0      )
                  (     0          0          1      )

 cart.    s( 1) = (  1.0000000 -0.0000000  0.0000000 )
                  (  0.0000000  1.0000000  0.0000000 )
                  (  0.0000000  0.0000000  1.0000000 )

   Cartesian axes

     site n.     atom                  positions (alat units)
         1           Sr  tau(   1) = (   0.3173090   0.0961734   0.1703542  )
         2           Ca  tau(   2) = (   0.4431483   0.1343142   0.6556819  )
         3           Ca  tau(   3) = (   1.7685927   0.5360442   0.7972576  )
         4           Ca  tau(   4) = (   1.6429279   0.4979563   0.3170075  )
         5           Cu  tau(   5) = (   1.1690837   0.3543385   0.9663726  )
         6           Cu  tau(   6) = (   1.0417249   0.3157372   0.4893435  )
         7           O   tau(   7) = (   0.7684065   0.2328969   0.5626657  )
         8           O   tau(   8) = (   0.6510921   0.1973400   0.0758902  )
         9           O   tau(   9) = (   1.3187059   0.3996876   0.4168830  )
        10           O   tau(  10) = (   1.4397728   0.4363819   0.8830437  )
        11           O   tau(  11) = (   1.9537605   0.5921668   0.4928546  )
        12           O   tau(  12) = (   2.0776247   0.6297089   0.9659688  )

   Crystallographic axes

     site n.     atom                  positions (cryst. coord.)
         1           Sr  tau(   1) = (  0.1489970  0.1489970  0.1755370  )
         2           Ca  tau(   2) = (  0.1486610  0.1486610  0.6756300  )
         3           Ca  tau(   3) = (  0.8521250  0.8521250  0.8215130  )
         4           Ca  tau(   4) = (  0.8518340  0.8518340  0.3266520  )
         5           Cu  tau(   5) = (  0.5007780  0.5007780  0.9957730  )
         6           Cu  tau(   6) = (  0.4991040  0.4991040  0.5042310  )
         7           O   tau(   7) = (  0.3394610  0.3394610  0.5797840  )
         8           O   tau(   8) = (  0.3446570  0.3446570  0.0781990  )
         9           O   tau(   9) = (  0.6606240  0.6606240  0.4295660  )
        10           O   tau(  10) = (  0.6604090  0.6604090  0.9099090  )
        11           O   tau(  11) = (  0.9965140  0.9965140  0.5078490  )
        12           O   tau(  12) = (  0.9968370  0.9968370  0.9953570  )

     number of k points=    14  Gaussian smearing, width (Ry)=  0.0010
                       cart. coord. in units 2pi/alat
        k(    1) = (   0.0000000   0.0000000   0.0000000), wk =   0.0740741
        k(    2) = (   0.0000000   0.0000000   0.3434745), wk =   0.1481481
        k(    3) = (   0.0000000   0.6004054  -0.0474152), wk =   0.1481481
        k(    4) = (   0.0000000   0.6004054   0.2960593), wk =   0.1481481
        k(    5) = (   0.0000000   0.6004054  -0.3908897), wk =   0.1481481
        k(    6) = (   0.3333333  -0.4993751  -0.0474152), wk =   0.1481481
        k(    7) = (   0.3333333  -0.4993751   0.2960593), wk =   0.1481481
        k(    8) = (   0.3333333  -0.4993751  -0.3908897), wk =   0.1481481
        k(    9) = (   0.3333333   0.1010303  -0.0948304), wk =   0.1481481
        k(   10) = (   0.3333333   0.1010303   0.2486441), wk =   0.1481481
        k(   11) = (   0.3333333   0.1010303  -0.4383049), wk =   0.1481481
        k(   12) = (   0.3333333  -1.0997805   0.0000000), wk =   0.1481481
        k(   13) = (   0.3333333  -1.0997805   0.3434745), wk =   0.1481481
        k(   14) = (   0.3333333  -1.0997805  -0.3434745), wk =   0.1481481

                       cryst. coord.
        k(    1) = (   0.0000000   0.0000000   0.0000000), wk =   0.0740741
        k(    2) = (   0.0000000   0.0000000   0.3333333), wk =   0.1481481
        k(    3) = (   0.0000000   0.3333333  -0.0000000), wk =   0.1481481
        k(    4) = (   0.0000000   0.3333333   0.3333333), wk =   0.1481481
        k(    5) = (   0.0000000   0.3333333  -0.3333333), wk =   0.1481481
        k(    6) = (   0.3333333   0.0000000   0.0000000), wk =   0.1481481
        k(    7) = (   0.3333333   0.0000000   0.3333333), wk =   0.1481481
        k(    8) = (   0.3333333   0.0000000  -0.3333333), wk =   0.1481481
        k(    9) = (   0.3333333   0.3333333   0.0000000), wk =   0.1481481
        k(   10) = (   0.3333333   0.3333333   0.3333333), wk =   0.1481481
        k(   11) = (   0.3333333   0.3333333  -0.3333333), wk =   0.1481481
        k(   12) = (   0.3333333  -0.3333333   0.0000000), wk =   0.1481481
        k(   13) = (   0.3333333  -0.3333333   0.3333333), wk =   0.1481481
        k(   14) = (   0.3333333  -0.3333333  -0.3333333), wk =   0.1481481

     Check: negative core charge=   -0.000011

     Initial potential from superposition of free atoms

     starting charge      97.9495, renormalised to      98.0000

     negative rho (up, down):  6.348E-02 0.000E+00
     Starting wfcs are   85 randomized atomic wfcs
     Checking if some PAW data can be deallocated...

     Self-consistent Calculation

     iteration #  1     ecut=    30.00 Ry     beta= 0.70
     Davidson diagonalization with overlap

     ethr =  1.00E-02,  avg # of iterations =  2.0

     negative rho (up, down):  6.499E-02 0.000E+00

     total energy              =    -969.38484448 Ry
     estimated scf accuracy    <       3.82646204 Ry

[...]

     total energy              =    -971.72115666 Ry
     estimated scf accuracy    <       0.00000401 Ry

     iteration # 15     ecut=    30.00 Ry     beta= 0.70
     Davidson diagonalization with overlap

     ethr =  4.10E-09,  avg # of iterations =  1.7

     negative rho (up, down):  6.701E-02 0.000E+00

     End of self-consistent calculation

          k = 0.0000 0.0000 0.0000 (  2987 PWs)   bands (ev):

   -30.1670 -30.0552 -29.9782 -24.0574 -11.6968 -11.5244 -11.4053 -11.1664
   -11.1286 -11.0569 -11.0467 -11.0068 -10.9529  -8.9936  -8.7544  -8.1716
    -7.8032  -7.6939  -7.4744  -6.0678  -5.8016  -5.6418   4.4573   4.6066
     4.6630   4.7043   4.8155   5.1103   5.3276   5.3973   5.5461   5.7960
     6.0337   6.0827   6.1717   6.3013   6.3941   6.5518   6.9445   7.0549
     7.3696   7.3976   7.4190   7.5231   7.6758   7.7369   7.7418   7.9611
     8.1020   8.4054  11.2682  12.7381  13.0477  13.1060  14.6165  14.6718
    14.7949  14.9963  15.0308

     occupation numbers
     1.0000   1.0000   1.0000   1.0000   1.0000   1.0000   1.0000   1.0000
     1.0000   1.0000   1.0000   1.0000   1.0000   1.0000   1.0000   1.0000
     1.0000   1.0000   1.0000   1.0000   1.0000   1.0000   1.0000   1.0000
     1.0000   1.0000   1.0000   1.0000   1.0000   1.0000   1.0000   1.0000
     1.0000   1.0000   1.0000   1.0000   1.0000   1.0000   1.0000   1.0000
     1.0000   1.0000   1.0000   1.0000   1.0000   1.0000   1.0000   1.0000
     1.0000   1.0000   0.0000   0.0000   0.0000   0.0000   0.0000   0.0000
     0.0000   0.0000   0.0000

[...]

          k = 0.3333-1.0998-0.3435 (  2988 PWs)   bands (ev):

   -30.1588 -30.0506 -29.9749 -24.0396 -11.5093 -11.4640 -11.3891 -11.3117
   -11.2259 -11.1623 -11.1021 -11.0542 -11.0362  -8.6901  -8.5601  -8.1004
    -7.9506  -7.7153  -7.5601  -5.9819  -5.8471  -5.7778   3.1193   3.2620
     4.3808   4.5083   4.6555   4.7299   4.8523   5.2253   5.5164   5.8307
     5.9166   6.0430   6.1940   6.3477   6.5173   6.7324   6.9292   7.0002
     7.4290   7.5038   7.6425   7.7192   7.8079   7.8488   7.9322   8.0814
     9.9683  10.0020  11.9812  13.1431  13.7529  14.0659  14.4211  14.6200
    15.0232  15.2220  15.3374

     occupation numbers
     1.0000   1.0000   1.0000   1.0000   1.0000   1.0000   1.0000   1.0000
     1.0000   1.0000   1.0000   1.0000   1.0000   1.0000   1.0000   1.0000
     1.0000   1.0000   1.0000   1.0000   1.0000   1.0000   1.0000   1.0000
     1.0000   1.0000   1.0000   1.0000   1.0000   1.0000   1.0000   1.0000
     1.0000   1.0000   1.0000   1.0000   1.0000   1.0000   1.0000   1.0000
     1.0000   1.0000   1.0000   1.0000   1.0000   1.0000   1.0000   1.0000
     0.0000   0.0000   0.0000   0.0000   0.0000   0.0000   0.0000   0.0000
     0.0000   0.0000   0.0000

     the Fermi energy is     9.8830 ev

!    total energy              =    -971.72115677 Ry
     estimated scf accuracy    <       0.00000002 Ry
     smearing contrib. (-TS)   =      -0.00006668 Ry
     internal energy E=F+TS    =    -971.72109010 Ry

     The total energy is F=E-TS. E is the sum of the following terms:
     one-electron contribution =    -215.62591610 Ry
     hartree contribution      =     180.15985717 Ry
     xc contribution           =    -188.24595851 Ry
     ewald contribution        =    -511.16581927 Ry
     one-center paw contrib.   =    -236.84325339 Ry
      -> PAW hartree energy AE =       0.00000000 Ry
      -> PAW hartree energy PS =       0.00000000 Ry
      -> PAW xc energy AE      =       0.00000000 Ry
      -> PAW xc energy PS      =       0.00000000 Ry
      -> total E_H with PAW    =     180.15985717 Ry
      -> total E_XC with PAW   =    -188.24595851 Ry

     convergence has been achieved in  15 iterations

     Writing all to output data dir energy_m/myprefix.save/

     General routines

     Parallel routines

     PAW routines

   This run was terminated on:  16:54: 9  16Jul2023

   JOB DONE.