     Program PWSCF v.7.0 starts on 20May2023 at  7: 1:26

     Reading input from espresso_9199.pwi
Warning: card &CELL ignored
Warning: card / ignored

     Current dimensions of program PWSCF are:
     Max number of different atomic species (ntypx) = 10
     Max number of k-points (npk) =  40000
     Max angular momentum in pseudopotentials (lmaxx) =  4

     gamma-point specific algorithms are used
     Message from routine setup:
     using ibrav=0 with symmetry is DISCOURAGED, use correct ibrav instead

     Subspace diagonalization in iterative solution of the eigenvalue problem:
     a serial algorithm will be used

     Using Slab Decomposition

     bravais-lattice index     =            0
     lattice parameter (alat)  =      13.4519  a.u.
     unit-cell volume          =    1648.1226 (a.u.)^3
     number of atoms/cell      =            8
     number of atomic types    =            2
     number of electrons       =       172.00
     number of Kohn-Sham states=          103
     kinetic-energy cutoff     =      30.0000  Ry
     charge density cutoff     =     240.0000  Ry
     scf convergence threshold =      1.0E-06
     mixing beta               =       0.7000
     number of iterations used =            8  plain     mixing
     Exchange-correlation= SLA PW PBX PBC
                           (   1   4   3   4   0   0   0)

     celldm(1)=  13.451928  celldm(2)=   0.000000  celldm(3)=   0.000000
     celldm(4)=   0.000000  celldm(5)=   0.000000  celldm(6)=   0.000000

     crystal axes: (cart. coord. in units of alat)
               a(1) = (   1.000000   0.000000   0.000000 )
               a(2) = (  -0.500000   0.866025   0.000000 )
               a(3) = (   0.000000   0.000000   0.781817 )

     reciprocal axes: (cart. coord. in units 2 pi/alat)
               b(1) = (  1.000000  0.577350  0.000000 )
               b(2) = (  0.000000  1.154701  0.000000 )
               b(3) = (  0.000000  0.000000  1.279071 )

     PseudoPot. # 1 for Y  read from file:
     /home/pragov/projects/rrg-bengioy-ad/pragov/crystal_structure_design/SSSP/Y_pbe_v1.uspp.F.UPF
     MD5 check sum: 2cf71db95cafeb975fc457bd7f14888e
     Pseudo is Ultrasoft + core correction, Zval = 11.0
     Generated by new atomic code, or converted to UPF format
     Using radial grid of  885 points,  6 beta functions with:
                l(1) =   0
                l(2) =   0
                l(3) =   1
                l(4) =   1
                l(5) =   2
                l(6) =   2
     Q(r) pseudized with  6 coefficients,  rinner =    1.200   1.200   1.200
                                                       1.200   1.200

     PseudoPot. # 2 for Lu read from file:
     /home/pragov/projects/rrg-bengioy-ad/pragov/crystal_structure_design/SSSP/Lu.GGA-PBE-paw-v1.0.UPF
     MD5 check sum: 9ceca61ee0c17e9380a83635bfffa61d
     Pseudo is Projector augmented-wave + core cor, Zval = 25.0
     Generated using ATOMPAW code
     Shape of augmentation charge: BESSEL
     Using radial grid of 1118 points,  8 beta functions with:
                l(1) =   0
                l(2) =   0
                l(3) =   1
                l(4) =   1
                l(5) =   2
                l(6) =   2
                l(7) =   3
                l(8) =   3
     Q(r) pseudized with 0 coefficients

     atomic species   valence    mass     pseudopotential
        Y             11.00    88.90584     Y ( 1.00)
        Lu            25.00   174.96680     Lu( 1.00)

     24 Sym. Ops., with inversion, found (12 have fractional translation)

                                    s                        frac. trans.

      isym =  1     identity

 cryst.   s( 1) = (     1          0          0      )
                  (     0          1          0      )
                  (     0          0          1      )

 cart.    s( 1) = (  1.0000000  0.0000000  0.0000000 )
                  (  0.0000000  1.0000000  0.0000000 )
                  (  0.0000000  0.0000000  1.0000000 )

      isym =  2     180 deg rotation - cart. axis [0,0,1]

 cryst.   s( 2) = (    -1          0          0      )    f =(  0.0000000 )
                  (     0         -1          0      )       (  0.0000000 )
                  (     0          0          1      )       ( -0.5000000 )

 cart.    s( 2) = ( -1.0000000  0.0000000  0.0000000 )    f =(  0.0000000 )
                  (  0.0000000 -1.0000000  0.0000000 )       (  0.0000000 )
                  (  0.0000000  0.0000000  1.0000000 )       ( -0.3909086 )

[...]

      isym =  4     180 deg rotation - cart. axis [1,0,0]

[...]

      isym =  5      60 deg rotation - cryst. axis [0,0,1]

[...]

 cryst.   s( 8) = (    -1         -1          0      )
                  (     1          0          0      )
                  (     0          0          1      )

 cart.    s( 8) = ( -0.5000000  0.8660254  0.0000000 )
                  ( -0.8660254 -0.5000000  0.0000000 )
                  (  0.0000000  0.0000000  1.0000000 )

[...]

 cryst.   s( 9) = (     0         -1          0      )    f =(  0.0000000 )
                  (    -1          0          0      )       (  0.0000000 )
                  (     0          0         -1      )       ( -0.5000000 )

 cart.    s( 9) = (  0.5000000 -0.8660254  0.0000000 )    f =(  0.0000000 )
                  ( -0.8660254 -0.5000000  0.0000000 )       (  0.0000000 )
                  (  0.0000000  0.0000000 -1.0000000 )       ( -0.3909086 )

[...]

 cryst.   s(10) = (     1          1          0      )    f =(  0.0000000 )
                  (     0         -1          0      )       ( -0.0000010 )
                  (     0          0         -1      )       ( -0.5000000 )

 cart.    s(10) = (  0.5000000  0.8660254  0.0000000 )    f =(  0.0000005 )
                  (  0.8660254 -0.5000000  0.0000000 )       ( -0.0000009 )
                  (  0.0000000  0.0000000 -1.0000000 )       ( -0.3909086 )

[...]

 cryst.   s(11) = (    -1         -1          0      )
                  (     0          1          0      )
                  (     0          0         -1      )

 cart.    s(11) = ( -0.5000000 -0.8660254  0.0000000 )
                  ( -0.8660254  0.5000000  0.0000000 )
                  (  0.0000000  0.0000000 -1.0000000 )

      isym = 12     180 deg rotation - cryst. axis [1,1,0]

[...]

      isym = 13     inversion

[...]

      isym = 14     inv. 180 deg rotation - cart. axis [0,0,1]

[...]

      isym = 16     inv. 180 deg rotation - cart. axis [1,0,0]

[...]

      isym = 17     inv.  60 deg rotation - cryst. axis [0,0,1]

[...]

 cryst.   s(22) = (    -1         -1          0      )    f =(  0.0000000 )
                  (     0          1          0      )       ( -0.0000010 )
                  (     0          0          1      )       ( -0.5000000 )

 cart.    s(22) = ( -0.5000000 -0.8660254  0.0000000 )    f =(  0.0000005 )
                  ( -0.8660254  0.5000000  0.0000000 )       ( -0.0000009 )
                  (  0.0000000  0.0000000  1.0000000 )       ( -0.3909086 )

[...]

      isym = 24     inv. 180 deg rotation - cryst. axis [1,1,0]

 cryst.   s(24) = (     0         -1          0      )
                  (    -1          0          0      )
                  (     0          0          1      )

 cart.    s(24) = (  0.5000000 -0.8660254  0.0000000 )
                  ( -0.8660254 -0.5000000  0.0000000 )
                  (  0.0000000  0.0000000  1.0000000 )

   Cartesian axes

     site n.     atom                  positions (alat units)
         1           Y   tau(   1) = (  -0.0000005   0.5773506   0.5863629  )
         2           Y   tau(   2) = (   0.5000005   0.2886748   0.1954543  )
         3           Lu  tau(   3) = (   0.0000005   0.2861824   0.1954543  )
         4           Lu  tau(   4) = (   0.2521590   0.7229338   0.1954543  )
         5           Lu  tau(   5) = (  -0.2521580   0.7229338   0.1954543  )
         6           Lu  tau(   6) = (   0.4999995   0.5798430   0.5863629  )
         7           Lu  tau(   7) = (   0.2478410   0.1430916   0.5863629  )
         8           Lu  tau(   8) = (   0.7521580   0.1430916   0.5863629  )

   Crystallographic axes

     site n.     atom                  positions (cryst. coord.)
         1           Y   tau(   1) = (  0.3333330  0.6666670  0.7500000  )
         2           Y   tau(   2) = (  0.6666670  0.3333330  0.2500000  )
         3           Lu  tau(   3) = (  0.1652280  0.3304550  0.2500000  )
         4           Lu  tau(   4) = (  0.6695450  0.8347720  0.2500000  )
         5           Lu  tau(   5) = (  0.1652280  0.8347720  0.2500000  )
         6           Lu  tau(   6) = (  0.8347720  0.6695450  0.7500000  )
         7           Lu  tau(   7) = (  0.3304550  0.1652280  0.7500000  )
         8           Lu  tau(   8) = (  0.8347720  0.1652280  0.7500000  )

     number of k points=     1  Methfessel-Paxton smearing, width (Ry)=  0.0010
                       cart. coord. in units 2pi/alat
        k(    1) = (   0.0000000   0.0000000   0.0000000), wk =   2.0000000

                       cryst. coord.
        k(    1) = (   0.0000000   0.0000000   0.0000000), wk =   2.0000000

     Check: negative core charge=   -0.000003

     Initial potential from superposition of free atoms

     starting charge     171.9684, renormalised to     172.0000

     negative rho (up, down):  8.920E-02 0.000E+00
     Starting wfcs are  218 randomized atomic wfcs
     Checking if some PAW data can be deallocated...

     Self-consistent Calculation

     iteration #  1     ecut=    30.00 Ry     beta= 0.70
     Davidson diagonalization with overlap

     ethr =  1.00E-02,  avg # of iterations =  2.0

     Threshold (ethr) on eigenvalues was too large:
     Diagonalizing with lowered threshold

     Davidson diagonalization with overlap

[...]

     negative rho (up, down):  8.715E-02 0.000E+00

     total energy              =   -6656.13234469 Ry
     estimated scf accuracy    <       0.18375463 Ry

[...]

     ethr =  1.07E-04,  avg # of iterations =  5.0
     Minimization algorithm failed to find Fermi energy: reverting to bisection
     Possible cause: smearing is larger than the electronic band-gap.

[...]

     total energy              =   -6656.21522379 Ry
     estimated scf accuracy    <       0.00000203 Ry

     iteration # 16     ecut=    30.00 Ry     beta= 0.70
     Davidson diagonalization with overlap

     ethr =  1.18E-09,  avg # of iterations =  2.0

[...]

     End of self-consistent calculation

          k = 0.0000 0.0000 0.0000 (  2281 PWs)   bands (ev):

   -43.5355 -43.5211 -43.5210 -43.5156 -43.5112 -43.5112 -29.7219 -29.7214
   -14.4327 -14.3169 -14.3169 -14.2777 -14.2336 -14.2336 -14.1975 -14.1964
   -14.1963 -14.1599 -14.1598 -14.1519 -14.1078 -14.0306 -13.9946 -13.9946
   -13.9903 -13.9903  -9.7567  -9.7525  -9.7267  -9.7266  -9.7226  -9.7226
     7.0834   7.8093   7.8165   7.8166   7.8207   7.8207   7.8211   7.8351
     7.8352   7.8352   7.8429   7.8511   7.8512   7.8536   7.8554   7.8633
     7.8633   7.8691   7.8691   7.8693   7.8730   7.8731   7.8733   7.8761
     7.8762   7.8798   7.8807   7.8857   7.8858   7.8861   7.8911   7.8912
     7.9025   7.9027   7.9028   7.9051   7.9051   7.9201   7.9201   7.9246
     7.9247   7.9330   7.9423  10.3426  10.3426  10.4562  11.0544  11.4206
    11.4207  11.6473  11.8676  11.8676  12.0538  12.3922  12.3996  12.3996
    13.4011  14.0566  14.0566  14.4739  14.4843  14.4844  14.5207  14.8250
    14.8250  15.0207  15.0985  15.0986  15.1678  15.5327  15.5327

     occupation numbers
     1.0000   1.0000   1.0000   1.0000   1.0000   1.0000   1.0000   1.0000
     1.0000   1.0000   1.0000   1.0000   1.0000   1.0000   1.0000   1.0000
     1.0000   1.0000   1.0000   1.0000   1.0000   1.0000   1.0000   1.0000
     1.0000   1.0000   1.0000   1.0000   1.0000   1.0000   1.0000   1.0000
     1.0000   1.0000   1.0000   1.0000   1.0000   1.0000   1.0000   1.0000
     1.0000   1.0000   1.0000   1.0000   1.0000   1.0000   1.0000   1.0000
     1.0000   1.0000   1.0000   1.0000   1.0000   1.0000   1.0000   1.0000
     1.0000   1.0000   1.0000   1.0000   1.0000   1.0000   1.0000   1.0000
     1.0000   1.0000   1.0000   1.0000   1.0000   1.0000   1.0000   1.0000
     1.0000   1.0000   1.0000   1.0000   1.0000   1.0000   1.0000   1.0000
     1.0000   1.0000   1.0000   1.0000   1.0000   0.6189   0.1911   0.1900
    -0.0000  -0.0000  -0.0000  -0.0000  -0.0000  -0.0000  -0.0000  -0.0000
    -0.0000  -0.0000  -0.0000  -0.0000  -0.0000  -0.0000  -0.0000

     the Fermi energy is    12.3942 ev

!    total energy              =   -6656.21522373 Ry
     estimated scf accuracy    <       0.00000017 Ry
     smearing contrib. (-TS)   =      -0.00059367 Ry
     internal energy E=F+TS    =   -6656.21463006 Ry

     The total energy is F=E-TS. E is the sum of the following terms:
     one-electron contribution =   -2773.17279036 Ry
     hartree contribution      =    1228.44240711 Ry
     xc contribution           =    -291.72571513 Ry
     ewald contribution        =   -1874.43669919 Ry
     one-center paw contrib.   =   -2945.32183249 Ry
      -> PAW hartree energy AE =    2947.41241576 Ry
      -> PAW hartree energy PS =   -2536.79539136 Ry
      -> PAW xc energy AE      =   -3595.94570988 Ry
      -> PAW xc energy PS      =     240.00685299 Ry
      -> total E_H with PAW    =    1639.05943151 Ry
      -> total E_XC with PAW   =   -3647.66457203 Ry

     convergence has been achieved in  16 iterations

     negative rho (up, down):  8.787E-02 0.000E+00

     Forces acting on atoms (cartesian axes, Ry/au):

     atom    1 type  1   force =     0.00000000    0.00000000    0.00000000
     atom    2 type  1   force =     0.00000000    0.00000000    0.00000000
     atom    3 type  2   force =     0.00000000   -0.00225399   -0.00000000
     atom    4 type  2   force =     0.00195201    0.00112699    0.00000000
     atom    5 type  2   force =    -0.00195201    0.00112699    0.00000000
     atom    6 type  2   force =    -0.00000000    0.00225399    0.00000000
     atom    7 type  2   force =    -0.00195201   -0.00112699   -0.00000000
     atom    8 type  2   force =     0.00195201   -0.00112699   -0.00000000
     The non-local contrib.  to forces
     atom    1 type  1   force =    -0.00000000   -0.00000000    0.00000000
     atom    2 type  1   force =     0.00000000    0.00000000    0.00000000
     atom    3 type  2   force =    -0.00000000    0.02789086    0.00000000
     atom    4 type  2   force =    -0.02415420   -0.01394543   -0.00000000
     atom    5 type  2   force =     0.02415420   -0.01394543   -0.00000000
     atom    6 type  2   force =     0.00000000   -0.02789086    0.00000000
     atom    7 type  2   force =     0.02415420    0.01394543    0.00000000
     atom    8 type  2   force =    -0.02415420    0.01394543    0.00000000
     The ionic contribution  to forces
     atom    1 type  1   force =     0.00000292   -0.00000168   -0.00000000
     atom    2 type  1   force =    -0.00000292    0.00000169    0.00000000
     atom    3 type  2   force =    -0.00006212   13.41522477    0.00000000
     atom    4 type  2   force =   -11.61795651   -6.70755859    0.00000000
     atom    5 type  2   force =    11.61792902   -6.70761445    0.00000000
     atom    6 type  2   force =     0.00006212  -13.41522477   -0.00000000
     atom    7 type  2   force =    11.61795651    6.70755859   -0.00000000
     atom    8 type  2   force =   -11.61792902    6.70761445   -0.00000000
     The local contribution  to forces
     atom    1 type  1   force =     0.00008559    0.00002970   -0.00010929
     atom    2 type  1   force =     0.00011061   -0.00026323    0.00010449
     atom    3 type  2   force =    -0.00035983  -13.44461565    0.00028085
     atom    4 type  2   force =    11.64301514    6.72245056    0.00027245
     atom    5 type  2   force =   -11.64298433    6.72200994    0.00029597
     atom    6 type  2   force =    -0.00000830   13.44480278   -0.00025833
     atom    7 type  2   force =   -11.64364967   -6.72199366   -0.00028592
     atom    8 type  2   force =    11.64364350   -6.72203505   -0.00027761
     The core correction contribution to forces
     atom    1 type  1   force =     0.00001059    0.00001659    0.00000034
     atom    2 type  1   force =    -0.00000876   -0.00001770   -0.00000043
     atom    3 type  2   force =    -0.00000000   -0.00000039    0.00000000
     atom    4 type  2   force =     0.00000033    0.00000019    0.00000000
     atom    5 type  2   force =    -0.00000033    0.00000019    0.00000000
     atom    6 type  2   force =    -0.00000000    0.00000039   -0.00000000
     atom    7 type  2   force =    -0.00000033   -0.00000019   -0.00000000
     atom    8 type  2   force =     0.00000033   -0.00000019   -0.00000000
     The Hubbard contrib.    to forces
     atom    1 type  1   force =     0.00000000    0.00000000    0.00000000
     atom    2 type  1   force =     0.00000000    0.00000000    0.00000000
     atom    3 type  2   force =     0.00000000    0.00000000    0.00000000
     atom    4 type  2   force =     0.00000000    0.00000000    0.00000000
     atom    5 type  2   force =     0.00000000    0.00000000    0.00000000
     atom    6 type  2   force =     0.00000000    0.00000000    0.00000000
     atom    7 type  2   force =     0.00000000    0.00000000    0.00000000
     atom    8 type  2   force =     0.00000000    0.00000000    0.00000000
     The SCF correction term to forces
     atom    1 type  1   force =     0.00001809    0.00014441    0.00010995
     atom    2 type  1   force =    -0.00019560    0.00007589   -0.00010545
     atom    3 type  2   force =     0.00042103   -0.00078654   -0.00030191
     atom    4 type  2   force =     0.00103596    0.00016588   -0.00028873
     atom    5 type  2   force =    -0.00106602    0.00072332   -0.00031260
     atom    6 type  2   force =    -0.00010571    0.00055762    0.00027535
     atom    7 type  2   force =    -0.00036710   -0.00063312    0.00031131
     atom    8 type  2   force =     0.00033177   -0.00075028    0.00029789

     Total force =     0.005521     Total SCF correction =     0.002389
     SCF correction compared to forces is large: reduce conv_thr to get better values

     Computing stress (Cartesian axis) and pressure

     negative rho (up, down):  8.787E-02 0.000E+00
          total   stress  (Ry/bohr**3)                   (kbar)     P=     -102.19
  -0.00073309   0.00000000   0.00000000         -107.84        0.00        0.00
   0.00000000  -0.00073309   0.00000000            0.00     -107.84        0.00
   0.00000000  -0.00000000  -0.00061791            0.00       -0.00      -90.90

     kinetic stress (kbar)  11898.34      0.00     -0.00
                                0.00  11898.34      0.00
                                0.00      0.00  11777.83

     local   stress (kbar)  -1241.61     -0.05      0.00
                               -0.05  -1241.04     -0.00
                                0.00     -0.00  -8788.17

     nonloc. stress (kbar)  18907.92     -0.00      0.00
                               -0.00  18907.92      0.00
                                0.00      0.00  18828.58

     hartree stress (kbar)  35493.84      0.07     -0.00
                                0.07  35493.39      0.00
                               -0.00      0.00  38658.80

     exc-cor stress (kbar)  -5671.06     -0.00     -0.00
                               -0.00  -5671.06      0.00
                               -0.00      0.00  -5672.42

     corecor stress (kbar)  -2193.90      0.00     -0.00
                                0.00  -2193.90      0.00
                               -0.00      0.00  -2193.40

     ewald   stress (kbar) -57301.42     -0.03     -0.00
                               -0.03 -57301.46     -0.00
                               -0.00     -0.00 -52702.13

     hubbard stress (kbar)      0.00      0.00      0.00
                                0.00      0.00      0.00
                                0.00      0.00      0.00

     DFT-D   stress (kbar)      0.00      0.00      0.00
                                0.00      0.00      0.00
                                0.00      0.00      0.00

     XDM     stress (kbar)      0.00      0.00      0.00
                                0.00      0.00      0.00
                                0.00      0.00      0.00

     dft-nl  stress (kbar)      0.00      0.00      0.00
                                0.00      0.00      0.00
                                0.00      0.00      0.00

     TS-vdW  stress (kbar)      0.00      0.00      0.00
                                0.00      0.00      0.00
                                0.00      0.00      0.00

[...]

                                0.00      0.00      0.00

     Writing all to output data dir new_calculations/myprefix.save/

     General routines

     Parallel routines

     PAW routines

   This run was terminated on:   7: 2:51  20May2023

   JOB DONE.