     Program PWSCF v.7.0 starts on 21May2023 at  4: 0:42

     Reading input from espresso_23355.pwi
Warning: card &CELL ignored
Warning: card / ignored

     Current dimensions of program PWSCF are:
     Max number of different atomic species (ntypx) = 10
     Max number of k-points (npk) =  40000
     Max angular momentum in pseudopotentials (lmaxx) =  4
     file Ba.pbe-spn-kjpaw_psl.1.0.0.UPF: wavefunction(s)  5S 6S renormalized
     file Al.pbe-n-kjpaw_psl.1.0.0.UPF: wavefunction(s)  3S 3P renormalized
     file Pb.pbe-dn-kjpaw_psl.0.2.2.UPF: wavefunction(s)  6S renormalized

     gamma-point specific algorithms are used
     Message from routine setup:
     using ibrav=0 with symmetry is DISCOURAGED, use correct ibrav instead

     Subspace diagonalization in iterative solution of the eigenvalue problem:
     a serial algorithm will be used

     Using Slab Decomposition

     bravais-lattice index     =            0
     lattice parameter (alat)  =      11.5613  a.u.
     unit-cell volume          =    2455.1295 (a.u.)^3
     number of atoms/cell      =           11
     number of atomic types    =            3
     number of electrons       =        79.00
     number of Kohn-Sham states=           48
     kinetic-energy cutoff     =      30.0000  Ry
     charge density cutoff     =     240.0000  Ry
     scf convergence threshold =      1.0E-06
     mixing beta               =       0.7000
     number of iterations used =            8  plain     mixing
     Exchange-correlation= SLA  PW   PBX  PBC
                           (   1   4   3   4   0   0   0)

     celldm(1)=  11.561324  celldm(2)=   0.000000  celldm(3)=   0.000000
     celldm(4)=   0.000000  celldm(5)=   0.000000  celldm(6)=   0.000000

     crystal axes: (cart. coord. in units of alat)
               a(1) = (   1.000000   0.000000   0.000000 )
               a(2) = (  -0.500000   0.866025   0.000000 )
               a(3) = (   0.000000   0.000000   1.834514 )

     reciprocal axes: (cart. coord. in units 2 pi/alat)
               b(1) = (  1.000000  0.577350  0.000000 )
               b(2) = (  0.000000  1.154700  0.000000 )
               b(3) = (  0.000000  0.000000  0.545104 )

     PseudoPot. # 1 for Ba read from file:
     /home/pragov/projects/rrg-bengioy-ad/pragov/crystal_structure_design/SSSP/Ba.pbe-spn-kjpaw_psl.1.0.0.UPF
     MD5 check sum: c432291d3e53af55f19d5e8866385beb
     Pseudo is Projector augmented-wave + core cor, Zval = 10.0
     Generated using "atomic" code by A. Dal Corso  v.5.1
     Shape of augmentation charge: PSQ
     Using radial grid of 1251 points,  7 beta functions with:
                l(1) =   0
                l(2) =   0
                l(3) =   0
                l(4) =   1
                l(5) =   1
                l(6) =   2
                l(7) =   2
     Q(r) pseudized with 0 coefficients

     PseudoPot. # 2 for Al read from file:
     /home/pragov/projects/rrg-bengioy-ad/pragov/crystal_structure_design/SSSP/Al.pbe-n-kjpaw_psl.1.0.0.UPF
     MD5 check sum: cfc449ca30b5f3223ec38ddd88ac046d
     Pseudo is Projector augmented-wave + core cor, Zval =  3.0
     Generated using "atomic" code by A. Dal Corso  v.5.1
     Shape of augmentation charge: PSQ
     Using radial grid of 1135 points,  6 beta functions with:
                l(1) =   0
                l(2) =   0
                l(3) =   1
                l(4) =   1
                l(5) =   2
                l(6) =   2
     Q(r) pseudized with 0 coefficients

     PseudoPot. # 3 for Pb read from file:
     /home/pragov/projects/rrg-bengioy-ad/pragov/crystal_structure_design/SSSP/Pb.pbe-dn-kjpaw_psl.0.2.2.UPF
     MD5 check sum: 9d431e6316058b74ade52399a6cf67da
     Pseudo is Projector augmented-wave + core cor, Zval = 14.0
     Generated using "atomic" code by A. Dal Corso  v.5.0.99 svn rev. 10869
     Shape of augmentation charge: PSQ
     Using radial grid of 1281 points,  6 beta functions with:
                l(1) =   0
                l(2) =   0
                l(3) =   1
                l(4) =   1
                l(5) =   2
                l(6) =   2
     Q(r) pseudized with 0 coefficients

     atomic species   valence    mass     pseudopotential
        Ba            10.00   137.32700     Ba( 1.00)
        Al             3.00    26.98154     Al( 1.00)
        Pb            14.00   207.20000     Pb( 1.00)

     12 Sym. Ops. (no inversion) found

                                    s                        frac. trans.

      isym =  1     identity

 cryst.   s( 1) = (     1          0          0      )
                  (     0          1          0      )
                  (     0          0          1      )

 cart.    s( 1) = (  1.0000000 -0.0000000  0.0000000 )
                  (  0.0000000  1.0000000  0.0000000 )
                  (  0.0000000  0.0000000  1.0000000 )

      isym =  2     180 deg rotation - cart. axis [0,1,0]

[...]

      isym =  3     120 deg rotation - cryst. axis [0,0,1]

[...]

      isym =  6     180 deg rotation - cryst. axis [2,1,0]

[...]

      isym =  7     inv. 180 deg rotation - cart. axis [0,0,1]

[...]

      isym =  8     inv. 180 deg rotation - cart. axis [1,0,0]

[...]

      isym =  9     inv.  60 deg rotation - cryst. axis [0,0,1]

 cryst.   s( 9) = (    -1         -1          0      )
                  (     1          0          0      )
                  (     0          0         -1      )

 cart.    s( 9) = ( -0.5000001  0.8660253  0.0000000 )
                  ( -0.8660255 -0.4999999  0.0000000 )
                  (  0.0000000  0.0000000 -1.0000000 )

[...]

 cryst.   s(10) = (     0          1          0      )
                  (    -1         -1          0      )
                  (     0          0         -1      )

 cart.    s(10) = ( -0.4999999 -0.8660253  0.0000000 )
                  (  0.8660255 -0.5000001  0.0000000 )
                  (  0.0000000  0.0000000 -1.0000000 )

[...]

      isym = 12     inv. 180 deg rotation - cryst. axis [1,1,0]

 cryst.   s(12) = (     0         -1          0      )
                  (    -1          0          0      )
                  (     0          0          1      )

 cart.    s(12) = (  0.4999999 -0.8660255  0.0000000 )
                  ( -0.8660255 -0.4999999  0.0000000 )
                  (  0.0000000  0.0000000  1.0000000 )

   Cartesian axes

     site n.     atom                  positions (alat units)
         1           Ba  tau(   1) = (   0.5000005   0.2886749   0.3684694  )
         2           Ba  tau(   2) = (   0.5000005   0.2886749   1.4660444  )
         3           Ba  tau(   3) = (   0.0000000   0.0000000   0.6042118  )
         4           Ba  tau(   4) = (   0.0000000   0.0000000   1.2303020  )
         5           Ba  tau(   5) = (  -0.0000004   0.5773506   0.0000000  )
         6           Al  tau(   6) = (  -0.0000004   0.5773506   0.5930268  )
         7           Al  tau(   7) = (   0.5000000   0.0203741   0.9172569  )
         8           Al  tau(   8) = (   0.2676446   0.4228257   0.9172569  )
         9           Al  tau(   9) = (  -0.0000004   0.5773506   1.2414870  )
        10           Al  tau(  10) = (   0.7323556   0.4228257   0.9172569  )
        11           Pb  tau(  11) = (   0.0000000   0.0000000   0.0000000  )

   Crystallographic axes

     site n.     atom                  positions (cryst. coord.)
         1           Ba  tau(   1) = (  0.6666670  0.3333330  0.2008540  )
         2           Ba  tau(   2) = (  0.6666670  0.3333330  0.7991460  )
         3           Ba  tau(   3) = (  0.0000000  0.0000000  0.3293580  )
         4           Ba  tau(   4) = (  0.0000000  0.0000000  0.6706420  )
         5           Ba  tau(   5) = (  0.3333330  0.6666670  0.0000000  )
         6           Al  tau(   6) = (  0.3333330  0.6666670  0.3232610  )
         7           Al  tau(   7) = (  0.5117630  0.0235260  0.5000000  )
         8           Al  tau(   8) = (  0.5117630  0.4882370  0.5000000  )
         9           Al  tau(   9) = (  0.3333330  0.6666670  0.6767390  )
        10           Al  tau(  10) = (  0.9764740  0.4882370  0.5000000  )
        11           Pb  tau(  11) = (  0.0000000  0.0000000  0.0000000  )

     number of k points=     1  Methfessel-Paxton smearing, width (Ry)=  0.0010
                       cart. coord. in units 2pi/alat
        k(    1) = (   0.0000000   0.0000000   0.0000000), wk =   2.0000000

                       cryst. coord.
        k(    1) = (   0.0000000   0.0000000   0.0000000), wk =   2.0000000

     Initial potential from superposition of free atoms

     starting charge      78.9012, renormalised to      79.0000
     Starting wfcs are   54 randomized atomic wfcs
     Checking if some PAW data can be deallocated...

     Self-consistent Calculation

     iteration #  1     ecut=    30.00 Ry     beta= 0.70
     Davidson diagonalization with overlap

     ethr =  1.00E-02,  avg # of iterations =  5.0

     total energy              =   -3248.73746288 Ry
     estimated scf accuracy    <       1.00154652 Ry

[...]

     total energy              =   -3249.45775861 Ry
     estimated scf accuracy    <       0.00000136 Ry

     iteration # 31     ecut=    30.00 Ry     beta= 0.70
     Davidson diagonalization with overlap

     ethr =  1.72E-09,  avg # of iterations =  2.0

     End of self-consistent calculation

          k = 0.0000 0.0000 0.0000 (  3406 PWs)   bands (ev):

   -21.2376 -21.2296 -20.7056 -20.0826 -20.0419  -8.3741  -8.3467  -8.3467
    -8.3347  -8.3347  -6.5167  -6.5167  -6.5108  -6.4820  -6.4820  -6.4071
    -6.0047  -5.8925  -5.8925  -5.6069  -5.3459  -5.3459  -5.2825  -5.2825
    -5.1535  -0.1877   0.5478   2.7879   4.0474   4.7033   4.7033   5.4677
     6.4236   6.4236   6.4522   6.4522   6.5546   7.0748   7.0748   7.8871
     8.2325   8.2522   8.2523   8.4073   8.4073   9.1530   9.5287  10.0422

     occupation numbers
     1.0000   1.0000   1.0000   1.0000   1.0000   1.0000   1.0000   1.0000
     1.0000   1.0000   1.0000   1.0000   1.0000   1.0000   1.0000   1.0000
     1.0000   1.0000   1.0000   1.0000   1.0000   1.0000   1.0000   1.0000
     1.0000   1.0000   1.0000   1.0000   1.0000   1.0000   1.0000   1.0000
     1.0000   1.0000   1.0000   1.0000   1.0000   1.0000   1.0000   0.5000
    -0.0000  -0.0000  -0.0000  -0.0000  -0.0000  -0.0000  -0.0000  -0.0000

     the Fermi energy is     7.8871 ev

!    total energy              =   -3249.45775847 Ry

     total all-electron energy =   -125549.165725 Ry
     estimated scf accuracy    <       0.00000047 Ry
     smearing contrib. (-TS)   =      -0.00028209 Ry
     internal energy E=F+TS    =   -3249.45747637 Ry

     The total energy is F=E-TS. E is the sum of the following terms:
     one-electron contribution =     -87.84149396 Ry
     hartree contribution      =      82.48664202 Ry
     xc contribution           =    -158.37692660 Ry
     ewald contribution        =    -309.08790756 Ry
     one-center paw contrib.   =   -2776.63779028 Ry
      -> PAW hartree energy AE =     251.34824678 Ry
      -> PAW hartree energy PS =    -250.60323014 Ry
      -> PAW xc energy AE      =   -2926.22509574 Ry
      -> PAW xc energy PS      =     148.84228883 Ry
      -> total E_H with PAW    =      83.23165866 Ry
      -> total E_XC with PAW   =   -2935.75973351 Ry

     convergence has been achieved in  31 iterations

     Forces acting on atoms (cartesian axes, Ry/au):

     atom    1 type  1   force =     0.00000000   -0.00000000   -0.00548255
     atom    2 type  1   force =     0.00000000   -0.00000000    0.00548255
     atom    3 type  1   force =    -0.00000000   -0.00000000    0.03708770
     atom    4 type  1   force =     0.00000000    0.00000000   -0.03708770
     atom    5 type  1   force =     0.00000000    0.00000000    0.00000000
     atom    6 type  2   force =     0.00000000    0.00000000    0.03652252
     atom    7 type  2   force =    -0.00000000    0.00620175    0.00000000
     atom    8 type  2   force =     0.00537087   -0.00310087    0.00000000
     atom    9 type  2   force =    -0.00000000    0.00000000   -0.03652252
     atom   10 type  2   force =    -0.00537087   -0.00310087    0.00000000
     atom   11 type  3   force =     0.00000000    0.00000000    0.00000000
     The non-local contrib.  to forces
     atom    1 type  1   force =     0.00000000   -0.00000000    0.01712436
     atom    2 type  1   force =     0.00000000    0.00000000   -0.01712436
     atom    3 type  1   force =     0.00000000    0.00000000    0.13320622
     atom    4 type  1   force =    -0.00000000   -0.00000000   -0.13320622
     atom    5 type  1   force =     0.00000000   -0.00000000    0.00000000
     atom    6 type  2   force =     0.00000000    0.00000000    0.00846633
     atom    7 type  2   force =     0.00000000   -0.01097467    0.00000000
     atom    8 type  2   force =    -0.00950434    0.00548734   -0.00000000
     atom    9 type  2   force =     0.00000000    0.00000000   -0.00846633
     atom   10 type  2   force =     0.00950434    0.00548733    0.00000000
     atom   11 type  3   force =     0.00000000    0.00000000    0.00000000
     The ionic contribution  to forces
     atom    1 type  1   force =    -0.00001849    0.00001067    3.36902314
     atom    2 type  1   force =    -0.00001849    0.00001067   -3.36902314
     atom    3 type  1   force =     0.00000231   -0.00000134    3.70464565
     atom    4 type  1   force =     0.00000231   -0.00000134   -3.70464565
     atom    5 type  1   force =     0.00002551   -0.00001473   -0.00000000
     atom    6 type  2   force =     0.00000676   -0.00000390    0.73501797
     atom    7 type  2   force =     0.00000012   -0.04259766    0.00000000
     atom    8 type  2   force =    -0.03689212    0.02129968    0.00000000
     atom    9 type  2   force =     0.00000676   -0.00000390   -0.73501797
     atom   10 type  2   force =     0.03689072    0.02129872    0.00000000
     atom   11 type  3   force =    -0.00000539    0.00000311   -0.00000000
     The local contribution  to forces
     atom    1 type  1   force =    -0.00002975    0.00031672   -3.38708422
     atom    2 type  1   force =     0.00017832   -0.00093660    3.38687127
     atom    3 type  1   force =    -0.00019762   -0.00004139   -3.78457035
     atom    4 type  1   force =     0.00015302    0.00001501    3.78453042
     atom    5 type  1   force =    -0.00020956   -0.00025834   -0.00035290
     atom    6 type  2   force =    -0.00000858    0.00000364   -0.70699086
     atom    7 type  2   force =    -0.00000033    0.05868147    0.00001302
     atom    8 type  2   force =     0.05082214   -0.02934136    0.00001282
     atom    9 type  2   force =    -0.00000644    0.00000612    0.70700226
     atom   10 type  2   force =    -0.05082035   -0.02934059    0.00001233
     atom   11 type  3   force =     0.00000482    0.00000159   -0.00002105
     The core correction contribution to forces
     atom    1 type  1   force =     0.00000009    0.00000595   -0.00450906
     atom    2 type  1   force =     0.00000241   -0.00001429    0.00450598
     atom    3 type  1   force =    -0.00000247   -0.00000101   -0.01607112
     atom    4 type  1   force =     0.00000189   -0.00000036    0.01606914
     atom    5 type  1   force =    -0.00000056   -0.00000197   -0.00000718
     atom    6 type  2   force =    -0.00000008   -0.00000001    0.00007520
     atom    7 type  2   force =     0.00000003    0.00109366    0.00000005
     atom    8 type  2   force =     0.00094724   -0.00054681    0.00000012
     atom    9 type  2   force =    -0.00000004    0.00000008   -0.00007476
     atom   10 type  2   force =    -0.00094714   -0.00054683    0.00000012
     atom   11 type  3   force =    -0.00000005    0.00000008    0.00000036
     The Hubbard contrib.    to forces
     atom    1 type  1   force =     0.00000000    0.00000000    0.00000000
     atom    2 type  1   force =     0.00000000    0.00000000    0.00000000
     atom    3 type  1   force =     0.00000000    0.00000000    0.00000000
     atom    4 type  1   force =     0.00000000    0.00000000    0.00000000
     atom    5 type  1   force =     0.00000000    0.00000000    0.00000000
     atom    6 type  2   force =     0.00000000    0.00000000    0.00000000
     atom    7 type  2   force =     0.00000000    0.00000000    0.00000000
     atom    8 type  2   force =     0.00000000    0.00000000    0.00000000
     atom    9 type  2   force =     0.00000000    0.00000000    0.00000000
     atom   10 type  2   force =     0.00000000    0.00000000    0.00000000
     atom   11 type  3   force =     0.00000000    0.00000000    0.00000000
     The SCF correction term to forces
     atom    1 type  1   force =     0.00000195   -0.00003655   -0.00011896
     atom    2 type  1   force =    -0.00002195    0.00012079    0.00017059
     atom    3 type  1   force =     0.00002172    0.00000244   -0.00014644
     atom    4 type  1   force =    -0.00001813    0.00000122    0.00014086
     atom    5 type  1   force =     0.00002685    0.00003769    0.00006946
     atom    6 type  2   force =     0.00000114   -0.00000019   -0.00004374
     atom    7 type  2   force =    -0.00000012   -0.00000105   -0.00001039
     atom    8 type  2   force =    -0.00000171    0.00000049   -0.00001000
     atom    9 type  2   force =    -0.00000011   -0.00000165    0.00003664
     atom   10 type  2   force =     0.00000168    0.00000067   -0.00000952
     atom   11 type  3   force =     0.00000364   -0.00001027    0.00001007

     Total force =     0.074795     Total SCF correction =     0.000335

     Computing stress (Cartesian axis) and pressure

          total   stress  (Ry/bohr**3)                   (kbar)     P=      -34.97
  -0.00021945   0.00000000   0.00000000          -32.28        0.00        0.00
   0.00000000  -0.00021945   0.00000000            0.00      -32.28        0.00
   0.00000000   0.00000000  -0.00027431            0.00        0.00      -40.35

     kinetic stress (kbar)   5078.94     -0.00      0.00
                               -0.00   5078.94     -0.00
                                0.00     -0.00   5022.61

     local   stress (kbar)  -1904.43      0.01     -0.00
                                0.01  -1904.42     -0.00
                               -0.00     -0.00     -5.18

     nonloc. stress (kbar)   2462.44     -0.00      0.00
                               -0.00   2462.44      0.00
                                0.00      0.00   2464.07

     hartree stress (kbar)   1929.22     -0.01     -0.00
                               -0.01   1929.22      0.00
                               -0.00      0.00   1083.95

     exc-cor stress (kbar)   4108.50      0.00     -0.00
                                0.00   4108.50      0.00
                               -0.00      0.00   4106.47

     corecor stress (kbar)  -5868.61      0.00      0.00
                                0.00  -5868.61     -0.00
                                0.00     -0.00  -5869.22

     ewald   stress (kbar)  -5838.34     -0.01     -0.00
                               -0.01  -5838.35      0.00
                               -0.00      0.00  -6843.07

     hubbard stress (kbar)      0.00      0.00      0.00
                                0.00      0.00      0.00
                                0.00      0.00      0.00

     DFT-D   stress (kbar)      0.00      0.00      0.00
                                0.00      0.00      0.00
                                0.00      0.00      0.00

     XDM     stress (kbar)      0.00      0.00      0.00
                                0.00      0.00      0.00
                                0.00      0.00      0.00

     dft-nl  stress (kbar)      0.00      0.00      0.00
                                0.00      0.00      0.00
                                0.00      0.00      0.00

     TS-vdW  stress (kbar)      0.00      0.00      0.00
                                0.00      0.00      0.00
                                0.00      0.00      0.00

[...]

                                0.00      0.00      0.00

     Writing all to output data dir new_calculations/myprefix.save/

     General routines

     Parallel routines

     PAW routines

   This run was terminated on:   4: 2:15  21May2023

   JOB DONE.