     Program PWSCF v.7.0 starts on 21May2023 at 14: 8:36

     Reading input from espresso_21988.pwi
Warning: card &CELL ignored
Warning: card / ignored

     Current dimensions of program PWSCF are:
     Max number of different atomic species (ntypx) = 10
     Max number of k-points (npk) =  40000
     Max angular momentum in pseudopotentials (lmaxx) =  4
     file Pb.pbe-dn-kjpaw_psl.0.2.2.UPF: wavefunction(s)  6S renormalized

     gamma-point specific algorithms are used
     Message from routine setup:
     using ibrav=0 with symmetry is DISCOURAGED, use correct ibrav instead

     Subspace diagonalization in iterative solution of the eigenvalue problem:
     a serial algorithm will be used

     Using Slab Decomposition

     bravais-lattice index     =            0
     lattice parameter (alat)  =      12.7179  a.u.
     unit-cell volume          =    1013.6373 (a.u.)^3
     number of atoms/cell      =            4
     number of atomic types    =            2
     number of electrons       =        48.00
     number of Kohn-Sham states=           29
     kinetic-energy cutoff     =      30.0000  Ry
     charge density cutoff     =     240.0000  Ry
     scf convergence threshold =      1.0E-06
     mixing beta               =       0.7000
     number of iterations used =            8  plain     mixing
     Exchange-correlation= SLA  PW   PBX  PBC
                           (   1   4   3   4   0   0   0)

     celldm(1)=  12.717935  celldm(2)=   0.000000  celldm(3)=   0.000000
     celldm(4)=   0.000000  celldm(5)=   0.000000  celldm(6)=   0.000000

     crystal axes: (cart. coord. in units of alat)
               a(1) = (   1.000000   0.000000   0.000000 )
               a(2) = (  -0.709609   0.704596   0.000000 )
               a(3) = (   0.000000   0.000000   0.699347 )

     reciprocal axes: (cart. coord. in units 2 pi/alat)
               b(1) = (  1.000000  1.007114  0.000000 )
               b(2) = (  0.000000  1.419253  0.000000 )
               b(3) = (  0.000000  0.000000  1.429906 )

     PseudoPot. # 1 for Sr read from file:
     /home/pragov/projects/rrg-bengioy-ad/pragov/crystal_structure_design/SSSP/Sr_pbe_v1.uspp.F.UPF
     MD5 check sum: 6b418c05fbe9db5448babca5e47b7a5b
     Pseudo is Ultrasoft + core correction, Zval = 10.0
     Generated by new atomic code, or converted to UPF format
     Using radial grid of  883 points,  6 beta functions with:
                l(1) =   0
                l(2) =   0
                l(3) =   1
                l(4) =   1
                l(5) =   2
                l(6) =   2
     Q(r) pseudized with  6 coefficients,  rinner =    1.400   1.400   1.400
                                                       1.400   1.400

     PseudoPot. # 2 for Pb read from file:
     /home/pragov/projects/rrg-bengioy-ad/pragov/crystal_structure_design/SSSP/Pb.pbe-dn-kjpaw_psl.0.2.2.UPF
     MD5 check sum: 9d431e6316058b74ade52399a6cf67da
     Pseudo is Projector augmented-wave + core cor, Zval = 14.0
     Generated using "atomic" code by A. Dal Corso  v.5.0.99 svn rev. 10869
     Shape of augmentation charge: PSQ
     Using radial grid of 1281 points,  6 beta functions with:
                l(1) =   0
                l(2) =   0
                l(3) =   1
                l(4) =   1
                l(5) =   2
                l(6) =   2
     Q(r) pseudized with 0 coefficients

     atomic species   valence    mass     pseudopotential
        Sr            10.00    87.62000     Sr( 1.00)
        Pb            14.00   207.20000     Pb( 1.00)

      4 Sym. Ops., with inversion, found ( 2 have fractional translation)

                                    s                        frac. trans.

      isym =  1     identity

 cryst.   s( 1) = (     1          0          0      )
                  (     0          1          0      )
                  (     0          0          1      )

 cart.    s( 1) = (  1.0000000  0.0000000  0.0000000 )
                  (  0.0000000  1.0000000  0.0000000 )
                  (  0.0000000  0.0000000  1.0000000 )

      isym =  2     180 deg rotation - cart. axis [0,0,1]

 cryst.   s( 2) = (    -1          0          0      )    f =(  0.0000000 )
                  (     0         -1          0      )       (  0.0000000 )
                  (     0          0          1      )       ( -0.5000000 )

 cart.    s( 2) = ( -1.0000000 -0.0000000  0.0000000 )    f =(  0.0000000 )
                  (  0.0000000 -1.0000000  0.0000000 )       (  0.0000000 )
                  (  0.0000000  0.0000000  1.0000000 )       ( -0.3496734 )

      isym =  3     inversion

 cryst.   s( 3) = (    -1          0          0      )
                  (     0         -1          0      )
                  (     0          0         -1      )

 cart.    s( 3) = ( -1.0000000 -0.0000000  0.0000000 )
                  (  0.0000000 -1.0000000  0.0000000 )
                  (  0.0000000  0.0000000 -1.0000000 )

      isym =  4     inv. 180 deg rotation - cart. axis [0,0,1]

 cryst.   s( 4) = (     1          0          0      )    f =(  0.0000000 )
                  (     0          1          0      )       (  0.0000000 )
                  (     0          0         -1      )       (  0.5000000 )

 cart.    s( 4) = (  1.0000000  0.0000000  0.0000000 )    f =(  0.0000000 )
                  (  0.0000000  1.0000000  0.0000000 )       (  0.0000000 )
                  (  0.0000000  0.0000000 -1.0000000 )       (  0.3496734 )

   Cartesian axes

     site n.     atom                  positions (alat units)
         1           Sr  tau(   1) = (  -0.4810357   0.6103922   0.1748367  )
         2           Sr  tau(   2) = (   0.7714270   0.0942038   0.5245101  )
         3           Pb  tau(   3) = (   0.0000174   0.4121316   0.1748367  )
         4           Pb  tau(   4) = (   0.2903739   0.2924644   0.5245101  )

   Crystallographic axes

     site n.     atom                  positions (cryst. coord.)
         1           Sr  tau(   1) = (  0.1336990  0.8663010  0.2500000  )
         2           Sr  tau(   2) = (  0.8663010  0.1336990  0.7500000  )
         3           Pb  tau(   3) = (  0.4150810  0.5849190  0.2500000  )
         4           Pb  tau(   4) = (  0.5849190  0.4150810  0.7500000  )

     number of k points=     1  Methfessel-Paxton smearing, width (Ry)=  0.0010
                       cart. coord. in units 2pi/alat
        k(    1) = (   0.0000000   0.0000000   0.0000000), wk =   2.0000000

                       cryst. coord.
        k(    1) = (   0.0000000   0.0000000   0.0000000), wk =   2.0000000

     Check: negative core charge=   -0.000003

     Initial potential from superposition of free atoms

     starting charge      47.9280, renormalised to      48.0000

     negative rho (up, down):  1.290E-01 0.000E+00
     Starting wfcs are   44 randomized atomic wfcs
     Checking if some PAW data can be deallocated...

     Self-consistent Calculation

     iteration #  1     ecut=    30.00 Ry     beta= 0.70
     Davidson diagonalization with overlap

     ethr =  1.00E-02,  avg # of iterations =  2.0

     Threshold (ethr) on eigenvalues was too large:
     Diagonalizing with lowered threshold

     Davidson diagonalization with overlap

[...]

     negative rho (up, down):  1.313E-01 0.000E+00

     total energy              =   -1881.06062336 Ry
     estimated scf accuracy    <       0.24031787 Ry

[...]

     total energy              =   -1881.16064041 Ry
     estimated scf accuracy    <       0.00000427 Ry

     iteration # 10     ecut=    30.00 Ry     beta= 0.70
     Davidson diagonalization with overlap

     ethr =  8.89E-09,  avg # of iterations =  4.0

[...]

     End of self-consistent calculation

          k = 0.0000 0.0000 0.0000 (  1408 PWs)   bands (ev):

   -27.7464 -27.7326  -9.9597  -9.8057  -9.7981  -9.7343  -9.6725  -9.6515
    -8.4609  -8.4476  -8.4111  -8.3926  -8.3894  -8.3121  -8.2819  -8.2763
    -8.1412  -8.0233  -1.4271   1.0568   6.3581   7.0644   7.7543   8.7089
     8.8769   9.0078  10.1608  10.4316  11.2065

     occupation numbers
     1.0000   1.0000   1.0000   1.0000   1.0000   1.0000   1.0000   1.0000
     1.0000   1.0000   1.0000   1.0000   1.0000   1.0000   1.0000   1.0000
     1.0000   1.0000   1.0000   1.0000   1.0000   1.0000   1.0000   1.0000
    -0.0000  -0.0000  -0.0000  -0.0000  -0.0000

     the Fermi energy is     8.8121 ev

!    total energy              =   -1881.16064068 Ry
     estimated scf accuracy    <       0.00000071 Ry
     smearing contrib. (-TS)   =       0.00000000 Ry
     internal energy E=F+TS    =   -1881.16064068 Ry

     The total energy is F=E-TS. E is the sum of the following terms:
     one-electron contribution =    -134.90927349 Ry
     hartree contribution      =      94.49217058 Ry
     xc contribution           =    -125.31574146 Ry
     ewald contribution        =    -258.45580319 Ry
     one-center paw contrib.   =   -1456.97199312 Ry
      -> PAW hartree energy AE =     202.58166401 Ry
      -> PAW hartree energy PS =    -202.19298423 Ry
      -> PAW xc energy AE      =   -1545.24071099 Ry
      -> PAW xc energy PS      =      87.88003809 Ry
      -> total E_H with PAW    =      94.88085036 Ry
      -> total E_XC with PAW   =   -1582.67641436 Ry

     convergence has been achieved in  10 iterations

     negative rho (up, down):  1.336E-01 0.000E+00

     Forces acting on atoms (cartesian axes, Ry/au):

     atom    1 type  1   force =     0.01358031   -0.00560842    0.00000000
     atom    2 type  1   force =    -0.01358031    0.00560842    0.00000000
     atom    3 type  2   force =     0.11517117   -0.04745955    0.00000000
     atom    4 type  2   force =    -0.11517117    0.04745955    0.00000000
     The non-local contrib.  to forces
     atom    1 type  1   force =    -0.19767464    0.08146485    0.00000000
     atom    2 type  1   force =     0.19767464   -0.08146485    0.00000000
     atom    3 type  2   force =    -0.13643634    0.05622048   -0.00000000
     atom    4 type  2   force =     0.13643634   -0.05622048   -0.00000000
     The ionic contribution  to forces
     atom    1 type  1   force =     2.89942958   -1.19496739    0.00000000
     atom    2 type  1   force =    -2.89942958    1.19496739    0.00000000
     atom    3 type  2   force =    -6.24338333    2.57314043    0.00000000
     atom    4 type  2   force =     6.24338333   -2.57314043    0.00000000
     The local contribution  to forces
     atom    1 type  1   force =    -2.70255883    1.11372722    0.00001662
     atom    2 type  1   force =     2.70223832   -1.11379520   -0.00001225
     atom    3 type  2   force =     6.48660049   -2.67308996   -0.00002603
     atom    4 type  2   force =    -6.48458463    2.67284866   -0.00000387
     The core correction contribution to forces
     atom    1 type  1   force =     0.01404475   -0.00578967    0.00000022
     atom    2 type  1   force =    -0.01404054    0.00578491   -0.00000133
     atom    3 type  2   force =     0.01001266   -0.00412008    0.00000148
     atom    4 type  2   force =    -0.01000357    0.00412823   -0.00000381
     The Hubbard contrib.    to forces
     atom    1 type  1   force =     0.00000000    0.00000000    0.00000000
     atom    2 type  1   force =     0.00000000    0.00000000    0.00000000
     atom    3 type  2   force =     0.00000000    0.00000000    0.00000000
     atom    4 type  2   force =     0.00000000    0.00000000    0.00000000
     The SCF correction term to forces
     atom    1 type  1   force =     0.00037251   -0.00009256   -0.00001426
     atom    2 type  1   force =     0.00000989    0.00006704    0.00000746
     atom    3 type  2   force =    -0.00166177    0.00036907   -0.00000013
     atom    4 type  2   force =    -0.00044209   -0.00017694    0.00002297

     Total force =     0.177385     Total SCF correction =     0.001810

     Computing stress (Cartesian axis) and pressure

     negative rho (up, down):  1.336E-01 0.000E+00
          total   stress  (Ry/bohr**3)                   (kbar)     P=       12.19
  -0.00023623   0.00014756   0.00000000          -34.75       21.71        0.00
   0.00014756   0.00006102   0.00000000           21.71        8.98        0.00
   0.00000000   0.00000000   0.00042377            0.00        0.00       62.34

     kinetic stress (kbar)  10004.21     63.43      0.00
                               63.43  10131.99      0.00
                                0.00      0.00  10231.03

     local   stress (kbar)   -880.07   -222.07      0.00
                             -222.07  -1327.37     -0.01
                                0.00     -0.01  -5383.06

     nonloc. stress (kbar)   3899.03    -26.60      0.00
                              -26.60   3845.42      0.00
                                0.00      0.00   3881.89

     hartree stress (kbar)   3802.29    115.79     -0.00
                              115.79   4035.51      0.00
                               -0.00      0.00   5875.46

     exc-cor stress (kbar)   7691.97      0.03      0.00
                                0.03   7692.03      0.00
                                0.00      0.00   7694.41

     corecor stress (kbar) -11215.91      0.53     -0.00
                                0.53 -11214.85     -0.00
                               -0.00     -0.00 -11218.76

     ewald   stress (kbar) -13336.27     90.61      0.00
                               90.61 -13153.75      0.00
                                0.00      0.00 -11018.63

     hubbard stress (kbar)      0.00      0.00      0.00
                                0.00      0.00      0.00
                                0.00      0.00      0.00

     DFT-D   stress (kbar)      0.00      0.00      0.00
                                0.00      0.00      0.00
                                0.00      0.00      0.00

     XDM     stress (kbar)      0.00      0.00      0.00
                                0.00      0.00      0.00
                                0.00      0.00      0.00

     dft-nl  stress (kbar)      0.00      0.00      0.00
                                0.00      0.00      0.00
                                0.00      0.00      0.00

     TS-vdW  stress (kbar)      0.00      0.00      0.00
                                0.00      0.00      0.00
                                0.00      0.00      0.00

[...]

                                0.00      0.00      0.00

     Writing all to output data dir new_calculations/myprefix.save/

     General routines

     Parallel routines

     PAW routines

   This run was terminated on:  14: 8:46  21May2023

   JOB DONE.