     Program PWSCF v.7.0 starts on 21May2023 at 21: 5:17

     Reading input from espresso_20897.pwi
Warning: card &CELL ignored
Warning: card / ignored

     Current dimensions of program PWSCF are:
     Max number of different atomic species (ntypx) = 10
     Max number of k-points (npk) =  40000
     Max angular momentum in pseudopotentials (lmaxx) =  4
     file Nb.pbe-spn-kjpaw_psl.0.3.0.UPF: wavefunction(s)  4S 4P renormalized

     gamma-point specific algorithms are used
     Message from routine setup:
     using ibrav=0 with symmetry is DISCOURAGED, use correct ibrav instead

     Subspace diagonalization in iterative solution of the eigenvalue problem:
     a serial algorithm will be used

     Using Slab Decomposition

     bravais-lattice index     =            0
     lattice parameter (alat)  =      18.4247  a.u.
     unit-cell volume          =    1886.4830 (a.u.)^3
     number of atoms/cell      =           15
     number of atomic types    =            3
     number of electrons       =       139.00
     number of Kohn-Sham states=           84
     kinetic-energy cutoff     =      30.0000  Ry
     charge density cutoff     =     240.0000  Ry
     scf convergence threshold =      1.0E-06
     mixing beta               =       0.7000
     number of iterations used =            8  plain     mixing
     Exchange-correlation=  SLA  PW   PBX  PBC
                           (   1   4   3   4   0   0   0)

     celldm(1)=  18.424708  celldm(2)=   0.000000  celldm(3)=   0.000000
     celldm(4)=   0.000000  celldm(5)=   0.000000  celldm(6)=   0.000000

     crystal axes: (cart. coord. in units of alat)
               a(1) = (   1.000000   0.000000   0.000000 )
               a(2) = (  -0.500000   0.866025   0.000000 )
               a(3) = (   0.000000   0.000000   0.348273 )

     reciprocal axes: (cart. coord. in units 2 pi/alat)
               b(1) = (  1.000000  0.577350  0.000000 )
               b(2) = (  0.000000  1.154701  0.000000 )
               b(3) = (  0.000000  0.000000  2.871307 )

     PseudoPot. # 1 for Nb read from file:
     /home/pragov/projects/rrg-bengioy-ad/pragov/crystal_structure_design/SSSP/Nb.pbe-spn-kjpaw_psl.0.3.0.UPF
     MD5 check sum: 411d72ad547312f8017e2943ceca08cc
     Pseudo is Projector augmented-wave + core cor, Zval = 13.0
     Generated using "atomic" code by A. Dal Corso  v.5.0.99 svn rev. 10869
     Shape of augmentation charge: PSQ
     Using radial grid of 1227 points,  6 beta functions with:
                l(1) =   0
                l(2) =   0
                l(3) =   1
                l(4) =   1
                l(5) =   2
                l(6) =   2
     Q(r) pseudized with 0 coefficients

     PseudoPot. # 2 for Tl read from file:
     /home/pragov/projects/rrg-bengioy-ad/pragov/crystal_structure_design/SSSP/Tl_pbe_v1.2.uspp.F.UPF
     MD5 check sum: b76cf1f7e72655a2b2c53cf6385d7059
     Pseudo is Ultrasoft + core correction, Zval = 13.0
     Generated by new atomic code, or converted to UPF format
     Using radial grid of  899 points,  6 beta functions with:
                l(1) =   0
                l(2) =   0
                l(3) =   1
                l(4) =   1
                l(5) =   2
                l(6) =   2
     Q(r) pseudized with  6 coefficients,  rinner =    1.100   1.100   1.100
                                                       1.100   1.100

     PseudoPot. # 3 for S  read from file:
     /home/pragov/projects/rrg-bengioy-ad/pragov/crystal_structure_design/SSSP/s_pbe_v1.4.uspp.F.UPF
     MD5 check sum: 88d86576ff6df21479756cfb9bdac1df
     Pseudo is Ultrasoft + core correction, Zval =  6.0
     Generated by new atomic code, or converted to UPF format
     Using radial grid of  907 points,  6 beta functions with:
                l(1) =   0
                l(2) =   0
                l(3) =   1
                l(4) =   1
                l(5) =   2
                l(6) =   2
     Q(r) pseudized with  8 coefficients,  rinner =    1.300   1.300   1.300
                                                       1.300   1.300

     atomic species   valence    mass     pseudopotential
        Nb            13.00    92.90637     Nb( 1.00)
        Tl            13.00   204.38000     Tl( 1.00)
        S              6.00    32.06000     S ( 1.00)

      6 Sym. Ops. (no inversion) found

                                    s                        frac. trans.

      isym =  1     identity

 cryst.   s( 1) = (     1          0          0      )
                  (     0          1          0      )
                  (     0          0          1      )

 cart.    s( 1) = (  1.0000000 -0.0000000  0.0000000 )
                  (  0.0000000  1.0000000  0.0000000 )
                  (  0.0000000  0.0000000  1.0000000 )

      isym =  2     120 deg rotation - cryst. axis [0,0,1]

[...]

      isym =  3     120 deg rotation - cryst. axis [0,0,-1]

[...]

      isym =  4     inv. 180 deg rotation - cart. axis [0,0,1]

[...]

      isym =  5     inv.  60 deg rotation - cryst. axis [0,0,1]

[...]

      isym =  6     inv.  60 deg rotation - cryst. axis [0,0,-1]

 cryst.   s( 6) = (     0          1          0      )
                  (    -1         -1          0      )
                  (     0          0         -1      )

 cart.    s( 6) = ( -0.5000000 -0.8660254  0.0000000 )
                  (  0.8660254 -0.5000000  0.0000000 )
                  (  0.0000000  0.0000000 -1.0000000 )

   Cartesian axes

     site n.     atom                  positions (alat units)
         1           Nb  tau(   1) = (  -0.0711890   0.1920966   0.0000000  )
         2           Nb  tau(   2) = (  -0.2980450   0.8316286   0.0000000  )
         3           Nb  tau(   3) = (   0.3692340   0.7083257   0.0000000  )
         4           Nb  tau(   4) = (   0.0682685   0.3851397   0.1741367  )
         5           Nb  tau(   5) = (  -0.2005935   0.6143333   0.1741367  )
         6           Nb  tau(   6) = (   0.1323250   0.7325778   0.1741367  )
         7           Tl  tau(   7) = (   0.5000005   0.2886749   0.0000000  )
         8           S   tau(   8) = (   0.1809465   0.2380193   0.0000000  )
         9           S   tau(   9) = (   0.6156575   0.5903115   0.0000000  )
        10           S   tau(  10) = (   0.7033960   0.0376946   0.0000000  )
        11           S   tau(  11) = (  -0.1848880   0.3394681   0.1741367  )
        12           S   tau(  12) = (  -0.1135680   0.8564091   0.1741367  )
        13           S   tau(  13) = (   0.2984560   0.5361737   0.1741367  )
        14           S   tau(  14) = (  -0.0000005   0.5773506   0.0000000  )
        15           S   tau(  15) = (   0.0000000   0.0000000   0.1741367  )

   Crystallographic axes

     site n.     atom                  positions (cryst. coord.)
         1           Nb  tau(   1) = (  0.0397180  0.2218140  0.0000000  )
         2           Nb  tau(   2) = (  0.1820960  0.9602820  0.0000000  )
         3           Nb  tau(   3) = (  0.7781860  0.8179040  0.0000000  )
         4           Nb  tau(   4) = (  0.2906290  0.4447210  0.5000000  )
         5           Nb  tau(   5) = (  0.1540920  0.7093710  0.5000000  )
         6           Nb  tau(   6) = (  0.5552790  0.8459080  0.5000000  )
         7           Tl  tau(   7) = (  0.6666670  0.3333330  0.0000000  )
         8           S   tau(   8) = (  0.3183670  0.2748410  0.0000000  )
         9           S   tau(   9) = (  0.9564740  0.6816330  0.0000000  )
        10           S   tau(  10) = (  0.7251590  0.0435260  0.0000000  )
        11           S   tau(  11) = (  0.0111040  0.3919840  0.5000000  )
        12           S   tau(  12) = (  0.3808800  0.9888960  0.5000000  )
        13           S   tau(  13) = (  0.6080160  0.6191200  0.5000000  )
        14           S   tau(  14) = (  0.3333330  0.6666670  0.0000000  )
        15           S   tau(  15) = (  0.0000000  0.0000000  0.5000000  )

     number of k points=     1  Methfessel-Paxton smearing, width (Ry)=  0.0010
                       cart. coord. in units 2pi/alat
        k(    1) = (   0.0000000   0.0000000   0.0000000), wk =   2.0000000

                       cryst. coord.
        k(    1) = (   0.0000000   0.0000000   0.0000000), wk =   2.0000000

     Check: negative core charge=   -0.000013

     Initial potential from superposition of free atoms

     starting charge     138.9821, renormalised to     139.0000

     negative rho (up, down):  5.002E-02 0.000E+00
     Starting wfcs are  101 randomized atomic wfcs
     Checking if some PAW data can be deallocated...

     Self-consistent Calculation

     iteration #  1     ecut=    30.00 Ry     beta= 0.70
     Davidson diagonalization with overlap

     ethr =  1.00E-02,  avg # of iterations =  3.0

     negative rho (up, down):  5.090E-02 0.000E+00

     total energy              =   -2342.99307611 Ry
     estimated scf accuracy    <       1.76492022 Ry

[...]

     total energy              =   -2343.72770261 Ry
     estimated scf accuracy    <       0.00000357 Ry

     iteration # 26     ecut=    30.00 Ry     beta= 0.70
     Davidson diagonalization with overlap

     ethr =  2.57E-09,  avg # of iterations =  1.0

[...]

     End of self-consistent calculation

          k = 0.0000 0.0000 0.0000 (  2607 PWs)   bands (ev):

   -42.6109 -42.6018 -42.6018 -42.5045 -42.4963 -42.4963 -19.1943 -19.1943
   -19.1720 -18.7762 -18.7762 -18.7418 -18.6176 -18.5896 -18.5533 -18.5385
   -18.5385 -18.5174 -18.5173 -18.5003 -18.5003 -18.3031 -18.2899 -18.2899
    -2.0796  -1.0772  -1.0771  -0.9851  -0.9850  -0.9504  -0.7238  -0.4840
    -0.3818   0.0010   0.0010   0.0181   0.0181   4.5367   6.4715   6.4715
     6.7525   6.7526   6.9151   6.9151   7.1912   7.8810   7.8811   8.3532
     8.5847   8.7000   8.8419   8.9381   9.1741   9.1741   9.6616   9.6616
     9.8319   9.8319  10.1802  10.4637  10.4637  10.5253  11.1775  11.6007
    11.6008  11.6446  11.8909  11.8909  12.3924  12.3925  12.4091  13.5077
    13.5077  13.6773  13.6773  13.9479  14.4063  14.7999  14.8001  14.8309
    14.8310  14.9008  14.9009  14.9208

     occupation numbers
     1.0000   1.0000   1.0000   1.0000   1.0000   1.0000   1.0000   1.0000
     1.0000   1.0000   1.0000   1.0000   1.0000   1.0000   1.0000   1.0000
     1.0000   1.0000   1.0000   1.0000   1.0000   1.0000   1.0000   1.0000
     1.0000   1.0000   1.0000   1.0000   1.0000   1.0000   1.0000   1.0000
     1.0000   1.0000   1.0000   1.0000   1.0000   1.0000   1.0000   1.0000
     1.0000   1.0000   1.0000   1.0000   1.0000   1.0000   1.0000   1.0000
     1.0000   1.0000   1.0000   1.0000   1.0000   1.0000   1.0000   1.0000
     1.0000   1.0000   1.0000   1.0000   1.0000   1.0000   1.0000   1.0000
     1.0000   1.0000   1.0000   1.0000   0.7566   0.7550  -0.0116  -0.0000
    -0.0000  -0.0000  -0.0000  -0.0000  -0.0000  -0.0000  -0.0000  -0.0000
    -0.0000  -0.0000  -0.0000  -0.0000

     the Fermi energy is    12.3968 ev

!    total energy              =   -2343.72770210 Ry
     estimated scf accuracy    <       0.00000061 Ry
     smearing contrib. (-TS)   =      -0.00032722 Ry
     internal energy E=F+TS    =   -2343.72737488 Ry

     The total energy is F=E-TS. E is the sum of the following terms:
     one-electron contribution =    -274.24315112 Ry
     hartree contribution      =     215.42175301 Ry
     xc contribution           =    -304.07748061 Ry
     ewald contribution        =    -729.94671396 Ry
     one-center paw contrib.   =   -1250.88178220 Ry
      -> PAW hartree energy AE =     412.50541659 Ry
      -> PAW hartree energy PS =    -410.29662158 Ry
      -> PAW xc energy AE      =   -1415.28644569 Ry
      -> PAW xc energy PS      =     162.19586848 Ry
      -> total E_H with PAW    =     217.63054802 Ry
      -> total E_XC with PAW   =   -1557.16805782 Ry

     convergence has been achieved in  26 iterations

     negative rho (up, down):  5.085E-02 0.000E+00

     Forces acting on atoms (cartesian axes, Ry/au):

     atom    1 type  1   force =     0.00548078   -0.04746553    0.00000000
     atom    2 type  1   force =    -0.04384675    0.01898628    0.00000000
     atom    3 type  1   force =     0.03836597    0.02847926    0.00000000
     atom    4 type  1   force =    -0.00843138    0.04837391   -0.00000000
     atom    5 type  1   force =     0.04610873   -0.01688517    0.00000000
     atom    6 type  1   force =    -0.03767735   -0.03148874   -0.00000000
     atom    7 type  2   force =     0.00000000    0.00000000    0.00000000
     atom    8 type  3   force =    -0.03806517    0.02661570    0.00000000
     atom    9 type  3   force =     0.04208245    0.01965755    0.00000000
     atom   10 type  3   force =    -0.00401729   -0.04627325    0.00000000
     atom   11 type  3   force =     0.04531766   -0.02209059    0.00000000
     atom   12 type  3   force =    -0.04178984   -0.02820095   -0.00000000
     atom   13 type  3   force =    -0.00352782    0.05029154    0.00000000
     atom   14 type  3   force =     0.00000000   -0.00000000    0.00000000
     atom   15 type  3   force =     0.00000000   -0.00000000    0.00000000
     The non-local contrib.  to forces
     atom    1 type  1   force =    -0.07709955    0.11801993    0.00000000
     atom    2 type  1   force =     0.14075803    0.00776020   -0.00000000
     atom    3 type  1   force =    -0.06365848   -0.12578013    0.00000000
     atom    4 type  1   force =     0.07400969   -0.11908587    0.00000000
     atom    5 type  1   force =    -0.14013624   -0.00455133   -0.00000000
     atom    6 type  1   force =     0.06612654    0.12363720   -0.00000000
     atom    7 type  2   force =     0.00000000   -0.00000000    0.00000000
     atom    8 type  3   force =    -0.01514636   -0.05705439    0.00000000
     atom    9 type  3   force =    -0.04183737    0.04164433    0.00000000
     atom   10 type  3   force =     0.05698373    0.01541006    0.00000000
     atom   11 type  3   force =     0.03129874    0.04897212    0.00000000
     atom   12 type  3   force =     0.02676173   -0.05159157   -0.00000000
     atom   13 type  3   force =    -0.05806047    0.00261945   -0.00000000
     atom   14 type  3   force =     0.00000000    0.00000000    0.00000000
     atom   15 type  3   force =     0.00000000    0.00000000    0.00000000
     The ionic contribution  to forces
     atom    1 type  1   force =    -9.52536583   -0.76269806   -0.00000000
     atom    2 type  1   force =     4.10216827    8.63060545   -0.00000000
     atom    3 type  1   force =     5.42321397   -7.86791670   -0.00000000
     atom    4 type  1   force =     9.38668311    0.72262587    0.00000000
     atom    5 type  1   force =    -4.06755392   -8.49037416    0.00000000
     atom    6 type  1   force =    -5.31909341    7.76772746    0.00000000
     atom    7 type  2   force =    -0.00010524    0.00006079    0.00000000
     atom    8 type  3   force =    10.69973659    0.13067101   -0.00000000
     atom    9 type  3   force =    -5.23672675   -9.33155992   -0.00000000
     atom   10 type  3   force =    -5.46300027    9.20088336    0.00000000
     atom   11 type  3   force =   -10.99734776   -0.11201495    0.00000000
     atom   12 type  3   force =     5.40166149    9.58001565    0.00000000
     atom   13 type  3   force =     5.59569314   -9.46800467    0.00000000
     atom   14 type  3   force =     0.00003454   -0.00001972    0.00000000
     atom   15 type  3   force =     0.00000208   -0.00000143    0.00000000
     The local contribution  to forces
     atom    1 type  1   force =     9.60244636    0.60891981    0.00000183
     atom    2 type  1   force =    -4.27471587   -8.61965126    0.00000241
     atom    3 type  1   force =    -5.33007305    8.01150452   -0.00000165
     atom    4 type  1   force =    -9.46384220   -0.56671499   -0.00000467
     atom    5 type  1   force =     4.24213318    8.47867209    0.00000209
     atom    6 type  1   force =     5.22407402   -7.91257592   -0.00000190
     atom    7 type  2   force =     0.00003541   -0.00010988    0.00000154
     atom    8 type  3   force =   -10.72277928   -0.05000974    0.00000123
     atom    9 type  3   force =     5.31694585    9.31101405   -0.00000213
     atom   10 type  3   force =     5.40489020   -9.26132016   -0.00000096
     atom   11 type  3   force =    11.01247738    0.04358675    0.00000138
     atom   12 type  3   force =    -5.46730238   -9.55869713    0.00000002
     atom   13 type  3   force =    -5.54429148    9.51539871   -0.00000049
     atom   14 type  3   force =     0.00075107    0.00000627   -0.00000113
     atom   15 type  3   force =    -0.00070839    0.00005740   -0.00000010
     The core correction contribution to forces
     atom    1 type  1   force =     0.00525266   -0.01163805    0.00000000
     atom    2 type  1   force =    -0.01270722    0.00126153   -0.00000004
     atom    3 type  1   force =     0.00744772    0.01037159    0.00000001
     atom    4 type  1   force =    -0.00490336    0.01170384   -0.00000013
     atom    5 type  1   force =     0.01259002   -0.00159440   -0.00000008
     atom    6 type  1   force =    -0.00767888   -0.01010333    0.00000008
     atom    7 type  2   force =    -0.00000035    0.00000024    0.00000000
     atom    8 type  3   force =     0.00002372    0.00344526    0.00000020
     atom    9 type  3   force =     0.00297490   -0.00174138   -0.00000011
     atom   10 type  3   force =    -0.00299898   -0.00170348   -0.00000004
     atom   11 type  3   force =    -0.00097567   -0.00295963    0.00000007
     atom   12 type  3   force =    -0.00207832    0.00232278    0.00000004
     atom   13 type  3   force =     0.00305429    0.00063594   -0.00000005
     atom   14 type  3   force =    -0.00000102   -0.00000011   -0.00000004
     atom   15 type  3   force =     0.00000135    0.00000055   -0.00000013
     The Hubbard contrib.    to forces
     atom    1 type  1   force =     0.00000000    0.00000000    0.00000000
     atom    2 type  1   force =     0.00000000    0.00000000    0.00000000
     atom    3 type  1   force =     0.00000000    0.00000000    0.00000000
     atom    4 type  1   force =     0.00000000    0.00000000    0.00000000
     atom    5 type  1   force =     0.00000000    0.00000000    0.00000000
     atom    6 type  1   force =     0.00000000    0.00000000    0.00000000
     atom    7 type  2   force =     0.00000000    0.00000000    0.00000000
     atom    8 type  3   force =     0.00000000    0.00000000    0.00000000
     atom    9 type  3   force =     0.00000000    0.00000000    0.00000000
     atom   10 type  3   force =     0.00000000    0.00000000    0.00000000
     atom   11 type  3   force =     0.00000000    0.00000000    0.00000000
     atom   12 type  3   force =     0.00000000    0.00000000    0.00000000
     atom   13 type  3   force =     0.00000000    0.00000000    0.00000000
     atom   14 type  3   force =     0.00000000    0.00000000    0.00000000
     atom   15 type  3   force =     0.00000000    0.00000000    0.00000000
     The SCF correction term to forces
     atom    1 type  1   force =     0.00022101   -0.00004389    0.00000038
     atom    2 type  1   force =     0.00052815   -0.00095722   -0.00000356
     atom    3 type  1   force =     0.00135559    0.00024589    0.00000287
     atom    4 type  1   force =    -0.00033094   -0.00016269    0.00000259
     atom    5 type  1   force =    -0.00083848    0.00092527   -0.00000294
     atom    6 type  1   force =    -0.00101322   -0.00016367    0.00000143
     atom    7 type  2   force =     0.00006956    0.00005760   -0.00000168
     atom    8 type  3   force =     0.00011838   -0.00048212   -0.00000047
     atom    9 type  3   force =     0.00071035    0.00034847    0.00000153
     atom   10 type  3   force =     0.00002828    0.00042895    0.00000070
     atom   11 type  3   force =    -0.00015216    0.00037407   -0.00000060
     atom   12 type  3   force =    -0.00082921   -0.00029625    0.00000036
     atom   13 type  3   force =     0.00015157   -0.00033864    0.00000012
     atom   14 type  3   force =    -0.00078178    0.00000441    0.00000016
     atom   15 type  3   force =     0.00072764   -0.00005004    0.00000017

     Total force =     0.167868     Total SCF correction =     0.003029

     Computing stress (Cartesian axis) and pressure

     negative rho (up, down):  5.085E-02 0.000E+00
          total   stress  (Ry/bohr**3)                   (kbar)     P=        7.33
  -0.00053891   0.00000000   0.00000000          -79.28        0.00        0.00
   0.00000000  -0.00053891   0.00000000            0.00      -79.28        0.00
   0.00000000   0.00000000   0.00122728            0.00        0.00      180.54

     kinetic stress (kbar)  17245.74     -0.00      0.00
                               -0.00  17245.74      0.00
                                0.00     -0.00  18015.72

     local   stress (kbar)  -4381.30     -0.59      0.00
                               -0.59  -4380.88     -0.00
                                0.00     -0.00 -16313.19

     nonloc. stress (kbar)   8859.55     -0.00      0.00
                               -0.00   8859.54      0.00
                                0.00      0.00   8698.74

     hartree stress (kbar)   3769.81      0.55     -0.00
                                0.55   3769.71      0.00
                               -0.00      0.00   9258.74

     exc-cor stress (kbar)   8748.70      0.00     -0.00
                                0.00   8748.70      0.00
                               -0.00      0.00   8749.79

     corecor stress (kbar) -13318.33      0.00     -0.00
                                0.00 -13318.32     -0.00
                               -0.00     -0.00 -13316.33

     ewald   stress (kbar) -21003.60     -0.01      0.00
                               -0.01 -21003.62      0.00
                                0.00      0.00 -14912.92

     hubbard stress (kbar)      0.00      0.00      0.00
                                0.00      0.00      0.00
                                0.00      0.00      0.00

     DFT-D   stress (kbar)      0.00      0.00      0.00
                                0.00      0.00      0.00
                                0.00      0.00      0.00

     XDM     stress (kbar)      0.00      0.00      0.00
                                0.00      0.00      0.00
                                0.00      0.00      0.00

     dft-nl  stress (kbar)      0.00      0.00      0.00
                                0.00      0.00      0.00
                                0.00      0.00      0.00

     TS-vdW  stress (kbar)      0.00      0.00      0.00
                                0.00      0.00      0.00
                                0.00      0.00      0.00

[...]

                                0.00      0.00      0.00

     Writing all to output data dir new_calculations/myprefix.save/

     General routines

     Parallel routines

     PAW routines

   This run was terminated on:  21: 6:22  21May2023

   JOB DONE.