     Program PWSCF v.7.0 starts on 21May2023 at  0:54:42

     Reading input from espresso_5800.pwi
Warning: card &CELL ignored
Warning: card / ignored

     Current dimensions of program PWSCF are:
     Max number of different atomic species (ntypx) = 10
     Max number of k-points (npk) =  40000
     Max angular momentum in pseudopotentials (lmaxx) =  4
     file O.pbe-n-kjpaw_psl.0.1.UPF: wavefunction(s)  2P renormalized

     gamma-point specific algorithms are used

     Subspace diagonalization in iterative solution of the eigenvalue problem:
     a serial algorithm will be used

     Using Slab Decomposition

     bravais-lattice index     =            0
     lattice parameter (alat)  =      12.2784  a.u.
     unit-cell volume          =    1415.2433 (a.u.)^3
     number of atoms/cell      =           20
     number of atomic types    =            4
     number of electrons       =       178.00
     number of Kohn-Sham states=          107
     kinetic-energy cutoff     =      30.0000  Ry
     charge density cutoff     =     240.0000  Ry
     scf convergence threshold =      1.0E-06
     mixing beta               =       0.7000
     number of iterations used =            8  plain     mixing
     Exchange-correlation= SLA  PW   PBX  PBC
                           (   1   4   3   4   0   0   0)

     celldm(1)=  12.278376  celldm(2)=   0.000000  celldm(3)=   0.000000
     celldm(4)=   0.000000  celldm(5)=   0.000000  celldm(6)=   0.000000

     crystal axes: (cart. coord. in units of alat)
               a(1) = (   1.000000   0.000000   0.000000 )
               a(2) = (  -0.336755   0.941770   0.000000 )
               a(3) = (   0.326724   0.464406   0.811827 )

     reciprocal axes: (cart. coord. in units 2 pi/alat)
               b(1) = (  1.000000  0.357577 -0.607007 )
               b(2) = (  0.000000  1.061830 -0.607421 )
               b(3) = (  0.000000  0.000000  1.231790 )

     PseudoPot. # 1 for Na read from file:
     /home/pragov/projects/rrg-bengioy-ad/pragov/crystal_structure_design/SSSP/na_pbe_v1.5.uspp.F.UPF
     MD5 check sum: 44600605ef58000f06b90626533354dc
     Pseudo is Ultrasoft, Zval =  9.0
     Generated by new atomic code, or converted to UPF format
     Using radial grid of  819 points,  5 beta functions with:
                l(1) =   0
                l(2) =   0
                l(3) =   1
                l(4) =   1
                l(5) =   2
     Q(r) pseudized with  8 coefficients,  rinner =    1.250   1.250   1.250
                                                       1.250   1.250

     PseudoPot. # 2 for Mn read from file:
     /home/pragov/projects/rrg-bengioy-ad/pragov/crystal_structure_design/SSSP/mn_pbe_v1.5.uspp.F.UPF
     MD5 check sum: 82ef2b46521d7a7d9e736dc3972e4928
     Pseudo is Ultrasoft + core correction, Zval = 15.0
     Generated by new atomic code, or converted to UPF format
     Using radial grid of  859 points,  6 beta functions with:
                l(1) =   0
                l(2) =   0
                l(3) =   1
                l(4) =   1
                l(5) =   2
                l(6) =   2
     Q(r) pseudized with  8 coefficients,  rinner =    0.950   0.950   0.950
                                                       0.950   0.950

     PseudoPot. # 3 for V  read from file:
     /home/pragov/projects/rrg-bengioy-ad/pragov/crystal_structure_design/SSSP/v_pbe_v1.4.uspp.F.UPF
     MD5 check sum: 22b79981416ebb76fdaf5b1b8640f6fb
     Pseudo is Ultrasoft + core correction, Zval = 13.0
     Generated by new atomic code, or converted to UPF format
     Using radial grid of  853 points,  6 beta functions with:
                l(1) =   0
                l(2) =   0
                l(3) =   1
                l(4) =   1
                l(5) =   2
                l(6) =   2
     Q(r) pseudized with  8 coefficients,  rinner =    1.100   1.100   1.100
                                                       1.100   1.100

     PseudoPot. # 4 for O  read from file:
     /home/pragov/projects/rrg-bengioy-ad/pragov/crystal_structure_design/SSSP/O.pbe-n-kjpaw_psl.0.1.UPF
     MD5 check sum: 0234752ac141de4415c5fc33072bef88
     Pseudo is Projector augmented-wave + core cor, Zval =  6.0
     Generated using "atomic" code by A. Dal Corso  v.5.0.99 svn rev. 10869
     Shape of augmentation charge: BESSEL
     Using radial grid of 1095 points,  4 beta functions with:
                l(1) =   0
                l(2) =   0
                l(3) =   1
                l(4) =   1
     Q(r) pseudized with 0 coefficients

     atomic species   valence    mass     pseudopotential
        Na             9.00    22.98977     Na( 1.00)
        Mn            15.00    54.93804     Mn( 1.00)
        V             13.00    50.94150     V ( 1.00)
        O              6.00    15.99900     O ( 1.00)

     No symmetry found

                                    s                        frac. trans.

      isym =  1     identity

 cryst.   s( 1) = (     1          0          0      )
                  (     0          1          0      )
                  (     0          0          1      )

 cart.    s( 1) = (  1.0000000  0.0000000  0.0000000 )
                  (  0.0000000  1.0000000 -0.0000000 )
                  (  0.0000000  0.0000000  1.0000000 )

   Cartesian axes

     site n.     atom                  positions (alat units)
         1           Na  tau(   1) = (   0.3267264   0.4644068   0.8118261  )
         2           Mn  tau(   2) = (   0.6633554   0.2322137   0.4058924  )
         3           Mn  tau(   3) = (   0.3315832   0.4709031   0.0000349  )
         4           Mn  tau(   4) = (   0.9949743   0.7030481   0.4059143  )
         5           V   tau(   5) = (   0.8266094   1.1739623   0.4059175  )
         6           V   tau(   6) = (   0.1583436   0.9352914   0.8118172  )
         7           V   tau(   7) = (   0.4950001   0.7031004   0.4059183  )
         8           V   tau(   8) = (   0.8267250   0.4644149   0.8118237  )
         9           O   tau(   9) = (   0.0758274   1.0849890   0.5683097  )
        10           O   tau(  10) = (   0.6552851   0.4959830   0.5603952  )
        11           O   tau(  11) = (   0.3346890   0.9101948   0.2514293  )
        12           O   tau(  12) = (   0.9141496   0.3211916   0.2435164  )
        13           O   tau(  13) = (   0.6588594   1.2099978   0.6648806  )
        14           O   tau(  14) = (   0.5824449   0.5627350   0.1482055  )
        15           O   tau(  15) = (   0.4075271   0.8434441   0.6636247  )
        16           O   tau(  16) = (   0.3311116   0.1961842   0.1469480  )
        17           O   tau(  17) = (   0.2538785   0.5292422   0.4115670  )
        18           O   tau(  18) = (   0.9970377   0.6954229   0.7116532  )
        19           O   tau(  19) = (  -0.0070603   0.7107497   0.1001705  )
        20           O   tau(  20) = (   0.7361019   0.8769248   0.4002518  )

   Crystallographic axes

     site n.     atom                  positions (cryst. coord.)
         1           Na  tau(   1) = (  0.0000030  0.0000010  0.9999990  )
         2           Mn  tau(   2) = (  0.5000100  0.0000240  0.4999740  )
         3           Mn  tau(   3) = (  0.4999460  0.4999980  0.0000430  )
         4           Mn  tau(   4) = (  0.9999750  0.4999570  0.5000010  )
         5           V   tau(   5) = (  0.9999960  0.9999860  0.5000050  )
         6           V   tau(   6) = (  0.0000030  0.5000060  0.9999880  )
         7           V   tau(   7) = (  0.5000170  0.5000100  0.5000060  )
         8           V   tau(   8) = (  0.5000060  0.0000110  0.9999960  )
         9           O   tau(   9) = (  0.1188260  0.8068710  0.7000380  )
        10           O   tau(  10) = (  0.4924730  0.1862540  0.6902890  )
        11           O   tau(  11) = (  0.5075340  0.8137490  0.3097080  )
        12           O   tau(  12) = (  0.8811840  0.1931340  0.2999610  )
        13           O   tau(  13) = (  0.6879390  0.8809500  0.8189930  )
        14           O   tau(  14) = (  0.6937040  0.5075060  0.1825580  )
        15           O   tau(  15) = (  0.3062980  0.4924950  0.8174460  )
        16           O   tau(  16) = (  0.3120640  0.1190550  0.1810090  )
        17           O   tau(  17) = (  0.1932990  0.3119710  0.5069640  )
        18           O   tau(  18) = (  0.8137260  0.3061480  0.8766070  )
        19           O   tau(  19) = (  0.1862830  0.6938500  0.1233890  )
        20           O   tau(  20) = (  0.8067140  0.6880240  0.4930260  )

     number of k points=     1  Methfessel-Paxton smearing, width (Ry)=  0.0010
                       cart. coord. in units 2pi/alat
        k(    1) = (   0.0000000   0.0000000   0.0000000), wk =   2.0000000

                       cryst. coord.
        k(    1) = (   0.0000000   0.0000000   0.0000000), wk =   2.0000000

     Check: negative core charge=   -0.000025

     Initial potential from superposition of free atoms

     starting charge     176.4885, renormalised to     178.0000

     negative rho (up, down):  5.192E-03 0.000E+00
     Starting wfcs are  132 randomized atomic wfcs
     Checking if some PAW data can be deallocated...

     Self-consistent Calculation

     iteration #  1     ecut=    30.00 Ry     beta= 0.70
     Davidson diagonalization with overlap

     ethr =  1.00E-02,  avg # of iterations =  2.0

     negative rho (up, down):  9.149E-03 0.000E+00

     total energy              =   -1802.61745078 Ry
     estimated scf accuracy    <      10.21129431 Ry

[...]

     total energy              =   -1809.24369713 Ry
     estimated scf accuracy    <       0.00000220 Ry

     iteration # 42     ecut=    30.00 Ry     beta= 0.70
     Davidson diagonalization with overlap

     ethr =  1.23E-09,  avg # of iterations =  1.0

[...]

     End of self-consistent calculation

          k = 0.0000 0.0000 0.0000 (  1990 PWs)   bands (ev):

   -68.9125 -68.9118 -68.9108 -55.0587 -55.0522 -55.0509 -55.0507 -40.5049
   -37.7241 -37.7225 -37.7212 -37.6109 -37.6106 -37.6007 -37.5891 -37.5851
   -37.5836 -28.9231 -28.9227 -28.9157 -28.9080 -28.8847 -28.8842 -28.8655
   -28.8645 -28.7817 -28.7553 -28.7552 -28.7306 -12.4286 -12.4228 -12.4228
    -9.0323  -7.9681  -7.9656  -7.9226  -7.9218  -7.8908  -7.6043  -7.6035
    -7.6015  -7.5198  -7.5013  -7.5003   3.7523   3.7550   4.1271   4.1705
     4.2777   4.2788   4.7028   4.7053   4.7408   5.4406   5.4501   5.4527
     5.4713   5.5865   5.5885   6.4673   6.6634   6.6639   6.7118   6.8051
     6.8391   6.8404   6.9746   6.9769   6.9865   6.9880   7.1371   7.1380
     7.2023   7.3295   7.9648   7.9660   7.9814   8.4940   8.5004   8.5008
     9.8103   9.8122   9.8388  10.1273  10.1282  10.2601  10.4235  10.4246
    10.4741  10.6079  10.6409  10.6412  10.7457  10.7772  10.7776  10.7944
    11.1553  11.1577  11.6297  11.6301  11.7463  11.8449  11.8483  12.4325
    12.5610  12.5626  12.6709

     occupation numbers
     1.0000   1.0000   1.0000   1.0000   1.0000   1.0000   1.0000   1.0000
     1.0000   1.0000   1.0000   1.0000   1.0000   1.0000   1.0000   1.0000
     1.0000   1.0000   1.0000   1.0000   1.0000   1.0000   1.0000   1.0000
     1.0000   1.0000   1.0000   1.0000   1.0000   1.0000   1.0000   1.0000
     1.0000   1.0000   1.0000   1.0000   1.0000   1.0000   1.0000   1.0000
     1.0000   1.0000   1.0000   1.0000   1.0000   1.0000   1.0000   1.0000
     1.0000   1.0000   1.0000   1.0000   1.0000   1.0000   1.0000   1.0000
     1.0000   1.0000   1.0000   1.0000   1.0000   1.0000   1.0000   1.0000
     1.0000   1.0000   1.0000   1.0000   1.0000   1.0000   1.0000   1.0000
     1.0000   1.0000   1.0000   1.0000   1.0000   1.0000   1.0000   1.0000
     1.0000   1.0000   1.0000   1.0000   1.0000   1.0000   1.0000   1.0000
     1.0000  -0.0000  -0.0000  -0.0000  -0.0000  -0.0000  -0.0000  -0.0000
    -0.0000  -0.0000  -0.0000  -0.0000  -0.0000  -0.0000  -0.0000  -0.0000
    -0.0000  -0.0000  -0.0000

     the Fermi energy is    10.5388 ev

!    total energy              =   -1809.24369709 Ry
     estimated scf accuracy    <       0.00000017 Ry
     smearing contrib. (-TS)   =       0.00000000 Ry
     internal energy E=F+TS    =   -1809.24369709 Ry

     The total energy is F=E-TS. E is the sum of the following terms:
     one-electron contribution =    -726.36081243 Ry
     hartree contribution      =     448.91368141 Ry
     xc contribution           =    -260.02189971 Ry
     ewald contribution        =   -1157.50832374 Ry
     one-center paw contrib.   =    -114.26634263 Ry
      -> PAW hartree energy AE =     348.80582333 Ry
      -> PAW hartree energy PS =    -347.55130183 Ry
      -> PAW xc energy AE      =    -205.00557644 Ry
      -> PAW xc energy PS      =      89.48471231 Ry
      -> total E_H with PAW    =     450.16820291 Ry
      -> total E_XC with PAW   =    -375.54276383 Ry

     convergence has been achieved in  42 iterations

     negative rho (up, down):  6.875E-03 0.000E+00

     Forces acting on atoms (cartesian axes, Ry/au):

     atom    1 type  1   force =     0.00000427   -0.00001946    0.00002062
     atom    2 type  2   force =     0.00002574   -0.00009023    0.00001723
     atom    3 type  2   force =     0.00010014   -0.00000075   -0.00006185
     atom    4 type  2   force =     0.00005528    0.00008766   -0.00005437
     atom    5 type  3   force =     0.00004474    0.00003010   -0.00000010
     atom    6 type  3   force =     0.00003952    0.00001239    0.00001066
     atom    7 type  3   force =     0.00002570   -0.00000144   -0.00004496
     atom    8 type  3   force =     0.00008684   -0.00001124    0.00000578
     atom    9 type  4   force =     0.01671854    0.01506336   -0.05119014
     atom   10 type  4   force =     0.01311705   -0.03392346   -0.02372188
     atom   11 type  4   force =    -0.01315429    0.03397355    0.02369433
     atom   12 type  4   force =    -0.01677731   -0.01504122    0.05116797
     atom   13 type  4   force =     0.00852291   -0.05409526   -0.00811399
     atom   14 type  4   force =    -0.03602311   -0.02062552   -0.01068382
     atom   15 type  4   force =     0.03592347    0.02066232    0.01073464
     atom   16 type  4   force =    -0.00860624    0.05410736    0.00820394
     atom   17 type  4   force =    -0.05499175   -0.00192920   -0.01276311
     atom   18 type  4   force =    -0.00734077    0.01110851   -0.04151464
     atom   19 type  4   force =     0.00729968   -0.01118699    0.04153229
     atom   20 type  4   force =     0.05492959    0.00187954    0.01276140
     The non-local contrib.  to forces
     atom    1 type  1   force =     0.00002526    0.00003229    0.00002218
     atom    2 type  2   force =    -0.00003394   -0.00000186   -0.00011043
     atom    3 type  2   force =    -0.00013222    0.00007231    0.00013605
     atom    4 type  2   force =    -0.00008790   -0.00011202   -0.00000820
     atom    5 type  3   force =     0.00000236    0.00000312   -0.00000872
     atom    6 type  3   force =     0.00000744   -0.00002101   -0.00000500
     atom    7 type  3   force =     0.00001819   -0.00001606    0.00001596
     atom    8 type  3   force =     0.00000339    0.00002188   -0.00002469
     atom    9 type  4   force =     0.13951987   -0.00826645   -0.13992006
     atom   10 type  4   force =     0.05581053   -0.16692597   -0.13244913
     atom   11 type  4   force =    -0.05566924    0.16733172    0.13240300
     atom   12 type  4   force =    -0.13975284    0.00825923    0.14000945
     atom   13 type  4   force =    -0.05433712   -0.18522281    0.04017218
     atom   14 type  4   force =    -0.17582944   -0.11175686   -0.07084963
     atom   15 type  4   force =     0.17584298    0.11185573    0.07105944
     atom   16 type  4   force =     0.05423138    0.18525919   -0.04004096
     atom   17 type  4   force =    -0.15681370    0.09265297   -0.07701995
     atom   18 type  4   force =    -0.04551614    0.04159441   -0.21153894
     atom   19 type  4   force =     0.04550044   -0.04190110    0.21150573
     atom   20 type  4   force =     0.15636541   -0.09279395    0.07696065
     The ionic contribution  to forces
     atom    1 type  1   force =     0.00024186   -0.00037897   -0.00024168
     atom    2 type  2   force =    -0.00095956   -0.00233141    0.00145216
     atom    3 type  2   force =     0.00432568    0.00005075   -0.00245585
     atom    4 type  2   force =     0.00070300    0.00449178    0.00112975
     atom    5 type  3   force =    -0.00000558   -0.00292720    0.00207127
     atom    6 type  3   force =    -0.00266102    0.00012714   -0.00211214
     atom    7 type  3   force =    -0.00254432    0.00106196    0.00076415
     atom    8 type  3   force =    -0.00133156   -0.00001519    0.00133993
     atom    9 type  4   force =    -2.28160745    1.97691551    1.36674480
     atom   10 type  4   force =    -1.95640740    1.21003798    2.35593808
     atom   11 type  4   force =     1.95472404   -1.21155655   -2.35389570
     atom   12 type  4   force =     2.28181853   -1.97895100   -1.36751859
     atom   13 type  4   force =     2.63344794    1.95708631   -0.59544079
     atom   14 type  4   force =     1.82277748    2.77348841   -0.01769944
     atom   15 type  4   force =    -1.82373722   -2.77446538    0.01319973
     atom   16 type  4   force =    -2.63201204   -1.95953985    0.59420405
     atom   17 type  4   force =     0.90745972   -2.09428597    2.40881122
     atom   18 type  4   force =     1.99782660   -1.36497910    2.22748249
     atom   19 type  4   force =    -1.99864960    1.36928528   -2.22744150
     atom   20 type  4   force =    -0.90340909    2.09688549   -2.40633195
     The local contribution  to forces
     atom    1 type  1   force =    -0.00028292    0.00038753    0.00016187
     atom    2 type  2   force =     0.00100658    0.00243834   -0.00127165
     atom    3 type  2   force =    -0.00402630   -0.00025104    0.00219988
     atom    4 type  2   force =    -0.00060795   -0.00436380   -0.00080437
     atom    5 type  3   force =     0.00006319    0.00299236   -0.00202310
     atom    6 type  3   force =     0.00256631   -0.00031664    0.00202107
     atom    7 type  3   force =     0.00263555   -0.00118244   -0.00066084
     atom    8 type  3   force =     0.00146476    0.00022455   -0.00156133
     atom    9 type  4   force =     2.16061697   -1.95350138   -1.27991057
     atom   10 type  4   force =     1.91422452   -1.07910949   -2.24898935
     atom   11 type  4   force =    -1.91268814    1.08032406    2.24694720
     atom   12 type  4   force =    -2.16069109    1.95555587    1.28057519
     atom   13 type  4   force =    -2.57093399   -1.82857080    0.54737901
     atom   14 type  4   force =    -1.68492893   -2.68373575    0.07702297
     atom   15 type  4   force =     1.68577303    2.68454705   -0.07268025
     atom   16 type  4   force =     2.56954147    1.83106780   -0.54625457
     atom   17 type  4   force =    -0.80777587    2.00065096   -2.34536092
     atom   18 type  4   force =    -1.95993229    1.33525130   -2.05998904
     atom   19 type  4   force =     1.96070877   -1.33933229    2.05994047
     atom   20 type  4   force =     0.80412608   -2.00320149    2.34305869
     The core correction contribution to forces
     atom    1 type  1   force =     0.00000000    0.00000000    0.00000000
     atom    2 type  2   force =    -0.00000009    0.00000121    0.00000731
     atom    3 type  2   force =     0.00000701   -0.00000294   -0.00000618
     atom    4 type  2   force =     0.00000018    0.00000676    0.00000139
     atom    5 type  3   force =    -0.00000357    0.00000031    0.00000044
     atom    6 type  3   force =    -0.00000172   -0.00000316    0.00000290
     atom    7 type  3   force =    -0.00000511   -0.00000061    0.00000094
     atom    8 type  3   force =     0.00000025    0.00000037    0.00000113
     atom    9 type  4   force =    -0.00157239   -0.00017250    0.00205540
     atom   10 type  4   force =    -0.00063213    0.00204926    0.00154301
     atom   11 type  4   force =     0.00063058   -0.00205403   -0.00154256
     atom   12 type  4   force =     0.00157496    0.00017227   -0.00205610
     atom   13 type  4   force =     0.00036367    0.00253792   -0.00028426
     atom   14 type  4   force =     0.00213666    0.00126887    0.00085888
     atom   15 type  4   force =    -0.00213646   -0.00126976   -0.00086091
     atom   16 type  4   force =    -0.00036255   -0.00253821    0.00028267
     atom   17 type  4   force =     0.00229360   -0.00085301    0.00088191
     atom   18 type  4   force =     0.00046979   -0.00049051    0.00255864
     atom   19 type  4   force =    -0.00046982    0.00049392   -0.00255828
     atom   20 type  4   force =    -0.00228957    0.00085431   -0.00088103
     The Hubbard contrib.    to forces
     atom    1 type  1   force =     0.00000000    0.00000000    0.00000000
     atom    2 type  2   force =     0.00000000    0.00000000    0.00000000
     atom    3 type  2   force =     0.00000000    0.00000000    0.00000000
     atom    4 type  2   force =     0.00000000    0.00000000    0.00000000
     atom    5 type  3   force =     0.00000000    0.00000000    0.00000000
     atom    6 type  3   force =     0.00000000    0.00000000    0.00000000
     atom    7 type  3   force =     0.00000000    0.00000000    0.00000000
     atom    8 type  3   force =     0.00000000    0.00000000    0.00000000
     atom    9 type  4   force =     0.00000000    0.00000000    0.00000000
     atom   10 type  4   force =     0.00000000    0.00000000    0.00000000
     atom   11 type  4   force =     0.00000000    0.00000000    0.00000000
     atom   12 type  4   force =     0.00000000    0.00000000    0.00000000
     atom   13 type  4   force =     0.00000000    0.00000000    0.00000000
     atom   14 type  4   force =     0.00000000    0.00000000    0.00000000
     atom   15 type  4   force =     0.00000000    0.00000000    0.00000000
     atom   16 type  4   force =     0.00000000    0.00000000    0.00000000
     atom   17 type  4   force =     0.00000000    0.00000000    0.00000000
     atom   18 type  4   force =     0.00000000    0.00000000    0.00000000
     atom   19 type  4   force =     0.00000000    0.00000000    0.00000000
     atom   20 type  4   force =     0.00000000    0.00000000    0.00000000
     The SCF correction term to forces
     atom    1 type  1   force =     0.00002003   -0.00006126    0.00007745
     atom    2 type  2   force =     0.00001271   -0.00019746   -0.00006097
     atom    3 type  2   force =    -0.00007406    0.00012921    0.00006344
     atom    4 type  2   force =     0.00004791    0.00006399   -0.00037374
     atom    5 type  3   force =    -0.00001170   -0.00003944   -0.00004079
     atom    6 type  3   force =     0.00012848    0.00022511    0.00010302
     atom    7 type  3   force =    -0.00007866    0.00013477   -0.00016598
     atom    8 type  3   force =    -0.00005003   -0.00024381    0.00024993
     atom    9 type  4   force =    -0.00023850    0.00008724   -0.00016051
     atom   10 type  4   force =     0.00012149    0.00002382    0.00023471
     atom   11 type  4   force =    -0.00015157   -0.00007259   -0.00021842
     atom   12 type  4   force =     0.00027309   -0.00007854    0.00015722
     atom   13 type  4   force =    -0.00001764    0.00007317    0.00005906
     atom   14 type  4   force =    -0.00017892    0.00010886   -0.00001741
     atom   15 type  4   force =     0.00018110   -0.00000628    0.00001583
     atom   16 type  4   force =    -0.00000454   -0.00014252    0.00001195
     atom   17 type  4   force =    -0.00015553   -0.00009510   -0.00007617
     atom   18 type  4   force =    -0.00018877   -0.00026853   -0.00002858
     atom   19 type  4   force =     0.00020985    0.00026624    0.00008507
     atom   20 type  4   force =     0.00013672    0.00013423   -0.00004575

     Total force =     0.173231     Total SCF correction =     0.001114

     Computing stress (Cartesian axis) and pressure

     negative rho (up, down):  6.875E-03 0.000E+00
          total   stress  (Ry/bohr**3)                   (kbar)     P=     -646.51
  -0.00441006   0.00001822   0.00002671         -648.74        2.68        3.93
   0.00001822  -0.00440190   0.00002608            2.68     -647.54        3.84
   0.00002671   0.00002608  -0.00437273            3.93        3.84     -643.25

     kinetic stress (kbar)  34113.92     -3.61     -6.70
                               -3.61  34111.16     -9.85
                               -6.70     -9.85  34099.31

     local   stress (kbar)  -4680.25   -134.31   -214.95
                             -134.31  -4741.07   -248.50
                             -214.95   -248.50  -5037.00

     nonloc. stress (kbar)   3052.25     -1.95     -3.55
                               -1.95   3050.75     -5.01
                               -3.55     -5.01   3044.78

     hartree stress (kbar)  15489.29     57.41     94.73
                               57.41  15517.76    114.40
                               94.73    114.40  15654.53

     exc-cor stress (kbar)  -5708.64     -0.01     -0.06
                               -0.01  -5708.70     -0.18
                               -0.06     -0.18  -5708.91

     corecor stress (kbar)  -2724.58      0.07      0.13
                                0.07  -2724.54      0.17
                                0.13      0.17  -2724.33

     ewald   stress (kbar) -40190.72     85.08    134.34
                               85.08 -40152.91    152.81
                              134.34    152.81 -39971.62

     hubbard stress (kbar)      0.00      0.00      0.00
                                0.00      0.00      0.00
                                0.00      0.00      0.00

     DFT-D   stress (kbar)      0.00      0.00      0.00
                                0.00      0.00      0.00
                                0.00      0.00      0.00

     XDM     stress (kbar)      0.00      0.00      0.00
                                0.00      0.00      0.00
                                0.00      0.00      0.00

     dft-nl  stress (kbar)      0.00      0.00      0.00
                                0.00      0.00      0.00
                                0.00      0.00      0.00

     TS-vdW  stress (kbar)      0.00      0.00      0.00
                                0.00      0.00      0.00
                                0.00      0.00      0.00

[...]

                                0.00      0.00      0.00

     Writing all to output data dir new_calculations/myprefix.save/

     General routines

     Parallel routines

     PAW routines

   This run was terminated on:   0:56: 6  21May2023

   JOB DONE.