     Program PWSCF v.7.0 starts on 21May2023 at  7:34:45

     Reading input from espresso_16933.pwi
Warning: card &CELL ignored
Warning: card / ignored

     Current dimensions of program PWSCF are:
     Max number of different atomic species (ntypx) = 10
     Max number of k-points (npk) =  40000
     Max angular momentum in pseudopotentials (lmaxx) =  4

     gamma-point specific algorithms are used
     Message from routine setup:
     using ibrav=0 with symmetry is DISCOURAGED, use correct ibrav instead

     Subspace diagonalization in iterative solution of the eigenvalue problem:
     a serial algorithm will be used

     Using Slab Decomposition

     bravais-lattice index     =            0
     lattice parameter (alat)  =      18.3031  a.u.
     unit-cell volume          =    3476.5619 (a.u.)^3
     number of atoms/cell      =           16
     number of atomic types    =            2
     number of electrons       =       184.00
     number of Kohn-Sham states=          110
     kinetic-energy cutoff     =      30.0000  Ry
     charge density cutoff     =     240.0000  Ry
     scf convergence threshold =      1.0E-06
     mixing beta               =       0.7000
     number of iterations used =            8  plain     mixing
     Exchange-correlation= SLA  PW   PBE  PBE
                           (   1   4   3   4   0   0   0)

     celldm(1)=  18.303083  celldm(2)=   0.000000  celldm(3)=   0.000000
     celldm(4)=   0.000000  celldm(5)=   0.000000  celldm(6)=   0.000000

     crystal axes: (cart. coord. in units of alat)
               a(1) = (   1.000000   0.000000   0.000000 )
               a(2) = (   0.295517   0.955338   0.000000 )
               a(3) = (  -0.647758  -0.477669   0.593500 )

     reciprocal axes: (cart. coord. in units 2 pi/alat)
               b(1) = (  1.000000 -0.309332  0.842461 )
               b(2) = (  0.000000  1.046750  0.842461 )
               b(3) = (  0.000000  0.000000  1.684921 )

     PseudoPot. # 1 for Ca read from file:
     /home/pragov/projects/rrg-bengioy-ad/pragov/crystal_structure_design/SSSP/Ca_pbe_v1.uspp.F.UPF
     MD5 check sum: 403a4c14b9e4d4dfdc3024c9a3812218
     Pseudo is Ultrasoft + core correction, Zval = 10.0
     Generated by new atomic code, or converted to UPF format
     Using radial grid of  845 points,  6 beta functions with:
                l(1) =   0
                l(2) =   0
                l(3) =   1
                l(4) =   1
                l(5) =   2
                l(6) =   2
     Q(r) pseudized with  8 coefficients,  rinner =    1.500   1.500   1.500
                                                       1.500   1.500

     PseudoPot. # 2 for Sn read from file:
     /home/pragov/projects/rrg-bengioy-ad/pragov/crystal_structure_design/SSSP/Sn_pbe_v1.uspp.F.UPF
     MD5 check sum: 4cf58ce39ec5d5d420df3dd08604eb00
     Pseudo is Ultrasoft + core correction, Zval = 14.0
     Generated by new atomic code, or converted to UPF format
     Using radial grid of  891 points,  6 beta functions with:
                l(1) =   0
                l(2) =   0
                l(3) =   1
                l(4) =   1
                l(5) =   2
                l(6) =   2
     Q(r) pseudized with  6 coefficients,  rinner =    1.200   1.200   1.200
                                                       1.200   1.200

     atomic species   valence    mass     pseudopotential
        Ca            10.00    40.07800     Ca( 1.00)
        Sn            14.00   118.71000     Sn( 1.00)

      4 Sym. Ops., with inversion, found ( 2 have fractional translation)

                                    s                        frac. trans.

      isym =  1     identity

 cryst.   s( 1) = (     1          0          0      )
                  (     0          1          0      )
                  (     0          0          1      )

 cart.    s( 1) = (  1.0000000  0.0000000  0.0000000 )
                  (  0.0000000  1.0000000  0.0000000 )
                  (  0.0000000  0.0000000  1.0000000 )

      isym =  2     180 deg rotation - cart. axis [0,0,1]

 cryst.   s( 2) = (    -1          0          0      )    f =( -0.5000000 )
                  (     0         -1          0      )       ( -0.5000000 )
                  (     1          1          1      )       (  0.0000000 )

 cart.    s( 2) = ( -1.0000000 -0.0000000  0.0000000 )    f =( -0.6477583 )
                  (  0.0000000 -1.0000000  0.0000000 )       ( -0.4776688 )
                  (  0.0000000  0.0000000  1.0000000 )       (  0.0000000 )

      isym =  3     inversion

 cryst.   s( 3) = (    -1          0          0      )
                  (     0         -1          0      )
                  (     0          0         -1      )

 cart.    s( 3) = ( -1.0000000 -0.0000000 -0.0000000 )
                  (  0.0000000 -1.0000000 -0.0000000 )
                  (  0.0000000  0.0000000 -1.0000000 )

      isym =  4     inv. 180 deg rotation - cart. axis [0,0,1]

 cryst.   s( 4) = (     1          0          0      )    f =( -0.5000000 )
                  (     0          1          0      )       ( -0.5000000 )
                  (    -1         -1         -1      )       (  0.0000000 )

 cart.    s( 4) = (  1.0000000  0.0000000 -0.0000000 )    f =( -0.6477583 )
                  (  0.0000000  1.0000000 -0.0000000 )       ( -0.4776688 )
                  (  0.0000000  0.0000000 -1.0000000 )       (  0.0000000 )

   Cartesian axes

     site n.     atom                  positions (alat units)
         1           Ca  tau(   1) = (   0.3611141  -0.1024170   0.5039570  )
         2           Ca  tau(   2) = (   0.2866442   0.5800858   0.0895425  )
         3           Ca  tau(   3) = (   0.6566308   0.8529206   0.0895425  )
         4           Ca  tau(   4) = (   0.1318499   0.2084843   0.2967498  )
         5           Ca  tau(   5) = (  -0.2381367  -0.0643506   0.2967498  )
         6           Ca  tau(   6) = (  -0.0088725  -0.3752518   0.5039570  )
         7           Ca  tau(   7) = (   0.5159084   0.2691845   0.2967498  )
         8           Ca  tau(   8) = (   0.8858950   0.5420194   0.2967498  )
         9           Ca  tau(   9) = (   0.0000000   0.0000000   0.0000000  )
        10           Ca  tau(  10) = (   0.6477583   0.4776688   0.0000000  )
        11           Sn  tau(  11) = (  -0.1761215   0.2388339   0.4459727  )
        12           Sn  tau(  12) = (   0.8238798   0.2388349   0.1475268  )
        13           Sn  tau(  13) = (   0.5602009   0.5964039   0.2967498  )
        14           Sn  tau(  14) = (   0.0875574  -0.1187351   0.2967498  )
        15           Sn  tau(  15) = (   0.3238792   0.2388344   0.0000000  )
        16           Sn  tau(  16) = (   0.9716375   0.7165032   0.0000000  )

   Crystallographic axes

     site n.     atom                  positions (cryst. coord.)
         1           Ca  tau(   1) = (  0.8173590  0.3173590  0.8491280  )
         2           Ca  tau(   2) = (  0.1826410  0.6826410  0.1508720  )
         3           Ca  tau(   3) = (  0.4682310  0.9682310  0.1508720  )
         4           Ca  tau(   4) = (  0.3173590  0.4682310  0.5000000  )
         5           Ca  tau(   5) = (  0.0317690  0.1826410  0.5000000  )
         6           Ca  tau(   6) = (  0.5317690  0.0317690  0.8491280  )
         7           Ca  tau(   7) = (  0.6826410  0.5317690  0.5000000  )
         8           Ca  tau(   8) = (  0.9682310  0.8173590  0.5000000  )
         9           Ca  tau(   9) = (  0.0000000  0.0000000  0.0000000  )
        10           Ca  tau(  10) = (  0.5000000  0.5000000  0.0000000  )
        11           Sn  tau(  11) = (  0.1257140  0.6257140  0.7514290  )
        12           Sn  tau(  12) = (  0.8742860  0.3742860  0.2485710  )
        13           Sn  tau(  13) = (  0.6257140  0.8742860  0.5000000  )
        14           Sn  tau(  14) = (  0.3742860  0.1257140  0.5000000  )
        15           Sn  tau(  15) = (  0.2500000  0.2500000  0.0000000  )
        16           Sn  tau(  16) = (  0.7500000  0.7500000  0.0000000  )

     number of k points=     1  Methfessel-Paxton smearing, width (Ry)=  0.0010
                       cart. coord. in units 2pi/alat
        k(    1) = (   0.0000000   0.0000000   0.0000000), wk =   2.0000000

                       cryst. coord.
        k(    1) = (   0.0000000   0.0000000   0.0000000), wk =   2.0000000

     Check: negative core charge=   -0.000001

     Initial potential from superposition of free atoms

     starting charge     177.9451, renormalised to     184.0000
     Starting wfcs are  154 randomized atomic wfcs

     Self-consistent Calculation

     iteration #  1     ecut=    30.00 Ry     beta= 0.70
     Davidson diagonalization with overlap

     ethr =  1.00E-02,  avg # of iterations =  4.0

     total energy              =   -1728.04139885 Ry
     estimated scf accuracy    <       2.67075336 Ry

[...]

     total energy              =   -1728.92204554 Ry
     estimated scf accuracy    <       0.00002590 Ry

     iteration # 37     ecut=    30.00 Ry     beta= 0.70
     Davidson diagonalization with overlap

     ethr =  8.09E-10,  avg # of iterations =  2.0

     End of self-consistent calculation

          k = 0.0000 0.0000 0.0000 (  4803 PWs)   bands (ev):

   -34.3218 -34.3117 -34.2484 -34.2124 -34.1341 -34.1047 -34.0900 -33.9651
   -33.7733 -33.7648 -15.1237 -15.1049 -15.1043 -15.0868 -15.0832 -15.0751
   -15.0633 -15.0610 -15.0545 -15.0421 -15.0177 -15.0085 -15.0046 -15.0045
   -14.9963 -14.9821 -14.9801 -14.9714 -14.9664 -14.9661 -14.9625 -14.9398
   -14.9349 -14.9104 -14.8535 -14.8417 -14.8288 -14.8222 -14.8106 -14.8042
   -13.8242 -13.7693 -13.7076 -13.6533 -13.6120 -13.6032 -13.5749 -13.5715
   -13.5429 -13.5387 -13.5346 -13.5098 -13.4802 -13.4759 -13.4586 -13.4049
   -13.2932 -13.1192 -13.0022 -12.9340 -12.9264 -12.9130 -12.9071 -12.8701
   -12.8574 -12.8059 -12.5688 -12.5419 -12.4072 -11.9058  -1.0437  -0.3719
     0.9852   1.2058   1.2146   1.2179   4.3509   4.6864   4.7743   5.2217
     5.2367   5.2770   5.3009   5.3135   5.6075   6.7643   6.7798   6.9674
     7.0809   7.0831   7.0878   7.0889   7.0922   7.5574   8.5678   8.5855
     8.7119   8.7809   8.8184   8.8244   8.8331   9.2151   9.2320   9.7358
     9.8392   9.8771   9.8969   9.9407   9.9451   9.9860

     occupation numbers
     1.0000   1.0000   1.0000   1.0000   1.0000   1.0000   1.0000   1.0000
     1.0000   1.0000   1.0000   1.0000   1.0000   1.0000   1.0000   1.0000
     1.0000   1.0000   1.0000   1.0000   1.0000   1.0000   1.0000   1.0000
     1.0000   1.0000   1.0000   1.0000   1.0000   1.0000   1.0000   1.0000
     1.0000   1.0000   1.0000   1.0000   1.0000   1.0000   1.0000   1.0000
     1.0000   1.0000   1.0000   1.0000   1.0000   1.0000   1.0000   1.0000
     1.0000   1.0000   1.0000   1.0000   1.0000   1.0000   1.0000   1.0000
     1.0000   1.0000   1.0000   1.0000   1.0000   1.0000   1.0000   1.0000
     1.0000   1.0000   1.0000   1.0000   1.0000   1.0000   1.0000   1.0000
     1.0000   1.0000   1.0000   1.0000   1.0000   1.0000   1.0000   1.0000
     1.0000   1.0000   1.0000   1.0000   1.0000   1.0000   1.0000   1.0000
     1.0040   0.9612   0.7831   0.7228   0.5289  -0.0000  -0.0000  -0.0000
    -0.0000  -0.0000  -0.0000  -0.0000  -0.0000  -0.0000  -0.0000  -0.0000
    -0.0000  -0.0000  -0.0000  -0.0000  -0.0000  -0.0000

     the Fermi energy is     7.0927 ev

!    total energy              =   -1728.92204595 Ry
     estimated scf accuracy    <       0.00000076 Ry
     smearing contrib. (-TS)   =      -0.00062429 Ry
     internal energy E=F+TS    =   -1728.92142166 Ry

     The total energy is F=E-TS. E is the sum of the following terms:
     one-electron contribution =    -797.68653938 Ry
     hartree contribution      =     467.41498124 Ry
     xc contribution           =    -404.24058599 Ry
     ewald contribution        =    -994.40927753 Ry

     convergence has been achieved in  37 iterations

     Forces acting on atoms (cartesian axes, Ry/au):

     atom    1 type  1   force =     0.01590598   -0.00313757   -0.06869229
     atom    2 type  1   force =    -0.01590598    0.00313757    0.06869229
     atom    3 type  1   force =     0.01590598   -0.00313757    0.06869229
     atom    4 type  1   force =     0.01593449   -0.01271287   -0.00000000
     atom    5 type  1   force =    -0.01150509   -0.00845973    0.00000000
     atom    6 type  1   force =    -0.01590598    0.00313757   -0.06869229
     atom    7 type  1   force =    -0.01593449    0.01271287    0.00000000
     atom    8 type  1   force =     0.01150509    0.00845973   -0.00000000
     atom    9 type  1   force =     0.00000000   -0.00000000    0.00000000
     atom   10 type  1   force =     0.00000000    0.00000000    0.00000000
     atom   11 type  2   force =     0.00000000    0.00000000   -0.02584481
     atom   12 type  2   force =     0.00000000    0.00000000    0.02584481
     atom   13 type  2   force =    -0.01141955    0.02484533   -0.00000000
     atom   14 type  2   force =     0.01141955   -0.02484533    0.00000000
     atom   15 type  2   force =     0.00000000    0.00000000    0.00218099
     atom   16 type  2   force =     0.00000000    0.00000000   -0.00218099
     The non-local contrib.  to forces
     atom    1 type  1   force =    -0.00670579   -0.01698384   -0.04322012
     atom    2 type  1   force =     0.00670579    0.01698384    0.04322012
     atom    3 type  1   force =    -0.00670579   -0.01698384    0.04322012
     atom    4 type  1   force =     0.00347016   -0.03638296    0.00000000
     atom    5 type  1   force =     0.01911358   -0.00463418   -0.00000000
     atom    6 type  1   force =     0.00670579    0.01698384   -0.04322012
     atom    7 type  1   force =    -0.00347016    0.03638296   -0.00000000
     atom    8 type  1   force =    -0.01911358    0.00463418    0.00000000
     atom    9 type  1   force =     0.00000000    0.00000000    0.00000000
     atom   10 type  1   force =     0.00000000   -0.00000000    0.00000000
     atom   11 type  2   force =     0.00000000    0.00000000   -0.09679779
     atom   12 type  2   force =     0.00000000    0.00000000    0.09679779
     atom   13 type  2   force =    -0.04470122    0.07377717   -0.00000000
     atom   14 type  2   force =     0.04470122   -0.07377717    0.00000000
     atom   15 type  2   force =     0.00000000    0.00000000   -0.00085763
     atom   16 type  2   force =     0.00000000    0.00000000    0.00085763
     The ionic contribution  to forces
     atom    1 type  1   force =     5.51390761    4.06605583   -0.66583194
     atom    2 type  1   force =    -5.51390761   -4.06605583    0.66583194
     atom    3 type  1   force =     5.51389531    4.06604676    0.66578022
     atom    4 type  1   force =     5.11870676    4.60190327    0.00002620
     atom    5 type  1   force =    -5.90903436   -3.53015375   -0.00002620
     atom    6 type  1   force =    -5.51389531   -4.06604676   -0.66578022
     atom    7 type  1   force =    -5.11870676   -4.60190327   -0.00002620
     atom    8 type  1   force =     5.90903436    3.53015375    0.00002620
     atom    9 type  1   force =     0.00000000   -0.00000000    0.00000000
     atom   10 type  1   force =     0.00000000    0.00000000    0.00000000
     atom   11 type  2   force =    -0.00000077   -0.00000057    3.50869645
     atom   12 type  2   force =     0.00000077    0.00000057   -3.50869645
     atom   13 type  2   force =     2.08251570   -2.82406333   -0.00000000
     atom   14 type  2   force =    -2.08251570    2.82406333   -0.00000000
     atom   15 type  2   force =     0.00001342   -0.00001819    0.00000000
     atom   16 type  2   force =    -0.00001342    0.00001819    0.00000000
     The local contribution  to forces
     atom    1 type  1   force =    -5.49249483   -4.05730655    0.64543979
     atom    2 type  1   force =     5.49207930    4.05727513   -0.64501846
     atom    3 type  1   force =    -5.49134049   -4.04775977   -0.63935269
     atom    4 type  1   force =    -5.10675346   -4.57749622    0.00605662
     atom    5 type  1   force =     5.87955832    3.52671384    0.00190400
     atom    6 type  1   force =     5.49171359    4.04746049    0.63930510
     atom    7 type  1   force =     5.10675079    4.57793183   -0.00588316
     atom    8 type  1   force =    -5.87955878   -3.52681078   -0.00238657
     atom    9 type  1   force =    -0.00029074    0.00008694   -0.00015206
     atom   10 type  1   force =     0.00029602   -0.00006657    0.00017823
     atom   11 type  2   force =    -0.00472941    0.00402439   -3.44093767
     atom   12 type  2   force =     0.00473422   -0.00370022    3.44049241
     atom   13 type  2   force =    -2.04870875    2.77548425    0.01093913
     atom   14 type  2   force =     2.04875060   -2.77583857   -0.01056582
     atom   15 type  2   force =     0.00537633   -0.00019287    0.00341249
     atom   16 type  2   force =    -0.00536728    0.00019677   -0.00341840
     The core correction contribution to forces
     atom    1 type  1   force =     0.00068501   -0.00069298   -0.00196316
     atom    2 type  1   force =    -0.00068631    0.00069198    0.00196485
     atom    3 type  1   force =     0.00054010    0.00091289    0.00209452
     atom    4 type  1   force =     0.00039314   -0.00065069    0.00075391
     atom    5 type  1   force =    -0.00087542   -0.00049459    0.00070303
     atom    6 type  1   force =    -0.00053929   -0.00091365   -0.00209476
     atom    7 type  1   force =    -0.00039261    0.00065248   -0.00075407
     atom    8 type  1   force =     0.00087546    0.00049456   -0.00070357
     atom    9 type  1   force =    -0.00000070    0.00000070   -0.00000065
     atom   10 type  1   force =     0.00000053   -0.00000033    0.00000103
     atom   11 type  2   force =     0.00031253    0.00033474    0.00269577
     atom   12 type  2   force =    -0.00031260   -0.00033293   -0.00269857
     atom   13 type  2   force =    -0.00013490   -0.00087686    0.00005377
     atom   14 type  2   force =     0.00013506    0.00087509   -0.00005127
     atom   15 type  2   force =     0.00018924   -0.00008827   -0.00017954
     atom   16 type  2   force =    -0.00018883    0.00008869    0.00017936
     The Hubbard contrib.    to forces
     atom    1 type  1   force =     0.00000000    0.00000000    0.00000000
     atom    2 type  1   force =     0.00000000    0.00000000    0.00000000
     atom    3 type  1   force =     0.00000000    0.00000000    0.00000000
     atom    4 type  1   force =     0.00000000    0.00000000    0.00000000
     atom    5 type  1   force =     0.00000000    0.00000000    0.00000000
     atom    6 type  1   force =     0.00000000    0.00000000    0.00000000
     atom    7 type  1   force =     0.00000000    0.00000000    0.00000000
     atom    8 type  1   force =     0.00000000    0.00000000    0.00000000
     atom    9 type  1   force =     0.00000000    0.00000000    0.00000000
     atom   10 type  1   force =     0.00000000    0.00000000    0.00000000
     atom   11 type  2   force =     0.00000000    0.00000000    0.00000000
     atom   12 type  2   force =     0.00000000    0.00000000    0.00000000
     atom   13 type  2   force =     0.00000000    0.00000000    0.00000000
     atom   14 type  2   force =     0.00000000    0.00000000    0.00000000
     atom   15 type  2   force =     0.00000000    0.00000000    0.00000000
     atom   16 type  2   force =     0.00000000    0.00000000    0.00000000
     The SCF correction term to forces
     atom    1 type  1   force =     0.00026705    0.00007669   -0.00027968
     atom    2 type  1   force =     0.00014312   -0.00007596   -0.00012127
     atom    3 type  1   force =    -0.00023908    0.00034598   -0.00022031
     atom    4 type  1   force =     0.00011920   -0.00007942    0.00017838
     atom    5 type  1   force =    -0.00026791    0.00011358   -0.00014533
     atom    6 type  1   force =    -0.00013387   -0.00004167    0.00027499
     atom    7 type  1   force =    -0.00011444   -0.00034430   -0.00037430
     atom    8 type  1   force =     0.00026692   -0.00000737    0.00064312
     atom    9 type  1   force =     0.00028889   -0.00007330    0.00014822
     atom   10 type  1   force =    -0.00029561    0.00005914   -0.00017169
     atom   11 type  2   force =    -0.00007446    0.00005955    0.00050202
     atom   12 type  2   force =     0.00007713   -0.00039061   -0.00004678
     atom   13 type  2   force =    -0.00039446    0.00052702   -0.00019127
     atom   14 type  2   force =     0.00034428   -0.00016507   -0.00018636
     atom   15 type  2   force =     0.00014639   -0.00054379   -0.00019687
     atom   16 type  2   force =    -0.00015758    0.00053724    0.00019791

     Total force =     0.154938     Total SCF correction =     0.001856

     Computing stress (Cartesian axis) and pressure

          total   stress  (Ry/bohr**3)                   (kbar)     P=      -27.91
   0.00001478  -0.00009059   0.00000000            2.17      -13.33        0.00
  -0.00009059  -0.00024359   0.00000000          -13.33      -35.83        0.00
   0.00000000   0.00000000  -0.00034036            0.00        0.00      -50.07

     kinetic stress (kbar)   9473.12     -5.61     -0.00
                               -5.61   9482.96     -0.00
                               -0.00     -0.00   9488.43

     local   stress (kbar)   -187.32   3379.11      1.23
                             3379.11  -2256.79    -10.91
                                1.23    -10.91  -4752.75

     nonloc. stress (kbar)   4058.48    -16.36     -0.00
                              -16.36   3997.27     -0.00
                               -0.00     -0.00   3985.34

     hartree stress (kbar)   5601.78  -1507.07      0.03
                            -1507.07   6531.12      5.00
                                0.03      5.00   7645.00

     exc-cor stress (kbar)   4333.28     -0.54      0.03
                               -0.54   4333.85      0.12
                                0.03      0.12   4334.33

     corecor stress (kbar)  -8025.21      0.20      0.10
                                0.20  -8024.89     -0.03
                                0.10     -0.03  -8024.92

     ewald   stress (kbar) -15251.96  -1863.05     -0.01
                            -1863.05 -14099.35     -0.00
                               -0.01     -0.00 -12725.51

     hubbard stress (kbar)      0.00      0.00      0.00
                                0.00      0.00      0.00
                                0.00      0.00      0.00

     DFT-D   stress (kbar)      0.00      0.00      0.00
                                0.00      0.00      0.00
                                0.00      0.00      0.00

     XDM     stress (kbar)      0.00      0.00      0.00
                                0.00      0.00      0.00
                                0.00      0.00      0.00

     dft-nl  stress (kbar)      0.00      0.00      0.00
                                0.00      0.00      0.00
                                0.00      0.00      0.00

     TS-vdW  stress (kbar)      0.00      0.00      0.00
                                0.00      0.00      0.00
                                0.00      0.00      0.00

[...]

                                0.00      0.00      0.00

     Writing all to output data dir new_calculations/myprefix.save/

     General routines

     Parallel routines

   This run was terminated on:   7:36:29  21May2023

   JOB DONE.