     Program PWSCF v.7.0 starts on 20May2023 at 19:14: 2

     Reading input from espresso_14671.pwi
Warning: card &CELL ignored
Warning: card / ignored

     Current dimensions of program PWSCF are:
     Max number of different atomic species (ntypx) = 10
     Max number of k-points (npk) =  40000
     Max angular momentum in pseudopotentials (lmaxx) =  4
     file Mg.pbe-n-kjpaw_psl.0.3.0.UPF: wavefunction(s)  3S renormalized
     file In.pbe-dn-rrkjus_psl.0.2.2.UPF: wavefunction(s)  5S renormalized

     gamma-point specific algorithms are used
     Message from routine setup:
     using ibrav=0 with symmetry is DISCOURAGED, use correct ibrav instead

     Subspace diagonalization in iterative solution of the eigenvalue problem:
     a serial algorithm will be used

     Using Slab Decomposition

     bravais-lattice index     =            0
     lattice parameter (alat)  =      13.3099  a.u.
     unit-cell volume          =     504.5027 (a.u.)^3
     number of atoms/cell      =            3
     number of atomic types    =            2
     number of electrons       =        28.00
     number of Kohn-Sham states=           18
     kinetic-energy cutoff     =      30.0000  Ry
     charge density cutoff     =     240.0000  Ry
     scf convergence threshold =      1.0E-06
     mixing beta               =       0.7000
     number of iterations used =            8  plain     mixing
     Exchange-correlation= PBE
                           (   1   4   3   4   0   0   0)

     celldm(1)=  13.309892  celldm(2)=   0.000000  celldm(3)=   0.000000
     celldm(4)=   0.000000  celldm(5)=   0.000000  celldm(6)=   0.000000

     crystal axes: (cart. coord. in units of alat)
               a(1) = (   1.000000   0.000000   0.000000 )
               a(2) = (   0.772735   0.634729   0.000000 )
               a(3) = (  -0.886367  -0.317365   0.337094 )

     reciprocal axes: (cart. coord. in units 2 pi/alat)
               b(1) = (  1.000000 -1.217425  1.483264 )
               b(2) = (  0.000000  1.575475  1.483264 )
               b(3) = (  0.000000  0.000000  2.966529 )

     PseudoPot. # 1 for Mg read from file:
     /home/pragov/projects/rrg-bengioy-ad/pragov/crystal_structure_design/SSSP/Mg.pbe-n-kjpaw_psl.0.3.0.UPF
     MD5 check sum: 24ecedc7f3e3cbe212e682f4413594e4
     Pseudo is Projector augmented-wave + core cor, Zval =  2.0
     Generated using "atomic" code by A. Dal Corso  v.5.0.99 svn rev. 10869
     Shape of augmentation charge: PSQ
     Using radial grid of 1129 points,  4 beta functions with:
                l(1) =   0
                l(2) =   0
                l(3) =   1
                l(4) =   1
     Q(r) pseudized with 0 coefficients

     PseudoPot. # 2 for In read from file:
     /home/pragov/projects/rrg-bengioy-ad/pragov/crystal_structure_design/SSSP/In.pbe-dn-rrkjus_psl.0.2.2.UPF
     MD5 check sum: 25e7c42c3b55b68f4bf926be2e7201a4
     Pseudo is Ultrasoft + core correction, Zval = 13.0
     Generated using "atomic" code by A. Dal Corso  v.5.0.99 svn rev. 10869
     Using radial grid of 1241 points,  6 beta functions with:
                l(1) =   0
                l(2) =   0
                l(3) =   1
                l(4) =   1
                l(5) =   2
                l(6) =   2
     Q(r) pseudized with 0 coefficients

     atomic species   valence    mass     pseudopotential
        Mg             2.00    24.30500     Mg( 1.00)
        In            13.00   114.81800     In( 1.00)

      4 Sym. Ops., with inversion, found

                                    s                        frac. trans.

      isym =  1     identity

 cryst.   s( 1) = (     1          0          0      )
                  (     0          1          0      )
                  (     0          0          1      )

 cart.    s( 1) = (  1.0000000 -0.0000000 -0.0000000 )
                  (  0.0000000  1.0000000  0.0000000 )
                  (  0.0000000  0.0000000  1.0000000 )

      isym =  2     180 deg rotation - cart. axis [0,0,1]

[...]

      isym =  3     inversion

[...]

      isym =  4     inv. 180 deg rotation - cart. axis [0,0,1]

 cryst.   s( 4) = (     1          0          0      )
                  (     0          1          0      )
                  (    -1         -1         -1      )

 cart.    s( 4) = (  1.0000000 -0.0000000 -0.0000000 )
                  (  0.0000000  1.0000000 -0.0000000 )
                  (  0.0000000  0.0000000 -1.0000000 )

   Cartesian axes

     site n.     atom                  positions (alat units)
         1           Mg  tau(   1) = (   0.0000000   0.0000000   0.0000000  )
         2           In  tau(   2) = (   0.6015492   0.2153851   0.0000000  )
         3           In  tau(   3) = (   1.1711856   0.4193439   0.0000000  )

   Crystallographic axes

     site n.     atom                  positions (cryst. coord.)
         1           Mg  tau(   1) = (  0.0000000  0.0000000  0.0000000  )
         2           In  tau(   2) = (  0.3393340  0.3393340  0.0000000  )
         3           In  tau(   3) = (  0.6606660  0.6606660  0.0000000  )

     number of k points=     1  Methfessel-Paxton smearing, width (Ry)=  0.0010
                       cart. coord. in units 2pi/alat
        k(    1) = (   0.0000000   0.0000000   0.0000000), wk =   2.0000000

                       cryst. coord.
        k(    1) = (   0.0000000   0.0000000   0.0000000), wk =   2.0000000

     Initial potential from superposition of free atoms

     starting charge      27.9916, renormalised to      28.0000
     Starting wfcs are   22 randomized atomic wfcs
     Checking if some PAW data can be deallocated...

     Self-consistent Calculation

     iteration #  1     ecut=    30.00 Ry     beta= 0.70
     Davidson diagonalization with overlap

     ethr =  1.00E-02,  avg # of iterations =  2.0

     Threshold (ethr) on eigenvalues was too large:
     Diagonalizing with lowered threshold

     Davidson diagonalization with overlap

[...]

     total energy              =    -323.12505749 Ry
     estimated scf accuracy    <       0.09311908 Ry

[...]

     total energy              =    -323.16347186 Ry
     estimated scf accuracy    <       0.00000446 Ry

     iteration # 12     ecut=    30.00 Ry     beta= 0.70
     Davidson diagonalization with overlap

     ethr =  1.59E-08,  avg # of iterations =  6.0

     End of self-consistent calculation

          k = 0.0000 0.0000 0.0000 (   705 PWs)   bands (ev):

    -6.6153  -6.4513  -6.4093  -6.3306  -6.3135  -6.2624  -6.1693  -6.1469
    -6.1114  -5.7354  -0.7051   2.3633   3.6772  13.1368  13.2999  13.4240
    13.4446  13.5330

     occupation numbers
     1.0000   1.0000   1.0000   1.0000   1.0000   1.0000   1.0000   1.0000
     1.0000   1.0000   1.0000   1.0000   1.0000   1.0000  -0.0000  -0.0000
    -0.0000  -0.0000

     the Fermi energy is    13.2303 ev

!    total energy              =    -323.16347235 Ry
     estimated scf accuracy    <       0.00000050 Ry
     smearing contrib. (-TS)   =       0.00000000 Ry
     internal energy E=F+TS    =    -323.16347235 Ry

     The total energy is F=E-TS. E is the sum of the following terms:
     one-electron contribution =    -127.90296137 Ry
     hartree contribution      =      86.79727323 Ry
     xc contribution           =     -96.75401120 Ry
     ewald contribution        =    -154.03620858 Ry
     one-center paw contrib.   =     -31.26756442 Ry
      -> PAW hartree energy AE =       0.52422206 Ry
      -> PAW hartree energy PS =      -0.52309156 Ry
      -> PAW xc energy AE      =     -32.43786297 Ry
      -> PAW xc energy PS      =       1.16916805 Ry
      -> total E_H with PAW    =      86.79840373 Ry
      -> total E_XC with PAW   =    -128.02270613 Ry

     convergence has been achieved in  12 iterations

     Forces acting on atoms (cartesian axes, Ry/au):

     atom    1 type  1   force =     0.00000000    0.00000000    0.00000000
     atom    2 type  2   force =    -0.10269378   -0.04120465    0.00000000
     atom    3 type  2   force =     0.10269378    0.04120465   -0.00000000
     The non-local contrib.  to forces
     atom    1 type  1   force =     0.00000000    0.00000000    0.00000000
     atom    2 type  2   force =     0.11288239    0.03586135   -0.00000000
     atom    3 type  2   force =    -0.11288239   -0.03586135    0.00000000
     The ionic contribution  to forces
     atom    1 type  1   force =    -0.00000000   -0.00000000    0.00000000
     atom    2 type  2   force =     9.85865195    3.52989772   -0.00000000
     atom    3 type  2   force =    -9.85865195   -3.52989772    0.00000000
     The local contribution  to forces
     atom    1 type  1   force =    -0.00015230   -0.00012259    0.00005951
     atom    2 type  2   force =   -10.06823815   -3.60623815    0.00002870
     atom    3 type  2   force =    10.06952588    3.60492838    0.00162079
     The core correction contribution to forces
     atom    1 type  1   force =    -0.00000402   -0.00000799    0.00000558
     atom    2 type  2   force =    -0.00375335   -0.00089968   -0.00055258
     atom    3 type  2   force =     0.00378702    0.00082382    0.00064052
     The Hubbard contrib.    to forces
     atom    1 type  1   force =     0.00000000    0.00000000    0.00000000
     atom    2 type  2   force =     0.00000000    0.00000000    0.00000000
     atom    3 type  2   force =     0.00000000    0.00000000    0.00000000
     The SCF correction term to forces
     atom    1 type  1   force =     0.00009463    0.00003429   -0.00000040
     atom    2 type  2   force =    -0.00213188    0.00006988   -0.00078915
     atom    3 type  2   force =     0.00101997    0.00110730   -0.00057460

     Total force =     0.156485     Total SCF correction =     0.002789

     Computing stress (Cartesian axis) and pressure

          total   stress  (Ry/bohr**3)                   (kbar)     P=     -127.42
   0.00012561   0.00024667  -0.00000000           18.48       36.29       -0.00
   0.00024667  -0.00156509   0.00000000           36.29     -230.23        0.00
  -0.00000000   0.00000000  -0.00115901           -0.00        0.00     -170.50

     kinetic stress (kbar)  11213.90     33.76     -0.00
                               33.76  11013.11     -0.00
                               -0.00     -0.00  11034.35

     local   stress (kbar)   6633.47   5530.97    -66.69
                             5530.97  -6853.64    197.58
                              -66.69    197.58  -8835.35

     nonloc. stress (kbar)   2868.06     -3.52     -0.00
                               -3.52   2836.03     -0.00
                               -0.00     -0.00   2877.28

     hartree stress (kbar)   3785.13  -2664.02     24.03
                            -2664.02  10284.21    -76.53
                               24.03    -76.53  11239.39

     exc-cor stress (kbar)  12739.16      0.19      0.44
                                0.19  12739.51     -1.95
                                0.44     -1.95  12739.37

     corecor stress (kbar) -17265.34     -0.74     -4.03
                               -0.74 -17258.06      4.97
                               -4.03      4.97 -17258.30

     ewald   stress (kbar) -19955.91  -2860.35      0.00
                            -2860.35 -12991.39      0.00
                                0.00      0.00 -11967.24

     hubbard stress (kbar)      0.00      0.00      0.00
                                0.00      0.00      0.00
                                0.00      0.00      0.00

     DFT-D   stress (kbar)      0.00      0.00      0.00
                                0.00      0.00      0.00
                                0.00      0.00      0.00

     XDM     stress (kbar)      0.00      0.00      0.00
                                0.00      0.00      0.00
                                0.00      0.00      0.00

     dft-nl  stress (kbar)      0.00      0.00      0.00
                                0.00      0.00      0.00
                                0.00      0.00      0.00

     TS-vdW  stress (kbar)      0.00      0.00      0.00
                                0.00      0.00      0.00
                                0.00      0.00      0.00

[...]

                                0.00      0.00      0.00

     Writing all to output data dir new_calculations/myprefix.save/

     General routines

     Parallel routines

     PAW routines

   This run was terminated on:  19:14:13  20May2023

   JOB DONE.