     Program PWSCF v.7.0 starts on 20May2023 at  9:28:57

     Reading input from espresso_7218.pwi
Warning: card &CELL ignored
Warning: card / ignored

     Current dimensions of program PWSCF are:
     Max number of different atomic species (ntypx) = 10
     Max number of k-points (npk) =  40000
     Max angular momentum in pseudopotentials (lmaxx) =  4
     file Mg.pbe-n-kjpaw_psl.0.3.0.UPF: wavefunction(s)  3S renormalized
     file In.pbe-dn-rrkjus_psl.0.2.2.UPF: wavefunction(s)  5S renormalized

     gamma-point specific algorithms are used
     Message from routine setup:
     using ibrav=0 with symmetry is DISCOURAGED, use correct ibrav instead

     Subspace diagonalization in iterative solution of the eigenvalue problem:
     a serial algorithm will be used

     Using Slab Decomposition

     bravais-lattice index     =            0
     lattice parameter (alat)  =       6.2892  a.u.
     unit-cell volume          =    1035.7985 (a.u.)^3
     number of atoms/cell      =            6
     number of atomic types    =            2
     number of electrons       =        56.00
     number of Kohn-Sham states=           34
     kinetic-energy cutoff     =      30.0000  Ry
     charge density cutoff     =     240.0000  Ry
     scf convergence threshold =      1.0E-06
     mixing beta               =       0.7000
     number of iterations used =            8  plain     mixing
     Exchange-correlation= PBE
                           (   1   4   3   4   0   0   0)

     celldm(1)=   6.289250  celldm(2)=   0.000000  celldm(3)=   0.000000
     celldm(4)=   0.000000  celldm(5)=   0.000000  celldm(6)=   0.000000

     crystal axes: (cart. coord. in units of alat)
               a(1) = (   1.000000   0.000000   0.000000 )
               a(2) = (  -0.500000   0.866025   0.000000 )
               a(3) = (   0.000000   0.000000   4.807819 )

     reciprocal axes: (cart. coord. in units 2 pi/alat)
               b(1) = (  1.000000  0.577350  0.000000 )
               b(2) = (  0.000000  1.154700  0.000000 )
               b(3) = (  0.000000  0.000000  0.207995 )

     PseudoPot. # 1 for Mg read from file:
     /home/pragov/projects/rrg-bengioy-ad/pragov/crystal_structure_design/SSSP/Mg.pbe-n-kjpaw_psl.0.3.0.UPF
     MD5 check sum: 24ecedc7f3e3cbe212e682f4413594e4
     Pseudo is Projector augmented-wave + core cor, Zval =  2.0
     Generated using "atomic" code by A. Dal Corso  v.5.0.99 svn rev. 10869
     Shape of augmentation charge: PSQ
     Using radial grid of 1129 points,  4 beta functions with:
                l(1) =   0
                l(2) =   0
                l(3) =   1
                l(4) =   1
     Q(r) pseudized with 0 coefficients

     PseudoPot. # 2 for In read from file:
     /home/pragov/projects/rrg-bengioy-ad/pragov/crystal_structure_design/SSSP/In.pbe-dn-rrkjus_psl.0.2.2.UPF
     MD5 check sum: 25e7c42c3b55b68f4bf926be2e7201a4
     Pseudo is Ultrasoft + core correction, Zval = 13.0
     Generated using "atomic" code by A. Dal Corso  v.5.0.99 svn rev. 10869
     Using radial grid of 1241 points,  6 beta functions with:
                l(1) =   0
                l(2) =   0
                l(3) =   1
                l(4) =   1
                l(5) =   2
                l(6) =   2
     Q(r) pseudized with 0 coefficients

     atomic species   valence    mass     pseudopotential
        Mg             2.00    24.30500     Mg( 1.00)
        In            13.00   114.81800     In( 1.00)

     12 Sym. Ops. (no inversion) found

                                    s                        frac. trans.

      isym =  1     identity

 cryst.   s( 1) = (     1          0          0      )
                  (     0          1          0      )
                  (     0          0          1      )

 cart.    s( 1) = (  1.0000000 -0.0000000  0.0000000 )
                  (  0.0000000  1.0000000  0.0000000 )
                  (  0.0000000  0.0000000  1.0000000 )

      isym =  2     180 deg rotation - cart. axis [0,1,0]

[...]

      isym =  3     120 deg rotation - cryst. axis [0,0,1]

[...]

      isym =  6     180 deg rotation - cryst. axis [2,1,0]

[...]

      isym =  7     inv. 180 deg rotation - cart. axis [0,0,1]

[...]

      isym =  8     inv. 180 deg rotation - cart. axis [1,0,0]

[...]

      isym =  9     inv.  60 deg rotation - cryst. axis [0,0,1]

 cryst.   s( 9) = (    -1         -1          0      )
                  (     1          0          0      )
                  (     0          0         -1      )

 cart.    s( 9) = ( -0.5000001  0.8660253  0.0000000 )
                  ( -0.8660255 -0.4999999  0.0000000 )
                  (  0.0000000  0.0000000 -1.0000000 )

[...]

 cryst.   s(10) = (     0          1          0      )
                  (    -1         -1          0      )
                  (     0          0         -1      )

 cart.    s(10) = ( -0.4999999 -0.8660253  0.0000000 )
                  (  0.8660255 -0.5000001  0.0000000 )
                  (  0.0000000  0.0000000 -1.0000000 )

[...]

      isym = 12     inv. 180 deg rotation - cryst. axis [1,1,0]

 cryst.   s(12) = (     0         -1          0      )
                  (    -1          0          0      )
                  (     0          0          1      )

 cart.    s(12) = (  0.4999999 -0.8660255  0.0000000 )
                  ( -0.8660255 -0.4999999  0.0000000 )
                  (  0.0000000  0.0000000  1.0000000 )

   Cartesian axes

     site n.     atom                  positions (alat units)
         1           Mg  tau(   1) = (   0.5000005   0.2886749   1.6332112  )
         2           Mg  tau(   2) = (   0.5000005   0.2886749   3.1746074  )
         3           In  tau(   3) = (   0.0000000   0.0000000   3.9376659  )
         4           In  tau(   4) = (   0.5000005   0.2886749   0.0000000  )
         5           In  tau(   5) = (   0.0000000   0.0000000   0.8701527  )
         6           In  tau(   6) = (   0.0000000   0.0000000   2.4039093  )

   Crystallographic axes

     site n.     atom                  positions (cryst. coord.)
         1           Mg  tau(   1) = (  0.6666670  0.3333330  0.3396990  )
         2           Mg  tau(   2) = (  0.6666670  0.3333330  0.6603010  )
         3           In  tau(   3) = (  0.0000000  0.0000000  0.8190130  )
         4           In  tau(   4) = (  0.6666670  0.3333330  0.0000000  )
         5           In  tau(   5) = (  0.0000000  0.0000000  0.1809870  )
         6           In  tau(   6) = (  0.0000000  0.0000000  0.5000000  )

     number of k points=     1  Methfessel-Paxton smearing, width (Ry)=  0.0010
                       cart. coord. in units 2pi/alat
        k(    1) = (   0.0000000   0.0000000   0.0000000), wk =   2.0000000

                       cryst. coord.
        k(    1) = (   0.0000000   0.0000000   0.0000000), wk =   2.0000000

     Initial potential from superposition of free atoms

     starting charge      55.9833, renormalised to      56.0000
     Starting wfcs are   44 randomized atomic wfcs
     Checking if some PAW data can be deallocated...

     Self-consistent Calculation

     iteration #  1     ecut=    30.00 Ry     beta= 0.70
     Davidson diagonalization with overlap

     ethr =  1.00E-02,  avg # of iterations =  4.0

     Threshold (ethr) on eigenvalues was too large:
     Diagonalizing with lowered threshold

     Davidson diagonalization with overlap

[...]

     total energy              =    -648.44285989 Ry
     estimated scf accuracy    <       0.17875492 Ry

[...]

     total energy              =    -648.51602233 Ry
     estimated scf accuracy    <       0.00001209 Ry

     iteration # 13     ecut=    30.00 Ry     beta= 0.70
     Davidson diagonalization with overlap

     ethr =  2.16E-08,  avg # of iterations =  1.0

     End of self-consistent calculation

          k = 0.0000 0.0000 0.0000 (  1461 PWs)   bands (ev):

    -7.7034  -7.7034  -7.6974  -7.6974  -7.6363  -7.6363  -7.6321  -7.6321
    -7.5604  -7.5158  -7.4613  -7.4596  -7.3714  -7.3714  -7.3326  -7.3326
    -7.2650  -7.2650  -7.2502  -7.2502  -1.6130  -0.7527  -0.7128   0.7942
     3.1002   5.0607   5.4809   9.4899   9.4935  13.9665  15.6439  16.1489
    16.1495  16.5895

     occupation numbers
     1.0000   1.0000   1.0000   1.0000   1.0000   1.0000   1.0000   1.0000
     1.0000   1.0000   1.0000   1.0000   1.0000   1.0000   1.0000   1.0000
     1.0000   1.0000   1.0000   1.0000   1.0000   1.0000   1.0000   1.0000
     1.0000   1.0000   1.0000   0.6097   0.3903  -0.0000  -0.0000  -0.0000
    -0.0000  -0.0000

     the Fermi energy is     9.4917 ev

!    total energy              =    -648.51602244 Ry
     estimated scf accuracy    <       0.00000039 Ry
     smearing contrib. (-TS)   =      -0.00053561 Ry
     internal energy E=F+TS    =    -648.51548683 Ry

     The total energy is F=E-TS. E is the sum of the following terms:
     one-electron contribution =    -330.42952417 Ry
     hartree contribution      =     207.92206091 Ry
     xc contribution           =    -193.55337652 Ry
     ewald contribution        =    -269.86228681 Ry
     one-center paw contrib.   =     -62.59236025 Ry
      -> PAW hartree energy AE =       1.68164026 Ry
      -> PAW hartree energy PS =      -1.67780164 Ry
      -> PAW xc energy AE      =     -65.28034069 Ry
      -> PAW xc energy PS      =       2.68414182 Ry
      -> total E_H with PAW    =     207.92589954 Ry
      -> total E_XC with PAW   =    -256.14957539 Ry

     convergence has been achieved in  13 iterations

     Forces acting on atoms (cartesian axes, Ry/au):

     atom    1 type  1   force =     0.00000000    0.00000000    0.00132248
     atom    2 type  1   force =     0.00000000    0.00000000   -0.00132248
     atom    3 type  2   force =     0.00000000    0.00000000   -0.00828797
     atom    4 type  2   force =     0.00000000    0.00000000    0.00000000
     atom    5 type  2   force =    -0.00000000   -0.00000000    0.00828797
     atom    6 type  2   force =     0.00000000    0.00000000    0.00000000
     The non-local contrib.  to forces
     atom    1 type  1   force =    -0.00000000    0.00000000   -0.01129085
     atom    2 type  1   force =     0.00000000    0.00000000    0.01129085
     atom    3 type  2   force =     0.00000000    0.00000000   -0.03639590
     atom    4 type  2   force =     0.00000000    0.00000000    0.00000000
     atom    5 type  2   force =    -0.00000000   -0.00000000    0.03639590
     atom    6 type  2   force =    -0.00000000   -0.00000000    0.00000000
     The ionic contribution  to forces
     atom    1 type  1   force =    -0.00000045    0.00000026    2.16161904
     atom    2 type  1   force =    -0.00000045    0.00000026   -2.16161904
     atom    3 type  2   force =     0.00000095   -0.00000055  -27.09763218
     atom    4 type  2   force =    -0.00000144    0.00000083   -0.00000000
     atom    5 type  2   force =     0.00000095   -0.00000055   27.09763218
     atom    6 type  2   force =     0.00000044   -0.00000025   -0.00000000
     The local contribution  to forces
     atom    1 type  1   force =     0.00000027   -0.00000004   -2.14975457
     atom    2 type  1   force =    -0.00000198    0.00000133    2.14987371
     atom    3 type  2   force =     0.00000888    0.00001172   27.12584933
     atom    4 type  2   force =     0.00000506   -0.00000884   -0.00037951
     atom    5 type  2   force =     0.00001008    0.00001088  -27.12869217
     atom    6 type  2   force =     0.00000172    0.00000163    0.00234408
     The core correction contribution to forces
     atom    1 type  1   force =     0.00000002    0.00000002    0.00093832
     atom    2 type  1   force =    -0.00000020    0.00000016   -0.00093860
     atom    3 type  2   force =     0.00000222    0.00000236   -0.00198008
     atom    4 type  2   force =     0.00000002   -0.00000041   -0.00002547
     atom    5 type  2   force =     0.00000213    0.00000098    0.00200518
     atom    6 type  2   force =     0.00000067   -0.00000036   -0.00002018
     The Hubbard contrib.    to forces
     atom    1 type  1   force =     0.00000000    0.00000000    0.00000000
     atom    2 type  1   force =     0.00000000    0.00000000    0.00000000
     atom    3 type  2   force =     0.00000000    0.00000000    0.00000000
     atom    4 type  2   force =     0.00000000    0.00000000    0.00000000
     atom    5 type  2   force =     0.00000000    0.00000000    0.00000000
     atom    6 type  2   force =     0.00000000    0.00000000    0.00000000
     The SCF correction term to forces
     atom    1 type  1   force =     0.00000000   -0.00000005   -0.00018791
     atom    2 type  1   force =    -0.00000002   -0.00000005    0.00007215
     atom    3 type  2   force =     0.00000682    0.00000430    0.00175253
     atom    4 type  2   force =     0.00000919    0.00000496    0.00051044
     atom    5 type  2   force =    -0.00000336    0.00000658    0.00082856
     atom    6 type  2   force =     0.00001320    0.00000700   -0.00222521

     Total force =     0.011869     Total SCF correction =     0.003002
     SCF correction compared to forces is large: reduce conv_thr to get better values

     Computing stress (Cartesian axis) and pressure

          total   stress  (Ry/bohr**3)                   (kbar)     P=     -263.03
  -0.00440821   0.00000000   0.00000000         -648.47        0.00        0.00
   0.00000000  -0.00440821   0.00000000            0.00     -648.47        0.00
   0.00000000   0.00000000   0.00345224            0.00        0.00      507.84

     kinetic stress (kbar)  10251.92     -0.00      0.00
                               -0.00  10251.92     -0.00
                                0.00     -0.00  11577.50

     local   stress (kbar) -20269.89     -0.00      0.00
                               -0.00 -20269.89      0.00
                                0.00      0.00  21605.16

     nonloc. stress (kbar)   2639.75     -0.00      0.00
                               -0.00   2639.75      0.00
                                0.00      0.00   2806.73

     hartree stress (kbar)  16458.72      0.00     -0.00
                                0.00  16458.72     -0.00
                               -0.00     -0.00  -3388.15

     exc-cor stress (kbar)  12416.92      0.00     -0.00
                                0.00  12416.92     -0.00
                               -0.00     -0.00  12422.31

     corecor stress (kbar) -16820.41     -0.00      0.00
                               -0.00 -16820.41     -0.00
                                0.00     -0.00 -16840.60

     ewald   stress (kbar)  -5325.48     -0.00      0.00
                               -0.00  -5325.49      0.00
                                0.00      0.00 -27675.12

     hubbard stress (kbar)      0.00      0.00      0.00
                                0.00      0.00      0.00
                                0.00      0.00      0.00

     DFT-D   stress (kbar)      0.00      0.00      0.00
                                0.00      0.00      0.00
                                0.00      0.00      0.00

     XDM     stress (kbar)      0.00      0.00      0.00
                                0.00      0.00      0.00
                                0.00      0.00      0.00

     dft-nl  stress (kbar)      0.00      0.00      0.00
                                0.00      0.00      0.00
                                0.00      0.00      0.00

     TS-vdW  stress (kbar)      0.00      0.00      0.00
                                0.00      0.00      0.00
                                0.00      0.00      0.00

[...]

                                0.00      0.00      0.00

     Writing all to output data dir new_calculations/myprefix.save/

     General routines

     Parallel routines

     PAW routines

   This run was terminated on:   9:29: 9  20May2023

   JOB DONE.