     Program PWSCF v.7.0 starts on 21May2023 at  8:52:46

     Reading input from espresso_21755.pwi
Warning: card &CELL ignored
Warning: card / ignored

     Current dimensions of program PWSCF are:
     Max number of different atomic species (ntypx) = 10
     Max number of k-points (npk) =  40000
     Max angular momentum in pseudopotentials (lmaxx) =  4

     gamma-point specific algorithms are used
     Message from routine setup:
     using ibrav=0 with symmetry is DISCOURAGED, use correct ibrav instead

     Subspace diagonalization in iterative solution of the eigenvalue problem:
     a serial algorithm will be used

     Using Slab Decomposition

     bravais-lattice index     =            0
     lattice parameter (alat)  =      16.6222  a.u.
     unit-cell volume          =    1013.6797 (a.u.)^3
     number of atoms/cell      =            6
     number of atomic types    =            3
     number of electrons       =        98.00
     number of Kohn-Sham states=           59
     kinetic-energy cutoff     =      30.0000  Ry
     charge density cutoff     =     240.0000  Ry
     scf convergence threshold =      1.0E-06
     mixing beta               =       0.7000
     number of iterations used =            8  plain     mixing
     Exchange-correlation=  SLA  PW   PBX  PBC
                           (   1   4   3   4   0   0   0)

     celldm(1)=  16.622235  celldm(2)=   0.000000  celldm(3)=   0.000000
     celldm(4)=   0.000000  celldm(5)=   0.000000  celldm(6)=   0.000000

     crystal axes: (cart. coord. in units of alat)
               a(1) = (   1.000000   0.000000   0.000000 )
               a(2) = (   0.765054   0.643966   0.000000 )
               a(3) = (  -0.882527  -0.321983   0.342744 )

     reciprocal axes: (cart. coord. in units 2 pi/alat)
               b(1) = (  1.000000 -1.188034  1.458817 )
               b(2) = (  0.000000  1.552876  1.458817 )
               b(3) = (  0.000000  0.000000  2.917633 )

     PseudoPot. # 1 for Er read from file:
     /home/pragov/projects/rrg-bengioy-ad/pragov/crystal_structure_design/SSSP/Er.GGA-PBE-paw-v1.0.UPF
     MD5 check sum: 5952a841f12bc97f67d25f9d1b2e7e35
     Pseudo is Projector augmented-wave + core cor, Zval = 22.0
     Generated using ATOMPAW code
     Shape of augmentation charge: BESSEL
     Using radial grid of 1114 points,  8 beta functions with:
                l(1) =   0
                l(2) =   0
                l(3) =   1
                l(4) =   1
                l(5) =   2
                l(6) =   2
                l(7) =   3
                l(8) =   3
     Q(r) pseudized with 0 coefficients

     PseudoPot. # 2 for Zr read from file:
     /home/pragov/projects/rrg-bengioy-ad/pragov/crystal_structure_design/SSSP/Zr_pbe_v1.uspp.F.UPF
     MD5 check sum: 5db81b1e868ab7776c4564c113de050b
     Pseudo is Ultrasoft + core correction, Zval = 12.0
     Generated by new atomic code, or converted to UPF format
     Using radial grid of  887 points,  6 beta functions with:
                l(1) =   0
                l(2) =   0
                l(3) =   1
                l(4) =   1
                l(5) =   2
                l(6) =   2
     Q(r) pseudized with  6 coefficients,  rinner =    1.200   1.200   1.200
                                                       1.200   1.200

     PseudoPot. # 3 for Sb read from file:
     /home/pragov/projects/rrg-bengioy-ad/pragov/crystal_structure_design/SSSP/sb_pbe_v1.4.uspp.F.UPF
     MD5 check sum: 9bc50dfb53373b713f5709b9110fe27f
     Pseudo is Ultrasoft + core correction, Zval = 15.0
     Generated by new atomic code, or converted to UPF format
     Using radial grid of  891 points,  6 beta functions with:
                l(1) =   0
                l(2) =   0
                l(3) =   1
                l(4) =   1
                l(5) =   2
                l(6) =   2
     Q(r) pseudized with  8 coefficients,  rinner =    1.350   1.350   1.350
                                                       1.350   1.350

     atomic species   valence    mass     pseudopotential
        Er            22.00   167.25900     Er( 1.00)
        Zr            12.00    91.22400     Zr( 1.00)
        Sb            15.00   121.76000     Sb( 1.00)

      4 Sym. Ops., with inversion, found

                                    s                        frac. trans.

      isym =  1     identity

 cryst.   s( 1) = (     1          0          0      )
                  (     0          1          0      )
                  (     0          0          1      )

 cart.    s( 1) = (  1.0000000  0.0000000 -0.0000000 )
                  (  0.0000000  1.0000000 -0.0000000 )
                  (  0.0000000  0.0000000  1.0000000 )

      isym =  2     180 deg rotation - cart. axis [0,0,1]

[...]

      isym =  3     inversion

[...]

      isym =  4     inv. 180 deg rotation - cart. axis [0,0,1]

 cryst.   s( 4) = (     1          0          0      )
                  (     0          1          0      )
                  (    -1         -1         -1      )

 cart.    s( 4) = (  1.0000000  0.0000000 -0.0000000 )
                  (  0.0000000  1.0000000 -0.0000000 )
                  (  0.0000000  0.0000000 -1.0000000 )

   Cartesian axes

     site n.     atom                  positions (alat units)
         1           Er  tau(   1) = (   1.1935929   0.4354733   0.0000000  )
         2           Er  tau(   2) = (   0.5714609   0.2084932   0.0000000  )
         3           Zr  tau(   3) = (   0.0587366  -0.1609916   0.1713718  )
         4           Zr  tau(   4) = (  -0.0587366   0.1609916   0.1713718  )
         5           Sb  tau(   5) = (   0.2375603   0.0866721   0.0000000  )
         6           Sb  tau(   6) = (   1.5274934   0.5572944   0.0000000  )

   Crystallographic axes

     site n.     atom                  positions (cryst. coord.)
         1           Er  tau(   1) = (  0.6762360  0.6762360  0.0000000  )
         2           Er  tau(   2) = (  0.3237640  0.3237640  0.0000000  )
         3           Zr  tau(   3) = (  0.5000000 -0.0000000  0.5000000  )
         4           Zr  tau(   4) = ( -0.0000000  0.5000000  0.5000000  )
         5           Sb  tau(   5) = (  0.1345910  0.1345910  0.0000000  )
         6           Sb  tau(   6) = (  0.8654090  0.8654090  0.0000000  )

     number of k points=     1  Methfessel-Paxton smearing, width (Ry)=  0.0010
                       cart. coord. in units 2pi/alat
        k(    1) = (   0.0000000   0.0000000   0.0000000), wk =   2.0000000

                       cryst. coord.
        k(    1) = (   0.0000000   0.0000000   0.0000000), wk =   2.0000000

     Check: negative core charge=   -0.000004

     Initial potential from superposition of free atoms

     starting charge      95.9873, renormalised to      98.0000

     negative rho (up, down):  1.229E-01 0.000E+00
     Starting wfcs are  108 randomized atomic wfcs
     Checking if some PAW data can be deallocated...

     Self-consistent Calculation

     iteration #  1     ecut=    30.00 Ry     beta= 0.70
     Davidson diagonalization with overlap

     ethr =  1.00E-02,  avg # of iterations =  6.0

     negative rho (up, down):  3.511E-02 0.000E+00

     total energy              =   -2328.62241764 Ry
     estimated scf accuracy    <      13.69600782 Ry

[...]

     WARNING: integrated charge=    98.00016668, expected=    98.00000000

[...]

     WARNING: integrated charge=    97.99998174, expected=    98.00000000

[...]

     total energy              =   -2342.72581950 Ry
     estimated scf accuracy    <       0.00000209 Ry

     iteration # 61     ecut=    30.00 Ry     beta= 0.70
     Davidson diagonalization with overlap

     ethr =  1.48E-09,  avg # of iterations =  1.0

[...]

     End of self-consistent calculation

          k = 0.0000 0.0000 0.0000 (  1408 PWs)   bands (ev):

   -44.1587 -34.3906 -34.3813 -32.6606 -15.1053 -14.4177 -14.4148 -14.2344
   -14.1607 -14.0173 -13.5914 -13.4291 -13.1477 -12.9240 -12.3909 -12.1506
   -12.0784 -11.2098 -11.1042 -10.7280  -9.1551  -8.9407  -8.8702  -8.8008
    -8.5424  -8.2872   3.6308   4.5139   9.2021   9.9159  10.3697  11.6765
    11.8403  11.8680  11.9750  12.3909  13.0615  13.0799  13.1190  13.2252
    13.2549  13.2917  13.3039  13.3880  13.4027  13.4832  13.5077  13.5175
    13.5629  13.5635  13.5874  13.6951  13.7696  15.2818  15.3169  16.3808
    16.5701  16.7568  16.7802

     occupation numbers
     1.0000   1.0000   1.0000   1.0000   1.0000   1.0000   1.0000   1.0000
     1.0000   1.0000   1.0000   1.0000   1.0000   1.0000   1.0000   1.0000
     1.0000   1.0000   1.0000   1.0000   1.0000   1.0000   1.0000   1.0000
     1.0000   1.0000   1.0000   1.0000   1.0000   1.0000   1.0000   1.0000
     1.0000   1.0000   1.0000   1.0000   1.0000   1.0000   1.0000   1.0000
     1.0000   1.0000   1.0000   1.0000   1.0000   1.0000   1.0000   1.0000
     0.5248   0.4909  -0.0157  -0.0000  -0.0000  -0.0000  -0.0000  -0.0000
    -0.0000  -0.0000  -0.0000

     the Fermi energy is    13.5633 ev

!    total energy              =   -2342.72581861 Ry
     estimated scf accuracy    <       0.00000080 Ry
     smearing contrib. (-TS)   =      -0.00049816 Ry
     internal energy E=F+TS    =   -2342.72532045 Ry

     The total energy is F=E-TS. E is the sum of the following terms:
     one-electron contribution =    -697.92503617 Ry
     hartree contribution      =     376.35161790 Ry
     xc contribution           =    -190.35043889 Ry
     ewald contribution        =    -859.20876961 Ry
     one-center paw contrib.   =    -971.59269368 Ry
      -> PAW hartree energy AE =     676.98726724 Ry
      -> PAW hartree energy PS =    -603.42110060 Ry
      -> PAW xc energy AE      =   -1107.88015766 Ry
      -> PAW xc energy PS      =      62.72129734 Ry
      -> total E_H with PAW    =     449.91778454 Ry
      -> total E_XC with PAW   =   -1235.50929920 Ry

     convergence has been achieved in  61 iterations

     negative rho (up, down):  9.484E-03 0.000E+00

     Forces acting on atoms (cartesian axes, Ry/au):

     atom    1 type  1   force =     0.09883944   -0.00207982   -0.00000000
     atom    2 type  1   force =    -0.09883944    0.00207982    0.00000000
     atom    3 type  2   force =     0.00000000    0.00000000    0.00000000
     atom    4 type  2   force =     0.00000000    0.00000000    0.00000000
     atom    5 type  3   force =    -0.16501046   -0.05762319    0.00000000
     atom    6 type  3   force =     0.16501046    0.05762319   -0.00000000
     The non-local contrib.  to forces
     atom    1 type  1   force =    -0.05055133   -0.11919298    0.00000000
     atom    2 type  1   force =     0.05055133    0.11919298   -0.00000000
     atom    3 type  2   force =     0.00000000    0.00000000    0.00000000
     atom    4 type  2   force =     0.00000000    0.00000000    0.00000000
     atom    5 type  3   force =     0.25137317    0.05248588   -0.00000000
     atom    6 type  3   force =    -0.25137317   -0.05248588    0.00000000
     The ionic contribution  to forces
     atom    1 type  1   force =    -4.42766880   -1.61540133   -0.00000000
     atom    2 type  1   force =     4.42766880    1.61540133    0.00000000
     atom    3 type  2   force =    -0.00000000    0.00000000   -0.00000000
     atom    4 type  2   force =    -0.00000000   -0.00000000   -0.00000000
     atom    5 type  3   force =    -5.92722535   -2.16250314    0.00000000
     atom    6 type  3   force =     5.92722535    2.16250314   -0.00000000
     The local contribution  to forces
     atom    1 type  1   force =     4.57910362    1.73318806   -0.15075226
     atom    2 type  1   force =    -4.57952376   -1.73351882    0.15103258
     atom    3 type  2   force =     0.00015127    0.00004418    0.00002547
     atom    4 type  2   force =     0.00014343    0.00005555   -0.00004019
     atom    5 type  3   force =     5.50822670    2.05102250   -0.06324221
     atom    6 type  3   force =    -5.50829053   -2.05097209    0.06324802
     The core correction contribution to forces
     atom    1 type  1   force =     0.00000282    0.00000095   -0.00000157
     atom    2 type  1   force =    -0.00000282   -0.00000096    0.00000158
     atom    3 type  2   force =    -0.00000044   -0.00000029   -0.00000042
     atom    4 type  2   force =    -0.00000018   -0.00000008    0.00000029
     atom    5 type  3   force =     0.00476958    0.00218017    0.00107666
     atom    6 type  3   force =    -0.00477022   -0.00217901   -0.00107632
     The Hubbard contrib.    to forces
     atom    1 type  1   force =     0.00000000    0.00000000    0.00000000
     atom    2 type  1   force =     0.00000000    0.00000000    0.00000000
     atom    3 type  2   force =     0.00000000    0.00000000    0.00000000
     atom    4 type  2   force =     0.00000000    0.00000000    0.00000000
     atom    5 type  3   force =     0.00000000    0.00000000    0.00000000
     atom    6 type  3   force =     0.00000000    0.00000000    0.00000000
     The SCF correction term to forces
     atom    1 type  1   force =    -0.00207956   -0.00069280   -0.00049257
     atom    2 type  1   force =     0.00243433    0.00098701    0.00021141
     atom    3 type  2   force =    -0.00015015   -0.00004547   -0.00002775
     atom    4 type  2   force =    -0.00014147   -0.00005717    0.00003897
     atom    5 type  3   force =    -0.00215807   -0.00080767   -0.00003081
     atom    6 type  3   force =     0.00221552    0.00075798    0.00003389

     Total force =     0.283980     Total SCF correction =     0.004779

     Computing stress (Cartesian axis) and pressure

     negative rho (up, down):  9.484E-03 0.000E+00
          total   stress  (Ry/bohr**3)                   (kbar)     P=       14.58
  -0.00097052   0.00153701   0.00000000         -142.77      226.10        0.00
   0.00153701  -0.00000470  -0.00000000          226.10       -0.69       -0.00
   0.00000000  -0.00000000   0.00127266            0.00       -0.00      187.21

     kinetic stress (kbar)  16995.90    173.25     -0.00
                              173.25  17298.05     -0.00
                               -0.00     -0.00  17475.09

     local   stress (kbar)   6562.68   1985.42   -132.96
                             1985.42   2028.44    -30.43
                             -132.96    -30.43   1161.23

     nonloc. stress (kbar)   9858.13      7.31     -0.00
                                7.31   9676.46     -0.00
                               -0.00     -0.00   9823.38

     hartree stress (kbar)  16658.98   -927.42     53.09
                             -927.42  18792.67     16.89
                               53.09     16.89  19164.44

     exc-cor stress (kbar)   1594.28     -0.25     -1.14
                               -0.25   1597.57     -0.43
                               -1.14     -0.43   1598.43

     corecor stress (kbar)  -8512.15      6.67     -1.23
                                6.67  -8514.19     -0.79
                               -1.23     -0.79  -8527.39

     ewald   stress (kbar) -43300.60  -1018.87     -0.00
                            -1018.87 -40879.70     -0.00
                               -0.00     -0.00 -40507.97

     hubbard stress (kbar)      0.00      0.00      0.00
                                0.00      0.00      0.00
                                0.00      0.00      0.00

     DFT-D   stress (kbar)      0.00      0.00      0.00
                                0.00      0.00      0.00
                                0.00      0.00      0.00

     XDM     stress (kbar)      0.00      0.00      0.00
                                0.00      0.00      0.00
                                0.00      0.00      0.00

     dft-nl  stress (kbar)      0.00      0.00      0.00
                                0.00      0.00      0.00
                                0.00      0.00      0.00

     TS-vdW  stress (kbar)      0.00      0.00      0.00
                                0.00      0.00      0.00
                                0.00      0.00      0.00

[...]

                                0.00      0.00      0.00

     Writing all to output data dir new_calculations/myprefix.save/

     General routines

     Parallel routines

     PAW routines

   This run was terminated on:   8:54:47  21May2023

   JOB DONE.