     Program PWSCF v.7.0 starts on 20May2023 at 20: 0:44

     Reading input from espresso_19484.pwi
Warning: card &CELL ignored
Warning: card / ignored

     Current dimensions of program PWSCF are:
     Max number of different atomic species (ntypx) = 10
     Max number of k-points (npk) =  40000
     Max angular momentum in pseudopotentials (lmaxx) =  4
     file C.pbe-n-kjpaw_psl.1.0.0.UPF: wavefunction(s)  2S 2P renormalized

     gamma-point specific algorithms are used
     Message from routine setup:
     using ibrav=0 with symmetry is DISCOURAGED, use correct ibrav instead

     Subspace diagonalization in iterative solution of the eigenvalue problem:
     a serial algorithm will be used

     Using Slab Decomposition

     bravais-lattice index     =            0
     lattice parameter (alat)  =      12.4137  a.u.
     unit-cell volume          =     605.9792 (a.u.)^3
     number of atoms/cell      =            8
     number of atomic types    =            3
     number of electrons       =        67.00
     number of Kohn-Sham states=           41
     kinetic-energy cutoff     =      30.0000  Ry
     charge density cutoff     =     240.0000  Ry
     scf convergence threshold =      1.0E-06
     mixing beta               =       0.7000
     number of iterations used =            8  plain     mixing
     Exchange-correlation= SLA  PW   PBX  PBC
                           (   1   4   3   4   0   0   0)

     celldm(1)=  12.413655  celldm(2)=   0.000000  celldm(3)=   0.000000
     celldm(4)=   0.000000  celldm(5)=   0.000000  celldm(6)=   0.000000

     crystal axes: (cart. coord. in units of alat)
               a(1) = (   1.000000   0.000000   0.000000 )
               a(2) = (   0.640398   0.768043   0.000000 )
               a(3) = (  -0.778470  -0.473147   0.412452 )

     reciprocal axes: (cart. coord. in units 2 pi/alat)
               b(1) = (  1.000000 -0.833804  0.930915 )
               b(2) = (  0.000000  1.302010  1.493611 )
               b(3) = (  0.000000  0.000000  2.424527 )

     PseudoPot. # 1 for Sc read from file:
     /home/pragov/projects/rrg-bengioy-ad/pragov/crystal_structure_design/SSSP/Sc_ONCV_PBE-1.0.oncvpsp.upf
     MD5 check sum: e21af8023abb52e52cb7cd3133e4a229
     Pseudo is Norm-conserving, Zval = 11.0
     Generated using ONCVPSP code by D. R. Hamann
     Using radial grid of 1662 points,  6 beta functions with:
                l(1) =   0
                l(2) =   0
                l(3) =   1
                l(4) =   1
                l(5) =   2
                l(6) =   2

     PseudoPot. # 2 for Ni read from file:
     /home/pragov/projects/rrg-bengioy-ad/pragov/crystal_structure_design/SSSP/ni_pbe_v1.4.uspp.F.UPF
     MD5 check sum: 1ee80287db30b12d2bc1f57a5b5d6409
     Pseudo is Ultrasoft + core correction, Zval = 18.0
     Generated by new atomic code, or converted to UPF format
     Using radial grid of  865 points,  6 beta functions with:
                l(1) =   0
                l(2) =   0
                l(3) =   1
                l(4) =   1
                l(5) =   2
                l(6) =   2
     Q(r) pseudized with 10 coefficients,  rinner =    0.980   0.980   0.980
                                                       0.980   0.980

     PseudoPot. # 3 for C  read from file:
     /home/pragov/projects/rrg-bengioy-ad/pragov/crystal_structure_design/SSSP/C.pbe-n-kjpaw_psl.1.0.0.UPF
     MD5 check sum: 5d2aebdfa2cae82b50a7e79e9516da0f
     Pseudo is Projector augmented-wave + core cor, Zval =  4.0
     Generated using "atomic" code by A. Dal Corso  v.5.1
     Shape of augmentation charge: PSQ
     Using radial grid of 1073 points,  4 beta functions with:
                l(1) =   0
                l(2) =   0
                l(3) =   1
                l(4) =   1
     Q(r) pseudized with 0 coefficients

     atomic species   valence    mass     pseudopotential
        Sc            11.00    44.95591     Sc( 1.00)
        Ni            18.00    58.69340     Ni( 1.00)
        C              4.00    12.01100     C ( 1.00)

      2 Sym. Ops., with inversion, found

                                    s                        frac. trans.

      isym =  1     identity

 cryst.   s( 1) = (     1          0          0      )
                  (     0          1          0      )
                  (     0          0          1      )

 cart.    s( 1) = (  1.0000000 -0.0000000  0.0000000 )
                  (  0.0000000  1.0000000  0.0000000 )
                  (  0.0000000  0.0000000  1.0000000 )

      isym =  2     inversion

 cryst.   s( 2) = (    -1          0          0      )
                  (     0         -1          0      )
                  (     0          0         -1      )

 cart.    s( 2) = ( -1.0000000  0.0000000 -0.0000000 )
                  (  0.0000000 -1.0000000 -0.0000000 )
                  (  0.0000000  0.0000000 -1.0000000 )

   Cartesian axes

     site n.     atom                  positions (alat units)
         1           Sc  tau(   1) = (   0.2378972   0.2911558   0.2062258  )
         2           Sc  tau(   2) = (   0.6240308   0.0037402   0.2062258  )
         3           Sc  tau(   3) = (   0.8201990   0.3840217   0.0000000  )
         4           Ni  tau(   4) = (   0.0000000   0.0000000   0.0000000  )
         5           C   tau(   5) = (   0.2775896  -0.0624994   0.1376120  )
         6           C   tau(   6) = (   0.5843385   0.3573955   0.2748396  )
         7           C   tau(   7) = (   0.3512963  -0.2199212   0.2748396  )
         8           C   tau(   8) = (   0.5106317   0.5148172   0.1376120  )

   Crystallographic axes

     site n.     atom                  positions (cryst. coord.)
         1           Sc  tau(   1) = (  0.1871090  0.6871090  0.5000000  )
         2           Sc  tau(   2) = (  0.8128910  0.3128910  0.5000000  )
         3           Sc  tau(   3) = (  0.5000000  0.5000000  0.0000000  )
         4           Ni  tau(   4) = (  0.0000000  0.0000000  0.0000000  )
         5           C   tau(   5) = (  0.4578070  0.1241640  0.3336440  )
         6           C   tau(   6) = (  0.5421930  0.8758360  0.6663560  )
         7           C   tau(   7) = (  0.7905200  0.1241640  0.6663560  )
         8           C   tau(   8) = (  0.2094800  0.8758360  0.3336440  )

     number of k points=     1  Methfessel-Paxton smearing, width (Ry)=  0.0010
                       cart. coord. in units 2pi/alat
        k(    1) = (   0.0000000   0.0000000   0.0000000), wk =   2.0000000

                       cryst. coord.
        k(    1) = (   0.0000000   0.0000000   0.0000000), wk =   2.0000000

     Check: negative core charge=   -0.000024

     Initial potential from superposition of free atoms

     starting charge      64.9919, renormalised to      67.0000
     Starting wfcs are   59 randomized atomic wfcs
     Checking if some PAW data can be deallocated...

     Self-consistent Calculation

     iteration #  1     ecut=    30.00 Ry     beta= 0.70
     Davidson diagonalization with overlap

     ethr =  1.00E-02,  avg # of iterations =  3.0

     total energy              =    -686.00912795 Ry
     estimated scf accuracy    <       9.89846406 Ry

[...]

     total energy              =    -692.41536199 Ry
     estimated scf accuracy    <       0.00000122 Ry

     iteration # 25     ecut=    30.00 Ry     beta= 0.70
     Davidson diagonalization with overlap

     ethr =  1.82E-09,  avg # of iterations =  2.0

     End of self-consistent calculation

          k = 0.0000 0.0000 0.0000 (   847 PWs)   bands (ev):

   -89.8943 -50.8579 -49.9458 -49.9119 -35.3360 -34.9661 -34.9029 -14.1759
   -14.0173 -13.9932 -13.7332 -13.7290 -13.6890 -13.6192 -13.5468 -13.4233
    -1.3158  -0.1345   6.3976   6.5358   6.8912   7.1889   8.3342   9.4028
    10.1634  10.2852  10.3833  10.8063  11.8738  11.9471  12.4159  13.6127
    14.2283  14.2378  14.4271  14.4345  14.6011  15.3311  16.5733  17.0203
    17.1219

     occupation numbers
     1.0000   1.0000   1.0000   1.0000   1.0000   1.0000   1.0000   1.0000
     1.0000   1.0000   1.0000   1.0000   1.0000   1.0000   1.0000   1.0000
     1.0000   1.0000   1.0000   1.0000   1.0000   1.0000   1.0000   1.0000
     1.0000   1.0000   1.0000   1.0000   1.0000   1.0000   1.0000   1.0000
     0.9712   0.5288  -0.0000  -0.0000  -0.0000  -0.0000  -0.0000  -0.0000
    -0.0000

     the Fermi energy is    14.2383 ev

!    total energy              =    -692.41536159 Ry
     estimated scf accuracy    <       0.00000051 Ry
     smearing contrib. (-TS)   =      -0.00026836 Ry
     internal energy E=F+TS    =    -692.41509323 Ry

     The total energy is F=E-TS. E is the sum of the following terms:
     one-electron contribution =    -352.89878915 Ry
     hartree contribution      =     208.85972069 Ry
     xc contribution           =     -90.24825265 Ry
     ewald contribution        =    -433.42945030 Ry
     one-center paw contrib.   =     -24.69832181 Ry
      -> PAW hartree energy AE =      30.87735817 Ry
      -> PAW hartree energy PS =     -30.84182233 Ry
      -> PAW xc energy AE      =     -40.99078502 Ry
      -> PAW xc energy PS      =      16.25692737 Ry
      -> total E_H with PAW    =     208.89525653 Ry
      -> total E_XC with PAW   =    -114.98211030 Ry

     convergence has been achieved in  25 iterations

     Forces acting on atoms (cartesian axes, Ry/au):

     atom    1 type  1   force =     0.00742997    0.00347770    0.00000016
     atom    2 type  1   force =    -0.00742997   -0.00347770   -0.00000016
     atom    3 type  1   force =     0.00000000    0.00000000    0.00000000
     atom    4 type  2   force =     0.00000000    0.00000000    0.00000000
     atom    5 type  3   force =     0.03240684    0.03439214   -0.01374196
     atom    6 type  3   force =    -0.03240684   -0.03439214    0.01374196
     atom    7 type  3   force =     0.04716741    0.00286620    0.01374102
     atom    8 type  3   force =    -0.04716741   -0.00286620   -0.01374102
     The non-local contrib.  to forces
     atom    1 type  1   force =    -0.00909767   -0.00425960    0.00000012
     atom    2 type  1   force =     0.00909767    0.00425960   -0.00000012
     atom    3 type  1   force =     0.00000000    0.00000000    0.00000000
     atom    4 type  2   force =     0.00000000    0.00000000    0.00000000
     atom    5 type  3   force =     0.02286270   -0.19563084    0.14752616
     atom    6 type  3   force =    -0.02286270    0.19563084   -0.14752616
     atom    7 type  3   force =    -0.13561472    0.14284060   -0.14752742
     atom    8 type  3   force =     0.13561472   -0.14284060    0.14752742
     The ionic contribution  to forces
     atom    1 type  1   force =     8.67471270    4.06154285    0.00001230
     atom    2 type  1   force =    -8.67471270   -4.06154285   -0.00001230
     atom    3 type  1   force =     0.00000000    0.00000000    0.00000000
     atom    4 type  2   force =     0.00000000   -0.00000000    0.00000000
     atom    5 type  3   force =     5.59147741    2.01503985    0.43107743
     atom    6 type  3   force =    -5.59147741   -2.01503985   -0.43107743
     atom    7 type  3   force =     5.12839434    3.00403164   -0.43106075
     atom    8 type  3   force =    -5.12839434   -3.00403164    0.43106075
     The local contribution  to forces
     atom    1 type  1   force =    -8.65878851   -4.05410855    0.00000214
     atom    2 type  1   force =     8.65855703    4.05397641    0.00001587
     atom    3 type  1   force =    -0.00026065   -0.00009458   -0.00001904
     atom    4 type  2   force =     0.00063359    0.00024135    0.00003934
     atom    5 type  3   force =    -5.58305746   -1.78686992   -0.59139727
     atom    6 type  3   force =     5.58309077    1.78664591    0.59156748
     atom    7 type  3   force =    -4.94776213   -3.14366054    0.59136303
     atom    8 type  3   force =     4.94760453    3.14385820   -0.59155658
     The core correction contribution to forces
     atom    1 type  1   force =     0.00000000    0.00000000    0.00000000
     atom    2 type  1   force =     0.00000000    0.00000000    0.00000000
     atom    3 type  1   force =     0.00000000    0.00000000    0.00000000
     atom    4 type  2   force =     0.00002160    0.00001003    0.00000008
     atom    5 type  3   force =     0.00086511    0.00156997   -0.00083289
     atom    6 type  3   force =    -0.00086983   -0.00157156    0.00083250
     atom    7 type  3   force =     0.00175973   -0.00034094    0.00083286
     atom    8 type  3   force =    -0.00176407    0.00033845   -0.00083256
     The Hubbard contrib.    to forces
     atom    1 type  1   force =     0.00000000    0.00000000    0.00000000
     atom    2 type  1   force =     0.00000000    0.00000000    0.00000000
     atom    3 type  1   force =     0.00000000    0.00000000    0.00000000
     atom    4 type  2   force =     0.00000000    0.00000000    0.00000000
     atom    5 type  3   force =     0.00000000    0.00000000    0.00000000
     atom    6 type  3   force =     0.00000000    0.00000000    0.00000000
     atom    7 type  3   force =     0.00000000    0.00000000    0.00000000
     atom    8 type  3   force =     0.00000000    0.00000000    0.00000000
     The SCF correction term to forces
     atom    1 type  1   force =     0.00049633    0.00025421   -0.00001573
     atom    2 type  1   force =    -0.00047908   -0.00021966   -0.00000495
     atom    3 type  1   force =     0.00013266    0.00003302    0.00001984
     atom    4 type  2   force =    -0.00005676    0.00003551   -0.00004414
     atom    5 type  3   force =     0.00020411    0.00024854   -0.00010896
     atom    6 type  3   force =    -0.00034264   -0.00009202   -0.00004801
     atom    7 type  3   force =     0.00032697   -0.00002265    0.00012510
     atom    8 type  3   force =    -0.00029147   -0.00020868    0.00005176

     Total force =     0.099106     Total SCF correction =     0.001055

     Computing stress (Cartesian axis) and pressure

          total   stress  (Ry/bohr**3)                   (kbar)     P=     -250.19
  -0.00251422  -0.00052059  -0.00040902         -369.86      -76.58      -60.17
  -0.00052059  -0.00164606   0.00087359          -76.58     -242.14      128.51
  -0.00040902   0.00087359  -0.00094201          -60.17      128.51     -138.57

     kinetic stress (kbar)  28018.60     20.43    -70.66
                               20.43  27984.46    150.96
                              -70.66    150.96  28054.44

     local   stress (kbar)   3131.02   5158.46  -1404.84
                             5158.46  -5471.09   3000.33
                            -1404.84   3000.33  -6305.41

     nonloc. stress (kbar)   -473.49     48.23     32.42
                               48.23   -553.93    -69.24
                               32.42    -69.24   -612.99

     hartree stress (kbar)  13813.13  -2546.96    377.21
                            -2546.96  18060.40   -805.60
                              377.21   -805.60  18828.42

     exc-cor stress (kbar)  -5153.37     -0.02      4.16
                               -0.02  -5153.34     -8.88
                                4.16     -8.88  -5158.01

     corecor stress (kbar)  -1515.33     -1.02     -0.28
                               -1.02  -1513.64      0.59
                               -0.28      0.59  -1512.85

     ewald   stress (kbar) -38190.40  -2755.71   1001.81
                            -2755.71 -33595.01  -2139.65
                             1001.81  -2139.65 -33432.18

     hubbard stress (kbar)      0.00      0.00      0.00
                                0.00      0.00      0.00
                                0.00      0.00      0.00

     DFT-D   stress (kbar)      0.00      0.00      0.00
                                0.00      0.00      0.00
                                0.00      0.00      0.00

     XDM     stress (kbar)      0.00      0.00      0.00
                                0.00      0.00      0.00
                                0.00      0.00      0.00

     dft-nl  stress (kbar)      0.00      0.00      0.00
                                0.00      0.00      0.00
                                0.00      0.00      0.00

     TS-vdW  stress (kbar)      0.00      0.00      0.00
                                0.00      0.00      0.00
                                0.00      0.00      0.00

[...]

                                0.00      0.00      0.00

     Writing all to output data dir new_calculations/myprefix.save/

     General routines

     Parallel routines

     PAW routines

   This run was terminated on:  20: 2: 5  20May2023

   JOB DONE.