     Program PWSCF v.7.0 starts on 20May2023 at  8:26:52

     Reading input from espresso_12184.pwi
Warning: card &CELL ignored
Warning: card / ignored

     Current dimensions of program PWSCF are:
     Max number of different atomic species (ntypx) = 10
     Max number of k-points (npk) =  40000
     Max angular momentum in pseudopotentials (lmaxx) =  4
     file Al.pbe-n-kjpaw_psl.1.0.0.UPF: wavefunction(s)  3S 3P renormalized

     gamma-point specific algorithms are used
     Message from routine setup:
     using ibrav=0 with symmetry is DISCOURAGED, use correct ibrav instead

     Subspace diagonalization in iterative solution of the eigenvalue problem:
     a serial algorithm will be used

     Using Slab Decomposition

     bravais-lattice index     =            0
     lattice parameter (alat)  =       9.6147  a.u.
     unit-cell volume          =     428.8690 (a.u.)^3
     number of atoms/cell      =            4
     number of atomic types    =            2
     number of electrons       =        21.00
     number of Kohn-Sham states=           15
     kinetic-energy cutoff     =      30.0000  Ry
     charge density cutoff     =     240.0000  Ry
     scf convergence threshold =      1.0E-06
     mixing beta               =       0.7000
     number of iterations used =            8  plain     mixing
     Exchange-correlation= SLA  PW   PBX  PBC
                           (   1   4   3   4   0   0   0)

     celldm(1)=   9.614713  celldm(2)=   0.000000  celldm(3)=   0.000000
     celldm(4)=   0.000000  celldm(5)=   0.000000  celldm(6)=   0.000000

     crystal axes: (cart. coord. in units of alat)
               a(1) = (   1.000000   0.000000   0.000000 )
               a(2) = (   0.429200   0.903210   0.000000 )
               a(3) = (  -0.714600  -0.451605   0.534229 )

     reciprocal axes: (cart. coord. in units 2 pi/alat)
               b(1) = (  1.000000 -0.475194  0.935929 )
               b(2) = (  0.000000  1.107163  0.935929 )
               b(3) = (  0.000000  0.000000  1.871858 )

     PseudoPot. # 1 for Ti read from file:
     /home/pragov/projects/rrg-bengioy-ad/pragov/crystal_structure_design/SSSP/ti_pbe_v1.4.uspp.F.UPF
     MD5 check sum: 88a00a6731bd790ddea75d31a80cb452
     Pseudo is Ultrasoft + core correction, Zval = 12.0
     Generated by new atomic code, or converted to UPF format
     Using radial grid of  851 points,  6 beta functions with:
                l(1) =   0
                l(2) =   0
                l(3) =   1
                l(4) =   1
                l(5) =   2
                l(6) =   2
     Q(r) pseudized with  6 coefficients,  rinner =    1.000   1.000   1.000
                                                       1.000   1.000

     PseudoPot. # 2 for Al read from file:
     /home/pragov/projects/rrg-bengioy-ad/pragov/crystal_structure_design/SSSP/Al.pbe-n-kjpaw_psl.1.0.0.UPF
     MD5 check sum: cfc449ca30b5f3223ec38ddd88ac046d
     Pseudo is Projector augmented-wave + core cor, Zval =  3.0
     Generated using "atomic" code by A. Dal Corso  v.5.1
     Shape of augmentation charge: PSQ
     Using radial grid of 1135 points,  6 beta functions with:
                l(1) =   0
                l(2) =   0
                l(3) =   1
                l(4) =   1
                l(5) =   2
                l(6) =   2
     Q(r) pseudized with 0 coefficients

     atomic species   valence    mass     pseudopotential
        Ti            12.00    47.86700     Ti( 1.00)
        Al             3.00    26.98154     Al( 1.00)

      4 Sym. Ops., with inversion, found

                                    s                        frac. trans.

      isym =  1     identity

 cryst.   s( 1) = (     1          0          0      )
                  (     0          1          0      )
                  (     0          0          1      )

 cart.    s( 1) = (  1.0000000 -0.0000000 -0.0000000 )
                  (  0.0000000  1.0000000 -0.0000000 )
                  (  0.0000000  0.0000000  1.0000000 )

      isym =  2     180 deg rotation - cart. axis [0,0,1]

[...]

      isym =  3     inversion

[...]

      isym =  4     inv. 180 deg rotation - cart. axis [0,0,1]

 cryst.   s( 4) = (     1          0          0      )
                  (     0          1          0      )
                  (    -1         -1         -1      )

 cart.    s( 4) = (  1.0000000 -0.0000000  0.0000000 )
                  (  0.0000000  1.0000000  0.0000000 )
                  (  0.0000000  0.0000000 -1.0000000 )

   Cartesian axes

     site n.     atom                  positions (alat units)
         1           Ti  tau(   1) = (   0.0000000   0.0000000   0.0000000  )
         2           Al  tau(   2) = (   0.7145999   0.4516048   0.0000000  )
         3           Al  tau(   3) = (   0.5000000   0.0000000   0.2671143  )
         4           Al  tau(   4) = (   0.2145999   0.4516048   0.2671143  )

   Crystallographic axes

     site n.     atom                  positions (cryst. coord.)
         1           Ti  tau(   1) = (  0.0000000  0.0000000  0.0000000  )
         2           Al  tau(   2) = (  0.5000000  0.5000000  0.0000000  )
         3           Al  tau(   3) = (  0.7500000  0.2500000  0.5000000  )
         4           Al  tau(   4) = (  0.2500000  0.7500000  0.5000000  )

     number of k points=     1  Methfessel-Paxton smearing, width (Ry)=  0.0010
                       cart. coord. in units 2pi/alat
        k(    1) = (   0.0000000   0.0000000   0.0000000), wk =   2.0000000

                       cryst. coord.
        k(    1) = (   0.0000000   0.0000000   0.0000000), wk =   2.0000000

     Check: negative core charge=   -0.000002

     Initial potential from superposition of free atoms

     starting charge      19.9931, renormalised to      21.0000

     negative rho (up, down):  1.048E-03 0.000E+00
     Starting wfcs are   22 randomized atomic wfcs
     Checking if some PAW data can be deallocated...

     Self-consistent Calculation

     iteration #  1     ecut=    30.00 Ry     beta= 0.70
     Davidson diagonalization with overlap

     ethr =  1.00E-02,  avg # of iterations =  3.0

     negative rho (up, down):  5.761E-04 0.000E+00

     total energy              =    -237.21347937 Ry
     estimated scf accuracy    <       0.25655413 Ry

[...]

     ethr =  7.67E-05,  avg # of iterations =  1.0
     Minimization algorithm failed to find Fermi energy: reverting to bisection
     Possible cause: smearing is larger than the electronic band-gap.

[...]

     ethr =  1.03E-06,  avg # of iterations =  1.0

[...]

     total energy              =    -237.33107571 Ry
     estimated scf accuracy    <       0.00000605 Ry

     iteration # 86     ecut=    30.00 Ry     beta= 0.70
     Davidson diagonalization with overlap

     ethr =  2.88E-08,  avg # of iterations =  1.0
     Minimization algorithm failed to find Fermi energy: reverting to bisection
     Possible cause: smearing is larger than the electronic band-gap.

[...]

     End of self-consistent calculation

          k = 0.0000 0.0000 0.0000 (   602 PWs)   bands (ev):

   -45.7538 -22.3642 -21.9625 -21.9624  -0.6217   6.8031   6.8262   8.3424
     8.3425   8.7295  11.3212  11.3247  11.3248  11.5288  11.7901

     occupation numbers
     1.0000   1.0000   1.0000   1.0000   1.0000   1.0000   1.0000   1.0000
     1.0000   1.0000   0.2768   0.1128   0.1105  -0.0000  -0.0000

     the Fermi energy is    11.3175 ev

!    total energy              =    -237.33107520 Ry
     estimated scf accuracy    <       0.00000092 Ry
     smearing contrib. (-TS)   =      -0.00040388 Ry
     internal energy E=F+TS    =    -237.33067132 Ry

     The total energy is F=E-TS. E is the sum of the following terms:
     one-electron contribution =     -61.19066577 Ry
     hartree contribution      =      39.14296221 Ry
     xc contribution           =     -26.03405446 Ry
     ewald contribution        =     -85.20017358 Ry
     one-center paw contrib.   =    -104.04873971 Ry
      -> PAW hartree energy AE =       4.36456435 Ry
      -> PAW hartree energy PS =      -4.34891365 Ry
      -> PAW xc energy AE      =    -109.84907744 Ry
      -> PAW xc energy PS      =       5.78468703 Ry
      -> total E_H with PAW    =      39.15861290 Ry
      -> total E_XC with PAW   =    -130.09844487 Ry

     convergence has been achieved in  86 iterations

     negative rho (up, down):  5.932E-04 0.000E+00

     Forces acting on atoms (cartesian axes, Ry/au):

     atom    1 type  1   force =     0.00000000    0.00000000    0.00000000
     atom    2 type  2   force =     0.00000000    0.00000000    0.00000000
     atom    3 type  2   force =     0.00000000    0.00000000   -0.00000615
     atom    4 type  2   force =     0.00000000    0.00000000    0.00000615
     The non-local contrib.  to forces
     atom    1 type  1   force =     0.00000000    0.00000000    0.00000000
     atom    2 type  2   force =     0.00000000    0.00000000    0.00000000
     atom    3 type  2   force =     0.00000000    0.00000000   -0.00000067
     atom    4 type  2   force =     0.00000000    0.00000000    0.00000067
     The ionic contribution  to forces
     atom    1 type  1   force =     0.00000000   -0.00000000   -0.00000000
     atom    2 type  2   force =    -0.00000000    0.00000000   -0.00000000
     atom    3 type  2   force =    -0.00000000   -0.00000000    0.00000000
     atom    4 type  2   force =     0.00000000    0.00000000    0.00000000
     The local contribution  to forces
     atom    1 type  1   force =     0.00024645   -0.00015987    0.00020121
     atom    2 type  2   force =    -0.00007935    0.00016214   -0.00012182
     atom    3 type  2   force =    -0.00001616   -0.00000921   -0.00000854
     atom    4 type  2   force =    -0.00003132   -0.00001881    0.00000500
     The core correction contribution to forces
     atom    1 type  1   force =    -0.00001288    0.00002059   -0.00001553
     atom    2 type  2   force =    -0.00000348    0.00000621   -0.00000492
     atom    3 type  2   force =    -0.00000065   -0.00000032   -0.00000039
     atom    4 type  2   force =    -0.00000119   -0.00000082    0.00000010
     The Hubbard contrib.    to forces
     atom    1 type  1   force =     0.00000000    0.00000000    0.00000000
     atom    2 type  2   force =     0.00000000    0.00000000    0.00000000
     atom    3 type  2   force =     0.00000000    0.00000000    0.00000000
     atom    4 type  2   force =     0.00000000    0.00000000    0.00000000
     The SCF correction term to forces
     atom    1 type  1   force =    -0.00026740    0.00018832   -0.00022672
     atom    2 type  2   force =     0.00001112   -0.00004049    0.00002730
     atom    3 type  2   force =     0.00000912    0.00000604    0.00000152
     atom    4 type  2   force =     0.00001359    0.00000858   -0.00000154

     Total force =     0.000009     Total SCF correction =     0.000402
     SCF correction compared to forces is large: reduce conv_thr to get better values

     Computing stress (Cartesian axis) and pressure

     negative rho (up, down):  5.932E-04 0.000E+00
          total   stress  (Ry/bohr**3)                   (kbar)     P=      -15.51
   0.00078028   0.00104777   0.00000000          114.78      154.13        0.00
   0.00104777  -0.00021555   0.00000000          154.13      -31.71        0.00
   0.00000000   0.00000000  -0.00088096            0.00        0.00     -129.59

     kinetic stress (kbar)   7201.85     34.30      0.00
                               34.30   7169.24      0.00
                                0.00      0.00   7148.24

     local   stress (kbar)   -568.26   1935.78      0.01
                             1935.78  -2407.99     -0.01
                                0.01     -0.01  -3634.91

     nonloc. stress (kbar)   2733.48    -41.86      0.00
                              -41.86   2773.25      0.00
                                0.00      0.00   2800.40

     hartree stress (kbar)   3729.05   -883.40     -0.01
                             -883.40   4568.62      0.02
                               -0.01      0.02   5128.64

     exc-cor stress (kbar)   -233.41     -4.03      0.00
                               -4.03   -229.58     -0.00
                                0.00     -0.00   -227.01

     corecor stress (kbar)  -2252.93      5.92     -0.00
                                5.92  -2258.56      0.00
                               -0.00      0.00  -2262.36

     ewald   stress (kbar) -10494.99   -892.59     -0.00
                             -892.59  -9646.68      0.00
                               -0.00      0.00  -9082.59

     hubbard stress (kbar)      0.00      0.00      0.00
                                0.00      0.00      0.00
                                0.00      0.00      0.00

     DFT-D   stress (kbar)      0.00      0.00      0.00
                                0.00      0.00      0.00
                                0.00      0.00      0.00

     XDM     stress (kbar)      0.00      0.00      0.00
                                0.00      0.00      0.00
                                0.00      0.00      0.00

     dft-nl  stress (kbar)      0.00      0.00      0.00
                                0.00      0.00      0.00
                                0.00      0.00      0.00

     TS-vdW  stress (kbar)      0.00      0.00      0.00
                                0.00      0.00      0.00
                                0.00      0.00      0.00

[...]

                                0.00      0.00      0.00

     Writing all to output data dir new_calculations/myprefix.save/

     General routines

     Parallel routines

     PAW routines

   This run was terminated on:   8:28:18  20May2023

   JOB DONE.