     Program PWSCF v.7.1 starts on 16Jul2023 at 17:11: 8

     Reading input from espresso_15896.pwi
Warning: card &CELL ignored
Warning: card / ignored

     Current dimensions of program PWSCF are:
     Max number of different atomic species (ntypx) = 10
     Max number of k-points (npk) =  40000
     Max angular momentum in pseudopotentials (lmaxx) =  4
     Message from routine setup:
     no reason to have ecutrho>4*ecutwfc
     Message from routine setup:
     using ibrav=0 with symmetry is DISCOURAGED, use correct ibrav instead

     K-points division:     npool     =       2
     R & G space division:  proc/nbgrp/npool/nimage =       4
     Subspace diagonalization in iterative solution of the eigenvalue problem:
     a serial algorithm will be used

     Using Slab Decomposition

     bravais-lattice index     =            0
     lattice parameter (alat)  =      12.3115  a.u.
     unit-cell volume          =     310.1739 (a.u.)^3
     number of atoms/cell      =            3
     number of atomic types    =            2
     number of electrons       =        45.00
     number of Kohn-Sham states=           28
     kinetic-energy cutoff     =      30.0000  Ry
     charge density cutoff     =     240.0000  Ry
     scf convergence threshold =      1.0E-06
     mixing beta               =       0.7000
     number of iterations used =            8  plain     mixing
     Exchange-correlation= PBE
                           (   1   4   3   4   0   0   0)

     celldm(1)=  12.311523  celldm(2)=   0.000000  celldm(3)=   0.000000
     celldm(4)=   0.000000  celldm(5)=   0.000000  celldm(6)=   0.000000

     crystal axes: (cart. coord. in units of alat)
               a(1) = (   1.000000   0.000000   0.000000 )
               a(2) = (   0.908218   0.407696   0.000000 )
               a(3) = (   0.091782  -0.001229   0.407694 )

     reciprocal axes: (cart. coord. in units 2 pi/alat)
               b(1) = (  1.000000 -2.227686 -0.231842 )
               b(2) = (  0.000000  2.452811  0.007395 )
               b(3) = (  0.000000  0.000000  2.452822 )

     PseudoPot. # 1 for Mo read from file:
     /lustre07/scratch/pragov/crystal_structure_design/utils/SSSP/Mo_ONCV_PBE-1.0.oncvpsp.upf
     MD5 check sum: 1b5d28e075c9ccadda658a603575cd1f
     Pseudo is Norm-conserving, Zval = 14.0
     Generated using ONCVPSP code by D. R. Hamann
     Using radial grid of 1526 points,  6 beta functions with:
                l(1) =   0
                l(2) =   0
                l(3) =   1
                l(4) =   1
                l(5) =   2
                l(6) =   2

     PseudoPot. # 2 for Rh read from file:
     /lustre07/scratch/pragov/crystal_structure_design/utils/SSSP/Rh_ONCV_PBE-1.0.oncvpsp.upf
     MD5 check sum: ba07c69523b14cacd10683cd4c4284c1
     Pseudo is Norm-conserving, Zval = 17.0
     Generated using ONCVPSP code by D. R. Hamann
     Using radial grid of 1442 points,  6 beta functions with:
                l(1) =   0
                l(2) =   0
                l(3) =   1
                l(4) =   1
                l(5) =   2
                l(6) =   2

     atomic species   valence    mass     pseudopotential
        Mo            14.00    95.95000     Mo( 1.00)
        Rh            17.00   102.90550     Rh( 1.00)

      2 Sym. Ops., with inversion, found

                                    s                        frac. trans.

      isym =  1     identity

 cryst.   s( 1) = (     1          0          0      )
                  (     0          1          0      )
                  (     0          0          1      )

 cart.    s( 1) = (  1.0000000  0.0000000  0.0000000 )
                  (  0.0000000  1.0000000 -0.0000000 )
                  (  0.0000000  0.0000000  1.0000000 )

      isym =  2     inversion

 cryst.   s( 2) = (    -1          0          0      )
                  (     0         -1          0      )
                  (     0          0         -1      )

 cart.    s( 2) = ( -1.0000000  0.0000000 -0.0000000 )
                  (  0.0000000 -1.0000000  0.0000000 )
                  (  0.0000000  0.0000000 -1.0000000 )

   Cartesian axes

     site n.     atom                  positions (alat units)
         1           Mo  tau(   1) = (   0.7104221   0.1380420   0.2688418  )
         2           Mo  tau(   2) = (   1.2895779   0.2684243   0.1388519  )
         3           Rh  tau(   3) = (   0.0000000   0.0000000   0.0000000  )

   Crystallographic axes

     site n.     atom                  positions (cryst. coord.)
         1           Mo  tau(   1) = (  0.3405790  0.3405790  0.6594210  )
         2           Mo  tau(   2) = (  0.6594210  0.6594210  0.3405790  )
         3           Rh  tau(   3) = (  0.0000000  0.0000000  0.0000000  )

     number of k points=    14  Gaussian smearing, width (Ry)=  0.0010
                       cart. coord. in units 2pi/alat
        k(    1) = (   0.0000000   0.0000000   0.0000000), wk =   0.0740741
        k(    2) = (   0.0000000   0.0000000   0.8176074), wk =   0.1481481
        k(    3) = (   0.0000000   0.8176037   0.0024650), wk =   0.1481481
        k(    4) = (   0.0000000   0.8176037   0.8200724), wk =   0.1481481
        k(    5) = (   0.0000000   0.8176037  -0.8151423), wk =   0.1481481
        k(    6) = (   0.3333333  -0.7425620  -0.0772807), wk =   0.1481481
        k(    7) = (   0.3333333  -0.7425620   0.7403266), wk =   0.1481481
        k(    8) = (   0.3333333  -0.7425620  -0.8948881), wk =   0.1481481
        k(    9) = (   0.3333333   0.0750416  -0.0748157), wk =   0.1481481
        k(   10) = (   0.3333333   0.0750416   0.7427917), wk =   0.1481481
        k(   11) = (   0.3333333   0.0750416  -0.8924231), wk =   0.1481481
        k(   12) = (   0.3333333  -1.5601657  -0.0797458), wk =   0.1481481
        k(   13) = (   0.3333333  -1.5601657   0.7378616), wk =   0.1481481
        k(   14) = (   0.3333333  -1.5601657  -0.8973532), wk =   0.1481481

                       cryst. coord.
        k(    1) = (   0.0000000   0.0000000   0.0000000), wk =   0.0740741
        k(    2) = (   0.0000000   0.0000000   0.3333333), wk =   0.1481481
        k(    3) = (   0.0000000   0.3333333   0.0000000), wk =   0.1481481
        k(    4) = (   0.0000000   0.3333333   0.3333333), wk =   0.1481481
        k(    5) = (   0.0000000   0.3333333  -0.3333333), wk =   0.1481481
        k(    6) = (   0.3333333   0.0000000   0.0000000), wk =   0.1481481
        k(    7) = (   0.3333333   0.0000000   0.3333333), wk =   0.1481481
        k(    8) = (   0.3333333   0.0000000  -0.3333333), wk =   0.1481481
        k(    9) = (   0.3333333   0.3333333   0.0000000), wk =   0.1481481
        k(   10) = (   0.3333333   0.3333333   0.3333333), wk =   0.1481481
        k(   11) = (   0.3333333   0.3333333  -0.3333333), wk =   0.1481481
        k(   12) = (   0.3333333  -0.3333333   0.0000000), wk =   0.1481481
        k(   13) = (   0.3333333  -0.3333333   0.3333333), wk =   0.1481481
        k(   14) = (   0.3333333  -0.3333333  -0.3333333), wk =   0.1481481

     Initial potential from superposition of free atoms

     starting charge      44.9976, renormalised to      45.0000
     Starting wfcs are   30 randomized atomic wfcs

     Self-consistent Calculation

     iteration #  1     ecut=    30.00 Ry     beta= 0.70
     Davidson diagonalization with overlap

     ethr =  1.00E-02,  avg # of iterations =  2.3

     total energy              =    -490.78669985 Ry
     estimated scf accuracy    <       0.58734397 Ry

[...]

     total energy              =    -491.20334188 Ry
     estimated scf accuracy    <       0.00000149 Ry

     iteration #  9     ecut=    30.00 Ry     beta= 0.70
     Davidson diagonalization with overlap

     ethr =  3.31E-09,  avg # of iterations =  2.0

     End of self-consistent calculation

          k = 0.0000 0.0000 0.0000 (   885 PWs)   bands (ev):

   -57.0478 -40.1837 -40.1003 -24.9703 -24.7452 -24.7416 -14.3590 -13.8594
   -13.7790 -13.7748 -13.6726 -13.6449  13.9974  16.1447  16.3405  16.5313
    17.0933  18.9287  19.2278  19.6458  20.4491  21.0524  21.4866  21.7882
    22.5948  22.6948  23.3461  23.4102

     occupation numbers
     1.0000   1.0000   1.0000   1.0000   1.0000   1.0000   1.0000   1.0000
     1.0000   1.0000   1.0000   1.0000   1.0000   1.0000   1.0000   1.0000
     1.0000   1.0000   1.0000   1.0000   1.0000   1.0000   1.0000   0.0000
     0.0000   0.0000   0.0000   0.0000

[...]

          k = 0.3333-1.5602-0.8974 (   850 PWs)   bands (ev):

   -56.9995 -39.9846 -39.9546 -24.9910 -24.9629 -24.9143 -14.4906 -14.3999
   -14.3656 -14.2154 -14.0079 -13.8491  16.5823  16.7952  17.1693  17.2534
    17.7879  18.2353  18.6317  19.8142  20.3596  20.8498  22.3847  22.4123
    22.7234  23.0864  23.9306  24.5350

     occupation numbers
     1.0000   1.0000   1.0000   1.0000   1.0000   1.0000   1.0000   1.0000
     1.0000   1.0000   1.0000   1.0000   1.0000   1.0000   1.0000   1.0000
     1.0000   1.0000   1.0000   1.0000   1.0000   1.0000   0.0000   0.0000
     0.0000   0.0000   0.0000   0.0000

     the Fermi energy is    21.6755 ev

!    total energy              =    -491.20334206 Ry
     estimated scf accuracy    <       0.00000002 Ry
     smearing contrib. (-TS)   =      -0.00005153 Ry
     internal energy E=F+TS    =    -491.20329053 Ry

     The total energy is F=E-TS. E is the sum of the following terms:
     one-electron contribution =    -104.61911388 Ry
     hartree contribution      =      79.46215640 Ry
     xc contribution           =     -53.18762019 Ry
     ewald contribution        =    -412.85871287 Ry

     convergence has been achieved in   9 iterations

     Writing all to output data dir energy_m/myprefix.save/

     General routines

     Parallel routines

   This run was terminated on:  17:11:10  16Jul2023

   JOB DONE.