     Program PWSCF v.7.0 starts on 20May2023 at 17:23:27

     Reading input from espresso_16508.pwi
Warning: card &CELL ignored
Warning: card / ignored

     Current dimensions of program PWSCF are:
     Max number of different atomic species (ntypx) = 10
     Max number of k-points (npk) =  40000
     Max angular momentum in pseudopotentials (lmaxx) =  4
     file Nb.pbe-spn-kjpaw_psl.0.3.0.UPF: wavefunction(s)  4S 4P renormalized
     file O.pbe-n-kjpaw_psl.0.1.UPF: wavefunction(s)  2P renormalized

     gamma-point specific algorithms are used
     Message from routine setup:
     using ibrav=0 with symmetry is DISCOURAGED, use correct ibrav instead

     Subspace diagonalization in iterative solution of the eigenvalue problem:
     a serial algorithm will be used

     Using Slab Decomposition

     bravais-lattice index     =            0
     lattice parameter (alat)  =      16.9110  a.u.
     unit-cell volume          =    1644.2273 (a.u.)^3
     number of atoms/cell      =           18
     number of atomic types    =            3
     number of electrons       =       154.00
     number of Kohn-Sham states=           92
     kinetic-energy cutoff     =      30.0000  Ry
     charge density cutoff     =     240.0000  Ry
     scf convergence threshold =      1.0E-06
     mixing beta               =       0.7000
     number of iterations used =            8  plain     mixing
     Exchange-correlation= SLA  PW   PBX  PBC
                           (   1   4   3   4   0   0   0)

     celldm(1)=  16.910973  celldm(2)=   0.000000  celldm(3)=   0.000000
     celldm(4)=   0.000000  celldm(5)=   0.000000  celldm(6)=   0.000000

     crystal axes: (cart. coord. in units of alat)
               a(1) = (   1.000000   0.000000   0.000000 )
               a(2) = (   0.841251   0.540645   0.000000 )
               a(3) = (   0.012894   0.003786   0.628846 )

     reciprocal axes: (cart. coord. in units 2 pi/alat)
               b(1) = (  1.000000 -1.556014 -0.011136 )
               b(2) = (  0.000000  1.849643 -0.011136 )
               b(3) = (  0.000000  0.000000  1.590215 )

     PseudoPot. # 1 for Nb read from file:
     /home/pragov/projects/rrg-bengioy-ad/pragov/crystal_structure_design/SSSP/Nb.pbe-spn-kjpaw_psl.0.3.0.UPF
     MD5 check sum: 411d72ad547312f8017e2943ceca08cc
     Pseudo is Projector augmented-wave + core cor, Zval = 13.0
     Generated using "atomic" code by A. Dal Corso  v.5.0.99 svn rev. 10869
     Shape of augmentation charge: PSQ
     Using radial grid of 1227 points,  6 beta functions with:
                l(1) =   0
                l(2) =   0
                l(3) =   1
                l(4) =   1
                l(5) =   2
                l(6) =   2
     Q(r) pseudized with 0 coefficients

     PseudoPot. # 2 for Sb read from file:
     /home/pragov/projects/rrg-bengioy-ad/pragov/crystal_structure_design/SSSP/sb_pbe_v1.4.uspp.F.UPF
     MD5 check sum: 9bc50dfb53373b713f5709b9110fe27f
     Pseudo is Ultrasoft + core correction, Zval = 15.0
     Generated by new atomic code, or converted to UPF format
     Using radial grid of  891 points,  6 beta functions with:
                l(1) =   0
                l(2) =   0
                l(3) =   1
                l(4) =   1
                l(5) =   2
                l(6) =   2
     Q(r) pseudized with  8 coefficients,  rinner =    1.350   1.350   1.350
                                                       1.350   1.350

     PseudoPot. # 3 for O  read from file:
     /home/pragov/projects/rrg-bengioy-ad/pragov/crystal_structure_design/SSSP/O.pbe-n-kjpaw_psl.0.1.UPF
     MD5 check sum: 0234752ac141de4415c5fc33072bef88
     Pseudo is Projector augmented-wave + core cor, Zval =  6.0
     Generated using "atomic" code by A. Dal Corso  v.5.0.99 svn rev. 10869
     Shape of augmentation charge: BESSEL
     Using radial grid of 1095 points,  4 beta functions with:
                l(1) =   0
                l(2) =   0
                l(3) =   1
                l(4) =   1
     Q(r) pseudized with 0 coefficients

     atomic species   valence    mass     pseudopotential
        Nb            13.00    92.90637     Nb( 1.00)
        Sb            15.00   121.76000     Sb( 1.00)
        O              6.00    15.99900     O ( 1.00)

      2 Sym. Ops., with inversion, found

                                    s                        frac. trans.

      isym =  1     identity

 cryst.   s( 1) = (     1          0          0      )
                  (     0          1          0      )
                  (     0          0          1      )

 cart.    s( 1) = (  1.0000000 -0.0000000 -0.0000000 )
                  (  0.0000000  1.0000000 -0.0000000 )
                  (  0.0000000  0.0000000  1.0000000 )

      isym =  2     inversion

 cryst.   s( 2) = (    -1          0          0      )
                  (     0         -1          0      )
                  (     0          0         -1      )

 cart.    s( 2) = ( -1.0000000  0.0000000  0.0000000 )
                  (  0.0000000 -1.0000000  0.0000000 )
                  (  0.0000000  0.0000000 -1.0000000 )

   Cartesian axes

     site n.     atom                  positions (alat units)
         1           Nb  tau(   1) = (   1.2887774   0.2346919   0.5210634  )
         2           Nb  tau(   2) = (   1.2046234   0.4974430   0.2066406  )
         3           Nb  tau(   3) = (   0.6495211   0.0469877   0.4222051  )
         4           Nb  tau(   4) = (   0.5653672   0.3097388   0.1077823  )
         5           Sb  tau(   5) = (   0.8816154   0.4389500   0.4716343  )
         6           Sb  tau(   6) = (   0.9725291   0.1054807   0.1572114  )
         7           O   tau(   7) = (   1.4577276   0.3902438   0.5338523  )
         8           O   tau(   8) = (   1.4308513   0.4579269   0.2194294  )
         9           O   tau(   9) = (   1.1895070   0.3244413   0.3590923  )
        10           O   tau(  10) = (   1.1696347   0.3682712   0.0446694  )
        11           O   tau(  11) = (   1.1220368   0.0831366   0.5781494  )
        12           O   tau(  12) = (   0.9824152   0.5347916   0.2637266  )
        13           O   tau(  13) = (   0.8717293   0.0096391   0.3651191  )
        14           O   tau(  14) = (   0.7321077   0.4612941   0.0506963  )
        15           O   tau(  15) = (   0.6845098   0.1761595   0.5841763  )
        16           O   tau(  16) = (   0.6646375   0.2199894   0.2697534  )
        17           O   tau(  17) = (   0.4232932   0.0865038   0.4094163  )
        18           O   tau(  18) = (   0.3964169   0.1541869   0.0949934  )

   Crystallographic axes

     site n.     atom                  positions (cryst. coord.)
         1           Nb  tau(   1) = (  0.9177910  0.4282940  0.8286030  )
         2           Nb  tau(   2) = (  0.4282940  0.9177910  0.3286030  )
         3           Nb  tau(   3) = (  0.5717060  0.0822090  0.6713970  )
         4           Nb  tau(   4) = (  0.0822090  0.5717060  0.1713970  )
         5           Sb  tau(   5) = (  0.1933510  0.8066490  0.7500000  )
         6           Sb  tau(   6) = (  0.8066490  0.1933510  0.2500000  )
         7           O   tau(   7) = (  0.8445580  0.7158670  0.8489400  )
         8           O   tau(   8) = (  0.7158670  0.8445580  0.3489400  )
         9           O   tau(   9) = (  0.6806730  0.5961020  0.5710340  )
        10           O   tau(  10) = (  0.5961020  0.6806730  0.0710340  )
        11           O   tau(  11) = (  0.9862370  0.1473350  0.9193820  )
        12           O   tau(  12) = (  0.1473350  0.9862370  0.4193820  )
        13           O   tau(  13) = (  0.8526650  0.0137630  0.5806180  )
        14           O   tau(  14) = (  0.0137630  0.8526650  0.0806180  )
        15           O   tau(  15) = (  0.4038980  0.3193270  0.9289660  )
        16           O   tau(  16) = (  0.3193270  0.4038980  0.4289660  )
        17           O   tau(  17) = (  0.2841330  0.1554420  0.6510600  )
        18           O   tau(  18) = (  0.1554420  0.2841330  0.1510600  )

     number of k points=     1  Methfessel-Paxton smearing, width (Ry)=  0.0010
                       cart. coord. in units 2pi/alat
        k(    1) = (   0.0000000   0.0000000   0.0000000), wk =   2.0000000

                       cryst. coord.
        k(    1) = (   0.0000000   0.0000000   0.0000000), wk =   2.0000000

     Check: negative core charge=   -0.000019

     Initial potential from superposition of free atoms

     starting charge     151.9915, renormalised to     154.0000
     Starting wfcs are  106 randomized atomic wfcs
     Checking if some PAW data can be deallocated...

     Self-consistent Calculation

     iteration #  1     ecut=    30.00 Ry     beta= 0.70
     Davidson diagonalization with overlap

     ethr =  1.00E-02,  avg # of iterations =  2.0

     total energy              =   -2200.26222230 Ry
     estimated scf accuracy    <      12.52476824 Ry

[...]

     total energy              =   -2207.20206496 Ry
     estimated scf accuracy    <       0.00000107 Ry

     iteration # 24     ecut=    30.00 Ry     beta= 0.70
     Davidson diagonalization with overlap

     ethr =  6.92E-10,  avg # of iterations =  1.0

     End of self-consistent calculation

          k = 0.0000 0.0000 0.0000 (  2282 PWs)   bands (ev):

   -46.0122 -45.9985 -45.9966 -45.9923 -22.4671 -22.4648 -22.3194 -22.3124
   -22.1241 -22.0770 -22.0469 -22.0443 -21.9874 -21.9611 -21.9139 -21.8905
   -20.0449 -20.0043 -19.9951 -19.9939 -19.9770 -19.9655 -19.9255 -19.8901
   -19.8769 -19.8602 -10.1776  -8.9716  -8.8133  -8.7565  -8.5761  -8.4511
    -8.2303  -8.1997  -7.5705  -7.5284  -7.5153  -7.5022  -0.3646   1.2054
     2.9227   3.4786   3.4966   3.6098   3.8992   4.0776   4.2782   4.3047
     4.3489   4.6582   4.6910   5.1315   5.2412   5.3455   5.4621   5.7599
     6.0766   6.0949   6.1362   6.2888   6.3975   6.6269   6.6648   6.8179
     6.9126   7.0111   7.1270   7.1462   7.3760   7.4021   7.4386   7.5853
     7.7644   7.8455   8.1139   8.4087  11.2905  11.3138  11.4598  11.5511
    11.9620  12.1407  12.1501  12.1842  12.2182  12.4182  12.7419  13.0132
    13.5963  13.6432  13.6745  14.6597

     occupation numbers
     1.0000   1.0000   1.0000   1.0000   1.0000   1.0000   1.0000   1.0000
     1.0000   1.0000   1.0000   1.0000   1.0000   1.0000   1.0000   1.0000
     1.0000   1.0000   1.0000   1.0000   1.0000   1.0000   1.0000   1.0000
     1.0000   1.0000   1.0000   1.0000   1.0000   1.0000   1.0000   1.0000
     1.0000   1.0000   1.0000   1.0000   1.0000   1.0000   1.0000   1.0000
     1.0000   1.0000   1.0000   1.0000   1.0000   1.0000   1.0000   1.0000
     1.0000   1.0000   1.0000   1.0000   1.0000   1.0000   1.0000   1.0000
     1.0000   1.0000   1.0000   1.0000   1.0000   1.0000   1.0000   1.0000
     1.0000   1.0000   1.0000   1.0000   1.0000   1.0000   1.0000   1.0000
     1.0000   1.0000   1.0000   1.0000   1.0031  -0.0031  -0.0000  -0.0000
    -0.0000  -0.0000  -0.0000  -0.0000  -0.0000  -0.0000  -0.0000  -0.0000
    -0.0000  -0.0000  -0.0000  -0.0000

     the Fermi energy is    11.3021 ev

!    total energy              =   -2207.20206480 Ry
     estimated scf accuracy    <       0.00000024 Ry
     smearing contrib. (-TS)   =       0.00012664 Ry
     internal energy E=F+TS    =   -2207.20219145 Ry

     The total energy is F=E-TS. E is the sum of the following terms:
     one-electron contribution =    -430.28415585 Ry
     hartree contribution      =     304.66115421 Ry
     xc contribution           =    -292.50824520 Ry
     ewald contribution        =    -840.85294823 Ry
     one-center paw contrib.   =    -948.21799637 Ry
      -> PAW hartree energy AE =     620.20998882 Ry
      -> PAW hartree energy PS =    -617.47855974 Ry
      -> PAW xc energy AE      =   -1148.68421859 Ry
      -> PAW xc energy PS      =     197.73479313 Ry
      -> total E_H with PAW    =     307.39258329 Ry
      -> total E_XC with PAW   =   -1243.45767066 Ry

     convergence has been achieved in  24 iterations

     Forces acting on atoms (cartesian axes, Ry/au):

     atom    1 type  1   force =    -0.01793541   -0.00533228   -0.05383892
     atom    2 type  1   force =    -0.01797031   -0.00518304   -0.05389316
     atom    3 type  1   force =     0.01797031    0.00518304    0.05389316
     atom    4 type  1   force =     0.01793541    0.00533228    0.05383892
     atom    5 type  2   force =     0.00181173   -0.00622404   -0.00005861
     atom    6 type  2   force =    -0.00181173    0.00622404    0.00005861
     atom    7 type  3   force =    -0.01477781   -0.02318932   -0.02882427
     atom    8 type  3   force =    -0.02498025    0.01153208   -0.02881433
     atom    9 type  3   force =     0.00677459    0.01044671    0.03081062
     atom   10 type  3   force =     0.01133983   -0.00513954    0.03079155
     atom   11 type  3   force =     0.00593333    0.04116217   -0.01362837
     atom   12 type  3   force =     0.02724960   -0.03142396   -0.01363457
     atom   13 type  3   force =    -0.02724960    0.03142396    0.01363457
     atom   14 type  3   force =    -0.00593333   -0.04116217    0.01362837
     atom   15 type  3   force =    -0.01133983    0.00513954   -0.03079155
     atom   16 type  3   force =    -0.00677459   -0.01044671   -0.03081062
     atom   17 type  3   force =     0.02498025   -0.01153208    0.02881433
     atom   18 type  3   force =     0.01477781    0.02318932    0.02882427
     The non-local contrib.  to forces
     atom    1 type  1   force =     0.03432451    0.04850134    0.01347425
     atom    2 type  1   force =     0.05509475   -0.02224924    0.01342996
     atom    3 type  1   force =    -0.05509475    0.02224924   -0.01342996
     atom    4 type  1   force =    -0.03432451   -0.04850134   -0.01347425
     atom    5 type  2   force =    -0.23121524    0.78736505   -0.00006301
     atom    6 type  2   force =     0.23121524   -0.78736505    0.00006301
     atom    7 type  3   force =    -0.11138280    0.02625833    0.10873011
     atom    8 type  3   force =    -0.07947959   -0.08235356    0.10870580
     atom    9 type  3   force =     0.24712708    0.07488634    0.22418728
     atom   10 type  3   force =     0.24839431    0.07056520    0.22413718
     atom   11 type  3   force =    -0.09079903   -0.35615311   -0.12994611
     atom   12 type  3   force =    -0.26897316    0.25050887   -0.12993104
     atom   13 type  3   force =     0.26897316   -0.25050887    0.12993104
     atom   14 type  3   force =     0.09079903    0.35615311    0.12994611
     atom   15 type  3   force =    -0.24839431   -0.07056520   -0.22413718
     atom   16 type  3   force =    -0.24712708   -0.07488634   -0.22418728
     atom   17 type  3   force =     0.07947959    0.08235356   -0.10870580
     atom   18 type  3   force =     0.11138280   -0.02625833   -0.10873011
     The ionic contribution  to forces
     atom    1 type  1   force =    -5.53114907   -2.62327298   -0.88001568
     atom    2 type  1   force =    -6.07134347   -0.78355580   -0.88001569
     atom    3 type  1   force =     6.07134347    0.78355580    0.88001569
     atom    4 type  1   force =     5.53114907    2.62327298    0.88001568
     atom    5 type  2   force =     4.47806976  -15.25077260    0.00000000
     atom    6 type  2   force =    -4.47806976   15.25077260   -0.00000000
     atom    7 type  3   force =     2.43876121    1.09865190   -0.81291111
     atom    8 type  3   force =     2.64559069    0.39426149   -0.81291111
     atom    9 type  3   force =    -7.11858498   -2.57806526   -2.27009975
     atom   10 type  3   force =    -7.38233418   -1.67982575   -2.27009975
     atom   11 type  3   force =    -0.96540620    1.67796094    0.21156282
     atom   12 type  3   force =     0.09503188   -1.93352811    0.21156282
     atom   13 type  3   force =    -0.09503188    1.93352811   -0.21156282
     atom   14 type  3   force =     0.96540619   -1.67796094   -0.21156282
     atom   15 type  3   force =     7.38233418    1.67982575    2.27009975
     atom   16 type  3   force =     7.11858498    2.57806526    2.27009975
     atom   17 type  3   force =    -2.64559069   -0.39426149    0.81291111
     atom   18 type  3   force =    -2.43876121   -1.09865189    0.81291111
     The local contribution  to forces
     atom    1 type  1   force =     5.48056006    2.57747038    0.81000629
     atom    2 type  1   force =     6.00398843    0.79479733    0.80956516
     atom    3 type  1   force =    -6.00320699   -0.79468953   -0.80975218
     atom    4 type  1   force =    -5.47985232   -2.57716880   -0.81011532
     atom    5 type  2   force =    -4.24812598   14.46537997    0.00019657
     atom    6 type  2   force =     4.24682255  -14.46575460   -0.00011245
     atom    7 type  3   force =    -2.34255281   -1.14759566    0.67695138
     atom    8 type  3   force =    -2.59079147   -0.30125056    0.67672916
     atom    9 type  3   force =     6.87927458    2.51432879    2.07804145
     atom   10 type  3   force =     7.14663205    1.60373618    2.07753760
     atom   11 type  3   force =     1.06088941   -1.28486082   -0.09641931
     atom   12 type  3   force =     0.19760019    1.65456186   -0.09639220
     atom   13 type  3   force =    -0.19819877   -1.65457681    0.09637232
     atom   14 type  3   force =    -1.06134388    1.28463866    0.09636021
     atom   15 type  3   force =    -7.14685029   -1.60378889   -2.07768475
     atom   16 type  3   force =    -6.87945086   -2.51448679   -2.07798849
     atom   17 type  3   force =     2.59173118    0.30135028   -0.67664045
     atom   18 type  3   force =     2.34329154    1.14806265   -0.67702740
     The core correction contribution to forces
     atom    1 type  1   force =    -0.00130211   -0.00788139    0.00281371
     atom    2 type  1   force =    -0.00535632    0.00592802    0.00281002
     atom    3 type  1   force =     0.00536115   -0.00592867   -0.00281560
     atom    4 type  1   force =     0.00130466    0.00788480   -0.00281737
     atom    5 type  2   force =     0.00244441   -0.00832500    0.00000107
     atom    6 type  2   force =    -0.00244587    0.00832442   -0.00000115
     atom    7 type  3   force =     0.00071272   -0.00046589   -0.00147549
     atom    8 type  3   force =     0.00034727    0.00077797   -0.00147515
     atom    9 type  3   force =    -0.00108243   -0.00094102   -0.00107229
     atom   10 type  3   force =    -0.00141956    0.00020712   -0.00107164
     atom   11 type  3   force =     0.00105731    0.00416163    0.00113927
     atom   12 type  3   force =     0.00314004   -0.00292892    0.00113887
     atom   13 type  3   force =    -0.00313987    0.00292968   -0.00113982
     atom   14 type  3   force =    -0.00105700   -0.00416192   -0.00114000
     atom   15 type  3   force =     0.00141902   -0.00020711    0.00107142
     atom   16 type  3   force =     0.00108190    0.00094077    0.00107219
     atom   17 type  3   force =    -0.00034739   -0.00077804    0.00147482
     atom   18 type  3   force =    -0.00071286    0.00046577    0.00147523
     The Hubbard contrib.    to forces
     atom    1 type  1   force =     0.00000000    0.00000000    0.00000000
     atom    2 type  1   force =     0.00000000    0.00000000    0.00000000
     atom    3 type  1   force =     0.00000000    0.00000000    0.00000000
     atom    4 type  1   force =     0.00000000    0.00000000    0.00000000
     atom    5 type  2   force =     0.00000000    0.00000000    0.00000000
     atom    6 type  2   force =     0.00000000    0.00000000    0.00000000
     atom    7 type  3   force =     0.00000000    0.00000000    0.00000000
     atom    8 type  3   force =     0.00000000    0.00000000    0.00000000
     atom    9 type  3   force =     0.00000000    0.00000000    0.00000000
     atom   10 type  3   force =     0.00000000    0.00000000    0.00000000
     atom   11 type  3   force =     0.00000000    0.00000000    0.00000000
     atom   12 type  3   force =     0.00000000    0.00000000    0.00000000
     atom   13 type  3   force =     0.00000000    0.00000000    0.00000000
     atom   14 type  3   force =     0.00000000    0.00000000    0.00000000
     atom   15 type  3   force =     0.00000000    0.00000000    0.00000000
     atom   16 type  3   force =     0.00000000    0.00000000    0.00000000
     atom   17 type  3   force =     0.00000000    0.00000000    0.00000000
     atom   18 type  3   force =     0.00000000    0.00000000    0.00000000
     The SCF correction term to forces
     atom    1 type  1   force =    -0.00032633   -0.00013872   -0.00016200
     atom    2 type  1   force =    -0.00031215   -0.00009054    0.00026689
     atom    3 type  1   force =    -0.00039101    0.00000903   -0.00017526
     atom    4 type  1   force =    -0.00029902   -0.00014445    0.00018566
     atom    5 type  2   force =     0.00057424    0.00011276   -0.00019287
     atom    6 type  2   force =     0.00060157    0.00023091    0.00010958
     atom    7 type  3   force =    -0.00032164   -0.00003641   -0.00012615
     atom    8 type  3   force =    -0.00065128    0.00009598    0.00013095
     atom    9 type  3   force =     0.00001087    0.00022564   -0.00024627
     atom   10 type  3   force =     0.00003498    0.00017518    0.00028734
     atom   11 type  3   force =     0.00020221    0.00004748    0.00001185
     atom   12 type  3   force =     0.00045963   -0.00001343   -0.00004186
     atom   13 type  3   force =     0.00015674    0.00007609    0.00000500
     atom   14 type  3   force =     0.00027272    0.00016286    0.00000176
     atom   15 type  3   force =     0.00011935   -0.00012754   -0.00014159
     atom   16 type  3   force =     0.00010701   -0.00009183    0.00019303
     atom   17 type  3   force =    -0.00029658   -0.00019715   -0.00023136
     atom   18 type  3   force =    -0.00042797   -0.00042729    0.00018845

     Total force =     0.177527     Total SCF correction =     0.001827

     Computing stress (Cartesian axis) and pressure

          total   stress  (Ry/bohr**3)                   (kbar)     P=     -440.47
  -0.00315276  -0.00000249   0.00001504         -463.79       -0.37        2.21
  -0.00000249  -0.00314518   0.00000425           -0.37     -462.67        0.63
   0.00001504   0.00000425  -0.00268482            2.21        0.63     -394.95

     kinetic stress (kbar)  26596.15    -74.07   -174.18
                              -74.07  26826.70    -51.13
                             -174.18    -51.13  26894.64

     local   stress (kbar) -10212.27  -1220.09     66.21
                            -1220.09  -6415.55     19.37
                               66.21     19.37 -16406.74

     nonloc. stress (kbar)   5930.17     -5.24      9.61
                               -5.24   5946.47      2.82
                                9.61      2.82   5902.07

     hartree stress (kbar)   8725.94    485.04    -86.48
                              485.04   7216.64    -25.36
                              -86.48    -25.36  11314.73

     exc-cor stress (kbar)   3871.68     -0.42     -1.30
                               -0.42   3872.99     -0.38
                               -1.30     -0.38   3875.42

     corecor stress (kbar) -10009.08      0.76      1.76
                                0.76 -10011.44      0.52
                                1.76      0.52 -10010.83

     ewald   stress (kbar) -25366.38    813.65    186.60
                              813.65 -27898.48     54.79
                              186.60     54.79 -21964.23

     hubbard stress (kbar)      0.00      0.00      0.00
                                0.00      0.00      0.00
                                0.00      0.00      0.00

     DFT-D   stress (kbar)      0.00      0.00      0.00
                                0.00      0.00      0.00
                                0.00      0.00      0.00

     XDM     stress (kbar)      0.00      0.00      0.00
                                0.00      0.00      0.00
                                0.00      0.00      0.00

     dft-nl  stress (kbar)      0.00      0.00      0.00
                                0.00      0.00      0.00
                                0.00      0.00      0.00

     TS-vdW  stress (kbar)      0.00      0.00      0.00
                                0.00      0.00      0.00
                                0.00      0.00      0.00

[...]

                                0.00      0.00      0.00

     Writing all to output data dir new_calculations/myprefix.save/

     General routines

     Parallel routines

     PAW routines

   This run was terminated on:  17:24:27  20May2023

   JOB DONE.