     Program PWSCF v.7.0 starts on 20May2023 at  7:41:29

     Reading input from espresso_19149.pwi
Warning: card &CELL ignored
Warning: card / ignored

     Current dimensions of program PWSCF are:
     Max number of different atomic species (ntypx) = 10
     Max number of k-points (npk) =  40000
     Max angular momentum in pseudopotentials (lmaxx) =  4

     gamma-point specific algorithms are used
     Message from routine setup:
     using ibrav=0 with symmetry is DISCOURAGED, use correct ibrav instead

     Subspace diagonalization in iterative solution of the eigenvalue problem:
     a serial algorithm will be used

     Using Slab Decomposition

     bravais-lattice index     =            0
     lattice parameter (alat)  =      10.7293  a.u.
     unit-cell volume          =     919.7319 (a.u.)^3
     number of atoms/cell      =            8
     number of atomic types    =            2
     number of electrons       =       120.00
     number of Kohn-Sham states=           72
     kinetic-energy cutoff     =      30.0000  Ry
     charge density cutoff     =     240.0000  Ry
     scf convergence threshold =      1.0E-06
     mixing beta               =       0.7000
     number of iterations used =            8  plain     mixing
     Exchange-correlation= PBE
                           (   1   4   3   4   0   0   0)

     celldm(1)=  10.729317  celldm(2)=   0.000000  celldm(3)=   0.000000
     celldm(4)=   0.000000  celldm(5)=   0.000000  celldm(6)=   0.000000

     crystal axes: (cart. coord. in units of alat)
               a(1) = (   1.000000   0.000000   0.000000 )
               a(2) = (  -0.500000   0.866025   0.000000 )
               a(3) = (   0.000000   0.000000   0.859834 )

     reciprocal axes: (cart. coord. in units 2 pi/alat)
               b(1) = (  1.000000  0.577350  0.000000 )
               b(2) = (  0.000000  1.154701  0.000000 )
               b(3) = (  0.000000  0.000000  1.163016 )

     PseudoPot. # 1 for Li read from file:
     /home/pragov/projects/rrg-bengioy-ad/pragov/crystal_structure_design/SSSP/li_pbe_v1.4.uspp.F.UPF
     MD5 check sum: e912e257baa3777c20ea3d68f190483c
     Pseudo is Ultrasoft, Zval =  3.0
     Generated by new atomic code, or converted to UPF format
     Using radial grid of  751 points,  5 beta functions with:
                l(1) =   0
                l(2) =   0
                l(3) =   0
                l(4) =   1
                l(5) =   1
     Q(r) pseudized with 10 coefficients,  rinner =    1.150   1.150   1.150

     PseudoPot. # 2 for Au read from file:
     /home/pragov/projects/rrg-bengioy-ad/pragov/crystal_structure_design/SSSP/Au_ONCV_PBE-1.0.oncvpsp.upf
     MD5 check sum: d14007822ba0e19f0206237467fc06c2
     Pseudo is Norm-conserving, Zval = 19.0
     Generated using ONCVPSP code by D. R. Hamann
     Using radial grid of 1278 points,  8 beta functions with:
                l(1) =   0
                l(2) =   0
                l(3) =   1
                l(4) =   1
                l(5) =   2
                l(6) =   2
                l(7) =   3
                l(8) =   3

     atomic species   valence    mass     pseudopotential
        Li             3.00     6.94000     Li( 1.00)
        Au            19.00   196.96657     Au( 1.00)

     24 Sym. Ops., with inversion, found (12 have fractional translation)

                                    s                        frac. trans.

      isym =  1     identity

 cryst.   s( 1) = (     1          0          0      )
                  (     0          1          0      )
                  (     0          0          1      )

 cart.    s( 1) = (  1.0000000 -0.0000000  0.0000000 )
                  (  0.0000000  1.0000000  0.0000000 )
                  (  0.0000000  0.0000000  1.0000000 )

      isym =  2     180 deg rotation - cart. axis [0,0,1]

 cryst.   s( 2) = (    -1          0          0      )    f =( -0.0000000 )
                  (     0         -1          0      )       (  0.0000000 )
                  (     0          0          1      )       ( -0.5000000 )

 cart.    s( 2) = ( -1.0000000  0.0000000  0.0000000 )    f =( -0.0000000 )
                  (  0.0000000 -1.0000000  0.0000000 )       (  0.0000000 )
                  (  0.0000000  0.0000000  1.0000000 )       ( -0.4299168 )

[...]

      isym =  4     180 deg rotation - cart. axis [1,0,0]

[...]

      isym =  5      60 deg rotation - cryst. axis [0,0,1]

[...]

 cryst.   s( 8) = (    -1         -1          0      )
                  (     1          0          0      )
                  (     0          0          1      )

 cart.    s( 8) = ( -0.5000000  0.8660254  0.0000000 )
                  ( -0.8660254 -0.5000000  0.0000000 )
                  (  0.0000000  0.0000000  1.0000000 )

[...]

 cryst.   s( 9) = (     0         -1          0      )    f =( -0.0000000 )
                  (    -1          0          0      )       ( -0.0000000 )
                  (     0          0         -1      )       (  0.5000000 )

 cart.    s( 9) = (  0.5000000 -0.8660254  0.0000000 )    f =( -0.0000000 )
                  ( -0.8660254 -0.5000000  0.0000000 )       ( -0.0000000 )
                  (  0.0000000  0.0000000 -1.0000000 )       (  0.4299168 )

[...]

 cryst.   s(10) = (     1          1          0      )    f =(  0.0000000 )
                  (     0         -1          0      )       (  0.0000010 )
                  (     0          0         -1      )       (  0.5000000 )

 cart.    s(10) = (  0.5000000  0.8660254  0.0000000 )    f =( -0.0000005 )
                  (  0.8660254 -0.5000000  0.0000000 )       (  0.0000009 )
                  (  0.0000000  0.0000000 -1.0000000 )       (  0.4299168 )

[...]

 cryst.   s(11) = (    -1         -1          0      )
                  (     0          1          0      )
                  (     0          0         -1      )

 cart.    s(11) = ( -0.5000000 -0.8660254  0.0000000 )
                  ( -0.8660254  0.5000000  0.0000000 )
                  (  0.0000000  0.0000000 -1.0000000 )

      isym = 12     180 deg rotation - cryst. axis [1,1,0]

[...]

      isym = 13     inversion

[...]

      isym = 14     inv. 180 deg rotation - cart. axis [0,0,1]

[...]

      isym = 16     inv. 180 deg rotation - cart. axis [1,0,0]

[...]

      isym = 17     inv.  60 deg rotation - cryst. axis [0,0,1]

[...]

 cryst.   s(22) = (    -1         -1          0      )    f =( -0.0000000 )
                  (     0          1          0      )       (  0.0000010 )
                  (     0          0          1      )       ( -0.5000000 )

 cart.    s(22) = ( -0.5000000 -0.8660254  0.0000000 )    f =( -0.0000005 )
                  ( -0.8660254  0.5000000  0.0000000 )       (  0.0000009 )
                  (  0.0000000  0.0000000  1.0000000 )       ( -0.4299168 )

[...]

      isym = 24     inv. 180 deg rotation - cryst. axis [1,1,0]

 cryst.   s(24) = (     0         -1          0      )
                  (    -1          0          0      )
                  (     0          0          1      )

 cart.    s(24) = (  0.5000000 -0.8660254  0.0000000 )
                  ( -0.8660254 -0.5000000  0.0000000 )
                  (  0.0000000  0.0000000  1.0000000 )

   Cartesian axes

     site n.     atom                  positions (alat units)
         1           Li  tau(   1) = (   0.5000005   0.2886748   0.2149584  )
         2           Li  tau(   2) = (  -0.0000005   0.5773506   0.6448752  )
         3           Au  tau(   3) = (   0.7472290   0.1459374   0.6448752  )
         4           Au  tau(   4) = (   0.2472280   0.7200880   0.2149584  )
         5           Au  tau(   5) = (  -0.0000005   0.2918757   0.2149584  )
         6           Au  tau(   6) = (  -0.2472290   0.7200880   0.2149584  )
         7           Au  tau(   7) = (   0.5000005   0.5741497   0.6448752  )
         8           Au  tau(   8) = (   0.2527720   0.1459374   0.6448752  )

   Crystallographic axes

     site n.     atom                  positions (cryst. coord.)
         1           Li  tau(   1) = (  0.6666670  0.3333330  0.2500000  )
         2           Li  tau(   2) = (  0.3333330  0.6666670  0.7500000  )
         3           Au  tau(   3) = (  0.8314860  0.1685140  0.7500000  )
         4           Au  tau(   4) = (  0.6629710  0.8314860  0.2500000  )
         5           Au  tau(   5) = (  0.1685140  0.3370290  0.2500000  )
         6           Au  tau(   6) = (  0.1685140  0.8314860  0.2500000  )
         7           Au  tau(   7) = (  0.8314860  0.6629710  0.7500000  )
         8           Au  tau(   8) = (  0.3370290  0.1685140  0.7500000  )

     number of k points=     1  Methfessel-Paxton smearing, width (Ry)=  0.0010
                       cart. coord. in units 2pi/alat
        k(    1) = (   0.0000000   0.0000000   0.0000000), wk =   2.0000000

                       cryst. coord.
        k(    1) = (   0.0000000   0.0000000   0.0000000), wk =   2.0000000

     Initial potential from superposition of free atoms

     starting charge     119.0980, renormalised to     120.0000
     Starting wfcs are   70 randomized atomic wfcs +    2 random wfcs

     Self-consistent Calculation

     iteration #  1     ecut=    30.00 Ry     beta= 0.70
     Davidson diagonalization with overlap

     ethr =  1.00E-02,  avg # of iterations =  3.0

     Threshold (ethr) on eigenvalues was too large:
     Diagonalizing with lowered threshold

     Davidson diagonalization with overlap

[...]

     total energy              =   -1675.09373979 Ry
     estimated scf accuracy    <       0.92908003 Ry

[...]

     total energy              =   -1675.53427540 Ry
     estimated scf accuracy    <       0.00012235 Ry

     iteration #  9     ecut=    30.00 Ry     beta= 0.70
     Davidson diagonalization with overlap

     ethr =  9.54E-08,  avg # of iterations =  1.0

     End of self-consistent calculation

          k = 0.0000 0.0000 0.0000 (  1287 PWs)   bands (ev):

   -91.0122 -91.0070 -91.0037 -91.0025 -91.0010 -91.0000 -42.2701 -42.2428
   -42.1256 -42.1247 -42.1098 -42.1089 -42.0150 -41.9696 -41.9686 -41.9581
   -41.9572 -41.9358 -41.9349 -41.9156 -41.9132 -41.9122 -41.9019 -41.8755
   -30.1097 -30.1090   6.8795   8.6765   9.1918   9.3355   9.4529   9.4533
     9.4587   9.4591   9.9179  10.4542  10.4547  11.1407  11.1407  11.1703
    11.2837  11.2976  11.3652  11.3656  12.0604  12.0608  12.2664  12.2672
    12.4573  12.4580  12.7005  12.7011  12.7796  12.7797  13.5478  13.6125
    13.8089  14.8240  15.4009  15.9095  15.9719  15.9721  16.8316  16.8317
    19.1547  21.1513  21.1514  22.3477  22.3478  22.5055  22.6146  22.6147

     occupation numbers
     1.0000   1.0000   1.0000   1.0000   1.0000   1.0000   1.0000   1.0000
     1.0000   1.0000   1.0000   1.0000   1.0000   1.0000   1.0000   1.0000
     1.0000   1.0000   1.0000   1.0000   1.0000   1.0000   1.0000   1.0000
     1.0000   1.0000   1.0000   1.0000   1.0000   1.0000   1.0000   1.0000
     1.0000   1.0000   1.0000   1.0000   1.0000   1.0000   1.0000   1.0000
     1.0000   1.0000   1.0000   1.0000   1.0000   1.0000   1.0000   1.0000
     1.0000   1.0000   1.0000   1.0000   1.0000   1.0000   1.0000   1.0000
     1.0000   1.0000   1.0000   1.0038  -0.0020  -0.0019  -0.0000  -0.0000
    -0.0000  -0.0000  -0.0000  -0.0000  -0.0000  -0.0000  -0.0000  -0.0000

     the Fermi energy is    15.9396 ev

!    total energy              =   -1675.53428548 Ry
     estimated scf accuracy    <       0.00000062 Ry
     smearing contrib. (-TS)   =       0.00003874 Ry
     internal energy E=F+TS    =   -1675.53432421 Ry

     The total energy is F=E-TS. E is the sum of the following terms:
     one-electron contribution =    -735.24748544 Ry
     hartree contribution      =     399.82810817 Ry
     xc contribution           =    -158.57152034 Ry
     ewald contribution        =   -1181.54342660 Ry

     convergence has been achieved in   9 iterations

     Forces acting on atoms (cartesian axes, Ry/au):

     atom    1 type  1   force =    -0.00000000   -0.00000000    0.00000000
     atom    2 type  1   force =     0.00000000    0.00000000   -0.00000000
     atom    3 type  2   force =    -0.01548355    0.00893943    0.00000000
     atom    4 type  2   force =    -0.01548355   -0.00893943    0.00000000
     atom    5 type  2   force =    -0.00000000    0.01787887   -0.00000000
     atom    6 type  2   force =     0.01548355   -0.00893943    0.00000000
     atom    7 type  2   force =     0.00000000   -0.01787887    0.00000000
     atom    8 type  2   force =     0.01548355    0.00893943    0.00000000
     The non-local contrib.  to forces
     atom    1 type  1   force =    -0.00000000   -0.00000000   -0.00000000
     atom    2 type  1   force =     0.00000000    0.00000000    0.00000000
     atom    3 type  2   force =     0.22845004   -0.13189569   -0.00000000
     atom    4 type  2   force =     0.22845004    0.13189569    0.00000000
     atom    5 type  2   force =    -0.00000000   -0.26379138    0.00000000
     atom    6 type  2   force =    -0.22845004    0.13189569   -0.00000000
     atom    7 type  2   force =    -0.00000000    0.26379138   -0.00000000
     atom    8 type  2   force =    -0.22845004   -0.13189569   -0.00000000
     The ionic contribution  to forces
     atom    1 type  1   force =    -0.00003974    0.00002294   -0.00000000
     atom    2 type  1   force =     0.00003974   -0.00002294    0.00000000
     atom    3 type  2   force =    -8.07588549    4.66261475    0.00000000
     atom    4 type  2   force =    -8.07587451   -4.66272073    0.00000000
     atom    5 type  2   force =     0.00009751    9.32527285    0.00000000
     atom    6 type  2   force =     8.07588549   -4.66261475    0.00000000
     atom    7 type  2   force =    -0.00009751   -9.32527285    0.00000000
     atom    8 type  2   force =     8.07587451    4.66272073    0.00000000
     The local contribution  to forces
     atom    1 type  1   force =    -0.00018723   -0.00003985    0.00000584
     atom    2 type  1   force =    -0.00001141    0.00003872    0.00000331
     atom    3 type  2   force =     7.82969374   -4.52128228   -0.00000806
     atom    4 type  2   force =     7.82935977    4.51858622   -0.00001154
     atom    5 type  2   force =     0.00276605   -9.04122296   -0.00003390
     atom    6 type  2   force =    -7.83003305    4.52260522   -0.00003904
     atom    7 type  2   force =    -0.00093961    9.04115072   -0.00005019
     atom    8 type  2   force =    -7.83005868   -4.51994201   -0.00003130
     The core correction contribution to forces
     atom    1 type  1   force =     0.00000000    0.00000000    0.00000000
     atom    2 type  1   force =     0.00000000    0.00000000    0.00000000
     atom    3 type  2   force =     0.00000000    0.00000000    0.00000000
     atom    4 type  2   force =     0.00000000    0.00000000    0.00000000
     atom    5 type  2   force =     0.00000000    0.00000000    0.00000000
     atom    6 type  2   force =     0.00000000    0.00000000    0.00000000
     atom    7 type  2   force =     0.00000000    0.00000000    0.00000000
     atom    8 type  2   force =     0.00000000    0.00000000    0.00000000
     The Hubbard contrib.    to forces
     atom    1 type  1   force =     0.00000000    0.00000000    0.00000000
     atom    2 type  1   force =     0.00000000    0.00000000    0.00000000
     atom    3 type  2   force =     0.00000000    0.00000000    0.00000000
     atom    4 type  2   force =     0.00000000    0.00000000    0.00000000
     atom    5 type  2   force =     0.00000000    0.00000000    0.00000000
     atom    6 type  2   force =     0.00000000    0.00000000    0.00000000
     atom    7 type  2   force =     0.00000000    0.00000000    0.00000000
     atom    8 type  2   force =     0.00000000    0.00000000    0.00000000
     The SCF correction term to forces
     atom    1 type  1   force =     0.00020116    0.00002199   -0.00000588
     atom    2 type  1   force =    -0.00003067   -0.00002088   -0.00000442
     atom    3 type  2   force =     0.00238060   -0.00077874    0.00003054
     atom    4 type  2   force =     0.00269334    0.00313251    0.00000921
     atom    5 type  2   force =    -0.00273389   -0.00249310    0.00002822
     atom    6 type  2   force =    -0.00186789   -0.00082449    0.00004434
     atom    7 type  2   force =     0.00059075    0.00235881    0.00004939
     atom    8 type  2   force =    -0.00191167   -0.00141813    0.00002918

     Total force =     0.043794     Total SCF correction =     0.007268
     SCF correction compared to forces is large: reduce conv_thr to get better values

     Computing stress (Cartesian axis) and pressure

          total   stress  (Ry/bohr**3)                   (kbar)     P=     -660.74
  -0.00434471   0.00000000   0.00000000         -639.13        0.00        0.00
   0.00000000  -0.00434471   0.00000000            0.00     -639.13        0.00
   0.00000000   0.00000000  -0.00478551            0.00        0.00     -703.97

     kinetic stress (kbar)  53877.45     -0.00      0.00
                               -0.00  53877.45      0.00
                                0.00      0.00  54474.55

     local   stress (kbar) -11514.84      0.28      0.00
                                0.28 -11514.67      0.00
                                0.00      0.00  -9150.97

     nonloc. stress (kbar)   5691.81     -0.00      0.00
                               -0.00   5691.81      0.00
                                0.00      0.00   5619.26

     hartree stress (kbar)  21419.21     -0.14     -0.00
                               -0.14  21419.09     -0.00
                               -0.00     -0.00  21111.58

     exc-cor stress (kbar)  -8004.92     -0.00     -0.00
                               -0.00  -8004.92     -0.00
                               -0.00     -0.00  -7994.01

     corecor stress (kbar)      0.00      0.00      0.00
                                0.00      0.00      0.00
                                0.00      0.00      0.00

     ewald   stress (kbar) -62107.86     -0.01     -0.00
                               -0.01 -62107.87      0.00
                               -0.00      0.00 -64764.37

     hubbard stress (kbar)      0.00      0.00      0.00
                                0.00      0.00      0.00
                                0.00      0.00      0.00

     DFT-D   stress (kbar)      0.00      0.00      0.00
                                0.00      0.00      0.00
                                0.00      0.00      0.00

     XDM     stress (kbar)      0.00      0.00      0.00
                                0.00      0.00      0.00
                                0.00      0.00      0.00

     dft-nl  stress (kbar)      0.00      0.00      0.00
                                0.00      0.00      0.00
                                0.00      0.00      0.00

     TS-vdW  stress (kbar)      0.00      0.00      0.00
                                0.00      0.00      0.00
                                0.00      0.00      0.00

[...]

                                0.00      0.00      0.00

     Writing all to output data dir new_calculations/myprefix.save/

     General routines

     Parallel routines

   This run was terminated on:   7:41:41  20May2023

   JOB DONE.