     Program PWSCF v.7.0 starts on 21May2023 at 11:19: 8

     Reading input from espresso_24676.pwi
Warning: card &CELL ignored
Warning: card / ignored

     Current dimensions of program PWSCF are:
     Max number of different atomic species (ntypx) = 10
     Max number of k-points (npk) =  40000
     Max angular momentum in pseudopotentials (lmaxx) =  4
     file Ba.pbe-spn-kjpaw_psl.1.0.0.UPF: wavefunction(s)  5S 6S renormalized
     file O.pbe-n-kjpaw_psl.0.1.UPF: wavefunction(s)  2P renormalized

     gamma-point specific algorithms are used
     Message from routine setup:
     using ibrav=0 with symmetry is DISCOURAGED, use correct ibrav instead

     Subspace diagonalization in iterative solution of the eigenvalue problem:
     a serial algorithm will be used

     Using Slab Decomposition

     bravais-lattice index     =            0
     lattice parameter (alat)  =      10.8981  a.u.
     unit-cell volume          =     915.2726 (a.u.)^3
     number of atoms/cell      =           10
     number of atomic types    =            4
     number of electrons       =        89.00
     number of Kohn-Sham states=           54
     kinetic-energy cutoff     =      30.0000  Ry
     charge density cutoff     =     240.0000  Ry
     scf convergence threshold =      1.0E-06
     mixing beta               =       0.7000
     number of iterations used =            8  plain     mixing
     Exchange-correlation= SLA  PW   PBX  PBC
                           (   1   4   3   4   0   0   0)

     celldm(1)=  10.898147  celldm(2)=   0.000000  celldm(3)=   0.000000
     celldm(4)=   0.000000  celldm(5)=   0.000000  celldm(6)=   0.000000

     crystal axes: (cart. coord. in units of alat)
               a(1) = (   1.000000   0.000000   0.000000 )
               a(2) = (   0.499994   0.866035   0.000000 )
               a(3) = (   0.500007   0.288694   0.816502 )

     reciprocal axes: (cart. coord. in units 2 pi/alat)
               b(1) = (  1.000000 -0.577337 -0.408246 )
               b(2) = (  0.000000  1.154688 -0.408268 )
               b(3) = (  0.000000  0.000000  1.224737 )

     PseudoPot. # 1 for Ba read from file:
     /home/pragov/projects/rrg-bengioy-ad/pragov/crystal_structure_design/SSSP/Ba.pbe-spn-kjpaw_psl.1.0.0.UPF
     MD5 check sum: c432291d3e53af55f19d5e8866385beb
     Pseudo is Projector augmented-wave + core cor, Zval = 10.0
     Generated using "atomic" code by A. Dal Corso  v.5.1
     Shape of augmentation charge: PSQ
     Using radial grid of 1251 points,  7 beta functions with:
                l(1) =   0
                l(2) =   0
                l(3) =   0
                l(4) =   1
                l(5) =   1
                l(6) =   2
                l(7) =   2
     Q(r) pseudized with 0 coefficients

     PseudoPot. # 2 for Re read from file:
     /home/pragov/projects/rrg-bengioy-ad/pragov/crystal_structure_design/SSSP/Re_pbe_v1.2.uspp.F.UPF
     MD5 check sum: 85f993410f3e006da9d71c142b4ad953
     Pseudo is Ultrasoft + core correction, Zval = 15.0
     Generated by new atomic code, or converted to UPF format
     Using radial grid of  981 points,  8 beta functions with:
                l(1) =   0
                l(2) =   0
                l(3) =   1
                l(4) =   1
                l(5) =   2
                l(6) =   2
                l(7) =   3
                l(8) =   3
     Q(r) pseudized with  8 coefficients,  rinner =    1.150   1.150   1.150
                                                       1.150   1.150   1.150
                                                       1.150

     PseudoPot. # 3 for Ni read from file:
     /home/pragov/projects/rrg-bengioy-ad/pragov/crystal_structure_design/SSSP/ni_pbe_v1.4.uspp.F.UPF
     MD5 check sum: 1ee80287db30b12d2bc1f57a5b5d6409
     Pseudo is Ultrasoft + core correction, Zval = 18.0
     Generated by new atomic code, or converted to UPF format
     Using radial grid of  865 points,  6 beta functions with:
                l(1) =   0
                l(2) =   0
                l(3) =   1
                l(4) =   1
                l(5) =   2
                l(6) =   2
     Q(r) pseudized with 10 coefficients,  rinner =    0.980   0.980   0.980
                                                       0.980   0.980

     PseudoPot. # 4 for O  read from file:
     /home/pragov/projects/rrg-bengioy-ad/pragov/crystal_structure_design/SSSP/O.pbe-n-kjpaw_psl.0.1.UPF
     MD5 check sum: 0234752ac141de4415c5fc33072bef88
     Pseudo is Projector augmented-wave + core cor, Zval =  6.0
     Generated using "atomic" code by A. Dal Corso  v.5.0.99 svn rev. 10869
     Shape of augmentation charge: BESSEL
     Using radial grid of 1095 points,  4 beta functions with:
                l(1) =   0
                l(2) =   0
                l(3) =   1
                l(4) =   1
     Q(r) pseudized with 0 coefficients

     atomic species   valence    mass     pseudopotential
        Ba            10.00   137.32700     Ba( 1.00)
        Re            15.00   186.20700     Re( 1.00)
        Ni            18.00    58.69340     Ni( 1.00)
        O              6.00    15.99900     O ( 1.00)

      2 Sym. Ops., with inversion, found

                                    s                        frac. trans.

      isym =  1     identity

 cryst.   s( 1) = (     1          0          0      )
                  (     0          1          0      )
                  (     0          0          1      )

 cart.    s( 1) = (  1.0000000 -0.0000000  0.0000000 )
                  (  0.0000000  1.0000000  0.0000000 )
                  (  0.0000000  0.0000000  1.0000000 )

      isym =  2     inversion

 cryst.   s( 2) = (    -1          0          0      )
                  (     0         -1          0      )
                  (     0          0         -1      )

 cart.    s( 2) = ( -1.0000000  0.0000000 -0.0000000 )
                  (  0.0000000 -1.0000000 -0.0000000 )
                  (  0.0000000  0.0000000 -1.0000000 )

   Cartesian axes

     site n.     atom                  positions (alat units)
         1           Ba  tau(   1) = (   0.4999997   0.2886830   0.2041254  )
         2           Ba  tau(   2) = (   1.5000006   0.8660470   0.6123754  )
         3           Re  tau(   3) = (   1.0000014   0.5773643   0.4082508  )
         4           Ni  tau(   4) = (   0.0000000   0.0000000   0.0000000  )
         5           O   tau(   5) = (   1.0000001   0.8536161   0.6035874  )
         6           O   tau(   6) = (   0.7607607   0.7154848   0.2129134  )
         7           O   tau(   7) = (   1.2392411   0.4392426   0.6035874  )
         8           O   tau(   8) = (   0.7607661   0.4392421   0.6035882  )
         9           O   tau(   9) = (   1.0000012   0.3011105   0.2129134  )
        10           O   tau(  10) = (   1.2392357   0.7154854   0.2129126  )

   Crystallographic axes

     site n.     atom                  positions (cryst. coord.)
         1           Ba  tau(   1) = (  0.2499990  0.2500010  0.2500000  )
         2           Ba  tau(   2) = (  0.7500000  0.7500010  0.7499990  )
         3           Re  tau(   3) = (  0.5000010  0.5000000  0.5000000  )
         4           Ni  tau(   4) = (  0.0000000  0.0000000  0.0000000  )
         5           O   tau(   5) = (  0.2607640  0.7392350  0.7392360  )
         6           O   tau(   6) = (  0.2607640  0.7392360  0.2607630  )
         7           O   tau(   7) = (  0.7392380  0.2607630  0.7392360  )
         8           O   tau(   8) = (  0.2607630  0.2607620  0.7392370  )
         9           O   tau(   9) = (  0.7392380  0.2607630  0.2607630  )
        10           O   tau(  10) = (  0.7392390  0.7392370  0.2607620  )

     number of k points=     1  Methfessel-Paxton smearing, width (Ry)=  0.0010
                       cart. coord. in units 2pi/alat
        k(    1) = (   0.0000000   0.0000000   0.0000000), wk =   2.0000000

                       cryst. coord.
        k(    1) = (   0.0000000   0.0000000   0.0000000), wk =   2.0000000

     Check: negative core charge=   -0.000010

     Initial potential from superposition of free atoms

     starting charge      86.4659, renormalised to      89.0000

     negative rho (up, down):  1.331E-01 0.000E+00
     Starting wfcs are   60 randomized atomic wfcs
     Checking if some PAW data can be deallocated...

     Self-consistent Calculation

     iteration #  1     ecut=    30.00 Ry     beta= 0.70
     Davidson diagonalization with overlap

     ethr =  1.00E-02,  avg # of iterations =  5.0

     negative rho (up, down):  1.800E-01 0.000E+00

     total energy              =   -1652.35050028 Ry
     estimated scf accuracy    <       6.38339167 Ry

[...]

     total energy              =   -1655.95214667 Ry
     estimated scf accuracy    <       0.00000188 Ry

     iteration # 30     ecut=    30.00 Ry     beta= 0.70
     Davidson diagonalization with overlap

     ethr =  1.24E-09,  avg # of iterations =  1.0

[...]

     End of self-consistent calculation

          k = 0.0000 0.0000 0.0000 (  1319 PWs)   bands (ev):

   -91.5232 -69.8337 -51.8637 -51.8636 -51.8636 -31.6076 -31.6076 -31.6076
   -15.2517 -15.0708  -6.5120  -5.7035  -5.7034  -5.3370  -5.3370  -5.3368
    -0.8810  -0.8809  -0.8809  -0.3312  -0.3312  -0.3312   5.2101   6.1892
     6.1894   7.2149   7.2150   7.2151   8.1317   8.1317   8.1318   9.6903
     9.6904   9.6904  10.3419  10.3419  10.3419  10.4650  10.4650  10.4650
    10.8094  10.8094  10.8095  11.3677  11.3677  13.3894  13.3894  13.3894
    15.1287  15.1289  16.5088  16.6081  16.6081  16.6082

     occupation numbers
     1.0000   1.0000   1.0000   1.0000   1.0000   1.0000   1.0000   1.0000
     1.0000   1.0000   1.0000   1.0000   1.0000   1.0000   1.0000   1.0000
     1.0000   1.0000   1.0000   1.0000   1.0000   1.0000   1.0000   1.0000
     1.0000   1.0000   1.0000   1.0000   1.0000   1.0000   1.0000   1.0000
     1.0000   1.0000   1.0000   1.0000   1.0000   1.0000   1.0000   1.0000
     1.0000   1.0000   1.0000   0.7503   0.7497  -0.0000  -0.0000  -0.0000
    -0.0000  -0.0000  -0.0000  -0.0000  -0.0000  -0.0000

     the Fermi energy is    11.3719 ev

!    total energy              =   -1655.95214677 Ry
     estimated scf accuracy    <       0.00000013 Ry
     smearing contrib. (-TS)   =      -0.00041261 Ry
     internal energy E=F+TS    =   -1655.95173416 Ry

     The total energy is F=E-TS. E is the sum of the following terms:
     one-electron contribution =    -411.29696445 Ry
     hartree contribution      =     261.25086240 Ry
     xc contribution           =    -173.60234638 Ry
     ewald contribution        =    -525.30603042 Ry
     one-center paw contrib.   =    -806.99725531 Ry
      -> PAW hartree energy AE =     235.52338513 Ry
      -> PAW hartree energy PS =    -234.57718214 Ry
      -> PAW xc energy AE      =    -891.57594993 Ry
      -> PAW xc energy PS      =      83.63249163 Ry
      -> total E_H with PAW    =     262.19706539 Ry
      -> total E_XC with PAW   =    -981.54580469 Ry

     convergence has been achieved in  30 iterations

     negative rho (up, down):  1.379E-01 0.000E+00

     Forces acting on atoms (cartesian axes, Ry/au):

     atom    1 type  1   force =    -0.00000067    0.00000126    0.00000199
     atom    2 type  1   force =     0.00000067   -0.00000126   -0.00000199
     atom    3 type  2   force =     0.00000000    0.00000000    0.00000000
     atom    4 type  3   force =     0.00000000    0.00000000    0.00000000
     atom    5 type  4   force =    -0.00000024   -0.05750131   -0.04065920
     atom    6 type  4   force =     0.04976693   -0.02873162    0.04063313
     atom    7 type  4   force =    -0.04976693    0.02873162   -0.04063313
     atom    8 type  4   force =     0.04978507    0.02874174   -0.04064999
     atom    9 type  4   force =     0.00000024    0.05750131    0.04065920
     atom   10 type  4   force =    -0.04978507   -0.02874174    0.04064999
     The non-local contrib.  to forces
     atom    1 type  1   force =    -0.00001822    0.00000805    0.00000106
     atom    2 type  1   force =     0.00001822   -0.00000805   -0.00000106
     atom    3 type  2   force =     0.00000000    0.00000000    0.00000000
     atom    4 type  3   force =     0.00000000    0.00000000    0.00000000
     atom    5 type  4   force =     0.00000662   -0.31768790   -0.22464245
     atom    6 type  4   force =     0.27504515   -0.15878750    0.22456624
     atom    7 type  4   force =    -0.27504515    0.15878750   -0.22456624
     atom    8 type  4   force =     0.27509876    0.15881873   -0.22461904
     atom    9 type  4   force =    -0.00000662    0.31768790    0.22464245
     atom   10 type  4   force =    -0.27509876   -0.15881873    0.22461904
     The ionic contribution  to forces
     atom    1 type  1   force =     0.00009718   -0.00011267   -0.00002372
     atom    2 type  1   force =    -0.00000908   -0.00002784    0.00006569
     atom    3 type  2   force =    -0.00007713   -0.00004955   -0.00007985
     atom    4 type  3   force =     0.00006167   -0.00004978   -0.00008214
     atom    5 type  4   force =    -0.00002489    1.38474183    0.97914108
     atom    6 type  4   force =    -1.19900782    0.69221362   -0.97902444
     atom    7 type  4   force =     1.19903085   -0.69225094    0.97902332
     atom    8 type  4   force =    -1.19887240   -0.69218901    0.97886551
     atom    9 type  4   force =    -0.00002705   -1.38445927   -0.97897368
     atom   10 type  4   force =     1.19882867    0.69218361   -0.97891177
     The local contribution  to forces
     atom    1 type  1   force =    -0.00019721   -0.00008283    0.00025919
     atom    2 type  1   force =    -0.00011780   -0.00015586    0.00016235
     atom    3 type  2   force =     0.00005837    0.00006132    0.00007646
     atom    4 type  3   force =    -0.00004501    0.00004302    0.00010968
     atom    5 type  4   force =     0.00001080   -1.12640038   -0.79646359
     atom    6 type  4   force =     0.97537320   -0.56310724    0.79643789
     atom    7 type  4   force =    -0.97539813    0.56314243   -0.79643323
     atom    8 type  4   force =     0.97516594    0.56304370   -0.79621440
     atom    9 type  4   force =     0.00002878    1.12613062    0.79630774
     atom   10 type  4   force =    -0.97512241   -0.56303180    0.79625281
     The core correction contribution to forces
     atom    1 type  1   force =    -0.00000526   -0.00000614    0.00000392
     atom    2 type  1   force =    -0.00000612   -0.00000624    0.00000359
     atom    3 type  2   force =     0.00000030   -0.00000015    0.00000012
     atom    4 type  3   force =    -0.00000008   -0.00000003   -0.00000004
     atom    5 type  4   force =    -0.00000015    0.00189507    0.00134008
     atom    6 type  4   force =    -0.00163997    0.00094672   -0.00133896
     atom    7 type  4   force =     0.00164002   -0.00094679    0.00133897
     atom    8 type  4   force =    -0.00164068   -0.00094710    0.00133954
     atom    9 type  4   force =     0.00000004   -0.00189498   -0.00134004
     atom   10 type  4   force =     0.00164062    0.00094711   -0.00133962
     The Hubbard contrib.    to forces
     atom    1 type  1   force =     0.00000000    0.00000000    0.00000000
     atom    2 type  1   force =     0.00000000    0.00000000    0.00000000
     atom    3 type  2   force =     0.00000000    0.00000000    0.00000000
     atom    4 type  3   force =     0.00000000    0.00000000    0.00000000
     atom    5 type  4   force =     0.00000000    0.00000000    0.00000000
     atom    6 type  4   force =     0.00000000    0.00000000    0.00000000
     atom    7 type  4   force =     0.00000000    0.00000000    0.00000000
     atom    8 type  4   force =     0.00000000    0.00000000    0.00000000
     atom    9 type  4   force =     0.00000000    0.00000000    0.00000000
     atom   10 type  4   force =     0.00000000    0.00000000    0.00000000
     The SCF correction term to forces
     atom    1 type  1   force =     0.00001469    0.00002386   -0.00003279
     atom    2 type  1   force =     0.00000729    0.00002574   -0.00002691
     atom    3 type  2   force =     0.00001406   -0.00001440    0.00000492
     atom    4 type  3   force =    -0.00001748    0.00001888   -0.00002291
     atom    5 type  4   force =     0.00000282   -0.00004059   -0.00002929
     atom    6 type  4   force =    -0.00000047   -0.00000072   -0.00000653
     atom    7 type  4   force =     0.00000864   -0.00000409    0.00000511
     atom    8 type  4   force =     0.00003179    0.00001613   -0.00002600
     atom    9 type  4   force =     0.00000054    0.00004638    0.00002776
     atom   10 type  4   force =    -0.00003487   -0.00002123    0.00002512

     Total force =     0.172453     Total SCF correction =     0.000121

     Computing stress (Cartesian axis) and pressure

     negative rho (up, down):  1.379E-01 0.000E+00
          total   stress  (Ry/bohr**3)                   (kbar)     P=     -335.78
  -0.00228236  -0.00000004   0.00000003         -335.75       -0.01        0.00
  -0.00000004  -0.00228279  -0.00000036           -0.01     -335.81       -0.05
   0.00000003  -0.00000036  -0.00228260            0.00       -0.05     -335.78

     kinetic stress (kbar)  25348.35      0.10     -0.14
                                0.10  25348.50      0.10
                               -0.14      0.10  25348.42

     local   stress (kbar)  -8066.11     -0.76      1.06
                               -0.76  -8065.25      0.58
                                1.06      0.58  -8065.69

     nonloc. stress (kbar)   3318.35      0.09     -0.12
                                0.09   3318.46      0.07
                               -0.12      0.07   3318.41

     hartree stress (kbar)  13996.47      0.31     -0.42
                                0.31  13996.15     -0.21
                               -0.42     -0.21  13996.32

     exc-cor stress (kbar)   3868.85      0.00     -0.00
                                0.00   3868.86      0.00
                               -0.00      0.00   3868.86

     corecor stress (kbar) -10659.23     -0.00      0.00
                               -0.00 -10659.24     -0.00
                                0.00     -0.00 -10659.23

     ewald   stress (kbar) -28142.44      0.26     -0.37
                                0.26 -28143.30     -0.59
                               -0.37     -0.59 -28142.87

     hubbard stress (kbar)      0.00      0.00      0.00
                                0.00      0.00      0.00
                                0.00      0.00      0.00

     DFT-D   stress (kbar)      0.00      0.00      0.00
                                0.00      0.00      0.00
                                0.00      0.00      0.00

     XDM     stress (kbar)      0.00      0.00      0.00
                                0.00      0.00      0.00
                                0.00      0.00      0.00

     dft-nl  stress (kbar)      0.00      0.00      0.00
                                0.00      0.00      0.00
                                0.00      0.00      0.00

     TS-vdW  stress (kbar)      0.00      0.00      0.00
                                0.00      0.00      0.00
                                0.00      0.00      0.00

[...]

                                0.00      0.00      0.00

     Writing all to output data dir new_calculations/myprefix.save/

     General routines

     Parallel routines

     PAW routines

   This run was terminated on:  11:19:50  21May2023

   JOB DONE.