     Program PWSCF v.7.1 starts on 16Jul2023 at 17:28:30

     Reading input from espresso_24139.pwi
Warning: card &CELL ignored
Warning: card / ignored

     Current dimensions of program PWSCF are:
     Max number of different atomic species (ntypx) = 10
     Max number of k-points (npk) =  40000
     Max angular momentum in pseudopotentials (lmaxx) =  4
     file Ba.pbe-spn-kjpaw_psl.1.0.0.UPF: wavefunction(s)  5S 6S renormalized
     file Pb.pbe-dn-kjpaw_psl.0.2.2.UPF: wavefunction(s)  6S renormalized
     file O.pbe-n-kjpaw_psl.0.1.UPF: wavefunction(s)  2P renormalized
     Message from routine setup:
     using ibrav=0 with symmetry is DISCOURAGED, use correct ibrav instead

     K-points division:     npool     =       2
     R & G space division:  proc/nbgrp/npool/nimage =       4
     Subspace diagonalization in iterative solution of the eigenvalue problem:
     one sub-group per band group will be used

     Using Slab Decomposition

     bravais-lattice index     =            0
     lattice parameter (alat)  =      15.1260  a.u.
     unit-cell volume          =    2375.7250 (a.u.)^3
     number of atoms/cell      =           16
     number of atomic types    =            3
     number of electrons       =       152.00
     number of Kohn-Sham states=          256
     kinetic-energy cutoff     =      30.0000  Ry
     charge density cutoff     =     240.0000  Ry
     scf convergence threshold =      1.0E-06
     mixing beta               =       0.7000
     number of iterations used =            8  plain     mixing
     Exchange-correlation= SLA  PW   PBX  PBC
                           (   1   4   3   4   0   0   0)

     celldm(1)=  15.126044  celldm(2)=   0.000000  celldm(3)=   0.000000
     celldm(4)=   0.000000  celldm(5)=   0.000000  celldm(6)=   0.000000

     crystal axes: (cart. coord. in units of alat)
               a(1) = (   1.000000   0.000000   0.000000 )
               a(2) = (  -0.500000   0.866025   0.000000 )
               a(3) = (   0.000000   0.000000   0.792665 )

     reciprocal axes: (cart. coord. in units 2 pi/alat)
               b(1) = (  1.000000  0.577350  0.000000 )
               b(2) = (  0.000000  1.154701  0.000000 )
               b(3) = (  0.000000  0.000000  1.261568 )

     PseudoPot. # 1 for Ba read from file:
     /lustre07/scratch/pragov/crystal_structure_design/utils/SSSP/Ba.pbe-spn-kjpaw_psl.1.0.0.UPF
     MD5 check sum: c432291d3e53af55f19d5e8866385beb
     Pseudo is Projector augmented-wave + core cor, Zval = 10.0
     Generated using "atomic" code by A. Dal Corso  v.5.1
     Shape of augmentation charge: PSQ
     Using radial grid of 1251 points,  7 beta functions with:
                l(1) =   0
                l(2) =   0
                l(3) =   0
                l(4) =   1
                l(5) =   1
                l(6) =   2
                l(7) =   2
     Q(r) pseudized with 0 coefficients

     PseudoPot. # 2 for Pb read from file:
     /lustre07/scratch/pragov/crystal_structure_design/utils/SSSP/Pb.pbe-dn-kjpaw_psl.0.2.2.UPF
     MD5 check sum: 9d431e6316058b74ade52399a6cf67da
     Pseudo is Projector augmented-wave + core cor, Zval = 14.0
     Generated using "atomic" code by A. Dal Corso  v.5.0.99 svn rev. 10869
     Shape of augmentation charge: PSQ
     Using radial grid of 1281 points,  6 beta functions with:
                l(1) =   0
                l(2) =   0
                l(3) =   1
                l(4) =   1
                l(5) =   2
                l(6) =   2
     Q(r) pseudized with 0 coefficients

     PseudoPot. # 3 for O  read from file:
     /lustre07/scratch/pragov/crystal_structure_design/utils/SSSP/O.pbe-n-kjpaw_psl.0.1.UPF
     MD5 check sum: 0234752ac141de4415c5fc33072bef88
     Pseudo is Projector augmented-wave + core cor, Zval =  6.0
     Generated using "atomic" code by A. Dal Corso  v.5.0.99 svn rev. 10869
     Shape of augmentation charge: BESSEL
     Using radial grid of 1095 points,  4 beta functions with:
                l(1) =   0
                l(2) =   0
                l(3) =   1
                l(4) =   1
     Q(r) pseudized with 0 coefficients

     atomic species   valence    mass     pseudopotential
        Ba            10.00   137.32700     Ba( 1.00)
        Pb            14.00   207.20000     Pb( 1.00)
        O              6.00    15.99900     O ( 1.00)

     12 Sym. Ops. (no inversion) found ( 6 have fractional translation)

                                    s                        frac. trans.

      isym =  1     identity

 cryst.   s( 1) = (     1          0          0      )
                  (     0          1          0      )
                  (     0          0          1      )

 cart.    s( 1) = (  1.0000000  0.0000000  0.0000000 )
                  (  0.0000000  1.0000000  0.0000000 )
                  (  0.0000000  0.0000000  1.0000000 )

      isym =  2     180 deg rotation - cart. axis [1,0,0]

[...]

      isym =  3     120 deg rotation - cryst. axis [0,0,1]

[...]

      isym =  6     180 deg rotation - cryst. axis [1,1,0]

 cryst.   s( 6) = (     0          1          0      )
                  (     1          0          0      )
                  (     0          0         -1      )

 cart.    s( 6) = ( -0.5000000  0.8660254  0.0000000 )
                  (  0.8660254  0.5000000  0.0000000 )
                  (  0.0000000  0.0000000 -1.0000000 )

      isym =  7     inv. 180 deg rotation - cart. axis [0,0,1]

 cryst.   s( 7) = (     1          0          0      )    f =(  0.0000000 )
                  (     0          1          0      )       (  0.0000000 )
                  (     0          0         -1      )       (  0.5000000 )

 cart.    s( 7) = (  1.0000000  0.0000000  0.0000000 )    f =(  0.0000000 )
                  (  0.0000000  1.0000000  0.0000000 )       (  0.0000000 )
                  (  0.0000000  0.0000000 -1.0000000 )       (  0.3963323 )

      isym =  8     inv. 180 deg rotation - cart. axis [0,1,0]

[...]

      isym =  9     inv.  60 deg rotation - cryst. axis [0,0,1]

 cryst.   s( 9) = (    -1         -1          0      )    f =( -0.0000010 )
                  (     1          0          0      )       (  0.0000000 )
                  (     0          0         -1      )       (  0.5000000 )

 cart.    s( 9) = ( -0.5000000  0.8660254  0.0000000 )    f =( -0.0000010 )
                  ( -0.8660254 -0.5000000  0.0000000 )       (  0.0000000 )
                  (  0.0000000  0.0000000 -1.0000000 )       (  0.3963323 )

[...]

 cryst.   s(10) = (     0          1          0      )    f =(  0.0000000 )
                  (    -1         -1          0      )       (  0.0000010 )
                  (     0          0         -1      )       (  0.5000000 )

 cart.    s(10) = ( -0.5000000 -0.8660254  0.0000000 )    f =( -0.0000005 )
                  (  0.8660254 -0.5000000  0.0000000 )       (  0.0000009 )
                  (  0.0000000  0.0000000 -1.0000000 )       (  0.3963323 )

[...]

      isym = 12     inv. 180 deg rotation - cryst. axis [2,1,0]

 cryst.   s(12) = (    -1         -1          0      )    f =(  0.0000000 )
                  (     0          1          0      )       (  0.0000010 )
                  (     0          0          1      )       ( -0.5000000 )

 cart.    s(12) = ( -0.5000000 -0.8660253  0.0000000 )    f =( -0.0000005 )
                  ( -0.8660254  0.5000000  0.0000000 )       (  0.0000009 )
                  (  0.0000000  0.0000000  1.0000000 )       ( -0.3963323 )

   Cartesian axes

     site n.     atom                  positions (alat units)
         1           Ba  tau(   1) = (   0.5000005   0.2886749   0.1981662  )
         2           Ba  tau(   2) = (  -0.0000005   0.5773506   0.5944985  )
         3           Pb  tau(   3) = (  -0.0063065   0.2987779   0.1981662  )
         4           Pb  tau(   4) = (   0.2444040   0.7111749   0.1981662  )
         5           Pb  tau(   5) = (   0.2619025   0.1439274   0.5944985  )
         6           Pb  tau(   6) = (  -0.2380975   0.7220981   0.1981662  )
         7           Pb  tau(   7) = (   0.4936935   0.5672475   0.5944985  )
         8           Pb  tau(   8) = (   0.7444040   0.1548505   0.5944985  )
         9           O   tau(   9) = (  -0.0000005   0.5773506   0.1981662  )
        10           O   tau(  10) = (   0.5000005   0.2886749   0.5944985  )
        11           O   tau(  11) = (   0.3920690   0.0000000   0.0000000  )
        12           O   tau(  12) = (  -0.1960345   0.3395417   0.0000000  )
        13           O   tau(  13) = (   0.3920690   0.0000000   0.3963323  )
        14           O   tau(  14) = (   0.3039655   0.5264837   0.0000000  )
        15           O   tau(  15) = (  -0.1960345   0.3395417   0.3963323  )
        16           O   tau(  16) = (   0.3039655   0.5264837   0.3963323  )

   Crystallographic axes

     site n.     atom                  positions (cryst. coord.)
         1           Ba  tau(   1) = (  0.6666670  0.3333330  0.2500000  )
         2           Ba  tau(   2) = (  0.3333330  0.6666670  0.7500000  )
         3           Pb  tau(   3) = (  0.1661930  0.3449990  0.2500000  )
         4           Pb  tau(   4) = (  0.6550010  0.8211940  0.2500000  )
         5           Pb  tau(   5) = (  0.3449990  0.1661930  0.7500000  )
         6           Pb  tau(   6) = (  0.1788060  0.8338070  0.2500000  )
         7           Pb  tau(   7) = (  0.8211940  0.6550010  0.7500000  )
         8           Pb  tau(   8) = (  0.8338070  0.1788060  0.7500000  )
         9           O   tau(   9) = (  0.3333330  0.6666670  0.2500000  )
        10           O   tau(  10) = (  0.6666670  0.3333330  0.7500000  )
        11           O   tau(  11) = (  0.3920690  0.0000000  0.0000000  )
        12           O   tau(  12) = ( -0.0000000  0.3920690  0.0000000  )
        13           O   tau(  13) = (  0.3920690  0.0000000  0.5000000  )
        14           O   tau(  14) = (  0.6079310  0.6079310  0.0000000  )
        15           O   tau(  15) = ( -0.0000000  0.3920690  0.5000000  )
        16           O   tau(  16) = (  0.6079310  0.6079310  0.5000000  )

     number of k points=     6
                       cart. coord. in units 2pi/alat
        k(    1) = (   0.0000000   0.0000000   0.0000000), wk =   0.0740741
        k(    2) = (   0.0000000   0.0000000   0.4205225), wk =   0.1481481
        k(    3) = (   0.0000000   0.3849002   0.0000000), wk =   0.4444444
        k(    4) = (   0.0000000   0.3849002   0.4205225), wk =   0.8888889
        k(    5) = (   0.3333333   0.5773502   0.0000000), wk =   0.1481481
        k(    6) = (   0.3333333   0.5773502   0.4205225), wk =   0.2962963

                       cryst. coord.
        k(    1) = (   0.0000000   0.0000000   0.0000000), wk =   0.0740741
        k(    2) = (   0.0000000   0.0000000   0.3333333), wk =   0.1481481
        k(    3) = (   0.0000000   0.3333333   0.0000000), wk =   0.4444444
        k(    4) = (   0.0000000   0.3333333   0.3333333), wk =   0.8888889
        k(    5) = (   0.3333333   0.3333333   0.0000000), wk =   0.1481481
        k(    6) = (   0.3333333   0.3333333   0.3333333), wk =   0.2962963

     Check: negative core charge=   -0.000006

     Initial potential from superposition of free atoms

     starting charge     151.9519, renormalised to     152.0000
     Starting wfcs are   96 randomized atomic wfcs +  160 random wfcs
     Checking if some PAW data can be deallocated...

     Self-consistent Calculation

     iteration #  1     ecut=    30.00 Ry     beta= 0.70
     Davidson diagonalization with overlap

     ethr =  1.00E-02,  avg # of iterations =  7.0

     total energy              =   -6426.04751283 Ry
     estimated scf accuracy    <       5.35373350 Ry

[...]

     c_bands:  1 eigenvalues not converged
     ethr =  2.10E-06,  avg # of iterations = 11.8

[...]

     total energy              =   -6429.05138846 Ry
     estimated scf accuracy    <       0.00001274 Ry

     iteration #  9     ecut=    30.00 Ry     beta= 0.70
     Davidson diagonalization with overlap

     ethr =  8.38E-09,  avg # of iterations =  2.8

     End of self-consistent calculation

          k = 0.0000 0.0000 0.0000 (  6591 PWs)   bands (ev):

   -18.8637 -18.8555 -10.3505 -10.3366  -9.8405  -9.8391  -9.8389  -9.7365
    -9.7364  -9.6985  -8.1060  -8.1059  -8.0589  -8.0588  -8.0526  -8.0141
    -8.0139  -8.0120  -8.0049  -7.9948  -7.9846  -7.9845  -7.9784  -7.9783
    -7.9665  -7.9565  -7.9563  -7.9419  -7.9418  -7.9205  -7.9204  -7.8848
    -7.8805  -7.6755  -7.6754  -7.2666  -6.9737  -6.8071  -6.8071  -6.7590
    -4.1513  -4.1513  -4.0789  -3.9217  -3.9217  -3.8645  -0.3950  -0.3950
     0.4710   1.1256   1.2328   1.2328   4.0607   4.0607   4.6037   4.7653
     4.7653   5.1882   5.1883   5.3007   5.5290   5.6667   5.6768   5.6768
     5.7709   5.8943   5.8943   6.3732   6.3733   6.4741   6.6259   6.6684
     6.6685   6.6853   7.3231   7.3232   9.3021   9.7921  10.4961  10.4961
    10.8595  11.5216  11.5216  11.9240  11.9241  12.3473  12.3709  12.3710
    12.9093  12.9093  13.0034  13.0435  13.6811  13.6811  14.3324  14.3325
    14.4120  14.6508  14.6509  14.8018  15.3326  15.4795  15.5862  15.5862
    15.8398  15.8399  16.5337  17.9138  18.5121  18.5121  19.2591  19.2592
    19.3164  19.3165  19.5680  19.9543  20.0597  20.0598  20.1087  20.9094
    21.0053  21.0054  21.1276  21.1598  21.1599  21.4650  21.6713  21.6713
    21.7408  21.7865  21.7865  22.2949  22.2949  22.6155  23.1346  23.1346
    23.6938  23.7309  23.7309  23.8553  24.0346  24.0346  24.2266  24.2267
    24.6112  24.6141  24.7492  25.0570  25.4536  25.4537  25.5541  25.5541
    25.8691  25.8691  25.8881  25.9472  26.1632  26.1632  26.8253  27.6071
    27.6071  27.7157  27.7158  27.9251  27.9251  27.9720  28.0775  28.2029
    28.2030  28.3630  28.3980  28.5919  28.5919  29.2152  29.4594  29.6842
    29.6842  29.9999  29.9999  30.3915  30.5667  30.6836  30.6836  31.1630
    31.1630  31.3383  31.3479  31.3479  31.5138  31.6860  31.6860  31.8850
    32.0392  32.7285  32.7285  33.2054  33.2055  33.2523  33.3943  33.4561
    33.4562  33.8020  33.9161  33.9162  34.2354  34.6444  34.6444  34.6797
    34.7401  34.7402  34.7566  34.7652  35.1771  35.1771  35.8056  35.8668
    35.8669  35.8870  36.0505  36.2187  36.2188  36.4879  36.4880  36.8725
    36.9368  36.9368  37.0121  37.0588  37.2341  37.3979  37.3979  37.4142
    37.4142  38.0105  38.3878  38.3878  38.4396  38.4396  38.8323  39.2799
    39.2800  39.3868  39.3868  39.7468  39.8883  39.8884  39.9187  40.0876
    40.7228  40.9358  40.9359  41.0196  41.0196  41.1371  41.2734  41.4305

     occupation numbers
     1.0000   1.0000   1.0000   1.0000   1.0000   1.0000   1.0000   1.0000
     1.0000   1.0000   1.0000   1.0000   1.0000   1.0000   1.0000   1.0000
     1.0000   1.0000   1.0000   1.0000   1.0000   1.0000   1.0000   1.0000
     1.0000   1.0000   1.0000   1.0000   1.0000   1.0000   1.0000   1.0000
     1.0000   1.0000   1.0000   1.0000   1.0000   1.0000   1.0000   1.0000
     1.0000   1.0000   1.0000   1.0000   1.0000   1.0000   1.0000   1.0000
     1.0000   1.0000   1.0000   1.0000   1.0000   1.0000   1.0000   1.0000
     1.0000   1.0000   1.0000   1.0000   1.0000   1.0000   1.0000   1.0000
     1.0000   1.0000   1.0000   1.0000   1.0000   1.0000   1.0000   1.0000
     1.0000   1.0000   1.0000   1.0000   0.0000   0.0000   0.0000   0.0000
     0.0000   0.0000   0.0000   0.0000   0.0000   0.0000   0.0000   0.0000
     0.0000   0.0000   0.0000   0.0000   0.0000   0.0000   0.0000   0.0000
     0.0000   0.0000   0.0000   0.0000   0.0000   0.0000   0.0000   0.0000
     0.0000   0.0000   0.0000   0.0000   0.0000   0.0000   0.0000   0.0000
     0.0000   0.0000   0.0000   0.0000   0.0000   0.0000   0.0000   0.0000
     0.0000   0.0000   0.0000   0.0000   0.0000   0.0000   0.0000   0.0000
     0.0000   0.0000   0.0000   0.0000   0.0000   0.0000   0.0000   0.0000
     0.0000   0.0000   0.0000   0.0000   0.0000   0.0000   0.0000   0.0000
     0.0000   0.0000   0.0000   0.0000   0.0000   0.0000   0.0000   0.0000
     0.0000   0.0000   0.0000   0.0000   0.0000   0.0000   0.0000   0.0000
     0.0000   0.0000   0.0000   0.0000   0.0000   0.0000   0.0000   0.0000
     0.0000   0.0000   0.0000   0.0000   0.0000   0.0000   0.0000   0.0000
     0.0000   0.0000   0.0000   0.0000   0.0000   0.0000   0.0000   0.0000
     0.0000   0.0000   0.0000   0.0000   0.0000   0.0000   0.0000   0.0000
     0.0000   0.0000   0.0000   0.0000   0.0000   0.0000   0.0000   0.0000
     0.0000   0.0000   0.0000   0.0000   0.0000   0.0000   0.0000   0.0000
     0.0000   0.0000   0.0000   0.0000   0.0000   0.0000   0.0000   0.0000
     0.0000   0.0000   0.0000   0.0000   0.0000   0.0000   0.0000   0.0000
     0.0000   0.0000   0.0000   0.0000   0.0000   0.0000   0.0000   0.0000
     0.0000   0.0000   0.0000   0.0000   0.0000   0.0000   0.0000   0.0000
     0.0000   0.0000   0.0000   0.0000   0.0000   0.0000   0.0000   0.0000
     0.0000   0.0000   0.0000   0.0000   0.0000   0.0000   0.0000   0.0000

[...]

          k = 0.3333 0.5774 0.4205 (  6621 PWs)   bands (ev):

   -18.8590 -18.8589 -10.3554 -10.3554  -9.8290  -9.8289  -9.8144  -9.7704
    -9.7384  -9.7383  -8.0952  -8.0787  -8.0688  -8.0687  -8.0182  -8.0181
    -8.0123  -8.0004  -8.0003  -7.9942  -7.9844  -7.9843  -7.9832  -7.9760
    -7.9759  -7.9703  -7.9296  -7.9295  -7.9178  -7.9146  -7.9089  -7.9088
    -7.7520  -7.7520  -7.4882  -7.2019  -7.2019  -7.0799  -6.7850  -6.7850
    -4.0609  -4.0608  -4.0607  -3.9707  -3.8768  -3.8768   0.0040   0.2280
     0.2280   0.2918   1.4645   1.4646   4.0074   4.0952   4.4567   4.4567
     4.8627   4.8627   5.1361   5.1361   5.3445   5.4792   5.4793   5.4946
     5.9640   6.0518   6.1323   6.1324   6.2139   6.2140   6.5333   6.5333
     6.6401   6.8658   7.0246   7.0246  10.3542  10.3542  10.5630  10.6864
    11.3076  11.3076  11.6356  11.9854  11.9854  12.0765  12.7026  12.8332
    12.8332  13.1866  13.5585  13.5585  14.0834  14.0924  14.0924  14.2476
    14.5749  14.5749  14.8368  14.9868  14.9868  15.2809  15.7588  15.7588
    16.6514  16.6515  16.9617  17.5575  17.7982  17.7982  18.2295  18.2295
    18.5672  18.7994  18.7994  19.0575  19.5067  19.5068  20.0964  20.3023
    20.3023  20.3584  20.5244  20.5244  20.7301  20.9837  21.6138  21.6139
    21.9812  22.3001  22.3767  22.3767  22.5128  22.5483  23.0811  23.0811
    23.3699  23.3699  23.6294  23.6294  24.2138  24.2153  24.2153  24.4175
    24.8028  24.8028  25.3088  25.3089  25.3889  25.6211  25.8440  25.8440
    26.0995  26.4631  26.4631  26.6964  26.7640  26.7640  27.1831  27.2100
    27.2101  27.5093  27.6747  28.1101  28.1102  28.3251  28.3251  28.7504
    28.8726  29.1742  29.1742  29.2763  29.2763  29.2796  29.7427  29.7427
    30.2270  30.2270  30.5284  30.6043  30.6043  30.7000  31.1303  31.2203
    31.2204  31.5186  31.5728  31.5728  31.7839  31.8004  31.8004  32.5324
    32.5737  32.6602  32.6602  32.9546  32.9546  32.9598  33.3427  33.3428
    33.4800  33.5980  33.8701  33.8701  34.2267  34.2385  34.2385  34.6175
    34.6175  34.9828  35.1890  35.1890  35.2018  35.4500  35.5656  35.5657
    35.6511  35.6512  36.0404  36.1239  36.1239  36.4811  36.4812  36.6829
    36.7052  36.7052  36.8504  36.9612  36.9613  37.0567  37.1977  37.1977
    37.2600  37.6224  37.8880  37.8881  38.3828  38.3956  38.3956  38.4898
    38.5776  38.5776  38.8010  38.8846  39.0445  39.0446  39.4218  39.4218
    39.7098  39.9421  40.0074  40.0074  40.1895  40.1896  40.4258  40.5349

     occupation numbers
     1.0000   1.0000   1.0000   1.0000   1.0000   1.0000   1.0000   1.0000
     1.0000   1.0000   1.0000   1.0000   1.0000   1.0000   1.0000   1.0000
     1.0000   1.0000   1.0000   1.0000   1.0000   1.0000   1.0000   1.0000
     1.0000   1.0000   1.0000   1.0000   1.0000   1.0000   1.0000   1.0000
     1.0000   1.0000   1.0000   1.0000   1.0000   1.0000   1.0000   1.0000
     1.0000   1.0000   1.0000   1.0000   1.0000   1.0000   1.0000   1.0000
     1.0000   1.0000   1.0000   1.0000   1.0000   1.0000   1.0000   1.0000
     1.0000   1.0000   1.0000   1.0000   1.0000   1.0000   1.0000   1.0000
     1.0000   1.0000   1.0000   1.0000   1.0000   1.0000   1.0000   1.0000
     1.0000   1.0000   1.0000   1.0000   0.0000   0.0000   0.0000   0.0000
     0.0000   0.0000   0.0000   0.0000   0.0000   0.0000   0.0000   0.0000
     0.0000   0.0000   0.0000   0.0000   0.0000   0.0000   0.0000   0.0000
     0.0000   0.0000   0.0000   0.0000   0.0000   0.0000   0.0000   0.0000
     0.0000   0.0000   0.0000   0.0000   0.0000   0.0000   0.0000   0.0000
     0.0000   0.0000   0.0000   0.0000   0.0000   0.0000   0.0000   0.0000
     0.0000   0.0000   0.0000   0.0000   0.0000   0.0000   0.0000   0.0000
     0.0000   0.0000   0.0000   0.0000   0.0000   0.0000   0.0000   0.0000
     0.0000   0.0000   0.0000   0.0000   0.0000   0.0000   0.0000   0.0000
     0.0000   0.0000   0.0000   0.0000   0.0000   0.0000   0.0000   0.0000
     0.0000   0.0000   0.0000   0.0000   0.0000   0.0000   0.0000   0.0000
     0.0000   0.0000   0.0000   0.0000   0.0000   0.0000   0.0000   0.0000
     0.0000   0.0000   0.0000   0.0000   0.0000   0.0000   0.0000   0.0000
     0.0000   0.0000   0.0000   0.0000   0.0000   0.0000   0.0000   0.0000
     0.0000   0.0000   0.0000   0.0000   0.0000   0.0000   0.0000   0.0000
     0.0000   0.0000   0.0000   0.0000   0.0000   0.0000   0.0000   0.0000
     0.0000   0.0000   0.0000   0.0000   0.0000   0.0000   0.0000   0.0000
     0.0000   0.0000   0.0000   0.0000   0.0000   0.0000   0.0000   0.0000
     0.0000   0.0000   0.0000   0.0000   0.0000   0.0000   0.0000   0.0000
     0.0000   0.0000   0.0000   0.0000   0.0000   0.0000   0.0000   0.0000
     0.0000   0.0000   0.0000   0.0000   0.0000   0.0000   0.0000   0.0000
     0.0000   0.0000   0.0000   0.0000   0.0000   0.0000   0.0000   0.0000
     0.0000   0.0000   0.0000   0.0000   0.0000   0.0000   0.0000   0.0000

     highest occupied, lowest unoccupied level (ev):     7.3232    9.3021

!    total energy              =   -6429.05139175 Ry
     total all-electron energy =   -284331.183562 Ry
     estimated scf accuracy    <       0.00000020 Ry

     The total energy is the sum of the following terms:
     one-electron contribution =    -392.66719319 Ry
     hartree contribution      =     310.98409791 Ry
     xc contribution           =    -366.49952023 Ry
     ewald contribution        =    -783.75583818 Ry
     one-center paw contrib.   =   -5197.11293807 Ry
      -> PAW hartree energy AE =      57.04030555 Ry
      -> PAW hartree energy PS =     -56.81707372 Ry
      -> PAW xc energy AE      =    -788.39266022 Ry
      -> PAW xc energy PS      =      38.26485859 Ry
      -> total E_H with PAW    =     311.20732975 Ry
      -> total E_XC with PAW   =   -1116.62732186 Ry

     convergence has been achieved in   9 iterations

     Writing all to output data dir energy_m/myprefix.save/

     General routines

     Parallel routines

     PAW routines

   This run was terminated on:  17:29:20  16Jul2023

   JOB DONE.