     Program PWSCF v.7.0 starts on 20May2023 at  3:47:17

     Reading input from espresso_19010.pwi
Warning: card &CELL ignored
Warning: card / ignored

     Current dimensions of program PWSCF are:
     Max number of different atomic species (ntypx) = 10
     Max number of k-points (npk) =  40000
     Max angular momentum in pseudopotentials (lmaxx) =  4
     file In.pbe-dn-rrkjus_psl.0.2.2.UPF: wavefunction(s)  5S renormalized

     gamma-point specific algorithms are used
     Message from routine setup:
     using ibrav=0 with symmetry is DISCOURAGED, use correct ibrav instead

     Subspace diagonalization in iterative solution of the eigenvalue problem:
     a serial algorithm will be used

     Using Slab Decomposition

     bravais-lattice index     =            0
     lattice parameter (alat)  =      14.6392  a.u.
     unit-cell volume          =    1418.1179 (a.u.)^3
     number of atoms/cell      =            9
     number of atomic types    =            3
     number of electrons       =       129.00
     number of Kohn-Sham states=           78
     kinetic-energy cutoff     =      30.0000  Ry
     charge density cutoff     =     240.0000  Ry
     scf convergence threshold =      1.0E-06
     mixing beta               =       0.7000
     number of iterations used =            8  plain     mixing
     Exchange-correlation= PBE
                           (   1   4   3   4   0   0   0)

     celldm(1)=  14.639200  celldm(2)=   0.000000  celldm(3)=   0.000000
     celldm(4)=   0.000000  celldm(5)=   0.000000  celldm(6)=   0.000000

     crystal axes: (cart. coord. in units of alat)
               a(1) = (   1.000000   0.000000   0.000000 )
               a(2) = (  -0.500000   0.866025   0.000000 )
               a(3) = (   0.000000   0.000000   0.521951 )

     reciprocal axes: (cart. coord. in units 2 pi/alat)
               b(1) = (  1.000000  0.577350  0.000000 )
               b(2) = (  0.000000  1.154701  0.000000 )
               b(3) = (  0.000000  0.000000  1.915889 )

     PseudoPot. # 1 for Y  read from file:
     /home/pragov/projects/rrg-bengioy-ad/pragov/crystal_structure_design/SSSP/Y_pbe_v1.uspp.F.UPF
     MD5 check sum: 2cf71db95cafeb975fc457bd7f14888e
     Pseudo is Ultrasoft + core correction, Zval = 11.0
     Generated by new atomic code, or converted to UPF format
     Using radial grid of  885 points,  6 beta functions with:
                l(1) =   0
                l(2) =   0
                l(3) =   1
                l(4) =   1
                l(5) =   2
                l(6) =   2
     Q(r) pseudized with  6 coefficients,  rinner =    1.200   1.200   1.200
                                                       1.200   1.200

     PseudoPot. # 2 for In read from file:
     /home/pragov/projects/rrg-bengioy-ad/pragov/crystal_structure_design/SSSP/In.pbe-dn-rrkjus_psl.0.2.2.UPF
     MD5 check sum: 25e7c42c3b55b68f4bf926be2e7201a4
     Pseudo is Ultrasoft + core correction, Zval = 13.0
     Generated using "atomic" code by A. Dal Corso  v.5.0.99 svn rev. 10869
     Using radial grid of 1241 points,  6 beta functions with:
                l(1) =   0
                l(2) =   0
                l(3) =   1
                l(4) =   1
                l(5) =   2
                l(6) =   2
     Q(r) pseudized with 0 coefficients

     PseudoPot. # 3 for Au read from file:
     /home/pragov/projects/rrg-bengioy-ad/pragov/crystal_structure_design/SSSP/Au_ONCV_PBE-1.0.oncvpsp.upf
     MD5 check sum: d14007822ba0e19f0206237467fc06c2
     Pseudo is Norm-conserving, Zval = 19.0
     Generated using ONCVPSP code by D. R. Hamann
     Using radial grid of 1278 points,  8 beta functions with:
                l(1) =   0
                l(2) =   0
                l(3) =   1
                l(4) =   1
                l(5) =   2
                l(6) =   2
                l(7) =   3
                l(8) =   3

     atomic species   valence    mass     pseudopotential
        Y             11.00    88.90584     Y ( 1.00)
        In            13.00   114.81800     In( 1.00)
        Au            19.00   196.96657     Au( 1.00)

     12 Sym. Ops. (no inversion) found

                                    s                        frac. trans.

      isym =  1     identity

 cryst.   s( 1) = (     1          0          0      )
                  (     0          1          0      )
                  (     0          0          1      )

 cart.    s( 1) = (  1.0000000 -0.0000000  0.0000000 )
                  (  0.0000000  1.0000000  0.0000000 )
                  (  0.0000000  0.0000000  1.0000000 )

      isym =  2     180 deg rotation - cart. axis [1,0,0]

[...]

      isym =  3     120 deg rotation - cryst. axis [0,0,1]

[...]

      isym =  6     180 deg rotation - cryst. axis [1,1,0]

[...]

      isym =  7     inv. 180 deg rotation - cart. axis [0,0,1]

[...]

      isym =  8     inv. 180 deg rotation - cart. axis [0,1,0]

[...]

      isym =  9     inv.  60 deg rotation - cryst. axis [0,0,1]

 cryst.   s( 9) = (    -1         -1          0      )
                  (     1          0          0      )
                  (     0          0         -1      )

 cart.    s( 9) = ( -0.4999999  0.8660255  0.0000000 )
                  ( -0.8660253 -0.5000001  0.0000000 )
                  (  0.0000000  0.0000000 -1.0000000 )

[...]

 cryst.   s(10) = (     0          1          0      )
                  (    -1         -1          0      )
                  (     0          0         -1      )

 cart.    s(10) = ( -0.5000001 -0.8660255  0.0000000 )
                  (  0.8660253 -0.4999999  0.0000000 )
                  (  0.0000000  0.0000000 -1.0000000 )

[...]

      isym = 12     inv. 180 deg rotation - cryst. axis [2,1,0]

 cryst.   s(12) = (    -1         -1          0      )
                  (     0          1          0      )
                  (     0          0          1      )

 cart.    s(12) = ( -0.4999999 -0.8660256  0.0000000 )
                  ( -0.8660253  0.4999999  0.0000000 )
                  (  0.0000000  0.0000000  1.0000000 )

   Cartesian axes

     site n.     atom                  positions (alat units)
         1           Y   tau(   1) = (  -0.2971206   0.5146278   0.2609755  )
         2           Y   tau(   2) = (   0.5942410   0.0000000   0.2609755  )
         3           Y   tau(   3) = (   0.2028795   0.3513976   0.2609755  )
         4           In  tau(   4) = (   0.8704130   0.2244513   0.0000000  )
         5           In  tau(   5) = (   0.2591740   0.0000000   0.0000000  )
         6           In  tau(   6) = (   0.3704129   0.6415741   0.0000000  )
         7           Au  tau(   7) = (   0.0000000   0.0000000   0.2609755  )
         8           Au  tau(   8) = (   0.5000005   0.2886748   0.0000000  )
         9           Au  tau(   9) = (  -0.0000006   0.5773505   0.0000000  )

   Crystallographic axes

     site n.     atom                  positions (cryst. coord.)
         1           Y   tau(   1) = (  0.0000000  0.5942410  0.5000000  )
         2           Y   tau(   2) = (  0.5942410  0.0000000  0.5000000  )
         3           Y   tau(   3) = (  0.4057590  0.4057590  0.5000000  )
         4           In  tau(   4) = (  1.0000000  0.2591740  0.0000000  )
         5           In  tau(   5) = (  0.2591740  0.0000000  0.0000000  )
         6           In  tau(   6) = (  0.7408260  0.7408260  0.0000000  )
         7           Au  tau(   7) = (  0.0000000  0.0000000  0.5000000  )
         8           Au  tau(   8) = (  0.6666670  0.3333330  0.0000000  )
         9           Au  tau(   9) = (  0.3333330  0.6666670  0.0000000  )

     number of k points=     1  Methfessel-Paxton smearing, width (Ry)=  0.0010
                       cart. coord. in units 2pi/alat
        k(    1) = (   0.0000000   0.0000000   0.0000000), wk =   2.0000000

                       cryst. coord.
        k(    1) = (   0.0000000   0.0000000   0.0000000), wk =   2.0000000

     Check: negative core charge=   -0.000004

     Initial potential from superposition of free atoms

     starting charge     128.9752, renormalised to     129.0000

     negative rho (up, down):  1.293E-01 0.000E+00
     Starting wfcs are   96 randomized atomic wfcs

     Self-consistent Calculation

     iteration #  1     ecut=    30.00 Ry     beta= 0.70
     Davidson diagonalization with overlap

     ethr =  1.00E-02,  avg # of iterations =  2.0

     Threshold (ethr) on eigenvalues was too large:
     Diagonalizing with lowered threshold

     Davidson diagonalization with overlap

[...]

     negative rho (up, down):  1.256E-01 0.000E+00

     total energy              =   -1520.70583034 Ry
     estimated scf accuracy    <       0.47825317 Ry

[...]

     total energy              =   -1520.98529727 Ry
     estimated scf accuracy    <       0.00000338 Ry

     iteration # 18     ecut=    30.00 Ry     beta= 0.70
     Davidson diagonalization with overlap

     ethr =  2.62E-09,  avg # of iterations =  1.0

[...]

     End of self-consistent calculation

          k = 0.0000 0.0000 0.0000 (  1990 PWs)   bands (ev):

   -93.8241 -93.6563 -93.6562 -44.9642 -44.7893 -44.7885 -44.7780 -44.7780
   -44.6045 -44.6045 -44.6022 -44.6022 -28.7197 -28.7125 -28.7125  -8.8432
    -8.7815  -8.7815  -8.7505  -8.7440  -8.7440  -8.7286  -8.7107  -8.7107
    -1.2129  -1.1676  -1.1675  -1.1539  -1.1399  -1.1399  -1.1222  -1.0998
    -1.0998  -1.0914  -1.0819  -1.0819  -1.0178  -1.0177  -0.9890   4.5517
     7.0917   7.0918   7.3964   8.0699   8.3331   8.3331   8.3372   8.4460
     8.4460   8.6500   8.6500   8.6717   8.6717   8.6828   8.8076   8.8076
     9.2360   9.7549   9.7549  10.6634  10.6634  14.0467  14.0467  14.5903
    14.5957  14.7249  14.9254  15.2127  15.2127  15.6299  15.6300  16.0937
    16.1363  17.3345  17.3345  17.3730  17.3730  17.5063

     occupation numbers
     1.0000   1.0000   1.0000   1.0000   1.0000   1.0000   1.0000   1.0000
     1.0000   1.0000   1.0000   1.0000   1.0000   1.0000   1.0000   1.0000
     1.0000   1.0000   1.0000   1.0000   1.0000   1.0000   1.0000   1.0000
     1.0000   1.0000   1.0000   1.0000   1.0000   1.0000   1.0000   1.0000
     1.0000   1.0000   1.0000   1.0000   1.0000   1.0000   1.0000   1.0000
     1.0000   1.0000   1.0000   1.0000   1.0000   1.0000   1.0000   1.0000
     1.0000   1.0000   1.0000   1.0000   1.0000   1.0000   1.0000   1.0000
     1.0000   1.0000   1.0000   1.0000   1.0000   1.0000   1.0000   0.8874
     0.6126  -0.0000  -0.0000  -0.0000  -0.0000  -0.0000  -0.0000  -0.0000
    -0.0000  -0.0000  -0.0000  -0.0000  -0.0000  -0.0000

     the Fermi energy is    14.5975 ev

!    total energy              =   -1520.98529731 Ry
     estimated scf accuracy    <          4.7E-09 Ry
     smearing contrib. (-TS)   =      -0.00035901 Ry
     internal energy E=F+TS    =   -1520.98493830 Ry

     The total energy is F=E-TS. E is the sum of the following terms:
     one-electron contribution =    -593.80579572 Ry
     hartree contribution      =     360.00302410 Ry
     xc contribution           =    -285.01812697 Ry
     ewald contribution        =   -1002.16403971 Ry

     convergence has been achieved in  18 iterations

     negative rho (up, down):  1.279E-01 0.000E+00

     Forces acting on atoms (cartesian axes, Ry/au):

     atom    1 type  1   force =    -0.03958156    0.06855727    0.00000000
     atom    2 type  1   force =     0.07916312    0.00000001    0.00000000
     atom    3 type  1   force =    -0.03958156   -0.06855728    0.00000000
     atom    4 type  2   force =    -0.00820118    0.01420486    0.00000000
     atom    5 type  2   force =     0.01640236    0.00000000    0.00000000
     atom    6 type  2   force =    -0.00820118   -0.01420486    0.00000000
     atom    7 type  3   force =    -0.00000000    0.00000000    0.00000000
     atom    8 type  3   force =     0.00000000   -0.00000000   -0.00000000
     atom    9 type  3   force =     0.00000000   -0.00000000    0.00000000
     The non-local contrib.  to forces
     atom    1 type  1   force =     0.03841444   -0.06653577    0.00000000
     atom    2 type  1   force =    -0.07682889   -0.00000001   -0.00000000
     atom    3 type  1   force =     0.03841444    0.06653578   -0.00000000
     atom    4 type  2   force =    -0.00113421    0.00196450    0.00000000
     atom    5 type  2   force =     0.00226841    0.00000000   -0.00000000
     atom    6 type  2   force =    -0.00113421   -0.00196450    0.00000000
     atom    7 type  3   force =     0.00000000    0.00000000    0.00000000
     atom    8 type  3   force =     0.00000000   -0.00000000    0.00000000
     atom    9 type  3   force =     0.00000000   -0.00000000   -0.00000000
     The ionic contribution  to forces
     atom    1 type  1   force =     0.56883151   -0.98531005    0.00000000
     atom    2 type  1   force =    -1.13771929   -0.00003264    0.00000000
     atom    3 type  1   force =     0.56888981    0.98534620    0.00000000
     atom    4 type  2   force =    -2.16522243    3.75041990   -0.00000000
     atom    5 type  2   force =     4.33057013    0.00007289   -0.00000000
     atom    6 type  2   force =    -2.16535163   -3.75049962   -0.00000000
     atom    7 type  3   force =     0.00000037    0.00000065    0.00000000
     atom    8 type  3   force =    -0.00014629    0.00008624   -0.00000000
     atom    9 type  3   force =     0.00014783   -0.00008357    0.00000000
     The local contribution  to forces
     atom    1 type  1   force =    -0.64337504    1.11435955   -0.00004503
     atom    2 type  1   force =     1.28670170    0.00008060   -0.00004480
     atom    3 type  1   force =    -0.64335363   -1.11445653   -0.00003999
     atom    4 type  2   force =     2.15998876   -3.74143614    0.00006610
     atom    5 type  2   force =    -4.32010317   -0.00003465    0.00004419
     atom    6 type  2   force =     2.16018542    3.74144693    0.00005672
     atom    7 type  3   force =     0.00009854   -0.00001906    0.00010987
     atom    8 type  3   force =     0.00014453   -0.00010452    0.00001145
     atom    9 type  3   force =    -0.00020344    0.00010343    0.00001082
     The core correction contribution to forces
     atom    1 type  1   force =    -0.00350295    0.00606747   -0.00000168
     atom    2 type  1   force =     0.00700622   -0.00000012   -0.00000169
     atom    3 type  1   force =    -0.00350342   -0.00606794   -0.00000136
     atom    4 type  2   force =    -0.00179521    0.00310730    0.00000369
     atom    5 type  2   force =     0.00359631    0.00000045    0.00000092
     atom    6 type  2   force =    -0.00179638   -0.00311231    0.00000324
     atom    7 type  3   force =     0.00000000    0.00000000    0.00000000
     atom    8 type  3   force =     0.00000000    0.00000000    0.00000000
     atom    9 type  3   force =     0.00000000    0.00000000    0.00000000
     The Hubbard contrib.    to forces
     atom    1 type  1   force =     0.00000000    0.00000000    0.00000000
     atom    2 type  1   force =     0.00000000    0.00000000    0.00000000
     atom    3 type  1   force =     0.00000000    0.00000000    0.00000000
     atom    4 type  2   force =     0.00000000    0.00000000    0.00000000
     atom    5 type  2   force =     0.00000000    0.00000000    0.00000000
     atom    6 type  2   force =     0.00000000    0.00000000    0.00000000
     atom    7 type  3   force =     0.00000000    0.00000000    0.00000000
     atom    8 type  3   force =     0.00000000    0.00000000    0.00000000
     atom    9 type  3   force =     0.00000000    0.00000000    0.00000000
     The SCF correction term to forces
     atom    1 type  1   force =     0.00006039   -0.00002678    0.00001364
     atom    2 type  1   force =     0.00000598   -0.00004833    0.00001363
     atom    3 type  1   force =    -0.00003417    0.00008276    0.00001150
     atom    4 type  2   force =    -0.00001323    0.00009246   -0.00004106
     atom    5 type  2   force =     0.00011761   -0.00004010   -0.00004944
     atom    6 type  2   force =    -0.00012046   -0.00008308   -0.00003965
     atom    7 type  3   force =    -0.00012162    0.00003650   -0.00007732
     atom    8 type  3   force =     0.00002196    0.00002144   -0.00001118
     atom    9 type  3   force =     0.00004807   -0.00003119   -0.00001139

     Total force =     0.140027     Total SCF correction =     0.000305

     Computing stress (Cartesian axis) and pressure

     negative rho (up, down):  1.279E-01 0.000E+00
          total   stress  (Ry/bohr**3)                   (kbar)     P=     -236.05
  -0.00103370  -0.00000000   0.00000000         -152.06       -0.00        0.00
  -0.00000000  -0.00103370   0.00000000           -0.00     -152.06        0.00
   0.00000000  -0.00000000  -0.00274648            0.00       -0.00     -404.02

     kinetic stress (kbar)  27949.00      0.00      0.00
                                0.00  27949.00      0.00
                                0.00      0.00  27490.18

     local   stress (kbar)  -8284.22      0.02      0.00
                                0.02  -8284.20      0.00
                                0.00      0.00  -4895.34

     nonloc. stress (kbar)   7704.68      0.00      0.00
                                0.00   7704.68     -0.00
                                0.00      0.00   7561.80

     hartree stress (kbar)  12868.58     -0.01     -0.00
                               -0.01  12868.57     -0.00
                               -0.00     -0.00  11606.90

     exc-cor stress (kbar)   6598.37     -0.00     -0.00
                               -0.00   6598.37     -0.00
                               -0.00     -0.00   6593.18

     corecor stress (kbar) -12929.90     -0.00      0.00
                               -0.00 -12929.90     -0.00
                                0.00     -0.00 -12920.82

     ewald   stress (kbar) -34058.58     -0.01      0.00
                               -0.01 -34058.59     -0.00
                                0.00     -0.00 -35839.93

     hubbard stress (kbar)      0.00      0.00      0.00
                                0.00      0.00      0.00
                                0.00      0.00      0.00

     DFT-D   stress (kbar)      0.00      0.00      0.00
                                0.00      0.00      0.00
                                0.00      0.00      0.00

     XDM     stress (kbar)      0.00      0.00      0.00
                                0.00      0.00      0.00
                                0.00      0.00      0.00

     dft-nl  stress (kbar)      0.00      0.00      0.00
                                0.00      0.00      0.00
                                0.00      0.00      0.00

     TS-vdW  stress (kbar)      0.00      0.00      0.00
                                0.00      0.00      0.00
                                0.00      0.00      0.00

[...]

                                0.00      0.00      0.00

     Writing all to output data dir new_calculations/myprefix.save/

     General routines

     Parallel routines

   This run was terminated on:   3:47:53  20May2023

   JOB DONE.