     Program PWSCF v.7.0 starts on 20May2023 at 15:42:43

     Reading input from espresso_6407.pwi
Warning: card &CELL ignored
Warning: card / ignored

     Current dimensions of program PWSCF are:
     Max number of different atomic species (ntypx) = 10
     Max number of k-points (npk) =  40000
     Max angular momentum in pseudopotentials (lmaxx) =  4
     file Mg.pbe-n-kjpaw_psl.0.3.0.UPF: wavefunction(s)  3S renormalized

     gamma-point specific algorithms are used

     Subspace diagonalization in iterative solution of the eigenvalue problem:
     a serial algorithm will be used

     Using Slab Decomposition

     bravais-lattice index     =            0
     lattice parameter (alat)  =      14.5418  a.u.
     unit-cell volume          =    2137.3682 (a.u.)^3
     number of atoms/cell      =           14
     number of atomic types    =            4
     number of electrons       =       140.00
     number of Kohn-Sham states=           84
     kinetic-energy cutoff     =      30.0000  Ry
     charge density cutoff     =     240.0000  Ry
     scf convergence threshold =      1.0E-06
     mixing beta               =       0.7000
     number of iterations used =            8  plain     mixing
     Exchange-correlation=  SLA  PW   PBX  PBC
                           (   1   4   3   4   0   0   0)

     celldm(1)=  14.541769  celldm(2)=   0.000000  celldm(3)=   0.000000
     celldm(4)=   0.000000  celldm(5)=   0.000000  celldm(6)=   0.000000

     crystal axes: (cart. coord. in units of alat)
               a(1) = (   1.000000   0.000000   0.000000 )
               a(2) = (   0.500305   0.851414   0.000000 )
               a(3) = (   0.502077   0.291768   0.816370 )

     reciprocal axes: (cart. coord. in units 2 pi/alat)
               b(1) = (  1.000000 -0.587617 -0.404999 )
               b(2) = (  0.000000  1.174517 -0.419768 )
               b(3) = (  0.000000  0.000000  1.224935 )

     PseudoPot. # 1 for Lu read from file:
     /home/pragov/projects/rrg-bengioy-ad/pragov/crystal_structure_design/SSSP/Lu.GGA-PBE-paw-v1.0.UPF
     MD5 check sum: 9ceca61ee0c17e9380a83635bfffa61d
     Pseudo is Projector augmented-wave + core cor, Zval = 25.0
     Generated using ATOMPAW code
     Shape of augmentation charge: BESSEL
     Using radial grid of 1118 points,  8 beta functions with:
                l(1) =   0
                l(2) =   0
                l(3) =   1
                l(4) =   1
                l(5) =   2
                l(6) =   2
                l(7) =   3
                l(8) =   3
     Q(r) pseudized with 0 coefficients

     PseudoPot. # 2 for Mg read from file:
     /home/pragov/projects/rrg-bengioy-ad/pragov/crystal_structure_design/SSSP/Mg.pbe-n-kjpaw_psl.0.3.0.UPF
     MD5 check sum: 24ecedc7f3e3cbe212e682f4413594e4
     Pseudo is Projector augmented-wave + core cor, Zval =  2.0
     Generated using "atomic" code by A. Dal Corso  v.5.0.99 svn rev. 10869
     Shape of augmentation charge: PSQ
     Using radial grid of 1129 points,  4 beta functions with:
                l(1) =   0
                l(2) =   0
                l(3) =   1
                l(4) =   1
     Q(r) pseudized with 0 coefficients

     PseudoPot. # 3 for V  read from file:
     /home/pragov/projects/rrg-bengioy-ad/pragov/crystal_structure_design/SSSP/v_pbe_v1.4.uspp.F.UPF
     MD5 check sum: 22b79981416ebb76fdaf5b1b8640f6fb
     Pseudo is Ultrasoft + core correction, Zval = 13.0
     Generated by new atomic code, or converted to UPF format
     Using radial grid of  853 points,  6 beta functions with:
                l(1) =   0
                l(2) =   0
                l(3) =   1
                l(4) =   1
                l(5) =   2
                l(6) =   2
     Q(r) pseudized with  8 coefficients,  rinner =    1.100   1.100   1.100
                                                       1.100   1.100

     PseudoPot. # 4 for S  read from file:
     /home/pragov/projects/rrg-bengioy-ad/pragov/crystal_structure_design/SSSP/s_pbe_v1.4.uspp.F.UPF
     MD5 check sum: 88d86576ff6df21479756cfb9bdac1df
     Pseudo is Ultrasoft + core correction, Zval =  6.0
     Generated by new atomic code, or converted to UPF format
     Using radial grid of  907 points,  6 beta functions with:
                l(1) =   0
                l(2) =   0
                l(3) =   1
                l(4) =   1
                l(5) =   2
                l(6) =   2
     Q(r) pseudized with  8 coefficients,  rinner =    1.300   1.300   1.300
                                                       1.300   1.300

     atomic species   valence    mass     pseudopotential
        Lu            25.00   174.96680     Lu( 1.00)
        Mg             2.00    24.30500     Mg( 1.00)
        V             13.00    50.94150     V ( 1.00)
        S              6.00    32.06000     S ( 1.00)

     No symmetry found

                                    s                        frac. trans.

      isym =  1     identity

 cryst.   s( 1) = (     1          0          0      )
                  (     0          1          0      )
                  (     0          0          1      )

 cart.    s( 1) = (  1.0000000  0.0000000 -0.0000000 )
                  (  0.0000000  1.0000000  0.0000000 )
                  (  0.0000000  0.0000000  1.0000000 )

   Cartesian axes

     site n.     atom                  positions (alat units)
         1           Lu  tau(   1) = (   1.0012018   0.5716006   0.4081728  )
         2           Lu  tau(   2) = (   0.7501396   0.4257073   0.0000016  )
         3           Lu  tau(   3) = (   0.5011959   0.5715832   0.4081883  )
         4           Mg  tau(   4) = (   1.7520997   0.9994865   0.7145263  )
         5           Mg  tau(   5) = (   0.2502775   0.1437056   0.1018389  )
         6           V   tau(   6) = (   1.2513534   0.9972945   0.4081916  )
         7           S   tau(   7) = (   1.4818098   0.8622533   0.5980980  )
         8           S   tau(   8) = (   0.7516086   0.4143752   0.5934774  )
         9           S   tau(   9) = (   0.7506748   0.6988839   0.2085874  )
        10           S   tau(  10) = (   0.9804175   0.2805786   0.2185504  )
        11           S   tau(  11) = (   1.2516939   0.4443045   0.6077793  )
        12           S   tau(  12) = (   1.0219557   0.8625920   0.5978213  )
        13           S   tau(  13) = (   0.5205679   0.2809194   0.2182769  )
        14           S   tau(  14) = (   1.2507921   0.7288020   0.2228960  )

   Crystallographic axes

     site n.     atom                  positions (cryst. coord.)
         1           Lu  tau(   1) = (  0.5000100  0.5000170  0.4999850  )
         2           Lu  tau(   2) = (  0.4999860  0.5000000  0.0000020  )
         3           Lu  tau(   3) = (  0.0000080  0.4999900  0.5000040  )
         4           Mg  tau(   4) = (  0.8754020  0.8739790  0.8752480  )
         5           Mg  tau(   5) = (  0.1245890  0.1260360  0.1247460  )
         6           V   tau(   6) = (  0.5000090  0.9999940  0.5000080  )
         7           S   tau(   7) = (  0.7329060  0.7616690  0.7326310  )
         8           S   tau(   8) = (  0.2677570  0.2375680  0.7269710  )
         9           S   tau(   9) = (  0.2555210  0.7332930  0.2555060  )
        10           S   tau(  10) = (  0.7270320  0.2378040  0.2677100  )
        11           S   tau(  11) = (  0.7444630  0.2667170  0.7444900  )
        12           S   tau(  12) = (  0.2729650  0.7621830  0.7322920  )
        13           S   tau(  13) = (  0.2670930  0.2383190  0.2673750  )
        14           S   tau(  14) = (  0.7322630  0.7624260  0.2730330  )

     number of k points=     1  Methfessel-Paxton smearing, width (Ry)=  0.0010
                       cart. coord. in units 2pi/alat
        k(    1) = (   0.0000000   0.0000000   0.0000000), wk =   2.0000000

                       cryst. coord.
        k(    1) = (   0.0000000   0.0000000   0.0000000), wk =   2.0000000

     Check: negative core charge=   -0.000001

     Initial potential from superposition of free atoms

     starting charge     139.9853, renormalised to     140.0000

     negative rho (up, down):  1.285E-03 0.000E+00
     Starting wfcs are  146 randomized atomic wfcs
     Checking if some PAW data can be deallocated...

     Self-consistent Calculation

     iteration #  1     ecut=    30.00 Ry     beta= 0.70
     Davidson diagonalization with overlap

     ethr =  1.00E-02,  avg # of iterations =  3.0

     negative rho (up, down):  1.675E-03 0.000E+00

     total energy              =   -3646.13843025 Ry
     estimated scf accuracy    <       1.41136458 Ry

[...]

     total energy              =   -3646.77257285 Ry
     estimated scf accuracy    <       0.00000166 Ry

     iteration # 22     ecut=    30.00 Ry     beta= 0.70
     Davidson diagonalization with overlap

     ethr =  1.19E-09,  avg # of iterations =  2.0

[...]

     End of self-consistent calculation

          k = 0.0000 0.0000 0.0000 (  2968 PWs)   bands (ev):

   -57.2241 -48.1583 -48.1554 -48.1462 -31.1447 -31.1370 -30.7872 -18.9604
   -18.9030 -18.8991 -18.8543 -18.8335 -18.8276 -18.8266 -18.7967 -18.7919
    -5.2691  -4.2615  -4.1470  -4.1442  -4.1342  -4.0642  -4.0581  -3.9907
     2.2350   2.8816   2.9996   3.0031   3.1791   3.2720   3.2738   3.2750
     3.2962   3.3002   3.3065   3.3112   3.3124   3.3245   3.3263   3.3298
     3.3382   3.3418   3.3453   3.3467   3.3482   3.3514   3.3548   3.3565
     3.3609   3.3630   4.1563   4.1620   4.8834   4.8926   5.2041   5.2155
     5.2206   5.4025   5.4605   5.4655   5.4846   5.4904   5.6458   6.1301
     6.1452   6.2067   6.9572   6.9709   7.0315   7.7967   7.8039   7.8042
     9.4501   9.5772   9.5858   9.9567   9.9680  10.6251  11.1456  11.2501
    11.2649  11.2663  11.6283  11.8572

     occupation numbers
     1.0000   1.0000   1.0000   1.0000   1.0000   1.0000   1.0000   1.0000
     1.0000   1.0000   1.0000   1.0000   1.0000   1.0000   1.0000   1.0000
     1.0000   1.0000   1.0000   1.0000   1.0000   1.0000   1.0000   1.0000
     1.0000   1.0000   1.0000   1.0000   1.0000   1.0000   1.0000   1.0000
     1.0000   1.0000   1.0000   1.0000   1.0000   1.0000   1.0000   1.0000
     1.0000   1.0000   1.0000   1.0000   1.0000   1.0000   1.0000   1.0000
     1.0000   1.0000   1.0000   1.0000   1.0000   1.0000   1.0000   1.0000
     1.0000   1.0000   1.0000   1.0000   1.0000   1.0000   1.0000   1.0000
     1.0000   1.0000   1.0000   1.0000   1.0000   0.6175   0.1994   0.1831
    -0.0000  -0.0000  -0.0000  -0.0000  -0.0000  -0.0000  -0.0000  -0.0000
    -0.0000  -0.0000  -0.0000  -0.0000

     the Fermi energy is     7.7986 ev

!    total energy              =   -3646.77257264 Ry
     estimated scf accuracy    <       0.00000064 Ry
     smearing contrib. (-TS)   =      -0.00059496 Ry
     internal energy E=F+TS    =   -3646.77197768 Ry

     The total energy is F=E-TS. E is the sum of the following terms:
     one-electron contribution =   -1910.81303755 Ry
     hartree contribution      =     891.35098021 Ry
     xc contribution           =    -215.37188691 Ry
     ewald contribution        =    -876.88111791 Ry
     one-center paw contrib.   =   -1535.05691553 Ry
      -> PAW hartree energy AE =    1473.22256835 Ry
      -> PAW hartree energy PS =   -1267.71746040 Ry
      -> PAW xc energy AE      =   -1863.02675194 Ry
      -> PAW xc energy PS      =     122.46472846 Ry
      -> total E_H with PAW    =    1096.85608816 Ry
      -> total E_XC with PAW   =   -1955.93391039 Ry

     convergence has been achieved in  22 iterations

     negative rho (up, down):  1.484E-03 0.000E+00

     Forces acting on atoms (cartesian axes, Ry/au):

     atom    1 type  1   force =    -0.00003774    0.00000017    0.00000618
     atom    2 type  1   force =     0.00000024    0.00000887    0.00002132
     atom    3 type  1   force =     0.00004056   -0.00001721   -0.00002427
     atom    4 type  2   force =    -0.00028731    0.00526713   -0.00139211
     atom    5 type  2   force =     0.00028882   -0.00527855    0.00139798
     atom    6 type  3   force =     0.00001688    0.00001076    0.00000810
     atom    7 type  4   force =    -0.00674915    0.00946532   -0.00711196
     atom    8 type  4   force =    -0.00049241   -0.01217749   -0.00334841
     atom    9 type  4   force =     0.00081426   -0.00087698    0.00069875
     atom   10 type  4   force =    -0.00688268   -0.00882288    0.00643495
     atom   11 type  4   force =    -0.00080742    0.00087194   -0.00069561
     atom   12 type  4   force =     0.00686177    0.00882469   -0.00643862
     atom   13 type  4   force =     0.00674613   -0.00944717    0.00712085
     atom   14 type  4   force =     0.00048805    0.01217139    0.00332284
     The non-local contrib.  to forces
     atom    1 type  1   force =    -0.00001776   -0.00000128    0.00003348
     atom    2 type  1   force =     0.00000010    0.00000449    0.00000617
     atom    3 type  1   force =     0.00001881   -0.00000782   -0.00003013
     atom    4 type  2   force =    -0.00100364   -0.03631790    0.01562363
     atom    5 type  2   force =     0.00100156    0.03631547   -0.01561061
     atom    6 type  3   force =    -0.00003250   -0.00001011   -0.00000579
     atom    7 type  4   force =     0.00656274    0.02457960   -0.00329924
     atom    8 type  4   force =    -0.00070648   -0.01611282    0.01613154
     atom    9 type  4   force =     0.00159376    0.02344577   -0.00711426
     atom   10 type  4   force =     0.00662653   -0.02226000    0.00169318
     atom   11 type  4   force =    -0.00154765   -0.02347010    0.00712127
     atom   12 type  4   force =    -0.00661012    0.02231738   -0.00170853
     atom   13 type  4   force =    -0.00655156   -0.02456057    0.00331687
     atom   14 type  4   force =     0.00068128    0.01613700   -0.01616054
     The ionic contribution  to forces
     atom    1 type  1   force =    -0.00255547   -0.00093197   -0.00363991
     atom    2 type  1   force =    -0.00000687   -0.00062391    0.00032215
     atom    3 type  1   force =     0.00078530   -0.00078027    0.00328554
     atom    4 type  2   force =    -0.00691249   -0.17290950    0.07951547
     atom    5 type  2   force =     0.00683439    0.17284139   -0.07954215
     atom    6 type  3   force =     0.00063937    0.00135853    0.00010880
     atom    7 type  4   force =     9.91884783    8.30967068    3.15834602
     atom    8 type  4   force =     0.00477021   -2.40036856   13.08906572
     atom    9 type  4   force =     0.05727615   14.07199157   -5.04773935
     atom   10 type  4   force =     9.89640157   -8.24051928   -3.21411351
     atom   11 type  4   force =    -0.05717047  -14.07214330    5.04820162
     atom   12 type  4   force =    -9.89721853    8.24169340    3.21367373
     atom   13 type  4   force =    -9.91838216   -8.31074653   -3.15743211
     atom   14 type  4   force =    -0.00330883    2.40146776  -13.09005202
     The local contribution  to forces
     atom    1 type  1   force =     0.00256466    0.00094004    0.00360979
     atom    2 type  1   force =     0.00000745    0.00061826   -0.00032931
     atom    3 type  1   force =    -0.00081721    0.00078513   -0.00325009
     atom    4 type  2   force =     0.00750939    0.20990110   -0.09456679
     atom    5 type  2   force =    -0.00742481   -0.20984225    0.09458735
     atom    6 type  3   force =    -0.00059336   -0.00134309   -0.00009263
     atom    7 type  4   force =    -9.93164891   -8.32313574   -3.16225211
     atom    8 type  4   force =    -0.00455582    2.40326027  -13.10732251
     atom    9 type  4   force =    -0.05793452  -14.09471353    5.05498454
     atom   10 type  4   force =    -9.90941283    8.25250671    3.21888725
     atom   11 type  4   force =     0.05779744   14.09488488   -5.05545732
     atom   12 type  4   force =     9.91019625   -8.25373230   -3.21843750
     atom   13 type  4   force =     9.93116759    8.32420808    3.16132940
     atom   14 type  4   force =     0.00311593   -2.40439104   13.10831237
     The core correction contribution to forces
     atom    1 type  1   force =     0.00000000    0.00000000   -0.00000000
     atom    2 type  1   force =    -0.00000000    0.00000000   -0.00000000
     atom    3 type  1   force =    -0.00000000   -0.00000000    0.00000000
     atom    4 type  2   force =     0.00012217    0.00458951   -0.00196304
     atom    5 type  2   force =    -0.00012181   -0.00458942    0.00196159
     atom    6 type  3   force =    -0.00000102    0.00000038   -0.00000013
     atom    7 type  4   force =    -0.00052717   -0.00165352    0.00018540
     atom    8 type  4   force =     0.00004376    0.00107553   -0.00117322
     atom    9 type  4   force =    -0.00009485   -0.00162477    0.00050104
     atom   10 type  4   force =    -0.00052521    0.00151603   -0.00008833
     atom   11 type  4   force =     0.00009204    0.00162599   -0.00050140
     atom   12 type  4   force =     0.00052424   -0.00151945    0.00008927
     atom   13 type  4   force =     0.00052650    0.00165243   -0.00018665
     atom   14 type  4   force =    -0.00004250   -0.00107713    0.00117514
     The Hubbard contrib.    to forces
     atom    1 type  1   force =     0.00000000    0.00000000    0.00000000
     atom    2 type  1   force =     0.00000000    0.00000000    0.00000000
     atom    3 type  1   force =     0.00000000    0.00000000    0.00000000
     atom    4 type  2   force =     0.00000000    0.00000000    0.00000000
     atom    5 type  2   force =     0.00000000    0.00000000    0.00000000
     atom    6 type  3   force =     0.00000000    0.00000000    0.00000000
     atom    7 type  4   force =     0.00000000    0.00000000    0.00000000
     atom    8 type  4   force =     0.00000000    0.00000000    0.00000000
     atom    9 type  4   force =     0.00000000    0.00000000    0.00000000
     atom   10 type  4   force =     0.00000000    0.00000000    0.00000000
     atom   11 type  4   force =     0.00000000    0.00000000    0.00000000
     atom   12 type  4   force =     0.00000000    0.00000000    0.00000000
     atom   13 type  4   force =     0.00000000    0.00000000    0.00000000
     atom   14 type  4   force =     0.00000000    0.00000000    0.00000000
     The SCF correction term to forces
     atom    1 type  1   force =    -0.00002809   -0.00000682    0.00000254
     atom    2 type  1   force =     0.00000064    0.00000983    0.00002203
     atom    3 type  1   force =     0.00005474   -0.00001444   -0.00002986
     atom    4 type  2   force =    -0.00000167    0.00000372   -0.00000166
     atom    5 type  2   force =     0.00000057   -0.00000394    0.00000152
     atom    6 type  3   force =     0.00000547    0.00000486   -0.00000243
     atom    7 type  4   force =     0.00001743    0.00000409   -0.00009230
     atom    8 type  4   force =    -0.00004301   -0.00003211   -0.00005021
     atom    9 type  4   force =    -0.00002520    0.00002377    0.00006650
     atom   10 type  4   force =     0.00002834   -0.00006653    0.00005608
     atom   11 type  4   force =     0.00002229   -0.00002573   -0.00006005
     atom   12 type  4   force =    -0.00002898    0.00006547   -0.00005587
     atom   13 type  4   force =    -0.00001315   -0.00000078    0.00009307
     atom   14 type  4   force =     0.00004326    0.00003460    0.00004761

     Total force =     0.032968     Total SCF correction =     0.000247

     Computing stress (Cartesian axis) and pressure

     negative rho (up, down):  1.484E-03 0.000E+00
          total   stress  (Ry/bohr**3)                   (kbar)     P=       19.41
   0.00012840  -0.00000014  -0.00001112           18.89       -0.02       -1.64
  -0.00000014   0.00014777   0.00000453           -0.02       21.74        0.67
  -0.00001112   0.00000453   0.00011966           -1.64        0.67       17.60

     kinetic stress (kbar)   8186.32     -0.31     -1.39
                               -0.31   8222.98    -11.66
                               -1.39    -11.66   8190.82

     local   stress (kbar) -17283.83    -15.03     60.14
                              -15.03  -6088.96  -4077.10
                               60.14  -4077.10 -15837.54

     nonloc. stress (kbar)   8703.73      0.52     -0.71
                                0.52   8716.52     -3.31
                               -0.71     -3.31   8705.77

     hartree stress (kbar)  22444.11      0.32    -21.49
                                0.32  17151.65   1914.08
                              -21.49   1914.08  21751.77

     exc-cor stress (kbar)  -1725.60      0.06     -0.07
                                0.06  -1724.94     -0.10
                               -0.07     -0.10  -1725.43

     corecor stress (kbar)  -2425.54      0.00      0.03
                                0.00  -2426.35      0.26
                                0.03      0.26  -2425.60

     ewald   stress (kbar) -17880.29     14.41    -38.15
                               14.41 -23829.16   2178.49
                              -38.15   2178.49 -18642.18

     hubbard stress (kbar)      0.00      0.00      0.00
                                0.00      0.00      0.00
                                0.00      0.00      0.00

     DFT-D   stress (kbar)      0.00      0.00      0.00
                                0.00      0.00      0.00
                                0.00      0.00      0.00

     XDM     stress (kbar)      0.00      0.00      0.00
                                0.00      0.00      0.00
                                0.00      0.00      0.00

     dft-nl  stress (kbar)      0.00      0.00      0.00
                                0.00      0.00      0.00
                                0.00      0.00      0.00

     TS-vdW  stress (kbar)      0.00      0.00      0.00
                                0.00      0.00      0.00
                                0.00      0.00      0.00

[...]

                                0.00      0.00      0.00

     Writing all to output data dir new_calculations/myprefix.save/

     General routines

     Parallel routines

     PAW routines

   This run was terminated on:  15:44:26  20May2023

   JOB DONE.