     Program PWSCF v.7.0 starts on 21May2023 at  3:58:50

     Reading input from espresso_4904.pwi
Warning: card &CELL ignored
Warning: card / ignored

     Current dimensions of program PWSCF are:
     Max number of different atomic species (ntypx) = 10
     Max number of k-points (npk) =  40000
     Max angular momentum in pseudopotentials (lmaxx) =  4
     file O.pbe-n-kjpaw_psl.0.1.UPF: wavefunction(s)  2P renormalized

     gamma-point specific algorithms are used
     Message from routine setup:
     using ibrav=0 with symmetry is DISCOURAGED, use correct ibrav instead

     Subspace diagonalization in iterative solution of the eigenvalue problem:
     a serial algorithm will be used

     Using Slab Decomposition

     bravais-lattice index     =            0
     lattice parameter (alat)  =      12.1960  a.u.
     unit-cell volume          =    1159.1379 (a.u.)^3
     number of atoms/cell      =           14
     number of atomic types    =            2
     number of electrons       =       188.00
     number of Kohn-Sham states=          113
     kinetic-energy cutoff     =      30.0000  Ry
     charge density cutoff     =     240.0000  Ry
     scf convergence threshold =      1.0E-06
     mixing beta               =       0.7000
     number of iterations used =            8  plain     mixing
     Exchange-correlation= SLA  PW   PBX  PBC
                           (   1   4   3   4   0   0   0)

     celldm(1)=  12.195999  celldm(2)=   0.000000  celldm(3)=   0.000000
     celldm(4)=   0.000000  celldm(5)=   0.000000  celldm(6)=   0.000000

     crystal axes: (cart. coord. in units of alat)
               a(1) = (   1.000000   0.000000   0.000000 )
               a(2) = (   0.161545   0.986865   0.000000 )
               a(3) = (  -0.580772  -0.493433   0.647478 )

     reciprocal axes: (cart. coord. in units 2 pi/alat)
               b(1) = (  1.000000 -0.163695  0.772227 )
               b(2) = (  0.000000  1.013309  0.772227 )
               b(3) = (  0.000000  0.000000  1.544454 )

     PseudoPot. # 1 for Cu read from file:
     /home/pragov/projects/rrg-bengioy-ad/pragov/crystal_structure_design/SSSP/Cu_pbe_v1.2.uspp.F.UPF
     MD5 check sum: 6e991ff952a84172a2a52a1c1e996048
     Pseudo is Ultrasoft + core correction, Zval = 19.0
     Generated by new atomic code, or converted to UPF format
     Using radial grid of  867 points,  6 beta functions with:
                l(1) =   0
                l(2) =   0
                l(3) =   1
                l(4) =   1
                l(5) =   2
                l(6) =   2
     Q(r) pseudized with  8 coefficients,  rinner =    1.150   1.150   1.150
                                                       1.150   1.150

     PseudoPot. # 2 for O  read from file:
     /home/pragov/projects/rrg-bengioy-ad/pragov/crystal_structure_design/SSSP/O.pbe-n-kjpaw_psl.0.1.UPF
     MD5 check sum: 0234752ac141de4415c5fc33072bef88
     Pseudo is Projector augmented-wave + core cor, Zval =  6.0
     Generated using "atomic" code by A. Dal Corso  v.5.0.99 svn rev. 10869
     Shape of augmentation charge: BESSEL
     Using radial grid of 1095 points,  4 beta functions with:
                l(1) =   0
                l(2) =   0
                l(3) =   1
                l(4) =   1
     Q(r) pseudized with 0 coefficients

     atomic species   valence    mass     pseudopotential
        Cu            19.00    63.54600     Cu( 1.00)
        O              6.00    15.99900     O ( 1.00)

      4 Sym. Ops., with inversion, found ( 2 have fractional translation)

                                    s                        frac. trans.

      isym =  1     identity

 cryst.   s( 1) = (     1          0          0      )
                  (     0          1          0      )
                  (     0          0          1      )

 cart.    s( 1) = (  1.0000000 -0.0000000 -0.0000000 )
                  (  0.0000000  1.0000000 -0.0000000 )
                  (  0.0000000  0.0000000  1.0000000 )

      isym =  2     180 deg rotation - cart. axis [0,0,1]

 cryst.   s( 2) = (    -1          0          0      )
                  (     0         -1          0      )
                  (     1          1          1      )

 cart.    s( 2) = ( -1.0000000  0.0000000 -0.0000000 )
                  (  0.0000000 -1.0000000 -0.0000000 )
                  (  0.0000000  0.0000000  1.0000000 )

      isym =  3     inversion

 cryst.   s( 3) = (    -1          0          0      )    f =(  0.2500000 )
                  (     0         -1          0      )       ( -0.2500000 )
                  (     0          0         -1      )       (  0.5000000 )

 cart.    s( 3) = ( -1.0000000  0.0000000  0.0000000 )    f =( -0.0807723 )
                  (  0.0000000 -1.0000000  0.0000000 )       ( -0.4934327 )
                  (  0.0000000  0.0000000 -1.0000000 )       (  0.3237390 )

      isym =  4     inv. 180 deg rotation - cart. axis [0,0,1]

 cryst.   s( 4) = (     1          0          0      )    f =(  0.2500000 )
                  (     0          1          0      )       ( -0.2500000 )
                  (    -1         -1         -1      )       (  0.5000000 )

 cart.    s( 4) = (  1.0000000 -0.0000000  0.0000000 )    f =( -0.0807723 )
                  (  0.0000000  1.0000000  0.0000000 )       ( -0.4934327 )
                  (  0.0000000  0.0000000 -1.0000000 )       (  0.3237390 )

   Cartesian axes

     site n.     atom                  positions (alat units)
         1           Cu  tau(   1) = (   0.3307723   0.4934327   0.1618695  )
         2           Cu  tau(   2) = (   0.8307723   0.4934327   0.1618695  )
         3           Cu  tau(   3) = (  -0.0403861  -0.2467164   0.4856085  )
         4           Cu  tau(   4) = (   0.0403861   0.2467164   0.4856085  )
         5           Cu  tau(   5) = (   0.2500000  -0.0000000   0.1618695  )
         6           Cu  tau(   6) = (   0.7500000  -0.0000000   0.1618695  )
         7           Cu  tau(   7) = (   0.5403861   0.2467164   0.4856085  )
         8           Cu  tau(   8) = (   0.4596139  -0.2467164   0.4856085  )
         9           O   tau(   9) = (   0.0807723   0.4934327   0.3237390  )
        10           O   tau(  10) = (   0.5807723   0.4934327   0.0000000  )
        11           O   tau(  11) = (   0.8862039   0.7529319   0.0000000  )
        12           O   tau(  12) = (   0.2246594  -0.2339335   0.3237390  )
        13           O   tau(  13) = (   0.7753406   0.2339335   0.3237390  )
        14           O   tau(  14) = (   0.2753406   0.2339335   0.0000000  )

   Crystallographic axes

     site n.     atom                  positions (cryst. coord.)
         1           Cu  tau(   1) = (  0.3750000  0.6250000  0.2500000  )
         2           Cu  tau(   2) = (  0.8750000  0.6250000  0.2500000  )
         3           Cu  tau(   3) = (  0.3750000  0.1250000  0.7500000  )
         4           Cu  tau(   4) = (  0.3750000  0.6250000  0.7500000  )
         5           Cu  tau(   5) = (  0.3750000  0.1250000  0.2500000  )
         6           Cu  tau(   6) = (  0.8750000  0.1250000  0.2500000  )
         7           Cu  tau(   7) = (  0.8750000  0.6250000  0.7500000  )
         8           Cu  tau(   8) = (  0.8750000  0.1250000  0.7500000  )
         9           O   tau(   9) = (  0.2500000  0.7500000  0.5000000  )
        10           O   tau(  10) = (  0.5000000  0.5000000  0.0000000  )
        11           O   tau(  11) = (  0.7629530  0.7629530  0.0000000  )
        12           O   tau(  12) = (  0.5129530  0.0129530  0.5000000  )
        13           O   tau(  13) = (  0.9870470  0.4870470  0.5000000  )
        14           O   tau(  14) = (  0.2370470  0.2370470  0.0000000  )

     number of k points=     1  Methfessel-Paxton smearing, width (Ry)=  0.0010
                       cart. coord. in units 2pi/alat
        k(    1) = (   0.0000000   0.0000000   0.0000000), wk =   2.0000000

                       cryst. coord.
        k(    1) = (   0.0000000   0.0000000   0.0000000), wk =   2.0000000

     Check: negative core charge=   -0.000012

     Initial potential from superposition of free atoms

     starting charge     180.0000, renormalised to     188.0000
     Starting wfcs are  128 randomized atomic wfcs
     Checking if some PAW data can be deallocated...

     Self-consistent Calculation

     iteration #  1     ecut=    30.00 Ry     beta= 0.70
     Davidson diagonalization with overlap

     ethr =  1.00E-02,  avg # of iterations =  4.0

     total energy              =   -3448.13857264 Ry
     estimated scf accuracy    <      37.82328924 Ry

[...]

     c_bands:  2 eigenvalues not converged
     ethr =  1.25E-06,  avg # of iterations = 20.0

[...]

     total energy              =   -3475.22822762 Ry
     estimated scf accuracy    <       0.00000783 Ry

     iteration # 38     ecut=    30.00 Ry     beta= 0.70
     Davidson diagonalization with overlap

     ethr =  1.67E-09,  avg # of iterations =  1.0

     End of self-consistent calculation

          k = 0.0000 0.0000 0.0000 (  1625 PWs)   bands (ev):

  -102.5662-102.4984-102.4464-102.3853-102.2879-102.2583-102.1490-101.7634
   -60.1546 -60.0548 -60.0182 -59.9783 -59.9443 -59.9359 -59.8616 -59.7989
   -59.7355 -59.7136 -59.6825 -59.6552 -59.6480 -59.6058 -59.5109 -59.4969
   -59.4705 -59.3785 -59.3125 -58.6470 -58.5759 -58.1389 -58.0354 -57.8745
   -10.6728 -10.1544  -9.8843  -9.1316  -8.8444  -8.7410   2.3136   3.2793
     3.3429   3.4581   3.4986   3.5412   4.4192   4.5607   4.6017   4.7322
     4.7839   4.8659   5.0656   5.8632   5.9849   6.0058   6.7722   6.8212
     6.8596   6.8675   6.8851   7.0860   7.2410   7.3572   7.3950   7.4498
     7.4693   7.6427   7.6600   7.7390   7.8068   7.8373   7.9143   7.9612
     8.0145   8.0501   8.0691   8.1294   8.1648   8.2602   8.3995   8.4652
     8.5008   8.5613   8.6112   8.7985   8.9129   8.9733   9.0608   9.1458
     9.6496   9.6842   9.8308   9.8894  10.3342  10.9977  11.0151  11.0372
    11.5572  11.6817  11.9472  13.2228  13.3667  15.6659  16.2458  16.3890
    16.4602  17.0715  17.2659  17.6164  18.2088  19.5515  19.7523  20.9118
    21.0164

     occupation numbers
     1.0000   1.0000   1.0000   1.0000   1.0000   1.0000   1.0000   1.0000
     1.0000   1.0000   1.0000   1.0000   1.0000   1.0000   1.0000   1.0000
     1.0000   1.0000   1.0000   1.0000   1.0000   1.0000   1.0000   1.0000
     1.0000   1.0000   1.0000   1.0000   1.0000   1.0000   1.0000   1.0000
     1.0000   1.0000   1.0000   1.0000   1.0000   1.0000   1.0000   1.0000
     1.0000   1.0000   1.0000   1.0000   1.0000   1.0000   1.0000   1.0000
     1.0000   1.0000   1.0000   1.0000   1.0000   1.0000   1.0000   1.0000
     1.0000   1.0000   1.0000   1.0000   1.0000   1.0000   1.0000   1.0000
     1.0000   1.0000   1.0000   1.0000   1.0000   1.0000   1.0000   1.0000
     1.0000   1.0000   1.0000   1.0000   1.0000   1.0000   1.0000   1.0000
     1.0000   1.0000   1.0000   1.0000   1.0000   1.0000   1.0000   1.0000
     1.0000   1.0000   1.0000   1.0000   1.0000   0.9379   0.0652  -0.0031
    -0.0000  -0.0000  -0.0000  -0.0000  -0.0000  -0.0000  -0.0000  -0.0000
    -0.0000  -0.0000  -0.0000  -0.0000  -0.0000  -0.0000  -0.0000  -0.0000
    -0.0000

     the Fermi energy is    11.0065 ev

!    total energy              =   -3475.22822738 Ry
     estimated scf accuracy    <       0.00000041 Ry
     smearing contrib. (-TS)   =      -0.00005420 Ry
     internal energy E=F+TS    =   -3475.22817318 Ry

     The total energy is F=E-TS. E is the sum of the following terms:
     one-electron contribution =   -2658.91952639 Ry
     hartree contribution      =    1418.75916378 Ry
     xc contribution           =    -354.30179203 Ry
     ewald contribution        =   -1823.59123259 Ry
     one-center paw contrib.   =     -57.17478595 Ry
      -> PAW hartree energy AE =     169.59180808 Ry
      -> PAW hartree energy PS =    -169.03769859 Ry
      -> PAW xc energy AE      =    -101.68504629 Ry
      -> PAW xc energy PS      =      43.95615085 Ry
      -> total E_H with PAW    =    1419.31327326 Ry
      -> total E_XC with PAW   =    -412.03068747 Ry

     convergence has been achieved in  38 iterations

     Forces acting on atoms (cartesian axes, Ry/au):

     atom    1 type  1   force =     0.00000000    0.00000000    0.00000000
     atom    2 type  1   force =     0.00000000    0.00000000    0.00000000
     atom    3 type  1   force =     0.00000000    0.00000000   -0.00000000
     atom    4 type  1   force =     0.00000000    0.00000000   -0.00000000
     atom    5 type  1   force =     0.00000000    0.00000000    0.00000000
     atom    6 type  1   force =     0.00000000    0.00000000    0.00000000
     atom    7 type  1   force =     0.00000000    0.00000000    0.00000000
     atom    8 type  1   force =     0.00000000    0.00000000    0.00000000
     atom    9 type  2   force =     0.00000000    0.00000000    0.00100599
     atom   10 type  2   force =     0.00000000    0.00000000   -0.00100599
     atom   11 type  2   force =     0.03218387    0.02624322    0.01025833
     atom   12 type  2   force =     0.03218387    0.02624322   -0.01025833
     atom   13 type  2   force =    -0.03218387   -0.02624322   -0.01025833
     atom   14 type  2   force =    -0.03218387   -0.02624322    0.01025833
     The non-local contrib.  to forces
     atom    1 type  1   force =     0.00000000    0.00000000    0.00000000
     atom    2 type  1   force =     0.00000000    0.00000000    0.00000000
     atom    3 type  1   force =     0.00000000    0.00000000   -0.00000000
     atom    4 type  1   force =     0.00000000    0.00000000    0.00000000
     atom    5 type  1   force =     0.00000000    0.00000000    0.00000000
     atom    6 type  1   force =     0.00000000    0.00000000   -0.00000000
     atom    7 type  1   force =     0.00000000    0.00000000   -0.00000000
     atom    8 type  1   force =     0.00000000    0.00000000   -0.00000000
     atom    9 type  2   force =     0.00000000    0.00000000   -0.00909373
     atom   10 type  2   force =     0.00000000    0.00000000    0.00909373
     atom   11 type  2   force =     0.34179785    0.30022872   -0.01308476
     atom   12 type  2   force =     0.34179785    0.30022872    0.01308476
     atom   13 type  2   force =    -0.34179785   -0.30022872    0.01308476
     atom   14 type  2   force =    -0.34179785   -0.30022872   -0.01308476
     The ionic contribution  to forces
     atom    1 type  1   force =     0.00000000    0.00000000    0.00000000
     atom    2 type  1   force =     0.00000000    0.00000000    0.00000000
     atom    3 type  1   force =    -0.00000000   -0.00000000   -0.00000000
     atom    4 type  1   force =    -0.00000000    0.00000000    0.00000000
     atom    5 type  1   force =     0.00000000   -0.00000000   -0.00000000
     atom    6 type  1   force =    -0.00000000   -0.00000000   -0.00000000
     atom    7 type  1   force =     0.00000000    0.00000000   -0.00000000
     atom    8 type  1   force =    -0.00000000   -0.00000000   -0.00000000
     atom    9 type  2   force =     0.00000000   -0.00000000    0.00000000
     atom   10 type  2   force =    -0.00000000    0.00000001    0.00000000
     atom   11 type  2   force =    -0.36281251   -0.30825088    0.00000000
     atom   12 type  2   force =    -0.36281251   -0.30825087   -0.00000000
     atom   13 type  2   force =     0.36281250    0.30825088    0.00000000
     atom   14 type  2   force =     0.36281251    0.30825087    0.00000000
     The local contribution  to forces
     atom    1 type  1   force =    -0.06550325    0.10340725   -0.02841024
     atom    2 type  1   force =    -0.14078949    0.17428089    0.18409358
     atom    3 type  1   force =     0.10444022   -0.11320867   -0.12780620
     atom    4 type  1   force =     0.09934474   -0.14896417   -0.04084223
     atom    5 type  1   force =    -0.11434370    0.17915267    0.19165011
     atom    6 type  1   force =    -0.10550840    0.10523700   -0.00134921
     atom    7 type  1   force =     0.11138276   -0.15072912   -0.16031018
     atom    8 type  1   force =     0.09149248   -0.12985050   -0.02674883
     atom    9 type  2   force =    -0.08708307    0.04667379    0.01628524
     atom   10 type  2   force =     0.06146035   -0.05162745   -0.00346023
     atom   11 type  2   force =     0.00439699    0.09825136   -0.00262461
     atom   12 type  2   force =     0.08917337   -0.00178010   -0.06152713
     atom   13 type  2   force =    -0.04242381   -0.07541175    0.03566198
     atom   14 type  2   force =    -0.09193890    0.02269930    0.06973985
     The core correction contribution to forces
     atom    1 type  1   force =    -0.00010630    0.00007231   -0.00000015
     atom    2 type  1   force =    -0.00024029    0.00024607    0.00019447
     atom    3 type  1   force =     0.00011554   -0.00011028   -0.00013083
     atom    4 type  1   force =     0.00012528   -0.00010898    0.00002775
     atom    5 type  1   force =    -0.00018648    0.00028423    0.00018809
     atom    6 type  1   force =    -0.00008013    0.00012755    0.00000910
     atom    7 type  1   force =     0.00017840   -0.00015004   -0.00015469
     atom    8 type  1   force =     0.00015950   -0.00006735    0.00002263
     atom    9 type  2   force =    -0.00105999    0.00058676   -0.00012013
     atom   10 type  2   force =     0.00101332   -0.00054319    0.00000181
     atom   11 type  2   force =    -0.00410772   -0.00237409   -0.00029556
     atom   12 type  2   force =    -0.00306738   -0.00342369   -0.00098440
     atom   13 type  2   force =     0.00398086    0.00255170    0.00037656
     atom   14 type  2   force =     0.00356018    0.00377297    0.00080953
     The Hubbard contrib.    to forces
     atom    1 type  1   force =     0.00000000    0.00000000    0.00000000
     atom    2 type  1   force =     0.00000000    0.00000000    0.00000000
     atom    3 type  1   force =     0.00000000    0.00000000    0.00000000
     atom    4 type  1   force =     0.00000000    0.00000000    0.00000000
     atom    5 type  1   force =     0.00000000    0.00000000    0.00000000
     atom    6 type  1   force =     0.00000000    0.00000000    0.00000000
     atom    7 type  1   force =     0.00000000    0.00000000    0.00000000
     atom    8 type  1   force =     0.00000000    0.00000000    0.00000000
     atom    9 type  2   force =     0.00000000    0.00000000    0.00000000
     atom   10 type  2   force =     0.00000000    0.00000000    0.00000000
     atom   11 type  2   force =     0.00000000    0.00000000    0.00000000
     atom   12 type  2   force =     0.00000000    0.00000000    0.00000000
     atom   13 type  2   force =     0.00000000    0.00000000    0.00000000
     atom   14 type  2   force =     0.00000000    0.00000000    0.00000000
     The SCF correction term to forces
     atom    1 type  1   force =    -0.00016250   -0.00003345    0.00006429
     atom    2 type  1   force =     0.00016912    0.00002966    0.00008217
     atom    3 type  1   force =    -0.00006047   -0.00015552   -0.00007583
     atom    4 type  1   force =     0.00004857    0.00013370   -0.00007455
     atom    5 type  1   force =     0.00001707    0.00003625   -0.00002284
     atom    6 type  1   force =     0.00000251   -0.00004423   -0.00003455
     atom    7 type  1   force =    -0.00003657   -0.00000148    0.00002292
     atom    8 type  1   force =     0.00004572    0.00001173    0.00002859
     atom    9 type  2   force =     0.00034152    0.00012659    0.00028605
     atom   10 type  2   force =    -0.00034528   -0.00012388   -0.00028989
     atom   11 type  2   force =    -0.00001977    0.00025239   -0.00016307
     atom   12 type  2   force =    -0.00019133   -0.00025069    0.00019942
     atom   13 type  2   force =     0.00003714   -0.00023837    0.00016705
     atom   14 type  2   force =     0.00017456    0.00023983   -0.00020032

     Total force =     0.085563     Total SCF correction =     0.001007

     Computing stress (Cartesian axis) and pressure

          total   stress  (Ry/bohr**3)                   (kbar)     P=    -1133.68
  -0.00673699   0.00230452  -0.00000000         -991.04      339.01       -0.00
   0.00230452  -0.00715716  -0.00000000          339.01    -1052.85       -0.00
  -0.00000000  -0.00000000  -0.00922557           -0.00       -0.00    -1357.13

     kinetic stress (kbar)  37152.07    -76.40      0.00
                              -76.40  37233.25      0.00
                                0.00      0.00  37160.37

     local   stress (kbar) -31242.12  -5469.44    -27.57
                            -5469.44 -29416.97     26.22
                              -27.57     26.22 -24849.72

     nonloc. stress (kbar)  21856.47    543.98      0.00
                              543.98  21661.52      0.00
                                0.00      0.00  21317.73

     hartree stress (kbar)  61092.97   2165.85      1.60
                             2165.85  60359.24      9.95
                                1.60      9.95  58601.14

     exc-cor stress (kbar) -13608.19      5.68     -0.11
                                5.68 -13610.10      0.16
                               -0.11      0.16 -13614.80

     corecor stress (kbar)   -688.11      0.09     -0.04
                                0.09   -688.07      0.09
                               -0.04      0.09   -687.51

     ewald   stress (kbar) -75554.14   3169.24      0.00
                             3169.24 -76591.72      0.00
                                0.00      0.00 -79284.35

     hubbard stress (kbar)      0.00      0.00      0.00
                                0.00      0.00      0.00
                                0.00      0.00      0.00

     DFT-D   stress (kbar)      0.00      0.00      0.00
                                0.00      0.00      0.00
                                0.00      0.00      0.00

     XDM     stress (kbar)      0.00      0.00      0.00
                                0.00      0.00      0.00
                                0.00      0.00      0.00

     dft-nl  stress (kbar)      0.00      0.00      0.00
                                0.00      0.00      0.00
                                0.00      0.00      0.00

     TS-vdW  stress (kbar)      0.00      0.00      0.00
                                0.00      0.00      0.00
                                0.00      0.00      0.00

[...]

                                0.00      0.00      0.00

     Writing all to output data dir new_calculations/myprefix.save/

     General routines

     Parallel routines

     PAW routines

   This run was terminated on:   4: 0: 4  21May2023

   JOB DONE.