     Program PWSCF v.7.0 starts on 21May2023 at 18:20:27

     Reading input from espresso_6935.pwi
Warning: card &CELL ignored
Warning: card / ignored

     Current dimensions of program PWSCF are:
     Max number of different atomic species (ntypx) = 10
     Max number of k-points (npk) =  40000
     Max angular momentum in pseudopotentials (lmaxx) =  4

     gamma-point specific algorithms are used
     Message from routine setup:
     using ibrav=0 with symmetry is DISCOURAGED, use correct ibrav instead

     Subspace diagonalization in iterative solution of the eigenvalue problem:
     a serial algorithm will be used

     Using Slab Decomposition

     bravais-lattice index     =            0
     lattice parameter (alat)  =      17.0198  a.u.
     unit-cell volume          =    2852.3347 (a.u.)^3
     number of atoms/cell      =           19
     number of atomic types    =            3
     number of electrons       =       211.00
     number of Kohn-Sham states=          127
     kinetic-energy cutoff     =      30.0000  Ry
     charge density cutoff     =     240.0000  Ry
     scf convergence threshold =      1.0E-06
     mixing beta               =       0.7000
     number of iterations used =            8  plain     mixing
     Exchange-correlation=  SLA  PW   PBX  PBC
                           (   1   4   3   4   0   0   0)

     celldm(1)=  17.019826  celldm(2)=   0.000000  celldm(3)=   0.000000
     celldm(4)=   0.000000  celldm(5)=   0.000000  celldm(6)=   0.000000

     crystal axes: (cart. coord. in units of alat)
               a(1) = (   1.000000   0.000000   0.000000 )
               a(2) = (   0.906182   0.422887   0.000000 )
               a(3) = (   0.418586   0.092863   1.368078 )

     reciprocal axes: (cart. coord. in units 2 pi/alat)
               b(1) = (  1.000000 -2.142848 -0.160513 )
               b(2) = (  0.000000  2.364698 -0.160513 )
               b(3) = (  0.000000  0.000000  0.730953 )

     PseudoPot. # 1 for Cu read from file:
     /home/pragov/projects/rrg-bengioy-ad/pragov/crystal_structure_design/SSSP/Cu_pbe_v1.2.uspp.F.UPF
     MD5 check sum: 6e991ff952a84172a2a52a1c1e996048
     Pseudo is Ultrasoft + core correction, Zval = 19.0
     Generated by new atomic code, or converted to UPF format
     Using radial grid of  867 points,  6 beta functions with:
                l(1) =   0
                l(2) =   0
                l(3) =   1
                l(4) =   1
                l(5) =   2
                l(6) =   2
     Q(r) pseudized with  8 coefficients,  rinner =    1.150   1.150   1.150
                                                       1.150   1.150

     PseudoPot. # 2 for Bi read from file:
     /home/pragov/projects/rrg-bengioy-ad/pragov/crystal_structure_design/SSSP/Bi_pbe_v1.uspp.F.UPF
     MD5 check sum: cceb9f28ec65b6d7ff33140f5b0b1758
     Pseudo is Ultrasoft + core correction, Zval = 15.0
     Generated by new atomic code, or converted to UPF format
     Using radial grid of  899 points,  6 beta functions with:
                l(1) =   0
                l(2) =   0
                l(3) =   1
                l(4) =   1
                l(5) =   2
                l(6) =   2
     Q(r) pseudized with  6 coefficients,  rinner =    1.000   1.000   1.000
                                                       1.000   1.000

     PseudoPot. # 3 for S  read from file:
     /home/pragov/projects/rrg-bengioy-ad/pragov/crystal_structure_design/SSSP/s_pbe_v1.4.uspp.F.UPF
     MD5 check sum: 88d86576ff6df21479756cfb9bdac1df
     Pseudo is Ultrasoft + core correction, Zval =  6.0
     Generated by new atomic code, or converted to UPF format
     Using radial grid of  907 points,  6 beta functions with:
                l(1) =   0
                l(2) =   0
                l(3) =   1
                l(4) =   1
                l(5) =   2
                l(6) =   2
     Q(r) pseudized with  8 coefficients,  rinner =    1.300   1.300   1.300
                                                       1.300   1.300

     atomic species   valence    mass     pseudopotential
        Cu            19.00    63.54600     Cu( 1.00)
        Bi            15.00   208.98040     Bi( 1.00)
        S              6.00    32.06000     S ( 1.00)

      2 Sym. Ops., with inversion, found

                                    s                        frac. trans.

      isym =  1     identity

 cryst.   s( 1) = (     1          0          0      )
                  (     0          1          0      )
                  (     0          0          1      )

 cart.    s( 1) = (  1.0000000  0.0000000  0.0000000 )
                  (  0.0000000  1.0000000  0.0000000 )
                  (  0.0000000  0.0000000  1.0000000 )

      isym =  2     inversion

 cryst.   s( 2) = (    -1          0          0      )
                  (     0         -1          0      )
                  (     0          0         -1      )

 cart.    s( 2) = ( -1.0000000 -0.0000000 -0.0000000 )
                  (  0.0000000 -1.0000000 -0.0000000 )
                  (  0.0000000  0.0000000 -1.0000000 )

   Cartesian axes

     site n.     atom                  positions (alat units)
         1           Cu  tau(   1) = (   1.9375094   0.4298369   0.7018471  )
         2           Cu  tau(   2) = (   0.3872591   0.0859135   0.6662306  )
         3           Cu  tau(   3) = (   1.7553551   0.3894259   1.2931413  )
         4           Cu  tau(   4) = (   0.5694134   0.1263245   0.0749365  )
         5           Bi  tau(   5) = (   1.1090492   0.2460428   1.0605133  )
         6           Bi  tau(   6) = (   1.2157193   0.2697076   0.3075644  )
         7           Bi  tau(   7) = (   0.6551936   0.1453548   0.9061230  )
         8           Bi  tau(   8) = (   1.6695749   0.3703956   0.4619547  )
         9           Bi  tau(   9) = (   0.0000000   0.0000000   0.0000000  )
        10           S   tau(  10) = (   2.1289702   0.4723125   0.8665569  )
        11           S   tau(  11) = (   0.1957983   0.0434379   0.5015209  )
        12           S   tau(  12) = (   2.0204493   0.4482371   1.3293735  )
        13           S   tau(  13) = (   0.3043192   0.0675133   0.0387043  )
        14           S   tau(  14) = (   0.8512282   0.1888452   0.6886479  )
        15           S   tau(  15) = (   1.4735403   0.3269052   0.6794298  )
        16           S   tau(  16) = (   1.7655842   0.3916953   1.0402535  )
        17           S   tau(  17) = (   0.5591843   0.1240552   0.3278243  )
        18           S   tau(  18) = (   1.3839223   0.3070235   1.1411602  )
        19           S   tau(  19) = (   0.9408462   0.2087269   0.2269176  )

   Crystallographic axes

     site n.     atom                  positions (cryst. coord.)
         1           Cu  tau(   1) = (  0.9037790  0.9037790  0.5130170  )
         2           Cu  tau(   2) = (  0.0962210  0.0962210  0.4869830  )
         3           Cu  tau(   3) = (  0.7133090  0.7133090  0.9452250  )
         4           Cu  tau(   4) = (  0.2866910  0.2866910  0.0547750  )
         5           Bi  tau(   5) = (  0.4115910  0.4115910  0.7751850  )
         6           Bi  tau(   6) = (  0.5884090  0.5884090  0.2248150  )
         7           Bi  tau(   7) = (  0.1982760  0.1982760  0.6623330  )
         8           Bi  tau(   8) = (  0.8017240  0.8017240  0.3376670  )
         9           Bi  tau(   9) = (  0.0000000  0.0000000  0.0000000  )
        10           S   tau(  10) = (  0.9777830  0.9777830  0.6334120  )
        11           S   tau(  11) = (  0.0222170  0.0222170  0.3665880  )
        12           S   tau(  12) = (  0.8465640  0.8465640  0.9717090  )
        13           S   tau(  13) = (  0.1534360  0.1534360  0.0282910  )
        14           S   tau(  14) = (  0.3360250  0.3360250  0.5033690  )
        15           S   tau(  15) = (  0.6639750  0.6639750  0.4966310  )
        16           S   tau(  16) = (  0.7592670  0.7592670  0.7603760  )
        17           S   tau(  17) = (  0.2407330  0.2407330  0.2396240  )
        18           S   tau(  18) = (  0.5428470  0.5428470  0.8341340  )
        19           S   tau(  19) = (  0.4571530  0.4571530  0.1658660  )

     number of k points=     1  Methfessel-Paxton smearing, width (Ry)=  0.0010
                       cart. coord. in units 2pi/alat
        k(    1) = (   0.0000000   0.0000000   0.0000000), wk =   2.0000000

                       cryst. coord.
        k(    1) = (   0.0000000   0.0000000   0.0000000), wk =   2.0000000

     Check: negative core charge=   -0.000004

     Initial potential from superposition of free atoms

     starting charge     201.9994, renormalised to     211.0000

     negative rho (up, down):  2.198E-01 0.000E+00
     Starting wfcs are  137 randomized atomic wfcs

     Self-consistent Calculation

     iteration #  1     ecut=    30.00 Ry     beta= 0.70
     Davidson diagonalization with overlap

     ethr =  1.00E-02,  avg # of iterations =  5.0

     negative rho (up, down):  2.059E-01 0.000E+00

     total energy              =   -2734.87110029 Ry
     estimated scf accuracy    <      57.55949449 Ry

[...]

     total energy              =   -2781.17153892 Ry
     estimated scf accuracy    <       0.00000376 Ry

     iteration # 28     ecut=    30.00 Ry     beta= 0.70
     Davidson diagonalization with overlap

     ethr =  8.48E-10,  avg # of iterations =  1.0

[...]

     End of self-consistent calculation

          k = 0.0000 0.0000 0.0000 (  3967 PWs)   bands (ev):

  -103.1825-103.1811-103.0999-103.0995 -60.6326 -60.6309 -60.6260 -60.6236
   -60.5867 -60.5863 -60.5129 -60.5122 -60.4673 -60.4631 -60.3752 -60.3750
   -14.9354 -14.9348 -14.8745 -14.8729 -14.8159 -14.8144 -14.8027 -14.8004
   -14.7991 -14.7987 -14.6890 -14.6888 -14.6309 -14.6306 -14.6095 -14.6091
   -14.5848 -14.5845 -14.5806 -14.5804 -14.4057 -14.3350 -14.2870 -14.2676
   -14.2568  -5.6857  -5.1866  -5.0899  -4.5554  -4.4716  -3.9141  -3.8660
    -3.7702  -3.6756  -3.1988  -1.7376  -1.6654  -0.9331  -0.6982  -0.2842
     3.8228   3.9685   4.0925   4.2107   4.2621   4.5251   4.5372   4.7560
     4.8139   4.8347   4.9873   5.1156   5.1708   5.1894   5.6293   5.6595
     5.8658   5.8859   5.9773   5.9826   6.0529   6.0993   6.1103   6.2867
     6.2959   6.4527   6.4602   6.6873   6.7149   6.8451   6.8640   7.0407
     7.1082   7.2052   7.2097   7.3802   7.4905   7.6063   7.7676   7.8388
     7.9284   7.9590   8.1935   8.2389   8.3619   8.3702   8.4901   8.5263
     8.7705   8.7742   9.7810  10.1180  10.2054  10.4703  10.5895  10.7345
    11.1234  11.4361  11.7241  11.7975  11.8295  11.8964  11.9163  12.1103
    12.3748  13.0113  13.0702  13.2680  13.3803  14.1934  14.5735

     occupation numbers
     1.0000   1.0000   1.0000   1.0000   1.0000   1.0000   1.0000   1.0000
     1.0000   1.0000   1.0000   1.0000   1.0000   1.0000   1.0000   1.0000
     1.0000   1.0000   1.0000   1.0000   1.0000   1.0000   1.0000   1.0000
     1.0000   1.0000   1.0000   1.0000   1.0000   1.0000   1.0000   1.0000
     1.0000   1.0000   1.0000   1.0000   1.0000   1.0000   1.0000   1.0000
     1.0000   1.0000   1.0000   1.0000   1.0000   1.0000   1.0000   1.0000
     1.0000   1.0000   1.0000   1.0000   1.0000   1.0000   1.0000   1.0000
     1.0000   1.0000   1.0000   1.0000   1.0000   1.0000   1.0000   1.0000
     1.0000   1.0000   1.0000   1.0000   1.0000   1.0000   1.0000   1.0000
     1.0000   1.0000   1.0000   1.0000   1.0000   1.0000   1.0000   1.0000
     1.0000   1.0000   1.0000   1.0000   1.0000   1.0000   1.0000   1.0000
     1.0000   1.0000   1.0000   1.0000   1.0000   1.0000   1.0000   1.0000
     1.0000   1.0000   1.0000   1.0000   1.0000   1.0000   1.0000   1.0000
     0.8459   0.6541  -0.0000  -0.0000  -0.0000  -0.0000  -0.0000  -0.0000
    -0.0000  -0.0000  -0.0000  -0.0000  -0.0000  -0.0000  -0.0000  -0.0000
    -0.0000  -0.0000  -0.0000  -0.0000  -0.0000  -0.0000  -0.0000

     the Fermi energy is     8.7767 ev

!    total energy              =   -2781.17153816 Ry
     estimated scf accuracy    <       0.00000091 Ry
     smearing contrib. (-TS)   =      -0.00038679 Ry
     internal energy E=F+TS    =   -2781.17115137 Ry

     The total energy is F=E-TS. E is the sum of the following terms:
     one-electron contribution =   -1970.70425558 Ry
     hartree contribution      =    1091.40324553 Ry
     xc contribution           =    -563.32638143 Ry
     ewald contribution        =   -1338.54375990 Ry

     convergence has been achieved in  28 iterations

     negative rho (up, down):  2.098E-01 0.000E+00

     Forces acting on atoms (cartesian axes, Ry/au):

     atom    1 type  1   force =     0.06395626    0.01414676   -0.01001680
     atom    2 type  1   force =    -0.06395626   -0.01414676    0.01001680
     atom    3 type  1   force =     0.03459250    0.00764901   -0.03595883
     atom    4 type  1   force =    -0.03459250   -0.00764901    0.03595883
     atom    5 type  2   force =     0.02004521    0.00444393   -0.00345152
     atom    6 type  2   force =    -0.02004521   -0.00444393    0.00345152
     atom    7 type  2   force =    -0.00509830   -0.00113561    0.00104530
     atom    8 type  2   force =     0.00509830    0.00113561   -0.00104530
     atom    9 type  2   force =     0.00000000    0.00000000    0.00000000
     atom   10 type  3   force =     0.00997351    0.00221156    0.02367834
     atom   11 type  3   force =    -0.00997351   -0.00221156   -0.02367834
     atom   12 type  3   force =     0.03919116    0.00869615   -0.02946734
     atom   13 type  3   force =    -0.03919116   -0.00869615    0.02946734
     atom   14 type  3   force =    -0.05484746   -0.01216976    0.01385393
     atom   15 type  3   force =     0.05484746    0.01216976   -0.01385393
     atom   16 type  3   force =    -0.01758447   -0.00390243   -0.00420510
     atom   17 type  3   force =     0.01758447    0.00390243    0.00420510
     atom   18 type  3   force =     0.00118414    0.00026264    0.00498318
     atom   19 type  3   force =    -0.00118414   -0.00026264   -0.00498318
     The non-local contrib.  to forces
     atom    1 type  1   force =    -0.60002282   -0.13316946   -0.01725008
     atom    2 type  1   force =     0.60002282    0.13316946    0.01725008
     atom    3 type  1   force =    -0.14260717   -0.03166895    0.49096078
     atom    4 type  1   force =     0.14260717    0.03166895   -0.49096078
     atom    5 type  2   force =     0.27430392    0.06084921   -0.07861546
     atom    6 type  2   force =    -0.27430392   -0.06084921    0.07861546
     atom    7 type  2   force =     0.31592290    0.07007998   -0.05846164
     atom    8 type  2   force =    -0.31592290   -0.07007998    0.05846164
     atom    9 type  2   force =     0.00000000    0.00000000    0.00000000
     atom   10 type  3   force =    -0.00819164   -0.00182121   -0.08330158
     atom   11 type  3   force =     0.00819164    0.00182121    0.08330158
     atom   12 type  3   force =    -0.09724706   -0.02157530    0.06685507
     atom   13 type  3   force =     0.09724706    0.02157530   -0.06685507
     atom   14 type  3   force =     0.03351191    0.00744880    0.01813970
     atom   15 type  3   force =    -0.03351191   -0.00744880   -0.01813970
     atom   16 type  3   force =    -0.02456829   -0.00545088    0.08133399
     atom   17 type  3   force =     0.02456829    0.00545088   -0.08133399
     atom   18 type  3   force =    -0.04031697   -0.00893755   -0.01650579
     atom   19 type  3   force =     0.04031697    0.00893755    0.01650579
     The ionic contribution  to forces
     atom    1 type  1   force =    -5.87809226   -1.30405608   -1.80166677
     atom    2 type  1   force =     5.87809226    1.30405608    1.80166677
     atom    3 type  1   force =   -19.99759469   -4.43647084  -14.51983120
     atom    4 type  1   force =    19.99759469    4.43647084   14.51983120
     atom    5 type  2   force =     6.94994216    1.54184622   -2.10951561
     atom    6 type  2   force =    -6.94994216   -1.54184622    2.10951561
     atom    7 type  2   force =    -6.22247703   -1.38045792    7.26516339
     atom    8 type  2   force =     6.22247703    1.38045792   -7.26516339
     atom    9 type  2   force =    -0.00000000   -0.00000000    0.00000000
     atom   10 type  3   force =     3.96440053    0.87950314    8.36414940
     atom   11 type  3   force =    -3.96440053   -0.87950314   -8.36414940
     atom   12 type  3   force =    11.88715174    2.63716726   -3.83594511
     atom   13 type  3   force =   -11.88715174   -2.63716726    3.83594511
     atom   14 type  3   force =    -4.83927426   -1.07359407   -2.37524836
     atom   15 type  3   force =     4.83927426    1.07359407    2.37524836
     atom   16 type  3   force =    -1.11639625   -0.24767276   -6.05212560
     atom   17 type  3   force =     1.11639625    0.24767276    6.05212560
     atom   18 type  3   force =     2.49153160    0.55274684   -2.56967268
     atom   19 type  3   force =    -2.49153160   -0.55274684    2.56967268
     The local contribution  to forces
     atom    1 type  1   force =     6.54183284    1.45136620    1.80876288
     atom    2 type  1   force =    -6.54197416   -1.45140804   -1.80869846
     atom    3 type  1   force =    20.17395700    4.47563995   13.99268188
     atom    4 type  1   force =   -20.17485216   -4.47583020  -13.99234124
     atom    5 type  2   force =    -7.19713001   -1.59667808    2.18081441
     atom    6 type  2   force =     7.19700111    1.59665052   -2.18131755
     atom    7 type  2   force =     5.91165013    1.31151074   -7.20660534
     atom    8 type  2   force =    -5.91141400   -1.31145782    7.20673759
     atom    9 type  2   force =     0.00042647    0.00009465    0.00011385
     atom   10 type  3   force =    -3.94632347   -0.87548961   -8.26308657
     atom   11 type  3   force =     3.94629787    0.87548450    8.26303566
     atom   12 type  3   force =   -11.75624971   -2.60812415    3.74338786
     atom   13 type  3   force =    11.75612129    2.60809356   -3.74332999
     atom   14 type  3   force =     4.75330454    1.05450276    2.37189462
     atom   15 type  3   force =    -4.75329943   -1.05450068   -2.37189149
     atom   16 type  3   force =     1.12243443    0.24901049    5.97060296
     atom   17 type  3   force =    -1.12255176   -0.24903655   -5.97059057
     atom   18 type  3   force =    -2.45187227   -0.54395635    2.58919351
     atom   19 type  3   force =     2.45206559    0.54399867   -2.58916766
     The core correction contribution to forces
     atom    1 type  1   force =     0.00091938    0.00020412   -0.00007782
     atom    2 type  1   force =    -0.00091935   -0.00020412    0.00007785
     atom    3 type  1   force =     0.00028777    0.00006392   -0.00055384
     atom    4 type  1   force =    -0.00028789   -0.00006394    0.00055398
     atom    5 type  2   force =    -0.00684967   -0.00151933    0.00186378
     atom    6 type  2   force =     0.00684868    0.00151922   -0.00186866
     atom    7 type  2   force =    -0.01032803   -0.00229100   -0.00032104
     atom    8 type  2   force =     0.01033052    0.00229156    0.00032263
     atom    9 type  2   force =     0.00000260    0.00000056    0.00000085
     atom   10 type  3   force =     0.00009695    0.00002173    0.00521621
     atom   11 type  3   force =    -0.00009630   -0.00002154   -0.00521465
     atom   12 type  3   force =     0.00569540    0.00126353   -0.00391917
     atom   13 type  3   force =    -0.00569573   -0.00126375    0.00392167
     atom   14 type  3   force =    -0.00215841   -0.00047975   -0.00098119
     atom   15 type  3   force =     0.00215694    0.00047938    0.00098048
     atom   16 type  3   force =     0.00088355    0.00019608   -0.00475751
     atom   17 type  3   force =    -0.00088475   -0.00019628    0.00475663
     atom   18 type  3   force =     0.00191149    0.00042361    0.00145796
     atom   19 type  3   force =    -0.00191157   -0.00042368   -0.00145802
     The Hubbard contrib.    to forces
     atom    1 type  1   force =     0.00000000    0.00000000    0.00000000
     atom    2 type  1   force =     0.00000000    0.00000000    0.00000000
     atom    3 type  1   force =     0.00000000    0.00000000    0.00000000
     atom    4 type  1   force =     0.00000000    0.00000000    0.00000000
     atom    5 type  2   force =     0.00000000    0.00000000    0.00000000
     atom    6 type  2   force =     0.00000000    0.00000000    0.00000000
     atom    7 type  2   force =     0.00000000    0.00000000    0.00000000
     atom    8 type  2   force =     0.00000000    0.00000000    0.00000000
     atom    9 type  2   force =     0.00000000    0.00000000    0.00000000
     atom   10 type  3   force =     0.00000000    0.00000000    0.00000000
     atom   11 type  3   force =     0.00000000    0.00000000    0.00000000
     atom   12 type  3   force =     0.00000000    0.00000000    0.00000000
     atom   13 type  3   force =     0.00000000    0.00000000    0.00000000
     atom   14 type  3   force =     0.00000000    0.00000000    0.00000000
     atom   15 type  3   force =     0.00000000    0.00000000    0.00000000
     atom   16 type  3   force =     0.00000000    0.00000000    0.00000000
     atom   17 type  3   force =     0.00000000    0.00000000    0.00000000
     atom   18 type  3   force =     0.00000000    0.00000000    0.00000000
     atom   19 type  3   force =     0.00000000    0.00000000    0.00000000
     The SCF correction term to forces
     atom    1 type  1   force =    -0.00066256   -0.00019636    0.00021139
     atom    2 type  1   force =     0.00084049    0.00024153   -0.00028304
     atom    3 type  1   force =     0.00060035    0.00009777    0.00073234
     atom    4 type  1   force =     0.00039645    0.00011818   -0.00117555
     atom    5 type  2   force =    -0.00022157   -0.00005386    0.00199443
     atom    6 type  2   force =     0.00035070    0.00008199   -0.00150026
     atom    7 type  2   force =     0.00013833    0.00002370    0.00127522
     atom    8 type  2   force =    -0.00036776   -0.00007495   -0.00139846
     atom    9 type  2   force =    -0.00043090   -0.00009558   -0.00010869
     atom   10 type  3   force =    -0.00000083   -0.00000033    0.00071251
     atom   11 type  3   force =     0.00004183    0.00000957   -0.00063991
     atom   12 type  3   force =    -0.00015872   -0.00003588    0.00018001
     atom   13 type  3   force =     0.00028844    0.00006532   -0.00018838
     atom   14 type  3   force =    -0.00024601   -0.00005067    0.00004034
     atom   15 type  3   force =     0.00021283    0.00004260   -0.00006040
     atom   16 type  3   force =     0.00005298    0.00001274    0.00073319
     atom   17 type  3   force =     0.00004734    0.00000972   -0.00076043
     atom   18 type  3   force =    -0.00007451   -0.00001517    0.00051001
     atom   19 type  3   force =    -0.00012832   -0.00002960   -0.00053615

     Total force =     0.168894     Total SCF correction =     0.004134

     Computing stress (Cartesian axis) and pressure

     negative rho (up, down):  2.098E-01 0.000E+00
          total   stress  (Ry/bohr**3)                   (kbar)     P=      -30.64
  -0.00057292  -0.00027350  -0.00001412          -84.28      -40.23       -2.08
  -0.00027350   0.00059923  -0.00000313          -40.23       88.15       -0.46
  -0.00001412  -0.00000313  -0.00065124           -2.08       -0.46      -95.80

     kinetic stress (kbar)  10857.84    -32.37     -1.58
                              -32.37  10996.52     -0.35
                               -1.58     -0.35  10868.54

     local   stress (kbar) -12179.29   1930.76  -1355.06
                             1930.76 -20453.78   -300.63
                            -1355.06   -300.63  -8800.20

     nonloc. stress (kbar)  13091.40     -9.35      7.93
                               -9.35  13131.41      1.76
                                7.93      1.76  13111.14

     hartree stress (kbar)  18030.24   -901.04    535.53
                             -901.04  21891.74    118.81
                              535.53    118.81  16365.58

     exc-cor stress (kbar)   8418.89      0.53      0.35
                                0.53   8416.61      0.08
                                0.35      0.08   8418.50

     corecor stress (kbar) -14405.75      1.35      0.00
                                1.35 -14411.54      0.00
                                0.00      0.00 -14406.31

     ewald   stress (kbar) -23897.62  -1030.13    810.76
                            -1030.13 -19482.81    179.87
                              810.76    179.87 -25653.04

     hubbard stress (kbar)      0.00      0.00      0.00
                                0.00      0.00      0.00
                                0.00      0.00      0.00

     DFT-D   stress (kbar)      0.00      0.00      0.00
                                0.00      0.00      0.00
                                0.00      0.00      0.00

     XDM     stress (kbar)      0.00      0.00      0.00
                                0.00      0.00      0.00
                                0.00      0.00      0.00

     dft-nl  stress (kbar)      0.00      0.00      0.00
                                0.00      0.00      0.00
                                0.00      0.00      0.00

     TS-vdW  stress (kbar)      0.00      0.00      0.00
                                0.00      0.00      0.00
                                0.00      0.00      0.00

[...]

                                0.00      0.00      0.00

     Writing all to output data dir new_calculations/myprefix.save/

     General routines

     Parallel routines

   This run was terminated on:  18:22:25  21May2023

   JOB DONE.