     Program PWSCF v.7.0 starts on 20May2023 at 17:57:38

     Reading input from espresso_3657.pwi
Warning: card &CELL ignored
Warning: card / ignored

     Current dimensions of program PWSCF are:
     Max number of different atomic species (ntypx) = 10
     Max number of k-points (npk) =  40000
     Max angular momentum in pseudopotentials (lmaxx) =  4
     file Ga.pbe-dn-kjpaw_psl.1.0.0.UPF: wavefunction(s)  4S renormalized

     gamma-point specific algorithms are used
     Message from routine setup:
     using ibrav=0 with symmetry is DISCOURAGED, use correct ibrav instead

     Subspace diagonalization in iterative solution of the eigenvalue problem:
     a serial algorithm will be used

     Using Slab Decomposition

     bravais-lattice index     =            0
     lattice parameter (alat)  =       8.0613  a.u.
     unit-cell volume          =     850.6461 (a.u.)^3
     number of atoms/cell      =            7
     number of atomic types    =            3
     number of electrons       =        98.00
     number of Kohn-Sham states=           59
     kinetic-energy cutoff     =      30.0000  Ry
     charge density cutoff     =     240.0000  Ry
     scf convergence threshold =      1.0E-06
     mixing beta               =       0.7000
     number of iterations used =            8  plain     mixing
     Exchange-correlation= SLA  PW   PBE  PBE
                           (   1   4   3   4   0   0   0)

     celldm(1)=   8.061309  celldm(2)=   0.000000  celldm(3)=   0.000000
     celldm(4)=   0.000000  celldm(5)=   0.000000  celldm(6)=   0.000000

     crystal axes: (cart. coord. in units of alat)
               a(1) = (   1.000000   0.000000   0.000000 )
               a(2) = (   0.000000   1.000000   0.000000 )
               a(3) = (   0.000000   0.000000   1.623799 )

     reciprocal axes: (cart. coord. in units 2 pi/alat)
               b(1) = (  1.000000  0.000000  0.000000 )
               b(2) = (  0.000000  1.000000  0.000000 )
               b(3) = (  0.000000  0.000000  0.615840 )

     PseudoPot. # 1 for Sm read from file:
     /home/pragov/projects/rrg-bengioy-ad/pragov/crystal_structure_design/SSSP/Sm.GGA-PBE-paw-v1.0.UPF
     MD5 check sum: 886f70968969f895acf876f5617e0641
     Pseudo is Projector augmented-wave + core cor, Zval = 16.0
     Generated using ATOMPAW code
     Shape of augmentation charge: BESSEL
     Using radial grid of 1107 points,  8 beta functions with:
                l(1) =   0
                l(2) =   0
                l(3) =   1
                l(4) =   1
                l(5) =   2
                l(6) =   2
                l(7) =   3
                l(8) =   3
     Q(r) pseudized with 0 coefficients

     PseudoPot. # 2 for Ga read from file:
     /home/pragov/projects/rrg-bengioy-ad/pragov/crystal_structure_design/SSSP/Ga.pbe-dn-kjpaw_psl.1.0.0.UPF
     MD5 check sum: a27b4342b1af7e5f338de752e9ed7044
     Pseudo is Projector augmented-wave + core cor, Zval = 13.0
     Generated using "atomic" code by A. Dal Corso  v.5.1
     Shape of augmentation charge: PSQ
     Using radial grid of 1205 points,  6 beta functions with:
                l(1) =   0
                l(2) =   0
                l(3) =   1
                l(4) =   1
                l(5) =   2
                l(6) =   2
     Q(r) pseudized with 0 coefficients

     PseudoPot. # 3 for Co read from file:
     /home/pragov/projects/rrg-bengioy-ad/pragov/crystal_structure_design/SSSP/Co_pbe_v1.2.uspp.F.UPF
     MD5 check sum: 5f91765df6ddd3222702df6e7b74a16d
     Pseudo is Ultrasoft + core correction, Zval = 17.0
     Generated by new atomic code, or converted to UPF format
     Using radial grid of  863 points,  6 beta functions with:
                l(1) =   0
                l(2) =   0
                l(3) =   1
                l(4) =   1
                l(5) =   2
                l(6) =   2
     Q(r) pseudized with  8 coefficients,  rinner =    1.200   1.200   1.200
                                                       1.200   1.200

     atomic species   valence    mass     pseudopotential
        Sm            16.00   150.36000     Sm( 1.00)
        Ga            13.00    69.72300     Ga( 1.00)
        Co            17.00    58.93319     Co( 1.00)

     16 Sym. Ops., with inversion, found

                                    s                        frac. trans.

      isym =  1     identity

 cryst.   s( 1) = (     1          0          0      )
                  (     0          1          0      )
                  (     0          0          1      )

 cart.    s( 1) = (  1.0000000  0.0000000  0.0000000 )
                  (  0.0000000  1.0000000  0.0000000 )
                  (  0.0000000  0.0000000  1.0000000 )

      isym =  2     180 deg rotation - cart. axis [0,0,1]

[...]

      isym =  8      90 deg rotation - cart. axis [0,0,1]

[...]

      isym =  9     inversion

 cryst.   s( 9) = (    -1          0          0      )
                  (     0         -1          0      )
                  (     0          0         -1      )

 cart.    s( 9) = ( -1.0000000  0.0000000  0.0000000 )
                  (  0.0000000 -1.0000000  0.0000000 )
                  (  0.0000000  0.0000000 -1.0000000 )

      isym = 10     inv. 180 deg rotation - cart. axis [0,0,1]

 cryst.   s(10) = (     1          0          0      )
                  (     0          1          0      )
                  (     0          0         -1      )

 cart.    s(10) = (  1.0000000  0.0000000  0.0000000 )
                  (  0.0000000  1.0000000  0.0000000 )
                  (  0.0000000  0.0000000 -1.0000000 )

[...]

      isym = 16     inv.  90 deg rotation - cart. axis [0,0,1]

 cryst.   s(16) = (     0         -1          0      )
                  (     1          0          0      )
                  (     0          0         -1      )

 cart.    s(16) = (  0.0000000  1.0000000  0.0000000 )
                  ( -1.0000000  0.0000000  0.0000000 )
                  (  0.0000000  0.0000000 -1.0000000 )

   Cartesian axes

     site n.     atom                  positions (alat units)
         1           Sm  tau(   1) = (   0.0000000   0.0000000   0.0000000  )
         2           Ga  tau(   2) = (   0.5000000   0.5000000   0.0000000  )
         3           Ga  tau(   3) = (   0.0000000   0.5000000   0.5097689  )
         4           Ga  tau(   4) = (   0.5000000   0.0000000   0.5097689  )
         5           Ga  tau(   5) = (   0.0000000   0.5000000   1.1140299  )
         6           Ga  tau(   6) = (   0.5000000   0.0000000   1.1140299  )
         7           Co  tau(   7) = (   0.0000000   0.0000000   0.8118994  )

   Crystallographic axes

     site n.     atom                  positions (cryst. coord.)
         1           Sm  tau(   1) = (  0.0000000  0.0000000  0.0000000  )
         2           Ga  tau(   2) = (  0.5000000  0.5000000  0.0000000  )
         3           Ga  tau(   3) = (  0.0000000  0.5000000  0.3139360  )
         4           Ga  tau(   4) = (  0.5000000  0.0000000  0.3139360  )
         5           Ga  tau(   5) = (  0.0000000  0.5000000  0.6860640  )
         6           Ga  tau(   6) = (  0.5000000  0.0000000  0.6860640  )
         7           Co  tau(   7) = (  0.0000000  0.0000000  0.5000000  )

     number of k points=     1  Methfessel-Paxton smearing, width (Ry)=  0.0010
                       cart. coord. in units 2pi/alat
        k(    1) = (   0.0000000   0.0000000   0.0000000), wk =   2.0000000

                       cryst. coord.
        k(    1) = (   0.0000000   0.0000000   0.0000000), wk =   2.0000000

     Check: negative core charge=   -0.000005

     Initial potential from superposition of free atoms

     starting charge      96.9796, renormalised to      98.0000
     Starting wfcs are   90 randomized atomic wfcs
     Checking if some PAW data can be deallocated...

     Self-consistent Calculation

     iteration #  1     ecut=    30.00 Ry     beta= 0.70
     Davidson diagonalization with overlap

     ethr =  1.00E-02,  avg # of iterations =  2.0

     total energy              =   -2289.47916799 Ry
     estimated scf accuracy    <       2.94376122 Ry

[...]

     total energy              =   -2291.53350331 Ry
     estimated scf accuracy    <       0.00000437 Ry

     iteration # 46     ecut=    30.00 Ry     beta= 0.70
     Davidson diagonalization with overlap

     ethr =  3.52E-09,  avg # of iterations =  1.0

     End of self-consistent calculation

          k = 0.0000 0.0000 0.0000 (  1166 PWs)   bands (ev):

   -83.4034 -46.6699 -46.6699 -46.6577 -26.4925  -6.4390  -6.3127  -6.3127
    -3.5906  -3.5700  -3.5700  -3.5502  -3.5280  -2.5346  -2.4500  -2.4015
    -2.3998  -2.3997  -2.3724  -2.3616  -2.3155  -2.3031  -2.3031  -2.2408
    -2.2408  -2.2306  -2.1731  -2.1731  -2.1618  -2.1605  -2.0648  -2.0594
    -2.0481   1.6803   5.0583   5.2505   7.0927   9.2878   9.2879   9.7172
    10.2402  10.2874  10.2874  10.6217  11.2004  12.7637  12.7637  12.7649
    13.0703  13.0708  13.0708  13.1650  13.1858  13.2645  13.2646  13.2677
    14.2017  14.9790  14.9790

     occupation numbers
     1.0000   1.0000   1.0000   1.0000   1.0000   1.0000   1.0000   1.0000
     1.0000   1.0000   1.0000   1.0000   1.0000   1.0000   1.0000   1.0000
     1.0000   1.0000   1.0000   1.0000   1.0000   1.0000   1.0000   1.0000
     1.0000   1.0000   1.0000   1.0000   1.0000   1.0000   1.0000   1.0000
     1.0000   1.0000   1.0000   1.0000   1.0000   1.0000   1.0000   1.0000
     1.0000   1.0000   1.0000   1.0000   1.0000   1.0000   1.0000   1.0000
     0.3515   0.3249   0.3236  -0.0000  -0.0000  -0.0000  -0.0000  -0.0000
    -0.0000  -0.0000  -0.0000

     the Fermi energy is    13.0679 ev

!    total energy              =   -2291.53350260 Ry
     estimated scf accuracy    <       0.00000059 Ry
     smearing contrib. (-TS)   =      -0.00074609 Ry
     internal energy E=F+TS    =   -2291.53275651 Ry

     The total energy is F=E-TS. E is the sum of the following terms:
     one-electron contribution =    -730.52429700 Ry
     hartree contribution      =     461.98946210 Ry
     xc contribution           =    -241.47496064 Ry
     ewald contribution        =    -777.22362743 Ry
     one-center paw contrib.   =   -1004.29933354 Ry
      -> PAW hartree energy AE =     841.37643452 Ry
      -> PAW hartree energy PS =    -827.29625118 Ry
      -> PAW xc energy AE      =   -1224.08322696 Ry
      -> PAW xc energy PS      =     205.70371008 Ry
      -> total E_H with PAW    =     476.06964544 Ry
      -> total E_XC with PAW   =   -1259.85447751 Ry

     convergence has been achieved in  46 iterations

     Forces acting on atoms (cartesian axes, Ry/au):

     atom    1 type  1   force =     0.00000000    0.00000000    0.00000000
     atom    2 type  2   force =     0.00000000    0.00000000    0.00000000
     atom    3 type  2   force =     0.00000000    0.00000000   -0.05249676
     atom    4 type  2   force =     0.00000000    0.00000000   -0.05249676
     atom    5 type  2   force =     0.00000000    0.00000000    0.05249676
     atom    6 type  2   force =     0.00000000    0.00000000    0.05249676
     atom    7 type  3   force =     0.00000000    0.00000000    0.00000000
     The non-local contrib.  to forces
     atom    1 type  1   force =     0.00000000    0.00000000    0.00000000
     atom    2 type  2   force =     0.00000000    0.00000000    0.00000000
     atom    3 type  2   force =     0.00000000    0.00000000    0.48155403
     atom    4 type  2   force =     0.00000000    0.00000000    0.48155403
     atom    5 type  2   force =     0.00000000    0.00000000   -0.48155403
     atom    6 type  2   force =     0.00000000    0.00000000   -0.48155403
     atom    7 type  3   force =     0.00000000    0.00000000    0.00000000
     The ionic contribution  to forces
     atom    1 type  1   force =    -0.00000000   -0.00000000   -0.00000000
     atom    2 type  2   force =    -0.00000000   -0.00000000   -0.00000000
     atom    3 type  2   force =    -0.00000000   -0.00000000  -12.58988489
     atom    4 type  2   force =    -0.00000000    0.00000000  -12.58988489
     atom    5 type  2   force =     0.00000000    0.00000000   12.58988489
     atom    6 type  2   force =     0.00000000   -0.00000000   12.58988489
     atom    7 type  3   force =     0.00000000    0.00000000   -0.00000000
     The local contribution  to forces
     atom    1 type  1   force =    -0.00107728    0.00104690    0.00021083
     atom    2 type  2   force =     0.00016202   -0.00015548    0.00001018
     atom    3 type  2   force =    -0.00048755    0.00030114   12.06174335
     atom    4 type  2   force =    -0.00031600    0.00043516   12.06190229
     atom    5 type  2   force =    -0.00047072    0.00030294  -12.06178485
     atom    6 type  2   force =    -0.00032640    0.00043899  -12.06194689
     atom    7 type  3   force =    -0.00000110   -0.00000228   -0.00010418
     The core correction contribution to forces
     atom    1 type  1   force =    -0.00000005    0.00000005    0.00000001
     atom    2 type  2   force =     0.00000053   -0.00000044   -0.00000041
     atom    3 type  2   force =    -0.00000911    0.00000750   -0.00540363
     atom    4 type  2   force =    -0.00000792    0.00000794   -0.00540257
     atom    5 type  2   force =    -0.00000877    0.00000760    0.00540340
     atom    6 type  2   force =    -0.00000799    0.00000816    0.00540226
     atom    7 type  3   force =     0.00000040   -0.00000037    0.00000006
     The Hubbard contrib.    to forces
     atom    1 type  1   force =     0.00000000    0.00000000    0.00000000
     atom    2 type  2   force =     0.00000000    0.00000000    0.00000000
     atom    3 type  2   force =     0.00000000    0.00000000    0.00000000
     atom    4 type  2   force =     0.00000000    0.00000000    0.00000000
     atom    5 type  2   force =     0.00000000    0.00000000    0.00000000
     atom    6 type  2   force =     0.00000000    0.00000000    0.00000000
     atom    7 type  3   force =     0.00000000    0.00000000    0.00000000
     The SCF correction term to forces
     atom    1 type  1   force =     0.00066306   -0.00065372   -0.00016556
     atom    2 type  2   force =    -0.00015586    0.00015075    0.00000168
     atom    3 type  2   force =     0.00039476   -0.00021751   -0.00050764
     atom    4 type  2   force =     0.00022919   -0.00034594   -0.00065131
     atom    5 type  2   force =     0.00037757   -0.00022306    0.00056210
     atom    6 type  2   force =     0.00025047   -0.00035906    0.00070808
     atom    7 type  3   force =    -0.00000674    0.00001626    0.00010521

     Total force =     0.104994     Total SCF correction =     0.001792

     Computing stress (Cartesian axis) and pressure

          total   stress  (Ry/bohr**3)                   (kbar)     P=       -2.96
   0.00049714   0.00000000   0.00000000           73.13        0.00        0.00
   0.00000000   0.00049714   0.00000000            0.00       73.13        0.00
   0.00000000   0.00000000  -0.00105464            0.00        0.00     -155.14

     kinetic stress (kbar)  15847.64      0.00      0.00
                                0.00  15847.64      0.00
                                0.00      0.00  15484.20

     local   stress (kbar)   4760.18     -0.14      0.01
                               -0.14   4759.05     -0.01
                                0.01     -0.01   2964.19

     nonloc. stress (kbar)   7817.10      0.00      0.00
                                0.00   7817.10      0.00
                                0.00      0.00   7780.86

     hartree stress (kbar)  26564.01     -0.05     -0.00
                               -0.05  26564.52      0.00
                               -0.00      0.00  26764.86

     exc-cor stress (kbar)   3421.61     -0.00     -0.00
                               -0.00   3421.62      0.00
                               -0.00      0.00   3420.01

     corecor stress (kbar) -12946.44      0.00     -0.00
                                0.00 -12946.45     -0.00
                               -0.00     -0.00 -12942.69

     ewald   stress (kbar) -45390.66      0.00      0.00
                                0.00 -45390.66      0.00
                                0.00      0.00 -43626.56

     hubbard stress (kbar)      0.00      0.00      0.00
                                0.00      0.00      0.00
                                0.00      0.00      0.00

     DFT-D   stress (kbar)      0.00      0.00      0.00
                                0.00      0.00      0.00
                                0.00      0.00      0.00

     XDM     stress (kbar)      0.00      0.00      0.00
                                0.00      0.00      0.00
                                0.00      0.00      0.00

     dft-nl  stress (kbar)      0.00      0.00      0.00
                                0.00      0.00      0.00
                                0.00      0.00      0.00

     TS-vdW  stress (kbar)      0.00      0.00      0.00
                                0.00      0.00      0.00
                                0.00      0.00      0.00

[...]

                                0.00      0.00      0.00

     Writing all to output data dir new_calculations/myprefix.save/

     General routines

     Parallel routines

     PAW routines

   This run was terminated on:  17:58:49  20May2023

   JOB DONE.