     Program PWSCF v.7.0 starts on 21May2023 at  5: 0:36

     Reading input from espresso_13946.pwi
Warning: card &CELL ignored
Warning: card / ignored

     Current dimensions of program PWSCF are:
     Max number of different atomic species (ntypx) = 10
     Max number of k-points (npk) =  40000
     Max angular momentum in pseudopotentials (lmaxx) =  4

     gamma-point specific algorithms are used
     Message from routine setup:
     using ibrav=0 with symmetry is DISCOURAGED, use correct ibrav instead

     Subspace diagonalization in iterative solution of the eigenvalue problem:
     a serial algorithm will be used

     Using Slab Decomposition

     bravais-lattice index     =            0
     lattice parameter (alat)  =      15.6522  a.u.
     unit-cell volume          =    2615.6833 (a.u.)^3
     number of atoms/cell      =           18
     number of atomic types    =            3
     number of electrons       =        94.00
     number of Kohn-Sham states=           56
     kinetic-energy cutoff     =      30.0000  Ry
     charge density cutoff     =     240.0000  Ry
     scf convergence threshold =      1.0E-06
     mixing beta               =       0.7000
     number of iterations used =            8  plain     mixing
     Exchange-correlation= PBE
                           (   1   4   3   4   0   0   0)

     celldm(1)=  15.652207  celldm(2)=   0.000000  celldm(3)=   0.000000
     celldm(4)=   0.000000  celldm(5)=   0.000000  celldm(6)=   0.000000

     crystal axes: (cart. coord. in units of alat)
               a(1) = (   1.000000   0.000000   0.000000 )
               a(2) = (   0.065433   0.997857   0.000000 )
               a(3) = (  -0.532717  -0.498928   0.683581 )

     reciprocal axes: (cart. coord. in units 2 pi/alat)
               b(1) = (  1.000000 -0.065574  0.731442 )
               b(2) = (  0.000000  1.002148  0.731442 )
               b(3) = (  0.000000  0.000000  1.462884 )

     PseudoPot. # 1 for Rb read from file:
     /home/pragov/projects/rrg-bengioy-ad/pragov/crystal_structure_design/SSSP/Rb_ONCV_PBE-1.0.oncvpsp.upf
     MD5 check sum: 55a5172d6bfbce6759a58e35d43f6aa9
     Pseudo is Norm-conserving, Zval =  9.0
     Generated using ONCVPSP code by D. R. Hamann
     Using radial grid of 2308 points,  6 beta functions with:
                l(1) =   0
                l(2) =   0
                l(3) =   1
                l(4) =   1
                l(5) =   2
                l(6) =   2

     PseudoPot. # 2 for Mn read from file:
     /home/pragov/projects/rrg-bengioy-ad/pragov/crystal_structure_design/SSSP/mn_pbe_v1.5.uspp.F.UPF
     MD5 check sum: 82ef2b46521d7a7d9e736dc3972e4928
     Pseudo is Ultrasoft + core correction, Zval = 15.0
     Generated by new atomic code, or converted to UPF format
     Using radial grid of  859 points,  6 beta functions with:
                l(1) =   0
                l(2) =   0
                l(3) =   1
                l(4) =   1
                l(5) =   2
                l(6) =   2
     Q(r) pseudized with  8 coefficients,  rinner =    0.950   0.950   0.950
                                                       0.950   0.950

     PseudoPot. # 3 for H  read from file:
     /home/pragov/projects/rrg-bengioy-ad/pragov/crystal_structure_design/SSSP/H.pbe-rrkjus_psl.1.0.0.UPF
     MD5 check sum: f52b6d4d1c606e5624b1dc7b2218f220
     Pseudo is Ultrasoft, Zval =  1.0
     Generated using "atomic" code by A. Dal Corso  v.5.1
     Using radial grid of  929 points,  2 beta functions with:
                l(1) =   0
                l(2) =   0
     Q(r) pseudized with 0 coefficients

     atomic species   valence    mass     pseudopotential
        Rb             9.00    85.46780     Rb( 1.00)
        Mn            15.00    54.93804     Mn( 1.00)
        H              1.00     1.00800     H ( 1.00)

      4 Sym. Ops., with inversion, found ( 2 have fractional translation)

                                    s                        frac. trans.

      isym =  1     identity

 cryst.   s( 1) = (     1          0          0      )
                  (     0          1          0      )
                  (     0          0          1      )

 cart.    s( 1) = (  1.0000000 -0.0000000  0.0000000 )
                  (  0.0000000  1.0000000  0.0000000 )
                  (  0.0000000  0.0000000  1.0000000 )

      isym =  2     180 deg rotation - cart. axis [0,0,1]

 cryst.   s( 2) = (    -1          0          0      )    f =(  0.5000000 )
                  (     0         -1          0      )       (  0.5000000 )
                  (     1          1          1      )       (  0.0000000 )

 cart.    s( 2) = ( -1.0000000  0.0000000 -0.0000000 )    f =(  0.5327166 )
                  (  0.0000000 -1.0000000 -0.0000000 )       (  0.4989285 )
                  (  0.0000000  0.0000000  1.0000000 )       (  0.0000000 )

      isym =  3     inversion

 cryst.   s( 3) = (    -1          0          0      )
                  (     0         -1          0      )
                  (     0          0         -1      )

 cart.    s( 3) = ( -1.0000000  0.0000000 -0.0000000 )
                  (  0.0000000 -1.0000000 -0.0000000 )
                  (  0.0000000  0.0000000 -1.0000000 )

      isym =  4     inv. 180 deg rotation - cart. axis [0,0,1]

 cryst.   s( 4) = (     1          0          0      )    f =( -0.5000000 )
                  (     0          1          0      )       (  0.5000000 )
                  (    -1         -1         -1      )       (  0.0000000 )

 cart.    s( 4) = (  1.0000000 -0.0000000  0.0000000 )    f =( -0.4672834 )
                  (  0.0000000  1.0000000  0.0000000 )       (  0.4989285 )
                  (  0.0000000  0.0000000 -1.0000000 )       (  0.0000000 )

   Cartesian axes

     site n.     atom                  positions (alat units)
         1           Rb  tau(   1) = (   0.2663583   0.2494642   0.0000000  )
         2           Rb  tau(   2) = (   0.7990749   0.7483927   0.0000000  )
         3           Rb  tau(   3) = (  -0.2336412   0.2494647   0.5967425  )
         4           Rb  tau(   4) = (   0.7663578   0.2494637   0.0868387  )
         5           Rb  tau(   5) = (   0.4733557   0.5623094   0.3417906  )
         6           Rb  tau(   6) = (   0.0593609  -0.0633809   0.3417906  )
         7           Mn  tau(   7) = (   0.0327166   0.4989285   0.3417906  )
         8           Mn  tau(   8) = (   0.5000000   0.0000000   0.3417906  )
         9           H   tau(   9) = (   0.1253214   0.5856597   0.5119908  )
        10           H   tau(  10) = (   0.1253214   0.5856597   0.1715905  )
        11           H   tau(  11) = (   0.7089504  -0.0374935   0.3417906  )
        12           H   tau(  12) = (   0.4762592   0.2109559   0.3417906  )
        13           H   tau(  13) = (   0.4073952  -0.0867312   0.1715905  )
        14           H   tau(  14) = (   0.4073952  -0.0867312   0.5119908  )
        15           H   tau(  15) = (  -0.1762338   0.5364220   0.3417906  )
        16           H   tau(  16) = (   0.0564574   0.2879725   0.3417906  )
        17           H   tau(  17) = (   0.5327166   0.4989285   0.0000000  )
        18           H   tau(  18) = (   0.0000000   0.0000000   0.0000000  )

   Crystallographic axes

     site n.     atom                  positions (cryst. coord.)
         1           Rb  tau(   1) = (  0.2500000  0.2500000  0.0000000  )
         2           Rb  tau(   2) = (  0.7500000  0.7500000  0.0000000  )
         3           Rb  tau(   3) = (  0.1864830  0.6864830  0.8729650  )
         4           Rb  tau(   4) = (  0.8135170  0.3135170  0.1270350  )
         5           Rb  tau(   5) = (  0.6864830  0.8135170  0.5000000  )
         6           Rb  tau(   6) = (  0.3135170  0.1864830  0.5000000  )
         7           Mn  tau(   7) = (  0.2500000  0.7500000  0.5000000  )
         8           Mn  tau(   8) = (  0.7500000  0.2500000  0.5000000  )
         9           H   tau(   9) = (  0.4614090  0.9614090  0.7489830  )
        10           H   tau(  10) = (  0.2124260  0.7124260  0.2510170  )
        11           H   tau(  11) = (  0.9614090  0.2124260  0.5000000  )
        12           H   tau(  12) = (  0.7124260  0.4614090  0.5000000  )
        13           H   tau(  13) = (  0.5385910  0.0385910  0.2510170  )
        14           H   tau(  14) = (  0.7875740  0.2875740  0.7489830  )
        15           H   tau(  15) = (  0.0385910  0.7875740  0.5000000  )
        16           H   tau(  16) = (  0.2875740  0.5385910  0.5000000  )
        17           H   tau(  17) = (  0.5000000  0.5000000  0.0000000  )
        18           H   tau(  18) = (  0.0000000  0.0000000  0.0000000  )

     number of k points=     1  Methfessel-Paxton smearing, width (Ry)=  0.0010
                       cart. coord. in units 2pi/alat
        k(    1) = (   0.0000000   0.0000000   0.0000000), wk =   2.0000000

                       cryst. coord.
        k(    1) = (   0.0000000   0.0000000   0.0000000), wk =   2.0000000

     Check: negative core charge=   -0.000007

     Initial potential from superposition of free atoms

     starting charge      92.8511, renormalised to      94.0000
     Starting wfcs are   66 randomized atomic wfcs

     Self-consistent Calculation

     iteration #  1     ecut=    30.00 Ry     beta= 0.70
     Davidson diagonalization with overlap

     ethr =  1.00E-02,  avg # of iterations =  3.0

     total energy              =    -726.91158218 Ry
     estimated scf accuracy    <       1.53583533 Ry

[...]

     total energy              =    -727.25183546 Ry
     estimated scf accuracy    <       0.00000149 Ry

     iteration # 29     ecut=    30.00 Ry     beta= 0.70
     Davidson diagonalization with overlap

     ethr =  1.59E-09,  avg # of iterations =  1.0

     End of self-consistent calculation

          k = 0.0000 0.0000 0.0000 (  3632 PWs)   bands (ev):

   -74.7896 -74.7892 -43.5567 -43.5530 -43.5233 -43.5232 -43.5224 -43.5223
   -23.6183 -23.5833 -23.5833 -23.5723 -23.5693 -23.5609  -7.9867  -7.9777
    -7.9288  -7.8770  -7.8770  -7.8593  -7.8593  -7.7206  -7.6497  -7.6497
    -7.6475  -7.5654  -7.5654  -7.5345  -7.5080  -7.4971  -7.4971  -7.4921
    -1.1356  -0.5283   0.7972   0.7972   0.8410   0.9036   0.9036   1.1041
     1.8093   2.7659   3.5613   3.6046   3.7159   3.7170   4.3148   4.3176
     4.3176   4.4356   4.6271   4.6271   6.2859   6.2859   6.2993   6.6035

     occupation numbers
     1.0000   1.0000   1.0000   1.0000   1.0000   1.0000   1.0000   1.0000
     1.0000   1.0000   1.0000   1.0000   1.0000   1.0000   1.0000   1.0000
     1.0000   1.0000   1.0000   1.0000   1.0000   1.0000   1.0000   1.0000
     1.0000   1.0000   1.0000   1.0000   1.0000   1.0000   1.0000   1.0000
     1.0000   1.0000   1.0000   1.0000   1.0000   1.0000   1.0000   1.0000
     1.0000   1.0000   1.0000   1.0000   1.0000   1.0000   0.4425   0.2796
     0.2779  -0.0000  -0.0000  -0.0000  -0.0000  -0.0000  -0.0000  -0.0000

     the Fermi energy is     4.3139 ev

!    total energy              =    -727.25183567 Ry
     estimated scf accuracy    <       0.00000045 Ry
     smearing contrib. (-TS)   =      -0.00072437 Ry
     internal energy E=F+TS    =    -727.25111130 Ry

     The total energy is F=E-TS. E is the sum of the following terms:
     one-electron contribution =    -498.18274468 Ry
     hartree contribution      =     264.45166606 Ry
     xc contribution           =    -104.46441311 Ry
     ewald contribution        =    -389.05561958 Ry

     convergence has been achieved in  29 iterations

     Forces acting on atoms (cartesian axes, Ry/au):

     atom    1 type  1   force =     0.00000000    0.00000000   -0.00000528
     atom    2 type  1   force =     0.00000000    0.00000000    0.00000528
     atom    3 type  1   force =     0.00000000    0.00000000   -0.00245866
     atom    4 type  1   force =     0.00000000    0.00000000    0.00245866
     atom    5 type  1   force =    -0.00167839    0.00179850    0.00000000
     atom    6 type  1   force =     0.00167839   -0.00179850   -0.00000000
     atom    7 type  2   force =     0.00010772   -0.00011449    0.00000000
     atom    8 type  2   force =    -0.00010772    0.00011449   -0.00000000
     atom    9 type  3   force =    -0.01273587   -0.01188716   -0.02740981
     atom   10 type  3   force =    -0.01273587   -0.01188716    0.02740981
     atom   11 type  3   force =    -0.03147980    0.00808422   -0.00000000
     atom   12 type  3   force =     0.00603463   -0.03188617   -0.00000000
     atom   13 type  3   force =     0.01273587    0.01188716    0.02740981
     atom   14 type  3   force =     0.01273587    0.01188716   -0.02740981
     atom   15 type  3   force =     0.03147980   -0.00808422    0.00000000
     atom   16 type  3   force =    -0.00603463    0.03188617    0.00000000
     atom   17 type  3   force =     0.00000000    0.00000000    0.00000000
     atom   18 type  3   force =     0.00000000    0.00000000    0.00000000
     The non-local contrib.  to forces
     atom    1 type  1   force =     0.00000000    0.00000000   -0.00000159
     atom    2 type  1   force =     0.00000000    0.00000000    0.00000159
     atom    3 type  1   force =     0.00000000    0.00000000   -0.00758955
     atom    4 type  1   force =     0.00000000    0.00000000    0.00758955
     atom    5 type  1   force =    -0.00521129    0.00551629   -0.00000000
     atom    6 type  1   force =     0.00521129   -0.00551629    0.00000000
     atom    7 type  2   force =    -0.00041277    0.00046026    0.00000000
     atom    8 type  2   force =     0.00041277   -0.00046026   -0.00000000
     atom    9 type  3   force =    -0.00615760   -0.00576570   -0.01318252
     atom   10 type  3   force =    -0.00615760   -0.00576570    0.01318252
     atom   11 type  3   force =    -0.01517077    0.00385519   -0.00000000
     atom   12 type  3   force =     0.00285445   -0.01538513   -0.00000000
     atom   13 type  3   force =     0.00615760    0.00576570    0.01318252
     atom   14 type  3   force =     0.00615760    0.00576570   -0.01318252
     atom   15 type  3   force =     0.01517077   -0.00385519    0.00000000
     atom   16 type  3   force =    -0.00285445    0.01538513    0.00000000
     atom   17 type  3   force =     0.00000000   -0.00000000    0.00000000
     atom   18 type  3   force =    -0.00000000    0.00000000   -0.00000000
     The ionic contribution  to forces
     atom    1 type  1   force =    -0.00001196    0.00001277   -0.00000000
     atom    2 type  1   force =     0.00001196   -0.00001277   -0.00000000
     atom    3 type  1   force =    -0.00002718   -0.00002546    1.44193764
     atom    4 type  1   force =     0.00002718    0.00002546   -1.44193764
     atom    5 type  1   force =     0.98564503   -1.05239431    0.00000000
     atom    6 type  1   force =    -0.98564503    1.05239431    0.00000000
     atom    7 type  2   force =     0.00002260    0.00002117   -0.00003306
     atom    8 type  2   force =    -0.00002260   -0.00002117    0.00003306
     atom    9 type  3   force =     0.86296191    0.80822759    1.71972973
     atom   10 type  3   force =     0.86296188    0.80822756   -1.71973419
     atom   11 type  3   force =     2.03853581   -0.44696401    0.00000225
     atom   12 type  3   force =    -0.31261815    2.06341343    0.00000225
     atom   13 type  3   force =    -0.86296191   -0.80822759   -1.71972973
     atom   14 type  3   force =    -0.86296188   -0.80822756    1.71973419
     atom   15 type  3   force =    -2.03853581    0.44696401   -0.00000225
     atom   16 type  3   force =     0.31261815   -2.06341343   -0.00000225
     atom   17 type  3   force =     0.00000000    0.00000000   -0.00000000
     atom   18 type  3   force =     0.00000000    0.00000000   -0.00000000
     The local contribution  to forces
     atom    1 type  1   force =     0.00000027    0.00000493   -0.00017982
     atom    2 type  1   force =    -0.00000924    0.00001378    0.00016436
     atom    3 type  1   force =     0.00001252    0.00002714   -1.43680155
     atom    4 type  1   force =    -0.00004464   -0.00002011    1.43679150
     atom    5 type  1   force =    -0.98192078    1.04882141    0.00001019
     atom    6 type  1   force =     0.98190432   -1.04883763    0.00000924
     atom    7 type  2   force =     0.00017399   -0.00021927    0.00005147
     atom    8 type  2   force =    -0.00021401    0.00035976    0.00011496
     atom    9 type  3   force =    -0.86953723   -0.81432317   -1.73393744
     atom   10 type  3   force =    -0.86955791   -0.81430950    1.73394033
     atom   11 type  3   force =    -2.05486134    0.45115906    0.00000173
     atom   12 type  3   force =     0.31582881   -2.07991599   -0.00001931
     atom   13 type  3   force =     0.86957396    0.81432566    1.73395783
     atom   14 type  3   force =     0.86958150    0.81430500   -1.73396307
     atom   15 type  3   force =     2.05480925   -0.45116252   -0.00001376
     atom   16 type  3   force =    -0.31581760    2.07988630    0.00001004
     atom   17 type  3   force =     0.00000291   -0.00000265    0.00000606
     atom   18 type  3   force =    -0.00000472    0.00000291   -0.00000689
     The core correction contribution to forces
     atom    1 type  1   force =     0.00000000    0.00000000    0.00000000
     atom    2 type  1   force =     0.00000000    0.00000000    0.00000000
     atom    3 type  1   force =     0.00000000    0.00000000    0.00000000
     atom    4 type  1   force =     0.00000000    0.00000000    0.00000000
     atom    5 type  1   force =     0.00000000    0.00000000    0.00000000
     atom    6 type  1   force =     0.00000000    0.00000000    0.00000000
     atom    7 type  2   force =     0.00003723   -0.00004222    0.00000259
     atom    8 type  2   force =    -0.00004851    0.00005285    0.00000759
     atom    9 type  3   force =     0.00000000    0.00000000    0.00000000
     atom   10 type  3   force =     0.00000000    0.00000000    0.00000000
     atom   11 type  3   force =     0.00000000    0.00000000    0.00000000
     atom   12 type  3   force =     0.00000000    0.00000000    0.00000000
     atom   13 type  3   force =     0.00000000    0.00000000    0.00000000
     atom   14 type  3   force =     0.00000000    0.00000000    0.00000000
     atom   15 type  3   force =     0.00000000    0.00000000    0.00000000
     atom   16 type  3   force =     0.00000000    0.00000000    0.00000000
     atom   17 type  3   force =     0.00000000    0.00000000    0.00000000
     atom   18 type  3   force =     0.00000000    0.00000000    0.00000000
     The Hubbard contrib.    to forces
     atom    1 type  1   force =     0.00000000    0.00000000    0.00000000
     atom    2 type  1   force =     0.00000000    0.00000000    0.00000000
     atom    3 type  1   force =     0.00000000    0.00000000    0.00000000
     atom    4 type  1   force =     0.00000000    0.00000000    0.00000000
     atom    5 type  1   force =     0.00000000    0.00000000    0.00000000
     atom    6 type  1   force =     0.00000000    0.00000000    0.00000000
     atom    7 type  2   force =     0.00000000    0.00000000    0.00000000
     atom    8 type  2   force =     0.00000000    0.00000000    0.00000000
     atom    9 type  3   force =     0.00000000    0.00000000    0.00000000
     atom   10 type  3   force =     0.00000000    0.00000000    0.00000000
     atom   11 type  3   force =     0.00000000    0.00000000    0.00000000
     atom   12 type  3   force =     0.00000000    0.00000000    0.00000000
     atom   13 type  3   force =     0.00000000    0.00000000    0.00000000
     atom   14 type  3   force =     0.00000000    0.00000000    0.00000000
     atom   15 type  3   force =     0.00000000    0.00000000    0.00000000
     atom   16 type  3   force =     0.00000000    0.00000000    0.00000000
     atom   17 type  3   force =     0.00000000    0.00000000    0.00000000
     atom   18 type  3   force =     0.00000000    0.00000000    0.00000000
     The SCF correction term to forces
     atom    1 type  1   force =     0.00001513   -0.00002044    0.00017509
     atom    2 type  1   force =    -0.00000140   -0.00000254   -0.00016170
     atom    3 type  1   force =     0.00001111   -0.00000836   -0.00000124
     atom    4 type  1   force =     0.00001243   -0.00001652    0.00001921
     atom    5 type  1   force =    -0.00018901   -0.00013759   -0.00001939
     atom    6 type  1   force =     0.00021013    0.00016840   -0.00001525
     atom    7 type  2   force =     0.00020355   -0.00026908    0.00002131
     atom    8 type  2   force =    -0.00031849    0.00024864   -0.00007781
     atom    9 type  3   force =     0.00000924   -0.00003523   -0.00002070
     atom   10 type  3   force =     0.00001290   -0.00003025    0.00002084
     atom   11 type  3   force =     0.00001120    0.00003300    0.00000626
     atom   12 type  3   force =    -0.00002976    0.00000048    0.00000382
     atom   13 type  3   force =    -0.00003685    0.00003266   -0.00000084
     atom   14 type  3   force =    -0.00003094    0.00003471    0.00000239
     atom   15 type  3   force =     0.00003028   -0.00003152    0.00000321
     atom   16 type  3   force =     0.00002000    0.00002713    0.00000455
     atom   17 type  3   force =    -0.00000272    0.00000252   -0.00000572
     atom   18 type  3   force =     0.00000414   -0.00000266    0.00000634

     Total force =     0.091991     Total SCF correction =     0.000695

     Computing stress (Cartesian axis) and pressure

          total   stress  (Ry/bohr**3)                   (kbar)     P=      -46.54
  -0.00031502   0.00000257  -0.00000000          -46.34        0.38       -0.00
   0.00000257  -0.00031604  -0.00000000            0.38      -46.49       -0.00
  -0.00000000  -0.00000000  -0.00031811           -0.00       -0.00      -46.80

     kinetic stress (kbar)   6720.57    -14.13      0.00
                              -14.13   6722.79      0.00
                                0.00      0.00   6735.85

     local   stress (kbar)  -4587.49   -809.59      0.22
                             -809.59  -4482.62     -0.17
                                0.22     -0.17  -3723.72

     nonloc. stress (kbar)   1659.40      0.65      0.00
                                0.65   1659.62      0.00
                                0.00      0.00   1658.86

     hartree stress (kbar)   5091.10    334.85     -0.06
                              334.85   5047.73      0.04
                               -0.06      0.04   4733.84

     exc-cor stress (kbar)  -1427.20      0.06     -0.00
                                0.06  -1427.20      0.00
                               -0.00      0.00  -1427.26

     corecor stress (kbar)   -404.50      0.02      0.00
                                0.02   -404.51     -0.00
                                0.00     -0.00   -404.52

     ewald   stress (kbar)  -7098.22    488.53     -0.00
                              488.53  -7162.29     -0.00
                               -0.00     -0.00  -7619.84

     hubbard stress (kbar)      0.00      0.00      0.00
                                0.00      0.00      0.00
                                0.00      0.00      0.00

     DFT-D   stress (kbar)      0.00      0.00      0.00
                                0.00      0.00      0.00
                                0.00      0.00      0.00

     XDM     stress (kbar)      0.00      0.00      0.00
                                0.00      0.00      0.00
                                0.00      0.00      0.00

     dft-nl  stress (kbar)      0.00      0.00      0.00
                                0.00      0.00      0.00
                                0.00      0.00      0.00

     TS-vdW  stress (kbar)      0.00      0.00      0.00
                                0.00      0.00      0.00
                                0.00      0.00      0.00

[...]

                                0.00      0.00      0.00

     Writing all to output data dir new_calculations/myprefix.save/

     General routines

     Parallel routines

   This run was terminated on:   5: 1:44  21May2023

   JOB DONE.