     Program PWSCF v.7.0 starts on 20May2023 at 21:54:17

     Reading input from espresso_5707.pwi
Warning: card &CELL ignored
Warning: card / ignored

     Current dimensions of program PWSCF are:
     Max number of different atomic species (ntypx) = 10
     Max number of k-points (npk) =  40000
     Max angular momentum in pseudopotentials (lmaxx) =  4
     file Al.pbe-n-kjpaw_psl.1.0.0.UPF: wavefunction(s)  3S 3P renormalized

     gamma-point specific algorithms are used
     Message from routine setup:
     using ibrav=0 with symmetry is DISCOURAGED, use correct ibrav instead

     Subspace diagonalization in iterative solution of the eigenvalue problem:
     a serial algorithm will be used

     Using Slab Decomposition

     bravais-lattice index     =            0
     lattice parameter (alat)  =       9.3779  a.u.
     unit-cell volume          =     592.6807 (a.u.)^3
     number of atoms/cell      =            6
     number of atomic types    =            3
     number of electrons       =        88.00
     number of Kohn-Sham states=           53
     kinetic-energy cutoff     =      30.0000  Ry
     charge density cutoff     =     240.0000  Ry
     scf convergence threshold =      1.0E-06
     mixing beta               =       0.7000
     number of iterations used =            8  plain     mixing
     Exchange-correlation=  SLA  PW   PBX  PBC
                           (   1   4   3   4   0   0   0)

     celldm(1)=   9.377929  celldm(2)=   0.000000  celldm(3)=   0.000000
     celldm(4)=   0.000000  celldm(5)=   0.000000  celldm(6)=   0.000000

     crystal axes: (cart. coord. in units of alat)
               a(1) = (   1.000000   0.000000   0.000000 )
               a(2) = (  -0.466445   0.884550   0.000000 )
               a(3) = (   0.000000   0.000000   0.812414 )

     reciprocal axes: (cart. coord. in units 2 pi/alat)
               b(1) = (  1.000000  0.527325  0.000000 )
               b(2) = (  0.000000  1.130518  0.000000 )
               b(3) = (  0.000000  0.000000  1.230899 )

     PseudoPot. # 1 for Pr read from file:
     /home/pragov/projects/rrg-bengioy-ad/pragov/crystal_structure_design/SSSP/Pr.GGA-PBE-paw-v1.0.UPF
     MD5 check sum: b5e1e58e76df433569641143f671cc27
     Pseudo is Projector augmented-wave + core cor, Zval = 13.0
     Generated using ATOMPAW code
     Shape of augmentation charge: BESSEL
     Using radial grid of 1103 points,  8 beta functions with:
                l(1) =   0
                l(2) =   0
                l(3) =   1
                l(4) =   1
                l(5) =   2
                l(6) =   2
                l(7) =   3
                l(8) =   3
     Q(r) pseudized with 0 coefficients

     PseudoPot. # 2 for Al read from file:
     /home/pragov/projects/rrg-bengioy-ad/pragov/crystal_structure_design/SSSP/Al.pbe-n-kjpaw_psl.1.0.0.UPF
     MD5 check sum: cfc449ca30b5f3223ec38ddd88ac046d
     Pseudo is Projector augmented-wave + core cor, Zval =  3.0
     Generated using "atomic" code by A. Dal Corso  v.5.1
     Shape of augmentation charge: PSQ
     Using radial grid of 1135 points,  6 beta functions with:
                l(1) =   0
                l(2) =   0
                l(3) =   1
                l(4) =   1
                l(5) =   2
                l(6) =   2
     Q(r) pseudized with 0 coefficients

     PseudoPot. # 3 for Ni read from file:
     /home/pragov/projects/rrg-bengioy-ad/pragov/crystal_structure_design/SSSP/ni_pbe_v1.4.uspp.F.UPF
     MD5 check sum: 1ee80287db30b12d2bc1f57a5b5d6409
     Pseudo is Ultrasoft + core correction, Zval = 18.0
     Generated by new atomic code, or converted to UPF format
     Using radial grid of  865 points,  6 beta functions with:
                l(1) =   0
                l(2) =   0
                l(3) =   1
                l(4) =   1
                l(5) =   2
                l(6) =   2
     Q(r) pseudized with 10 coefficients,  rinner =    0.980   0.980   0.980
                                                       0.980   0.980

     atomic species   valence    mass     pseudopotential
        Pr            13.00   140.90766     Pr( 1.00)
        Al             3.00    26.98154     Al( 1.00)
        Ni            18.00    58.69340     Ni( 1.00)

      4 Sym. Ops., with inversion, found

                                    s                        frac. trans.

      isym =  1     identity

 cryst.   s( 1) = (     1          0          0      )
                  (     0          1          0      )
                  (     0          0          1      )

 cart.    s( 1) = (  1.0000000  0.0000000  0.0000000 )
                  (  0.0000000  1.0000000  0.0000000 )
                  (  0.0000000  0.0000000  1.0000000 )

      isym =  2     180 deg rotation - cart. axis [0,0,1]

[...]

      isym =  3     inversion

[...]

      isym =  4     inv. 180 deg rotation - cart. axis [0,0,1]

 cryst.   s( 4) = (     1          0          0      )
                  (     0          1          0      )
                  (     0          0         -1      )

 cart.    s( 4) = (  1.0000000  0.0000000  0.0000000 )
                  (  0.0000000  1.0000000  0.0000000 )
                  (  0.0000000  0.0000000 -1.0000000 )

   Cartesian axes

     site n.     atom                  positions (alat units)
         1           Pr  tau(   1) = (   0.2667775   0.4422751   0.0000000  )
         2           Al  tau(   2) = (   0.0000000   0.0000000   0.4062070  )
         3           Ni  tau(   3) = (  -0.2216778   0.7369081   0.0000000  )
         4           Ni  tau(   4) = (   0.7552327   0.1476420   0.0000000  )
         5           Ni  tau(   5) = (  -0.2332225   0.4422751   0.4062070  )
         6           Ni  tau(   6) = (   0.5000000   0.0000000   0.4062070  )

   Crystallographic axes

     site n.     atom                  positions (cryst. coord.)
         1           Pr  tau(   1) = (  0.5000000  0.5000000  0.0000000  )
         2           Al  tau(   2) = (  0.0000000  0.0000000  0.5000000  )
         3           Ni  tau(   3) = (  0.1669120  0.8330880  0.0000000  )
         4           Ni  tau(   4) = (  0.8330880  0.1669120  0.0000000  )
         5           Ni  tau(   5) = (  0.0000000  0.5000000  0.5000000  )
         6           Ni  tau(   6) = (  0.5000000  0.0000000  0.5000000  )

     number of k points=     1  Methfessel-Paxton smearing, width (Ry)=  0.0010
                       cart. coord. in units 2pi/alat
        k(    1) = (   0.0000000   0.0000000   0.0000000), wk =   2.0000000

                       cryst. coord.
        k(    1) = (   0.0000000   0.0000000   0.0000000), wk =   2.0000000

     Check: negative core charge=   -0.000007

     Initial potential from superposition of free atoms

     starting charge      79.9903, renormalised to      88.0000
     Starting wfcs are   88 randomized atomic wfcs
     Checking if some PAW data can be deallocated...

     Self-consistent Calculation

     iteration #  1     ecut=    30.00 Ry     beta= 0.70
     Davidson diagonalization with overlap

     ethr =  1.00E-02,  avg # of iterations =  7.0

     total energy              =   -1700.69120563 Ry
     estimated scf accuracy    <     287.36023059 Ry

[...]

     negative rho (up, down):  4.100E-03 0.000E+00

[...]

     negative rho (up, down):  7.967E-04 0.000E+00

[...]

     total energy              =   -1920.28230788 Ry
     estimated scf accuracy    <       0.00000106 Ry

     iteration # 61     ecut=    30.00 Ry     beta= 0.70
     Davidson diagonalization with overlap

     ethr =  1.21E-09,  avg # of iterations =  1.0

     End of self-consistent calculation

          k = 0.0000 0.0000 0.0000 (   836 PWs)   bands (ev):

   -88.8481 -88.8460 -88.0510 -88.0445 -49.5009 -49.4171 -49.0601 -49.0601
   -49.0471 -49.0403 -48.5562 -48.5475 -48.3874 -48.3865 -48.2160 -48.2128
   -20.3943  -2.5193  -2.4948  -2.4108   6.3417  10.8864  11.1891  11.4853
    11.5424  11.6057  11.6387  12.2023  12.5267  12.7452  12.7938  12.8402
    13.1624  13.2858  13.4065  13.4846  13.8914  13.9308  14.1258  14.2475
    14.7840  14.8010  14.8830  14.8932  14.9041  15.2570  15.2682  15.3827
    15.4286  15.7376  16.0033  16.2443  16.2780

     occupation numbers
     1.0000   1.0000   1.0000   1.0000   1.0000   1.0000   1.0000   1.0000
     1.0000   1.0000   1.0000   1.0000   1.0000   1.0000   1.0000   1.0000
     1.0000   1.0000   1.0000   1.0000   1.0000   1.0000   1.0000   1.0000
     1.0000   1.0000   1.0000   1.0000   1.0000   1.0000   1.0000   1.0000
     1.0000   1.0000   1.0000   1.0000   1.0000   1.0000   1.0000   1.0000
     1.0000   1.0000   1.0336   0.7926   0.1738  -0.0000  -0.0000  -0.0000
    -0.0000  -0.0000  -0.0000  -0.0000  -0.0000

     the Fermi energy is    14.8983 ev

!    total energy              =   -1920.28230775 Ry
     estimated scf accuracy    <       0.00000016 Ry
     smearing contrib. (-TS)   =      -0.00020608 Ry
     internal energy E=F+TS    =   -1920.28210167 Ry

     The total energy is F=E-TS. E is the sum of the following terms:
     one-electron contribution =   -1053.63498086 Ry
     hartree contribution      =     579.38637240 Ry
     xc contribution           =    -156.83212097 Ry
     ewald contribution        =    -835.00099329 Ry
     one-center paw contrib.   =    -454.20037895 Ry
      -> PAW hartree energy AE =      65.22962300 Ry
      -> PAW hartree energy PS =     -65.27995535 Ry
      -> PAW xc energy AE      =    -466.89520208 Ry
      -> PAW xc energy PS      =      12.74515548 Ry
      -> total E_H with PAW    =     579.33604005 Ry
      -> total E_XC with PAW   =    -610.98216757 Ry

     convergence has been achieved in  61 iterations

     Forces acting on atoms (cartesian axes, Ry/au):

     atom    1 type  1   force =     0.00000000    0.00000000    0.00000000
     atom    2 type  2   force =     0.00000000    0.00000000    0.00000000
     atom    3 type  3   force =    -0.00796018    0.00482030    0.00000000
     atom    4 type  3   force =     0.00796018   -0.00482030    0.00000000
     atom    5 type  3   force =     0.00000000    0.00000000    0.00000000
     atom    6 type  3   force =     0.00000000    0.00000000    0.00000000
     The non-local contrib.  to forces
     atom    1 type  1   force =     0.00000000    0.00000000    0.00000000
     atom    2 type  2   force =     0.00000000    0.00000000    0.00000000
     atom    3 type  3   force =     0.03086342   -0.01856762   -0.00000000
     atom    4 type  3   force =    -0.03086342    0.01856762   -0.00000000
     atom    5 type  3   force =     0.00000000    0.00000000    0.00000000
     atom    6 type  3   force =     0.00000000    0.00000000    0.00000000
     The ionic contribution  to forces
     atom    1 type  1   force =     0.00000000   -0.00000000   -0.00000000
     atom    2 type  2   force =     0.00000000    0.00000000    0.00000000
     atom    3 type  3   force =   -12.20301018    7.36077698   -0.00000000
     atom    4 type  3   force =    12.20301019   -7.36077698   -0.00000000
     atom    5 type  3   force =    -0.00000000   -0.00000000    0.00000000
     atom    6 type  3   force =    -0.00000000    0.00000000    0.00000000
     The local contribution  to forces
     atom    1 type  1   force =    -0.00011095    0.00009531   -0.00002707
     atom    2 type  2   force =     0.00002846   -0.00000462    0.00003686
     atom    3 type  3   force =    12.16362588   -7.33712342   -0.00002634
     atom    4 type  3   force =   -12.16343264    7.33706093   -0.00002618
     atom    5 type  3   force =     0.00010671    0.00020728   -0.00009517
     atom    6 type  3   force =    -0.00015039   -0.00021396   -0.00009238
     The core correction contribution to forces
     atom    1 type  1   force =    -0.00000001    0.00000002   -0.00000001
     atom    2 type  2   force =     0.00000018    0.00000115    0.00000238
     atom    3 type  3   force =     0.00048741   -0.00029381    0.00000029
     atom    4 type  3   force =    -0.00048774    0.00029477    0.00000030
     atom    5 type  3   force =     0.00000030   -0.00000083   -0.00000074
     atom    6 type  3   force =    -0.00000008    0.00000002   -0.00000070
     The Hubbard contrib.    to forces
     atom    1 type  1   force =     0.00000000    0.00000000    0.00000000
     atom    2 type  2   force =     0.00000000    0.00000000    0.00000000
     atom    3 type  3   force =     0.00000000    0.00000000    0.00000000
     atom    4 type  3   force =     0.00000000    0.00000000    0.00000000
     atom    5 type  3   force =     0.00000000    0.00000000    0.00000000
     atom    6 type  3   force =     0.00000000    0.00000000    0.00000000
     The SCF correction term to forces
     atom    1 type  1   force =     0.00008552   -0.00005410    0.00001869
     atom    2 type  2   force =    -0.00002355    0.00001159   -0.00000754
     atom    3 type  3   force =     0.00007378    0.00002574    0.00003407
     atom    4 type  3   force =    -0.00026572    0.00003093    0.00003159
     atom    5 type  3   force =    -0.00011606   -0.00019747    0.00007819
     atom    6 type  3   force =     0.00013552    0.00021050    0.00007817

     Total force =     0.013161     Total SCF correction =     0.000467

     Computing stress (Cartesian axis) and pressure

          total   stress  (Ry/bohr**3)                   (kbar)     P=     -985.49
  -0.00685918  -0.00047176   0.00000000        -1009.02      -69.40        0.00
  -0.00047176  -0.00735610   0.00000000          -69.40    -1082.12        0.00
   0.00000000   0.00000000  -0.00588235            0.00        0.00     -865.32

     kinetic stress (kbar)  35256.24   -181.81      0.00
                             -181.81  35064.28      0.00
                                0.00      0.00  34957.78

     local   stress (kbar)  17124.03 -37689.41     -0.05
                           -37689.41 -22624.34     -0.10
                               -0.05     -0.10 -52477.60

     nonloc. stress (kbar)  16512.11     -0.03      0.00
                               -0.03  16511.80      0.00
                                0.00      0.00  16913.39

     hartree stress (kbar)  30397.26  18137.11      0.03
                            18137.11  49525.41      0.05
                                0.03      0.05  63882.72

     exc-cor stress (kbar) -10210.82     -4.87     -0.00
                               -4.87 -10215.95      0.00
                               -0.00      0.00 -10213.20

     corecor stress (kbar)  -2036.32      1.99      0.00
                                1.99  -2034.22      0.00
                                0.00      0.00  -2039.37

     ewald   stress (kbar) -88051.53  19667.61     -0.00
                            19667.61 -67309.11     -0.00
                               -0.00     -0.00 -51889.06

     hubbard stress (kbar)      0.00      0.00      0.00
                                0.00      0.00      0.00
                                0.00      0.00      0.00

     DFT-D   stress (kbar)      0.00      0.00      0.00
                                0.00      0.00      0.00
                                0.00      0.00      0.00

     XDM     stress (kbar)      0.00      0.00      0.00
                                0.00      0.00      0.00
                                0.00      0.00      0.00

     dft-nl  stress (kbar)      0.00      0.00      0.00
                                0.00      0.00      0.00
                                0.00      0.00      0.00

     TS-vdW  stress (kbar)      0.00      0.00      0.00
                                0.00      0.00      0.00
                                0.00      0.00      0.00

[...]

                                0.00      0.00      0.00

     Writing all to output data dir new_calculations/myprefix.save/

     General routines

     Parallel routines

     PAW routines

   This run was terminated on:  21:55:35  20May2023

   JOB DONE.