     Program PWSCF v.7.0 starts on 21May2023 at 19:47:59

     Reading input from espresso_6982.pwi
Warning: card &CELL ignored
Warning: card / ignored

     Current dimensions of program PWSCF are:
     Max number of different atomic species (ntypx) = 10
     Max number of k-points (npk) =  40000
     Max angular momentum in pseudopotentials (lmaxx) =  4

     gamma-point specific algorithms are used
     Message from routine setup:
     using ibrav=0 with symmetry is DISCOURAGED, use correct ibrav instead

     Subspace diagonalization in iterative solution of the eigenvalue problem:
     a serial algorithm will be used

     Using Slab Decomposition

     bravais-lattice index     =            0
     lattice parameter (alat)  =       8.1162  a.u.
     unit-cell volume          =    1441.7880 (a.u.)^3
     number of atoms/cell      =           12
     number of atomic types    =            3
     number of electrons       =       172.00
     number of Kohn-Sham states=          103
     kinetic-energy cutoff     =      30.0000  Ry
     charge density cutoff     =     240.0000  Ry
     scf convergence threshold =      1.0E-06
     mixing beta               =       0.7000
     number of iterations used =            8  plain     mixing
     Exchange-correlation= SLA  PW   PBE  PBE
                           (   1   4   3   4   0   0   0)

     celldm(1)=   8.116202  celldm(2)=   0.000000  celldm(3)=   0.000000
     celldm(4)=   0.000000  celldm(5)=   0.000000  celldm(6)=   0.000000

     crystal axes: (cart. coord. in units of alat)
               a(1) = (   1.000000   0.000000   0.000000 )
               a(2) = (   0.000000   1.610851   0.000000 )
               a(3) = (   0.000000   0.000000   1.674123 )

     reciprocal axes: (cart. coord. in units 2 pi/alat)
               b(1) = (  1.000000  0.000000  0.000000 )
               b(2) = (  0.000000  0.620790  0.000000 )
               b(3) = (  0.000000  0.000000  0.597328 )

     PseudoPot. # 1 for Yb read from file:
     /home/pragov/projects/rrg-bengioy-ad/pragov/crystal_structure_design/SSSP/Yb.GGA-PBE-paw-v1.0.UPF
     MD5 check sum: 43b6465ad8021f06e3edb42ae292e187
     Pseudo is Projector augmented-wave + core cor, Zval = 24.0
     Generated using ATOMPAW code
     Shape of augmentation charge: BESSEL
     Using radial grid of 1117 points,  8 beta functions with:
                l(1) =   0
                l(2) =   0
                l(3) =   1
                l(4) =   1
                l(5) =   2
                l(6) =   2
                l(7) =   3
                l(8) =   3
     Q(r) pseudized with 0 coefficients

     PseudoPot. # 2 for Si read from file:
     /home/pragov/projects/rrg-bengioy-ad/pragov/crystal_structure_design/SSSP/Si.pbe-n-rrkjus_psl.1.0.0.UPF
     MD5 check sum: 0b0bb1205258b0d07b9f9672cf965d36
     Pseudo is Ultrasoft + core correction, Zval =  4.0
     Generated using "atomic" code by A. Dal Corso  v.5.1
     Using radial grid of 1141 points,  6 beta functions with:
                l(1) =   0
                l(2) =   0
                l(3) =   1
                l(4) =   1
                l(5) =   2
                l(6) =   2
     Q(r) pseudized with 0 coefficients

     PseudoPot. # 3 for Ir read from file:
     /home/pragov/projects/rrg-bengioy-ad/pragov/crystal_structure_design/SSSP/Ir_pbe_v1.2.uspp.F.UPF
     MD5 check sum: 8836f839c3459d2b385c504ce6d91f2c
     Pseudo is Ultrasoft + core correction, Zval = 15.0
     Generated by new atomic code, or converted to UPF format
     Using radial grid of  983 points,  7 beta functions with:
                l(1) =   0
                l(2) =   0
                l(3) =   1
                l(4) =   1
                l(5) =   1
                l(6) =   2
                l(7) =   2
     Q(r) pseudized with  8 coefficients,  rinner =    1.400   1.400   1.400
                                                       1.400   1.400

     atomic species   valence    mass     pseudopotential
        Yb            24.00   173.05400     Yb( 1.00)
        Si             4.00    28.08500     Si( 1.00)
        Ir            15.00   192.21700     Ir( 1.00)

      8 Sym. Ops., with inversion, found ( 6 have fractional translation)

                                    s                        frac. trans.

      isym =  1     identity

 cryst.   s( 1) = (     1          0          0      )
                  (     0          1          0      )
                  (     0          0          1      )

 cart.    s( 1) = (  1.0000000  0.0000000  0.0000000 )
                  (  0.0000000  1.0000000  0.0000000 )
                  (  0.0000000  0.0000000  1.0000000 )

      isym =  2     180 deg rotation - cart. axis [0,0,1]

 cryst.   s( 2) = (    -1          0          0      )    f =(  0.5000000 )
                  (     0         -1          0      )       ( -0.5000000 )
                  (     0          0          1      )       (  0.5000000 )

 cart.    s( 2) = ( -1.0000000  0.0000000  0.0000000 )    f =(  0.5000000 )
                  (  0.0000000 -1.0000000  0.0000000 )       ( -0.8054256 )
                  (  0.0000000  0.0000000  1.0000000 )       (  0.8370617 )

[...]

      isym =  4     180 deg rotation - cart. axis [1,0,0]

[...]

      isym =  5     inversion

 cryst.   s( 5) = (    -1          0          0      )
                  (     0         -1          0      )
                  (     0          0         -1      )

 cart.    s( 5) = ( -1.0000000  0.0000000  0.0000000 )
                  (  0.0000000 -1.0000000  0.0000000 )
                  (  0.0000000  0.0000000 -1.0000000 )

      isym =  6     inv. 180 deg rotation - cart. axis [0,0,1]

[...]

      isym =  8     inv. 180 deg rotation - cart. axis [1,0,0]

 cryst.   s( 8) = (    -1          0          0      )    f =(  0.5000000 )
                  (     0          1          0      )       (  0.0000000 )
                  (     0          0          1      )       (  0.0000000 )

 cart.    s( 8) = ( -1.0000000  0.0000000  0.0000000 )    f =(  0.5000000 )
                  (  0.0000000  1.0000000  0.0000000 )       (  0.0000000 )
                  (  0.0000000  0.0000000  1.0000000 )       (  0.0000000 )

   Cartesian axes

     site n.     atom                  positions (alat units)
         1           Yb  tau(   1) = (   0.2500000   1.3327473   0.8486165  )
         2           Yb  tau(   2) = (   0.7500000   0.5273218   1.6625687  )
         3           Yb  tau(   3) = (   0.2500000   1.0835293   0.0115548  )
         4           Yb  tau(   4) = (   0.7500000   0.2781038   0.8255069  )
         5           Si  tau(   5) = (   0.7500000   0.9851353   0.5197802  )
         6           Si  tau(   6) = (   0.7500000   1.4311414   1.3568419  )
         7           Si  tau(   7) = (   0.2500000   0.6257158   1.1543433  )
         8           Si  tau(   8) = (   0.2500000   0.1797098   0.3172816  )
         9           Ir  tau(   9) = (   0.7500000   1.4925873   0.2479980  )
        10           Ir  tau(  10) = (   0.7500000   0.9236894   1.0850597  )
        11           Ir  tau(  11) = (   0.2500000   0.6871617   0.5890638  )
        12           Ir  tau(  12) = (   0.2500000   0.1182639   1.4261255  )

   Crystallographic axes

     site n.     atom                  positions (cryst. coord.)
         1           Yb  tau(   1) = (  0.2500000  0.8273560  0.5069020  )
         2           Yb  tau(   2) = (  0.7500000  0.3273560  0.9930980  )
         3           Yb  tau(   3) = (  0.2500000  0.6726440  0.0069020  )
         4           Yb  tau(   4) = (  0.7500000  0.1726440  0.4930980  )
         5           Si  tau(   5) = (  0.7500000  0.6115620  0.3104790  )
         6           Si  tau(   6) = (  0.7500000  0.8884380  0.8104790  )
         7           Si  tau(   7) = (  0.2500000  0.3884380  0.6895210  )
         8           Si  tau(   8) = (  0.2500000  0.1115620  0.1895210  )
         9           Ir  tau(   9) = (  0.7500000  0.9265830  0.1481360  )
        10           Ir  tau(  10) = (  0.7500000  0.5734170  0.6481360  )
        11           Ir  tau(  11) = (  0.2500000  0.4265830  0.3518640  )
        12           Ir  tau(  12) = (  0.2500000  0.0734170  0.8518640  )

     number of k points=     1  Methfessel-Paxton smearing, width (Ry)=  0.0010
                       cart. coord. in units 2pi/alat
        k(    1) = (   0.0000000   0.0000000   0.0000000), wk =   2.0000000

                       cryst. coord.
        k(    1) = (   0.0000000   0.0000000   0.0000000), wk =   2.0000000

     Initial potential from superposition of free atoms

     starting charge     169.9816, renormalised to     172.0000

     negative rho (up, down):  1.462E+00 0.000E+00
     Starting wfcs are  192 randomized atomic wfcs
     Checking if some PAW data can be deallocated...

     Self-consistent Calculation

     iteration #  1     ecut=    30.00 Ry     beta= 0.70
     Davidson diagonalization with overlap

     ethr =  1.00E-02,  avg # of iterations =  3.0

     negative rho (up, down):  1.174E+00 0.000E+00

     total energy              =   -4814.02080996 Ry
     estimated scf accuracy    <       5.79191358 Ry

[...]

     total energy              =   -4817.93554568 Ry
     estimated scf accuracy    <       0.00000513 Ry

     iteration # 53     ecut=    30.00 Ry     beta= 0.70
     Davidson diagonalization with overlap

     ethr =  2.98E-09,  avg # of iterations =  3.0

[...]

     End of self-consistent calculation

          k = 0.0000 0.0000 0.0000 (  1996 PWs)   bands (ev):

   -34.4442 -34.4408 -34.4110 -34.4045 -32.1821 -32.1817 -32.1516 -32.1510
   -31.7599 -31.7594 -31.7557 -31.7540 -31.7534 -31.7522 -31.7149 -31.7144
    -6.9672  -6.9480  -6.8671  -6.8367  -6.8198  -6.7612  -6.6887  -6.6161
    -6.6140  -6.6010  -6.5894  -6.5675   6.2257   8.0128   8.2865   8.3828
    11.4392  11.5112  12.1039  12.1090  12.1634  12.2919  12.3784  12.4584
    12.7504  12.8614  12.9341  13.4919  13.5932  13.8082  13.8400  14.1325
    14.3182  14.4750  14.5881  14.8159  15.1307  15.1574  15.6906  15.8617
    16.1235  16.5365  16.6885  16.7027  16.7117  16.7170  16.7326  16.7333
    16.7659  16.7920  16.8029  16.8316  16.8389  16.8501  16.8515  16.8704
    16.9003  16.9035  16.9041  16.9098  16.9200  16.9471  16.9526  16.9677
    16.9811  16.9868  17.0351  17.0755  17.0757  17.1246  17.1416  17.7137
    17.7725  18.2058  18.8299  18.9475  19.7565  20.0303  20.2075  20.2583
    20.3121  20.5567  20.8296  21.0729  21.3630  21.6338  22.1591

     occupation numbers
     1.0000   1.0000   1.0000   1.0000   1.0000   1.0000   1.0000   1.0000
     1.0000   1.0000   1.0000   1.0000   1.0000   1.0000   1.0000   1.0000
     1.0000   1.0000   1.0000   1.0000   1.0000   1.0000   1.0000   1.0000
     1.0000   1.0000   1.0000   1.0000   1.0000   1.0000   1.0000   1.0000
     1.0000   1.0000   1.0000   1.0000   1.0000   1.0000   1.0000   1.0000
     1.0000   1.0000   1.0000   1.0000   1.0000   1.0000   1.0000   1.0000
     1.0000   1.0000   1.0000   1.0000   1.0000   1.0000   1.0000   1.0000
     1.0000   1.0000   1.0000   1.0000   1.0000   1.0000   1.0000   1.0000
     1.0000   1.0000   1.0000   1.0000   1.0000   1.0000   1.0000   1.0000
     1.0000   1.0000   1.0000   1.0000   1.0000   1.0000   1.0000   1.0000
     1.0000   1.0000   1.0000   1.0000   1.0000   0.9315   0.0685  -0.0000
    -0.0000  -0.0000  -0.0000  -0.0000  -0.0000  -0.0000  -0.0000  -0.0000
    -0.0000  -0.0000  -0.0000  -0.0000  -0.0000  -0.0000  -0.0000

     the Fermi energy is    17.1331 ev

!    total energy              =   -4817.93554597 Ry
     estimated scf accuracy    <       0.00000013 Ry
     smearing contrib. (-TS)   =      -0.00008206 Ry
     internal energy E=F+TS    =   -4817.93546391 Ry

     The total energy is F=E-TS. E is the sum of the following terms:
     one-electron contribution =   -1556.89421168 Ry
     hartree contribution      =     759.54111474 Ry
     xc contribution           =    -379.77252219 Ry
     ewald contribution        =   -1702.31531259 Ry
     one-center paw contrib.   =   -1938.49453219 Ry
      -> PAW hartree energy AE =    1805.34901415 Ry
      -> PAW hartree energy PS =   -1553.56893582 Ry
      -> PAW xc energy AE      =   -2339.27803654 Ry
      -> PAW xc energy PS      =     149.00342602 Ry
      -> total E_H with PAW    =    1011.32119307 Ry
      -> total E_XC with PAW   =   -2570.04713271 Ry

     convergence has been achieved in  53 iterations

     negative rho (up, down):  1.275E+00 0.000E+00

     Forces acting on atoms (cartesian axes, Ry/au):

     atom    1 type  1   force =     0.00000000   -0.00672898    0.01571661
     atom    2 type  1   force =     0.00000000   -0.00672898   -0.01571661
     atom    3 type  1   force =     0.00000000    0.00672898    0.01571661
     atom    4 type  1   force =    -0.00000000    0.00672898   -0.01571661
     atom    5 type  2   force =     0.00000000    0.04229908   -0.00517152
     atom    6 type  2   force =     0.00000000   -0.04229908   -0.00517152
     atom    7 type  2   force =     0.00000000   -0.04229908    0.00517152
     atom    8 type  2   force =     0.00000000    0.04229908    0.00517152
     atom    9 type  3   force =     0.00000000   -0.04559907    0.05538005
     atom   10 type  3   force =    -0.00000000    0.04559907    0.05538005
     atom   11 type  3   force =     0.00000000   -0.04559907   -0.05538005
     atom   12 type  3   force =     0.00000000    0.04559907   -0.05538005
     The non-local contrib.  to forces
     atom    1 type  1   force =    -0.00000000   -0.21062149   -0.08952105
     atom    2 type  1   force =     0.00000000   -0.21062149    0.08952105
     atom    3 type  1   force =     0.00000000    0.21062149   -0.08952105
     atom    4 type  1   force =     0.00000000    0.21062149    0.08952105
     atom    5 type  2   force =     0.00000000   -0.04160964   -0.02225072
     atom    6 type  2   force =    -0.00000000    0.04160964   -0.02225072
     atom    7 type  2   force =    -0.00000000    0.04160964    0.02225072
     atom    8 type  2   force =     0.00000000   -0.04160964    0.02225072
     atom    9 type  3   force =    -0.00000000    0.03211014   -0.02686791
     atom   10 type  3   force =     0.00000000   -0.03211014   -0.02686791
     atom   11 type  3   force =     0.00000000    0.03211014    0.02686791
     atom   12 type  3   force =     0.00000000   -0.03211014    0.02686791
     The ionic contribution  to forces
     atom    1 type  1   force =     0.00000000    0.07438316   -2.27815358
     atom    2 type  1   force =    -0.00000000    0.07438316    2.27815358
     atom    3 type  1   force =     0.00000000   -0.07438316   -2.27815358
     atom    4 type  1   force =    -0.00000000   -0.07438316    2.27815358
     atom    5 type  2   force =    -0.00000000    0.08300240   -0.81333505
     atom    6 type  2   force =    -0.00000000   -0.08300240   -0.81333505
     atom    7 type  2   force =    -0.00000000   -0.08300240    0.81333505
     atom    8 type  2   force =     0.00000000    0.08300240    0.81333505
     atom    9 type  3   force =    -0.00000000   -1.37281451    1.83103802
     atom   10 type  3   force =    -0.00000000    1.37281451    1.83103802
     atom   11 type  3   force =     0.00000000   -1.37281451   -1.83103802
     atom   12 type  3   force =     0.00000000    1.37281451   -1.83103802
     The local contribution  to forces
     atom    1 type  1   force =     0.00001067    0.12970404    2.38376111
     atom    2 type  1   force =     0.00000805    0.13017586   -2.38363378
     atom    3 type  1   force =    -0.00002354   -0.12907969    2.38348879
     atom    4 type  1   force =     0.00000173   -0.13077403   -2.38346732
     atom    5 type  2   force =     0.00000082   -0.00418239    0.82709966
     atom    6 type  2   force =     0.00000105    0.00416557    0.82714220
     atom    7 type  2   force =    -0.00000088    0.00439405   -0.82710590
     atom    8 type  2   force =    -0.00000066   -0.00437397   -0.82715745
     atom    9 type  3   force =     0.00000465    1.32417375   -1.72585319
     atom   10 type  3   force =     0.00000210   -1.32393983   -1.72549195
     atom   11 type  3   force =    -0.00000100    1.32531057    1.72551351
     atom   12 type  3   force =    -0.00000483   -1.32547192    1.72558712
     The core correction contribution to forces
     atom    1 type  1   force =     0.00000000    0.00000023    0.00000071
     atom    2 type  1   force =     0.00000000    0.00000023   -0.00000071
     atom    3 type  1   force =    -0.00000000   -0.00000022    0.00000071
     atom    4 type  1   force =    -0.00000000   -0.00000023   -0.00000071
     atom    5 type  2   force =     0.00000008    0.00519255    0.00326276
     atom    6 type  2   force =    -0.00000001   -0.00519363    0.00326254
     atom    7 type  2   force =    -0.00000003   -0.00519281   -0.00326414
     atom    8 type  2   force =    -0.00000000    0.00519248   -0.00326299
     atom    9 type  3   force =    -0.00000008   -0.02962020   -0.02302996
     atom   10 type  3   force =    -0.00000021    0.02962638   -0.02303188
     atom   11 type  3   force =    -0.00000007   -0.02960995    0.02303471
     atom   12 type  3   force =    -0.00000003    0.02960868    0.02301998
     The Hubbard contrib.    to forces
     atom    1 type  1   force =     0.00000000    0.00000000    0.00000000
     atom    2 type  1   force =     0.00000000    0.00000000    0.00000000
     atom    3 type  1   force =     0.00000000    0.00000000    0.00000000
     atom    4 type  1   force =     0.00000000    0.00000000    0.00000000
     atom    5 type  2   force =     0.00000000    0.00000000    0.00000000
     atom    6 type  2   force =     0.00000000    0.00000000    0.00000000
     atom    7 type  2   force =     0.00000000    0.00000000    0.00000000
     atom    8 type  2   force =     0.00000000    0.00000000    0.00000000
     atom    9 type  3   force =     0.00000000    0.00000000    0.00000000
     atom   10 type  3   force =     0.00000000    0.00000000    0.00000000
     atom   11 type  3   force =     0.00000000    0.00000000    0.00000000
     atom   12 type  3   force =     0.00000000    0.00000000    0.00000000
     The SCF correction term to forces
     atom    1 type  1   force =    -0.00000793   -0.00022515   -0.00032169
     atom    2 type  1   force =    -0.00000753   -0.00064943    0.00015177
     atom    3 type  1   force =     0.00002635   -0.00039389   -0.00018503
     atom    4 type  1   force =    -0.00000130    0.00121647    0.00013039
     atom    5 type  2   force =    -0.00000039   -0.00010056    0.00005345
     atom    6 type  2   force =    -0.00000038    0.00010437   -0.00000171
     atom    7 type  2   force =     0.00000050   -0.00009743   -0.00006117
     atom    8 type  2   force =     0.00000034    0.00007728    0.00001356
     atom    9 type  3   force =    -0.00000343    0.00048306    0.00007140
     atom   10 type  3   force =    -0.00000104   -0.00068623   -0.00026593
     atom   11 type  3   force =     0.00000167   -0.00054239    0.00031064
     atom   12 type  3   force =     0.00000331    0.00063655    0.00009278

     Total force =     0.170346     Total SCF correction =     0.001978

     Computing stress (Cartesian axis) and pressure

     negative rho (up, down):  1.275E+00 0.000E+00
          total   stress  (Ry/bohr**3)                   (kbar)     P=      -31.60
  -0.00080319   0.00000000   0.00000000         -118.15        0.00        0.00
   0.00000000   0.00025307   0.00000000            0.00       37.23        0.00
   0.00000000   0.00000000  -0.00009431            0.00        0.00      -13.87

     kinetic stress (kbar)  18878.27      0.00      0.00
                                0.00  19266.58      0.00
                                0.00      0.00  19288.21

     local   stress (kbar)  12316.44      0.00      0.00
                                0.00   3285.86      0.04
                                0.00      0.04  16372.60

     nonloc. stress (kbar)  11419.16      0.00      0.00
                                0.00  11592.06      0.00
                                0.00      0.00  11581.47

     hartree stress (kbar)  25195.29     -0.00     -0.00
                               -0.00  28921.20     -0.03
                               -0.00     -0.03  23379.20

     exc-cor stress (kbar)   6108.52     -0.00     -0.00
                               -0.00   6113.60     -0.00
                               -0.00     -0.00   6112.11

     corecor stress (kbar) -15405.18      0.00     -0.00
                                0.00 -15413.21     -0.00
                               -0.00     -0.00 -15420.40

     ewald   stress (kbar) -58630.65      0.00      0.00
                                0.00 -53728.88      0.00
                                0.00      0.00 -61327.06

     hubbard stress (kbar)      0.00      0.00      0.00
                                0.00      0.00      0.00
                                0.00      0.00      0.00

     DFT-D   stress (kbar)      0.00      0.00      0.00
                                0.00      0.00      0.00
                                0.00      0.00      0.00

     XDM     stress (kbar)      0.00      0.00      0.00
                                0.00      0.00      0.00
                                0.00      0.00      0.00

     dft-nl  stress (kbar)      0.00      0.00      0.00
                                0.00      0.00      0.00
                                0.00      0.00      0.00

     TS-vdW  stress (kbar)      0.00      0.00      0.00
                                0.00      0.00      0.00
                                0.00      0.00      0.00

[...]

                                0.00      0.00      0.00

     Writing all to output data dir new_calculations/myprefix.save/

     General routines

     Parallel routines

     PAW routines

   This run was terminated on:  19:50:41  21May2023

   JOB DONE.