     Program PWSCF v.7.0 starts on 21May2023 at  7:11:57

     Reading input from espresso_21686.pwi
Warning: card &CELL ignored
Warning: card / ignored

     Current dimensions of program PWSCF are:
     Max number of different atomic species (ntypx) = 10
     Max number of k-points (npk) =  40000
     Max angular momentum in pseudopotentials (lmaxx) =  4
     file Mg.pbe-n-kjpaw_psl.0.3.0.UPF: wavefunction(s)  3S renormalized

     gamma-point specific algorithms are used
     Message from routine setup:
     using ibrav=0 with symmetry is DISCOURAGED, use correct ibrav instead

     Subspace diagonalization in iterative solution of the eigenvalue problem:
     a serial algorithm will be used

     Using Slab Decomposition

     bravais-lattice index     =            0
     lattice parameter (alat)  =      13.8562  a.u.
     unit-cell volume          =    1806.6519 (a.u.)^3
     number of atoms/cell      =            8
     number of atomic types    =            2
     number of electrons       =        70.00
     number of Kohn-Sham states=           42
     kinetic-energy cutoff     =      30.0000  Ry
     charge density cutoff     =     240.0000  Ry
     scf convergence threshold =      1.0E-06
     mixing beta               =       0.7000
     number of iterations used =            8  plain     mixing
     Exchange-correlation= SLA  PW   PBX  PBC
                           (   1   4   3   4   0   0   0)

     celldm(1)=  13.856227  celldm(2)=   0.000000  celldm(3)=   0.000000
     celldm(4)=   0.000000  celldm(5)=   0.000000  celldm(6)=   0.000000

     crystal axes: (cart. coord. in units of alat)
               a(1) = (   1.000000   0.000000   0.000000 )
               a(2) = (  -0.500000   0.866025   0.000000 )
               a(3) = (   0.000000   0.000000   0.784168 )

     reciprocal axes: (cart. coord. in units 2 pi/alat)
               b(1) = (  1.000000  0.577350  0.000000 )
               b(2) = (  0.000000  1.154700  0.000000 )
               b(3) = (  0.000000  0.000000  1.275238 )

     PseudoPot. # 1 for La read from file:
     /home/pragov/projects/rrg-bengioy-ad/pragov/crystal_structure_design/SSSP/La.GGA-PBE-paw-v1.0.UPF
     MD5 check sum: 436541e95c1ad8901025bd0b0ed42ae2
     Pseudo is Projector augmented-wave + core cor, Zval = 11.0
     Generated using ATOMPAW code
     Shape of augmentation charge: BESSEL
     Using radial grid of 1101 points,  8 beta functions with:
                l(1) =   0
                l(2) =   0
                l(3) =   1
                l(4) =   1
                l(5) =   2
                l(6) =   2
                l(7) =   3
                l(8) =   3
     Q(r) pseudized with 0 coefficients

     PseudoPot. # 2 for Mg read from file:
     /home/pragov/projects/rrg-bengioy-ad/pragov/crystal_structure_design/SSSP/Mg.pbe-n-kjpaw_psl.0.3.0.UPF
     MD5 check sum: 24ecedc7f3e3cbe212e682f4413594e4
     Pseudo is Projector augmented-wave + core cor, Zval =  2.0
     Generated using "atomic" code by A. Dal Corso  v.5.0.99 svn rev. 10869
     Shape of augmentation charge: PSQ
     Using radial grid of 1129 points,  4 beta functions with:
                l(1) =   0
                l(2) =   0
                l(3) =   1
                l(4) =   1
     Q(r) pseudized with 0 coefficients

     atomic species   valence    mass     pseudopotential
        La            11.00   138.90547     La( 1.00)
        Mg             2.00    24.30500     Mg( 1.00)

     24 Sym. Ops., with inversion, found (12 have fractional translation)

                                    s                        frac. trans.

      isym =  1     identity

 cryst.   s( 1) = (     1          0          0      )
                  (     0          1          0      )
                  (     0          0          1      )

 cart.    s( 1) = (  1.0000000 -0.0000000  0.0000000 )
                  (  0.0000000  1.0000000  0.0000000 )
                  (  0.0000000  0.0000000  1.0000000 )

      isym =  2     180 deg rotation - cart. axis [0,0,1]

 cryst.   s( 2) = (    -1          0          0      )    f =(  0.0000000 )
                  (     0         -1          0      )       (  0.0000000 )
                  (     0          0          1      )       ( -0.5000000 )

 cart.    s( 2) = ( -1.0000000  0.0000000  0.0000000 )    f =(  0.0000000 )
                  (  0.0000000 -1.0000000  0.0000000 )       (  0.0000000 )
                  (  0.0000000  0.0000000  1.0000000 )       ( -0.3920838 )

[...]

      isym =  4     180 deg rotation - cart. axis [1,0,0]

[...]

      isym =  5      60 deg rotation - cryst. axis [0,0,1]

[...]

 cryst.   s( 8) = (    -1         -1          0      )
                  (     1          0          0      )
                  (     0          0          1      )

 cart.    s( 8) = ( -0.5000001  0.8660254  0.0000000 )
                  ( -0.8660254 -0.4999999  0.0000000 )
                  (  0.0000000  0.0000000  1.0000000 )

[...]

 cryst.   s( 9) = (     0         -1          0      )    f =(  0.0000000 )
                  (    -1          0          0      )       ( -0.0000000 )
                  (     0          0         -1      )       (  0.5000000 )

 cart.    s( 9) = (  0.4999999 -0.8660254  0.0000000 )    f =(  0.0000000 )
                  ( -0.8660254 -0.4999999  0.0000000 )       ( -0.0000000 )
                  (  0.0000000  0.0000000 -1.0000000 )       (  0.3920838 )

[...]

 cryst.   s(10) = (     1          1          0      )    f =( -0.0000000 )
                  (     0         -1          0      )       ( -0.0000010 )
                  (     0          0         -1      )       (  0.5000000 )

 cart.    s(10) = (  0.5000001  0.8660253  0.0000000 )    f =(  0.0000005 )
                  (  0.8660254 -0.5000001  0.0000000 )       ( -0.0000009 )
                  (  0.0000000  0.0000000 -1.0000000 )       (  0.3920838 )

[...]

 cryst.   s(11) = (    -1         -1          0      )
                  (     0          1          0      )
                  (     0          0         -1      )

 cart.    s(11) = ( -0.5000001 -0.8660253  0.0000000 )
                  ( -0.8660254  0.5000001  0.0000000 )
                  (  0.0000000  0.0000000 -1.0000000 )

      isym = 12     180 deg rotation - cryst. axis [1,1,0]

[...]

      isym = 13     inversion

[...]

      isym = 14     inv. 180 deg rotation - cart. axis [0,0,1]

[...]

      isym = 16     inv. 180 deg rotation - cart. axis [1,0,0]

[...]

      isym = 17     inv.  60 deg rotation - cryst. axis [0,0,1]

[...]

 cryst.   s(22) = (    -1         -1          0      )    f =( -0.0000000 )
                  (     0          1          0      )       ( -0.0000010 )
                  (     0          0          1      )       ( -0.5000000 )

 cart.    s(22) = ( -0.5000001 -0.8660253  0.0000000 )    f =(  0.0000005 )
                  ( -0.8660254  0.5000001  0.0000000 )       ( -0.0000009 )
                  (  0.0000000  0.0000000  1.0000000 )       ( -0.3920838 )

[...]

      isym = 24     inv. 180 deg rotation - cryst. axis [1,1,0]

 cryst.   s(24) = (     0         -1          0      )
                  (    -1          0          0      )
                  (     0          0          1      )

 cart.    s(24) = (  0.4999999 -0.8660254  0.0000000 )
                  ( -0.8660254 -0.4999999  0.0000000 )
                  (  0.0000000  0.0000000  1.0000000 )

   Cartesian axes

     site n.     atom                  positions (alat units)
         1           La  tau(   1) = (  -0.0000005   0.3037680   0.1960419  )
         2           La  tau(   2) = (  -0.2369299   0.7141419   0.1960419  )
         3           La  tau(   3) = (   0.2369291   0.7141419   0.1960419  )
         4           La  tau(   4) = (   0.2630710   0.1518835   0.5881257  )
         5           La  tau(   5) = (   0.7369300   0.1518835   0.5881257  )
         6           La  tau(   6) = (   0.5000006   0.5622575   0.5881257  )
         7           Mg  tau(   7) = (   0.5000005   0.2886749   0.1960419  )
         8           Mg  tau(   8) = (  -0.0000004   0.5773506   0.5881257  )

   Crystallographic axes

     site n.     atom                  positions (cryst. coord.)
         1           La  tau(   1) = (  0.1753800  0.3507610  0.2500000  )
         2           La  tau(   2) = (  0.1753800  0.8246200  0.2500000  )
         3           La  tau(   3) = (  0.6492390  0.8246200  0.2500000  )
         4           La  tau(   4) = (  0.3507610  0.1753800  0.7500000  )
         5           La  tau(   5) = (  0.8246200  0.1753800  0.7500000  )
         6           La  tau(   6) = (  0.8246200  0.6492390  0.7500000  )
         7           Mg  tau(   7) = (  0.6666670  0.3333330  0.2500000  )
         8           Mg  tau(   8) = (  0.3333330  0.6666670  0.7500000  )

     number of k points=     1  Methfessel-Paxton smearing, width (Ry)=  0.0010
                       cart. coord. in units 2pi/alat
        k(    1) = (   0.0000000   0.0000000   0.0000000), wk =   2.0000000

                       cryst. coord.
        k(    1) = (   0.0000000   0.0000000   0.0000000), wk =   2.0000000

     Initial potential from superposition of free atoms

     starting charge      69.9470, renormalised to      70.0000
     Starting wfcs are  200 randomized atomic wfcs
     Checking if some PAW data can be deallocated...

     Self-consistent Calculation

     iteration #  1     ecut=    30.00 Ry     beta= 0.70
     Davidson diagonalization with overlap

     ethr =  1.00E-02,  avg # of iterations =  1.0

     Threshold (ethr) on eigenvalues was too large:
     Diagonalizing with lowered threshold

     Davidson diagonalization with overlap

[...]

     total energy              =   -2816.71656349 Ry
     estimated scf accuracy    <       0.45579036 Ry

[...]

     c_bands:  2 eigenvalues not converged
     ethr =  2.54E-06,  avg # of iterations = 20.0

[...]

     c_bands:  3 eigenvalues not converged
     ethr =  4.61E-07,  avg # of iterations = 20.0

[...]

     total energy              =   -2816.89576576 Ry
     estimated scf accuracy    <       0.00000361 Ry

     iteration # 18     ecut=    30.00 Ry     beta= 0.70
     Davidson diagonalization with overlap

     ethr =  3.23E-09,  avg # of iterations =  1.0

     End of self-consistent calculation

          k = 0.0000 0.0000 0.0000 (  2506 PWs)   bands (ev):

   -22.8758 -22.6943 -22.6860 -22.6856 -22.5986 -22.5983  -7.2173  -7.1502
    -6.9145  -6.7944  -6.7942  -6.6990  -6.6988  -6.6632  -6.6631  -6.3113
    -6.1944  -6.1941  -6.0720  -5.8559  -5.8278  -5.8276  -5.8110  -5.8108
     5.4372   6.4341   8.0942   8.4726   8.9756   8.9756   9.0616   9.0617
     9.0893   9.6000   9.6002   9.7238   9.7611   9.7611  11.1091  11.1647
    11.1651  11.1656

     occupation numbers
     1.0000   1.0000   1.0000   1.0000   1.0000   1.0000   1.0000   1.0000
     1.0000   1.0000   1.0000   1.0000   1.0000   1.0000   1.0000   1.0000
     1.0000   1.0000   1.0000   1.0000   1.0000   1.0000   1.0000   1.0000
     1.0000   1.0000   1.0000   1.0000   1.0000   1.0000   1.0000   1.0000
     1.0000   1.0000   1.0000  -0.0000  -0.0000  -0.0000  -0.0000  -0.0000
    -0.0000  -0.0000

     the Fermi energy is     9.6625 ev

!    total energy              =   -2816.89576579 Ry

     total all-electron energy =     -3551.004183 Ry
     estimated scf accuracy    <       0.00000026 Ry
     smearing contrib. (-TS)   =       0.00000000 Ry
     internal energy E=F+TS    =   -2816.89576579 Ry

     The total energy is F=E-TS. E is the sum of the following terms:
     one-electron contribution =     -48.09495798 Ry
     hartree contribution      =      57.80650439 Ry
     xc contribution           =     -55.55296821 Ry
     ewald contribution        =    -320.38143197 Ry
     one-center paw contrib.   =   -2450.67291202 Ry
      -> PAW hartree energy AE =     212.41817062 Ry
      -> PAW hartree energy PS =    -212.63193271 Ry
      -> PAW xc energy AE      =   -2496.75314808 Ry
      -> PAW xc energy PS      =      46.29399815 Ry
      -> total E_H with PAW    =      57.59274231 Ry
      -> total E_XC with PAW   =   -2506.01211814 Ry

     convergence has been achieved in  18 iterations

     Forces acting on atoms (cartesian axes, Ry/au):

     atom    1 type  1   force =     0.00000000    0.00724169    0.00000000
     atom    2 type  1   force =     0.00627149   -0.00362084    0.00000000
     atom    3 type  1   force =    -0.00627149   -0.00362084    0.00000000
     atom    4 type  1   force =     0.00627149    0.00362084    0.00000000
     atom    5 type  1   force =    -0.00627149    0.00362084   -0.00000000
     atom    6 type  1   force =     0.00000000   -0.00724169    0.00000000
     atom    7 type  2   force =    -0.00000000    0.00000000    0.00000000
     atom    8 type  2   force =    -0.00000000    0.00000000   -0.00000000
     The non-local contrib.  to forces
     atom    1 type  1   force =     0.00000000   -0.09622716    0.00000000
     atom    2 type  1   force =    -0.08333517    0.04811359    0.00000000
     atom    3 type  1   force =     0.08333517    0.04811357    0.00000000
     atom    4 type  1   force =    -0.08333517   -0.04811357    0.00000000
     atom    5 type  1   force =     0.08333517   -0.04811359   -0.00000000
     atom    6 type  1   force =     0.00000000    0.09622716    0.00000000
     atom    7 type  2   force =     0.00000000   -0.00000000   -0.00000000
     atom    8 type  2   force =    -0.00000000    0.00000000    0.00000000
     The ionic contribution  to forces
     atom    1 type  1   force =     0.00002932    0.65417624    0.00000000
     atom    2 type  1   force =     0.56652422   -0.32708295    0.00000000
     atom    3 type  1   force =    -0.56651861   -0.32711346    0.00000000
     atom    4 type  1   force =     0.56651861    0.32711346    0.00000000
     atom    5 type  1   force =    -0.56652422    0.32708295    0.00000000
     atom    6 type  1   force =    -0.00002932   -0.65417624    0.00000000
     atom    7 type  2   force =    -0.00000942    0.00000544    0.00000000
     atom    8 type  2   force =     0.00000942   -0.00000544    0.00000000
     The local contribution  to forces
     atom    1 type  1   force =    -0.00094772   -0.55074738   -0.00013902
     atom    2 type  1   force =    -0.47682889    0.27506235    0.00002465
     atom    3 type  1   force =     0.47679539    0.27594224    0.00017062
     atom    4 type  1   force =    -0.47644495   -0.27619913    0.00006275
     atom    5 type  1   force =     0.47624084   -0.27504516    0.00005648
     atom    6 type  1   force =     0.00077740    0.55079845   -0.00001284
     atom    7 type  2   force =     0.00010903    0.00002994   -0.00002088
     atom    8 type  2   force =    -0.00006361    0.00003675    0.00002619
     The core correction contribution to forces
     atom    1 type  1   force =    -0.00000029    0.00015223   -0.00000001
     atom    2 type  1   force =     0.00013197   -0.00007616    0.00000005
     atom    3 type  1   force =    -0.00013194   -0.00007595    0.00000012
     atom    4 type  1   force =     0.00013219    0.00007596    0.00000002
     atom    5 type  1   force =    -0.00013234    0.00007635    0.00000000
     atom    6 type  1   force =     0.00000020   -0.00015240   -0.00000006
     atom    7 type  2   force =     0.00000151    0.00000195   -0.00000058
     atom    8 type  2   force =     0.00000111   -0.00000200    0.00000114
     The Hubbard contrib.    to forces
     atom    1 type  1   force =     0.00000000    0.00000000    0.00000000
     atom    2 type  1   force =     0.00000000    0.00000000    0.00000000
     atom    3 type  1   force =     0.00000000    0.00000000    0.00000000
     atom    4 type  1   force =     0.00000000    0.00000000    0.00000000
     atom    5 type  1   force =     0.00000000    0.00000000    0.00000000
     atom    6 type  1   force =     0.00000000    0.00000000    0.00000000
     atom    7 type  2   force =     0.00000000    0.00000000    0.00000000
     atom    8 type  2   force =     0.00000000    0.00000000    0.00000000
     The SCF correction term to forces
     atom    1 type  1   force =     0.00058311   -0.00037327    0.00012173
     atom    2 type  1   force =    -0.00023076    0.00046303   -0.00001750
     atom    3 type  1   force =     0.00028942   -0.00012579   -0.00006282
     atom    4 type  1   force =    -0.00036117    0.00042924   -0.00000591
     atom    5 type  1   force =     0.00042514   -0.00025056   -0.00003634
     atom    6 type  1   force =    -0.00051778   -0.00002919   -0.00002039
     atom    7 type  2   force =    -0.00006616   -0.00001568    0.00000855
     atom    8 type  2   force =     0.00005303   -0.00003549   -0.00000936

     Total force =     0.017738     Total SCF correction =     0.001305

     Computing stress (Cartesian axis) and pressure

          total   stress  (Ry/bohr**3)                   (kbar)     P=      -65.15
  -0.00046181   0.00000000  -0.00000000          -67.93        0.00       -0.00
   0.00000000  -0.00046181   0.00000000            0.00      -67.93        0.00
  -0.00000000   0.00000000  -0.00040502           -0.00        0.00      -59.58

     kinetic stress (kbar)   6059.86     -0.00      0.00
                               -0.00   6059.85      0.00
                                0.00      0.00   5906.08

     local   stress (kbar)  -3226.05      0.10     -0.02
                                0.10  -3225.96     -0.06
                               -0.02     -0.06  -2510.87

     nonloc. stress (kbar)   5393.17     -0.00      0.00
                               -0.00   5393.17      0.00
                                0.00      0.00   5447.76

     hartree stress (kbar)   1667.01     -0.07      0.02
                               -0.07   1666.96      0.03
                                0.02      0.03   1372.87

     exc-cor stress (kbar)  -1219.86     -0.00      0.00
                               -0.00  -1219.86      0.00
                                0.00      0.00  -1222.75

     corecor stress (kbar)   -150.01     -0.00      0.00
                               -0.00   -150.01     -0.00
                                0.00     -0.00   -150.05

     ewald   stress (kbar)  -8592.07      0.00      0.00
                                0.00  -8592.07      0.00
                                0.00      0.00  -8902.63

     hubbard stress (kbar)      0.00      0.00      0.00
                                0.00      0.00      0.00
                                0.00      0.00      0.00

     DFT-D   stress (kbar)      0.00      0.00      0.00
                                0.00      0.00      0.00
                                0.00      0.00      0.00

     XDM     stress (kbar)      0.00      0.00      0.00
                                0.00      0.00      0.00
                                0.00      0.00      0.00

     dft-nl  stress (kbar)      0.00      0.00      0.00
                                0.00      0.00      0.00
                                0.00      0.00      0.00

     TS-vdW  stress (kbar)      0.00      0.00      0.00
                                0.00      0.00      0.00
                                0.00      0.00      0.00

[...]

                                0.00      0.00      0.00

     Writing all to output data dir new_calculations/myprefix.save/

     General routines

     Parallel routines

     PAW routines

   This run was terminated on:   7:13: 4  21May2023

   JOB DONE.