     Program PWSCF v.7.0 starts on 20May2023 at 19:14:55

     Reading input from espresso_4595.pwi
Warning: card &CELL ignored
Warning: card / ignored

     Current dimensions of program PWSCF are:
     Max number of different atomic species (ntypx) = 10
     Max number of k-points (npk) =  40000
     Max angular momentum in pseudopotentials (lmaxx) =  4

     gamma-point specific algorithms are used
     Message from routine setup:
     using ibrav=0 with symmetry is DISCOURAGED, use correct ibrav instead

     Subspace diagonalization in iterative solution of the eigenvalue problem:
     a serial algorithm will be used

     Using Slab Decomposition

     bravais-lattice index     =            0
     lattice parameter (alat)  =      10.7902  a.u.
     unit-cell volume          =    1925.4682 (a.u.)^3
     number of atoms/cell      =           14
     number of atomic types    =            3
     number of electrons       =       124.00
     number of Kohn-Sham states=           74
     kinetic-energy cutoff     =      30.0000  Ry
     charge density cutoff     =     240.0000  Ry
     scf convergence threshold =      1.0E-06
     mixing beta               =       0.7000
     number of iterations used =            8  plain     mixing
     Exchange-correlation= PBE
                           (   1   4   3   4   0   0   0)

     celldm(1)=  10.790205  celldm(2)=   0.000000  celldm(3)=   0.000000
     celldm(4)=   0.000000  celldm(5)=   0.000000  celldm(6)=   0.000000

     crystal axes: (cart. coord. in units of alat)
               a(1) = (   1.000000   0.000000   0.000000 )
               a(2) = (   0.724728   0.689035   0.000000 )
               a(3) = (   0.784979   0.313602   2.224365 )

     reciprocal axes: (cart. coord. in units 2 pi/alat)
               b(1) = (  1.000000 -1.051802 -0.204612 )
               b(2) = (  0.000000  1.451305 -0.204612 )
               b(3) = (  0.000000  0.000000  0.449567 )

     PseudoPot. # 1 for Y  read from file:
     /home/pragov/projects/rrg-bengioy-ad/pragov/crystal_structure_design/SSSP/Y_pbe_v1.uspp.F.UPF
     MD5 check sum: 2cf71db95cafeb975fc457bd7f14888e
     Pseudo is Ultrasoft + core correction, Zval = 11.0
     Generated by new atomic code, or converted to UPF format
     Using radial grid of  885 points,  6 beta functions with:
                l(1) =   0
                l(2) =   0
                l(3) =   1
                l(4) =   1
                l(5) =   2
                l(6) =   2
     Q(r) pseudized with  6 coefficients,  rinner =    1.200   1.200   1.200
                                                       1.200   1.200

     PseudoPot. # 2 for Si read from file:
     /home/pragov/projects/rrg-bengioy-ad/pragov/crystal_structure_design/SSSP/Si.pbe-n-rrkjus_psl.1.0.0.UPF
     MD5 check sum: 0b0bb1205258b0d07b9f9672cf965d36
     Pseudo is Ultrasoft + core correction, Zval =  4.0
     Generated using "atomic" code by A. Dal Corso  v.5.1
     Using radial grid of 1141 points,  6 beta functions with:
                l(1) =   0
                l(2) =   0
                l(3) =   1
                l(4) =   1
                l(5) =   2
                l(6) =   2
     Q(r) pseudized with 0 coefficients

     PseudoPot. # 3 for Rh read from file:
     /home/pragov/projects/rrg-bengioy-ad/pragov/crystal_structure_design/SSSP/Rh_ONCV_PBE-1.0.oncvpsp.upf
     MD5 check sum: ba07c69523b14cacd10683cd4c4284c1
     Pseudo is Norm-conserving, Zval = 17.0
     Generated using ONCVPSP code by D. R. Hamann
     Using radial grid of 1442 points,  6 beta functions with:
                l(1) =   0
                l(2) =   0
                l(3) =   1
                l(4) =   1
                l(5) =   2
                l(6) =   2

     atomic species   valence    mass     pseudopotential
        Y             11.00    88.90584     Y ( 1.00)
        Si             4.00    28.08500     Si( 1.00)
        Rh            17.00   102.90550     Rh( 1.00)

      2 Sym. Ops., with inversion, found

                                    s                        frac. trans.

      isym =  1     identity

 cryst.   s( 1) = (     1          0          0      )
                  (     0          1          0      )
                  (     0          0          1      )

 cart.    s( 1) = (  1.0000000  0.0000000 -0.0000000 )
                  (  0.0000000  1.0000000 -0.0000000 )
                  (  0.0000000  0.0000000  1.0000000 )

      isym =  2     inversion

 cryst.   s( 2) = (    -1          0          0      )
                  (     0         -1          0      )
                  (     0          0         -1      )

 cart.    s( 2) = ( -1.0000000 -0.0000000  0.0000000 )
                  (  0.0000000 -1.0000000  0.0000000 )
                  (  0.0000000  0.0000000 -1.0000000 )

   Cartesian axes

     site n.     atom                  positions (alat units)
         1           Y   tau(   1) = (   1.1011067   0.4398959   0.1754312  )
         2           Y   tau(   2) = (   1.4086000   0.5627406   2.0489338  )
         3           Y   tau(   3) = (   1.3900126   0.5553148   1.3896320  )
         4           Y   tau(   4) = (   1.1196942   0.4473217   0.8347330  )
         5           Y   tau(   5) = (   0.6216022   0.2483322   0.5055025  )
         6           Y   tau(   6) = (   1.8881046   0.7543043   1.7188625  )
         7           Si  tau(   7) = (   1.8291735   0.7307611   0.5262670  )
         8           Si  tau(   8) = (   0.6805333   0.2718754   1.6980980  )
         9           Si  tau(   9) = (   1.9264207   0.7696117   1.2098588  )
        10           Si  tau(  10) = (   0.5832860   0.2330248   1.0145062  )
        11           Si  tau(  11) = (   0.9208041   0.3678644   2.0571550  )
        12           Si  tau(  12) = (   1.5889027   0.6347721   0.1672100  )
        13           Rh  tau(  13) = (   1.6255420   0.6494096   0.9242014  )
        14           Rh  tau(  14) = (   0.8841648   0.3532269   1.3001636  )

   Crystallographic axes

     site n.     atom                  positions (cryst. coord.)
         1           Y   tau(   1) = (  0.6025280  0.6025280  0.0788680  )
         2           Y   tau(   2) = (  0.3974720  0.3974720  0.9211320  )
         3           Y   tau(   3) = (  0.5215960  0.5215960  0.6247320  )
         4           Y   tau(   4) = (  0.4784040  0.4784040  0.3752680  )
         5           Y   tau(   5) = (  0.2569740  0.2569740  0.2272570  )
         6           Y   tau(   6) = (  0.7430260  0.7430260  0.7727430  )
         7           Si  tau(   7) = (  0.9528770  0.9528770  0.2365920  )
         8           Si  tau(   8) = (  0.0471230  0.0471230  0.7634080  )
         9           Si  tau(   9) = (  0.8693900  0.8693900  0.5439120  )
        10           Si  tau(  10) = (  0.1306100  0.1306100  0.4560880  )
        11           Si  tau(  11) = (  0.1129650  0.1129650  0.9248280  )
        12           Si  tau(  12) = (  0.8870350  0.8870350  0.0751720  )
        13           Rh  tau(  13) = (  0.7533890  0.7533890  0.4154900  )
        14           Rh  tau(  14) = (  0.2466110  0.2466110  0.5845100  )

     number of k points=     1  Methfessel-Paxton smearing, width (Ry)=  0.0010
                       cart. coord. in units 2pi/alat
        k(    1) = (   0.0000000   0.0000000   0.0000000), wk =   2.0000000

                       cryst. coord.
        k(    1) = (   0.0000000   0.0000000   0.0000000), wk =   2.0000000

     Check: negative core charge=   -0.000004

     Initial potential from superposition of free atoms

     starting charge     123.9690, renormalised to     124.0000

     negative rho (up, down):  2.572E-01 0.000E+00
     Starting wfcs are  122 randomized atomic wfcs

     Self-consistent Calculation

     iteration #  1     ecut=    30.00 Ry     beta= 0.70
     Davidson diagonalization with overlap

     ethr =  1.00E-02,  avg # of iterations =  2.0

     negative rho (up, down):  2.553E-01 0.000E+00

     total energy              =   -1025.96681811 Ry
     estimated scf accuracy    <       2.72690708 Ry

[...]

     total energy              =   -1028.04726123 Ry
     estimated scf accuracy    <       0.00001292 Ry

     iteration # 15     ecut=    30.00 Ry     beta= 0.70
     Davidson diagonalization with overlap

     ethr =  1.03E-08,  avg # of iterations =  2.0

[...]

     End of self-consistent calculation

          k = 0.0000 0.0000 0.0000 (  2672 PWs)   bands (ev):

   -66.7118 -66.7061 -34.8535 -34.8167 -34.5605 -34.5594 -34.3576 -34.3226
   -30.4879 -30.4873 -30.1414 -30.1280 -30.1049 -30.0791 -10.6837 -10.6713
   -10.5985 -10.5898 -10.4121 -10.4113 -10.4100 -10.2937 -10.2573 -10.2418
   -10.2402 -10.1983 -10.1235 -10.0871 -10.0871 -10.0636 -10.0429 -10.0199
     1.9254   2.4812   3.2251   4.3784   4.9052   5.7677   6.7719   7.5324
     7.7698   8.1068   8.2118   8.7742   8.9793   9.1557   9.2788   9.3437
     9.4606   9.4671   9.6662   9.7220   9.8928  10.3020  10.3544  10.6361
    10.8224  10.9321  11.1525  11.3178  11.3248  11.7025  11.9993  12.0998
    12.1836  12.2207  12.2258  13.8239  13.9328  14.1272  14.1716  14.7808
    14.8534  14.8701

     occupation numbers
     1.0000   1.0000   1.0000   1.0000   1.0000   1.0000   1.0000   1.0000
     1.0000   1.0000   1.0000   1.0000   1.0000   1.0000   1.0000   1.0000
     1.0000   1.0000   1.0000   1.0000   1.0000   1.0000   1.0000   1.0000
     1.0000   1.0000   1.0000   1.0000   1.0000   1.0000   1.0000   1.0000
     1.0000   1.0000   1.0000   1.0000   1.0000   1.0000   1.0000   1.0000
     1.0000   1.0000   1.0000   1.0000   1.0000   1.0000   1.0000   1.0000
     1.0000   1.0000   1.0000   1.0000   1.0000   1.0000   1.0000   1.0000
     1.0000   1.0000   1.0000   1.0000   1.0000   1.0000  -0.0000  -0.0000
    -0.0000  -0.0000  -0.0000  -0.0000  -0.0000  -0.0000  -0.0000  -0.0000
    -0.0000  -0.0000

     the Fermi energy is    11.8088 ev

!    total energy              =   -1028.04726151 Ry
     estimated scf accuracy    <       0.00000082 Ry
     smearing contrib. (-TS)   =       0.00000000 Ry
     internal energy E=F+TS    =   -1028.04726151 Ry

     The total energy is F=E-TS. E is the sum of the following terms:
     one-electron contribution =    -498.87768838 Ry
     hartree contribution      =     297.68355466 Ry
     xc contribution           =    -213.26140615 Ry
     ewald contribution        =    -613.59172164 Ry

     convergence has been achieved in  15 iterations

     negative rho (up, down):  2.547E-01 0.000E+00

     Forces acting on atoms (cartesian axes, Ry/au):

     atom    1 type  1   force =    -0.01476767   -0.00590390   -0.02941200
     atom    2 type  1   force =     0.01476767    0.00590390    0.02941200
     atom    3 type  1   force =    -0.01303181   -0.00520748    0.03139641
     atom    4 type  1   force =     0.01303181    0.00520748   -0.03139641
     atom    5 type  1   force =     0.01388151    0.00555041   -0.04872380
     atom    6 type  1   force =    -0.01388151   -0.00555041    0.04872380
     atom    7 type  2   force =    -0.01821031   -0.00728420    0.03329759
     atom    8 type  2   force =     0.01821031    0.00728420   -0.03329759
     atom    9 type  2   force =    -0.02523298   -0.01008028   -0.03183379
     atom   10 type  2   force =     0.02523298    0.01008028    0.03183379
     atom   11 type  2   force =    -0.02622374   -0.01047560    0.01760465
     atom   12 type  2   force =     0.02622374    0.01047560   -0.01760465
     atom   13 type  3   force =    -0.04770598   -0.01905639   -0.03606662
     atom   14 type  3   force =     0.04770598    0.01905639    0.03606662
     The non-local contrib.  to forces
     atom    1 type  1   force =    -0.13808395   -0.05516459   -0.01229380
     atom    2 type  1   force =     0.13808395    0.05516459    0.01229380
     atom    3 type  1   force =    -0.01133061   -0.00452944   -0.03419853
     atom    4 type  1   force =     0.01133061    0.00452944    0.03419853
     atom    5 type  1   force =     0.11838442    0.04729175   -0.03740568
     atom    6 type  1   force =    -0.11838442   -0.04729175    0.03740568
     atom    7 type  2   force =     0.03001753    0.01198356   -0.02594051
     atom    8 type  2   force =    -0.03001753   -0.01198356    0.02594051
     atom    9 type  2   force =    -0.05291909   -0.02114028    0.03018895
     atom   10 type  2   force =     0.05291909    0.02114028   -0.03018895
     atom   11 type  2   force =    -0.03407681   -0.01361377    0.00929251
     atom   12 type  2   force =     0.03407681    0.01361377   -0.00929251
     atom   13 type  3   force =    -0.26248250   -0.10486200    0.01005387
     atom   14 type  3   force =     0.26248250    0.10486200   -0.01005387
     The ionic contribution  to forces
     atom    1 type  1   force =     1.26162612    0.50402397   -6.97612109
     atom    2 type  1   force =    -1.26162612   -0.50402397    6.97612109
     atom    3 type  1   force =    -4.41396317   -1.76339346   18.35687322
     atom    4 type  1   force =     4.41396317    1.76339346  -18.35687322
     atom    5 type  1   force =    -2.72841608   -1.09001160  -20.04119174
     atom    6 type  1   force =     2.72841608    1.09001160   20.04119174
     atom    7 type  2   force =     1.50887770    0.60280183   -8.37944887
     atom    8 type  2   force =    -1.50887770   -0.60280183    8.37944887
     atom    9 type  2   force =     4.75013498    1.89769525    2.63985932
     atom   10 type  2   force =    -4.75013498   -1.89769525   -2.63985932
     atom   11 type  2   force =     0.20517352    0.08196753    2.68310191
     atom   12 type  2   force =    -0.20517352   -0.08196753   -2.68310191
     atom   13 type  3   force =    -2.88009515   -1.15060791  -23.17508108
     atom   14 type  3   force =     2.88009515    1.15060791   23.17508108
     The local contribution  to forces
     atom    1 type  1   force =    -1.14820147   -0.45871950    6.95768803
     atom    2 type  1   force =     1.14809804    0.45867720   -6.95747744
     atom    3 type  1   force =     4.41181377    1.76252681  -18.29385842
     atom    4 type  1   force =    -4.41187145   -1.76255269   18.29315755
     atom    5 type  1   force =     2.63283473    1.05184496   20.02736583
     atom    6 type  1   force =    -2.63295861   -1.05188944  -20.02555213
     atom    7 type  2   force =    -1.55341055   -0.62059686    8.43581979
     atom    8 type  2   force =     1.55350957    0.62063398   -8.43514722
     atom    9 type  2   force =    -4.72786252   -1.88879873   -2.69832902
     atom   10 type  2   force =     4.72779181    1.88877462    2.69738189
     atom   11 type  2   force =    -0.20052212   -0.08011036   -2.67348929
     atom   12 type  2   force =     0.20055100    0.08011828    2.67352638
     atom   13 type  3   force =     3.09458417    1.23621830   23.12548493
     atom   14 type  3   force =    -3.09428647   -1.23615711  -23.12885285
     The core correction contribution to forces
     atom    1 type  1   force =     0.00990606    0.00395767    0.00082349
     atom    2 type  1   force =    -0.00991007   -0.00395894   -0.00082329
     atom    3 type  1   force =     0.00023733    0.00009506    0.00338223
     atom    4 type  1   force =    -0.00023705   -0.00009511   -0.00338077
     atom    5 type  1   force =    -0.00906516   -0.00362174    0.00206766
     atom    6 type  1   force =     0.00906548    0.00362047   -0.00205892
     atom    7 type  2   force =    -0.00367137   -0.00146608    0.00270252
     atom    8 type  2   force =     0.00366675    0.00146477   -0.00269732
     atom    9 type  2   force =     0.00536108    0.00214148   -0.00381950
     atom   10 type  2   force =    -0.00536197   -0.00214244    0.00381815
     atom   11 type  2   force =     0.00322832    0.00128959   -0.00109481
     atom   12 type  2   force =    -0.00323087   -0.00129107    0.00109496
     atom   13 type  3   force =     0.00000000    0.00000000    0.00000000
     atom   14 type  3   force =     0.00000000    0.00000000    0.00000000
     The Hubbard contrib.    to forces
     atom    1 type  1   force =     0.00000000    0.00000000    0.00000000
     atom    2 type  1   force =     0.00000000    0.00000000    0.00000000
     atom    3 type  1   force =     0.00000000    0.00000000    0.00000000
     atom    4 type  1   force =     0.00000000    0.00000000    0.00000000
     atom    5 type  1   force =     0.00000000    0.00000000    0.00000000
     atom    6 type  1   force =     0.00000000    0.00000000    0.00000000
     atom    7 type  2   force =     0.00000000    0.00000000    0.00000000
     atom    8 type  2   force =     0.00000000    0.00000000    0.00000000
     atom    9 type  2   force =     0.00000000    0.00000000    0.00000000
     atom   10 type  2   force =     0.00000000    0.00000000    0.00000000
     atom   11 type  2   force =     0.00000000    0.00000000    0.00000000
     atom   12 type  2   force =     0.00000000    0.00000000    0.00000000
     atom   13 type  3   force =     0.00000000    0.00000000    0.00000000
     atom   14 type  3   force =     0.00000000    0.00000000    0.00000000
     The SCF correction term to forces
     atom    1 type  1   force =    -0.00001537   -0.00000513    0.00051914
     atom    2 type  1   force =     0.00012093    0.00004134   -0.00067439
     atom    3 type  1   force =     0.00023047    0.00010126   -0.00079043
     atom    4 type  1   force =    -0.00013388   -0.00005989    0.00151316
     atom    5 type  1   force =     0.00013604    0.00004439    0.00047720
     atom    6 type  1   force =    -0.00002762   -0.00000394   -0.00222550
     atom    7 type  2   force =    -0.00003664   -0.00001183    0.00021815
     atom    8 type  2   force =    -0.00008379   -0.00003434   -0.00078895
     atom    9 type  2   force =     0.00003941    0.00001629    0.00023191
     atom   10 type  2   force =     0.00000584   -0.00000264    0.00064747
     atom   11 type  2   force =    -0.00003897   -0.00001421   -0.00021348
     atom   12 type  2   force =    -0.00001200   -0.00000347    0.00016062
     atom   13 type  3   force =     0.00019102    0.00016166    0.00347093
     atom   14 type  3   force =    -0.00068170   -0.00028997   -0.00011248

     Total force =     0.162422     Total SCF correction =     0.004779

     Computing stress (Cartesian axis) and pressure

     negative rho (up, down):  2.547E-01 0.000E+00
          total   stress  (Ry/bohr**3)                   (kbar)     P=      -36.95
  -0.00009013  -0.00003994  -0.00000274          -13.26       -5.88       -0.40
  -0.00003994  -0.00000611  -0.00000109           -5.88       -0.90       -0.16
  -0.00000274  -0.00000109  -0.00065740           -0.40       -0.16      -96.71

     kinetic stress (kbar)  14820.28      0.27     54.45
                                0.27  14819.70     21.76
                               54.45     21.76  14804.21

     local   stress (kbar) -18327.80   1676.39   -392.75
                             1676.39 -21854.26   -156.91
                             -392.75   -156.91   6655.82

     nonloc. stress (kbar)   8038.75      9.79      6.75
                                9.79   8018.16      2.70
                                6.75      2.70   8020.60

     hartree stress (kbar)  11153.49   -765.50    206.07
                             -765.50  12763.80     82.33
                              206.07     82.33  -1174.37

     exc-cor stress (kbar)   3630.52     -1.39     -0.05
                               -1.39   3633.45     -0.02
                               -0.05     -0.02   3631.76

     corecor stress (kbar)  -7290.26     -1.11     -0.83
                               -1.11  -7287.92     -0.33
                               -0.83     -0.33  -7288.61

     ewald   stress (kbar) -12038.24   -924.33    125.95
                             -924.33 -10093.82     50.32
                              125.95     50.32 -24746.13

     hubbard stress (kbar)      0.00      0.00      0.00
                                0.00      0.00      0.00
                                0.00      0.00      0.00

     DFT-D   stress (kbar)      0.00      0.00      0.00
                                0.00      0.00      0.00
                                0.00      0.00      0.00

     XDM     stress (kbar)      0.00      0.00      0.00
                                0.00      0.00      0.00
                                0.00      0.00      0.00

     dft-nl  stress (kbar)      0.00      0.00      0.00
                                0.00      0.00      0.00
                                0.00      0.00      0.00

     TS-vdW  stress (kbar)      0.00      0.00      0.00
                                0.00      0.00      0.00
                                0.00      0.00      0.00

[...]

                                0.00      0.00      0.00

     Writing all to output data dir new_calculations/myprefix.save/

     General routines

     Parallel routines

   This run was terminated on:  19:15:20  20May2023

   JOB DONE.