     Program PWSCF v.7.0 starts on 20May2023 at  8:31:49

     Reading input from espresso_8298.pwi
Warning: card &CELL ignored
Warning: card / ignored

     Current dimensions of program PWSCF are:
     Max number of different atomic species (ntypx) = 10
     Max number of k-points (npk) =  40000
     Max angular momentum in pseudopotentials (lmaxx) =  4
     file Ba.pbe-spn-kjpaw_psl.1.0.0.UPF: wavefunction(s)  5S 6S renormalized

     gamma-point specific algorithms are used
     Message from routine setup:
     using ibrav=0 with symmetry is DISCOURAGED, use correct ibrav instead

     Subspace diagonalization in iterative solution of the eigenvalue problem:
     a serial algorithm will be used

     Using Slab Decomposition

     bravais-lattice index     =            0
     lattice parameter (alat)  =       8.1469  a.u.
     unit-cell volume          =     718.4825 (a.u.)^3
     number of atoms/cell      =            5
     number of atomic types    =            3
     number of electrons       =        56.00
     number of Kohn-Sham states=           34
     kinetic-energy cutoff     =      30.0000  Ry
     charge density cutoff     =     240.0000  Ry
     scf convergence threshold =      1.0E-06
     mixing beta               =       0.7000
     number of iterations used =            8  plain     mixing
     Exchange-correlation= PBE
                           (   1   4   3   4   0   0   0)

     celldm(1)=   8.146917  celldm(2)=   0.000000  celldm(3)=   0.000000
     celldm(4)=   0.000000  celldm(5)=   0.000000  celldm(6)=   0.000000

     crystal axes: (cart. coord. in units of alat)
               a(1) = (   1.000000   0.000000   0.000000 )
               a(2) = (   0.000000   1.000000   0.000000 )
               a(3) = (   0.000000   0.000000   1.328728 )

     reciprocal axes: (cart. coord. in units 2 pi/alat)
               b(1) = (  1.000000  0.000000  0.000000 )
               b(2) = (  0.000000  1.000000  0.000000 )
               b(3) = (  0.000000  0.000000  0.752599 )

     PseudoPot. # 1 for Ba read from file:
     /home/pragov/projects/rrg-bengioy-ad/pragov/crystal_structure_design/SSSP/Ba.pbe-spn-kjpaw_psl.1.0.0.UPF
     MD5 check sum: c432291d3e53af55f19d5e8866385beb
     Pseudo is Projector augmented-wave + core cor, Zval = 10.0
     Generated using "atomic" code by A. Dal Corso  v.5.1
     Shape of augmentation charge: PSQ
     Using radial grid of 1251 points,  7 beta functions with:
                l(1) =   0
                l(2) =   0
                l(3) =   0
                l(4) =   1
                l(5) =   1
                l(6) =   2
                l(7) =   2
     Q(r) pseudized with 0 coefficients

     PseudoPot. # 2 for P  read from file:
     /home/pragov/projects/rrg-bengioy-ad/pragov/crystal_structure_design/SSSP/P.pbe-n-rrkjus_psl.1.0.0.UPF
     MD5 check sum: 8b930f418f0a4573dca56cd030ffe088
     Pseudo is Ultrasoft + core correction, Zval =  5.0
     Generated using "atomic" code by A. Dal Corso  v.5.1
     Using radial grid of 1147 points,  6 beta functions with:
                l(1) =   0
                l(2) =   0
                l(3) =   1
                l(4) =   1
                l(5) =   2
                l(6) =   2
     Q(r) pseudized with 0 coefficients

     PseudoPot. # 3 for Pd read from file:
     /home/pragov/projects/rrg-bengioy-ad/pragov/crystal_structure_design/SSSP/Pd_ONCV_PBE-1.0.oncvpsp.upf
     MD5 check sum: eb77f42b51d86fb18e25f68156a31cf1
     Pseudo is Norm-conserving, Zval = 18.0
     Generated using ONCVPSP code by D. R. Hamann
     Using radial grid of 1410 points,  6 beta functions with:
                l(1) =   0
                l(2) =   0
                l(3) =   1
                l(4) =   1
                l(5) =   2
                l(6) =   2

     atomic species   valence    mass     pseudopotential
        Ba            10.00   137.32700     Ba( 1.00)
        P              5.00    30.97376     P ( 1.00)
        Pd            18.00   106.42000     Pd( 1.00)

     16 Sym. Ops., with inversion, found

                                    s                        frac. trans.

      isym =  1     identity

 cryst.   s( 1) = (     1          0          0      )
                  (     0          1          0      )
                  (     0          0          1      )

 cart.    s( 1) = (  1.0000000  0.0000000  0.0000000 )
                  (  0.0000000  1.0000000  0.0000000 )
                  (  0.0000000  0.0000000  1.0000000 )

      isym =  2     180 deg rotation - cart. axis [0,0,1]

[...]

      isym =  8      90 deg rotation - cart. axis [0,0,1]

[...]

      isym =  9     inversion

 cryst.   s( 9) = (    -1          0          0      )
                  (     0         -1          0      )
                  (     0          0         -1      )

 cart.    s( 9) = ( -1.0000000  0.0000000  0.0000000 )
                  (  0.0000000 -1.0000000  0.0000000 )
                  (  0.0000000  0.0000000 -1.0000000 )

      isym = 10     inv. 180 deg rotation - cart. axis [0,0,1]

 cryst.   s(10) = (     1          0          0      )
                  (     0          1          0      )
                  (     0          0         -1      )

 cart.    s(10) = (  1.0000000  0.0000000  0.0000000 )
                  (  0.0000000  1.0000000  0.0000000 )
                  (  0.0000000  0.0000000 -1.0000000 )

[...]

      isym = 16     inv.  90 deg rotation - cart. axis [0,0,1]

 cryst.   s(16) = (     0         -1          0      )
                  (     1          0          0      )
                  (     0          0         -1      )

 cart.    s(16) = (  0.0000000  1.0000000  0.0000000 )
                  ( -1.0000000  0.0000000  0.0000000 )
                  (  0.0000000  0.0000000 -1.0000000 )

   Cartesian axes

     site n.     atom                  positions (alat units)
         1           Ba  tau(   1) = (   0.0000000   0.0000000   0.0000000  )
         2           P   tau(   2) = (   0.5000000   0.5000000   0.9428737  )
         3           P   tau(   3) = (   0.5000000   0.5000000   0.3858548  )
         4           Pd  tau(   4) = (   0.5000000   0.0000000   0.6643642  )
         5           Pd  tau(   5) = (   0.0000000   0.5000000   0.6643642  )

   Crystallographic axes

     site n.     atom                  positions (cryst. coord.)
         1           Ba  tau(   1) = (  0.0000000  0.0000000  0.0000000  )
         2           P   tau(   2) = (  0.5000000  0.5000000  0.7096060  )
         3           P   tau(   3) = (  0.5000000  0.5000000  0.2903940  )
         4           Pd  tau(   4) = (  0.5000000  0.0000000  0.5000000  )
         5           Pd  tau(   5) = (  0.0000000  0.5000000  0.5000000  )

     number of k points=     1  Methfessel-Paxton smearing, width (Ry)=  0.0010
                       cart. coord. in units 2pi/alat
        k(    1) = (   0.0000000   0.0000000   0.0000000), wk =   2.0000000

                       cryst. coord.
        k(    1) = (   0.0000000   0.0000000   0.0000000), wk =   2.0000000

     Initial potential from superposition of free atoms

     starting charge      55.9820, renormalised to      56.0000
     Starting wfcs are   33 randomized atomic wfcs +    1 random wfcs
     Checking if some PAW data can be deallocated...

     Self-consistent Calculation

     iteration #  1     ecut=    30.00 Ry     beta= 0.70
     Davidson diagonalization with overlap

     ethr =  1.00E-02,  avg # of iterations =  4.0

     Threshold (ethr) on eigenvalues was too large:
     Diagonalizing with lowered threshold

     Davidson diagonalization with overlap

[...]

     total energy              =    -970.20593828 Ry
     estimated scf accuracy    <       0.26858554 Ry

[...]

     total energy              =    -970.30027224 Ry
     estimated scf accuracy    <       0.00000198 Ry

     iteration # 13     ecut=    30.00 Ry     beta= 0.70
     Davidson diagonalization with overlap

     ethr =  3.54E-09,  avg # of iterations =  3.0

     End of self-consistent calculation

          k = 0.0000 0.0000 0.0000 (   994 PWs)   bands (ev):

   -74.1900 -74.1817 -39.9807 -39.9805 -39.5923 -39.5752 -39.2320 -39.2318
   -14.5306  -2.0098  -0.3360   0.3710   0.3710   2.7181   5.1622   6.2998
     6.3000   7.2494   7.6669   8.2954   8.2954   8.8576   9.1083   9.1084
     9.2034   9.6401  10.1354  13.4959  13.8594  13.9306  13.9307  14.7854
    16.3603  16.7372

     occupation numbers
     1.0000   1.0000   1.0000   1.0000   1.0000   1.0000   1.0000   1.0000
     1.0000   1.0000   1.0000   1.0000   1.0000   1.0000   1.0000   1.0000
     1.0000   1.0000   1.0000   1.0000   1.0000   1.0000   1.0000   1.0000
     1.0000   1.0000   1.0000   1.0000  -0.0000  -0.0000  -0.0000  -0.0000
    -0.0000  -0.0000

     the Fermi energy is    13.6670 ev

!    total energy              =    -970.30027203 Ry
     estimated scf accuracy    <       0.00000071 Ry
     smearing contrib. (-TS)   =       0.00000000 Ry
     internal energy E=F+TS    =    -970.30027203 Ry

     The total energy is F=E-TS. E is the sum of the following terms:
     one-electron contribution =    -360.91015885 Ry
     hartree contribution      =     202.95756737 Ry
     xc contribution           =     -78.62678156 Ry
     ewald contribution        =    -358.77470700 Ry
     one-center paw contrib.   =    -374.94619200 Ry
      -> PAW hartree energy AE =      29.22674269 Ry
      -> PAW hartree energy PS =     -29.13251003 Ry
      -> PAW xc energy AE      =    -394.27958061 Ry
      -> PAW xc energy PS      =      19.23915595 Ry
      -> total E_H with PAW    =     203.05180003 Ry
      -> total E_XC with PAW   =    -453.66720621 Ry

     convergence has been achieved in  13 iterations

     Forces acting on atoms (cartesian axes, Ry/au):

     atom    1 type  1   force =     0.00000000    0.00000000    0.00000000
     atom    2 type  2   force =     0.00000000    0.00000000   -0.03485890
     atom    3 type  2   force =     0.00000000    0.00000000    0.03485890
     atom    4 type  3   force =     0.00000000    0.00000000    0.00000000
     atom    5 type  3   force =     0.00000000    0.00000000    0.00000000
     The non-local contrib.  to forces
     atom    1 type  1   force =     0.00000000    0.00000000    0.00000000
     atom    2 type  2   force =     0.00000000    0.00000000   -0.10476489
     atom    3 type  2   force =     0.00000000    0.00000000    0.10476489
     atom    4 type  3   force =     0.00000000    0.00000000    0.00000000
     atom    5 type  3   force =     0.00000000    0.00000000    0.00000000
     The ionic contribution  to forces
     atom    1 type  1   force =     0.00000000    0.00000000   -0.00000000
     atom    2 type  2   force =    -0.00000000   -0.00000000   11.85364148
     atom    3 type  2   force =    -0.00000000   -0.00000000  -11.85364148
     atom    4 type  3   force =     0.00000000    0.00000000    0.00000000
     atom    5 type  3   force =     0.00000000    0.00000000    0.00000000
     The local contribution  to forces
     atom    1 type  1   force =    -0.00134030   -0.00008123   -0.00049459
     atom    2 type  2   force =     0.00000315    0.00000191  -11.78557188
     atom    3 type  2   force =     0.00000092   -0.00000035   11.78570828
     atom    4 type  3   force =     0.00000107   -0.00001700    0.00095320
     atom    5 type  3   force =    -0.00000695   -0.00000055    0.00094735
     The core correction contribution to forces
     atom    1 type  1   force =    -0.00001258   -0.00000360   -0.00000383
     atom    2 type  2   force =     0.00000035   -0.00000009    0.00198308
     atom    3 type  2   force =    -0.00000009   -0.00000007   -0.00198143
     atom    4 type  3   force =     0.00000000    0.00000000    0.00000000
     atom    5 type  3   force =     0.00000000    0.00000000    0.00000000
     The Hubbard contrib.    to forces
     atom    1 type  1   force =     0.00000000    0.00000000    0.00000000
     atom    2 type  2   force =     0.00000000    0.00000000    0.00000000
     atom    3 type  2   force =     0.00000000    0.00000000    0.00000000
     atom    4 type  3   force =     0.00000000    0.00000000    0.00000000
     atom    5 type  3   force =     0.00000000    0.00000000    0.00000000
     The SCF correction term to forces
     atom    1 type  1   force =     0.00018132    0.00001137    0.00031400
     atom    2 type  2   force =    -0.00000038   -0.00000317   -0.00012675
     atom    3 type  2   force =    -0.00000112   -0.00000242    0.00002855
     atom    4 type  3   force =     0.00000091    0.00002960   -0.00091795
     atom    5 type  3   force =     0.00000457   -0.00001634   -0.00092334

     Total force =     0.049298     Total SCF correction =     0.001358

     Computing stress (Cartesian axis) and pressure

          total   stress  (Ry/bohr**3)                   (kbar)     P=     -500.03
  -0.00254890   0.00000000   0.00000000         -374.96        0.00        0.00
   0.00000000  -0.00254890   0.00000000            0.00     -374.96        0.00
   0.00000000   0.00000000  -0.00509957            0.00        0.00     -750.17

     kinetic stress (kbar)  27177.43      0.00      0.00
                                0.00  27177.43      0.00
                                0.00      0.00  26553.20

     local   stress (kbar) -38350.83      0.00     -0.00
                                0.00 -38350.69     -0.00
                               -0.00     -0.00  21891.36

     nonloc. stress (kbar)   5918.77      0.00      0.00
                                0.00   5918.77      0.00
                                0.00      0.00   5846.31

     hartree stress (kbar)  23024.60     -0.00      0.00
                               -0.00  23024.56      0.00
                                0.00      0.00  -4494.79

     exc-cor stress (kbar)  -1407.02      0.00      0.00
                                0.00  -1407.02      0.00
                                0.00      0.00  -1413.36

     corecor stress (kbar)  -3053.20      0.00     -0.00
                                0.00  -3053.20      0.00
                               -0.00      0.00  -3045.39

     ewald   stress (kbar) -13684.75     -0.00      0.00
                               -0.00 -13684.75      0.00
                                0.00      0.00 -46087.51

     hubbard stress (kbar)      0.00      0.00      0.00
                                0.00      0.00      0.00
                                0.00      0.00      0.00

     DFT-D   stress (kbar)      0.00      0.00      0.00
                                0.00      0.00      0.00
                                0.00      0.00      0.00

     XDM     stress (kbar)      0.00      0.00      0.00
                                0.00      0.00      0.00
                                0.00      0.00      0.00

     dft-nl  stress (kbar)      0.00      0.00      0.00
                                0.00      0.00      0.00
                                0.00      0.00      0.00

     TS-vdW  stress (kbar)      0.00      0.00      0.00
                                0.00      0.00      0.00
                                0.00      0.00      0.00

[...]

                                0.00      0.00      0.00

     Writing all to output data dir new_calculations/myprefix.save/

     General routines

     Parallel routines

     PAW routines

   This run was terminated on:   8:31:58  20May2023

   JOB DONE.