     Program PWSCF v.7.0 starts on 21May2023 at  4:23:49

     Reading input from espresso_8067.pwi
Warning: card &CELL ignored
Warning: card / ignored

     Current dimensions of program PWSCF are:
     Max number of different atomic species (ntypx) = 10
     Max number of k-points (npk) =  40000
     Max angular momentum in pseudopotentials (lmaxx) =  4
     file C.pbe-n-kjpaw_psl.1.0.0.UPF: wavefunction(s)  2S 2P renormalized

     gamma-point specific algorithms are used
     Message from routine setup:
     using ibrav=0 with symmetry is DISCOURAGED, use correct ibrav instead

     Subspace diagonalization in iterative solution of the eigenvalue problem:
     a serial algorithm will be used

     Using Slab Decomposition

     bravais-lattice index     =            0
     lattice parameter (alat)  =      12.7691  a.u.
     unit-cell volume          =    1268.1691 (a.u.)^3
     number of atoms/cell      =           16
     number of atomic types    =            3
     number of electrons       =       128.00
     number of Kohn-Sham states=           77
     kinetic-energy cutoff     =      30.0000  Ry
     charge density cutoff     =     240.0000  Ry
     scf convergence threshold =      1.0E-06
     mixing beta               =       0.7000
     number of iterations used =            8  plain     mixing
     Exchange-correlation= SLA  PW   PBX  PBC
                           (   1   4   3   4   0   0   0)

     celldm(1)=  12.769141  celldm(2)=   0.000000  celldm(3)=   0.000000
     celldm(4)=   0.000000  celldm(5)=   0.000000  celldm(6)=   0.000000

     crystal axes: (cart. coord. in units of alat)
               a(1) = (   1.000000   0.000000   0.000000 )
               a(2) = (  -0.653389   0.757022   0.000000 )
               a(3) = (   0.088957   0.194288   0.804607 )

     reciprocal axes: (cart. coord. in units 2 pi/alat)
               b(1) = (  1.000000  0.863105 -0.318973 )
               b(2) = (  0.000000  1.320965 -0.318973 )
               b(3) = (  0.000000  0.000000  1.242843 )

     PseudoPot. # 1 for Sc read from file:
     /home/pragov/projects/rrg-bengioy-ad/pragov/crystal_structure_design/SSSP/Sc_ONCV_PBE-1.0.oncvpsp.upf
     MD5 check sum: e21af8023abb52e52cb7cd3133e4a229
     Pseudo is Norm-conserving, Zval = 11.0
     Generated using ONCVPSP code by D. R. Hamann
     Using radial grid of 1662 points,  6 beta functions with:
                l(1) =   0
                l(2) =   0
                l(3) =   1
                l(4) =   1
                l(5) =   2
                l(6) =   2

     PseudoPot. # 2 for Ir read from file:
     /home/pragov/projects/rrg-bengioy-ad/pragov/crystal_structure_design/SSSP/Ir_pbe_v1.2.uspp.F.UPF
     MD5 check sum: 8836f839c3459d2b385c504ce6d91f2c
     Pseudo is Ultrasoft + core correction, Zval = 15.0
     Generated by new atomic code, or converted to UPF format
     Using radial grid of  983 points,  7 beta functions with:
                l(1) =   0
                l(2) =   0
                l(3) =   1
                l(4) =   1
                l(5) =   1
                l(6) =   2
                l(7) =   2
     Q(r) pseudized with  8 coefficients,  rinner =    1.400   1.400   1.400
                                                       1.400   1.400

     PseudoPot. # 3 for C  read from file:
     /home/pragov/projects/rrg-bengioy-ad/pragov/crystal_structure_design/SSSP/C.pbe-n-kjpaw_psl.1.0.0.UPF
     MD5 check sum: 5d2aebdfa2cae82b50a7e79e9516da0f
     Pseudo is Projector augmented-wave + core cor, Zval =  4.0
     Generated using "atomic" code by A. Dal Corso  v.5.1
     Shape of augmentation charge: PSQ
     Using radial grid of 1073 points,  4 beta functions with:
                l(1) =   0
                l(2) =   0
                l(3) =   1
                l(4) =   1
     Q(r) pseudized with 0 coefficients

     atomic species   valence    mass     pseudopotential
        Sc            11.00    44.95591     Sc( 1.00)
        Ir            15.00   192.21700     Ir( 1.00)
        C              4.00    12.01100     C ( 1.00)

      2 Sym. Ops., with inversion, found

                                    s                        frac. trans.

      isym =  1     identity

 cryst.   s( 1) = (     1          0          0      )
                  (     0          1          0      )
                  (     0          0          1      )

 cart.    s( 1) = (  1.0000000  0.0000000  0.0000000 )
                  (  0.0000000  1.0000000  0.0000000 )
                  (  0.0000000  0.0000000  1.0000000 )

      isym =  2     inversion

 cryst.   s( 2) = (    -1          0          0      )
                  (     0         -1          0      )
                  (     0          0         -1      )

 cart.    s( 2) = ( -1.0000000 -0.0000000 -0.0000000 )
                  (  0.0000000 -1.0000000 -0.0000000 )
                  (  0.0000000  0.0000000 -1.0000000 )

   Cartesian axes

     site n.     atom                  positions (alat units)
         1           Sc  tau(   1) = (   0.3317466   0.7245579   0.6140701  )
         2           Sc  tau(   2) = (  -0.0986865   0.6205544   0.4023033  )
         3           Sc  tau(   3) = (  -0.3399645   0.6135172   0.0000000  )
         4           Sc  tau(   4) = (   0.5342541   0.3307558   0.4023033  )
         5           Sc  tau(   5) = (   0.1038210   0.2267524   0.1905365  )
         6           Sc  tau(   6) = (   0.6865753   0.1435049   0.0000000  )
         7           Ir  tau(   7) = (   0.2769311   0.6048370   0.2187106  )
         8           Ir  tau(   8) = (   0.1586365   0.3464732   0.5858960  )
         9           C   tau(   9) = (   0.0139591   0.5930887   0.7389861  )
        10           C   tau(  10) = (   0.4398606   0.3980852   0.7389861  )
        11           C   tau(  11) = (  -0.0042929   0.5532251   0.0656205  )
        12           C   tau(  12) = (   0.4216086   0.3582215   0.0656205  )
        13           C   tau(  13) = (  -0.3624579   0.8347431   0.4678884  )
        14           C   tau(  14) = (   0.7980255   0.1165671   0.3367182  )
        15           C   tau(  15) = (   0.8687451   0.2710236   0.4678884  )
        16           C   tau(  16) = (  -0.4331775   0.6802866   0.3367182  )

   Crystallographic axes

     site n.     atom                  positions (cryst. coord.)
         1           Sc  tau(   1) = (  0.7612440  0.7612440  0.7631930  )
         2           Sc  tau(   2) = (  0.3085930  0.6914070  0.5000000  )
         3           Sc  tau(   3) = (  0.1895650  0.8104350  0.0000000  )
         4           Sc  tau(   4) = (  0.6914070  0.3085930  0.5000000  )
         5           Sc  tau(   5) = (  0.2387560  0.2387560  0.2368070  )
         6           Sc  tau(   6) = (  0.8104350  0.1895650  0.0000000  )
         7           Ir  tau(   7) = (  0.7292060  0.7292060  0.2718230  )
         8           Ir  tau(   8) = (  0.2707940  0.2707940  0.7281770  )
         9           C   tau(   9) = (  0.2901400  0.5477330  0.9184440  )
        10           C   tau(  10) = (  0.5477330  0.2901400  0.9184440  )
        11           C   tau(  11) = (  0.4522670  0.7098600  0.0815560  )
        12           C   tau(  12) = (  0.7098600  0.4522670  0.0815560  )
        13           C   tau(  13) = (  0.2087690  0.9534230  0.5815120  )
        14           C   tau(  14) = (  0.7912310  0.0465770  0.4184880  )
        15           C   tau(  15) = (  0.9534230  0.2087690  0.5815120  )
        16           C   tau(  16) = (  0.0465770  0.7912310  0.4184880  )

     number of k points=     1  Methfessel-Paxton smearing, width (Ry)=  0.0010
                       cart. coord. in units 2pi/alat
        k(    1) = (   0.0000000   0.0000000   0.0000000), wk =   2.0000000

                       cryst. coord.
        k(    1) = (   0.0000000   0.0000000   0.0000000), wk =   2.0000000

     Check: negative core charge=   -0.000020

     Initial potential from superposition of free atoms

     starting charge     126.9838, renormalised to     128.0000

     negative rho (up, down):  7.291E-01 0.000E+00
     Starting wfcs are  116 randomized atomic wfcs
     Checking if some PAW data can be deallocated...

     Self-consistent Calculation

     iteration #  1     ecut=    30.00 Ry     beta= 0.70
     Davidson diagonalization with overlap

     ethr =  1.00E-02,  avg # of iterations =  2.0

     negative rho (up, down):  5.436E-01 0.000E+00

     total energy              =   -1055.38418156 Ry
     estimated scf accuracy    <      10.86627257 Ry

[...]

     total energy              =   -1062.58360761 Ry
     estimated scf accuracy    <       0.00000510 Ry

     iteration # 24     ecut=    30.00 Ry     beta= 0.70
     Davidson diagonalization with overlap

     ethr =  3.96E-09,  avg # of iterations =  1.0

[...]

     End of self-consistent calculation

          k = 0.0000 0.0000 0.0000 (  1771 PWs)   bands (ev):

   -35.0851 -35.0710 -34.9201 -34.9175 -34.7342 -34.7196 -34.2513 -34.1807
   -34.1541 -34.1116 -34.0888 -34.0814 -13.9684 -13.7923 -13.7763 -13.7464
   -13.6754 -13.6746 -13.0056 -12.9811 -12.9147 -12.9011 -12.8749 -12.8408
   -12.8268 -12.8186 -12.6914 -12.6782 -12.6762 -12.6039  -0.5624   0.2994
     0.5569   0.5797   4.9090   5.8698   6.8471   7.2052   7.2604   7.5260
     8.3369   8.4014   9.1948   9.6966   9.8567   9.8646   9.9855  10.1080
    10.1549  10.7200  10.7893  10.8746  11.2395  11.3302  11.4600  12.2785
    12.5302  12.6922  13.0869  13.2837  13.9318  14.2371  14.6073  15.0298
    15.0458  15.2987  15.4084  15.8281  15.8936  16.0029  16.3398  16.4719
    17.4116  17.5690  17.8208  17.8622  18.0080

     occupation numbers
     1.0000   1.0000   1.0000   1.0000   1.0000   1.0000   1.0000   1.0000
     1.0000   1.0000   1.0000   1.0000   1.0000   1.0000   1.0000   1.0000
     1.0000   1.0000   1.0000   1.0000   1.0000   1.0000   1.0000   1.0000
     1.0000   1.0000   1.0000   1.0000   1.0000   1.0000   1.0000   1.0000
     1.0000   1.0000   1.0000   1.0000   1.0000   1.0000   1.0000   1.0000
     1.0000   1.0000   1.0000   1.0000   1.0000   1.0000   1.0000   1.0000
     1.0000   1.0000   1.0000   1.0000   1.0000   1.0000   1.0000   1.0000
     1.0000   1.0000   1.0000   1.0000   1.0000   1.0000   1.0000   0.9145
     0.0855  -0.0000  -0.0000  -0.0000  -0.0000  -0.0000  -0.0000  -0.0000
    -0.0000  -0.0000  -0.0000  -0.0000  -0.0000

     the Fermi energy is    15.0378 ev

!    total energy              =   -1062.58360746 Ry
     estimated scf accuracy    <       0.00000039 Ry
     smearing contrib. (-TS)   =      -0.00012329 Ry
     internal energy E=F+TS    =   -1062.58348416 Ry

     The total energy is F=E-TS. E is the sum of the following terms:
     one-electron contribution =    -202.12234722 Ry
     hartree contribution      =     168.02739726 Ry
     xc contribution           =    -209.88407171 Ry
     ewald contribution        =    -769.23540689 Ry
     one-center paw contrib.   =     -49.36905561 Ry
      -> PAW hartree energy AE =      61.10319910 Ry
      -> PAW hartree energy PS =     -61.03457313 Ry
      -> PAW xc energy AE      =     -81.78727829 Ry
      -> PAW xc energy PS      =      32.34959671 Ry
      -> total E_H with PAW    =     168.09602323 Ry
      -> total E_XC with PAW   =    -259.32175329 Ry

     convergence has been achieved in  24 iterations

     negative rho (up, down):  6.353E-01 0.000E+00

     Forces acting on atoms (cartesian axes, Ry/au):

     atom    1 type  1   force =    -0.00883555   -0.01929504   -0.01178245
     atom    2 type  1   force =     0.04214206   -0.01929782   -0.00000048
     atom    3 type  1   force =    -0.02705643    0.01238744    0.00000092
     atom    4 type  1   force =    -0.04214206    0.01929782    0.00000048
     atom    5 type  1   force =     0.00883555    0.01929504    0.01178245
     atom    6 type  1   force =     0.02705643   -0.01238744   -0.00000092
     atom    7 type  2   force =     0.01428737    0.03120864   -0.03733257
     atom    8 type  2   force =    -0.01428737   -0.03120864    0.03733257
     atom    9 type  3   force =    -0.03995192    0.04428487    0.01904652
     atom   10 type  3   force =     0.05962708   -0.00130831    0.01904672
     atom   11 type  3   force =    -0.05962708    0.00130831   -0.01904672
     atom   12 type  3   force =     0.03995192   -0.04428487   -0.01904652
     atom   13 type  3   force =     0.03986386   -0.03404460   -0.00979384
     atom   14 type  3   force =    -0.03986386    0.03404460    0.00979384
     atom   15 type  3   force =    -0.05181878    0.00793188   -0.00979241
     atom   16 type  3   force =     0.05181878   -0.00793188    0.00979241
     The non-local contrib.  to forces
     atom    1 type  1   force =    -0.00745086   -0.01627096   -0.01639207
     atom    2 type  1   force =    -0.05140635    0.02353913    0.00000000
     atom    3 type  1   force =     0.06318297   -0.02892625   -0.00000118
     atom    4 type  1   force =     0.05140635   -0.02353913   -0.00000000
     atom    5 type  1   force =     0.00745086    0.01627096    0.01639207
     atom    6 type  1   force =    -0.06318297    0.02892625    0.00000118
     atom    7 type  2   force =     0.00287466    0.00627938   -0.00586486
     atom    8 type  2   force =    -0.00287466   -0.00627938    0.00586486
     atom    9 type  3   force =     0.28288805    0.12710538    0.15972268
     atom   10 type  3   force =    -0.08861496    0.29720108    0.15972394
     atom   11 type  3   force =     0.08861496   -0.29720108   -0.15972394
     atom   12 type  3   force =    -0.28288805   -0.12710538   -0.15972268
     atom   13 type  3   force =    -0.27569253   -0.11469768   -0.17859331
     atom   14 type  3   force =     0.27569253    0.11469768    0.17859331
     atom   15 type  3   force =     0.09330661   -0.28364873   -0.17859446
     atom   16 type  3   force =    -0.09330661    0.28364873    0.17859446
     The ionic contribution  to forces
     atom    1 type  1   force =     0.26708535    0.58333313    0.58395523
     atom    2 type  1   force =    -5.92776129    2.71408934   -0.00000000
     atom    3 type  1   force =     4.66020896   -2.13372686    0.00000000
     atom    4 type  1   force =     5.92776129   -2.71408934   -0.00000000
     atom    5 type  1   force =    -0.26708535   -0.58333312   -0.58395523
     atom    6 type  1   force =    -4.66020896    2.13372686    0.00000000
     atom    7 type  2   force =     0.39840583    0.87014624   -1.50788745
     atom    8 type  2   force =    -0.39840583   -0.87014624    1.50788744
     atom    9 type  3   force =    -3.58808679    1.15551836   -0.14192958
     atom   10 type  3   force =     3.21917039   -1.96125764   -0.14192958
     atom   11 type  3   force =    -3.21917039    1.96125764    0.14192958
     atom   12 type  3   force =     3.58808679   -1.15551836    0.14192958
     atom   13 type  3   force =     3.50401556   -1.34448416    0.39578489
     atom   14 type  3   force =    -3.50401556    1.34448416   -0.39578489
     atom   15 type  3   force =    -3.30729042    1.77414564    0.39578489
     atom   16 type  3   force =     3.30729042   -1.77414564   -0.39578489
     The local contribution  to forces
     atom    1 type  1   force =    -0.26855111   -0.58638098   -0.57920756
     atom    2 type  1   force =     6.02159537   -2.75719656    0.00025395
     atom    3 type  1   force =    -4.75077158    2.17506913    0.00009643
     atom    4 type  1   force =    -6.02144107    2.75679172    0.00026354
     atom    5 type  1   force =     0.26840852    0.58634584    0.57928692
     atom    6 type  1   force =     4.75057905   -2.17525139    0.00011056
     atom    7 type  2   force =    -0.38669307   -0.84431586    1.47654535
     atom    8 type  2   force =     0.38660314    0.84455006   -1.47668638
     atom    9 type  3   force =     3.26952620   -1.23824308    0.00199015
     atom   10 type  3   force =    -3.07364268    1.66602238    0.00201896
     atom   11 type  3   force =     3.07374162   -1.66577695   -0.00241606
     atom   12 type  3   force =    -3.26936074    1.23848701   -0.00244939
     atom   13 type  3   force =    -3.19221023    1.42547983   -0.22851316
     atom   14 type  3   force =     3.19226631   -1.42513435    0.22822361
     atom   15 type  3   force =     3.16480240   -1.48518777   -0.22857150
     atom   16 type  3   force =    -3.16472139    1.48546336    0.22816052
     The core correction contribution to forces
     atom    1 type  1   force =     0.00000000    0.00000000    0.00000000
     atom    2 type  1   force =     0.00000000    0.00000000    0.00000000
     atom    3 type  1   force =     0.00000000    0.00000000    0.00000000
     atom    4 type  1   force =     0.00000000    0.00000000    0.00000000
     atom    5 type  1   force =     0.00000000    0.00000000    0.00000000
     atom    6 type  1   force =     0.00000000    0.00000000    0.00000000
     atom    7 type  2   force =    -0.00034853   -0.00075971   -0.00033845
     atom    8 type  2   force =     0.00032267    0.00070675    0.00041158
     atom    9 type  3   force =    -0.00388636    0.00001727   -0.00087289
     atom   10 type  3   force =     0.00255258   -0.00293073   -0.00087288
     atom   11 type  3   force =    -0.00255138    0.00293325    0.00086999
     atom   12 type  3   force =     0.00388766   -0.00001507    0.00086992
     atom   13 type  3   force =     0.00347913   -0.00014020    0.00132117
     atom   14 type  3   force =    -0.00347935    0.00014235   -0.00132515
     atom   15 type  3   force =    -0.00238006    0.00254280    0.00132160
     atom   16 type  3   force =     0.00238045   -0.00254028   -0.00132478
     The Hubbard contrib.    to forces
     atom    1 type  1   force =     0.00000000    0.00000000    0.00000000
     atom    2 type  1   force =     0.00000000    0.00000000    0.00000000
     atom    3 type  1   force =     0.00000000    0.00000000    0.00000000
     atom    4 type  1   force =     0.00000000    0.00000000    0.00000000
     atom    5 type  1   force =     0.00000000    0.00000000    0.00000000
     atom    6 type  1   force =     0.00000000    0.00000000    0.00000000
     atom    7 type  2   force =     0.00000000    0.00000000    0.00000000
     atom    8 type  2   force =     0.00000000    0.00000000    0.00000000
     atom    9 type  3   force =     0.00000000    0.00000000    0.00000000
     atom   10 type  3   force =     0.00000000    0.00000000    0.00000000
     atom   11 type  3   force =     0.00000000    0.00000000    0.00000000
     atom   12 type  3   force =     0.00000000    0.00000000    0.00000000
     atom   13 type  3   force =     0.00000000    0.00000000    0.00000000
     atom   14 type  3   force =     0.00000000    0.00000000    0.00000000
     atom   15 type  3   force =     0.00000000    0.00000000    0.00000000
     atom   16 type  3   force =     0.00000000    0.00000000    0.00000000
     The SCF correction term to forces
     atom    1 type  1   force =     0.00008775    0.00001738   -0.00013466
     atom    2 type  1   force =    -0.00030391    0.00024531   -0.00021602
     atom    3 type  1   force =     0.00030811   -0.00005170   -0.00006264
     atom    4 type  1   force =     0.00011316    0.00010959   -0.00022465
     atom    5 type  1   force =     0.00006821    0.00000497    0.00006209
     atom    6 type  1   force =    -0.00014577    0.00018773   -0.00008097
     atom    7 type  2   force =     0.00002543   -0.00018728    0.00028295
     atom    8 type  2   force =     0.00004426   -0.00008569   -0.00007484
     atom    9 type  3   force =    -0.00034085   -0.00001879    0.00002607
     atom   10 type  3   force =     0.00020335   -0.00026025   -0.00000737
     atom   11 type  3   force =    -0.00022030    0.00017859    0.00018006
     atom   12 type  3   force =     0.00027841   -0.00003880    0.00021596
     atom   13 type  3   force =     0.00027871   -0.00012755    0.00007171
     atom   14 type  3   force =    -0.00032099   -0.00007038   -0.00004789
     atom   15 type  3   force =    -0.00023556    0.00017521    0.00014668
     atom   16 type  3   force =     0.00019765   -0.00026278    0.00002674

     Total force =     0.198610     Total SCF correction =     0.001223

     Computing stress (Cartesian axis) and pressure

     negative rho (up, down):  6.353E-01 0.000E+00
          total   stress  (Ry/bohr**3)                   (kbar)     P=      -24.96
  -0.00040465   0.00009581  -0.00018570          -59.53       14.09      -27.32
   0.00009581  -0.00023923  -0.00040562           14.09      -35.19      -59.67
  -0.00018570  -0.00040562   0.00013495          -27.32      -59.67       19.85

     kinetic stress (kbar)  26405.85     61.28   -138.46
                               61.28  26511.62   -302.41
                             -138.46   -302.41  26578.65

     local   stress (kbar)   7563.29  -1943.04   -878.62
                            -1943.04   4209.21  -1918.96
                             -878.62  -1918.96   4565.99

     nonloc. stress (kbar)  -2739.72    -13.03    -47.38
                              -13.03  -2762.22   -103.47
                              -47.38   -103.47  -2667.08

     hartree stress (kbar)   5447.86    869.64    179.68
                              869.64   6949.04    392.44
                              179.68    392.44   7093.95

     exc-cor stress (kbar)   2950.69      1.53      3.45
                                1.53   2953.34      7.53
                                3.45      7.53   2949.04

     corecor stress (kbar)  -8948.08     -3.96      2.09
                               -3.96  -8954.92      4.57
                                2.09      4.57  -8951.60

     ewald   stress (kbar) -30739.41   1041.68    851.91
                             1041.68 -28941.26   1860.64
                              851.91   1860.64 -29549.10

     hubbard stress (kbar)      0.00      0.00      0.00
                                0.00      0.00      0.00
                                0.00      0.00      0.00

     DFT-D   stress (kbar)      0.00      0.00      0.00
                                0.00      0.00      0.00
                                0.00      0.00      0.00

     XDM     stress (kbar)      0.00      0.00      0.00
                                0.00      0.00      0.00
                                0.00      0.00      0.00

     dft-nl  stress (kbar)      0.00      0.00      0.00
                                0.00      0.00      0.00
                                0.00      0.00      0.00

     TS-vdW  stress (kbar)      0.00      0.00      0.00
                                0.00      0.00      0.00
                                0.00      0.00      0.00

[...]

                                0.00      0.00      0.00

     Writing all to output data dir new_calculations/myprefix.save/

     General routines

     Parallel routines

     PAW routines

   This run was terminated on:   4:24:18  21May2023

   JOB DONE.