     Program PWSCF v.7.0 starts on 20May2023 at 11:31:24

     Reading input from espresso_18275.pwi
Warning: card &CELL ignored
Warning: card / ignored

     Current dimensions of program PWSCF are:
     Max number of different atomic species (ntypx) = 10
     Max number of k-points (npk) =  40000
     Max angular momentum in pseudopotentials (lmaxx) =  4

     gamma-point specific algorithms are used
     Message from routine setup:
     using ibrav=0 with symmetry is DISCOURAGED, use correct ibrav instead

     Subspace diagonalization in iterative solution of the eigenvalue problem:
     a serial algorithm will be used

     Using Slab Decomposition

     bravais-lattice index     =            0
     lattice parameter (alat)  =      14.6081  a.u.
     unit-cell volume          =    2701.9113 (a.u.)^3
     number of atoms/cell      =           15
     number of atomic types    =            2
     number of electrons       =       189.00
     number of Kohn-Sham states=          114
     kinetic-energy cutoff     =      30.0000  Ry
     charge density cutoff     =     240.0000  Ry
     scf convergence threshold =      1.0E-06
     mixing beta               =       0.7000
     number of iterations used =            8  plain     mixing
     Exchange-correlation= SLA  PW   PBE  PBE
                           (   1   4   3   4   0   0   0)

     celldm(1)=  14.608114  celldm(2)=   0.000000  celldm(3)=   0.000000
     celldm(4)=   0.000000  celldm(5)=   0.000000  celldm(6)=   0.000000

     crystal axes: (cart. coord. in units of alat)
               a(1) = (   1.000000   0.000000   0.000000 )
               a(2) = (   0.325413   0.945572   0.000000 )
               a(3) = (   0.325413   0.232155   0.916630 )

     reciprocal axes: (cart. coord. in units 2 pi/alat)
               b(1) = (  1.000000 -0.344144 -0.267849 )
               b(2) = (  0.000000  1.057561 -0.267849 )
               b(3) = (  0.000000  0.000000  1.090953 )

     PseudoPot. # 1 for La read from file:
     /home/pragov/projects/rrg-bengioy-ad/pragov/crystal_structure_design/SSSP/La.GGA-PBE-paw-v1.0.UPF
     MD5 check sum: 436541e95c1ad8901025bd0b0ed42ae2
     Pseudo is Projector augmented-wave + core cor, Zval = 11.0
     Generated using ATOMPAW code
     Shape of augmentation charge: BESSEL
     Using radial grid of 1101 points,  8 beta functions with:
                l(1) =   0
                l(2) =   0
                l(3) =   1
                l(4) =   1
                l(5) =   2
                l(6) =   2
                l(7) =   3
                l(8) =   3
     Q(r) pseudized with 0 coefficients

     PseudoPot. # 2 for Ir read from file:
     /home/pragov/projects/rrg-bengioy-ad/pragov/crystal_structure_design/SSSP/Ir_pbe_v1.2.uspp.F.UPF
     MD5 check sum: 8836f839c3459d2b385c504ce6d91f2c
     Pseudo is Ultrasoft + core correction, Zval = 15.0
     Generated by new atomic code, or converted to UPF format
     Using radial grid of  983 points,  7 beta functions with:
                l(1) =   0
                l(2) =   0
                l(3) =   1
                l(4) =   1
                l(5) =   1
                l(6) =   2
                l(7) =   2
     Q(r) pseudized with  8 coefficients,  rinner =    1.400   1.400   1.400
                                                       1.400   1.400

     atomic species   valence    mass     pseudopotential
        La            11.00   138.90547     La( 1.00)
        Ir            15.00   192.21700     Ir( 1.00)

      2 Sym. Ops., with inversion, found

                                    s                        frac. trans.

      isym =  1     identity

 cryst.   s( 1) = (     1          0          0      )
                  (     0          1          0      )
                  (     0          0          1      )

 cart.    s( 1) = (  1.0000000 -0.0000000  0.0000000 )
                  (  0.0000000  1.0000000  0.0000000 )
                  (  0.0000000  0.0000000  1.0000000 )

      isym =  2     inversion

 cryst.   s( 2) = (    -1          0          0      )
                  (     0         -1          0      )
                  (     0          0         -1      )

 cart.    s( 2) = ( -1.0000000  0.0000000 -0.0000000 )
                  (  0.0000000 -1.0000000 -0.0000000 )
                  (  0.0000000  0.0000000 -1.0000000 )

   Cartesian axes

     site n.     atom                  positions (alat units)
         1           La  tau(   1) = (   0.0000000   0.0000000   0.0000000  )
         2           La  tau(   2) = (   1.3181171   0.9403668   0.7318914  )
         3           La  tau(   3) = (   0.3327092   0.2373603   0.1847385  )
         4           La  tau(   4) = (   0.5079220   0.5253330   0.6126763  )
         5           La  tau(   5) = (   0.8488406   0.2450348   0.3588304  )
         6           La  tau(   6) = (   0.6620246   0.6698688   0.1494354  )
         7           La  tau(   7) = (   1.1429043   0.6523941   0.3039536  )
         8           La  tau(   8) = (   0.8019856   0.9326923   0.5577995  )
         9           La  tau(   9) = (   0.9888017   0.5078583   0.7671945  )
        10           Ir  tau(  10) = (   1.2036171   0.2898399   0.5394065  )
        11           Ir  tau(  11) = (   0.9533967   0.9447926   0.1485344  )
        12           Ir  tau(  12) = (   0.6657373   0.7791655   0.8794065  )
        13           Ir  tau(  13) = (   0.4472091   0.8878872   0.3772235  )
        14           Ir  tau(  14) = (   0.6974296   0.2329345   0.7680955  )
        15           Ir  tau(  15) = (   0.9850890   0.3985616   0.0372234  )

   Crystallographic axes

     site n.     atom                  positions (cryst. coord.)
         1           La  tau(   1) = (  0.0000000  0.0000000  0.0000000  )
         2           La  tau(   2) = (  0.7984590  0.7984590  0.7984590  )
         3           La  tau(   3) = (  0.2015410  0.2015410  0.2015410  )
         4           La  tau(   4) = (  0.1630270  0.3914670  0.6684010  )
         5           La  tau(   5) = (  0.6684010  0.1630270  0.3914670  )
         6           La  tau(   6) = (  0.3914670  0.6684010  0.1630270  )
         7           La  tau(   7) = (  0.8369730  0.6085330  0.3315990  )
         8           La  tau(   8) = (  0.3315990  0.8369730  0.6085330  )
         9           La  tau(   9) = (  0.6085330  0.3315990  0.8369730  )
        10           Ir  tau(  10) = (  0.9593910  0.1620440  0.5884670  )
        11           Ir  tau(  11) = (  0.5884670  0.9593910  0.1620440  )
        12           Ir  tau(  12) = (  0.1620440  0.5884670  0.9593910  )
        13           Ir  tau(  13) = (  0.0406090  0.8379560  0.4115330  )
        14           Ir  tau(  14) = (  0.4115330  0.0406090  0.8379560  )
        15           Ir  tau(  15) = (  0.8379560  0.4115330  0.0406090  )

     number of k points=     1  Methfessel-Paxton smearing, width (Ry)=  0.0010
                       cart. coord. in units 2pi/alat
        k(    1) = (   0.0000000   0.0000000   0.0000000), wk =   2.0000000

                       cryst. coord.
        k(    1) = (   0.0000000   0.0000000   0.0000000), wk =   2.0000000

     Initial potential from superposition of free atoms

     starting charge     185.9230, renormalised to     189.0000

     negative rho (up, down):  2.214E+00 0.000E+00
     Starting wfcs are  360 randomized atomic wfcs
     Checking if some PAW data can be deallocated...

     Self-consistent Calculation

     iteration #  1     ecut=    30.00 Ry     beta= 0.70
     Davidson diagonalization with overlap

     ethr =  1.00E-02,  avg # of iterations =  2.0

     negative rho (up, down):  1.705E+00 0.000E+00

     total energy              =   -5206.02987367 Ry
     estimated scf accuracy    <      13.38408879 Ry

[...]

     c_bands:  1 eigenvalues not converged
     ethr =  1.38E-04,  avg # of iterations = 20.0

[...]

     c_bands:  1 eigenvalues not converged
     ethr =  1.29E-05,  avg # of iterations = 20.0

[...]

     ethr =  1.25E-06,  avg # of iterations = 14.0
     Minimization algorithm failed to find Fermi energy: reverting to bisection
     Possible cause: smearing is larger than the electronic band-gap.

[...]

     ethr =  1.15E-08,  avg # of iterations =  2.0
     Minimization algorithm failed to find Fermi energy: reverting to bisection
     Possible cause: smearing is larger than the electronic band-gap.

[...]

     total energy              =   -5215.33457239 Ry
     estimated scf accuracy    <       0.00001090 Ry

     iteration # 30     ecut=    30.00 Ry     beta= 0.70
     Davidson diagonalization with overlap

     ethr =  1.72E-09,  avg # of iterations =  1.0

[...]

     End of self-consistent calculation

          k = 0.0000 0.0000 0.0000 (  3775 PWs)   bands (ev):

   -33.9858 -33.9854 -33.9853 -33.9631 -33.9624 -33.9623 -33.8974 -33.8974
   -33.8973 -33.8689 -33.8689 -33.8688 -33.8502 -33.8493 -33.8492 -33.8490
   -33.8489 -33.8479 -18.1865 -18.0649 -18.0649 -18.0624 -18.0624 -18.0542
   -17.9485 -17.8463 -17.8239  -2.5202  -2.5201  -2.5199  -2.4251  -2.4250
    -2.2671  -2.1319  -2.1068  -2.1068  -2.0347  -1.8759  -1.8759  -1.8483
    -1.7939  -1.7796  -1.7795  -1.7521  -1.7521  -1.5961  -1.5743  -1.5258
    -1.5258  -1.5148  -1.5148  -1.3956  -1.3955  -1.2260   9.1354  10.3669
    10.3669  11.1069  11.1069  11.1196  11.2768  11.3541  11.4455  11.4456
    11.4743  11.4743  11.6045  11.6045  11.6086  11.6133  11.6515  11.6515
    11.8648  11.8649  11.9862  12.0682  12.1409  12.1410  12.2809  12.3260
    12.3464  12.3465  12.5854  12.5855  12.6280  12.8165  12.8801  12.8801
    13.0380  13.0380  13.9845  14.0592  14.0927  14.0930  14.0930  14.4938
    14.4939  14.7347  14.7347  15.0951  15.2118  15.3925  15.4196  15.4196
    15.5425  15.5425  15.8009  15.8050  15.8051  15.8950  15.8950  16.1414
    16.2436  16.2444

     occupation numbers
     1.0000   1.0000   1.0000   1.0000   1.0000   1.0000   1.0000   1.0000
     1.0000   1.0000   1.0000   1.0000   1.0000   1.0000   1.0000   1.0000
     1.0000   1.0000   1.0000   1.0000   1.0000   1.0000   1.0000   1.0000
     1.0000   1.0000   1.0000   1.0000   1.0000   1.0000   1.0000   1.0000
     1.0000   1.0000   1.0000   1.0000   1.0000   1.0000   1.0000   1.0000
     1.0000   1.0000   1.0000   1.0000   1.0000   1.0000   1.0000   1.0000
     1.0000   1.0000   1.0000   1.0000   1.0000   1.0000   1.0000   1.0000
     1.0000   1.0000   1.0000   1.0000   1.0000   1.0000   1.0000   1.0000
     1.0000   1.0000   1.0000   1.0000   1.0000   1.0000   1.0000   1.0000
     1.0000   1.0000   1.0000   1.0000   1.0000   1.0000   1.0000   1.0000
     1.0000   1.0000   1.0000   1.0000   1.0000   1.0000   1.0000   1.0000
     1.0000   1.0000   1.0000   1.0002   0.8426   0.8291   0.8282  -0.0000
    -0.0000  -0.0000  -0.0000  -0.0000  -0.0000  -0.0000  -0.0000  -0.0000
    -0.0000  -0.0000  -0.0000  -0.0000  -0.0000  -0.0000  -0.0000  -0.0000
    -0.0000  -0.0000

     the Fermi energy is    14.0988 ev

!    total energy              =   -5215.33457242 Ry
     estimated scf accuracy    <       0.00000048 Ry
     smearing contrib. (-TS)   =      -0.00043171 Ry
     internal energy E=F+TS    =   -5215.33414071 Ry

     The total energy is F=E-TS. E is the sum of the following terms:
     one-electron contribution =    -375.24925905 Ry
     hartree contribution      =     306.65142200 Ry
     xc contribution           =    -381.62778969 Ry
     ewald contribution        =   -1182.25419734 Ry
     one-center paw contrib.   =   -3582.85431664 Ry
      -> PAW hartree energy AE =     319.53803820 Ry
      -> PAW hartree energy PS =    -319.90813060 Ry
      -> PAW xc energy AE      =   -3648.74563013 Ry
      -> PAW xc energy PS      =      66.26140589 Ry
      -> total E_H with PAW    =     306.28132960 Ry
      -> total E_XC with PAW   =   -3964.11201392 Ry

     convergence has been achieved in  30 iterations

     negative rho (up, down):  1.917E+00 0.000E+00

     Forces acting on atoms (cartesian axes, Ry/au):

     atom    1 type  1   force =     0.00000000    0.00000000    0.00000000
     atom    2 type  1   force =    -0.03117624   -0.02223980   -0.01738086
     atom    3 type  1   force =     0.03117624    0.02223980    0.01738086
     atom    4 type  1   force =     0.02091444   -0.01304168   -0.01288326
     atom    5 type  1   force =    -0.00800432    0.02483968   -0.00947194
     atom    6 type  1   force =    -0.00553780   -0.00658226    0.02642783
     atom    7 type  1   force =    -0.02091444    0.01304168    0.01288326
     atom    8 type  1   force =     0.00800432   -0.02483968    0.00947194
     atom    9 type  1   force =     0.00553780    0.00658226   -0.02642783
     atom   10 type  2   force =     0.00541779   -0.01179905    0.00533616
     atom   11 type  2   force =     0.00394599    0.00437344   -0.01262768
     atom   12 type  2   force =    -0.00930555    0.00746118    0.00730344
     atom   13 type  2   force =    -0.00541779    0.01179905   -0.00533616
     atom   14 type  2   force =    -0.00394599   -0.00437344    0.01262768
     atom   15 type  2   force =     0.00930555   -0.00746118   -0.00730344
     The non-local contrib.  to forces
     atom    1 type  1   force =     0.00000000    0.00000000    0.00000000
     atom    2 type  1   force =     0.01909983    0.01360963    0.01057984
     atom    3 type  1   force =    -0.01909983   -0.01360963   -0.01057984
     atom    4 type  1   force =    -0.02888538    0.14471307   -0.03992118
     atom    5 type  1   force =    -0.01233600   -0.02625660    0.15012033
     atom    6 type  1   force =     0.12741147   -0.05696729   -0.06225756
     atom    7 type  1   force =     0.02888538   -0.14471307    0.03992118
     atom    8 type  1   force =     0.01233600    0.02625660   -0.15012033
     atom    9 type  1   force =    -0.12741147    0.05696729    0.06225756
     atom   10 type  2   force =    -0.00702400   -0.00764176   -0.02399142
     atom   11 type  2   force =    -0.02605952    0.00151766   -0.00151056
     atom   12 type  2   force =    -0.00950626   -0.02425035    0.00184955
     atom   13 type  2   force =     0.00702400    0.00764176    0.02399142
     atom   14 type  2   force =     0.02605952   -0.00151766    0.00151056
     atom   15 type  2   force =     0.00950626    0.02425035   -0.00184955
     The ionic contribution  to forces
     atom    1 type  1   force =     0.00000000   -0.00000000   -0.00000000
     atom    2 type  1   force =    -4.96870916   -3.54476076   -2.75890335
     atom    3 type  1   force =     4.96870916    3.54476076    2.75890334
     atom    4 type  1   force =     3.25813156    1.06840465   -8.91120764
     atom    5 type  1   force =    -6.86000437    5.80650472    3.22356678
     atom    6 type  1   force =     2.07049131   -7.96742014    4.83733448
     atom    7 type  1   force =    -3.25813156   -1.06840466    8.91120764
     atom    8 type  1   force =     6.86000437   -5.80650472   -3.22356678
     atom    9 type  1   force =    -2.07049131    7.96742014   -4.83733448
     atom   10 type  2   force =     0.81380681    7.92239238   -1.52764953
     atom   11 type  2   force =     0.70375887    0.61845615    8.05496910
     atom   12 type  2   force =     7.75601493   -1.92491954   -1.37811642
     atom   13 type  2   force =    -0.81380681   -7.92239238    1.52764953
     atom   14 type  2   force =    -0.70375887   -0.61845615   -8.05496910
     atom   15 type  2   force =    -7.75601493    1.92491954    1.37811642
     The local contribution  to forces
     atom    1 type  1   force =     0.00012369    0.00031782   -0.00009153
     atom    2 type  1   force =     4.91844044    3.50893389    2.73073925
     atom    3 type  1   force =    -4.91854490   -3.50886864   -2.73079695
     atom    4 type  1   force =    -3.20825410   -1.22632491    8.93806042
     atom    5 type  1   force =     6.86425912   -5.75516723   -3.38309300
     atom    6 type  1   force =    -2.20343290    8.01755581   -4.74845093
     atom    7 type  1   force =     3.20824415    1.22584330   -8.93787245
     atom    8 type  1   force =    -6.86425680    5.75546525    3.38300727
     atom    9 type  1   force =     2.20339412   -8.01768986    4.74852095
     atom   10 type  2   force =    -0.80231438   -7.91509340    1.56080508
     atom   11 type  2   force =    -0.66773568   -0.61819227   -8.05588924
     atom   12 type  2   force =    -7.74518794    1.95891355    1.37791130
     atom   13 type  2   force =     0.80270525    7.91561153   -1.56094017
     atom   14 type  2   force =     0.66742142    0.61901730    8.05566827
     atom   15 type  2   force =     7.74528795   -1.95984751   -1.37789898
     The core correction contribution to forces
     atom    1 type  1   force =     0.00000003    0.00000005    0.00000000
     atom    2 type  1   force =    -0.00006434   -0.00004586   -0.00003573
     atom    3 type  1   force =     0.00006432    0.00004589    0.00003572
     atom    4 type  1   force =     0.00010298   -0.00006474   -0.00003574
     atom    5 type  1   force =    -0.00001435    0.00011379   -0.00005398
     atom    6 type  1   force =    -0.00002770   -0.00000563    0.00012348
     atom    7 type  1   force =    -0.00010298    0.00006467    0.00003578
     atom    8 type  1   force =     0.00001435   -0.00011375    0.00005396
     atom    9 type  1   force =     0.00002768    0.00000562   -0.00012347
     atom   10 type  2   force =     0.00107285   -0.01112244   -0.00390090
     atom   11 type  2   force =    -0.00582712    0.00313751   -0.00981484
     atom   12 type  2   force =    -0.01015762   -0.00264120    0.00545270
     atom   13 type  2   force =    -0.00107077    0.01112681    0.00389742
     atom   14 type  2   force =     0.00582604   -0.00313663    0.00981340
     atom   15 type  2   force =     0.01015639    0.00263726   -0.00545146
     The Hubbard contrib.    to forces
     atom    1 type  1   force =     0.00000000    0.00000000    0.00000000
     atom    2 type  1   force =     0.00000000    0.00000000    0.00000000
     atom    3 type  1   force =     0.00000000    0.00000000    0.00000000
     atom    4 type  1   force =     0.00000000    0.00000000    0.00000000
     atom    5 type  1   force =     0.00000000    0.00000000    0.00000000
     atom    6 type  1   force =     0.00000000    0.00000000    0.00000000
     atom    7 type  1   force =     0.00000000    0.00000000    0.00000000
     atom    8 type  1   force =     0.00000000    0.00000000    0.00000000
     atom    9 type  1   force =     0.00000000    0.00000000    0.00000000
     atom   10 type  2   force =     0.00000000    0.00000000    0.00000000
     atom   11 type  2   force =     0.00000000    0.00000000    0.00000000
     atom   12 type  2   force =     0.00000000    0.00000000    0.00000000
     atom   13 type  2   force =     0.00000000    0.00000000    0.00000000
     atom   14 type  2   force =     0.00000000    0.00000000    0.00000000
     atom   15 type  2   force =     0.00000000    0.00000000    0.00000000
     The SCF correction term to forces
     atom    1 type  1   force =    -0.00010157   -0.00027263    0.00009311
     atom    2 type  1   force =     0.00004920    0.00003611    0.00022734
     atom    3 type  1   force =     0.00003971   -0.00007578   -0.00019318
     atom    4 type  1   force =    -0.00017844    0.00019428    0.00023636
     atom    5 type  1   force =     0.00009300   -0.00033517   -0.00001937
     atom    6 type  1   force =     0.00001069    0.00023959   -0.00031417
     atom    7 type  1   force =     0.00019276    0.00021547   -0.00039339
     atom    8 type  1   force =    -0.00009189    0.00007678    0.00009053
     atom    9 type  1   force =     0.00000947   -0.00013632    0.00025906
     atom   10 type  2   force =    -0.00012030   -0.00030193    0.00006861
     atom   11 type  2   force =    -0.00019397   -0.00049916   -0.00039577
     atom   12 type  2   force =    -0.00045983    0.00030722    0.00021586
     atom   13 type  2   force =    -0.00026626   -0.00015677    0.00006131
     atom   14 type  2   force =     0.00050248   -0.00023384    0.00059093
     atom   15 type  2   force =     0.00037871    0.00052767   -0.00021030

     Total force =     0.096666     Total SCF correction =     0.001752

     Computing stress (Cartesian axis) and pressure

     negative rho (up, down):  1.917E+00 0.000E+00
          total   stress  (Ry/bohr**3)                   (kbar)     P=      -12.75
  -0.00012994  -0.00007824  -0.00006101          -19.11      -11.51       -8.98
  -0.00007824  -0.00007602  -0.00004344          -11.51      -11.18       -6.39
  -0.00006101  -0.00004344  -0.00005414           -8.98       -6.39       -7.96

     kinetic stress (kbar)  16133.35     27.31     21.26
                               27.31  16114.55     15.17
                               21.26     15.17  16106.88

     local   stress (kbar)  -3022.08  -1352.30  -1052.56
                            -1352.30  -2091.29   -750.87
                            -1052.56   -750.87  -1711.09

     nonloc. stress (kbar)   6529.01    -21.43    -16.66
                              -21.43   6543.75    -11.89
                              -16.66    -11.89   6549.76

     hartree stress (kbar)   5928.23    657.03    511.38
                              657.03   5476.01    364.81
                              511.38    364.81   5291.34

     exc-cor stress (kbar)   6680.76      0.48      0.37
                                0.48   6680.43      0.27
                                0.37      0.27   6680.29

     corecor stress (kbar) -11187.15     -0.54     -0.42
                               -0.54 -11186.77     -0.30
                               -0.42     -0.30 -11186.62

     ewald   stress (kbar) -21081.23    677.94    527.65
                              677.94 -21547.85    376.43
                              527.65    376.43 -21738.53

     hubbard stress (kbar)      0.00      0.00      0.00
                                0.00      0.00      0.00
                                0.00      0.00      0.00

     DFT-D   stress (kbar)      0.00      0.00      0.00
                                0.00      0.00      0.00
                                0.00      0.00      0.00

     XDM     stress (kbar)      0.00      0.00      0.00
                                0.00      0.00      0.00
                                0.00      0.00      0.00

     dft-nl  stress (kbar)      0.00      0.00      0.00
                                0.00      0.00      0.00
                                0.00      0.00      0.00

     TS-vdW  stress (kbar)      0.00      0.00      0.00
                                0.00      0.00      0.00
                                0.00      0.00      0.00

[...]

                                0.00      0.00      0.00

     Writing all to output data dir new_calculations/myprefix.save/

     General routines

     Parallel routines

     PAW routines

   This run was terminated on:  11:34:47  20May2023

   JOB DONE.