     Program PWSCF v.7.1 starts on 16Jul2023 at 17:11:19

     Reading input from espresso_15905.pwi
Warning: card &CELL ignored
Warning: card / ignored

     Current dimensions of program PWSCF are:
     Max number of different atomic species (ntypx) = 10
     Max number of k-points (npk) =  40000
     Max angular momentum in pseudopotentials (lmaxx) =  4
     Message from routine setup:
     using ibrav=0 with symmetry is DISCOURAGED, use correct ibrav instead

     K-points division:     npool     =       2
     R & G space division:  proc/nbgrp/npool/nimage =       4
     Subspace diagonalization in iterative solution of the eigenvalue problem:
     a serial algorithm will be used

     Using Slab Decomposition

     bravais-lattice index     =            0
     lattice parameter (alat)  =      13.3797  a.u.
     unit-cell volume          =    1235.1699 (a.u.)^3
     number of atoms/cell      =            9
     number of atomic types    =            3
     number of electrons       =       102.00
     number of Kohn-Sham states=           61
     kinetic-energy cutoff     =      30.0000  Ry
     charge density cutoff     =     240.0000  Ry
     scf convergence threshold =      1.0E-06
     mixing beta               =       0.7000
     number of iterations used =            8  plain     mixing
     Exchange-correlation= PBE
                           (   1   4   3   4   0   0   0)

     celldm(1)=  13.379694  celldm(2)=   0.000000  celldm(3)=   0.000000
     celldm(4)=   0.000000  celldm(5)=   0.000000  celldm(6)=   0.000000

     crystal axes: (cart. coord. in units of alat)
               a(1) = (   1.000000   0.000000   0.000000 )
               a(2) = (  -0.500000   0.866025   0.000000 )
               a(3) = (   0.000000   0.000000   0.595467 )

     reciprocal axes: (cart. coord. in units 2 pi/alat)
               b(1) = (  1.000000  0.577350  0.000000 )
               b(2) = (  0.000000  1.154700  0.000000 )
               b(3) = (  0.000000  0.000000  1.679355 )

     PseudoPot. # 1 for Y  read from file:
     /lustre07/scratch/pragov/crystal_structure_design/utils/SSSP/Y_pbe_v1.uspp.F.UPF
     MD5 check sum: 2cf71db95cafeb975fc457bd7f14888e
     Pseudo is Ultrasoft + core correction, Zval = 11.0
     Generated by new atomic code, or converted to UPF format
     Using radial grid of  885 points,  6 beta functions with:
                l(1) =   0
                l(2) =   0
                l(3) =   1
                l(4) =   1
                l(5) =   2
                l(6) =   2
     Q(r) pseudized with  6 coefficients,  rinner =    1.200   1.200   1.200
                                                       1.200   1.200

     PseudoPot. # 2 for Si read from file:
     /lustre07/scratch/pragov/crystal_structure_design/utils/SSSP/Si.pbe-n-rrkjus_psl.1.0.0.UPF
     MD5 check sum: 0b0bb1205258b0d07b9f9672cf965d36
     Pseudo is Ultrasoft + core correction, Zval =  4.0
     Generated using "atomic" code by A. Dal Corso  v.5.1
     Using radial grid of 1141 points,  6 beta functions with:
                l(1) =   0
                l(2) =   0
                l(3) =   1
                l(4) =   1
                l(5) =   2
                l(6) =   2
     Q(r) pseudized with 0 coefficients

     PseudoPot. # 3 for Ag read from file:
     /lustre07/scratch/pragov/crystal_structure_design/utils/SSSP/Ag_ONCV_PBE-1.0.oncvpsp.upf
     MD5 check sum: 94f47bd0669c641108e45594df92fabc
     Pseudo is Norm-conserving, Zval = 19.0
     Generated using ONCVPSP code by D. R. Hamann
     Using radial grid of 1398 points,  6 beta functions with:
                l(1) =   0
                l(2) =   0
                l(3) =   1
                l(4) =   1
                l(5) =   2
                l(6) =   2

     atomic species   valence    mass     pseudopotential
        Y             11.00    88.90584     Y ( 1.00)
        Si             4.00    28.08500     Si( 1.00)
        Ag            19.00   107.86820     Ag( 1.00)

     12 Sym. Ops. (no inversion) found

                                    s                        frac. trans.

      isym =  1     identity

 cryst.   s( 1) = (     1          0          0      )
                  (     0          1          0      )
                  (     0          0          1      )

 cart.    s( 1) = (  1.0000000  0.0000000  0.0000000 )
                  (  0.0000000  1.0000000  0.0000000 )
                  (  0.0000000  0.0000000  1.0000000 )

      isym =  2     180 deg rotation - cart. axis [1,0,0]

[...]

      isym =  3     120 deg rotation - cryst. axis [0,0,1]

[...]

      isym =  6     180 deg rotation - cryst. axis [1,1,0]

[...]

      isym =  7     inv. 180 deg rotation - cart. axis [0,0,1]

[...]

      isym =  8     inv. 180 deg rotation - cart. axis [0,1,0]

[...]

      isym =  9     inv.  60 deg rotation - cryst. axis [0,0,1]

 cryst.   s( 9) = (    -1         -1          0      )
                  (     1          0          0      )
                  (     0          0         -1      )

 cart.    s( 9) = ( -0.5000001  0.8660253  0.0000000 )
                  ( -0.8660255 -0.4999999  0.0000000 )
                  (  0.0000000  0.0000000 -1.0000000 )

[...]

 cryst.   s(10) = (     0          1          0      )
                  (    -1         -1          0      )
                  (     0          0         -1      )

 cart.    s(10) = ( -0.4999999 -0.8660253  0.0000000 )
                  (  0.8660255 -0.5000001  0.0000000 )
                  (  0.0000000  0.0000000 -1.0000000 )

[...]

      isym = 12     inv. 180 deg rotation - cryst. axis [2,1,0]

 cryst.   s(12) = (    -1         -1          0      )
                  (     0          1          0      )
                  (     0          0          1      )

 cart.    s(12) = ( -0.5000001 -0.8660252  0.0000000 )
                  ( -0.8660255  0.5000001  0.0000000 )
                  (  0.0000000  0.0000000  1.0000000 )

   Cartesian axes

     site n.     atom                  positions (alat units)
         1           Y   tau(   1) = (  -0.2085319   0.3611880   0.2977334  )
         2           Y   tau(   2) = (   0.2914681   0.5048374   0.2977334  )
         3           Y   tau(   3) = (   0.4170640   0.0000000   0.2977334  )
         4           Si  tau(   4) = (  -0.0000004   0.5773506   0.0000000  )
         5           Si  tau(   5) = (   0.5000005   0.2886749   0.0000000  )
         6           Si  tau(   6) = (   0.0000000   0.0000000   0.2977334  )
         7           Ag  tau(   7) = (  -0.3743024   0.6483110   0.0000000  )
         8           Ag  tau(   8) = (   0.1256975   0.2177145   0.0000000  )
         9           Ag  tau(   9) = (   0.7486050   0.0000000   0.0000000  )

   Crystallographic axes

     site n.     atom                  positions (cryst. coord.)
         1           Y   tau(   1) = (  0.0000000  0.4170640  0.5000000  )
         2           Y   tau(   2) = (  0.5829360  0.5829360  0.5000000  )
         3           Y   tau(   3) = (  0.4170640  0.0000000  0.5000000  )
         4           Si  tau(   4) = (  0.3333330  0.6666670  0.0000000  )
         5           Si  tau(   5) = (  0.6666670  0.3333330  0.0000000  )
         6           Si  tau(   6) = (  0.0000000  0.0000000  0.5000000  )
         7           Ag  tau(   7) = (  0.0000000  0.7486050  0.0000000  )
         8           Ag  tau(   8) = (  0.2513950  0.2513950  0.0000000  )
         9           Ag  tau(   9) = (  0.7486050  0.0000000  0.0000000  )

     number of k points=     6  Gaussian smearing, width (Ry)=  0.0010
                       cart. coord. in units 2pi/alat
        k(    1) = (   0.0000000   0.0000000   0.0000000), wk =   0.0740741
        k(    2) = (   0.0000000   0.0000000   0.5597850), wk =   0.1481481
        k(    3) = (   0.0000000   0.3849001   0.0000000), wk =   0.4444444
        k(    4) = (   0.0000000   0.3849001   0.5597850), wk =   0.8888889
        k(    5) = (   0.3333333   0.5773502   0.0000000), wk =   0.1481481
        k(    6) = (   0.3333333   0.5773502   0.5597850), wk =   0.2962963

                       cryst. coord.
        k(    1) = (   0.0000000   0.0000000   0.0000000), wk =   0.0740741
        k(    2) = (   0.0000000   0.0000000   0.3333333), wk =   0.1481481
        k(    3) = (   0.0000000   0.3333333   0.0000000), wk =   0.4444444
        k(    4) = (   0.0000000   0.3333333   0.3333333), wk =   0.8888889
        k(    5) = (   0.3333333   0.3333333   0.0000000), wk =   0.1481481
        k(    6) = (   0.3333333   0.3333333   0.3333333), wk =   0.2962963

     Check: negative core charge=   -0.000004

     Initial potential from superposition of free atoms

     starting charge     101.9840, renormalised to     102.0000

     negative rho (up, down):  1.291E-01 0.000E+00
     Starting wfcs are   81 randomized atomic wfcs

     Self-consistent Calculation

     iteration #  1     ecut=    30.00 Ry     beta= 0.70
     Davidson diagonalization with overlap

     ethr =  1.00E-02,  avg # of iterations =  2.2

     Threshold (ethr) on eigenvalues was too large:
     Diagonalizing with lowered threshold

     Davidson diagonalization with overlap

[...]

     negative rho (up, down):  1.296E-01 0.000E+00

     total energy              =   -1158.36430200 Ry
     estimated scf accuracy    <       0.21967430 Ry

[...]

     total energy              =   -1158.42751487 Ry
     estimated scf accuracy    <       0.00002643 Ry

     iteration #  8     ecut=    30.00 Ry     beta= 0.70
     Davidson diagonalization with overlap

     ethr =  2.59E-08,  avg # of iterations =  2.0

     negative rho (up, down):  1.300E-01 0.000E+00

     End of self-consistent calculation

          k = 0.0000 0.0000 0.0000 (  3451 PWs)   bands (ev):

   -81.1449 -81.1434 -81.1433 -44.1948 -44.1728 -44.1728 -44.1544 -44.1544
   -44.1483 -44.1430 -44.1428 -44.1428 -29.8541 -29.8297 -29.8297 -10.0416
    -9.9768  -9.9767  -9.8607  -9.8557  -9.8114  -9.8113  -9.7367  -9.7366
     3.3814   4.6800   5.3178   6.8619   7.0706   7.0706   7.1835   7.4255
     7.4256   7.5664   7.5664   7.5985   7.5985   7.6802   7.7777   7.7777
     8.1392   8.9518   8.9518   9.0953   9.8243   9.8243  11.4396  12.1161
    12.2389  12.7922  12.7922  13.5104  13.5104  13.7189  13.7189  14.0643
    14.3787  15.2221  15.6301  15.9566  15.9566

     occupation numbers
     1.0000   1.0000   1.0000   1.0000   1.0000   1.0000   1.0000   1.0000
     1.0000   1.0000   1.0000   1.0000   1.0000   1.0000   1.0000   1.0000
     1.0000   1.0000   1.0000   1.0000   1.0000   1.0000   1.0000   1.0000
     1.0000   1.0000   1.0000   1.0000   1.0000   1.0000   1.0000   1.0000
     1.0000   1.0000   1.0000   1.0000   1.0000   1.0000   1.0000   1.0000
     1.0000   1.0000   1.0000   1.0000   1.0000   1.0000   1.0000   1.0000
     1.0000   0.0000   0.0000   0.0000   0.0000   0.0000   0.0000   0.0000
     0.0000   0.0000   0.0000   0.0000   0.0000

[...]

          k = 0.3333 0.5774 0.5598 (  3429 PWs)   bands (ev):

   -81.1448 -81.1434 -81.1433 -44.1927 -44.1712 -44.1712 -44.1488 -44.1488
   -44.1462 -44.1434 -44.1434 -44.1429 -29.8397 -29.8397 -29.8279  -9.9630
    -9.9630  -9.9444  -9.8937  -9.8937  -9.8657  -9.8283  -9.8283  -9.7640
     4.5030   4.8844   4.8844   6.6251   7.1837   7.1837   7.3759   7.3857
     7.3858   7.6170   7.7325   7.7325   7.7669   7.8387   7.8841   7.8842
     7.9228   7.9228   9.2406   9.7715   9.7715  10.5777  10.5777  10.7771
    11.3476  11.3476  12.1889  13.7875  13.7876  13.9200  14.4843  14.9482
    14.9482  15.4778  15.5698  15.5698  16.6850

     occupation numbers
     1.0000   1.0000   1.0000   1.0000   1.0000   1.0000   1.0000   1.0000
     1.0000   1.0000   1.0000   1.0000   1.0000   1.0000   1.0000   1.0000
     1.0000   1.0000   1.0000   1.0000   1.0000   1.0000   1.0000   1.0000
     1.0000   1.0000   1.0000   1.0000   1.0000   1.0000   1.0000   1.0000
     1.0000   1.0000   1.0000   1.0000   1.0000   1.0000   1.0000   1.0000
     1.0000   1.0000   1.0000   1.0000   1.0000   1.0000   1.0000   1.0000
     1.0000   1.0000   1.0000   0.0000   0.0000   0.0000   0.0000   0.0000
     0.0000   0.0000   0.0000   0.0000   0.0000

     the Fermi energy is    12.5916 ev

!    total energy              =   -1158.42751818 Ry
     estimated scf accuracy    <       0.00000056 Ry
     smearing contrib. (-TS)   =      -0.00017268 Ry
     internal energy E=F+TS    =   -1158.42734551 Ry

     The total energy is F=E-TS. E is the sum of the following terms:
     one-electron contribution =    -578.16886398 Ry
     hartree contribution      =     324.57435880 Ry
     xc contribution           =    -165.48290700 Ry
     ewald contribution        =    -739.34993332 Ry

     convergence has been achieved in   8 iterations

     Writing all to output data dir energy_m/myprefix.save/

     General routines

     Parallel routines

   This run was terminated on:  17:11:27  16Jul2023

   JOB DONE.