     Program PWSCF v.7.0 starts on 20May2023 at 11:47: 1

     Reading input from espresso_7332.pwi
Warning: card &CELL ignored
Warning: card / ignored

     Current dimensions of program PWSCF are:
     Max number of different atomic species (ntypx) = 10
     Max number of k-points (npk) =  40000
     Max angular momentum in pseudopotentials (lmaxx) =  4

     gamma-point specific algorithms are used
     Message from routine setup:
     using ibrav=0 with symmetry is DISCOURAGED, use correct ibrav instead

     Subspace diagonalization in iterative solution of the eigenvalue problem:
     a serial algorithm will be used

     Using Slab Decomposition

     bravais-lattice index     =            0
     lattice parameter (alat)  =       7.7805  a.u.
     unit-cell volume          =    1371.4870 (a.u.)^3
     number of atoms/cell      =            8
     number of atomic types    =            2
     number of electrons       =        68.00
     number of Kohn-Sham states=           41
     kinetic-energy cutoff     =      30.0000  Ry
     charge density cutoff     =     240.0000  Ry
     scf convergence threshold =      1.0E-06
     mixing beta               =       0.7000
     number of iterations used =            8  plain     mixing
     Exchange-correlation= SLA  PW   PBE  PBE
                           (   1   4   3   4   0   0   0)

     celldm(1)=   7.780505  celldm(2)=   0.000000  celldm(3)=   0.000000
     celldm(4)=   0.000000  celldm(5)=   0.000000  celldm(6)=   0.000000

     crystal axes: (cart. coord. in units of alat)
               a(1) = (   1.000000   0.000000   0.000000 )
               a(2) = (  -0.500000   0.866025   0.000000 )
               a(3) = (   0.000000   0.000000   3.362309 )

     reciprocal axes: (cart. coord. in units 2 pi/alat)
               b(1) = (  1.000000  0.577350  0.000000 )
               b(2) = (  0.000000  1.154701  0.000000 )
               b(3) = (  0.000000  0.000000  0.297415 )

     PseudoPot. # 1 for Sc read from file:
     /home/pragov/projects/rrg-bengioy-ad/pragov/crystal_structure_design/SSSP/Sc_ONCV_PBE-1.0.oncvpsp.upf
     MD5 check sum: e21af8023abb52e52cb7cd3133e4a229
     Pseudo is Norm-conserving, Zval = 11.0
     Generated using ONCVPSP code by D. R. Hamann
     Using radial grid of 1662 points,  6 beta functions with:
                l(1) =   0
                l(2) =   0
                l(3) =   1
                l(4) =   1
                l(5) =   2
                l(6) =   2

     PseudoPot. # 2 for Te read from file:
     /home/pragov/projects/rrg-bengioy-ad/pragov/crystal_structure_design/SSSP/Te_pbe_v1.uspp.F.UPF
     MD5 check sum: c319670d6894cc26e93307826a071b75
     Pseudo is Ultrasoft + core correction, Zval =  6.0
     Generated by new atomic code, or converted to UPF format
     Using radial grid of  891 points,  5 beta functions with:
                l(1) =   0
                l(2) =   0
                l(3) =   1
                l(4) =   1
                l(5) =   2
     Q(r) pseudized with  6 coefficients,  rinner =    1.800   1.800   1.800
                                                       1.800   1.800

     atomic species   valence    mass     pseudopotential
        Sc            11.00    44.95591     Sc( 1.00)
        Te             6.00   127.60000     Te( 1.00)

     24 Sym. Ops., with inversion, found (12 have fractional translation)

                                    s                        frac. trans.

      isym =  1     identity

 cryst.   s( 1) = (     1          0          0      )
                  (     0          1          0      )
                  (     0          0          1      )

 cart.    s( 1) = (  1.0000000  0.0000000  0.0000000 )
                  (  0.0000000  1.0000000  0.0000000 )
                  (  0.0000000  0.0000000  1.0000000 )

      isym =  2     180 deg rotation - cart. axis [0,0,1]

 cryst.   s( 2) = (    -1          0          0      )    f =(  0.0000000 )
                  (     0         -1          0      )       (  0.0000000 )
                  (     0          0          1      )       ( -0.5000000 )

 cart.    s( 2) = ( -1.0000000 -0.0000000  0.0000000 )    f =(  0.0000000 )
                  (  0.0000000 -1.0000000  0.0000000 )       (  0.0000000 )
                  (  0.0000000  0.0000000  1.0000000 )       ( -1.6811547 )

[...]

      isym =  4     180 deg rotation - cart. axis [1,0,0]

[...]

      isym =  5      60 deg rotation - cryst. axis [0,0,1]

[...]

 cryst.   s( 8) = (    -1         -1          0      )
                  (     1          0          0      )
                  (     0          0          1      )

 cart.    s( 8) = ( -0.5000000  0.8660254  0.0000000 )
                  ( -0.8660254 -0.5000000  0.0000000 )
                  (  0.0000000  0.0000000  1.0000000 )

[...]

 cryst.   s( 9) = (     0         -1          0      )    f =(  0.0000000 )
                  (    -1          0          0      )       (  0.0000000 )
                  (     0          0         -1      )       (  0.5000000 )

 cart.    s( 9) = (  0.5000000 -0.8660254  0.0000000 )    f =(  0.0000000 )
                  ( -0.8660254 -0.5000000  0.0000000 )       (  0.0000000 )
                  (  0.0000000  0.0000000 -1.0000000 )       (  1.6811547 )

[...]

 cryst.   s(10) = (     1          1          0      )    f =(  0.0000000 )
                  (     0         -1          0      )       ( -0.0000010 )
                  (     0          0         -1      )       (  0.5000000 )

 cart.    s(10) = (  0.5000000  0.8660254  0.0000000 )    f =(  0.0000005 )
                  (  0.8660254 -0.5000000  0.0000000 )       ( -0.0000009 )
                  (  0.0000000  0.0000000 -1.0000000 )       (  1.6811547 )

[...]

 cryst.   s(11) = (    -1         -1          0      )
                  (     0          1          0      )
                  (     0          0         -1      )

 cart.    s(11) = ( -0.5000000 -0.8660254  0.0000000 )
                  ( -0.8660254  0.5000000  0.0000000 )
                  (  0.0000000  0.0000000 -1.0000000 )

      isym = 12     180 deg rotation - cryst. axis [1,1,0]

[...]

      isym = 13     inversion

[...]

      isym = 14     inv. 180 deg rotation - cart. axis [0,0,1]

[...]

      isym = 16     inv. 180 deg rotation - cart. axis [1,0,0]

[...]

      isym = 17     inv.  60 deg rotation - cryst. axis [0,0,1]

[...]

 cryst.   s(22) = (    -1         -1          0      )    f =(  0.0000000 )
                  (     0          1          0      )       ( -0.0000010 )
                  (     0          0          1      )       ( -0.5000000 )

 cart.    s(22) = ( -0.5000000 -0.8660254  0.0000000 )    f =(  0.0000005 )
                  ( -0.8660254  0.5000000  0.0000000 )       ( -0.0000009 )
                  (  0.0000000  0.0000000  1.0000000 )       ( -1.6811547 )

[...]

      isym = 24     inv. 180 deg rotation - cryst. axis [1,1,0]

 cryst.   s(24) = (     0         -1          0      )
                  (    -1          0          0      )
                  (     0          0          1      )

 cart.    s(24) = (  0.5000000 -0.8660254  0.0000000 )
                  ( -0.8660254 -0.5000000  0.0000000 )
                  (  0.0000000  0.0000000  1.0000000 )

   Cartesian axes

     site n.     atom                  positions (alat units)
         1           Sc  tau(   1) = (  -0.0000005   0.5773506   2.9678533  )
         2           Sc  tau(   2) = (   0.5000005   0.2886748   0.3944560  )
         3           Sc  tau(   3) = (   0.5000005   0.2886748   1.2866986  )
         4           Sc  tau(   4) = (  -0.0000005   0.5773506   2.0756107  )
         5           Te  tau(   5) = (  -0.0000005   0.5773506   0.8405773  )
         6           Te  tau(   6) = (   0.5000005   0.2886748   2.5217320  )
         7           Te  tau(   7) = (   0.0000000   0.0000000   1.6811547  )
         8           Te  tau(   8) = (   0.0000000   0.0000000   0.0000000  )

   Crystallographic axes

     site n.     atom                  positions (cryst. coord.)
         1           Sc  tau(   1) = (  0.3333330  0.6666670  0.8826830  )
         2           Sc  tau(   2) = (  0.6666670  0.3333330  0.1173170  )
         3           Sc  tau(   3) = (  0.6666670  0.3333330  0.3826830  )
         4           Sc  tau(   4) = (  0.3333330  0.6666670  0.6173170  )
         5           Te  tau(   5) = (  0.3333330  0.6666670  0.2500000  )
         6           Te  tau(   6) = (  0.6666670  0.3333330  0.7500000  )
         7           Te  tau(   7) = (  0.0000000  0.0000000  0.5000000  )
         8           Te  tau(   8) = (  0.0000000  0.0000000  0.0000000  )

     number of k points=     1  Methfessel-Paxton smearing, width (Ry)=  0.0010
                       cart. coord. in units 2pi/alat
        k(    1) = (   0.0000000   0.0000000   0.0000000), wk =   2.0000000

                       cryst. coord.
        k(    1) = (   0.0000000   0.0000000   0.0000000), wk =   2.0000000

     Initial potential from superposition of free atoms

     starting charge      67.9886, renormalised to      68.0000
     Starting wfcs are   56 randomized atomic wfcs

     Self-consistent Calculation

     iteration #  1     ecut=    30.00 Ry     beta= 0.70
     Davidson diagonalization with overlap

     ethr =  1.00E-02,  avg # of iterations =  2.0

     Threshold (ethr) on eigenvalues was too large:
     Diagonalizing with lowered threshold

     Davidson diagonalization with overlap

[...]

     total energy              =    -472.63459428 Ry
     estimated scf accuracy    <       0.20350171 Ry

[...]

     total energy              =    -472.66157217 Ry
     estimated scf accuracy    <       0.00000194 Ry

     iteration # 28     ecut=    30.00 Ry     beta= 0.70
     Davidson diagonalization with overlap

     ethr =  2.86E-09,  avg # of iterations =  1.0

     End of self-consistent calculation

          k = 0.0000 0.0000 0.0000 (  1907 PWs)   bands (ev):

   -39.9679 -39.9656 -39.9654 -39.9631 -18.6740 -18.6400 -18.6345 -18.5999
   -18.5921 -18.5920 -18.5899 -18.5899 -18.5887 -18.5886 -18.5858 -18.5858
    -2.8287  -2.5564  -1.9267  -1.4940   4.0920   5.6653   6.1592   6.8554
     6.8554   7.1853   7.1854   8.0269   8.0269   8.8113   8.9467   8.9467
     9.8427  10.4148  10.4149  10.5379  10.5379  10.7610  10.9477  10.9477
    11.0047

     occupation numbers
     1.0000   1.0000   1.0000   1.0000   1.0000   1.0000   1.0000   1.0000
     1.0000   1.0000   1.0000   1.0000   1.0000   1.0000   1.0000   1.0000
     1.0000   1.0000   1.0000   1.0000   1.0000   1.0000   1.0000   1.0000
     1.0000   1.0000   1.0000   1.0000   1.0000   1.0000   1.0000   1.0000
     1.0000   0.5007   0.4993  -0.0000  -0.0000  -0.0000  -0.0000  -0.0000
    -0.0000

     the Fermi energy is    10.4148 ev

!    total energy              =    -472.66157158 Ry
     estimated scf accuracy    <       0.00000068 Ry
     smearing contrib. (-TS)   =      -0.00056419 Ry
     internal energy E=F+TS    =    -472.66100739 Ry

     The total energy is F=E-TS. E is the sum of the following terms:
     one-electron contribution =    -156.40278484 Ry
     hartree contribution      =      99.82359659 Ry
     xc contribution           =    -106.74059197 Ry
     ewald contribution        =    -309.34122717 Ry

     convergence has been achieved in  28 iterations

     Forces acting on atoms (cartesian axes, Ry/au):

     atom    1 type  1   force =     0.00000000    0.00000000   -0.02068519
     atom    2 type  1   force =    -0.00000000    0.00000000    0.02068519
     atom    3 type  1   force =     0.00000000   -0.00000000   -0.02068519
     atom    4 type  1   force =     0.00000000    0.00000000    0.02068519
     atom    5 type  2   force =     0.00000000   -0.00000000    0.00000000
     atom    6 type  2   force =    -0.00000000    0.00000000    0.00000000
     atom    7 type  2   force =     0.00000000    0.00000000    0.00000000
     atom    8 type  2   force =     0.00000000    0.00000000    0.00000000
     The non-local contrib.  to forces
     atom    1 type  1   force =     0.00000000    0.00000000    0.04910201
     atom    2 type  1   force =     0.00000000    0.00000000   -0.04910201
     atom    3 type  1   force =     0.00000000   -0.00000000    0.04910201
     atom    4 type  1   force =     0.00000000    0.00000000   -0.04910201
     atom    5 type  2   force =    -0.00000000   -0.00000000   -0.00000000
     atom    6 type  2   force =     0.00000000    0.00000000    0.00000000
     atom    7 type  2   force =    -0.00000000    0.00000000    0.00000000
     atom    8 type  2   force =     0.00000000   -0.00000000    0.00000000
     The ionic contribution  to forces
     atom    1 type  1   force =     0.00000972   -0.00000561   -1.59420249
     atom    2 type  1   force =    -0.00000972    0.00000561    1.59420249
     atom    3 type  1   force =    -0.00000972    0.00000561   -1.59420249
     atom    4 type  1   force =     0.00000972   -0.00000561    1.59420249
     atom    5 type  2   force =     0.00001070   -0.00000618    0.00000000
     atom    6 type  2   force =    -0.00001070    0.00000618    0.00000000
     atom    7 type  2   force =    -0.00000000   -0.00000000    0.00000000
     atom    8 type  2   force =    -0.00000000   -0.00000000   -0.00000000
     The local contribution  to forces
     atom    1 type  1   force =    -0.00003819    0.00003827    1.52601657
     atom    2 type  1   force =     0.00003436   -0.00003449   -1.52341050
     atom    3 type  1   force =     0.00001936   -0.00003659    1.52284267
     atom    4 type  1   force =    -0.00003366    0.00003651   -1.52541054
     atom    5 type  2   force =    -0.00001983    0.00004127   -0.00036823
     atom    6 type  2   force =     0.00000435    0.00000652    0.00015500
     atom    7 type  2   force =    -0.00000316    0.00000246   -0.00103124
     atom    8 type  2   force =    -0.00000917    0.00000347    0.00125269
     The core correction contribution to forces
     atom    1 type  1   force =     0.00000000    0.00000000    0.00000000
     atom    2 type  1   force =     0.00000000    0.00000000    0.00000000
     atom    3 type  1   force =     0.00000000    0.00000000    0.00000000
     atom    4 type  1   force =     0.00000000    0.00000000    0.00000000
     atom    5 type  2   force =    -0.00000047   -0.00000254    0.00000266
     atom    6 type  2   force =     0.00000123   -0.00000232    0.00000032
     atom    7 type  2   force =     0.00000047   -0.00000029    0.00000037
     atom    8 type  2   force =     0.00000040   -0.00000015   -0.00000134
     The Hubbard contrib.    to forces
     atom    1 type  1   force =     0.00000000    0.00000000    0.00000000
     atom    2 type  1   force =     0.00000000    0.00000000    0.00000000
     atom    3 type  1   force =     0.00000000    0.00000000    0.00000000
     atom    4 type  1   force =     0.00000000    0.00000000    0.00000000
     atom    5 type  2   force =     0.00000000    0.00000000    0.00000000
     atom    6 type  2   force =     0.00000000    0.00000000    0.00000000
     atom    7 type  2   force =     0.00000000    0.00000000    0.00000000
     atom    8 type  2   force =     0.00000000    0.00000000    0.00000000
     The SCF correction term to forces
     atom    1 type  1   force =     0.00002543   -0.00003629   -0.00158037
     atom    2 type  1   force =    -0.00002553    0.00003018   -0.00099474
     atom    3 type  1   force =    -0.00001614    0.00003303    0.00156832
     atom    4 type  1   force =     0.00001866   -0.00003172    0.00100182
     atom    5 type  2   force =     0.00000299    0.00000022    0.00032689
     atom    6 type  2   force =    -0.00000630    0.00000833   -0.00016652
     atom    7 type  2   force =    -0.00000039   -0.00000063    0.00102072
     atom    8 type  2   force =     0.00000123    0.00000041   -0.00119277

     Total force =     0.041370     Total SCF correction =     0.003091

     Computing stress (Cartesian axis) and pressure

          total   stress  (Ry/bohr**3)                   (kbar)     P=      140.15
   0.00157324   0.00000000   0.00000000          231.43        0.00        0.00
   0.00000000   0.00157324   0.00000000            0.00      231.43        0.00
   0.00000000  -0.00000000  -0.00028835            0.00       -0.00      -42.42

     kinetic stress (kbar)  10922.41      0.00      0.00
                                0.00  10922.41      0.00
                                0.00      0.00  10678.98

     local   stress (kbar)   6380.00     -0.10      0.00
                               -0.10   6379.68      0.00
                                0.00      0.00   5352.12

     nonloc. stress (kbar)  -6762.65     -0.00      0.00
                               -0.00  -6762.65      0.00
                                0.00      0.00  -6622.59

     hartree stress (kbar)   3505.43      0.04     -0.00
                                0.04   3505.54     -0.00
                               -0.00     -0.00   3696.06

     exc-cor stress (kbar)   2190.05      0.00      0.00
                                0.00   2190.05     -0.00
                                0.00     -0.00   2191.77

     corecor stress (kbar)  -4728.90     -0.00      0.00
                               -0.00  -4728.89     -0.00
                                0.00     -0.00  -4708.57

     ewald   stress (kbar) -11274.81      0.00     -0.00
                                0.00 -11274.80     -0.00
                               -0.00     -0.00 -10630.20

     hubbard stress (kbar)      0.00      0.00      0.00
                                0.00      0.00      0.00
                                0.00      0.00      0.00

     DFT-D   stress (kbar)      0.00      0.00      0.00
                                0.00      0.00      0.00
                                0.00      0.00      0.00

     XDM     stress (kbar)      0.00      0.00      0.00
                                0.00      0.00      0.00
                                0.00      0.00      0.00

     dft-nl  stress (kbar)      0.00      0.00      0.00
                                0.00      0.00      0.00
                                0.00      0.00      0.00

     TS-vdW  stress (kbar)      0.00      0.00      0.00
                                0.00      0.00      0.00
                                0.00      0.00      0.00

[...]

                                0.00      0.00      0.00

     Writing all to output data dir new_calculations/myprefix.save/

     General routines

     Parallel routines

   This run was terminated on:  11:47:18  20May2023

   JOB DONE.