     Program PWSCF v.7.0 starts on 21May2023 at 20:40:50

     Reading input from espresso_20880.pwi
Warning: card &CELL ignored
Warning: card / ignored

     Current dimensions of program PWSCF are:
     Max number of different atomic species (ntypx) = 10
     Max number of k-points (npk) =  40000
     Max angular momentum in pseudopotentials (lmaxx) =  4
     file Nb.pbe-spn-kjpaw_psl.0.3.0.UPF: wavefunction(s)  4S 4P renormalized
     file In.pbe-dn-rrkjus_psl.0.2.2.UPF: wavefunction(s)  5S renormalized

     gamma-point specific algorithms are used
     Message from routine setup:
     using ibrav=0 with symmetry is DISCOURAGED, use correct ibrav instead

     Subspace diagonalization in iterative solution of the eigenvalue problem:
     a serial algorithm will be used

     Using Slab Decomposition

     bravais-lattice index     =            0
     lattice parameter (alat)  =       6.3041  a.u.
     unit-cell volume          =     574.7268 (a.u.)^3
     number of atoms/cell      =            4
     number of atomic types    =            3
     number of electrons       =        38.00
     number of Kohn-Sham states=           23
     kinetic-energy cutoff     =      30.0000  Ry
     charge density cutoff     =     240.0000  Ry
     scf convergence threshold =      1.0E-06
     mixing beta               =       0.7000
     number of iterations used =            8  plain     mixing
     Exchange-correlation=  SLA  PW   PBX  PBC
                           (   1   4   3   4   0   0   0)

     celldm(1)=   6.304129  celldm(2)=   0.000000  celldm(3)=   0.000000
     celldm(4)=   0.000000  celldm(5)=   0.000000  celldm(6)=   0.000000

     crystal axes: (cart. coord. in units of alat)
               a(1) = (   1.000000   0.000000   0.000000 )
               a(2) = (  -0.500000   0.866025   0.000000 )
               a(3) = (   0.000000   0.000000   2.648838 )

     reciprocal axes: (cart. coord. in units 2 pi/alat)
               b(1) = (  1.000000  0.577350  0.000000 )
               b(2) = (  0.000000  1.154700  0.000000 )
               b(3) = (  0.000000  0.000000  0.377524 )

     PseudoPot. # 1 for Nb read from file:
     /home/pragov/projects/rrg-bengioy-ad/pragov/crystal_structure_design/SSSP/Nb.pbe-spn-kjpaw_psl.0.3.0.UPF
     MD5 check sum: 411d72ad547312f8017e2943ceca08cc
     Pseudo is Projector augmented-wave + core cor, Zval = 13.0
     Generated using "atomic" code by A. Dal Corso  v.5.0.99 svn rev. 10869
     Shape of augmentation charge: PSQ
     Using radial grid of 1227 points,  6 beta functions with:
                l(1) =   0
                l(2) =   0
                l(3) =   1
                l(4) =   1
                l(5) =   2
                l(6) =   2
     Q(r) pseudized with 0 coefficients

     PseudoPot. # 2 for In read from file:
     /home/pragov/projects/rrg-bengioy-ad/pragov/crystal_structure_design/SSSP/In.pbe-dn-rrkjus_psl.0.2.2.UPF
     MD5 check sum: 25e7c42c3b55b68f4bf926be2e7201a4
     Pseudo is Ultrasoft + core correction, Zval = 13.0
     Generated using "atomic" code by A. Dal Corso  v.5.0.99 svn rev. 10869
     Using radial grid of 1241 points,  6 beta functions with:
                l(1) =   0
                l(2) =   0
                l(3) =   1
                l(4) =   1
                l(5) =   2
                l(6) =   2
     Q(r) pseudized with 0 coefficients

     PseudoPot. # 3 for S  read from file:
     /home/pragov/projects/rrg-bengioy-ad/pragov/crystal_structure_design/SSSP/s_pbe_v1.4.uspp.F.UPF
     MD5 check sum: 88d86576ff6df21479756cfb9bdac1df
     Pseudo is Ultrasoft + core correction, Zval =  6.0
     Generated by new atomic code, or converted to UPF format
     Using radial grid of  907 points,  6 beta functions with:
                l(1) =   0
                l(2) =   0
                l(3) =   1
                l(4) =   1
                l(5) =   2
                l(6) =   2
     Q(r) pseudized with  8 coefficients,  rinner =    1.300   1.300   1.300
                                                       1.300   1.300

     atomic species   valence    mass     pseudopotential
        Nb            13.00    92.90637     Nb( 1.00)
        In            13.00   114.81800     In( 1.00)
        S              6.00    32.06000     S ( 1.00)

     12 Sym. Ops. (no inversion) found

                                    s                        frac. trans.

      isym =  1     identity

 cryst.   s( 1) = (     1          0          0      )
                  (     0          1          0      )
                  (     0          0          1      )

 cart.    s( 1) = (  1.0000000 -0.0000000  0.0000000 )
                  (  0.0000000  1.0000000  0.0000000 )
                  (  0.0000000  0.0000000  1.0000000 )

      isym =  2     180 deg rotation - cart. axis [0,1,0]

[...]

      isym =  3     120 deg rotation - cryst. axis [0,0,1]

[...]

      isym =  6     180 deg rotation - cryst. axis [2,1,0]

[...]

      isym =  7     inv. 180 deg rotation - cart. axis [0,0,1]

[...]

      isym =  8     inv. 180 deg rotation - cart. axis [1,0,0]

[...]

      isym =  9     inv.  60 deg rotation - cryst. axis [0,0,1]

 cryst.   s( 9) = (    -1         -1          0      )
                  (     1          0          0      )
                  (     0          0         -1      )

 cart.    s( 9) = ( -0.5000001  0.8660253  0.0000000 )
                  ( -0.8660255 -0.4999999  0.0000000 )
                  (  0.0000000  0.0000000 -1.0000000 )

[...]

 cryst.   s(10) = (     0          1          0      )
                  (    -1         -1          0      )
                  (     0          0         -1      )

 cart.    s(10) = ( -0.4999999 -0.8660253  0.0000000 )
                  (  0.8660255 -0.5000001  0.0000000 )
                  (  0.0000000  0.0000000 -1.0000000 )

[...]

      isym = 12     inv. 180 deg rotation - cryst. axis [1,1,0]

 cryst.   s(12) = (     0         -1          0      )
                  (    -1          0          0      )
                  (     0          0          1      )

 cart.    s(12) = (  0.4999999 -0.8660255  0.0000000 )
                  ( -0.8660255 -0.4999999  0.0000000 )
                  (  0.0000000  0.0000000  1.0000000 )

   Cartesian axes

     site n.     atom                  positions (alat units)
         1           Nb  tau(   1) = (   0.0000000   0.0000000   1.3244190  )
         2           In  tau(   2) = (   0.5000005   0.2886749   0.0000000  )
         3           S   tau(   3) = (   0.5000005   0.2886749   1.7972287  )
         4           S   tau(   4) = (   0.5000005   0.2886749   0.8516094  )

   Crystallographic axes

     site n.     atom                  positions (cryst. coord.)
         1           Nb  tau(   1) = (  0.0000000  0.0000000  0.5000000  )
         2           In  tau(   2) = (  0.6666670  0.3333330  0.0000000  )
         3           S   tau(   3) = (  0.6666670  0.3333330  0.6784970  )
         4           S   tau(   4) = (  0.6666670  0.3333330  0.3215030  )

     number of k points=     1  Methfessel-Paxton smearing, width (Ry)=  0.0010
                       cart. coord. in units 2pi/alat
        k(    1) = (   0.0000000   0.0000000   0.0000000), wk =   2.0000000

                       cryst. coord.
        k(    1) = (   0.0000000   0.0000000   0.0000000), wk =   2.0000000

     Check: negative core charge=   -0.000008

     Initial potential from superposition of free atoms

     starting charge      37.9941, renormalised to      38.0000
     Starting wfcs are   27 randomized atomic wfcs
     Checking if some PAW data can be deallocated...

     Self-consistent Calculation

     iteration #  1     ecut=    30.00 Ry     beta= 0.70
     Davidson diagonalization with overlap

     ethr =  1.00E-02,  avg # of iterations =  2.0

     total energy              =    -527.01244165 Ry
     estimated scf accuracy    <       0.54031252 Ry

[...]

     total energy              =    -527.27426764 Ry
     estimated scf accuracy    <       0.00000108 Ry

     iteration # 12     ecut=    30.00 Ry     beta= 0.70
     Davidson diagonalization with overlap

     ethr =  2.85E-09,  avg # of iterations =  6.0

     End of self-consistent calculation

          k = 0.0000 0.0000 0.0000 (   807 PWs)   bands (ev):

   -42.7125 -18.8683 -18.8680 -18.7446  -5.8606  -5.8606  -5.7392  -5.4952
    -5.4952  -3.7037  -2.7504   1.5142   5.6848   6.4633   8.2428   8.2429
     9.0357   9.0358  11.8370  12.9608  13.4062  13.4063  13.7227

     occupation numbers
     1.0000   1.0000   1.0000   1.0000   1.0000   1.0000   1.0000   1.0000
     1.0000   1.0000   1.0000   1.0000   1.0000   1.0000   1.0000   1.0000
     1.0000   1.0000   1.0000  -0.0000  -0.0000  -0.0000  -0.0000

     the Fermi energy is    12.0866 ev

!    total energy              =    -527.27426790 Ry
     estimated scf accuracy    <       0.00000016 Ry
     smearing contrib. (-TS)   =       0.00000000 Ry
     internal energy E=F+TS    =    -527.27426790 Ry

     The total energy is F=E-TS. E is the sum of the following terms:
     one-electron contribution =    -100.71868720 Ry
     hartree contribution      =      74.77518766 Ry
     xc contribution           =     -93.79139861 Ry
     ewald contribution        =    -199.05934448 Ry
     one-center paw contrib.   =    -208.48002527 Ry
      -> PAW hartree energy AE =      71.07060094 Ry
      -> PAW hartree energy PS =     -70.70080910 Ry
      -> PAW xc energy AE      =    -236.12171511 Ry
      -> PAW xc energy PS      =      27.27189799 Ry
      -> total E_H with PAW    =      75.14497950 Ry
      -> total E_XC with PAW   =    -302.64121572 Ry

     convergence has been achieved in  12 iterations

     Forces acting on atoms (cartesian axes, Ry/au):

     atom    1 type  1   force =     0.00000000   -0.00000000    0.00000000
     atom    2 type  2   force =     0.00000000    0.00000000    0.00000000
     atom    3 type  3   force =     0.00000000    0.00000000   -0.15838047
     atom    4 type  3   force =     0.00000000   -0.00000000    0.15838047
     The non-local contrib.  to forces
     atom    1 type  1   force =     0.00000000    0.00000000    0.00000000
     atom    2 type  2   force =     0.00000000    0.00000000    0.00000000
     atom    3 type  3   force =     0.00000000    0.00000000    0.12476377
     atom    4 type  3   force =    -0.00000000    0.00000000   -0.12476377
     The ionic contribution  to forces
     atom    1 type  1   force =     0.00000949   -0.00000548    0.00000000
     atom    2 type  2   force =    -0.00000006    0.00000004    0.00000000
     atom    3 type  3   force =    -0.00000472    0.00000272    9.20913280
     atom    4 type  3   force =    -0.00000472    0.00000272   -9.20913280
     The local contribution  to forces
     atom    1 type  1   force =     0.00002667   -0.00011870   -0.00095215
     atom    2 type  2   force =    -0.00000475    0.00001206    0.00080526
     atom    3 type  3   force =    -0.00006097    0.00021286   -9.48525948
     atom    4 type  3   force =    -0.00001676    0.00007693    9.48476710
     The core correction contribution to forces
     atom    1 type  1   force =     0.00000050   -0.00000473   -0.00000090
     atom    2 type  2   force =    -0.00000001    0.00000074    0.00000273
     atom    3 type  3   force =    -0.00000264    0.00000510   -0.00773954
     atom    4 type  3   force =    -0.00000089    0.00000261    0.00772998
     The Hubbard contrib.    to forces
     atom    1 type  1   force =     0.00000000    0.00000000    0.00000000
     atom    2 type  2   force =     0.00000000    0.00000000    0.00000000
     atom    3 type  3   force =     0.00000000    0.00000000    0.00000000
     atom    4 type  3   force =     0.00000000    0.00000000    0.00000000
     The SCF correction term to forces
     atom    1 type  1   force =    -0.00002224    0.00008203    0.00097251
     atom    2 type  2   force =     0.00001083   -0.00001125   -0.00085126
     atom    3 type  3   force =     0.00003472   -0.00011688    0.00063980
     atom    4 type  3   force =     0.00001129   -0.00004757   -0.00030223

     Total force =     0.223984     Total SCF correction =     0.001482

     Computing stress (Cartesian axis) and pressure

          total   stress  (Ry/bohr**3)                   (kbar)     P=       52.86
   0.00050583  -0.00000000   0.00000000           74.41       -0.00        0.00
  -0.00000000   0.00050583   0.00000000           -0.00       74.41        0.00
   0.00000000  -0.00000000   0.00006633            0.00       -0.00        9.76

     kinetic stress (kbar)  15008.36     -0.00      0.00
                               -0.00  15008.36      0.00
                                0.00      0.00  15293.76

     local   stress (kbar) -11376.59     -0.03     -0.02
                               -0.03 -11376.78      0.05
                               -0.02      0.05   4472.39

     nonloc. stress (kbar)   6046.06     -0.00      0.00
                               -0.00   6046.06      0.00
                                0.00      0.00   6048.30

     hartree stress (kbar)   8883.26      0.01      0.01
                                0.01   8883.33     -0.01
                                0.01     -0.01   1372.60

     exc-cor stress (kbar)   8971.09      0.00      0.00
                                0.00   8971.09     -0.00
                                0.00     -0.00   8988.77

     corecor stress (kbar) -13373.98     -0.00     -0.00
                               -0.00 -13373.98      0.00
                               -0.00      0.00 -13383.00

     ewald   stress (kbar) -14083.73     -0.01      0.00
                               -0.01 -14083.74      0.00
                                0.00      0.00 -22783.08

     hubbard stress (kbar)      0.00      0.00      0.00
                                0.00      0.00      0.00
                                0.00      0.00      0.00

     DFT-D   stress (kbar)      0.00      0.00      0.00
                                0.00      0.00      0.00
                                0.00      0.00      0.00

     XDM     stress (kbar)      0.00      0.00      0.00
                                0.00      0.00      0.00
                                0.00      0.00      0.00

     dft-nl  stress (kbar)      0.00      0.00      0.00
                                0.00      0.00      0.00
                                0.00      0.00      0.00

     TS-vdW  stress (kbar)      0.00      0.00      0.00
                                0.00      0.00      0.00
                                0.00      0.00      0.00

[...]

                                0.00      0.00      0.00

     Writing all to output data dir new_calculations/myprefix.save/

     General routines

     Parallel routines

     PAW routines

   This run was terminated on:  20:40:59  21May2023

   JOB DONE.