     Program PWSCF v.7.0 starts on 20May2023 at 17:16:53

     Reading input from espresso_9536.pwi
Warning: card &CELL ignored
Warning: card / ignored

     Current dimensions of program PWSCF are:
     Max number of different atomic species (ntypx) = 10
     Max number of k-points (npk) =  40000
     Max angular momentum in pseudopotentials (lmaxx) =  4

     gamma-point specific algorithms are used
     Message from routine setup:
     using ibrav=0 with symmetry is DISCOURAGED, use correct ibrav instead

     Subspace diagonalization in iterative solution of the eigenvalue problem:
     a serial algorithm will be used

     Using Slab Decomposition

     bravais-lattice index     =            0
     lattice parameter (alat)  =       7.7114  a.u.
     unit-cell volume          =    1289.2819 (a.u.)^3
     number of atoms/cell      =            8
     number of atomic types    =            1
     number of electrons       =       112.00
     number of Kohn-Sham states=           67
     kinetic-energy cutoff     =      30.0000  Ry
     charge density cutoff     =     240.0000  Ry
     scf convergence threshold =      1.0E-06
     mixing beta               =       0.7000
     number of iterations used =            8  plain     mixing
     Exchange-correlation=  SLA  PW   PBX  PBC
                           (   1   4   3   4   0   0   0)

     celldm(1)=   7.711436  celldm(2)=   0.000000  celldm(3)=   0.000000
     celldm(4)=   0.000000  celldm(5)=   0.000000  celldm(6)=   0.000000

     crystal axes: (cart. coord. in units of alat)
               a(1) = (   1.000000   0.000000   0.000000 )
               a(2) = (  -0.500000   0.866025   0.000000 )
               a(3) = (   0.000000   0.000000   3.246471 )

     reciprocal axes: (cart. coord. in units 2 pi/alat)
               b(1) = (  1.000000  0.577350  0.000000 )
               b(2) = (  0.000000  1.154701  0.000000 )
               b(3) = (  0.000000  0.000000  0.308027 )

     PseudoPot. # 1 for Ge read from file:
     /home/pragov/projects/rrg-bengioy-ad/pragov/crystal_structure_design/SSSP/ge_pbe_v1.4.uspp.F.UPF
     MD5 check sum: 9c9eaa91e581c3f09632fb3098b2c6b2
     Pseudo is Ultrasoft + core correction, Zval = 14.0
     Generated by new atomic code, or converted to UPF format
     Using radial grid of  873 points,  6 beta functions with:
                l(1) =   0
                l(2) =   0
                l(3) =   1
                l(4) =   1
                l(5) =   2
                l(6) =   2
     Q(r) pseudized with  8 coefficients,  rinner =    1.400   1.400   1.400
                                                       1.400   1.400

     atomic species   valence    mass     pseudopotential
        Ge            14.00    72.63000     Ge( 1.00)

     24 Sym. Ops., with inversion, found (12 have fractional translation)

                                    s                        frac. trans.

      isym =  1     identity

 cryst.   s( 1) = (     1          0          0      )
                  (     0          1          0      )
                  (     0          0          1      )

 cart.    s( 1) = (  1.0000000  0.0000000  0.0000000 )
                  (  0.0000000  1.0000000  0.0000000 )
                  (  0.0000000  0.0000000  1.0000000 )

      isym =  2     180 deg rotation - cart. axis [0,0,1]

 cryst.   s( 2) = (    -1          0          0      )    f =(  0.0000000 )
                  (     0         -1          0      )       (  0.0000000 )
                  (     0          0          1      )       (  0.5000000 )

 cart.    s( 2) = ( -1.0000000 -0.0000000  0.0000000 )    f =(  0.0000000 )
                  (  0.0000000 -1.0000000  0.0000000 )       (  0.0000000 )
                  (  0.0000000  0.0000000  1.0000000 )       (  1.6232354 )

[...]

      isym =  4     180 deg rotation - cart. axis [1,0,0]

[...]

      isym =  5      60 deg rotation - cryst. axis [0,0,1]

[...]

 cryst.   s( 8) = (    -1         -1          0      )
                  (     1          0          0      )
                  (     0          0          1      )

 cart.    s( 8) = ( -0.4999999  0.8660254  0.0000000 )
                  ( -0.8660254 -0.5000001  0.0000000 )
                  (  0.0000000  0.0000000  1.0000000 )

[...]

 cryst.   s( 9) = (     0         -1          0      )    f =(  0.0000000 )
                  (    -1          0          0      )       (  0.0000000 )
                  (     0          0         -1      )       (  0.5000000 )

 cart.    s( 9) = (  0.5000001 -0.8660254  0.0000000 )    f =(  0.0000000 )
                  ( -0.8660254 -0.5000001  0.0000000 )       (  0.0000000 )
                  (  0.0000000  0.0000000 -1.0000000 )       (  1.6232354 )

[...]

 cryst.   s(10) = (     1          1          0      )    f =(  0.0000000 )
                  (     0         -1          0      )       (  0.0000000 )
                  (     0          0         -1      )       (  0.5000000 )

 cart.    s(10) = (  0.4999999  0.8660255  0.0000000 )    f =(  0.0000000 )
                  (  0.8660254 -0.4999999  0.0000000 )       (  0.0000000 )
                  (  0.0000000  0.0000000 -1.0000000 )       (  1.6232354 )

[...]

 cryst.   s(11) = (    -1         -1          0      )
                  (     0          1          0      )
                  (     0          0         -1      )

 cart.    s(11) = ( -0.4999999 -0.8660255  0.0000000 )
                  ( -0.8660254  0.4999999  0.0000000 )
                  (  0.0000000  0.0000000 -1.0000000 )

      isym = 12     180 deg rotation - cryst. axis [1,1,0]

[...]

      isym = 13     inversion

[...]

      isym = 14     inv. 180 deg rotation - cart. axis [0,0,1]

[...]

      isym = 16     inv. 180 deg rotation - cart. axis [1,0,0]

[...]

      isym = 17     inv.  60 deg rotation - cryst. axis [0,0,1]

[...]

 cryst.   s(22) = (    -1         -1          0      )    f =(  0.0000000 )
                  (     0          1          0      )       (  0.0000000 )
                  (     0          0          1      )       (  0.5000000 )

 cart.    s(22) = ( -0.4999999 -0.8660255  0.0000000 )    f =(  0.0000000 )
                  ( -0.8660254  0.4999999  0.0000000 )       (  0.0000000 )
                  (  0.0000000  0.0000000  1.0000000 )       (  1.6232354 )

[...]

      isym = 24     inv. 180 deg rotation - cryst. axis [1,1,0]

 cryst.   s(24) = (     0         -1          0      )
                  (    -1          0          0      )
                  (     0          0          1      )

 cart.    s(24) = (  0.5000001 -0.8660254  0.0000000 )
                  ( -0.8660254 -0.5000001  0.0000000 )
                  (  0.0000000  0.0000000  1.0000000 )

   Cartesian axes

     site n.     atom                  positions (alat units)
         1           Ge  tau(   1) = (   0.0000000   0.0000000   1.3205442  )
         2           Ge  tau(   2) = (   0.0000000   0.0000000   1.9259266  )
         3           Ge  tau(   3) = (   0.0000000   0.0000000   2.9437796  )
         4           Ge  tau(   4) = (   0.0000000   0.0000000   0.3026912  )
         5           Ge  tau(   5) = (  -0.0000005   0.5773505   1.1177274  )
         6           Ge  tau(   6) = (   0.5000005   0.2886748   2.1287433  )
         7           Ge  tau(   7) = (   0.5000005   0.2886748   2.7409628  )
         8           Ge  tau(   8) = (  -0.0000005   0.5773505   0.5055080  )

   Crystallographic axes

     site n.     atom                  positions (cryst. coord.)
         1           Ge  tau(   1) = (  0.0000000  0.0000000  0.4067630  )
         2           Ge  tau(   2) = (  0.0000000  0.0000000  0.5932370  )
         3           Ge  tau(   3) = (  0.0000000  0.0000000  0.9067630  )
         4           Ge  tau(   4) = (  0.0000000  0.0000000  0.0932370  )
         5           Ge  tau(   5) = (  0.3333330  0.6666670  0.3442900  )
         6           Ge  tau(   6) = (  0.6666670  0.3333330  0.6557100  )
         7           Ge  tau(   7) = (  0.6666670  0.3333330  0.8442900  )
         8           Ge  tau(   8) = (  0.3333330  0.6666670  0.1557100  )

     number of k points=     1  Methfessel-Paxton smearing, width (Ry)=  0.0010
                       cart. coord. in units 2pi/alat
        k(    1) = (   0.0000000   0.0000000   0.0000000), wk =   2.0000000

                       cryst. coord.
        k(    1) = (   0.0000000   0.0000000   0.0000000), wk =   2.0000000

     Check: negative core charge=   -0.000001

     Initial potential from superposition of free atoms

     starting charge     111.9930, renormalised to     112.0000
     Starting wfcs are   72 randomized atomic wfcs

     Self-consistent Calculation

     iteration #  1     ecut=    30.00 Ry     beta= 0.70
     Davidson diagonalization with overlap

     ethr =  1.00E-02,  avg # of iterations =  2.0

     Threshold (ethr) on eigenvalues was too large:
     Diagonalizing with lowered threshold

     Davidson diagonalization with overlap

[...]

     total energy              =   -1706.38591468 Ry
     estimated scf accuracy    <       0.32557930 Ry

[...]

     total energy              =   -1706.41814189 Ry
     estimated scf accuracy    <       0.00002706 Ry

     iteration # 29     ecut=    30.00 Ry     beta= 0.70
     Davidson diagonalization with overlap

     ethr =  2.67E-09,  avg # of iterations =  1.0

     End of self-consistent calculation

          k = 0.0000 0.0000 0.0000 (  1804 PWs)   bands (ev):

   -16.2084 -16.2012 -16.1645 -16.1645 -16.1568 -16.1568 -16.1306 -16.1306
   -16.1226 -16.1226 -16.1208 -16.1208 -16.1197 -16.1195 -16.0944 -16.0944
   -16.0813 -16.0813 -16.0673 -16.0673 -16.0168 -16.0127 -15.9379 -15.9379
   -15.9370 -15.9370 -15.9129 -15.9098 -15.9087 -15.9087 -15.8950 -15.8950
   -15.8917 -15.8917 -15.8731 -15.8731 -15.8698 -15.8698 -15.8607 -15.8607
    -4.2353  -3.5310  -3.5025  -2.2234   0.8253   3.5417   3.6061   6.7326
     6.7326   7.2586   7.2586   7.3392   7.3393   7.8583   7.9026   8.2100
     8.2143   8.2143   8.3850   8.7124  10.4218  10.4218  10.7938  11.2319
    11.2319  11.7544  11.7544

     occupation numbers
     1.0000   1.0000   1.0000   1.0000   1.0000   1.0000   1.0000   1.0000
     1.0000   1.0000   1.0000   1.0000   1.0000   1.0000   1.0000   1.0000
     1.0000   1.0000   1.0000   1.0000   1.0000   1.0000   1.0000   1.0000
     1.0000   1.0000   1.0000   1.0000   1.0000   1.0000   1.0000   1.0000
     1.0000   1.0000   1.0000   1.0000   1.0000   1.0000   1.0000   1.0000
     1.0000   1.0000   1.0000   1.0000   1.0000   1.0000   1.0000   1.0000
     1.0000   1.0000   1.0000   1.0000   1.0000   1.0000   1.0000   0.5032
     0.2498   0.2469  -0.0000  -0.0000  -0.0000  -0.0000  -0.0000  -0.0000
    -0.0000  -0.0000  -0.0000

     the Fermi energy is     8.2101 ev

!    total energy              =   -1706.41814199 Ry
     estimated scf accuracy    <       0.00000073 Ry
     smearing contrib. (-TS)   =      -0.00069267 Ry
     internal energy E=F+TS    =   -1706.41744932 Ry

     The total energy is F=E-TS. E is the sum of the following terms:
     one-electron contribution =   -1140.19302027 Ry
     hartree contribution      =     675.93331565 Ry
     xc contribution           =    -466.71022735 Ry
     ewald contribution        =    -775.44751734 Ry

     convergence has been achieved in  29 iterations

     Forces acting on atoms (cartesian axes, Ry/au):

     atom    1 type  1   force =     0.00000000   -0.00000000    0.02914419
     atom    2 type  1   force =     0.00000000    0.00000000   -0.02914419
     atom    3 type  1   force =    -0.00000000    0.00000000    0.02914419
     atom    4 type  1   force =     0.00000000    0.00000000   -0.02914419
     atom    5 type  1   force =     0.00000000   -0.00000000   -0.04042470
     atom    6 type  1   force =    -0.00000000   -0.00000000    0.04042470
     atom    7 type  1   force =    -0.00000000   -0.00000000   -0.04042470
     atom    8 type  1   force =     0.00000000    0.00000000    0.04042470
     The non-local contrib.  to forces
     atom    1 type  1   force =     0.00000000    0.00000000   -0.15594229
     atom    2 type  1   force =     0.00000000   -0.00000000    0.15594229
     atom    3 type  1   force =    -0.00000000   -0.00000000   -0.15594229
     atom    4 type  1   force =    -0.00000000   -0.00000000    0.15594229
     atom    5 type  1   force =     0.00000000    0.00000000    0.22421747
     atom    6 type  1   force =    -0.00000000   -0.00000000   -0.22421747
     atom    7 type  1   force =     0.00000000    0.00000000    0.22421747
     atom    8 type  1   force =     0.00000000    0.00000000   -0.22421747
     The ionic contribution  to forces
     atom    1 type  1   force =    -0.00002427    0.00001401   -0.43769750
     atom    2 type  1   force =     0.00002427   -0.00001401    0.43769750
     atom    3 type  1   force =     0.00002427   -0.00001401   -0.43769750
     atom    4 type  1   force =    -0.00002427    0.00001401    0.43769750
     atom    5 type  1   force =     0.00002590   -0.00001495   -0.24694004
     atom    6 type  1   force =    -0.00002590    0.00001496    0.24694004
     atom    7 type  1   force =    -0.00002590    0.00001496   -0.24694004
     atom    8 type  1   force =     0.00002590   -0.00001495    0.24694004
     The local contribution  to forces
     atom    1 type  1   force =     0.00001326   -0.00193150    0.61990886
     atom    2 type  1   force =    -0.00000475    0.00195122   -0.61919725
     atom    3 type  1   force =     0.00002322    0.00085855    0.61898556
     atom    4 type  1   force =    -0.00002849   -0.00083831   -0.62021077
     atom    5 type  1   force =    -0.00001924    0.00210015   -0.01274325
     atom    6 type  1   force =     0.00001592   -0.00211133    0.01320932
     atom    7 type  1   force =    -0.00002764   -0.00050041   -0.01159417
     atom    8 type  1   force =     0.00003056    0.00048376    0.01181934
     The core correction contribution to forces
     atom    1 type  1   force =    -0.00000018   -0.00002699    0.00254791
     atom    2 type  1   force =     0.00000027    0.00002725   -0.00254638
     atom    3 type  1   force =     0.00000050    0.00001305    0.00253559
     atom    4 type  1   force =    -0.00000069   -0.00001262   -0.00253935
     atom    5 type  1   force =    -0.00000017    0.00003114   -0.00342431
     atom    6 type  1   force =     0.00000000   -0.00003120    0.00341958
     atom    7 type  1   force =    -0.00000071   -0.00000382   -0.00341098
     atom    8 type  1   force =     0.00000084    0.00000352    0.00342207
     The Hubbard contrib.    to forces
     atom    1 type  1   force =     0.00000000    0.00000000    0.00000000
     atom    2 type  1   force =     0.00000000    0.00000000    0.00000000
     atom    3 type  1   force =     0.00000000    0.00000000    0.00000000
     atom    4 type  1   force =     0.00000000    0.00000000    0.00000000
     atom    5 type  1   force =     0.00000000    0.00000000    0.00000000
     atom    6 type  1   force =     0.00000000    0.00000000    0.00000000
     atom    7 type  1   force =     0.00000000    0.00000000    0.00000000
     atom    8 type  1   force =     0.00000000    0.00000000    0.00000000
     The SCF correction term to forces
     atom    1 type  1   force =     0.00001512    0.00160152    0.00041911
     atom    2 type  1   force =    -0.00002042   -0.00161770   -0.00108581
     atom    3 type  1   force =    -0.00004298   -0.00068539    0.00117071
     atom    4 type  1   force =     0.00004914    0.00066681    0.00001137
     atom    5 type  1   force =    -0.00001407   -0.00174440   -0.00159758
     atom    6 type  1   force =     0.00001147    0.00175075    0.00106008
     atom    7 type  1   force =     0.00004522    0.00041656   -0.00261755
     atom    8 type  1   force =    -0.00004768   -0.00039831    0.00249031

     Total force =     0.099670     Total SCF correction =     0.005657

     Computing stress (Cartesian axis) and pressure

          total   stress  (Ry/bohr**3)                   (kbar)     P=      281.77
   0.00307914   0.00000000   0.00000000          452.96        0.00        0.00
   0.00000000   0.00307914  -0.00000000            0.00      452.96       -0.00
   0.00000000  -0.00000000  -0.00041202            0.00       -0.00      -60.61

     kinetic stress (kbar)   9989.03      0.00      0.00
                                0.00   9989.03      0.00
                                0.00      0.00   9445.46

     local   stress (kbar)   1462.45      0.05      0.03
                                0.05   1466.38     -0.92
                                0.03     -0.92   -368.02

     nonloc. stress (kbar)   2838.36      0.00      0.00
                                0.00   2838.36     -0.00
                                0.00     -0.00   2659.61

     hartree stress (kbar)  25391.55     -0.01     -0.02
                               -0.01  25389.09      0.55
                               -0.02      0.55  26342.31

     exc-cor stress (kbar)  18688.86      0.00     -0.00
                                0.00  18688.83      0.01
                               -0.00      0.01  18688.24

     corecor stress (kbar) -28064.72     -0.00      0.00
                               -0.00 -28064.69     -0.01
                                0.00     -0.01 -28057.47

     ewald   stress (kbar) -29853.28     -0.05      0.00
                               -0.05 -29853.34     -0.00
                                0.00     -0.00 -28770.74

     hubbard stress (kbar)      0.00      0.00      0.00
                                0.00      0.00      0.00
                                0.00      0.00      0.00

     DFT-D   stress (kbar)      0.00      0.00      0.00
                                0.00      0.00      0.00
                                0.00      0.00      0.00

     XDM     stress (kbar)      0.00      0.00      0.00
                                0.00      0.00      0.00
                                0.00      0.00      0.00

     dft-nl  stress (kbar)      0.00      0.00      0.00
                                0.00      0.00      0.00
                                0.00      0.00      0.00

     TS-vdW  stress (kbar)      0.00      0.00      0.00
                                0.00      0.00      0.00
                                0.00      0.00      0.00

[...]

                                0.00      0.00      0.00

     Writing all to output data dir new_calculations/myprefix.save/

     General routines

     Parallel routines

   This run was terminated on:  17:17:16  20May2023

   JOB DONE.