     Program PWSCF v.7.0 starts on 21May2023 at 19:21:16

     Reading input from espresso_26987.pwi
Warning: card &CELL ignored
Warning: card / ignored

     Current dimensions of program PWSCF are:
     Max number of different atomic species (ntypx) = 10
     Max number of k-points (npk) =  40000
     Max angular momentum in pseudopotentials (lmaxx) =  4

     gamma-point specific algorithms are used
     Message from routine setup:
     using ibrav=0 with symmetry is DISCOURAGED, use correct ibrav instead

     Subspace diagonalization in iterative solution of the eigenvalue problem:
     a serial algorithm will be used

     Using Slab Decomposition

     bravais-lattice index     =            0
     lattice parameter (alat)  =      10.2117  a.u.
     unit-cell volume          =     532.2506 (a.u.)^3
     number of atoms/cell      =            6
     number of atomic types    =            3
     number of electrons       =        82.00
     number of Kohn-Sham states=           49
     kinetic-energy cutoff     =      30.0000  Ry
     charge density cutoff     =     240.0000  Ry
     scf convergence threshold =      1.0E-06
     mixing beta               =       0.7000
     number of iterations used =            8  plain     mixing
     Exchange-correlation= PBE
                           (   1   4   3   4   0   0   0)

     celldm(1)=  10.211730  celldm(2)=   0.000000  celldm(3)=   0.000000
     celldm(4)=   0.000000  celldm(5)=   0.000000  celldm(6)=   0.000000

     crystal axes: (cart. coord. in units of alat)
               a(1) = (   1.000000   0.000000   0.000000 )
               a(2) = (  -0.500000   0.866025   0.000000 )
               a(3) = (   0.000000   0.000000   0.577149 )

     reciprocal axes: (cart. coord. in units 2 pi/alat)
               b(1) = (  1.000000  0.577350  0.000000 )
               b(2) = (  0.000000  1.154701  0.000000 )
               b(3) = (  0.000000  0.000000  1.732656 )

     PseudoPot. # 1 for Lu read from file:
     /home/pragov/projects/rrg-bengioy-ad/pragov/crystal_structure_design/SSSP/Lu.GGA-PBE-paw-v1.0.UPF
     MD5 check sum: 9ceca61ee0c17e9380a83635bfffa61d
     Pseudo is Projector augmented-wave + core cor, Zval = 25.0
     Generated using ATOMPAW code
     Shape of augmentation charge: BESSEL
     Using radial grid of 1118 points,  8 beta functions with:
                l(1) =   0
                l(2) =   0
                l(3) =   1
                l(4) =   1
                l(5) =   2
                l(6) =   2
                l(7) =   3
                l(8) =   3
     Q(r) pseudized with 0 coefficients

     PseudoPot. # 2 for B  read from file:
     /home/pragov/projects/rrg-bengioy-ad/pragov/crystal_structure_design/SSSP/b_pbe_v1.4.uspp.F.UPF
     MD5 check sum: cc6de2960df11db49a60e589f9ebb39b
     Pseudo is Ultrasoft + core correction, Zval =  3.0
     Generated by new atomic code, or converted to UPF format
     Using radial grid of  781 points,  4 beta functions with:
                l(1) =   0
                l(2) =   0
                l(3) =   1
                l(4) =   1
     Q(r) pseudized with  8 coefficients,  rinner =    1.100   1.100   1.100

     PseudoPot. # 3 for Rh read from file:
     /home/pragov/projects/rrg-bengioy-ad/pragov/crystal_structure_design/SSSP/Rh_ONCV_PBE-1.0.oncvpsp.upf
     MD5 check sum: ba07c69523b14cacd10683cd4c4284c1
     Pseudo is Norm-conserving, Zval = 17.0
     Generated using ONCVPSP code by D. R. Hamann
     Using radial grid of 1442 points,  6 beta functions with:
                l(1) =   0
                l(2) =   0
                l(3) =   1
                l(4) =   1
                l(5) =   2
                l(6) =   2

     atomic species   valence    mass     pseudopotential
        Lu            25.00   174.96680     Lu( 1.00)
        B              3.00    10.81000     B ( 1.00)
        Rh            17.00   102.90550     Rh( 1.00)

     24 Sym. Ops., with inversion, found

                                    s                        frac. trans.

      isym =  1     identity

 cryst.   s( 1) = (     1          0          0      )
                  (     0          1          0      )
                  (     0          0          1      )

 cart.    s( 1) = (  1.0000000  0.0000000  0.0000000 )
                  (  0.0000000  1.0000000  0.0000000 )
                  (  0.0000000  0.0000000  1.0000000 )

      isym =  2     180 deg rotation - cart. axis [0,0,1]

[...]

      isym =  4     180 deg rotation - cart. axis [1,0,0]

[...]

      isym =  5      60 deg rotation - cryst. axis [0,0,1]

[...]

 cryst.   s( 9) = (     0         -1          0      )
                  (    -1          0          0      )
                  (     0          0         -1      )

 cart.    s( 9) = (  0.5000001 -0.8660253  0.0000000 )
                  ( -0.8660253 -0.5000001  0.0000000 )
                  (  0.0000000  0.0000000 -1.0000000 )

[...]

 cryst.   s(10) = (     1          1          0      )
                  (     0         -1          0      )
                  (     0          0         -1      )

 cart.    s(10) = (  0.4999999  0.8660256  0.0000000 )
                  (  0.8660253 -0.4999999  0.0000000 )
                  (  0.0000000  0.0000000 -1.0000000 )

[...]

      isym = 12     180 deg rotation - cryst. axis [1,1,0]

[...]

      isym = 13     inversion

[...]

      isym = 14     inv. 180 deg rotation - cart. axis [0,0,1]

[...]

      isym = 16     inv. 180 deg rotation - cart. axis [1,0,0]

[...]

      isym = 17     inv.  60 deg rotation - cryst. axis [0,0,1]

[...]

      isym = 24     inv. 180 deg rotation - cryst. axis [1,1,0]

 cryst.   s(24) = (     0         -1          0      )
                  (    -1          0          0      )
                  (     0          0          1      )

 cart.    s(24) = (  0.5000001 -0.8660253  0.0000000 )
                  ( -0.8660253 -0.5000001  0.0000000 )
                  (  0.0000000  0.0000000  1.0000000 )

   Cartesian axes

     site n.     atom                  positions (alat units)
         1           Lu  tau(   1) = (   0.0000000   0.0000000   0.2885743  )
         2           B   tau(   2) = (   0.5000005   0.2886748   0.2885743  )
         3           B   tau(   3) = (  -0.0000006   0.5773505   0.2885743  )
         4           Rh  tau(   4) = (  -0.2500001   0.4330127   0.0000000  )
         5           Rh  tau(   5) = (   0.2499999   0.4330127   0.0000000  )
         6           Rh  tau(   6) = (   0.5000000   0.0000000   0.0000000  )

   Crystallographic axes

     site n.     atom                  positions (cryst. coord.)
         1           Lu  tau(   1) = (  0.0000000  0.0000000  0.5000000  )
         2           B   tau(   2) = (  0.6666670  0.3333330  0.5000000  )
         3           B   tau(   3) = (  0.3333330  0.6666670  0.5000000  )
         4           Rh  tau(   4) = ( -0.0000000  0.5000000  0.0000000  )
         5           Rh  tau(   5) = (  0.5000000  0.5000000  0.0000000  )
         6           Rh  tau(   6) = (  0.5000000  0.0000000  0.0000000  )

     number of k points=     1  Methfessel-Paxton smearing, width (Ry)=  0.0010
                       cart. coord. in units 2pi/alat
        k(    1) = (   0.0000000   0.0000000   0.0000000), wk =   2.0000000

                       cryst. coord.
        k(    1) = (   0.0000000   0.0000000   0.0000000), wk =   2.0000000

     Initial potential from superposition of free atoms

     starting charge      81.9944, renormalised to      82.0000
     Starting wfcs are   70 randomized atomic wfcs
     Checking if some PAW data can be deallocated...

     Self-consistent Calculation

     iteration #  1     ecut=    30.00 Ry     beta= 0.70
     Davidson diagonalization with overlap

     ethr =  1.00E-02,  avg # of iterations =  2.0

     Threshold (ethr) on eigenvalues was too large:
     Diagonalizing with lowered threshold

     Davidson diagonalization with overlap

[...]

     total energy              =   -1743.69857346 Ry
     estimated scf accuracy    <       0.56063418 Ry

[...]

     total energy              =   -1743.93819791 Ry
     estimated scf accuracy    <       0.00003551 Ry

     iteration # 12     ecut=    30.00 Ry     beta= 0.70
     Davidson diagonalization with overlap

     ethr =  4.33E-08,  avg # of iterations =  2.0

     End of self-consistent calculation

          k = 0.0000 0.0000 0.0000 (   753 PWs)   bands (ev):

   -59.4995 -59.4433 -59.4424 -36.9011 -28.0829 -27.6883 -27.6878 -27.3756
   -27.3754 -27.2597 -26.9490 -26.8858 -26.8851  -7.4719  -7.4321  -7.4320
     8.7528  13.2349  13.2349  13.2969  13.3486  13.5691  14.3484  14.4483
    14.4483  14.5096  14.5964  14.5964  14.7208  14.7753  15.2600  15.2601
    16.7533  16.7534  17.4143  17.4146  18.3560  18.3563  18.4316  18.4317
    18.6646  19.5158  20.1227  20.5341  21.5374  21.5375  25.2504  25.2518
    25.5699

     occupation numbers
     1.0000   1.0000   1.0000   1.0000   1.0000   1.0000   1.0000   1.0000
     1.0000   1.0000   1.0000   1.0000   1.0000   1.0000   1.0000   1.0000
     1.0000   1.0000   1.0000   1.0000   1.0000   1.0000   1.0000   1.0000
     1.0000   1.0000   1.0000   1.0000   1.0000   1.0000   1.0000   1.0000
     1.0000   1.0000   1.0000   1.0000   1.0000   1.0000   1.0000   1.0000
     1.0000  -0.0000  -0.0000  -0.0000  -0.0000  -0.0000  -0.0000  -0.0000
    -0.0000

     the Fermi energy is    19.0387 ev

!    total energy              =   -1743.93820433 Ry
     estimated scf accuracy    <       0.00000016 Ry
     smearing contrib. (-TS)   =       0.00000000 Ry
     internal energy E=F+TS    =   -1743.93820433 Ry

     The total energy is F=E-TS. E is the sum of the following terms:
     one-electron contribution =    -561.57252917 Ry
     hartree contribution      =     292.96635784 Ry
     xc contribution           =    -113.39473235 Ry
     ewald contribution        =    -870.93669531 Ry
     one-center paw contrib.   =    -491.00060534 Ry
      -> PAW hartree energy AE =     489.33627107 Ry
      -> PAW hartree energy PS =    -421.02326298 Ry
      -> PAW xc energy AE      =    -599.28335588 Ry
      -> PAW xc energy PS      =      39.96974245 Ry
      -> total E_H with PAW    =     361.27936594 Ry
      -> total E_XC with PAW   =    -672.70834578 Ry

     convergence has been achieved in  12 iterations

     Forces acting on atoms (cartesian axes, Ry/au):

     atom    1 type  1   force =     0.00000000    0.00000000    0.00000000
     atom    2 type  2   force =     0.00000000   -0.00000000    0.00000000
     atom    3 type  2   force =    -0.00000000    0.00000000   -0.00000000
     atom    4 type  3   force =     0.00000000    0.00000000   -0.00000000
     atom    5 type  3   force =     0.00000000   -0.00000000   -0.00000000
     atom    6 type  3   force =    -0.00000000   -0.00000000   -0.00000000
     The non-local contrib.  to forces
     atom    1 type  1   force =     0.00000000    0.00000000   -0.00000000
     atom    2 type  2   force =     0.00000000   -0.00000000    0.00000000
     atom    3 type  2   force =    -0.00000000   -0.00000000   -0.00000000
     atom    4 type  3   force =     0.00000000    0.00000000   -0.00000000
     atom    5 type  3   force =     0.00000000    0.00000000   -0.00000000
     atom    6 type  3   force =     0.00000000    0.00000000   -0.00000000
     The ionic contribution  to forces
     atom    1 type  1   force =     0.00000000   -0.00000000   -0.00000000
     atom    2 type  2   force =    -0.00001522    0.00000879   -0.00000000
     atom    3 type  2   force =     0.00001522   -0.00000879   -0.00000000
     atom    4 type  3   force =     0.00000000    0.00000000   -0.00000000
     atom    5 type  3   force =    -0.00000000    0.00000000   -0.00000000
     atom    6 type  3   force =    -0.00000000   -0.00000000   -0.00000000
     The local contribution  to forces
     atom    1 type  1   force =    -0.00012270    0.00147238    0.00048783
     atom    2 type  2   force =     0.00001336   -0.00009789    0.00000620
     atom    3 type  2   force =    -0.00000705    0.00001891    0.00001187
     atom    4 type  3   force =     0.00095983   -0.00024334   -0.00000363
     atom    5 type  3   force =    -0.00095670   -0.00004524   -0.00004858
     atom    6 type  3   force =     0.00014473   -0.00040621   -0.00006471
     The core correction contribution to forces
     atom    1 type  1   force =    -0.00000000    0.00000001    0.00000001
     atom    2 type  2   force =     0.00000023    0.00000058   -0.00000002
     atom    3 type  2   force =    -0.00000066   -0.00000079    0.00000005
     atom    4 type  3   force =     0.00000000    0.00000000    0.00000000
     atom    5 type  3   force =     0.00000000    0.00000000    0.00000000
     atom    6 type  3   force =     0.00000000    0.00000000    0.00000000
     The Hubbard contrib.    to forces
     atom    1 type  1   force =     0.00000000    0.00000000    0.00000000
     atom    2 type  2   force =     0.00000000    0.00000000    0.00000000
     atom    3 type  2   force =     0.00000000    0.00000000    0.00000000
     atom    4 type  3   force =     0.00000000    0.00000000    0.00000000
     atom    5 type  3   force =     0.00000000    0.00000000    0.00000000
     atom    6 type  3   force =     0.00000000    0.00000000    0.00000000
     The SCF correction term to forces
     atom    1 type  1   force =     0.00017053   -0.00163979   -0.00057356
     atom    2 type  2   force =     0.00000557    0.00011434   -0.00000641
     atom    3 type  2   force =    -0.00001834   -0.00003122   -0.00000737
     atom    4 type  3   force =    -0.00112637    0.00018358    0.00004347
     atom    5 type  3   force =     0.00107194   -0.00000654    0.00006999
     atom    6 type  3   force =    -0.00013694    0.00058027    0.00006555

     Total force =     0.000000     Total SCF correction =     0.002425

     Computing stress (Cartesian axis) and pressure

          total   stress  (Ry/bohr**3)                   (kbar)     P=       25.00
   0.00021410   0.00000000   0.00000000           31.49        0.00        0.00
   0.00000000   0.00021410  -0.00000000            0.00       31.49       -0.00
   0.00000000   0.00000000   0.00008164            0.00        0.00       12.01

     kinetic stress (kbar)  44022.96      0.01      0.00
                                0.01  44022.97      0.00
                                0.00      0.00  45485.04

     local   stress (kbar)    988.95      0.05     -0.00
                                0.05    988.93      0.01
                               -0.00      0.01  10100.93

     nonloc. stress (kbar)  14661.25      0.00      0.00
                                0.00  14661.26      0.00
                                0.00      0.00  14247.48

     hartree stress (kbar)  28273.91     -0.02     -0.00
                               -0.02  28273.88     -0.00
                               -0.00     -0.00  24423.16

     exc-cor stress (kbar)  -9370.48     -0.00     -0.00
                               -0.00  -9370.48     -0.00
                               -0.00     -0.00  -9356.37

     corecor stress (kbar)   -425.53      0.00      0.00
                                0.00   -425.53     -0.00
                                0.00     -0.00   -415.16

     ewald   stress (kbar) -78119.56      0.01      0.00
                                0.01 -78119.55     -0.00
                                0.00     -0.00 -84473.08

     hubbard stress (kbar)      0.00      0.00      0.00
                                0.00      0.00      0.00
                                0.00      0.00      0.00

     DFT-D   stress (kbar)      0.00      0.00      0.00
                                0.00      0.00      0.00
                                0.00      0.00      0.00

     XDM     stress (kbar)      0.00      0.00      0.00
                                0.00      0.00      0.00
                                0.00      0.00      0.00

     dft-nl  stress (kbar)      0.00      0.00      0.00
                                0.00      0.00      0.00
                                0.00      0.00      0.00

     TS-vdW  stress (kbar)      0.00      0.00      0.00
                                0.00      0.00      0.00
                                0.00      0.00      0.00

[...]

                                0.00      0.00      0.00

     Writing all to output data dir new_calculations/myprefix.save/

     General routines

     Parallel routines

     PAW routines

   This run was terminated on:  19:21:30  21May2023

   JOB DONE.