     Program PWSCF v.7.0 starts on 20May2023 at 15:32:55

     Reading input from espresso_16445.pwi
Warning: card &CELL ignored
Warning: card / ignored

     Current dimensions of program PWSCF are:
     Max number of different atomic species (ntypx) = 10
     Max number of k-points (npk) =  40000
     Max angular momentum in pseudopotentials (lmaxx) =  4

     gamma-point specific algorithms are used
     Message from routine setup:
     using ibrav=0 with symmetry is DISCOURAGED, use correct ibrav instead

     Subspace diagonalization in iterative solution of the eigenvalue problem:
     a serial algorithm will be used

     Using Slab Decomposition

     bravais-lattice index     =            0
     lattice parameter (alat)  =       6.0865  a.u.
     unit-cell volume          =    1124.3581 (a.u.)^3
     number of atoms/cell      =           10
     number of atomic types    =            3
     number of electrons       =       146.00
     number of Kohn-Sham states=           88
     kinetic-energy cutoff     =      30.0000  Ry
     charge density cutoff     =     240.0000  Ry
     scf convergence threshold =      1.0E-06
     mixing beta               =       0.7000
     number of iterations used =            8  plain     mixing
     Exchange-correlation=  SLA  PW   PBX  PBC
                           (   1   4   3   4   0   0   0)

     celldm(1)=   6.086511  celldm(2)=   0.000000  celldm(3)=   0.000000
     celldm(4)=   0.000000  celldm(5)=   0.000000  celldm(6)=   0.000000

     crystal axes: (cart. coord. in units of alat)
               a(1) = (   1.000000   0.000000   0.000000 )
               a(2) = (   0.000000   1.000000   0.000000 )
               a(3) = (   0.000000   0.000000   4.986541 )

     reciprocal axes: (cart. coord. in units 2 pi/alat)
               b(1) = (  1.000000  0.000000  0.000000 )
               b(2) = (  0.000000  1.000000  0.000000 )
               b(3) = (  0.000000  0.000000  0.200540 )

     PseudoPot. # 1 for Zr read from file:
     /home/pragov/projects/rrg-bengioy-ad/pragov/crystal_structure_design/SSSP/Zr_pbe_v1.uspp.F.UPF
     MD5 check sum: 5db81b1e868ab7776c4564c113de050b
     Pseudo is Ultrasoft + core correction, Zval = 12.0
     Generated by new atomic code, or converted to UPF format
     Using radial grid of  887 points,  6 beta functions with:
                l(1) =   0
                l(2) =   0
                l(3) =   1
                l(4) =   1
                l(5) =   2
                l(6) =   2
     Q(r) pseudized with  6 coefficients,  rinner =    1.200   1.200   1.200
                                                       1.200   1.200

     PseudoPot. # 2 for Co read from file:
     /home/pragov/projects/rrg-bengioy-ad/pragov/crystal_structure_design/SSSP/Co_pbe_v1.2.uspp.F.UPF
     MD5 check sum: 5f91765df6ddd3222702df6e7b74a16d
     Pseudo is Ultrasoft + core correction, Zval = 17.0
     Generated by new atomic code, or converted to UPF format
     Using radial grid of  863 points,  6 beta functions with:
                l(1) =   0
                l(2) =   0
                l(3) =   1
                l(4) =   1
                l(5) =   2
                l(6) =   2
     Q(r) pseudized with  8 coefficients,  rinner =    1.200   1.200   1.200
                                                       1.200   1.200

     PseudoPot. # 3 for Ni read from file:
     /home/pragov/projects/rrg-bengioy-ad/pragov/crystal_structure_design/SSSP/ni_pbe_v1.4.uspp.F.UPF
     MD5 check sum: 1ee80287db30b12d2bc1f57a5b5d6409
     Pseudo is Ultrasoft + core correction, Zval = 18.0
     Generated by new atomic code, or converted to UPF format
     Using radial grid of  865 points,  6 beta functions with:
                l(1) =   0
                l(2) =   0
                l(3) =   1
                l(4) =   1
                l(5) =   2
                l(6) =   2
     Q(r) pseudized with 10 coefficients,  rinner =    0.980   0.980   0.980
                                                       0.980   0.980

     atomic species   valence    mass     pseudopotential
        Zr            12.00    91.22400     Zr( 1.00)
        Co            17.00    58.93319     Co( 1.00)
        Ni            18.00    58.69340     Ni( 1.00)

     16 Sym. Ops., with inversion, found

                                    s                        frac. trans.

      isym =  1     identity

 cryst.   s( 1) = (     1          0          0      )
                  (     0          1          0      )
                  (     0          0          1      )

 cart.    s( 1) = (  1.0000000  0.0000000  0.0000000 )
                  (  0.0000000  1.0000000  0.0000000 )
                  (  0.0000000  0.0000000  1.0000000 )

      isym =  2     180 deg rotation - cart. axis [0,0,1]

[...]

      isym =  8      90 deg rotation - cart. axis [0,0,1]

[...]

      isym =  9     inversion

 cryst.   s( 9) = (    -1          0          0      )
                  (     0         -1          0      )
                  (     0          0         -1      )

 cart.    s( 9) = ( -1.0000000  0.0000000  0.0000000 )
                  (  0.0000000 -1.0000000  0.0000000 )
                  (  0.0000000  0.0000000 -1.0000000 )

      isym = 10     inv. 180 deg rotation - cart. axis [0,0,1]

 cryst.   s(10) = (     1          0          0      )
                  (     0          1          0      )
                  (     0          0         -1      )

 cart.    s(10) = (  1.0000000  0.0000000  0.0000000 )
                  (  0.0000000  1.0000000  0.0000000 )
                  (  0.0000000  0.0000000 -1.0000000 )

[...]

      isym = 16     inv.  90 deg rotation - cart. axis [0,0,1]

 cryst.   s(16) = (     0         -1          0      )
                  (     1          0          0      )
                  (     0          0         -1      )

 cart.    s(16) = (  0.0000000  1.0000000  0.0000000 )
                  ( -1.0000000  0.0000000  0.0000000 )
                  (  0.0000000  0.0000000 -1.0000000 )

   Cartesian axes

     site n.     atom                  positions (alat units)
         1           Zr  tau(   1) = (   0.5000000   0.5000000   0.5023292  )
         2           Zr  tau(   2) = (   0.5000000   0.5000000   1.4954238  )
         3           Zr  tau(   3) = (   0.5000000   0.5000000   2.4932706  )
         4           Zr  tau(   4) = (   0.5000000   0.5000000   3.4911173  )
         5           Zr  tau(   5) = (   0.5000000   0.5000000   4.4842119  )
         6           Co  tau(   6) = (   0.0000000   0.0000000   1.0022599  )
         7           Co  tau(   7) = (   0.0000000   0.0000000   1.9964315  )
         8           Co  tau(   8) = (   0.0000000   0.0000000   2.9901096  )
         9           Co  tau(   9) = (   0.0000000   0.0000000   3.9842812  )
        10           Ni  tau(  10) = (   0.0000000   0.0000000   0.0000000  )

   Crystallographic axes

     site n.     atom                  positions (cryst. coord.)
         1           Zr  tau(   1) = (  0.5000000  0.5000000  0.1007370  )
         2           Zr  tau(   2) = (  0.5000000  0.5000000  0.2998920  )
         3           Zr  tau(   3) = (  0.5000000  0.5000000  0.5000000  )
         4           Zr  tau(   4) = (  0.5000000  0.5000000  0.7001080  )
         5           Zr  tau(   5) = (  0.5000000  0.5000000  0.8992630  )
         6           Co  tau(   6) = (  0.0000000  0.0000000  0.2009930  )
         7           Co  tau(   7) = (  0.0000000  0.0000000  0.4003640  )
         8           Co  tau(   8) = (  0.0000000  0.0000000  0.5996360  )
         9           Co  tau(   9) = (  0.0000000  0.0000000  0.7990070  )
        10           Ni  tau(  10) = (  0.0000000  0.0000000  0.0000000  )

     number of k points=     1  Methfessel-Paxton smearing, width (Ry)=  0.0010
                       cart. coord. in units 2pi/alat
        k(    1) = (   0.0000000   0.0000000   0.0000000), wk =   2.0000000

                       cryst. coord.
        k(    1) = (   0.0000000   0.0000000   0.0000000), wk =   2.0000000

     Check: negative core charge=   -0.000015

     Initial potential from superposition of free atoms

     starting charge     139.9892, renormalised to     146.0000

     negative rho (up, down):  3.150E-01 0.000E+00
     Starting wfcs are  130 randomized atomic wfcs

     Self-consistent Calculation

     iteration #  1     ecut=    30.00 Ry     beta= 0.70
     Davidson diagonalization with overlap

     ethr =  1.00E-02,  avg # of iterations =  7.0

     negative rho (up, down):  2.916E-01 0.000E+00

     total energy              =    -988.78632291 Ry
     estimated scf accuracy    <    1199.81106946 Ry

[...]

     WARNING: integrated charge=   146.00041469, expected=   146.00000000

[...]

     WARNING: integrated charge=   146.00001858, expected=   146.00000000

[...]

     total energy              =   -2033.77267274 Ry
     estimated scf accuracy    <       0.00004148 Ry

     iteration # 86     ecut=    30.00 Ry     beta= 0.70
     Davidson diagonalization with overlap

     ethr =  1.57E-09,  avg # of iterations =  2.0

[...]

     End of self-consistent calculation

          k = 0.0000 0.0000 0.0000 (  1563 PWs)   bands (ev):

   -86.9307 -78.5307 -78.5303 -78.3025 -78.3021 -47.3516 -47.3516 -47.1502
   -42.1489 -42.1424 -41.7868 -41.7861 -41.6510 -41.6510 -41.6488 -41.6488
   -41.4868 -41.4868 -41.4862 -41.4862 -32.8350 -32.7683 -32.7646 -32.7155
   -32.6928 -11.4476 -11.3681 -11.1057 -11.0770 -10.8754 -10.4997 -10.4997
   -10.4224 -10.4224 -10.4201 -10.4201 -10.3738 -10.3738 -10.3527 -10.3527
     8.9827   9.7228   9.8162  11.5807  11.7087  12.4379  12.7623  12.8849
    12.9143  13.0512  13.1615  13.1659  13.2115  13.9195  14.0458  14.6887
    14.7045  14.7045  14.7669  14.7669  14.7738  14.7738  15.0173  15.0173
    15.0378  15.0378  15.0671  15.1959  15.3433  15.3654  15.8300  15.9270
    16.2420  16.2633  16.7578  16.7799  16.8916  16.9546  17.0240  17.1470
    17.1470  17.2298  17.2298  17.2734  18.6757  18.6757  18.7058  18.7058

     occupation numbers
     1.0000   1.0000   1.0000   1.0000   1.0000   1.0000   1.0000   1.0000
     1.0000   1.0000   1.0000   1.0000   1.0000   1.0000   1.0000   1.0000
     1.0000   1.0000   1.0000   1.0000   1.0000   1.0000   1.0000   1.0000
     1.0000   1.0000   1.0000   1.0000   1.0000   1.0000   1.0000   1.0000
     1.0000   1.0000   1.0000   1.0000   1.0000   1.0000   1.0000   1.0000
     1.0000   1.0000   1.0000   1.0000   1.0000   1.0000   1.0000   1.0000
     1.0000   1.0000   1.0000   1.0000   1.0000   1.0000   1.0000   1.0000
     1.0000   1.0000   1.0000   1.0000   1.0000   1.0000   1.0000   1.0000
     1.0000   1.0000   1.0000   1.0000   1.0000   1.0000   1.0000   1.0000
     0.9861   0.0139  -0.0000  -0.0000  -0.0000  -0.0000  -0.0000  -0.0000
    -0.0000  -0.0000  -0.0000  -0.0000  -0.0000  -0.0000  -0.0000  -0.0000

     the Fermi energy is    16.2527 ev

!    total energy              =   -2033.77267220 Ry
     estimated scf accuracy    <       0.00000098 Ry
     smearing contrib. (-TS)   =       0.00007069 Ry
     internal energy E=F+TS    =   -2033.77274289 Ry

     The total energy is F=E-TS. E is the sum of the following terms:
     one-electron contribution =   -1113.45036756 Ry
     hartree contribution      =     633.45284589 Ry
     xc contribution           =    -255.50726926 Ry
     ewald contribution        =   -1298.26795196 Ry

     convergence has been achieved in  86 iterations

     negative rho (up, down):  3.130E-01 0.000E+00

     Forces acting on atoms (cartesian axes, Ry/au):

     atom    1 type  1   force =     0.00000000    0.00000000    0.05065394
     atom    2 type  1   force =     0.00000000    0.00000000    0.00747718
     atom    3 type  1   force =     0.00000000    0.00000000    0.00000000
     atom    4 type  1   force =     0.00000000    0.00000000   -0.00747718
     atom    5 type  1   force =     0.00000000    0.00000000   -0.05065394
     atom    6 type  2   force =     0.00000000    0.00000000    0.00574300
     atom    7 type  2   force =     0.00000000    0.00000000    0.01299480
     atom    8 type  2   force =     0.00000000    0.00000000   -0.01299480
     atom    9 type  2   force =     0.00000000    0.00000000   -0.00574300
     atom   10 type  3   force =     0.00000000    0.00000000    0.00000000
     The non-local contrib.  to forces
     atom    1 type  1   force =     0.00000000    0.00000000   -0.05979826
     atom    2 type  1   force =     0.00000000    0.00000000   -0.04697687
     atom    3 type  1   force =     0.00000000    0.00000000    0.00000000
     atom    4 type  1   force =     0.00000000    0.00000000    0.04697687
     atom    5 type  1   force =     0.00000000    0.00000000    0.05979826
     atom    6 type  2   force =     0.00000000    0.00000000    0.10343556
     atom    7 type  2   force =     0.00000000    0.00000000    0.02996232
     atom    8 type  2   force =     0.00000000    0.00000000   -0.02996232
     atom    9 type  2   force =     0.00000000    0.00000000   -0.10343556
     atom   10 type  3   force =     0.00000000    0.00000000    0.00000000
     The ionic contribution  to forces
     atom    1 type  1   force =    -0.00000000   -0.00000000    1.95967379
     atom    2 type  1   force =     0.00000000    0.00000000    1.40198984
     atom    3 type  1   force =     0.00000000    0.00000000    0.00000000
     atom    4 type  1   force =     0.00000000    0.00000000   -1.40198984
     atom    5 type  1   force =     0.00000000    0.00000000   -1.95967379
     atom    6 type  2   force =    -0.00000000   -0.00000000    2.10994163
     atom    7 type  2   force =     0.00000000    0.00000000    0.73043761
     atom    8 type  2   force =     0.00000000    0.00000000   -0.73043761
     atom    9 type  2   force =    -0.00000000   -0.00000000   -2.10994163
     atom   10 type  3   force =    -0.00000000   -0.00000000   -0.00000000
     The local contribution  to forces
     atom    1 type  1   force =     0.00000000   -0.00000000   -1.85190569
     atom    2 type  1   force =    -0.00000000   -0.00000000   -1.34865691
     atom    3 type  1   force =    -0.00000000   -0.00000000    0.00256196
     atom    4 type  1   force =    -0.00000000   -0.00000000    1.34840406
     atom    5 type  1   force =     0.00000000    0.00000000    1.84963055
     atom    6 type  2   force =     0.00000000    0.00000000   -2.20692326
     atom    7 type  2   force =     0.00000000    0.00000000   -0.74439287
     atom    8 type  2   force =    -0.00000000    0.00000000    0.74927037
     atom    9 type  2   force =     0.00000000    0.00000000    2.20405956
     atom   10 type  3   force =     0.00000000    0.00000000   -0.00222461
     The core correction contribution to forces
     atom    1 type  1   force =     0.00000000   -0.00000000    0.00319332
     atom    2 type  1   force =    -0.00000000    0.00000000    0.00280380
     atom    3 type  1   force =    -0.00000000   -0.00000000   -0.00000303
     atom    4 type  1   force =    -0.00000000   -0.00000000   -0.00280531
     atom    5 type  1   force =     0.00000000    0.00000000   -0.00318789
     atom    6 type  2   force =    -0.00000000   -0.00000000    0.00081988
     atom    7 type  2   force =    -0.00000000   -0.00000000    0.00109484
     atom    8 type  2   force =     0.00000000    0.00000000   -0.00110106
     atom    9 type  2   force =     0.00000000   -0.00000000   -0.00081686
     atom   10 type  3   force =     0.00000000    0.00000000    0.00000374
     The Hubbard contrib.    to forces
     atom    1 type  1   force =     0.00000000    0.00000000    0.00000000
     atom    2 type  1   force =     0.00000000    0.00000000    0.00000000
     atom    3 type  1   force =     0.00000000    0.00000000    0.00000000
     atom    4 type  1   force =     0.00000000    0.00000000    0.00000000
     atom    5 type  1   force =     0.00000000    0.00000000    0.00000000
     atom    6 type  2   force =     0.00000000    0.00000000    0.00000000
     atom    7 type  2   force =     0.00000000    0.00000000    0.00000000
     atom    8 type  2   force =     0.00000000    0.00000000    0.00000000
     atom    9 type  2   force =     0.00000000    0.00000000    0.00000000
     atom   10 type  3   force =     0.00000000    0.00000000    0.00000000
     The SCF correction term to forces
     atom    1 type  1   force =     0.00000000    0.00000000   -0.00046269
     atom    2 type  1   force =     0.00000000    0.00000000   -0.00170270
     atom    3 type  1   force =     0.00000000    0.00000000   -0.00260482
     atom    4 type  1   force =     0.00000000    0.00000000    0.00191701
     atom    5 type  1   force =    -0.00000000   -0.00000000    0.00282545
     atom    6 type  2   force =    -0.00000000   -0.00000000   -0.00160902
     atom    7 type  2   force =    -0.00000000   -0.00000000   -0.00401422
     atom    8 type  2   force =     0.00000000   -0.00000000   -0.00067129
     atom    9 type  2   force =    -0.00000000   -0.00000000    0.00431329
     atom   10 type  3   force =    -0.00000000   -0.00000000    0.00205774

     Total force =     0.075148     Total SCF correction =     0.007972
     SCF correction compared to forces is large: reduce conv_thr to get better values

     Computing stress (Cartesian axis) and pressure

     negative rho (up, down):  3.130E-01 0.000E+00
          total   stress  (Ry/bohr**3)                   (kbar)     P=     -392.51
  -0.00378377   0.00000000   0.00000000         -556.61        0.00        0.00
   0.00000000  -0.00378377   0.00000000            0.00     -556.61        0.00
   0.00000000   0.00000000  -0.00043710            0.00        0.00      -64.30

     kinetic stress (kbar)  31692.61      0.00      0.00
                                0.00  31692.61      0.00
                                0.00      0.00  30763.48

     local   stress (kbar) -12292.42     -0.00     -0.00
                               -0.00 -12292.42      0.00
                               -0.00      0.00 -10404.60

     nonloc. stress (kbar)  18930.15      0.00      0.00
                                0.00  18930.15      0.00
                                0.00      0.00  19067.29

     hartree stress (kbar)  27797.47      0.00      0.00
                                0.00  27797.47     -0.00
                                0.00     -0.00  27282.68

     exc-cor stress (kbar)  -4545.38      0.00      0.00
                                0.00  -4545.38     -0.00
                                0.00     -0.00  -4569.84

     corecor stress (kbar)  -5537.80     -0.00     -0.00
                               -0.00  -5537.80      0.00
                               -0.00      0.00  -5547.27

     ewald   stress (kbar) -56601.24     -0.00      0.00
                               -0.00 -56601.24      0.00
                                0.00      0.00 -56656.05

     hubbard stress (kbar)      0.00      0.00      0.00
                                0.00      0.00      0.00
                                0.00      0.00      0.00

     DFT-D   stress (kbar)      0.00      0.00      0.00
                                0.00      0.00      0.00
                                0.00      0.00      0.00

     XDM     stress (kbar)      0.00      0.00      0.00
                                0.00      0.00      0.00
                                0.00      0.00      0.00

     dft-nl  stress (kbar)      0.00      0.00      0.00
                                0.00      0.00      0.00
                                0.00      0.00      0.00

     TS-vdW  stress (kbar)      0.00      0.00      0.00
                                0.00      0.00      0.00
                                0.00      0.00      0.00

[...]

                                0.00      0.00      0.00

     Writing all to output data dir new_calculations/myprefix.save/

     General routines

     Parallel routines

   This run was terminated on:  15:34:23  20May2023

   JOB DONE.