     Program PWSCF v.7.0 starts on 21May2023 at  2:49: 9

     Reading input from espresso_9922.pwi
Warning: card &CELL ignored
Warning: card / ignored

     Current dimensions of program PWSCF are:
     Max number of different atomic species (ntypx) = 10
     Max number of k-points (npk) =  40000
     Max angular momentum in pseudopotentials (lmaxx) =  4

     gamma-point specific algorithms are used
     Message from routine setup:
     using ibrav=0 with symmetry is DISCOURAGED, use correct ibrav instead

     Subspace diagonalization in iterative solution of the eigenvalue problem:
     a serial algorithm will be used

     Using Slab Decomposition

     bravais-lattice index     =            0
     lattice parameter (alat)  =       7.8399  a.u.
     unit-cell volume          =    1371.3584 (a.u.)^3
     number of atoms/cell      =           12
     number of atomic types    =            3
     number of electrons       =       160.00
     number of Kohn-Sham states=           96
     kinetic-energy cutoff     =      30.0000  Ry
     charge density cutoff     =     240.0000  Ry
     scf convergence threshold =      1.0E-06
     mixing beta               =       0.7000
     number of iterations used =            8  plain     mixing
     Exchange-correlation= SLA  PW   PBE  PBE
                           (   1   4   3   4   0   0   0)

     celldm(1)=   7.839899  celldm(2)=   0.000000  celldm(3)=   0.000000
     celldm(4)=   0.000000  celldm(5)=   0.000000  celldm(6)=   0.000000

     crystal axes: (cart. coord. in units of alat)
               a(1) = (   1.000000   0.000000   0.000000 )
               a(2) = (   0.000000   1.569253   0.000000 )
               a(3) = (   0.000000   0.000000   1.813538 )

     reciprocal axes: (cart. coord. in units 2 pi/alat)
               b(1) = (  1.000000  0.000000  0.000000 )
               b(2) = (  0.000000  0.637246  0.000000 )
               b(3) = (  0.000000  0.000000  0.551408 )

     PseudoPot. # 1 for Sc read from file:
     /home/pragov/projects/rrg-bengioy-ad/pragov/crystal_structure_design/SSSP/Sc_ONCV_PBE-1.0.oncvpsp.upf
     MD5 check sum: e21af8023abb52e52cb7cd3133e4a229
     Pseudo is Norm-conserving, Zval = 11.0
     Generated using ONCVPSP code by D. R. Hamann
     Using radial grid of 1662 points,  6 beta functions with:
                l(1) =   0
                l(2) =   0
                l(3) =   1
                l(4) =   1
                l(5) =   2
                l(6) =   2

     PseudoPot. # 2 for Ge read from file:
     /home/pragov/projects/rrg-bengioy-ad/pragov/crystal_structure_design/SSSP/ge_pbe_v1.4.uspp.F.UPF
     MD5 check sum: 9c9eaa91e581c3f09632fb3098b2c6b2
     Pseudo is Ultrasoft + core correction, Zval = 14.0
     Generated by new atomic code, or converted to UPF format
     Using radial grid of  873 points,  6 beta functions with:
                l(1) =   0
                l(2) =   0
                l(3) =   1
                l(4) =   1
                l(5) =   2
                l(6) =   2
     Q(r) pseudized with  8 coefficients,  rinner =    1.400   1.400   1.400
                                                       1.400   1.400

     PseudoPot. # 3 for Ir read from file:
     /home/pragov/projects/rrg-bengioy-ad/pragov/crystal_structure_design/SSSP/Ir_pbe_v1.2.uspp.F.UPF
     MD5 check sum: 8836f839c3459d2b385c504ce6d91f2c
     Pseudo is Ultrasoft + core correction, Zval = 15.0
     Generated by new atomic code, or converted to UPF format
     Using radial grid of  983 points,  7 beta functions with:
                l(1) =   0
                l(2) =   0
                l(3) =   1
                l(4) =   1
                l(5) =   1
                l(6) =   2
                l(7) =   2
     Q(r) pseudized with  8 coefficients,  rinner =    1.400   1.400   1.400
                                                       1.400   1.400

     atomic species   valence    mass     pseudopotential
        Sc            11.00    44.95591     Sc( 1.00)
        Ge            14.00    72.63000     Ge( 1.00)
        Ir            15.00   192.21700     Ir( 1.00)

      8 Sym. Ops., with inversion, found ( 6 have fractional translation)

                                    s                        frac. trans.

      isym =  1     identity

 cryst.   s( 1) = (     1          0          0      )
                  (     0          1          0      )
                  (     0          0          1      )

 cart.    s( 1) = (  1.0000000  0.0000000  0.0000000 )
                  (  0.0000000  1.0000000  0.0000000 )
                  (  0.0000000  0.0000000  1.0000000 )

      isym =  2     180 deg rotation - cart. axis [0,0,1]

 cryst.   s( 2) = (    -1          0          0      )    f =(  0.0000000 )
                  (     0         -1          0      )       (  0.5000000 )
                  (     0          0          1      )       ( -0.5000000 )

 cart.    s( 2) = ( -1.0000000  0.0000000  0.0000000 )    f =(  0.0000000 )
                  (  0.0000000 -1.0000000  0.0000000 )       (  0.7846265 )
                  (  0.0000000  0.0000000  1.0000000 )       ( -0.9067688 )

[...]

      isym =  4     180 deg rotation - cart. axis [1,0,0]

[...]

      isym =  5     inversion

 cryst.   s( 5) = (    -1          0          0      )
                  (     0         -1          0      )
                  (     0          0         -1      )

 cart.    s( 5) = ( -1.0000000  0.0000000  0.0000000 )
                  (  0.0000000 -1.0000000  0.0000000 )
                  (  0.0000000  0.0000000 -1.0000000 )

      isym =  6     inv. 180 deg rotation - cart. axis [0,0,1]

[...]

      isym =  8     inv. 180 deg rotation - cart. axis [1,0,0]

 cryst.   s( 8) = (    -1          0          0      )    f =(  0.5000000 )
                  (     0          1          0      )       (  0.0000000 )
                  (     0          0          1      )       (  0.0000000 )

 cart.    s( 8) = ( -1.0000000  0.0000000  0.0000000 )    f =(  0.5000000 )
                  (  0.0000000  1.0000000  0.0000000 )       (  0.0000000 )
                  (  0.0000000  0.0000000  1.0000000 )       (  0.0000000 )

   Cartesian axes

     site n.     atom                  positions (alat units)
         1           Sc  tau(   1) = (   0.2500000   0.0219805   0.5670787  )
         2           Sc  tau(   2) = (   0.2500000   0.8066071   0.3396901  )
         3           Sc  tau(   3) = (   0.7500000   1.5472726   1.2464589  )
         4           Sc  tau(   4) = (   0.7500000   0.7626460   1.4738475  )
         5           Ge  tau(   5) = (   0.2500000   0.4462030   1.1300588  )
         6           Ge  tau(   6) = (   0.2500000   1.2308295   1.5902476  )
         7           Ge  tau(   7) = (   0.7500000   1.1230501   0.6834788  )
         8           Ge  tau(   8) = (   0.7500000   0.3384236   0.2232900  )
         9           Ir  tau(   9) = (   0.2500000   0.2571253   1.7091685  )
        10           Ir  tau(  10) = (   0.2500000   1.0417518   1.0111379  )
        11           Ir  tau(  11) = (   0.7500000   1.3121278   0.1043691  )
        12           Ir  tau(  12) = (   0.7500000   0.5275013   0.8023997  )

   Crystallographic axes

     site n.     atom                  positions (cryst. coord.)
         1           Sc  tau(   1) = (  0.2500000  0.0140070  0.3126920  )
         2           Sc  tau(   2) = (  0.2500000  0.5140070  0.1873080  )
         3           Sc  tau(   3) = (  0.7500000  0.9859930  0.6873080  )
         4           Sc  tau(   4) = (  0.7500000  0.4859930  0.8126920  )
         5           Ge  tau(   5) = (  0.2500000  0.2843410  0.6231240  )
         6           Ge  tau(   6) = (  0.2500000  0.7843410  0.8768760  )
         7           Ge  tau(   7) = (  0.7500000  0.7156590  0.3768760  )
         8           Ge  tau(   8) = (  0.7500000  0.2156590  0.1231240  )
         9           Ir  tau(   9) = (  0.2500000  0.1638520  0.9424500  )
        10           Ir  tau(  10) = (  0.2500000  0.6638520  0.5575500  )
        11           Ir  tau(  11) = (  0.7500000  0.8361480  0.0575500  )
        12           Ir  tau(  12) = (  0.7500000  0.3361480  0.4424500  )

     number of k points=     1  Methfessel-Paxton smearing, width (Ry)=  0.0010
                       cart. coord. in units 2pi/alat
        k(    1) = (   0.0000000   0.0000000   0.0000000), wk =   2.0000000

                       cryst. coord.
        k(    1) = (   0.0000000   0.0000000   0.0000000), wk =   2.0000000

     Check: negative core charge=   -0.000001

     Initial potential from superposition of free atoms

     starting charge     157.9858, renormalised to     160.0000

     negative rho (up, down):  1.460E+00 0.000E+00
     Starting wfcs are  124 randomized atomic wfcs

     Self-consistent Calculation

     iteration #  1     ecut=    30.00 Ry     beta= 0.70
     Davidson diagonalization with overlap

     ethr =  1.00E-02,  avg # of iterations =  2.0

     negative rho (up, down):  1.160E+00 0.000E+00

     total energy              =   -1945.53563649 Ry
     estimated scf accuracy    <       6.80207710 Ry

[...]

     total energy              =   -1949.71285511 Ry
     estimated scf accuracy    <       0.00000157 Ry

     iteration # 16     ecut=    30.00 Ry     beta= 0.70
     Davidson diagonalization with overlap

     ethr =  9.83E-10,  avg # of iterations =  5.0

[...]

     End of self-consistent calculation

          k = 0.0000 0.0000 0.0000 (  1903 PWs)   bands (ev):

   -33.7932 -33.7924 -33.7836 -33.7709 -33.4785 -33.4778 -33.4369 -33.4368
   -33.2091 -33.2027 -33.2018 -33.2013 -33.0344 -33.0302 -32.9830 -32.9821
   -12.6492 -12.6360 -12.4990 -12.4964 -12.3562 -12.3517 -12.3389 -12.3383
   -12.3232 -12.3064 -12.2860 -12.2813  -8.8781  -8.8777  -8.8766  -8.8752
    -8.8680  -8.8669  -8.8664  -8.8653  -8.8606  -8.8551  -8.8533  -8.8493
    -8.8463  -8.8415  -8.8413  -8.8398  -8.8389  -8.8291  -8.8254  -8.8217
     4.3382   5.9788   6.1463   6.1703   9.9588  10.1582  10.6731  10.7421
    10.9105  10.9456  10.9612  11.1866  11.5762  11.8559  11.9082  12.1852
    12.4769  12.6444  12.8711  13.1354  13.2544  13.3751  13.4001  13.7019
    13.8547  14.0859  14.1191  14.3728  14.7276  15.6141  15.6241  15.7088
    15.8346  16.0677  16.5562  16.8323  17.4332  17.7393  17.8277  17.8534
    17.8705  18.1890  18.3905  18.5831  18.6766  18.7763  18.7889  18.8767

     occupation numbers
     1.0000   1.0000   1.0000   1.0000   1.0000   1.0000   1.0000   1.0000
     1.0000   1.0000   1.0000   1.0000   1.0000   1.0000   1.0000   1.0000
     1.0000   1.0000   1.0000   1.0000   1.0000   1.0000   1.0000   1.0000
     1.0000   1.0000   1.0000   1.0000   1.0000   1.0000   1.0000   1.0000
     1.0000   1.0000   1.0000   1.0000   1.0000   1.0000   1.0000   1.0000
     1.0000   1.0000   1.0000   1.0000   1.0000   1.0000   1.0000   1.0000
     1.0000   1.0000   1.0000   1.0000   1.0000   1.0000   1.0000   1.0000
     1.0000   1.0000   1.0000   1.0000   1.0000   1.0000   1.0000   1.0000
     1.0000   1.0000   1.0000   1.0000   1.0000   1.0000   1.0000   1.0000
     1.0000   1.0000   1.0000   1.0000   1.0000   1.0000   1.0000   1.0000
    -0.0000  -0.0000  -0.0000  -0.0000  -0.0000  -0.0000  -0.0000  -0.0000
    -0.0000  -0.0000  -0.0000  -0.0000  -0.0000  -0.0000  -0.0000  -0.0000

     the Fermi energy is    15.7717 ev

!    total energy              =   -1949.71285521 Ry
     estimated scf accuracy    <       0.00000008 Ry
     smearing contrib. (-TS)   =       0.00000000 Ry
     internal energy E=F+TS    =   -1949.71285521 Ry

     The total energy is F=E-TS. E is the sum of the following terms:
     one-electron contribution =    -674.13827785 Ry
     hartree contribution      =     458.48631638 Ry
     xc contribution           =    -483.28130752 Ry
     ewald contribution        =   -1250.77958622 Ry

     convergence has been achieved in  16 iterations

     negative rho (up, down):  1.270E+00 0.000E+00

     Forces acting on atoms (cartesian axes, Ry/au):

     atom    1 type  1   force =     0.00000000   -0.01841354    0.07769372
     atom    2 type  1   force =    -0.00000000   -0.01841354   -0.07769372
     atom    3 type  1   force =     0.00000000    0.01841354   -0.07769372
     atom    4 type  1   force =     0.00000000    0.01841354    0.07769372
     atom    5 type  2   force =     0.00000000   -0.01259302    0.01329034
     atom    6 type  2   force =     0.00000000   -0.01259302   -0.01329034
     atom    7 type  2   force =    -0.00000000    0.01259302   -0.01329034
     atom    8 type  2   force =    -0.00000000    0.01259302    0.01329034
     atom    9 type  3   force =     0.00000000    0.02929843   -0.01360819
     atom   10 type  3   force =     0.00000000    0.02929843    0.01360819
     atom   11 type  3   force =     0.00000000   -0.02929843    0.01360819
     atom   12 type  3   force =     0.00000000   -0.02929843   -0.01360819
     The non-local contrib.  to forces
     atom    1 type  1   force =     0.00000000    0.00778280   -0.06157262
     atom    2 type  1   force =     0.00000000    0.00778280    0.06157262
     atom    3 type  1   force =     0.00000000   -0.00778280    0.06157262
     atom    4 type  1   force =    -0.00000000   -0.00778280   -0.06157262
     atom    5 type  2   force =    -0.00000000    0.07744072   -0.02127613
     atom    6 type  2   force =     0.00000000    0.07744072    0.02127613
     atom    7 type  2   force =    -0.00000000   -0.07744072    0.02127613
     atom    8 type  2   force =    -0.00000000   -0.07744072   -0.02127613
     atom    9 type  3   force =     0.00000000   -0.03132928    0.11082379
     atom   10 type  3   force =     0.00000000   -0.03132928   -0.11082379
     atom   11 type  3   force =     0.00000000    0.03132928   -0.11082379
     atom   12 type  3   force =     0.00000000    0.03132928    0.11082379
     The ionic contribution  to forces
     atom    1 type  1   force =     0.00000000   -0.08580696    4.41588376
     atom    2 type  1   force =    -0.00000000   -0.08580696   -4.41588376
     atom    3 type  1   force =     0.00000000    0.08580696   -4.41588376
     atom    4 type  1   force =     0.00000000    0.08580696    4.41588376
     atom    5 type  2   force =    -0.00000000   -7.57417213    1.77561979
     atom    6 type  2   force =    -0.00000000   -7.57417213   -1.77561979
     atom    7 type  2   force =     0.00000000    7.57417213   -1.77561979
     atom    8 type  2   force =     0.00000000    7.57417213    1.77561979
     atom    9 type  3   force =    -0.00000000    7.30527009   -2.22146129
     atom   10 type  3   force =    -0.00000000    7.30527009    2.22146129
     atom   11 type  3   force =     0.00000000   -7.30527009    2.22146129
     atom   12 type  3   force =    -0.00000000   -7.30527009   -2.22146129
     The local contribution  to forces
     atom    1 type  1   force =     0.00000026    0.05962805   -4.27657500
     atom    2 type  1   force =    -0.00000014    0.05959071    4.27683809
     atom    3 type  1   force =     0.00000033   -0.05957869    4.27640273
     atom    4 type  1   force =    -0.00000085   -0.05963351   -4.27663901
     atom    5 type  2   force =     0.00000238    7.48178559   -1.73891377
     atom    6 type  2   force =    -0.00000146    7.48317094    1.73872265
     atom    7 type  2   force =    -0.00000032   -7.48201062    1.73844391
     atom    8 type  2   force =    -0.00000080   -7.48293410   -1.73833506
     atom    9 type  3   force =    -0.00000155   -7.21442561    2.11623521
     atom   10 type  3   force =     0.00000093   -7.21316879   -2.11630787
     atom   11 type  3   force =     0.00000221    7.21439453   -2.11563962
     atom   12 type  3   force =    -0.00000234    7.21319314    2.11561677
     The core correction contribution to forces
     atom    1 type  1   force =     0.00000000    0.00000000    0.00000000
     atom    2 type  1   force =     0.00000000    0.00000000    0.00000000
     atom    3 type  1   force =     0.00000000    0.00000000    0.00000000
     atom    4 type  1   force =     0.00000000    0.00000000    0.00000000
     atom    5 type  2   force =     0.00000002    0.00167530   -0.00245301
     atom    6 type  2   force =    -0.00000003    0.00167790    0.00245308
     atom    7 type  2   force =     0.00000001   -0.00167627    0.00245344
     atom    8 type  2   force =    -0.00000003   -0.00167572   -0.00245371
     atom    9 type  3   force =     0.00000027   -0.03086499   -0.01897137
     atom   10 type  3   force =     0.00000003   -0.03085664    0.01896696
     atom   11 type  3   force =     0.00000020    0.03086272    0.01897117
     atom   12 type  3   force =    -0.00000012    0.03085755   -0.01897008
     The Hubbard contrib.    to forces
     atom    1 type  1   force =     0.00000000    0.00000000    0.00000000
     atom    2 type  1   force =     0.00000000    0.00000000    0.00000000
     atom    3 type  1   force =     0.00000000    0.00000000    0.00000000
     atom    4 type  1   force =     0.00000000    0.00000000    0.00000000
     atom    5 type  2   force =     0.00000000    0.00000000    0.00000000
     atom    6 type  2   force =     0.00000000    0.00000000    0.00000000
     atom    7 type  2   force =     0.00000000    0.00000000    0.00000000
     atom    8 type  2   force =     0.00000000    0.00000000    0.00000000
     atom    9 type  3   force =     0.00000000    0.00000000    0.00000000
     atom   10 type  3   force =     0.00000000    0.00000000    0.00000000
     atom   11 type  3   force =     0.00000000    0.00000000    0.00000000
     atom   12 type  3   force =     0.00000000    0.00000000    0.00000000
     The SCF correction term to forces
     atom    1 type  1   force =    -0.00000030   -0.00002660   -0.00002744
     atom    2 type  1   force =     0.00000029    0.00003058   -0.00022207
     atom    3 type  1   force =    -0.00000047   -0.00000912    0.00021042
     atom    4 type  1   force =     0.00000084    0.00000159    0.00000096
     atom    5 type  2   force =    -0.00000285    0.00070371    0.00033373
     atom    6 type  2   force =     0.00000185   -0.00074652   -0.00011318
     atom    7 type  2   force =     0.00000043   -0.00048790    0.00015909
     atom    8 type  2   force =     0.00000157    0.00049800   -0.00027251
     atom    9 type  3   force =     0.00000140    0.00065389   -0.00026273
     atom   10 type  3   force =    -0.00000038   -0.00062924    0.00031824
     atom   11 type  3   force =    -0.00000230   -0.00061709   -0.00036346
     atom   12 type  3   force =     0.00000237    0.00058731    0.00041488

     Total force =     0.176116     Total SCF correction =     0.001970

     Computing stress (Cartesian axis) and pressure

     negative rho (up, down):  1.270E+00 0.000E+00
          total   stress  (Ry/bohr**3)                   (kbar)     P=     -111.70
  -0.00081524   0.00000000   0.00000000         -119.93        0.00        0.00
   0.00000000  -0.00048370   0.00000000            0.00      -71.15        0.00
   0.00000000   0.00000000  -0.00097901            0.00        0.00     -144.02

     kinetic stress (kbar)  26930.78      0.00      0.00
                                0.00  27100.19      0.00
                                0.00      0.00  27125.36

     local   stress (kbar)   6946.13      0.00      0.00
                                0.00  16369.53     -0.01
                                0.00     -0.01  11369.70

     nonloc. stress (kbar)   -350.89      0.00      0.00
                                0.00    -15.74      0.00
                                0.00      0.00   -244.88

     hartree stress (kbar)  18362.85     -0.00     -0.00
                               -0.00  14511.38      0.01
                               -0.00      0.01  16307.42

     exc-cor stress (kbar)  17643.67     -0.00     -0.00
                               -0.00  17643.89      0.00
                               -0.00      0.00  17646.63

     corecor stress (kbar) -27829.66     -0.00      0.00
                               -0.00 -27842.61     -0.00
                                0.00     -0.00 -27838.19

     ewald   stress (kbar) -41822.80      0.00     -0.00
                                0.00 -47837.78      0.00
                               -0.00      0.00 -44510.05

     hubbard stress (kbar)      0.00      0.00      0.00
                                0.00      0.00      0.00
                                0.00      0.00      0.00

     DFT-D   stress (kbar)      0.00      0.00      0.00
                                0.00      0.00      0.00
                                0.00      0.00      0.00

     XDM     stress (kbar)      0.00      0.00      0.00
                                0.00      0.00      0.00
                                0.00      0.00      0.00

     dft-nl  stress (kbar)      0.00      0.00      0.00
                                0.00      0.00      0.00
                                0.00      0.00      0.00

     TS-vdW  stress (kbar)      0.00      0.00      0.00
                                0.00      0.00      0.00
                                0.00      0.00      0.00

[...]

                                0.00      0.00      0.00

     Writing all to output data dir new_calculations/myprefix.save/

     General routines

     Parallel routines

   This run was terminated on:   2:49:32  21May2023

   JOB DONE.