     Program PWSCF v.7.0 starts on 21May2023 at  7:49:19

     Reading input from espresso_26545.pwi
Warning: card &CELL ignored
Warning: card / ignored

     Current dimensions of program PWSCF are:
     Max number of different atomic species (ntypx) = 10
     Max number of k-points (npk) =  40000
     Max angular momentum in pseudopotentials (lmaxx) =  4
     file O.pbe-n-kjpaw_psl.0.1.UPF: wavefunction(s)  2P renormalized

     gamma-point specific algorithms are used
     Message from routine setup:
     using ibrav=0 with symmetry is DISCOURAGED, use correct ibrav instead

     Subspace diagonalization in iterative solution of the eigenvalue problem:
     a serial algorithm will be used

     Using Slab Decomposition

     bravais-lattice index     =            0
     lattice parameter (alat)  =      10.6514  a.u.
     unit-cell volume          =    1791.2516 (a.u.)^3
     number of atoms/cell      =           20
     number of atomic types    =            3
     number of electrons       =       164.00
     number of Kohn-Sham states=           98
     kinetic-energy cutoff     =      30.0000  Ry
     charge density cutoff     =     240.0000  Ry
     scf convergence threshold =      1.0E-06
     mixing beta               =       0.7000
     number of iterations used =            8  plain     mixing
     Exchange-correlation= SLA  PW   PBX  PBC
                           (   1   4   3   4   0   0   0)

     celldm(1)=  10.651426  celldm(2)=   0.000000  celldm(3)=   0.000000
     celldm(4)=   0.000000  celldm(5)=   0.000000  celldm(6)=   0.000000

     crystal axes: (cart. coord. in units of alat)
               a(1) = (   1.000000   0.000000   0.000000 )
               a(2) = (   0.000000   1.035690   0.000000 )
               a(3) = (   0.000000   0.000000   1.431210 )

     reciprocal axes: (cart. coord. in units 2 pi/alat)
               b(1) = (  1.000000  0.000000  0.000000 )
               b(2) = (  0.000000  0.965539  0.000000 )
               b(3) = (  0.000000  0.000000  0.698710 )

     PseudoPot. # 1 for Ce read from file:
     /home/pragov/projects/rrg-bengioy-ad/pragov/crystal_structure_design/SSSP/Ce.GGA-PBE-paw-v1.0.UPF
     MD5 check sum: f2b950f613061344c13339c8d844425d
     Pseudo is Projector augmented-wave + core cor, Zval = 12.0
     Generated using ATOMPAW code
     Shape of augmentation charge: BESSEL
     Using radial grid of 1102 points,  8 beta functions with:
                l(1) =   0
                l(2) =   0
                l(3) =   1
                l(4) =   1
                l(5) =   2
                l(6) =   2
                l(7) =   3
                l(8) =   3
     Q(r) pseudized with 0 coefficients

     PseudoPot. # 2 for Sc read from file:
     /home/pragov/projects/rrg-bengioy-ad/pragov/crystal_structure_design/SSSP/Sc_ONCV_PBE-1.0.oncvpsp.upf
     MD5 check sum: e21af8023abb52e52cb7cd3133e4a229
     Pseudo is Norm-conserving, Zval = 11.0
     Generated using ONCVPSP code by D. R. Hamann
     Using radial grid of 1662 points,  6 beta functions with:
                l(1) =   0
                l(2) =   0
                l(3) =   1
                l(4) =   1
                l(5) =   2
                l(6) =   2

     PseudoPot. # 3 for O  read from file:
     /home/pragov/projects/rrg-bengioy-ad/pragov/crystal_structure_design/SSSP/O.pbe-n-kjpaw_psl.0.1.UPF
     MD5 check sum: 0234752ac141de4415c5fc33072bef88
     Pseudo is Projector augmented-wave + core cor, Zval =  6.0
     Generated using "atomic" code by A. Dal Corso  v.5.0.99 svn rev. 10869
     Shape of augmentation charge: BESSEL
     Using radial grid of 1095 points,  4 beta functions with:
                l(1) =   0
                l(2) =   0
                l(3) =   1
                l(4) =   1
     Q(r) pseudized with 0 coefficients

     atomic species   valence    mass     pseudopotential
        Ce            12.00   140.11600     Ce( 1.00)
        Sc            11.00    44.95591     Sc( 1.00)
        O              6.00    15.99900     O ( 1.00)

      8 Sym. Ops., with inversion, found ( 6 have fractional translation)

                                    s                        frac. trans.

      isym =  1     identity

 cryst.   s( 1) = (     1          0          0      )
                  (     0          1          0      )
                  (     0          0          1      )

 cart.    s( 1) = (  1.0000000  0.0000000  0.0000000 )
                  (  0.0000000  1.0000000  0.0000000 )
                  (  0.0000000  0.0000000  1.0000000 )

      isym =  2     180 deg rotation - cart. axis [0,0,1]

 cryst.   s( 2) = (    -1          0          0      )    f =(  0.0000000 )
                  (     0         -1          0      )       ( -0.0000000 )
                  (     0          0          1      )       ( -0.5000000 )

 cart.    s( 2) = ( -1.0000000  0.0000000  0.0000000 )    f =(  0.0000000 )
                  (  0.0000000 -1.0000000  0.0000000 )       ( -0.0000000 )
                  (  0.0000000  0.0000000  1.0000000 )       ( -0.7156049 )

[...]

      isym =  4     180 deg rotation - cart. axis [1,0,0]

[...]

      isym =  5     inversion

 cryst.   s( 5) = (    -1          0          0      )
                  (     0         -1          0      )
                  (     0          0         -1      )

 cart.    s( 5) = ( -1.0000000  0.0000000  0.0000000 )
                  (  0.0000000 -1.0000000  0.0000000 )
                  (  0.0000000  0.0000000 -1.0000000 )

      isym =  6     inv. 180 deg rotation - cart. axis [0,0,1]

[...]

      isym =  8     inv. 180 deg rotation - cart. axis [1,0,0]

 cryst.   s( 8) = (    -1          0          0      )    f =(  0.5000000 )
                  (     0          1          0      )       ( -0.5000000 )
                  (     0          0          1      )       (  0.0000000 )

 cart.    s( 8) = ( -1.0000000  0.0000000  0.0000000 )    f =(  0.5000000 )
                  (  0.0000000  1.0000000  0.0000000 )       ( -0.5178452 )
                  (  0.0000000  0.0000000  1.0000000 )       (  0.0000000 )

   Cartesian axes

     site n.     atom                  positions (alat units)
         1           Ce  tau(   1) = (   0.9852200   0.0601167   0.3578025  )
         2           Ce  tau(   2) = (   0.4852200   0.4577286   1.0734074  )
         3           Ce  tau(   3) = (   0.5147800   0.5779619   0.3578025  )
         4           Ce  tau(   4) = (   0.0147800   0.9755738   1.0734074  )
         5           Sc  tau(   5) = (   0.5000000   0.0000000   0.0000000  )
         6           Sc  tau(   6) = (   0.5000000   0.0000000   0.7156049  )
         7           Sc  tau(   7) = (   0.0000000   0.5178452   0.0000000  )
         8           Sc  tau(   8) = (   0.0000000   0.5178452   0.7156049  )
         9           O   tau(   9) = (   0.6144590   0.0444208   1.0734074  )
        10           O   tau(  10) = (   0.1953000   0.2037369   1.3460457  )
        11           O   tau(  11) = (   0.1953000   0.2037369   0.8007691  )
        12           O   tau(  12) = (   0.6953000   0.3141083   0.0851641  )
        13           O   tau(  13) = (   0.6953000   0.3141083   0.6304408  )
        14           O   tau(  14) = (   0.1144590   0.4734245   0.3578025  )
        15           O   tau(  15) = (   0.8855410   0.5622660   1.0734074  )
        16           O   tau(  16) = (   0.3047000   0.7215821   0.8007691  )
        17           O   tau(  17) = (   0.3047000   0.7215821   1.3460457  )
        18           O   tau(  18) = (   0.8047000   0.8319536   0.6304408  )
        19           O   tau(  19) = (   0.8047000   0.8319536   0.0851641  )
        20           O   tau(  20) = (   0.3855410   0.9912697   0.3578025  )

   Crystallographic axes

     site n.     atom                  positions (cryst. coord.)
         1           Ce  tau(   1) = (  0.9852200  0.0580450  0.2500000  )
         2           Ce  tau(   2) = (  0.4852200  0.4419550  0.7500000  )
         3           Ce  tau(   3) = (  0.5147800  0.5580450  0.2500000  )
         4           Ce  tau(   4) = (  0.0147800  0.9419550  0.7500000  )
         5           Sc  tau(   5) = (  0.5000000  0.0000000  0.0000000  )
         6           Sc  tau(   6) = (  0.5000000  0.0000000  0.5000000  )
         7           Sc  tau(   7) = (  0.0000000  0.5000000  0.0000000  )
         8           Sc  tau(   8) = (  0.0000000  0.5000000  0.5000000  )
         9           O   tau(   9) = (  0.6144590  0.0428900  0.7500000  )
        10           O   tau(  10) = (  0.1953000  0.1967160  0.9404950  )
        11           O   tau(  11) = (  0.1953000  0.1967160  0.5595050  )
        12           O   tau(  12) = (  0.6953000  0.3032840  0.0595050  )
        13           O   tau(  13) = (  0.6953000  0.3032840  0.4404950  )
        14           O   tau(  14) = (  0.1144590  0.4571100  0.2500000  )
        15           O   tau(  15) = (  0.8855410  0.5428900  0.7500000  )
        16           O   tau(  16) = (  0.3047000  0.6967160  0.5595050  )
        17           O   tau(  17) = (  0.3047000  0.6967160  0.9404950  )
        18           O   tau(  18) = (  0.8047000  0.8032840  0.4404950  )
        19           O   tau(  19) = (  0.8047000  0.8032840  0.0595050  )
        20           O   tau(  20) = (  0.3855410  0.9571100  0.2500000  )

     number of k points=     1  Methfessel-Paxton smearing, width (Ry)=  0.0010
                       cart. coord. in units 2pi/alat
        k(    1) = (   0.0000000   0.0000000   0.0000000), wk =   2.0000000

                       cryst. coord.
        k(    1) = (   0.0000000   0.0000000   0.0000000), wk =   2.0000000

     Check: negative core charge=   -0.000012

     Initial potential from superposition of free atoms

     starting charge     163.9615, renormalised to     164.0000
     Starting wfcs are  216 randomized atomic wfcs
     Checking if some PAW data can be deallocated...

     Self-consistent Calculation

     iteration #  1     ecut=    30.00 Ry     beta= 0.70
     Davidson diagonalization with overlap

     ethr =  1.00E-02,  avg # of iterations =  2.0

     total energy              =   -2794.82210774 Ry
     estimated scf accuracy    <       5.71867845 Ry

[...]

     c_bands:  5 eigenvalues not converged
     ethr =  2.93E-05,  avg # of iterations = 20.0

[...]

     total energy              =   -2797.89967579 Ry
     estimated scf accuracy    <       0.00000322 Ry

     iteration # 42     ecut=    30.00 Ry     beta= 0.70
     Davidson diagonalization with overlap

     ethr =  1.96E-09,  avg # of iterations =  6.0

     End of self-consistent calculation

          k = 0.0000 0.0000 0.0000 (  2476 PWs)   bands (ev):

   -36.8683 -36.8634 -36.7911 -36.7862 -21.6365 -21.6142 -21.5657 -21.5438
   -15.6820 -15.6381 -15.6232 -15.6207 -15.6119 -15.5646 -15.5598 -15.5155
   -15.4916 -15.4855 -15.4710 -15.4318  -7.1668  -6.8879  -6.8596  -6.8547
    -6.7393  -6.2075  -6.2054  -6.0565  -5.9834  -5.8589  -5.4670  -5.3901
    -4.4763  -4.4757  -4.3461  -4.3366  -4.1617  -3.9996  -3.7611  -3.2504
    -3.2480  -3.1411  -2.9328  -2.7203   6.7018   6.9500   7.0141   7.0507
     7.3667   7.7083   7.7268   7.8071   7.8398   7.9153   7.9829   8.0196
     8.2862   8.3234   8.5284   8.5510   8.5510   8.5513   8.5827   8.6100
     8.6358   8.7443   8.8575   9.0774   9.1441   9.1511   9.2176   9.3272
     9.4427   9.6128   9.6567   9.8458   9.8588   9.9190  10.0612  10.1407
    13.3653  13.5141  13.5342  13.5755  13.5789  13.6525  13.6781  13.6914
    13.7208  13.7254  13.7285  13.7348  13.7417  13.7424  13.7698  13.8002
    13.8500  13.8546

     occupation numbers
     1.0000   1.0000   1.0000   1.0000   1.0000   1.0000   1.0000   1.0000
     1.0000   1.0000   1.0000   1.0000   1.0000   1.0000   1.0000   1.0000
     1.0000   1.0000   1.0000   1.0000   1.0000   1.0000   1.0000   1.0000
     1.0000   1.0000   1.0000   1.0000   1.0000   1.0000   1.0000   1.0000
     1.0000   1.0000   1.0000   1.0000   1.0000   1.0000   1.0000   1.0000
     1.0000   1.0000   1.0000   1.0000   1.0000   1.0000   1.0000   1.0000
     1.0000   1.0000   1.0000   1.0000   1.0000   1.0000   1.0000   1.0000
     1.0000   1.0000   1.0000   1.0000   1.0000   1.0000   1.0000   1.0000
     1.0000   1.0000   1.0000   1.0000   1.0000   1.0000   1.0000   1.0000
     1.0000   1.0000   1.0000   1.0000   1.0000   1.0000   1.0000   1.0000
     1.0000   0.9736   0.0264  -0.0000  -0.0000  -0.0000  -0.0000  -0.0000
    -0.0000  -0.0000  -0.0000  -0.0000  -0.0000  -0.0000  -0.0000  -0.0000
    -0.0000  -0.0000

     the Fermi energy is    13.5242 ev

!    total energy              =   -2797.89967556 Ry
     estimated scf accuracy    <       0.00000052 Ry
     smearing contrib. (-TS)   =       0.00003277 Ry
     internal energy E=F+TS    =   -2797.89970833 Ry

     The total energy is F=E-TS. E is the sum of the following terms:
     one-electron contribution =    -183.35499708 Ry
     hartree contribution      =     199.54939143 Ry
     xc contribution           =    -179.29560378 Ry
     ewald contribution        =    -887.07742101 Ry
     one-center paw contrib.   =   -1747.72107790 Ry
      -> PAW hartree energy AE =     534.60386938 Ry
      -> PAW hartree energy PS =    -532.23961823 Ry
      -> PAW xc energy AE      =   -1875.30647213 Ry
      -> PAW xc energy PS      =     125.22114308 Ry
      -> total E_H with PAW    =     201.91364258 Ry
      -> total E_XC with PAW   =   -1929.38093282 Ry

     convergence has been achieved in  42 iterations

     Forces acting on atoms (cartesian axes, Ry/au):

     atom    1 type  1   force =    -0.00667442    0.02183635    0.00000000
     atom    2 type  1   force =    -0.00667442   -0.02183635    0.00000000
     atom    3 type  1   force =     0.00667442    0.02183635    0.00000000
     atom    4 type  1   force =     0.00667442   -0.02183635    0.00000000
     atom    5 type  2   force =    -0.00000000    0.00000000    0.00000000
     atom    6 type  2   force =     0.00000000    0.00000000    0.00000000
     atom    7 type  2   force =     0.00000000    0.00000000    0.00000000
     atom    8 type  2   force =     0.00000000    0.00000000    0.00000000
     atom    9 type  3   force =     0.01114808    0.02112019    0.00000000
     atom   10 type  3   force =    -0.00478545   -0.00381992   -0.02323134
     atom   11 type  3   force =    -0.00478545   -0.00381992    0.02323134
     atom   12 type  3   force =    -0.00478545    0.00381992    0.02323134
     atom   13 type  3   force =    -0.00478545    0.00381992   -0.02323134
     atom   14 type  3   force =     0.01114808   -0.02112019    0.00000000
     atom   15 type  3   force =    -0.01114808    0.02112019    0.00000000
     atom   16 type  3   force =     0.00478545   -0.00381992    0.02323134
     atom   17 type  3   force =     0.00478545   -0.00381992   -0.02323134
     atom   18 type  3   force =     0.00478545    0.00381992   -0.02323134
     atom   19 type  3   force =     0.00478545    0.00381992    0.02323134
     atom   20 type  3   force =    -0.01114808   -0.02112019    0.00000000
     The non-local contrib.  to forces
     atom    1 type  1   force =    -0.01381232   -0.05850229    0.00000000
     atom    2 type  1   force =    -0.01381232    0.05850229    0.00000000
     atom    3 type  1   force =     0.01381232   -0.05850229    0.00000000
     atom    4 type  1   force =     0.01381232    0.05850229    0.00000000
     atom    5 type  2   force =     0.00000000    0.00000000    0.00000000
     atom    6 type  2   force =     0.00000000    0.00000000   -0.00000000
     atom    7 type  2   force =     0.00000000   -0.00000000    0.00000000
     atom    8 type  2   force =     0.00000000    0.00000000   -0.00000000
     atom    9 type  3   force =    -0.05631421    0.00322152    0.00000000
     atom   10 type  3   force =     0.04261127   -0.00775478   -0.04471532
     atom   11 type  3   force =     0.04261127   -0.00775478    0.04471532
     atom   12 type  3   force =     0.04261127    0.00775478    0.04471532
     atom   13 type  3   force =     0.04261127    0.00775478   -0.04471532
     atom   14 type  3   force =    -0.05631421   -0.00322152    0.00000000
     atom   15 type  3   force =     0.05631421    0.00322152    0.00000000
     atom   16 type  3   force =    -0.04261127   -0.00775478    0.04471532
     atom   17 type  3   force =    -0.04261127   -0.00775478   -0.04471532
     atom   18 type  3   force =    -0.04261127    0.00775478   -0.04471532
     atom   19 type  3   force =    -0.04261127    0.00775478    0.04471532
     atom   20 type  3   force =     0.05631421   -0.00322152    0.00000000
     The ionic contribution  to forces
     atom    1 type  1   force =     0.94232923   -1.40574108    0.00000000
     atom    2 type  1   force =     0.94232923    1.40574108   -0.00000000
     atom    3 type  1   force =    -0.94232923   -1.40574108    0.00000000
     atom    4 type  1   force =    -0.94232923    1.40574108   -0.00000000
     atom    5 type  2   force =    -0.00000000   -0.00000000    0.00000000
     atom    6 type  2   force =     0.00000000    0.00000000    0.00000000
     atom    7 type  2   force =     0.00000000    0.00000000   -0.00000000
     atom    8 type  2   force =     0.00000000    0.00000000    0.00000000
     atom    9 type  3   force =     1.35533665   -0.62978839   -0.00000000
     atom   10 type  3   force =    -1.11784003   -0.12461413   -0.08938600
     atom   11 type  3   force =    -1.11784003   -0.12461413    0.08938600
     atom   12 type  3   force =    -1.11784003    0.12461413    0.08938600
     atom   13 type  3   force =    -1.11784003    0.12461413   -0.08938600
     atom   14 type  3   force =     1.35533665    0.62978839    0.00000000
     atom   15 type  3   force =    -1.35533665   -0.62978839   -0.00000000
     atom   16 type  3   force =     1.11784003   -0.12461413    0.08938600
     atom   17 type  3   force =     1.11784003   -0.12461413   -0.08938600
     atom   18 type  3   force =     1.11784003    0.12461413   -0.08938600
     atom   19 type  3   force =     1.11784003    0.12461413    0.08938600
     atom   20 type  3   force =    -1.35533665    0.62978839    0.00000000
     The local contribution  to forces
     atom    1 type  1   force =    -0.93518306    1.48607613   -0.02800766
     atom    2 type  1   force =    -0.93510713   -1.48606362    0.02797367
     atom    3 type  1   force =     0.93516350    1.48598854   -0.02797404
     atom    4 type  1   force =     0.93504200   -1.48592608    0.02815611
     atom    5 type  2   force =     0.00007645    0.00007833   -0.00005817
     atom    6 type  2   force =     0.00004779    0.00017633    0.00008362
     atom    7 type  2   force =    -0.00002256   -0.00007678   -0.00013163
     atom    8 type  2   force =    -0.00001300   -0.00019355    0.00009369
     atom    9 type  3   force =    -1.28885995    0.64755016    0.00590683
     atom   10 type  3   force =     1.07179621    0.12909909    0.11396744
     atom   11 type  3   force =     1.06992139    0.12844288   -0.10722410
     atom   12 type  3   force =     1.07195691   -0.12923106   -0.11409118
     atom   13 type  3   force =     1.07005038   -0.12854056    0.10731175
     atom   14 type  3   force =    -1.28898811   -0.64767781   -0.00589307
     atom   15 type  3   force =     1.28865993    0.64736115    0.00592147
     atom   16 type  3   force =    -1.06989820    0.12830393   -0.10705791
     atom   17 type  3   force =    -1.07179388    0.12898112    0.11380643
     atom   18 type  3   force =    -1.06978742   -0.12820558    0.10713877
     atom   19 type  3   force =    -1.07166744   -0.12886985   -0.11390581
     atom   20 type  3   force =     1.28862185   -0.64726773   -0.00593217
     The core correction contribution to forces
     atom    1 type  1   force =    -0.00003180    0.00005483   -0.00001556
     atom    2 type  1   force =    -0.00003176   -0.00005479    0.00001555
     atom    3 type  1   force =     0.00003176    0.00005478   -0.00001553
     atom    4 type  1   force =     0.00003171   -0.00005476    0.00001566
     atom    5 type  2   force =     0.00000000    0.00000000    0.00000000
     atom    6 type  2   force =     0.00000000    0.00000000    0.00000000
     atom    7 type  2   force =     0.00000000    0.00000000    0.00000000
     atom    8 type  2   force =     0.00000000    0.00000000    0.00000000
     atom    9 type  3   force =     0.00097417    0.00023727    0.00007618
     atom   10 type  3   force =    -0.00042836   -0.00017835    0.00029596
     atom   11 type  3   force =    -0.00043754   -0.00019274   -0.00022888
     atom   12 type  3   force =    -0.00042829    0.00017846   -0.00029605
     atom   13 type  3   force =    -0.00043746    0.00019279    0.00022869
     atom   14 type  3   force =     0.00097417   -0.00023716   -0.00007639
     atom   15 type  3   force =    -0.00097399    0.00023735    0.00007623
     atom   16 type  3   force =     0.00043725   -0.00019260   -0.00022870
     atom   17 type  3   force =     0.00042831   -0.00017845    0.00029583
     atom   18 type  3   force =     0.00043749    0.00019255    0.00022877
     atom   19 type  3   force =     0.00042830    0.00017803   -0.00029599
     atom   20 type  3   force =    -0.00097404   -0.00023733   -0.00007606
     The Hubbard contrib.    to forces
     atom    1 type  1   force =     0.00000000    0.00000000    0.00000000
     atom    2 type  1   force =     0.00000000    0.00000000    0.00000000
     atom    3 type  1   force =     0.00000000    0.00000000    0.00000000
     atom    4 type  1   force =     0.00000000    0.00000000    0.00000000
     atom    5 type  2   force =     0.00000000    0.00000000    0.00000000
     atom    6 type  2   force =     0.00000000    0.00000000    0.00000000
     atom    7 type  2   force =     0.00000000    0.00000000    0.00000000
     atom    8 type  2   force =     0.00000000    0.00000000    0.00000000
     atom    9 type  3   force =     0.00000000    0.00000000    0.00000000
     atom   10 type  3   force =     0.00000000    0.00000000    0.00000000
     atom   11 type  3   force =     0.00000000    0.00000000    0.00000000
     atom   12 type  3   force =     0.00000000    0.00000000    0.00000000
     atom   13 type  3   force =     0.00000000    0.00000000    0.00000000
     atom   14 type  3   force =     0.00000000    0.00000000    0.00000000
     atom   15 type  3   force =     0.00000000    0.00000000    0.00000000
     atom   16 type  3   force =     0.00000000    0.00000000    0.00000000
     atom   17 type  3   force =     0.00000000    0.00000000    0.00000000
     atom   18 type  3   force =     0.00000000    0.00000000    0.00000000
     atom   19 type  3   force =     0.00000000    0.00000000    0.00000000
     atom   20 type  3   force =     0.00000000    0.00000000    0.00000000
     The SCF correction term to forces
     atom    1 type  1   force =    -0.00000490   -0.00000772    0.00007774
     atom    2 type  1   force =    -0.00004577    0.00002370   -0.00004677
     atom    3 type  1   force =    -0.00000843    0.00000399    0.00007294
     atom    4 type  1   force =     0.00010039   -0.00007278   -0.00016143
     atom    5 type  2   force =    -0.00007852   -0.00005163    0.00005377
     atom    6 type  2   force =    -0.00004930   -0.00016605   -0.00008415
     atom    7 type  2   force =     0.00001848    0.00005864    0.00015000
     atom    8 type  2   force =     0.00002205    0.00017871   -0.00012078
     atom    9 type  3   force =     0.00000998   -0.00009774   -0.00004226
     atom   10 type  3   force =     0.00000591   -0.00004876    0.00000680
     atom   11 type  3   force =     0.00002983   -0.00004662   -0.00003258
     atom   12 type  3   force =    -0.00016100    0.00018228    0.00011853
     atom   13 type  3   force =    -0.00010341    0.00013371   -0.00007096
     atom   14 type  3   force =     0.00015276    0.00023182    0.00003514
     atom   15 type  3   force =     0.00019454    0.00008886   -0.00006242
     atom   16 type  3   force =    -0.00005734    0.00011921   -0.00018964
     atom   17 type  3   force =    -0.00000077    0.00007419    0.00015238
     atom   18 type  3   force =    -0.00017333   -0.00021586    0.00010603
     atom   19 type  3   force =    -0.00013492   -0.00020392   -0.00005956
     atom   20 type  3   force =     0.00023219   -0.00018299    0.00006870

     Total force =     0.094786     Total SCF correction =     0.000871

     Computing stress (Cartesian axis) and pressure

          total   stress  (Ry/bohr**3)                   (kbar)     P=     -318.27
  -0.00201474   0.00000000   0.00000000         -296.38        0.00        0.00
   0.00000000  -0.00194991   0.00000000            0.00     -286.84        0.00
   0.00000000   0.00000000  -0.00252610            0.00        0.00     -371.60

     kinetic stress (kbar)  22881.63      0.00      0.00
                                0.00  22950.41      0.00
                                0.00      0.00  22750.34

     local   stress (kbar)  -4399.65     -0.09     -0.02
                               -0.09  -4273.08     -3.24
                               -0.02     -3.24  -3689.58

     nonloc. stress (kbar)   4346.87      0.00      0.00
                                0.00   4335.18      0.00
                                0.00      0.00   4391.55

     hartree stress (kbar)   5481.70      0.01      0.00
                                0.01   5461.64      1.30
                                0.00      1.30   5444.49

     exc-cor stress (kbar)  -4148.67     -0.00     -0.00
                               -0.00  -4148.50      0.04
                               -0.00      0.04  -4151.82

     corecor stress (kbar)   -445.77     -0.00     -0.00
                               -0.00   -445.75     -0.00
                               -0.00     -0.00   -445.31

     ewald   stress (kbar) -24012.48     -0.00      0.00
                               -0.00 -24166.75     -0.00
                                0.00     -0.00 -24671.28

     hubbard stress (kbar)      0.00      0.00      0.00
                                0.00      0.00      0.00
                                0.00      0.00      0.00

     DFT-D   stress (kbar)      0.00      0.00      0.00
                                0.00      0.00      0.00
                                0.00      0.00      0.00

     XDM     stress (kbar)      0.00      0.00      0.00
                                0.00      0.00      0.00
                                0.00      0.00      0.00

     dft-nl  stress (kbar)      0.00      0.00      0.00
                                0.00      0.00      0.00
                                0.00      0.00      0.00

     TS-vdW  stress (kbar)      0.00      0.00      0.00
                                0.00      0.00      0.00
                                0.00      0.00      0.00

[...]

                                0.00      0.00      0.00

     Writing all to output data dir new_calculations/myprefix.save/

     General routines

     Parallel routines

     PAW routines

   This run was terminated on:   7:51:23  21May2023

   JOB DONE.