     Program PWSCF v.7.0 starts on 20May2023 at 12:47:39

     Reading input from espresso_12299.pwi
Warning: card &CELL ignored
Warning: card / ignored

     Current dimensions of program PWSCF are:
     Max number of different atomic species (ntypx) = 10
     Max number of k-points (npk) =  40000
     Max angular momentum in pseudopotentials (lmaxx) =  4
     file C.pbe-n-kjpaw_psl.1.0.0.UPF: wavefunction(s)  2S 2P renormalized

     gamma-point specific algorithms are used
     Message from routine find_sym:
     Not a group! Trying with lower acceptance parameter...
     Message from routine find_sym:
     Still not a group! symmetry disabled

     Subspace diagonalization in iterative solution of the eigenvalue problem:
     a serial algorithm will be used

     Using Slab Decomposition

     bravais-lattice index     =            0
     lattice parameter (alat)  =      11.5439  a.u.
     unit-cell volume          =    1087.7803 (a.u.)^3
     number of atoms/cell      =           12
     number of atomic types    =            2
     number of electrons       =       112.00
     number of Kohn-Sham states=           67
     kinetic-energy cutoff     =      30.0000  Ry
     charge density cutoff     =     240.0000  Ry
     scf convergence threshold =      1.0E-06
     mixing beta               =       0.7000
     number of iterations used =            8  plain     mixing
     Exchange-correlation= SLA  PW   PBX  PBC
                           (   1   4   3   4   0   0   0)

     celldm(1)=  11.543887  celldm(2)=   0.000000  celldm(3)=   0.000000
     celldm(4)=   0.000000  celldm(5)=   0.000000  celldm(6)=   0.000000

     crystal axes: (cart. coord. in units of alat)
               a(1) = (   1.000000   0.000000   0.000000 )
               a(2) = (   0.500000   0.866025   0.000000 )
               a(3) = (   0.500000   0.288675   0.816497 )

     reciprocal axes: (cart. coord. in units 2 pi/alat)
               b(1) = (  1.000000 -0.577350 -0.408248 )
               b(2) = (  0.000000  1.154701 -0.408248 )
               b(3) = (  0.000000  0.000000  1.224745 )

     PseudoPot. # 1 for Ti read from file:
     /home/pragov/projects/rrg-bengioy-ad/pragov/crystal_structure_design/SSSP/ti_pbe_v1.4.uspp.F.UPF
     MD5 check sum: 88a00a6731bd790ddea75d31a80cb452
     Pseudo is Ultrasoft + core correction, Zval = 12.0
     Generated by new atomic code, or converted to UPF format
     Using radial grid of  851 points,  6 beta functions with:
                l(1) =   0
                l(2) =   0
                l(3) =   1
                l(4) =   1
                l(5) =   2
                l(6) =   2
     Q(r) pseudized with  6 coefficients,  rinner =    1.000   1.000   1.000
                                                       1.000   1.000

     PseudoPot. # 2 for C  read from file:
     /home/pragov/projects/rrg-bengioy-ad/pragov/crystal_structure_design/SSSP/C.pbe-n-kjpaw_psl.1.0.0.UPF
     MD5 check sum: 5d2aebdfa2cae82b50a7e79e9516da0f
     Pseudo is Projector augmented-wave + core cor, Zval =  4.0
     Generated using "atomic" code by A. Dal Corso  v.5.1
     Shape of augmentation charge: PSQ
     Using radial grid of 1073 points,  4 beta functions with:
                l(1) =   0
                l(2) =   0
                l(3) =   1
                l(4) =   1
     Q(r) pseudized with 0 coefficients

     atomic species   valence    mass     pseudopotential
        Ti            12.00    47.86700     Ti( 1.00)
        C              4.00    12.01100     C ( 1.00)

     No symmetry found

                                    s                        frac. trans.

      isym =  1     identity

 cryst.   s( 1) = (     1          0          0      )
                  (     0          1          0      )
                  (     0          0          1      )

 cart.    s( 1) = (  1.0000000  0.0000000  0.0000000 )
                  (  0.0000000  1.0000000 -0.0000000 )
                  (  0.0000000  0.0000000  1.0000000 )

   Cartesian axes

     site n.     atom                  positions (alat units)
         1           Ti  tau(   1) = (   1.4999995   0.5913813   0.7094735  )
         2           Ti  tau(   2) = (   1.4999995   0.8660251   0.3210685  )
         3           Ti  tau(   3) = (   1.2621510   1.0033470   0.7094735  )
         4           Ti  tau(   4) = (   0.7621520   0.4400287   0.3111473  )
         5           Ti  tau(   5) = (   1.0000005   0.5773506   0.6995522  )
         6           Ti  tau(   6) = (   1.0000005   0.8519943   0.3111473  )
         7           Ti  tau(   7) = (   1.2378490   0.4400287   0.3111473  )
         8           Ti  tau(   8) = (   1.7378480   1.0033470   0.7094735  )
         9           C   tau(   9) = (   1.0000000   0.5773503   0.1020621  )
        10           C   tau(  10) = (   1.0000000   0.2886751   0.5103104  )
        11           C   tau(  11) = (   0.7500000   0.7216878   0.5103104  )
        12           C   tau(  12) = (   1.2500000   0.7216878   0.5103104  )

   Crystallographic axes

     site n.     atom                  positions (cryst. coord.)
         1           Ti  tau(   1) = (  0.8689240  0.3932270  0.8689240  )
         2           Ti  tau(   2) = (  0.8689240  0.8689240  0.3932270  )
         3           Ti  tau(   3) = (  0.3932270  0.8689240  0.8689240  )
         4           Ti  tau(   4) = (  0.3810760  0.3810760  0.3810760  )
         5           Ti  tau(   5) = (  0.3810760  0.3810760  0.8567730  )
         6           Ti  tau(   6) = (  0.3810760  0.8567730  0.3810760  )
         7           Ti  tau(   7) = (  0.8567730  0.3810760  0.3810760  )
         8           Ti  tau(   8) = (  0.8689240  0.8689240  0.8689240  )
         9           C   tau(   9) = (  0.6250000  0.6250000  0.1250000  )
        10           C   tau(  10) = (  0.6250000  0.1250000  0.6250000  )
        11           C   tau(  11) = (  0.1250000  0.6250000  0.6250000  )
        12           C   tau(  12) = (  0.6250000  0.6250000  0.6250000  )

     number of k points=     1  Methfessel-Paxton smearing, width (Ry)=  0.0010
                       cart. coord. in units 2pi/alat
        k(    1) = (   0.0000000   0.0000000   0.0000000), wk =   2.0000000

                       cryst. coord.
        k(    1) = (   0.0000000   0.0000000   0.0000000), wk =   2.0000000

     Check: negative core charge=   -0.000019

     Initial potential from superposition of free atoms

     starting charge     103.9995, renormalised to     112.0000

     negative rho (up, down):  1.149E-02 0.000E+00
     Starting wfcs are   96 randomized atomic wfcs
     Checking if some PAW data can be deallocated...

     Self-consistent Calculation

     iteration #  1     ecut=    30.00 Ry     beta= 0.70
     Davidson diagonalization with overlap

     ethr =  1.00E-02,  avg # of iterations =  5.0

     negative rho (up, down):  1.652E-02 0.000E+00

     total energy              =   -1024.92435434 Ry
     estimated scf accuracy    <       7.12307911 Ry

[...]

     ethr =  3.29E-06,  avg # of iterations =  1.0
     Minimization algorithm failed to find Fermi energy: reverting to bisection
     Possible cause: smearing is larger than the electronic band-gap.

[...]

     total energy              =   -1028.50820603 Ry
     estimated scf accuracy    <       0.00000163 Ry

     iteration # 24     ecut=    30.00 Ry     beta= 0.70
     Davidson diagonalization with overlap

     ethr =  1.45E-09,  avg # of iterations =  2.0

[...]

     End of self-consistent calculation

          k = 0.0000 0.0000 0.0000 (  1488 PWs)   bands (ev):

   -44.0875 -44.0173 -44.0072 -44.0068 -44.0066 -43.9844 -43.9840 -43.9838
   -20.5804 -20.5803 -20.5802 -20.5546 -20.5265 -20.5265 -20.5106 -20.2549
   -20.2548 -20.2546 -20.2509 -20.2507 -20.2507 -20.1605 -20.1605 -20.1438
   -20.1437 -20.1435 -20.1009 -20.1005 -20.1003 -20.0724 -20.0723 -20.0722
     1.3777   2.8228   2.8229   2.8229   7.5465   7.9053   7.9053   7.9054
     9.5230   9.5230  10.2559  10.2560  10.2560  10.3533  10.3533  10.3534
    10.9810  11.2226  11.2226  11.3110  12.3627  12.3628  12.3628  13.4207
    13.4391  13.4391  13.4391  14.0275  14.0275  14.6220  14.6220  15.3746
    15.3748  15.3750  15.6439

     occupation numbers
     1.0000   1.0000   1.0000   1.0000   1.0000   1.0000   1.0000   1.0000
     1.0000   1.0000   1.0000   1.0000   1.0000   1.0000   1.0000   1.0000
     1.0000   1.0000   1.0000   1.0000   1.0000   1.0000   1.0000   1.0000
     1.0000   1.0000   1.0000   1.0000   1.0000   1.0000   1.0000   1.0000
     1.0000   1.0000   1.0000   1.0000   1.0000   1.0000   1.0000   1.0000
     1.0000   1.0000   1.0000   1.0000   1.0000   1.0000   1.0000   1.0000
     1.0000   1.0000   1.0000   1.0000   1.0000   1.0000   1.0000   0.9228
     0.0261   0.0257   0.0254  -0.0000  -0.0000  -0.0000  -0.0000  -0.0000
    -0.0000  -0.0000  -0.0000

     the Fermi energy is    13.4290 ev

!    total energy              =   -1028.50820549 Ry
     estimated scf accuracy    <       0.00000080 Ry
     smearing contrib. (-TS)   =       0.00000007 Ry
     internal energy E=F+TS    =   -1028.50820557 Ry

     The total energy is F=E-TS. E is the sum of the following terms:
     one-electron contribution =    -347.49621429 Ry
     hartree contribution      =     215.91663861 Ry
     xc contribution           =    -162.72113812 Ry
     ewald contribution        =    -709.49112979 Ry
     one-center paw contrib.   =     -24.71636197 Ry
      -> PAW hartree energy AE =      31.55228863 Ry
      -> PAW hartree energy PS =     -31.51498120 Ry
      -> PAW xc energy AE      =     -41.18241520 Ry
      -> PAW xc energy PS      =      16.42874580 Ry
      -> total E_H with PAW    =     215.95394604 Ry
      -> total E_XC with PAW   =    -187.47480752 Ry

     convergence has been achieved in  24 iterations

     negative rho (up, down):  6.139E-03 0.000E+00

     Forces acting on atoms (cartesian axes, Ry/au):

     atom    1 type  1   force =     0.00000167   -0.04894847    0.01732323
     atom    2 type  1   force =    -0.00001147    0.00002895   -0.05186232
     atom    3 type  1   force =    -0.04235203    0.02447318    0.01729028
     atom    4 type  1   force =    -0.04238941   -0.02445949   -0.01730796
     atom    5 type  1   force =     0.00001325    0.00001534    0.05185760
     atom    6 type  1   force =     0.00000723    0.04887860   -0.01727092
     atom    7 type  1   force =     0.04239743   -0.02445346   -0.01730104
     atom    8 type  1   force =     0.04234139    0.02446023    0.01728980
     atom    9 type  2   force =    -0.00001118   -0.00006462    0.00001316
     atom   10 type  2   force =    -0.00001331    0.00009812   -0.00007059
     atom   11 type  2   force =    -0.00007435   -0.00002349    0.00001031
     atom   12 type  2   force =     0.00009078   -0.00000490    0.00002845
     The non-local contrib.  to forces
     atom    1 type  1   force =    -0.00002588    0.03535250   -0.01254522
     atom    2 type  1   force =    -0.00002801   -0.00011643    0.03735172
     atom    3 type  1   force =     0.03039521   -0.01768990   -0.01243541
     atom    4 type  1   force =     0.03062148    0.01757891    0.01249510
     atom    5 type  1   force =    -0.00001128   -0.00012058   -0.03734763
     atom    6 type  1   force =    -0.00002090   -0.03508145    0.01234877
     atom    7 type  1   force =    -0.03060714    0.01754343    0.01248793
     atom    8 type  1   force =    -0.03037540   -0.01764513   -0.01239360
     atom    9 type  2   force =     0.00000368   -0.00000596    0.00000307
     atom   10 type  2   force =     0.00000367   -0.00000856    0.00000046
     atom   11 type  2   force =    -0.00000186   -0.00000656    0.00000343
     atom   12 type  2   force =     0.00000462   -0.00001354    0.00000876
     The ionic contribution  to forces
     atom    1 type  1   force =     0.00010502  -11.43778919    4.04393346
     atom    2 type  1   force =     0.00010502    0.00006063  -12.13162889
     atom    3 type  1   force =    -9.90536350    5.71898554    4.04393346
     atom    4 type  1   force =    -9.90539245   -5.71888100   -4.04385953
     atom    5 type  1   force =    -0.00010502   -0.00006063   12.13162889
     atom    6 type  1   force =    -0.00010502   11.43778920   -4.04393346
     atom    7 type  1   force =     9.90536350   -5.71898554   -4.04393346
     atom    8 type  1   force =     9.90539245    5.71888099    4.04385953
     atom    9 type  2   force =    -0.00000000    0.00000000   -0.00000000
     atom   10 type  2   force =    -0.00000000    0.00000000   -0.00000000
     atom   11 type  2   force =     0.00000000    0.00000000    0.00000000
     atom   12 type  2   force =    -0.00000000    0.00000000    0.00000000
     The local contribution  to forces
     atom    1 type  1   force =    -0.00000121   11.35864093   -4.01591014
     atom    2 type  1   force =    -0.00003214    0.00004740   12.04763605
     atom    3 type  1   force =     9.83678562   -5.67923945   -4.01591588
     atom    4 type  1   force =     9.83677082    5.67941915    4.01588777
     atom    5 type  1   force =     0.00006619    0.00015078  -12.04762845
     atom    6 type  1   force =     0.00004259  -11.35853375    4.01595785
     atom    7 type  1   force =    -9.83670839    5.67943288    4.01592227
     atom    8 type  1   force =    -9.83679083   -5.67924421   -4.01589717
     atom    9 type  2   force =     0.00003314    0.00031851   -0.00002766
     atom   10 type  2   force =     0.00003073   -0.00003956    0.00011942
     atom   11 type  2   force =     0.00011502    0.00027965   -0.00005021
     atom   12 type  2   force =    -0.00009459    0.00025535   -0.00006920
     The core correction contribution to forces
     atom    1 type  1   force =     0.00000436   -0.00519313    0.00184548
     atom    2 type  1   force =     0.00000429    0.00002130   -0.00547762
     atom    3 type  1   force =    -0.00445296    0.00259579    0.00182323
     atom    4 type  1   force =    -0.00449761   -0.00257887   -0.00183574
     atom    5 type  1   force =     0.00000288    0.00002107    0.00547551
     atom    6 type  1   force =     0.00000383    0.00513542   -0.00180632
     atom    7 type  1   force =     0.00449464   -0.00257218   -0.00183297
     atom    8 type  1   force =     0.00444795    0.00258780    0.00181594
     atom    9 type  2   force =    -0.00000016   -0.00000044   -0.00000002
     atom   10 type  2   force =    -0.00000020    0.00000123   -0.00000062
     atom   11 type  2   force =    -0.00000060   -0.00000006    0.00000008
     atom   12 type  2   force =     0.00000077    0.00000034    0.00000016
     The Hubbard contrib.    to forces
     atom    1 type  1   force =     0.00000000    0.00000000    0.00000000
     atom    2 type  1   force =     0.00000000    0.00000000    0.00000000
     atom    3 type  1   force =     0.00000000    0.00000000    0.00000000
     atom    4 type  1   force =     0.00000000    0.00000000    0.00000000
     atom    5 type  1   force =     0.00000000    0.00000000    0.00000000
     atom    6 type  1   force =     0.00000000    0.00000000    0.00000000
     atom    7 type  1   force =     0.00000000    0.00000000    0.00000000
     atom    8 type  1   force =     0.00000000    0.00000000    0.00000000
     atom    9 type  2   force =     0.00000000    0.00000000    0.00000000
     atom   10 type  2   force =     0.00000000    0.00000000    0.00000000
     atom   11 type  2   force =     0.00000000    0.00000000    0.00000000
     atom   12 type  2   force =     0.00000000    0.00000000    0.00000000
     The SCF correction term to forces
     atom    1 type  1   force =    -0.00007812    0.00004001    0.00000010
     atom    2 type  1   force =    -0.00005814    0.00001564    0.00025687
     atom    3 type  1   force =     0.00028609   -0.00017921   -0.00011467
     atom    4 type  1   force =     0.00011083    0.00000189    0.00000490
     atom    5 type  1   force =     0.00006296    0.00002428   -0.00027027
     atom    6 type  1   force =     0.00008922   -0.00043123    0.00016269
     atom    7 type  1   force =    -0.00014269    0.00012754    0.00005564
     atom    8 type  1   force =    -0.00033029   -0.00011964   -0.00009446
     atom    9 type  2   force =    -0.00004535   -0.00037715    0.00003822
     atom   10 type  2   force =    -0.00004502    0.00014460   -0.00018940
     atom   11 type  2   force =    -0.00018442   -0.00029694    0.00005746
     atom   12 type  2   force =     0.00018247   -0.00024747    0.00008918

     Total force =     0.146743     Total SCF correction =     0.001058

     Computing stress (Cartesian axis) and pressure

     negative rho (up, down):  6.139E-03 0.000E+00
          total   stress  (Ry/bohr**3)                   (kbar)     P=      -55.06
  -0.00037394  -0.00000033   0.00000029          -55.01       -0.05        0.04
  -0.00000033  -0.00037448  -0.00000041           -0.05      -55.09       -0.06
   0.00000029  -0.00000041  -0.00037436            0.04       -0.06      -55.07

     kinetic stress (kbar)  20622.69     -0.02     -0.08
                               -0.02  20622.80      0.04
                               -0.08      0.04  20622.73

     local   stress (kbar)    425.46     -0.11      0.19
                               -0.11    425.16     -0.20
                                0.19     -0.20    425.34

     nonloc. stress (kbar)   7652.15      0.00     -0.03
                                0.00   7652.20      0.02
                               -0.03      0.02   7652.18

     hartree stress (kbar)   9733.06      0.04     -0.06
                                0.04   9733.15      0.07
                               -0.06      0.07   9733.10

     exc-cor stress (kbar)  -1940.38      0.00     -0.00
                                0.00  -1940.38      0.00
                               -0.00      0.00  -1940.38

     corecor stress (kbar)  -4565.53     -0.00      0.00
                               -0.00  -4565.53     -0.00
                                0.00     -0.00  -4565.53

     ewald   stress (kbar) -31982.45      0.03      0.02
                                0.03 -31982.49      0.01
                                0.02      0.01 -31982.50

     hubbard stress (kbar)      0.00      0.00      0.00
                                0.00      0.00      0.00
                                0.00      0.00      0.00

     DFT-D   stress (kbar)      0.00      0.00      0.00
                                0.00      0.00      0.00
                                0.00      0.00      0.00

     XDM     stress (kbar)      0.00      0.00      0.00
                                0.00      0.00      0.00
                                0.00      0.00      0.00

     dft-nl  stress (kbar)      0.00      0.00      0.00
                                0.00      0.00      0.00
                                0.00      0.00      0.00

     TS-vdW  stress (kbar)      0.00      0.00      0.00
                                0.00      0.00      0.00
                                0.00      0.00      0.00

[...]

                                0.00      0.00      0.00

     Writing all to output data dir new_calculations/myprefix.save/

     General routines

     Parallel routines

     PAW routines

   This run was terminated on:  12:48: 3  20May2023

   JOB DONE.