     Program PWSCF v.7.0 starts on 21May2023 at  4:36:52

     Reading input from espresso_16855.pwi
Warning: card &CELL ignored
Warning: card / ignored

     Current dimensions of program PWSCF are:
     Max number of different atomic species (ntypx) = 10
     Max number of k-points (npk) =  40000
     Max angular momentum in pseudopotentials (lmaxx) =  4
     file K.pbe-spn-kjpaw_psl.1.0.0.UPF: wavefunction(s)  3S renormalized
     file In.pbe-dn-rrkjus_psl.0.2.2.UPF: wavefunction(s)  5S renormalized

     gamma-point specific algorithms are used
     Message from routine setup:
     using ibrav=0 with symmetry is DISCOURAGED, use correct ibrav instead

     Subspace diagonalization in iterative solution of the eigenvalue problem:
     a serial algorithm will be used

     Using Slab Decomposition

     bravais-lattice index     =            0
     lattice parameter (alat)  =      16.7084  a.u.
     unit-cell volume          =    1994.4239 (a.u.)^3
     number of atoms/cell      =           12
     number of atomic types    =            3
     number of electrons       =       162.00
     number of Kohn-Sham states=           97
     kinetic-energy cutoff     =      30.0000  Ry
     charge density cutoff     =     240.0000  Ry
     scf convergence threshold =      1.0E-06
     mixing beta               =       0.7000
     number of iterations used =            8  plain     mixing
     Exchange-correlation=  SLA  PW   PBX  PBC
                           (   1   4   3   4   0   0   0)

     celldm(1)=  16.708447  celldm(2)=   0.000000  celldm(3)=   0.000000
     celldm(4)=   0.000000  celldm(5)=   0.000000  celldm(6)=   0.000000

     crystal axes: (cart. coord. in units of alat)
               a(1) = (   1.000000   0.000000   0.000000 )
               a(2) = (  -0.500000   0.866025   0.000000 )
               a(3) = (   0.000000   0.000000   0.493718 )

     reciprocal axes: (cart. coord. in units 2 pi/alat)
               b(1) = (  1.000000  0.577350  0.000000 )
               b(2) = (  0.000000  1.154700  0.000000 )
               b(3) = (  0.000000  0.000000  2.025450 )

     PseudoPot. # 1 for K  read from file:
     /home/pragov/projects/rrg-bengioy-ad/pragov/crystal_structure_design/SSSP/K.pbe-spn-kjpaw_psl.1.0.0.UPF
     MD5 check sum: 7d58810084cac21f60fbe77ea2b688fd
     Pseudo is Projector augmented-wave + core cor, Zval =  9.0
     Generated using "atomic" code by A. Dal Corso  v.5.1
     Shape of augmentation charge: PSQ
     Using radial grid of 1165 points,  6 beta functions with:
                l(1) =   0
                l(2) =   0
                l(3) =   1
                l(4) =   1
                l(5) =   2
                l(6) =   2
     Q(r) pseudized with 0 coefficients

     PseudoPot. # 2 for In read from file:
     /home/pragov/projects/rrg-bengioy-ad/pragov/crystal_structure_design/SSSP/In.pbe-dn-rrkjus_psl.0.2.2.UPF
     MD5 check sum: 25e7c42c3b55b68f4bf926be2e7201a4
     Pseudo is Ultrasoft + core correction, Zval = 13.0
     Generated using "atomic" code by A. Dal Corso  v.5.0.99 svn rev. 10869
     Using radial grid of 1241 points,  6 beta functions with:
                l(1) =   0
                l(2) =   0
                l(3) =   1
                l(4) =   1
                l(5) =   2
                l(6) =   2
     Q(r) pseudized with 0 coefficients

     PseudoPot. # 3 for Ni read from file:
     /home/pragov/projects/rrg-bengioy-ad/pragov/crystal_structure_design/SSSP/ni_pbe_v1.4.uspp.F.UPF
     MD5 check sum: 1ee80287db30b12d2bc1f57a5b5d6409
     Pseudo is Ultrasoft + core correction, Zval = 18.0
     Generated by new atomic code, or converted to UPF format
     Using radial grid of  865 points,  6 beta functions with:
                l(1) =   0
                l(2) =   0
                l(3) =   1
                l(4) =   1
                l(5) =   2
                l(6) =   2
     Q(r) pseudized with 10 coefficients,  rinner =    0.980   0.980   0.980
                                                       0.980   0.980

     atomic species   valence    mass     pseudopotential
        K              9.00    39.09830     K ( 1.00)
        In            13.00   114.81800     In( 1.00)
        Ni            18.00    58.69340     Ni( 1.00)

     24 Sym. Ops., with inversion, found

                                    s                        frac. trans.

      isym =  1     identity

 cryst.   s( 1) = (     1          0          0      )
                  (     0          1          0      )
                  (     0          0          1      )

 cart.    s( 1) = (  1.0000000 -0.0000000  0.0000000 )
                  (  0.0000000  1.0000000  0.0000000 )
                  (  0.0000000  0.0000000  1.0000000 )

      isym =  2     180 deg rotation - cart. axis [0,0,1]

[...]

      isym =  4     180 deg rotation - cart. axis [1,0,0]

[...]

      isym =  5      60 deg rotation - cryst. axis [0,0,1]

[...]

 cryst.   s( 9) = (     0         -1          0      )
                  (    -1          0          0      )
                  (     0          0         -1      )

 cart.    s( 9) = (  0.4999999 -0.8660254  0.0000000 )
                  ( -0.8660254 -0.4999999  0.0000000 )
                  (  0.0000000  0.0000000 -1.0000000 )

[...]

 cryst.   s(10) = (     1          1          0      )
                  (     0         -1          0      )
                  (     0          0         -1      )

 cart.    s(10) = (  0.5000001  0.8660253  0.0000000 )
                  (  0.8660254 -0.5000001  0.0000000 )
                  (  0.0000000  0.0000000 -1.0000000 )

[...]

      isym = 12     180 deg rotation - cryst. axis [1,1,0]

[...]

      isym = 13     inversion

[...]

      isym = 14     inv. 180 deg rotation - cart. axis [0,0,1]

[...]

      isym = 16     inv. 180 deg rotation - cart. axis [1,0,0]

[...]

      isym = 17     inv.  60 deg rotation - cryst. axis [0,0,1]

[...]

      isym = 24     inv. 180 deg rotation - cryst. axis [1,1,0]

 cryst.   s(24) = (     0         -1          0      )
                  (    -1          0          0      )
                  (     0          0          1      )

 cart.    s(24) = (  0.4999999 -0.8660254  0.0000000 )
                  ( -0.8660254 -0.4999999  0.0000000 )
                  (  0.0000000  0.0000000  1.0000000 )

   Cartesian axes

     site n.     atom                  positions (alat units)
         1           K   tau(   1) = (   0.0000000   0.0000000   0.0000000  )
         2           In  tau(   2) = (   0.5000000   0.5055337   0.2468588  )
         3           In  tau(   3) = (   0.1878051   0.6857796   0.2468588  )
         4           In  tau(   4) = (   0.2500000   0.4330127   0.0000000  )
         5           In  tau(   5) = (   0.0000000   0.3604918   0.2468588  )
         6           In  tau(   6) = (   0.6878050   0.1802459   0.2468588  )
         7           In  tau(   7) = (  -0.1878049   0.6857796   0.2468588  )
         8           In  tau(   8) = (   0.3121950   0.1802459   0.2468588  )
         9           In  tau(   9) = (   0.5000000   0.0000000   0.0000000  )
        10           In  tau(  10) = (  -0.2500000   0.4330127   0.0000000  )
        11           Ni  tau(  11) = (  -0.0000004   0.5773506   0.0000000  )
        12           Ni  tau(  12) = (   0.5000005   0.2886749   0.0000000  )

   Crystallographic axes

     site n.     atom                  positions (cryst. coord.)
         1           K   tau(   1) = (  0.0000000  0.0000000  0.0000000  )
         2           In  tau(   2) = (  0.7918700  0.5837400  0.5000000  )
         3           In  tau(   3) = (  0.5837400  0.7918700  0.5000000  )
         4           In  tau(   4) = (  0.5000000  0.5000000  0.0000000  )
         5           In  tau(   5) = (  0.2081300  0.4162600  0.5000000  )
         6           In  tau(   6) = (  0.7918700  0.2081300  0.5000000  )
         7           In  tau(   7) = (  0.2081300  0.7918700  0.5000000  )
         8           In  tau(   8) = (  0.4162600  0.2081300  0.5000000  )
         9           In  tau(   9) = (  0.5000000  0.0000000  0.0000000  )
        10           In  tau(  10) = (  0.0000000  0.5000000  0.0000000  )
        11           Ni  tau(  11) = (  0.3333330  0.6666670  0.0000000  )
        12           Ni  tau(  12) = (  0.6666670  0.3333330  0.0000000  )

     number of k points=     1  Methfessel-Paxton smearing, width (Ry)=  0.0010
                       cart. coord. in units 2pi/alat
        k(    1) = (   0.0000000   0.0000000   0.0000000), wk =   2.0000000

                       cryst. coord.
        k(    1) = (   0.0000000   0.0000000   0.0000000), wk =   2.0000000

     Check: negative core charge=   -0.000002

     Initial potential from superposition of free atoms

     starting charge     157.9477, renormalised to     162.0000
     Starting wfcs are  115 randomized atomic wfcs
     Checking if some PAW data can be deallocated...

     Self-consistent Calculation

     iteration #  1     ecut=    30.00 Ry     beta= 0.70
     Davidson diagonalization with overlap

     ethr =  1.00E-02,  avg # of iterations =  4.0

     total energy              =   -2098.46114209 Ry
     estimated scf accuracy    <       7.49583063 Ry

[...]

     total energy              =   -2102.13326084 Ry
     estimated scf accuracy    <       0.00000539 Ry

     iteration # 16     ecut=    30.00 Ry     beta= 0.70
     Davidson diagonalization with overlap

     ethr =  3.33E-09,  avg # of iterations =  4.0

     End of self-consistent calculation

          k = 0.0000 0.0000 0.0000 (  2753 PWs)   bands (ev):

   -92.7589 -92.7584 -53.3440 -53.3395 -53.0259 -53.0259 -53.0229 -53.0229
   -21.1234  -4.9181  -4.8914  -4.8237  -4.8234  -4.7297  -4.7293  -4.7284
    -4.7282  -4.6977  -4.6919  -4.6833  -4.6766  -4.6763  -4.6737  -4.6734
    -4.6637  -4.6637  -4.6191  -4.5806  -4.5536  -4.5500  -4.5497  -4.5269
    -4.5268  -4.5220  -4.5210  -4.5208  -4.5151  -4.5148  -4.5049  -4.4519
    -4.4518  -4.3336  -4.3315  -4.3312  -4.3209  -4.3088  -4.3083  -4.2863
    -4.2667  -4.2662  -4.2260  -4.2083  -4.1851  -4.1846  -4.1045  -4.0951
    -4.0947   0.3330   2.6232   2.6236   2.7528   3.8774   3.8777   6.6538
     7.5257   7.7192   7.7193   8.0957   8.0959   8.1509   8.2378   8.2378
     8.5033   8.5033   8.5283   8.7483   9.4875   9.4875  10.0732  10.0732
    10.8905  11.4450  11.7234  11.8942  11.8944  12.0853  12.0855  12.3660
    12.6206  12.6209  13.0146  13.0148  13.0505  13.0507  13.5118  13.8724
    14.1661

     occupation numbers
     1.0000   1.0000   1.0000   1.0000   1.0000   1.0000   1.0000   1.0000
     1.0000   1.0000   1.0000   1.0000   1.0000   1.0000   1.0000   1.0000
     1.0000   1.0000   1.0000   1.0000   1.0000   1.0000   1.0000   1.0000
     1.0000   1.0000   1.0000   1.0000   1.0000   1.0000   1.0000   1.0000
     1.0000   1.0000   1.0000   1.0000   1.0000   1.0000   1.0000   1.0000
     1.0000   1.0000   1.0000   1.0000   1.0000   1.0000   1.0000   1.0000
     1.0000   1.0000   1.0000   1.0000   1.0000   1.0000   1.0000   1.0000
     1.0000   1.0000   1.0000   1.0000   1.0000   1.0000   1.0000   1.0000
     1.0000   1.0000   1.0000   1.0000   1.0000   1.0000   1.0000   1.0000
     1.0000   1.0000   1.0000   1.0000   1.0000   1.0000   1.0000   1.0000
     1.0000  -0.0000  -0.0000  -0.0000  -0.0000  -0.0000  -0.0000  -0.0000
    -0.0000  -0.0000  -0.0000  -0.0000  -0.0000  -0.0000  -0.0000  -0.0000
    -0.0000

     the Fermi energy is    11.3710 ev

!    total energy              =   -2102.13326123 Ry
     estimated scf accuracy    <       0.00000090 Ry
     smearing contrib. (-TS)   =       0.00000000 Ry
     internal energy E=F+TS    =   -2102.13326123 Ry

     The total energy is F=E-TS. E is the sum of the following terms:
     one-electron contribution =   -1281.46315963 Ry
     hartree contribution      =     764.90086391 Ry
     xc contribution           =    -511.69710268 Ry
     ewald contribution        =   -1018.45512915 Ry
     one-center paw contrib.   =     -55.41873369 Ry
      -> PAW hartree energy AE =      37.73943939 Ry
      -> PAW hartree energy PS =     -37.52886855 Ry
      -> PAW xc energy AE      =     -66.22485445 Ry
      -> PAW xc energy PS      =      10.59554991 Ry
      -> total E_H with PAW    =     765.11143476 Ry
      -> total E_XC with PAW   =    -567.32640721 Ry

     convergence has been achieved in  16 iterations

     Forces acting on atoms (cartesian axes, Ry/au):

     atom    1 type  1   force =     0.00000000    0.00000000   -0.00000000
     atom    2 type  2   force =    -0.00000000    0.00653205   -0.00000000
     atom    3 type  2   force =     0.00565693    0.00326603    0.00000000
     atom    4 type  2   force =     0.00000000    0.00000000   -0.00000000
     atom    5 type  2   force =     0.00000000   -0.00653205    0.00000000
     atom    6 type  2   force =     0.00565693   -0.00326603   -0.00000000
     atom    7 type  2   force =    -0.00565693    0.00326603    0.00000000
     atom    8 type  2   force =    -0.00565693   -0.00326603    0.00000000
     atom    9 type  2   force =     0.00000000    0.00000000    0.00000000
     atom   10 type  2   force =     0.00000000    0.00000000    0.00000000
     atom   11 type  3   force =     0.00000000   -0.00000000    0.00000000
     atom   12 type  3   force =     0.00000000    0.00000000   -0.00000000
     The non-local contrib.  to forces
     atom    1 type  1   force =     0.00000000    0.00000000    0.00000000
     atom    2 type  2   force =     0.00000000    0.02304307   -0.00000000
     atom    3 type  2   force =     0.01995589    0.01152153   -0.00000000
     atom    4 type  2   force =     0.00000000    0.00000000   -0.00000000
     atom    5 type  2   force =     0.00000000   -0.02304307    0.00000000
     atom    6 type  2   force =     0.01995589   -0.01152154    0.00000000
     atom    7 type  2   force =    -0.01995589    0.01152154   -0.00000000
     atom    8 type  2   force =    -0.01995589   -0.01152153    0.00000000
     atom    9 type  2   force =     0.00000000    0.00000000    0.00000000
     atom   10 type  2   force =     0.00000000    0.00000000    0.00000000
     atom   11 type  3   force =     0.00000000    0.00000000   -0.00000000
     atom   12 type  3   force =    -0.00000000   -0.00000000    0.00000000
     The ionic contribution  to forces
     atom    1 type  1   force =    -0.00000000   -0.00000000    0.00000000
     atom    2 type  2   force =    -0.00006525   24.38714281   -0.00000000
     atom    3 type  2   force =    21.11991892   12.19351300   -0.00000000
     atom    4 type  2   force =    -0.00000000    0.00000000   -0.00000000
     atom    5 type  2   force =     0.00006525  -24.38714281   -0.00000000
     atom    6 type  2   force =    21.11992870  -12.19359778   -0.00000000
     atom    7 type  2   force =   -21.11992870   12.19359778   -0.00000000
     atom    8 type  2   force =   -21.11991892  -12.19351300   -0.00000000
     atom    9 type  2   force =     0.00000000   -0.00000000   -0.00000000
     atom   10 type  2   force =    -0.00000000   -0.00000000   -0.00000000
     atom   11 type  3   force =     0.00011265   -0.00006504   -0.00000000
     atom   12 type  3   force =    -0.00011265    0.00006504   -0.00000000
     The local contribution  to forces
     atom    1 type  1   force =    -0.00051442   -0.00064494   -0.00000414
     atom    2 type  2   force =    -0.00070215  -24.39130217    0.00000114
     atom    3 type  2   force =   -21.12425052  -12.19576060    0.00002311
     atom    4 type  2   force =     0.00044657    0.00186964   -0.00001667
     atom    5 type  2   force =     0.00014438   24.39334087   -0.00000220
     atom    6 type  2   force =   -21.12476153   12.19487275    0.00000505
     atom    7 type  2   force =    21.12502541  -12.19605286    0.00002240
     atom    8 type  2   force =    21.12519956   12.19594018    0.00001826
     atom    9 type  2   force =     0.00114923   -0.00098377   -0.00003250
     atom   10 type  2   force =    -0.00051467    0.00054371   -0.00002042
     atom   11 type  3   force =     0.00129061    0.00198676   -0.00000585
     atom   12 type  3   force =     0.00031206    0.00008465   -0.00004189
     The core correction contribution to forces
     atom    1 type  1   force =     0.00000105    0.00000200    0.00000002
     atom    2 type  2   force =    -0.00000681   -0.01086934    0.00000028
     atom    3 type  2   force =    -0.00942779   -0.00544090    0.00000056
     atom    4 type  2   force =     0.00000191    0.00002066   -0.00000122
     atom    5 type  2   force =     0.00000065    0.01089703   -0.00000124
     atom    6 type  2   force =    -0.00942705    0.00543241   -0.00000068
     atom    7 type  2   force =     0.00943128   -0.00544206    0.00000187
     atom    8 type  2   force =     0.00943447    0.00544229    0.00000066
     atom    9 type  2   force =     0.00001129   -0.00001015   -0.00000093
     atom   10 type  2   force =    -0.00000053    0.00000763   -0.00000101
     atom   11 type  3   force =    -0.00000239   -0.00000271    0.00000012
     atom   12 type  3   force =    -0.00000012   -0.00000076   -0.00000010
     The Hubbard contrib.    to forces
     atom    1 type  1   force =     0.00000000    0.00000000    0.00000000
     atom    2 type  2   force =     0.00000000    0.00000000    0.00000000
     atom    3 type  2   force =     0.00000000    0.00000000    0.00000000
     atom    4 type  2   force =     0.00000000    0.00000000    0.00000000
     atom    5 type  2   force =     0.00000000    0.00000000    0.00000000
     atom    6 type  2   force =     0.00000000    0.00000000    0.00000000
     atom    7 type  2   force =     0.00000000    0.00000000    0.00000000
     atom    8 type  2   force =     0.00000000    0.00000000    0.00000000
     atom    9 type  2   force =     0.00000000    0.00000000    0.00000000
     atom   10 type  2   force =     0.00000000    0.00000000    0.00000000
     atom   11 type  3   force =     0.00000000    0.00000000    0.00000000
     atom   12 type  3   force =     0.00000000    0.00000000    0.00000000
     The SCF correction term to forces
     atom    1 type  1   force =     0.00053375    0.00068649    0.00000503
     atom    2 type  2   force =     0.00081711   -0.00147693   -0.00000238
     atom    3 type  2   force =    -0.00052049   -0.00056326   -0.00002991
     atom    4 type  2   force =    -0.00045698   -0.00193284    0.00000380
     atom    5 type  2   force =    -0.00022715   -0.00059989   -0.00000635
     atom    6 type  2   force =    -0.00002673    0.00163415   -0.00002342
     atom    7 type  2   force =    -0.00025725   -0.00039109   -0.00000426
     atom    8 type  2   force =    -0.00041822    0.00042035   -0.00001541
     atom    9 type  2   force =    -0.00117974    0.00101887    0.00003343
     atom   10 type  2   force =     0.00053588   -0.00058724    0.00000989
     atom   11 type  3   force =    -0.00144776   -0.00198795    0.00002542
     atom   12 type  3   force =    -0.00021027   -0.00018352    0.00004923

     Total force =     0.016000     Total SCF correction =     0.004581
     SCF correction compared to forces is large: reduce conv_thr to get better values

     Computing stress (Cartesian axis) and pressure

          total   stress  (Ry/bohr**3)                   (kbar)     P=      -79.47
  -0.00009004   0.00000000   0.00000000          -13.25        0.00        0.00
   0.00000000  -0.00009004   0.00000000            0.00      -13.25        0.00
  -0.00000000  -0.00000000  -0.00144054           -0.00       -0.00     -211.91

     kinetic stress (kbar)  18528.25     -0.00     -0.00
                               -0.00  18528.25     -0.00
                               -0.00     -0.00  18200.12

     local   stress (kbar)  -3639.25      0.07     -0.00
                                0.07  -3639.97      0.00
                               -0.00      0.00 -24849.71

     nonloc. stress (kbar)   5451.39     -0.00      0.00
                               -0.00   5451.39      0.00
                                0.00      0.00   5335.83

     hartree stress (kbar)  15309.18     -0.13     -0.00
                               -0.13  15309.80     -0.00
                               -0.00     -0.00  25798.72

     exc-cor stress (kbar)  12921.26      0.00      0.00
                                0.00  12921.26     -0.00
                                0.00     -0.00  12914.17

     corecor stress (kbar) -19888.70      0.00      0.00
                                0.00 -19888.70     -0.00
                                0.00     -0.00 -19882.28

     ewald   stress (kbar) -28695.35      0.07      0.00
                                0.07 -28695.27     -0.00
                                0.00     -0.00 -17728.77

     hubbard stress (kbar)      0.00      0.00      0.00
                                0.00      0.00      0.00
                                0.00      0.00      0.00

     DFT-D   stress (kbar)      0.00      0.00      0.00
                                0.00      0.00      0.00
                                0.00      0.00      0.00

     XDM     stress (kbar)      0.00      0.00      0.00
                                0.00      0.00      0.00
                                0.00      0.00      0.00

     dft-nl  stress (kbar)      0.00      0.00      0.00
                                0.00      0.00      0.00
                                0.00      0.00      0.00

     TS-vdW  stress (kbar)      0.00      0.00      0.00
                                0.00      0.00      0.00
                                0.00      0.00      0.00

[...]

                                0.00      0.00      0.00

     Writing all to output data dir new_calculations/myprefix.save/

     General routines

     Parallel routines

     PAW routines

   This run was terminated on:   4:39:10  21May2023

   JOB DONE.