     Program PWSCF v.7.0 starts on 21May2023 at  2:46:23

     Reading input from espresso_12729.pwi
Warning: card &CELL ignored
Warning: card / ignored

     Current dimensions of program PWSCF are:
     Max number of different atomic species (ntypx) = 10
     Max number of k-points (npk) =  40000
     Max angular momentum in pseudopotentials (lmaxx) =  4
     file Ba.pbe-spn-kjpaw_psl.1.0.0.UPF: wavefunction(s)  5S 6S renormalized
     file Ga.pbe-dn-kjpaw_psl.1.0.0.UPF: wavefunction(s)  4S renormalized
     file Pb.pbe-dn-kjpaw_psl.0.2.2.UPF: wavefunction(s)  6S renormalized

     gamma-point specific algorithms are used
     Message from routine setup:
     using ibrav=0 with symmetry is DISCOURAGED, use correct ibrav instead

     Subspace diagonalization in iterative solution of the eigenvalue problem:
     a serial algorithm will be used

     Using Slab Decomposition

     bravais-lattice index     =            0
     lattice parameter (alat)  =      11.5979  a.u.
     unit-cell volume          =    2396.6862 (a.u.)^3
     number of atoms/cell      =           11
     number of atomic types    =            3
     number of electrons       =       129.00
     number of Kohn-Sham states=           78
     kinetic-energy cutoff     =      30.0000  Ry
     charge density cutoff     =     240.0000  Ry
     scf convergence threshold =      1.0E-06
     mixing beta               =       0.7000
     number of iterations used =            8  plain     mixing
     Exchange-correlation= SLA  PW   PBX  PBC
                           (   1   4   3   4   0   0   0)

     celldm(1)=  11.597913  celldm(2)=   0.000000  celldm(3)=   0.000000
     celldm(4)=   0.000000  celldm(5)=   0.000000  celldm(6)=   0.000000

     crystal axes: (cart. coord. in units of alat)
               a(1) = (   1.000000   0.000000   0.000000 )
               a(2) = (  -0.500000   0.866025   0.000000 )
               a(3) = (   0.000000   0.000000   1.773948 )

     reciprocal axes: (cart. coord. in units 2 pi/alat)
               b(1) = (  1.000000  0.577350  0.000000 )
               b(2) = (  0.000000  1.154700  0.000000 )
               b(3) = (  0.000000  0.000000  0.563714 )

     PseudoPot. # 1 for Ba read from file:
     /home/pragov/projects/rrg-bengioy-ad/pragov/crystal_structure_design/SSSP/Ba.pbe-spn-kjpaw_psl.1.0.0.UPF
     MD5 check sum: c432291d3e53af55f19d5e8866385beb
     Pseudo is Projector augmented-wave + core cor, Zval = 10.0
     Generated using "atomic" code by A. Dal Corso  v.5.1
     Shape of augmentation charge: PSQ
     Using radial grid of 1251 points,  7 beta functions with:
                l(1) =   0
                l(2) =   0
                l(3) =   0
                l(4) =   1
                l(5) =   1
                l(6) =   2
                l(7) =   2
     Q(r) pseudized with 0 coefficients

     PseudoPot. # 2 for Ga read from file:
     /home/pragov/projects/rrg-bengioy-ad/pragov/crystal_structure_design/SSSP/Ga.pbe-dn-kjpaw_psl.1.0.0.UPF
     MD5 check sum: a27b4342b1af7e5f338de752e9ed7044
     Pseudo is Projector augmented-wave + core cor, Zval = 13.0
     Generated using "atomic" code by A. Dal Corso  v.5.1
     Shape of augmentation charge: PSQ
     Using radial grid of 1205 points,  6 beta functions with:
                l(1) =   0
                l(2) =   0
                l(3) =   1
                l(4) =   1
                l(5) =   2
                l(6) =   2
     Q(r) pseudized with 0 coefficients

     PseudoPot. # 3 for Pb read from file:
     /home/pragov/projects/rrg-bengioy-ad/pragov/crystal_structure_design/SSSP/Pb.pbe-dn-kjpaw_psl.0.2.2.UPF
     MD5 check sum: 9d431e6316058b74ade52399a6cf67da
     Pseudo is Projector augmented-wave + core cor, Zval = 14.0
     Generated using "atomic" code by A. Dal Corso  v.5.0.99 svn rev. 10869
     Shape of augmentation charge: PSQ
     Using radial grid of 1281 points,  6 beta functions with:
                l(1) =   0
                l(2) =   0
                l(3) =   1
                l(4) =   1
                l(5) =   2
                l(6) =   2
     Q(r) pseudized with 0 coefficients

     atomic species   valence    mass     pseudopotential
        Ba            10.00   137.32700     Ba( 1.00)
        Ga            13.00    69.72300     Ga( 1.00)
        Pb            14.00   207.20000     Pb( 1.00)

     12 Sym. Ops. (no inversion) found

                                    s                        frac. trans.

      isym =  1     identity

 cryst.   s( 1) = (     1          0          0      )
                  (     0          1          0      )
                  (     0          0          1      )

 cart.    s( 1) = (  1.0000000 -0.0000000  0.0000000 )
                  (  0.0000000  1.0000000  0.0000000 )
                  (  0.0000000  0.0000000  1.0000000 )

      isym =  2     180 deg rotation - cart. axis [0,1,0]

[...]

      isym =  3     120 deg rotation - cryst. axis [0,0,1]

[...]

      isym =  6     180 deg rotation - cryst. axis [2,1,0]

[...]

      isym =  7     inv. 180 deg rotation - cart. axis [0,0,1]

[...]

      isym =  8     inv. 180 deg rotation - cart. axis [1,0,0]

[...]

      isym =  9     inv.  60 deg rotation - cryst. axis [0,0,1]

 cryst.   s( 9) = (    -1         -1          0      )
                  (     1          0          0      )
                  (     0          0         -1      )

 cart.    s( 9) = ( -0.5000001  0.8660253  0.0000000 )
                  ( -0.8660255 -0.4999999  0.0000000 )
                  (  0.0000000  0.0000000 -1.0000000 )

[...]

 cryst.   s(10) = (     0          1          0      )
                  (    -1         -1          0      )
                  (     0          0         -1      )

 cart.    s(10) = ( -0.4999999 -0.8660253  0.0000000 )
                  (  0.8660255 -0.5000001  0.0000000 )
                  (  0.0000000  0.0000000 -1.0000000 )

[...]

      isym = 12     inv. 180 deg rotation - cryst. axis [1,1,0]

 cryst.   s(12) = (     0         -1          0      )
                  (    -1          0          0      )
                  (     0          0          1      )

 cart.    s(12) = (  0.4999999 -0.8660255  0.0000000 )
                  ( -0.8660255 -0.4999999  0.0000000 )
                  (  0.0000000  0.0000000  1.0000000 )

   Cartesian axes

     site n.     atom                  positions (alat units)
         1           Ba  tau(   1) = (   0.5000005   0.2886749   1.4767995  )
         2           Ba  tau(   2) = (  -0.0000004   0.5773506   1.2515915  )
         3           Ba  tau(   3) = (  -0.0000004   0.5773506   0.5223568  )
         4           Ba  tau(   4) = (   0.5000005   0.2886749   0.2971488  )
         5           Ba  tau(   5) = (   0.0000000   0.0000000   0.8869741  )
         6           Ga  tau(   6) = (   0.0000000   0.0000000   0.3072851  )
         7           Ga  tau(   7) = (  -0.2251369   0.7073332   0.0000000  )
         8           Ga  tau(   8) = (   0.0000000   0.3173845   0.0000000  )
         9           Ga  tau(   9) = (   0.0000000   0.0000000   1.4666632  )
        10           Ga  tau(  10) = (   0.2251371   0.7073332   0.0000000  )
        11           Pb  tau(  11) = (   0.5000005   0.2886749   0.8869741  )

   Crystallographic axes

     site n.     atom                  positions (cryst. coord.)
         1           Ba  tau(   1) = (  0.6666670  0.3333330  0.8324930  )
         2           Ba  tau(   2) = (  0.3333330  0.6666670  0.7055400  )
         3           Ba  tau(   3) = (  0.3333330  0.6666670  0.2944600  )
         4           Ba  tau(   4) = (  0.6666670  0.3333330  0.1675070  )
         5           Ba  tau(   5) = (  0.0000000  0.0000000  0.5000000  )
         6           Ga  tau(   6) = (  0.0000000  0.0000000  0.1732210  )
         7           Ga  tau(   7) = (  0.1832420  0.8167580  0.0000000  )
         8           Ga  tau(   8) = (  0.1832420  0.3664840  0.0000000  )
         9           Ga  tau(   9) = (  0.0000000  0.0000000  0.8267790  )
        10           Ga  tau(  10) = (  0.6335160  0.8167580  0.0000000  )
        11           Pb  tau(  11) = (  0.6666670  0.3333330  0.5000000  )

     number of k points=     1  Methfessel-Paxton smearing, width (Ry)=  0.0010
                       cart. coord. in units 2pi/alat
        k(    1) = (   0.0000000   0.0000000   0.0000000), wk =   2.0000000

                       cryst. coord.
        k(    1) = (   0.0000000   0.0000000   0.0000000), wk =   2.0000000

     Check: negative core charge=   -0.000001

     Initial potential from superposition of free atoms

     starting charge     128.8979, renormalised to     129.0000
     Starting wfcs are   79 randomized atomic wfcs
     Checking if some PAW data can be deallocated...

     Self-consistent Calculation

     iteration #  1     ecut=    30.00 Ry     beta= 0.70
     Davidson diagonalization with overlap

     ethr =  1.00E-02,  avg # of iterations =  8.0

     Threshold (ethr) on eigenvalues was too large:
     Diagonalizing with lowered threshold

     Davidson diagonalization with overlap

[...]

     negative rho (up, down):  2.430E-02 0.000E+00

     total energy              =   -4441.42237753 Ry
     estimated scf accuracy    <       0.56964255 Ry

[...]

     negative rho (up, down):  1.832E-04 0.000E+00

[...]

     total energy              =   -4441.66704366 Ry
     estimated scf accuracy    <       0.00000155 Ry

     iteration # 29     ecut=    30.00 Ry     beta= 0.70
     Davidson diagonalization with overlap

     ethr =  1.21E-09,  avg # of iterations =  3.0

     End of self-consistent calculation

          k = 0.0000 0.0000 0.0000 (  3315 PWs)   bands (ev):

   -20.1280 -20.1192 -19.5765 -19.0806 -19.0112  -7.2312  -7.2078  -7.2078
    -7.1869  -7.1869  -5.7278  -5.7268  -5.7268  -5.7231  -5.7231  -5.7177
    -5.7177  -5.7140  -5.7140  -5.7024  -5.4416  -5.3938  -5.3938  -5.3603
    -5.3603  -5.3361  -5.1130  -5.0456  -5.0242  -5.0242  -4.9912  -4.9742
    -4.9742  -4.8941  -4.8941  -4.8758  -4.8758  -4.8756  -4.8478  -4.8349
    -4.8349  -4.7705  -4.7705  -4.7374  -4.6361  -4.3133  -4.3133  -4.1819
    -4.1819  -4.0557   0.5470   1.0704   3.1369   4.1833   4.9648   4.9648
     6.6834   7.5363   7.5363   7.5673   7.5673   7.7880   8.0936   8.0936
     8.9600   9.4406   9.5095   9.5096   9.5948   9.5948  10.4706  11.1885
    11.1939  11.1939  11.5369  11.5369  11.8739  12.6663

     occupation numbers
     1.0000   1.0000   1.0000   1.0000   1.0000   1.0000   1.0000   1.0000
     1.0000   1.0000   1.0000   1.0000   1.0000   1.0000   1.0000   1.0000
     1.0000   1.0000   1.0000   1.0000   1.0000   1.0000   1.0000   1.0000
     1.0000   1.0000   1.0000   1.0000   1.0000   1.0000   1.0000   1.0000
     1.0000   1.0000   1.0000   1.0000   1.0000   1.0000   1.0000   1.0000
     1.0000   1.0000   1.0000   1.0000   1.0000   1.0000   1.0000   1.0000
     1.0000   1.0000   1.0000   1.0000   1.0000   1.0000   1.0000   1.0000
     1.0000   1.0000   1.0000   1.0000   1.0000   1.0000   1.0000   1.0000
     0.5000  -0.0000  -0.0000  -0.0000  -0.0000  -0.0000  -0.0000  -0.0000
    -0.0000  -0.0000  -0.0000  -0.0000  -0.0000  -0.0000

     the Fermi energy is     8.9600 ev

!    total energy              =   -4441.66704365 Ry

     total all-electron energy =   -142561.484403 Ry
     estimated scf accuracy    <       0.00000024 Ry
     smearing contrib. (-TS)   =      -0.00028209 Ry
     internal energy E=F+TS    =   -4441.66676156 Ry

     The total energy is F=E-TS. E is the sum of the following terms:
     one-electron contribution =    -856.85888119 Ry
     hartree contribution      =     530.03695402 Ry
     xc contribution           =    -336.20370797 Ry
     ewald contribution        =    -620.91538940 Ry
     one-center paw contrib.   =   -3157.72573701 Ry
      -> PAW hartree energy AE =     947.64331793 Ry
      -> PAW hartree energy PS =    -935.65653024 Ry
      -> PAW xc energy AE      =   -3497.54146289 Ry
      -> PAW xc energy PS      =     327.82893819 Ry
      -> total E_H with PAW    =     542.02374171 Ry
      -> total E_XC with PAW   =   -3505.91623267 Ry

     convergence has been achieved in  29 iterations

     Forces acting on atoms (cartesian axes, Ry/au):

     atom    1 type  1   force =    -0.00000000   -0.00000000    0.02215898
     atom    2 type  1   force =    -0.00000000   -0.00000000   -0.01271730
     atom    3 type  1   force =    -0.00000000   -0.00000000    0.01271730
     atom    4 type  1   force =     0.00000000   -0.00000000   -0.02215898
     atom    5 type  1   force =     0.00000000    0.00000000    0.00000000
     atom    6 type  2   force =    -0.00000000    0.00000000   -0.02320505
     atom    7 type  2   force =    -0.00522050    0.00301406    0.00000000
     atom    8 type  2   force =    -0.00000000   -0.00602811    0.00000000
     atom    9 type  2   force =     0.00000000   -0.00000000    0.02320505
     atom   10 type  2   force =     0.00522050    0.00301405    0.00000000
     atom   11 type  3   force =    -0.00000000    0.00000000    0.00000000
     The non-local contrib.  to forces
     atom    1 type  1   force =     0.00000000   -0.00000000    0.14610831
     atom    2 type  1   force =     0.00000000    0.00000000    0.02043184
     atom    3 type  1   force =    -0.00000000   -0.00000000   -0.02043184
     atom    4 type  1   force =     0.00000000    0.00000000   -0.14610831
     atom    5 type  1   force =    -0.00000000    0.00000000    0.00000000
     atom    6 type  2   force =    -0.00000000   -0.00000000   -0.05721843
     atom    7 type  2   force =    -0.03323442    0.01918790    0.00000000
     atom    8 type  2   force =    -0.00000000   -0.03837580    0.00000000
     atom    9 type  2   force =     0.00000000   -0.00000000    0.05721843
     atom   10 type  2   force =     0.03323442    0.01918789    0.00000000
     atom   11 type  3   force =     0.00000000    0.00000000    0.00000000
     The ionic contribution  to forces
     atom    1 type  1   force =    -0.00003910    0.00002257  -14.37855245
     atom    2 type  1   force =     0.00002752   -0.00001589  -16.26350956
     atom    3 type  1   force =     0.00002752   -0.00001589   16.26350956
     atom    4 type  1   force =    -0.00003910    0.00002257   14.37855245
     atom    5 type  1   force =     0.00000869   -0.00000502   -0.00000000
     atom    6 type  2   force =     0.00000485   -0.00000280   29.05874847
     atom    7 type  2   force =     2.26879111   -1.30988734   -0.00000000
     atom    8 type  2   force =     0.00003189    2.61978668   -0.00000000
     atom    9 type  2   force =     0.00000485   -0.00000280  -29.05874847
     atom   10 type  2   force =    -2.26878603   -1.30992069   -0.00000000
     atom   11 type  3   force =    -0.00003220    0.00001859    0.00000000
     The local contribution  to forces
     atom    1 type  1   force =     0.00023078    0.00015293   14.27127707
     atom    2 type  1   force =    -0.00001353   -0.00010969   16.23546117
     atom    3 type  1   force =    -0.00004564   -0.00002894  -16.23478415
     atom    4 type  1   force =    -0.00026676   -0.00014022  -14.27150928
     atom    5 type  1   force =    -0.00018016   -0.00035750    0.00040064
     atom    6 type  2   force =    -0.00000573    0.00000756  -29.02806207
     atom    7 type  2   force =    -2.24154031    1.29415164   -0.00015477
     atom    8 type  2   force =    -0.00003831   -2.58832438   -0.00015538
     atom    9 type  2   force =    -0.00000380    0.00001389   29.02785859
     atom   10 type  2   force =     2.24153591    1.29419090   -0.00015196
     atom   11 type  3   force =     0.00002845   -0.00001892    0.00020136
     The core correction contribution to forces
     atom    1 type  1   force =     0.00000243    0.00000256   -0.01684588
     atom    2 type  1   force =     0.00000213    0.00000035   -0.00482860
     atom    3 type  1   force =     0.00000101    0.00000113    0.00483480
     atom    4 type  1   force =    -0.00000396   -0.00000128    0.01683944
     atom    5 type  1   force =    -0.00000122   -0.00000453    0.00000668
     atom    6 type  2   force =    -0.00000005    0.00000001    0.00319708
     atom    7 type  2   force =     0.00072642   -0.00041946    0.00000008
     atom    8 type  2   force =    -0.00000019    0.00083884    0.00000017
     atom    9 type  2   force =    -0.00000013    0.00000000   -0.00319778
     atom   10 type  2   force =    -0.00072646   -0.00041932    0.00000016
     atom   11 type  3   force =    -0.00000011    0.00000005    0.00000084
     The Hubbard contrib.    to forces
     atom    1 type  1   force =     0.00000000    0.00000000    0.00000000
     atom    2 type  1   force =     0.00000000    0.00000000    0.00000000
     atom    3 type  1   force =     0.00000000    0.00000000    0.00000000
     atom    4 type  1   force =     0.00000000    0.00000000    0.00000000
     atom    5 type  1   force =     0.00000000    0.00000000    0.00000000
     atom    6 type  2   force =     0.00000000    0.00000000    0.00000000
     atom    7 type  2   force =     0.00000000    0.00000000    0.00000000
     atom    8 type  2   force =     0.00000000    0.00000000    0.00000000
     atom    9 type  2   force =     0.00000000    0.00000000    0.00000000
     atom   10 type  2   force =     0.00000000    0.00000000    0.00000000
     atom   11 type  3   force =     0.00000000    0.00000000    0.00000000
     The SCF correction term to forces
     atom    1 type  1   force =    -0.00002463   -0.00002666    0.00012122
     atom    2 type  1   force =     0.00000904    0.00002789   -0.00000143
     atom    3 type  1   force =     0.00000554    0.00001150   -0.00014035
     atom    4 type  1   force =     0.00003597    0.00001501    0.00001602
     atom    5 type  1   force =     0.00001796    0.00003266   -0.00016994
     atom    6 type  2   force =     0.00000262   -0.00000363    0.00013668
     atom    7 type  2   force =     0.00003739   -0.00001518    0.00015993
     atom    8 type  2   force =     0.00000998    0.00004827    0.00016064
     atom    9 type  2   force =     0.00000003   -0.00001150    0.00008107
     atom   10 type  2   force =    -0.00003699   -0.00002416    0.00015659
     atom   11 type  3   force =     0.00000618   -0.00000393   -0.00020843

     Total force =     0.049915     Total SCF correction =     0.000469

     Computing stress (Cartesian axis) and pressure

          total   stress  (Ry/bohr**3)                   (kbar)     P=      -38.32
  -0.00027491   0.00000000   0.00000000          -40.44        0.00        0.00
   0.00000000  -0.00027491   0.00000000            0.00      -40.44        0.00
   0.00000000  -0.00000000  -0.00023157            0.00       -0.00      -34.07

     kinetic stress (kbar)   7860.64     -0.00      0.00
                               -0.00   7860.64     -0.00
                                0.00     -0.00   7819.20

     local   stress (kbar) -14332.85      0.01      0.00
                                0.01 -14332.83     -0.00
                                0.00     -0.00  12967.65

     nonloc. stress (kbar)   3242.64     -0.00      0.00
                               -0.00   3242.64     -0.00
                                0.00      0.00   3222.50

     hartree stress (kbar)  15362.06     -0.01      0.00
                               -0.01  15362.05      0.00
                                0.00      0.00   1808.78

     exc-cor stress (kbar)   6140.19      0.00      0.00
                                0.00   6140.19     -0.00
                                0.00     -0.00   6138.31

     corecor stress (kbar) -10168.90      0.00     -0.00
                                0.00 -10168.90     -0.00
                               -0.00     -0.00 -10168.08

     ewald   stress (kbar)  -8144.22     -0.01     -0.00
                               -0.01  -8144.23      0.00
                               -0.00      0.00 -21822.42

     hubbard stress (kbar)      0.00      0.00      0.00
                                0.00      0.00      0.00
                                0.00      0.00      0.00

     DFT-D   stress (kbar)      0.00      0.00      0.00
                                0.00      0.00      0.00
                                0.00      0.00      0.00

     XDM     stress (kbar)      0.00      0.00      0.00
                                0.00      0.00      0.00
                                0.00      0.00      0.00

     dft-nl  stress (kbar)      0.00      0.00      0.00
                                0.00      0.00      0.00
                                0.00      0.00      0.00

     TS-vdW  stress (kbar)      0.00      0.00      0.00
                                0.00      0.00      0.00
                                0.00      0.00      0.00

[...]

                                0.00      0.00      0.00

     Writing all to output data dir new_calculations/myprefix.save/

     General routines

     Parallel routines

     PAW routines

   This run was terminated on:   2:47:44  21May2023

   JOB DONE.