     Program PWSCF v.7.0 starts on 20May2023 at  7: 6:18

     Reading input from espresso_1219.pwi
Warning: card &CELL ignored
Warning: card / ignored

     Current dimensions of program PWSCF are:
     Max number of different atomic species (ntypx) = 10
     Max number of k-points (npk) =  40000
     Max angular momentum in pseudopotentials (lmaxx) =  4

     gamma-point specific algorithms are used
     Message from routine setup:
     using ibrav=0 with symmetry is DISCOURAGED, use correct ibrav instead

     Subspace diagonalization in iterative solution of the eigenvalue problem:
     a serial algorithm will be used

     Using Slab Decomposition

     bravais-lattice index     =            0
     lattice parameter (alat)  =      11.1412  a.u.
     unit-cell volume          =     732.4886 (a.u.)^3
     number of atoms/cell      =            5
     number of atomic types    =            3
     number of electrons       =        76.00
     number of Kohn-Sham states=           46
     kinetic-energy cutoff     =      30.0000  Ry
     charge density cutoff     =     240.0000  Ry
     scf convergence threshold =      1.0E-06
     mixing beta               =       0.7000
     number of iterations used =            8  plain     mixing
     Exchange-correlation= SLA  PW   PBE  PBE
                           (   1   4   3   4   0   0   0)

     celldm(1)=  11.141220  celldm(2)=   0.000000  celldm(3)=   0.000000
     celldm(4)=   0.000000  celldm(5)=   0.000000  celldm(6)=   0.000000

     crystal axes: (cart. coord. in units of alat)
               a(1) = (   1.000000   0.000000   0.000000 )
               a(2) = (   0.740112   0.672484   0.000000 )
               a(3) = (   0.235857   0.091149   0.787627 )

     reciprocal axes: (cart. coord. in units 2 pi/alat)
               b(1) = (  1.000000 -1.100565 -0.172088 )
               b(2) = (  0.000000  1.487025 -0.172088 )
               b(3) = (  0.000000  0.000000  1.269636 )

     PseudoPot. # 1 for Ca read from file:
     /home/pragov/projects/rrg-bengioy-ad/pragov/crystal_structure_design/SSSP/Ca_pbe_v1.uspp.F.UPF
     MD5 check sum: 403a4c14b9e4d4dfdc3024c9a3812218
     Pseudo is Ultrasoft + core correction, Zval = 10.0
     Generated by new atomic code, or converted to UPF format
     Using radial grid of  845 points,  6 beta functions with:
                l(1) =   0
                l(2) =   0
                l(3) =   1
                l(4) =   1
                l(5) =   2
                l(6) =   2
     Q(r) pseudized with  8 coefficients,  rinner =    1.500   1.500   1.500
                                                       1.500   1.500

     PseudoPot. # 2 for Cu read from file:
     /home/pragov/projects/rrg-bengioy-ad/pragov/crystal_structure_design/SSSP/Cu_pbe_v1.2.uspp.F.UPF
     MD5 check sum: 6e991ff952a84172a2a52a1c1e996048
     Pseudo is Ultrasoft + core correction, Zval = 19.0
     Generated by new atomic code, or converted to UPF format
     Using radial grid of  867 points,  6 beta functions with:
                l(1) =   0
                l(2) =   0
                l(3) =   1
                l(4) =   1
                l(5) =   2
                l(6) =   2
     Q(r) pseudized with  8 coefficients,  rinner =    1.150   1.150   1.150
                                                       1.150   1.150

     PseudoPot. # 3 for Sn read from file:
     /home/pragov/projects/rrg-bengioy-ad/pragov/crystal_structure_design/SSSP/Sn_pbe_v1.uspp.F.UPF
     MD5 check sum: 4cf58ce39ec5d5d420df3dd08604eb00
     Pseudo is Ultrasoft + core correction, Zval = 14.0
     Generated by new atomic code, or converted to UPF format
     Using radial grid of  891 points,  6 beta functions with:
                l(1) =   0
                l(2) =   0
                l(3) =   1
                l(4) =   1
                l(5) =   2
                l(6) =   2
     Q(r) pseudized with  6 coefficients,  rinner =    1.200   1.200   1.200
                                                       1.200   1.200

     atomic species   valence    mass     pseudopotential
        Ca            10.00    40.07800     Ca( 1.00)
        Cu            19.00    63.54600     Cu( 1.00)
        Sn            14.00   118.71000     Sn( 1.00)

      2 Sym. Ops., with inversion, found

                                    s                        frac. trans.

      isym =  1     identity

 cryst.   s( 1) = (     1          0          0      )
                  (     0          1          0      )
                  (     0          0          1      )

 cart.    s( 1) = (  1.0000000 -0.0000000 -0.0000000 )
                  (  0.0000000  1.0000000 -0.0000000 )
                  (  0.0000000  0.0000000  1.0000000 )

      isym =  2     inversion

 cryst.   s( 2) = (    -1          0          0      )
                  (     0         -1          0      )
                  (     0          0         -1      )

 cart.    s( 2) = ( -1.0000000  0.0000000  0.0000000 )
                  (  0.0000000 -1.0000000  0.0000000 )
                  (  0.0000000  0.0000000 -1.0000000 )

   Cartesian axes

     site n.     atom                  positions (alat units)
         1           Ca  tau(   1) = (   0.0000000   0.0000000   0.0000000  )
         2           Cu  tau(   2) = (   1.4864422   0.5744505   0.6826571  )
         3           Cu  tau(   3) = (   0.4895268   0.1891825   0.1049703  )
         4           Sn  tau(   4) = (   0.7552022   0.2918555   0.4475110  )
         5           Sn  tau(   5) = (   1.2207668   0.4717776   0.3401164  )

   Crystallographic axes

     site n.     atom                  positions (cryst. coord.)
         1           Ca  tau(   1) = (  0.0000000  0.0000000  0.0000000  )
         2           Cu  tau(   2) = (  0.7367450  0.7367450  0.8667260  )
         3           Cu  tau(   3) = (  0.2632550  0.2632550  0.1332740  )
         4           Sn  tau(   4) = (  0.3569850  0.3569850  0.5681760  )
         5           Sn  tau(   5) = (  0.6430150  0.6430150  0.4318240  )

     number of k points=     1  Methfessel-Paxton smearing, width (Ry)=  0.0010
                       cart. coord. in units 2pi/alat
        k(    1) = (   0.0000000   0.0000000   0.0000000), wk =   2.0000000

                       cryst. coord.
        k(    1) = (   0.0000000   0.0000000   0.0000000), wk =   2.0000000

     Check: negative core charge=   -0.000001

     Initial potential from superposition of free atoms

     starting charge      71.9944, renormalised to      76.0000
     Starting wfcs are   54 randomized atomic wfcs

     Self-consistent Calculation

     iteration #  1     ecut=    30.00 Ry     beta= 0.70
     Davidson diagonalization with overlap

     ethr =  1.00E-02,  avg # of iterations =  3.0

     total energy              =   -1177.68374224 Ry
     estimated scf accuracy    <      40.53410604 Ry

[...]

     total energy              =   -1208.70605919 Ry
     estimated scf accuracy    <       0.00000393 Ry

     iteration # 16     ecut=    30.00 Ry     beta= 0.70
     Davidson diagonalization with overlap

     ethr =  5.17E-09,  avg # of iterations =  1.0

     End of self-consistent calculation

          k = 0.0000 0.0000 0.0000 (  1016 PWs)   bands (ev):

  -101.8713-101.8672 -59.3026 -59.2977 -59.2257 -59.1857 -59.1779 -59.1641
   -30.6642 -11.7688 -11.7470 -11.5095 -10.0313  -9.9630  -9.9521  -9.9289
    -9.9087  -9.8848  -9.8560  -9.8282  -9.8218  -9.7988   1.1273   5.2437
     6.6647   7.5274   7.6010   7.6828   7.7848   7.9818   8.0425   8.3200
     8.3417   8.5178   8.6075   9.9053   9.9393  10.3105  11.6121  12.8726
    12.9328  13.7706  13.8783  14.0616  14.6871  15.2425

     occupation numbers
     1.0000   1.0000   1.0000   1.0000   1.0000   1.0000   1.0000   1.0000
     1.0000   1.0000   1.0000   1.0000   1.0000   1.0000   1.0000   1.0000
     1.0000   1.0000   1.0000   1.0000   1.0000   1.0000   1.0000   1.0000
     1.0000   1.0000   1.0000   1.0000   1.0000   1.0000   1.0000   1.0000
     1.0000   1.0000   1.0000   1.0000   1.0000   1.0000  -0.0000  -0.0000
    -0.0000  -0.0000  -0.0000  -0.0000  -0.0000  -0.0000

     the Fermi energy is    10.7932 ev

!    total energy              =   -1208.70605892 Ry
     estimated scf accuracy    <       0.00000055 Ry
     smearing contrib. (-TS)   =       0.00000000 Ry
     internal energy E=F+TS    =   -1208.70605892 Ry

     The total energy is F=E-TS. E is the sum of the following terms:
     one-electron contribution =    -935.97203714 Ry
     hartree contribution      =     507.85262236 Ry
     xc contribution           =    -184.75236340 Ry
     ewald contribution        =    -595.83428074 Ry

     convergence has been achieved in  16 iterations

     Forces acting on atoms (cartesian axes, Ry/au):

     atom    1 type  1   force =     0.00000000    0.00000000    0.00000000
     atom    2 type  2   force =    -0.01077849   -0.00416113    0.00985709
     atom    3 type  2   force =     0.01077849    0.00416113   -0.00985709
     atom    4 type  3   force =    -0.09020418   -0.03485825   -0.01701956
     atom    5 type  3   force =     0.09020418    0.03485825    0.01701956
     The non-local contrib.  to forces
     atom    1 type  1   force =     0.00000000    0.00000000    0.00000000
     atom    2 type  2   force =    -0.06463290   -0.02497590    0.03694077
     atom    3 type  2   force =     0.06463290    0.02497590   -0.03694077
     atom    4 type  3   force =    -0.00357048   -0.00138055    0.25652668
     atom    5 type  3   force =     0.00357048    0.00138055   -0.25652668
     The ionic contribution  to forces
     atom    1 type  1   force =     0.00000000    0.00000000    0.00000000
     atom    2 type  2   force =    -7.40464038   -2.86159751   -8.75720721
     atom    3 type  2   force =     7.40464038    2.86159751    8.75720721
     atom    4 type  3   force =    15.79725788    6.10500867  -11.86928167
     atom    5 type  3   force =   -15.79725788   -6.10500867   11.86928167
     The local contribution  to forces
     atom    1 type  1   force =    -0.00006436   -0.00002810    0.00005789
     atom    2 type  2   force =     7.45886037    2.88254683    8.72956314
     atom    3 type  2   force =    -7.45819883   -2.88227953   -8.72959350
     atom    4 type  3   force =   -15.88371246   -6.13841665   11.60345100
     atom    5 type  3   force =    15.88368305    6.13840800  -11.60352724
     The core correction contribution to forces
     atom    1 type  1   force =     0.00000067    0.00000019    0.00000077
     atom    2 type  2   force =    -0.00008375   -0.00003235   -0.00005388
     atom    3 type  2   force =     0.00008351    0.00003227    0.00005390
     atom    4 type  3   force =     0.00008056    0.00003120   -0.00793048
     atom    5 type  3   force =    -0.00008206   -0.00003149    0.00793062
     The Hubbard contrib.    to forces
     atom    1 type  1   force =     0.00000000    0.00000000    0.00000000
     atom    2 type  2   force =     0.00000000    0.00000000    0.00000000
     atom    3 type  2   force =     0.00000000    0.00000000    0.00000000
     atom    4 type  3   force =     0.00000000    0.00000000    0.00000000
     atom    5 type  3   force =     0.00000000    0.00000000    0.00000000
     The SCF correction term to forces
     atom    1 type  1   force =     0.00005223    0.00002175   -0.00004207
     atom    2 type  2   force =    -0.00024331   -0.00007381    0.00059937
     atom    3 type  2   force =    -0.00034095   -0.00013662   -0.00059884
     atom    4 type  3   force =    -0.00025994   -0.00010147    0.00021850
     atom    5 type  3   force =     0.00029031    0.00010932   -0.00013522

     Total force =     0.140515     Total SCF correction =     0.001078

     Computing stress (Cartesian axis) and pressure

          total   stress  (Ry/bohr**3)                   (kbar)     P=     -230.45
  -0.00163217   0.00034055  -0.00035751         -240.10       50.10      -52.59
   0.00034055  -0.00238175  -0.00013817           50.10     -350.37      -20.33
  -0.00035751  -0.00013817  -0.00068580          -52.59      -20.33     -100.88

     kinetic stress (kbar)  19680.85    102.60    -49.73
                              102.60  19455.01    -19.22
                              -49.73    -19.22  19754.99

     local   stress (kbar)  16258.48  22407.68 -17636.57
                            22407.68 -33063.73  -6815.83
                           -17636.57  -6815.83 -35630.77

     nonloc. stress (kbar)  12552.33    -18.59     56.52
                              -18.59  12593.24     21.84
                               56.52     21.84  12692.45

     hartree stress (kbar)  18340.02 -10606.24   8303.46
                           -10606.24  41685.73   3208.96
                             8303.46   3208.96  41965.87

     exc-cor stress (kbar)   2938.90      0.10      2.43
                                0.10   2938.67      0.94
                                2.43      0.94   2947.51

     corecor stress (kbar) -12045.47     -0.21     -0.32
                               -0.21 -12045.01     -0.12
                               -0.32     -0.12 -12049.53

     ewald   stress (kbar) -57965.21 -11835.25   9271.61
                           -11835.25 -31914.29   3583.11
                             9271.61   3583.11 -29781.41

     hubbard stress (kbar)      0.00      0.00      0.00
                                0.00      0.00      0.00
                                0.00      0.00      0.00

     DFT-D   stress (kbar)      0.00      0.00      0.00
                                0.00      0.00      0.00
                                0.00      0.00      0.00

     XDM     stress (kbar)      0.00      0.00      0.00
                                0.00      0.00      0.00
                                0.00      0.00      0.00

     dft-nl  stress (kbar)      0.00      0.00      0.00
                                0.00      0.00      0.00
                                0.00      0.00      0.00

     TS-vdW  stress (kbar)      0.00      0.00      0.00
                                0.00      0.00      0.00
                                0.00      0.00      0.00

[...]

                                0.00      0.00      0.00

     Writing all to output data dir new_calculations/myprefix.save/

     General routines

     Parallel routines

   This run was terminated on:   7: 6:32  20May2023

   JOB DONE.