     Program PWSCF v.7.0 starts on 20May2023 at 11: 6: 9

     Reading input from espresso_19241.pwi
Warning: card &CELL ignored
Warning: card / ignored

     Current dimensions of program PWSCF are:
     Max number of different atomic species (ntypx) = 10
     Max number of k-points (npk) =  40000
     Max angular momentum in pseudopotentials (lmaxx) =  4

     gamma-point specific algorithms are used
     Message from routine setup:
     using ibrav=0 with symmetry is DISCOURAGED, use correct ibrav instead

     Subspace diagonalization in iterative solution of the eigenvalue problem:
     a serial algorithm will be used

     Using Slab Decomposition

     bravais-lattice index     =            0
     lattice parameter (alat)  =       6.9173  a.u.
     unit-cell volume          =     907.1313 (a.u.)^3
     number of atoms/cell      =            8
     number of atomic types    =            3
     number of electrons       =        92.00
     number of Kohn-Sham states=           55
     kinetic-energy cutoff     =      30.0000  Ry
     charge density cutoff     =     240.0000  Ry
     scf convergence threshold =      1.0E-06
     mixing beta               =       0.7000
     number of iterations used =            8  plain     mixing
     Exchange-correlation= PBE
                           (   1   4   3   4   0   0   0)

     celldm(1)=   6.917324  celldm(2)=   0.000000  celldm(3)=   0.000000
     celldm(4)=   0.000000  celldm(5)=   0.000000  celldm(6)=   0.000000

     crystal axes: (cart. coord. in units of alat)
               a(1) = (   1.000000   0.000000   0.000000 )
               a(2) = (   0.000000   1.440379   0.000000 )
               a(3) = (   0.000000   0.705509   1.902739 )

     reciprocal axes: (cart. coord. in units 2 pi/alat)
               b(1) = (  1.000000  0.000000  0.000000 )
               b(2) = (  0.000000  0.694262 -0.257423 )
               b(3) = (  0.000000  0.000000  0.525558 )

     PseudoPot. # 1 for Zr read from file:
     /home/pragov/projects/rrg-bengioy-ad/pragov/crystal_structure_design/SSSP/Zr_pbe_v1.uspp.F.UPF
     MD5 check sum: 5db81b1e868ab7776c4564c113de050b
     Pseudo is Ultrasoft + core correction, Zval = 12.0
     Generated by new atomic code, or converted to UPF format
     Using radial grid of  887 points,  6 beta functions with:
                l(1) =   0
                l(2) =   0
                l(3) =   1
                l(4) =   1
                l(5) =   2
                l(6) =   2
     Q(r) pseudized with  6 coefficients,  rinner =    1.200   1.200   1.200
                                                       1.200   1.200

     PseudoPot. # 2 for Co read from file:
     /home/pragov/projects/rrg-bengioy-ad/pragov/crystal_structure_design/SSSP/Co_pbe_v1.2.uspp.F.UPF
     MD5 check sum: 5f91765df6ddd3222702df6e7b74a16d
     Pseudo is Ultrasoft + core correction, Zval = 17.0
     Generated by new atomic code, or converted to UPF format
     Using radial grid of  863 points,  6 beta functions with:
                l(1) =   0
                l(2) =   0
                l(3) =   1
                l(4) =   1
                l(5) =   2
                l(6) =   2
     Q(r) pseudized with  8 coefficients,  rinner =    1.200   1.200   1.200
                                                       1.200   1.200

     PseudoPot. # 3 for P  read from file:
     /home/pragov/projects/rrg-bengioy-ad/pragov/crystal_structure_design/SSSP/P.pbe-n-rrkjus_psl.1.0.0.UPF
     MD5 check sum: 8b930f418f0a4573dca56cd030ffe088
     Pseudo is Ultrasoft + core correction, Zval =  5.0
     Generated using "atomic" code by A. Dal Corso  v.5.1
     Using radial grid of 1147 points,  6 beta functions with:
                l(1) =   0
                l(2) =   0
                l(3) =   1
                l(4) =   1
                l(5) =   2
                l(6) =   2
     Q(r) pseudized with 0 coefficients

     atomic species   valence    mass     pseudopotential
        Zr            12.00    91.22400     Zr( 1.00)
        Co            17.00    58.93319     Co( 1.00)
        P              5.00    30.97376     P ( 1.00)

      4 Sym. Ops., with inversion, found ( 2 have fractional translation)

                                    s                        frac. trans.

      isym =  1     identity

 cryst.   s( 1) = (     1          0          0      )
                  (     0          1          0      )
                  (     0          0          1      )

 cart.    s( 1) = (  1.0000000  0.0000000  0.0000000 )
                  (  0.0000000  1.0000000  0.0000000 )
                  (  0.0000000  0.0000000  1.0000000 )

      isym =  2     180 deg rotation - cart. axis [1,0,0]

 cryst.   s( 2) = (     1          0          0      )    f =(  0.5000000 )
                  (     0         -1          0      )       ( -0.0000000 )
                  (     0          0         -1      )       ( -0.0000000 )

 cart.    s( 2) = (  1.0000000  0.0000000  0.0000000 )    f =(  0.5000000 )
                  (  0.0000000 -1.0000000 -0.0000000 )       ( -0.0000000 )
                  (  0.0000000  0.0000000 -1.0000000 )       ( -0.0000000 )

      isym =  3     inversion

 cryst.   s( 3) = (    -1          0          0      )
                  (     0         -1          0      )
                  (     0          0         -1      )

 cart.    s( 3) = ( -1.0000000  0.0000000  0.0000000 )
                  (  0.0000000 -1.0000000 -0.0000000 )
                  (  0.0000000  0.0000000 -1.0000000 )

      isym =  4     inv. 180 deg rotation - cart. axis [1,0,0]

 cryst.   s( 4) = (    -1          0          0      )    f =(  0.5000000 )
                  (     0          1          0      )       (  0.0000000 )
                  (     0          0          1      )       (  0.0000000 )

 cart.    s( 4) = ( -1.0000000  0.0000000  0.0000000 )    f =(  0.5000000 )
                  (  0.0000000  1.0000000  0.0000000 )       (  0.0000000 )
                  (  0.0000000  0.0000000  1.0000000 )       (  0.0000000 )

   Cartesian axes

     site n.     atom                  positions (alat units)
         1           Zr  tau(   1) = (   0.7500000   1.4231641   0.8291831  )
         2           Zr  tau(   2) = (   0.2500000   0.7227238   1.0735556  )
         3           Zr  tau(   3) = (   0.7500000   1.0697298   1.7494598  )
         4           Zr  tau(   4) = (   0.2500000   1.0761580   0.1532789  )
         5           Co  tau(   5) = (   0.7500000   0.7135620   0.5506735  )
         6           Co  tau(   6) = (   0.2500000   1.4323259   1.3520652  )
         7           P   tau(   7) = (   0.7500000   1.7926077   1.5006919  )
         8           P   tau(   8) = (   0.2500000   0.3532802   0.4020468  )

   Crystallographic axes

     site n.     atom                  positions (cryst. coord.)
         1           Zr  tau(   1) = (  0.7500000  0.7745980  0.4357840  )
         2           Zr  tau(   2) = (  0.2500000  0.2254020  0.5642160  )
         3           Zr  tau(   3) = (  0.7500000  0.2923220  0.9194430  )
         4           Zr  tau(   4) = (  0.2500000  0.7076780  0.0805570  )
         5           Co  tau(   5) = (  0.7500000  0.3536430  0.2894110  )
         6           Co  tau(   6) = (  0.2500000  0.6463570  0.7105890  )
         7           P   tau(   7) = (  0.7500000  0.8582270  0.7887010  )
         8           P   tau(   8) = (  0.2500000  0.1417730  0.2112990  )

     number of k points=     1  Methfessel-Paxton smearing, width (Ry)=  0.0010
                       cart. coord. in units 2pi/alat
        k(    1) = (   0.0000000   0.0000000   0.0000000), wk =   2.0000000

                       cryst. coord.
        k(    1) = (   0.0000000   0.0000000   0.0000000), wk =   2.0000000

     Check: negative core charge=   -0.000010

     Initial potential from superposition of free atoms

     starting charge      89.9911, renormalised to      92.0000

     negative rho (up, down):  2.478E-01 0.000E+00
     Starting wfcs are   86 randomized atomic wfcs

     Self-consistent Calculation

     iteration #  1     ecut=    30.00 Ry     beta= 0.70
     Davidson diagonalization with overlap

     ethr =  1.00E-02,  avg # of iterations =  2.0

     negative rho (up, down):  2.423E-01 0.000E+00

     total energy              =   -1016.05083800 Ry
     estimated scf accuracy    <       8.26441716 Ry

[...]

     total energy              =   -1021.99110437 Ry
     estimated scf accuracy    <       0.00001367 Ry

     iteration # 20     ecut=    30.00 Ry     beta= 0.70
     Davidson diagonalization with overlap

     ethr =  1.01E-08,  avg # of iterations =  1.0

[...]

     End of self-consistent calculation

          k = 0.0000 0.0000 0.0000 (  1258 PWs)   bands (ev):

   -79.7587 -79.7579 -43.2691 -43.2627 -43.0644 -43.0600 -42.7441 -42.7402
   -33.4788 -33.4328 -33.4132 -33.3896 -11.8647 -11.7966 -11.7662 -11.6087
   -11.4742 -11.4658 -11.4483 -11.4074 -11.3651 -11.2928 -11.2744 -11.1562
     3.2414   3.9448   9.8010   9.8272  10.9109  10.9660  11.2562  11.5559
    12.0048  12.2797  13.0347  13.0492  13.1254  13.2738  13.3010  13.6703
    13.7618  13.9384  14.1854  14.8259  15.2134  15.3645  15.3938  15.9994
    16.1832  16.2350  16.4293  17.1155  17.3397  17.7796  18.1799

     occupation numbers
     1.0000   1.0000   1.0000   1.0000   1.0000   1.0000   1.0000   1.0000
     1.0000   1.0000   1.0000   1.0000   1.0000   1.0000   1.0000   1.0000
     1.0000   1.0000   1.0000   1.0000   1.0000   1.0000   1.0000   1.0000
     1.0000   1.0000   1.0000   1.0000   1.0000   1.0000   1.0000   1.0000
     1.0000   1.0000   1.0000   1.0000   1.0000   1.0000   1.0000   1.0000
     1.0000   1.0000   1.0000   1.0000   1.0000   1.0314  -0.0314  -0.0000
    -0.0000  -0.0000  -0.0000  -0.0000  -0.0000  -0.0000  -0.0000

     the Fermi energy is    15.3792 ev

!    total energy              =   -1021.99110487 Ry
     estimated scf accuracy    <       0.00000028 Ry
     smearing contrib. (-TS)   =       0.00023349 Ry
     internal energy E=F+TS    =   -1021.99133835 Ry

     The total energy is F=E-TS. E is the sum of the following terms:
     one-electron contribution =    -528.36604789 Ry
     hartree contribution      =     310.46613262 Ry
     xc contribution           =    -145.63081480 Ry
     ewald contribution        =    -658.46060829 Ry

     convergence has been achieved in  20 iterations

     negative rho (up, down):  2.485E-01 0.000E+00

     Forces acting on atoms (cartesian axes, Ry/au):

     atom    1 type  1   force =    -0.00000000    0.04304283   -0.04326221
     atom    2 type  1   force =    -0.00000000   -0.04304283    0.04326221
     atom    3 type  1   force =     0.00000000   -0.02520632    0.12967346
     atom    4 type  1   force =     0.00000000    0.02520632   -0.12967346
     atom    5 type  2   force =     0.00000000    0.00637958   -0.00441301
     atom    6 type  2   force =     0.00000000   -0.00637958    0.00441301
     atom    7 type  3   force =    -0.00000000    0.05240418   -0.02916998
     atom    8 type  3   force =    -0.00000000   -0.05240418    0.02916998
     The non-local contrib.  to forces
     atom    1 type  1   force =    -0.00000000    0.14954056   -0.01853241
     atom    2 type  1   force =    -0.00000000   -0.14954056    0.01853241
     atom    3 type  1   force =    -0.00000000    0.06261506    0.12079365
     atom    4 type  1   force =    -0.00000000   -0.06261506   -0.12079365
     atom    5 type  2   force =     0.00000000   -0.72677665   -0.23038315
     atom    6 type  2   force =     0.00000000    0.72677665    0.23038315
     atom    7 type  3   force =     0.00000000   -0.07574189    0.07591220
     atom    8 type  3   force =     0.00000000    0.07574189   -0.07591220
     The ionic contribution  to forces
     atom    1 type  1   force =     0.00000000   -0.04347280   -8.15982236
     atom    2 type  1   force =    -0.00000000    0.04347280    8.15982236
     atom    3 type  1   force =     0.00000000  -10.74813454    3.89774184
     atom    4 type  1   force =     0.00000000   10.74813454   -3.89774184
     atom    5 type  2   force =     0.00000000    0.18321090   -3.93777317
     atom    6 type  2   force =     0.00000000   -0.18321090    3.93777316
     atom    7 type  3   force =     0.00000000    5.70684689    3.34713061
     atom    8 type  3   force =    -0.00000000   -5.70684689   -3.34713061
     The local contribution  to forces
     atom    1 type  1   force =     0.00028399   -0.05669972    8.13504573
     atom    2 type  1   force =     0.00027915    0.05676274   -8.13500134
     atom    3 type  1   force =     0.00030086   10.66431390   -3.88477446
     atom    4 type  1   force =     0.00030168  -10.66440120    3.88481629
     atom    5 type  2   force =    -0.00087562    0.53809493    4.15948730
     atom    6 type  2   force =    -0.00087156   -0.53869808   -4.15974189
     atom    7 type  3   force =    -0.00005665   -5.58174233   -3.44753578
     atom    8 type  3   force =    -0.00007037    5.58169212    3.44747225
     The core correction contribution to forces
     atom    1 type  1   force =     0.00000859   -0.00652087    0.00000729
     atom    2 type  1   force =     0.00000860    0.00652101   -0.00000995
     atom    3 type  1   force =     0.00000840   -0.00407524   -0.00402432
     atom    4 type  1   force =     0.00000809    0.00407206    0.00402648
     atom    5 type  2   force =    -0.00001897    0.01199348    0.00389800
     atom    6 type  2   force =    -0.00001898   -0.01199835   -0.00390109
     atom    7 type  3   force =     0.00000064    0.00302818   -0.00460815
     atom    8 type  3   force =     0.00000022   -0.00302948    0.00460706
     The Hubbard contrib.    to forces
     atom    1 type  1   force =     0.00000000    0.00000000    0.00000000
     atom    2 type  1   force =     0.00000000    0.00000000    0.00000000
     atom    3 type  1   force =     0.00000000    0.00000000    0.00000000
     atom    4 type  1   force =     0.00000000    0.00000000    0.00000000
     atom    5 type  2   force =     0.00000000    0.00000000    0.00000000
     atom    6 type  2   force =     0.00000000    0.00000000    0.00000000
     atom    7 type  3   force =     0.00000000    0.00000000    0.00000000
     atom    8 type  3   force =     0.00000000    0.00000000    0.00000000
     The SCF correction term to forces
     atom    1 type  1   force =    -0.00006673    0.00019509    0.00009733
     atom    2 type  1   force =    -0.00006298   -0.00025941   -0.00002346
     atom    3 type  1   force =    -0.00009453    0.00005144   -0.00010136
     atom    4 type  1   force =    -0.00009464   -0.00000709   -0.00001884
     atom    5 type  2   force =     0.00059206   -0.00016005    0.00033770
     atom    6 type  2   force =     0.00059844    0.00073413   -0.00012062
     atom    7 type  3   force =     0.00001259    0.00000132   -0.00008109
     atom    8 type  3   force =     0.00001492    0.00002617    0.00012123

     Total force =     0.222855     Total SCF correction =     0.001257

     Computing stress (Cartesian axis) and pressure

     negative rho (up, down):  2.485E-01 0.000E+00
          total   stress  (Ry/bohr**3)                   (kbar)     P=     -139.50
  -0.00059239   0.00000000   0.00000000          -87.14        0.00        0.00
   0.00000000  -0.00084380   0.00041210            0.00     -124.13       60.62
   0.00000000   0.00041210  -0.00140862            0.00       60.62     -207.22

     kinetic stress (kbar)  22814.50      0.00      0.00
                                0.00  22403.33     -3.50
                                0.00     -3.50  22496.91

     local   stress (kbar) -19011.07     -0.00      0.00
                               -0.00  -5031.57    652.15
                                0.00    652.15 -11502.52

     nonloc. stress (kbar)  14696.81      0.00      0.00
                                0.00  15018.93    -69.03
                                0.00    -69.03  15009.27

     hartree stress (kbar)  19902.56      0.00     -0.00
                                0.00  13688.09   -324.96
                               -0.00   -324.96  16756.14

     exc-cor stress (kbar)  -1805.88      0.00     -0.00
                                0.00  -1815.13     -0.51
                               -0.00     -0.51  -1811.37

     corecor stress (kbar)  -5143.56      0.00      0.00
                                0.00  -5153.65      1.05
                                0.00      1.05  -5150.92

     ewald   stress (kbar) -31540.51      0.00     -0.00
                                0.00 -39234.13   -194.57
                               -0.00   -194.57 -36004.72

     hubbard stress (kbar)      0.00      0.00      0.00
                                0.00      0.00      0.00
                                0.00      0.00      0.00

     DFT-D   stress (kbar)      0.00      0.00      0.00
                                0.00      0.00      0.00
                                0.00      0.00      0.00

     XDM     stress (kbar)      0.00      0.00      0.00
                                0.00      0.00      0.00
                                0.00      0.00      0.00

     dft-nl  stress (kbar)      0.00      0.00      0.00
                                0.00      0.00      0.00
                                0.00      0.00      0.00

     TS-vdW  stress (kbar)      0.00      0.00      0.00
                                0.00      0.00      0.00
                                0.00      0.00      0.00

[...]

                                0.00      0.00      0.00

     Writing all to output data dir new_calculations/myprefix.save/

     General routines

     Parallel routines

   This run was terminated on:  11: 6:37  20May2023

   JOB DONE.