     Program PWSCF v.7.0 starts on 21May2023 at  7:38:40

     Reading input from espresso_8213.pwi
Warning: card &CELL ignored
Warning: card / ignored

     Current dimensions of program PWSCF are:
     Max number of different atomic species (ntypx) = 10
     Max number of k-points (npk) =  40000
     Max angular momentum in pseudopotentials (lmaxx) =  4
     file Ga.pbe-dn-kjpaw_psl.1.0.0.UPF: wavefunction(s)  4S renormalized

     gamma-point specific algorithms are used
     Message from routine setup:
     using ibrav=0 with symmetry is DISCOURAGED, use correct ibrav instead

     Subspace diagonalization in iterative solution of the eigenvalue problem:
     a serial algorithm will be used

     Using Slab Decomposition

     bravais-lattice index     =            0
     lattice parameter (alat)  =      15.2288  a.u.
     unit-cell volume          =    2181.1402 (a.u.)^3
     number of atoms/cell      =           16
     number of atomic types    =            3
     number of electrons       =       198.00
     number of Kohn-Sham states=          119
     kinetic-energy cutoff     =      30.0000  Ry
     charge density cutoff     =     240.0000  Ry
     scf convergence threshold =      1.0E-06
     mixing beta               =       0.7000
     number of iterations used =            8  plain     mixing
     Exchange-correlation= SLA  PW   PBX  PBC
                           (   1   4   3   4   0   0   0)

     celldm(1)=  15.228827  celldm(2)=   0.000000  celldm(3)=   0.000000
     celldm(4)=   0.000000  celldm(5)=   0.000000  celldm(6)=   0.000000

     crystal axes: (cart. coord. in units of alat)
               a(1) = (   1.000000   0.000000   0.000000 )
               a(2) = (  -0.496343   0.868127   0.000000 )
               a(3) = (   0.000000   0.000000   0.711379 )

     reciprocal axes: (cart. coord. in units 2 pi/alat)
               b(1) = (  1.000000  0.571740  0.000000 )
               b(2) = (  0.000000  1.151906  0.000000 )
               b(3) = (  0.000000  0.000000  1.405720 )

     PseudoPot. # 1 for Hf read from file:
     /home/pragov/projects/rrg-bengioy-ad/pragov/crystal_structure_design/SSSP/Hf-sp.oncvpsp.upf
     MD5 check sum: 417ed15784afe83d2e06dacf143de3f8
     Pseudo is Norm-conserving + core correction, Zval = 12.0
     Generated using ONCVPSP code by D. R. Hamann
     Using radial grid of 1656 points,  8 beta functions with:
                l(1) =   0
                l(2) =   0
                l(3) =   1
                l(4) =   1
                l(5) =   2
                l(6) =   2
                l(7) =   3
                l(8) =   3

     PseudoPot. # 2 for Zr read from file:
     /home/pragov/projects/rrg-bengioy-ad/pragov/crystal_structure_design/SSSP/Zr_pbe_v1.uspp.F.UPF
     MD5 check sum: 5db81b1e868ab7776c4564c113de050b
     Pseudo is Ultrasoft + core correction, Zval = 12.0
     Generated by new atomic code, or converted to UPF format
     Using radial grid of  887 points,  6 beta functions with:
                l(1) =   0
                l(2) =   0
                l(3) =   1
                l(4) =   1
                l(5) =   2
                l(6) =   2
     Q(r) pseudized with  6 coefficients,  rinner =    1.200   1.200   1.200
                                                       1.200   1.200

     PseudoPot. # 3 for Ga read from file:
     /home/pragov/projects/rrg-bengioy-ad/pragov/crystal_structure_design/SSSP/Ga.pbe-dn-kjpaw_psl.1.0.0.UPF
     MD5 check sum: a27b4342b1af7e5f338de752e9ed7044
     Pseudo is Projector augmented-wave + core cor, Zval = 13.0
     Generated using "atomic" code by A. Dal Corso  v.5.1
     Shape of augmentation charge: PSQ
     Using radial grid of 1205 points,  6 beta functions with:
                l(1) =   0
                l(2) =   0
                l(3) =   1
                l(4) =   1
                l(5) =   2
                l(6) =   2
     Q(r) pseudized with 0 coefficients

     atomic species   valence    mass     pseudopotential
        Hf            12.00   178.49000     Hf( 1.00)
        Zr            12.00    91.22400     Zr( 1.00)
        Ga            13.00    69.72300     Ga( 1.00)

      2 Sym. Ops. (no inversion) found

                                    s                        frac. trans.

      isym =  1     identity

 cryst.   s( 1) = (     1          0          0      )
                  (     0          1          0      )
                  (     0          0          1      )

 cart.    s( 1) = (  1.0000000  0.0000000  0.0000000 )
                  (  0.0000000  1.0000000  0.0000000 )
                  (  0.0000000  0.0000000  1.0000000 )

      isym =  2     inv. 180 deg rotation - cart. axis [0,0,1]

 cryst.   s( 2) = (     1          0          0      )
                  (     0          1          0      )
                  (     0          0         -1      )

 cart.    s( 2) = (  1.0000000  0.0000000  0.0000000 )
                  (  0.0000000  1.0000000  0.0000000 )
                  (  0.0000000  0.0000000 -1.0000000 )

   Cartesian axes

     site n.     atom                  positions (alat units)
         1           Hf  tau(   1) = (   0.0022377   0.5786671   0.1778839  )
         2           Hf  tau(   2) = (   0.5012456   0.2891599   0.1778839  )
         3           Hf  tau(   3) = (   0.5012456   0.2891599   0.5334953  )
         4           Hf  tau(   4) = (   0.0022377   0.5786671   0.5334953  )
         5           Hf  tau(   5) = (   0.1238810   0.2135270   0.3556896  )
         6           Zr  tau(   6) = (   0.2612349   0.8677315   0.3556896  )
         7           Zr  tau(   7) = (   0.6236387   0.6574774   0.3556896  )
         8           Zr  tau(   8) = (   0.3801095   0.6551742   0.0000000  )
         9           Zr  tau(   9) = (   0.2424473   0.0007744   0.0000000  )
        10           Zr  tau(  10) = (  -0.1196647   0.2108593   0.0000000  )
        11           Ga  tau(  11) = (   0.3055214   0.5266108   0.3556896  )
        12           Ga  tau(  12) = (   0.3915384   0.0007987   0.3556896  )
        13           Ga  tau(  13) = (  -0.1936440   0.3403013   0.3556896  )
        14           Ga  tau(  14) = (   0.1977428   0.3408386   0.0000000  )
        15           Ga  tau(  15) = (   0.1112956   0.8679052   0.0000000  )
        16           Ga  tau(  16) = (   0.6982107   0.5273973   0.0000000  )

   Crystallographic axes

     site n.     atom                  positions (cryst. coord.)
         1           Hf  tau(   1) = (  0.3330850  0.6665700  0.2500550  )
         2           Hf  tau(   2) = (  0.6665700  0.3330850  0.2500550  )
         3           Hf  tau(   3) = (  0.6665700  0.3330850  0.7499450  )
         4           Hf  tau(   4) = (  0.3330850  0.6665700  0.7499450  )
         5           Hf  tau(   5) = (  0.2459630  0.2459630  0.5000000  )
         6           Zr  tau(   6) = (  0.7573520  0.9995450  0.5000000  )
         7           Zr  tau(   7) = (  0.9995450  0.7573520  0.5000000  )
         8           Zr  tau(   8) = (  0.7546990  0.7546990  0.0000000  )
         9           Zr  tau(   9) = (  0.2428900  0.0008920  0.0000000  )
        10           Zr  tau(  10) = (  0.0008920  0.2428900  0.0000000  )
        11           Ga  tau(  11) = (  0.6066060  0.6066060  0.5000000  )
        12           Ga  tau(  12) = (  0.3919950  0.0009200  0.5000000  )
        13           Ga  tau(  13) = (  0.0009200  0.3919950  0.5000000  )
        14           Ga  tau(  14) = (  0.3926140  0.3926140  0.0000000  )
        15           Ga  tau(  15) = (  0.6075120  0.9997450  0.0000000  )
        16           Ga  tau(  16) = (  0.9997450  0.6075120  0.0000000  )

     number of k points=     1  Methfessel-Paxton smearing, width (Ry)=  0.0010
                       cart. coord. in units 2pi/alat
        k(    1) = (   0.0000000   0.0000000   0.0000000), wk =   2.0000000

                       cryst. coord.
        k(    1) = (   0.0000000   0.0000000   0.0000000), wk =   2.0000000

     Check: negative core charge=   -0.000002

     Initial potential from superposition of free atoms

     starting charge     197.9623, renormalised to     198.0000

     negative rho (up, down):  2.994E-01 0.000E+00
     Starting wfcs are  169 randomized atomic wfcs
     Checking if some PAW data can be deallocated...

     Self-consistent Calculation

     iteration #  1     ecut=    30.00 Ry     beta= 0.70
     Davidson diagonalization with overlap

     ethr =  1.00E-02,  avg # of iterations =  2.0

     Threshold (ethr) on eigenvalues was too large:
     Diagonalizing with lowered threshold

     Davidson diagonalization with overlap

[...]

     negative rho (up, down):  3.036E-01 0.000E+00

     total energy              =   -2727.40656842 Ry
     estimated scf accuracy    <       0.62413411 Ry

[...]

     total energy              =   -2727.63769889 Ry
     estimated scf accuracy    <       0.00000137 Ry

     iteration # 33     ecut=    30.00 Ry     beta= 0.70
     Davidson diagonalization with overlap

     ethr =  6.94E-10,  avg # of iterations =  1.0

[...]

     End of self-consistent calculation

          k = 0.0000 0.0000 0.0000 (  3021 PWs)   bands (ev):

   -48.7165 -48.1635 -48.1477 -48.1015 -48.0607 -35.5011 -35.4334 -35.4238
   -35.4188 -35.4069 -17.5430 -17.3734 -17.3683 -17.3152 -17.3030 -16.9793
   -16.9747 -16.9655 -16.9624 -16.8496 -16.8465 -16.8414 -16.8413 -16.3016
   -16.2951 -13.7411 -13.6247 -13.5817 -13.5734 -13.4969 -13.4910 -13.4768
   -13.4658 -13.4598 -13.4031 -13.3966 -13.3546 -13.3448 -13.3358 -13.2986
    -0.7582  -0.7546  -0.7524  -0.7474  -0.7399  -0.7396  -0.7350  -0.7343
    -0.7321  -0.7312  -0.7287  -0.7269  -0.7256  -0.7223  -0.7194  -0.7180
    -0.7172  -0.7067  -0.7032  -0.6992  -0.6978  -0.6922  -0.6905  -0.6802
    -0.6791  -0.6773  -0.6770  -0.6673  -0.6667  -0.6624   4.5940   6.7538
     6.7831   7.4300   7.5028   7.7718   8.5321   9.8436  10.1838  10.4137
    10.4601  10.8268  10.9005  11.3996  11.4319  11.8809  11.8958  11.9912
    12.3280  12.4288  12.5354  12.6013  12.6021  12.6021  12.6140  12.6964
    12.7505  12.8056  13.2414  13.2440  13.2480  13.2591  14.0701  14.1245
    14.1556  14.4975  14.5243  14.7954  15.0669  15.2489  15.2838  16.1096
    16.1163  16.4198  16.4342  16.8175  16.8338  16.9508  17.0033

     occupation numbers
     1.0000   1.0000   1.0000   1.0000   1.0000   1.0000   1.0000   1.0000
     1.0000   1.0000   1.0000   1.0000   1.0000   1.0000   1.0000   1.0000
     1.0000   1.0000   1.0000   1.0000   1.0000   1.0000   1.0000   1.0000
     1.0000   1.0000   1.0000   1.0000   1.0000   1.0000   1.0000   1.0000
     1.0000   1.0000   1.0000   1.0000   1.0000   1.0000   1.0000   1.0000
     1.0000   1.0000   1.0000   1.0000   1.0000   1.0000   1.0000   1.0000
     1.0000   1.0000   1.0000   1.0000   1.0000   1.0000   1.0000   1.0000
     1.0000   1.0000   1.0000   1.0000   1.0000   1.0000   1.0000   1.0000
     1.0000   1.0000   1.0000   1.0000   1.0000   1.0000   1.0000   1.0000
     1.0000   1.0000   1.0000   1.0000   1.0000   1.0000   1.0000   1.0000
     1.0000   1.0000   1.0000   1.0000   1.0000   1.0000   1.0000   1.0000
     1.0000   1.0000   1.0000   1.0000   1.0000   1.0000   1.0000   1.0000
     1.0000   1.0000   0.5225   0.3597   0.1529  -0.0351  -0.0000  -0.0000
    -0.0000  -0.0000  -0.0000  -0.0000  -0.0000  -0.0000  -0.0000  -0.0000
    -0.0000  -0.0000  -0.0000  -0.0000  -0.0000  -0.0000  -0.0000

     the Fermi energy is    13.2418 ev

!    total energy              =   -2727.63769846 Ry
     estimated scf accuracy    <       0.00000059 Ry
     smearing contrib. (-TS)   =      -0.00054700 Ry
     internal energy E=F+TS    =   -2727.63715146 Ry

     The total energy is F=E-TS. E is the sum of the following terms:
     one-electron contribution =    -765.59873639 Ry
     hartree contribution      =     516.83547932 Ry
     xc contribution           =    -460.20677671 Ry
     ewald contribution        =   -1353.31967596 Ry
     one-center paw contrib.   =    -665.34744172 Ry
      -> PAW hartree energy AE =     862.27484506 Ry
      -> PAW hartree energy PS =    -848.65889395 Ry
      -> PAW xc energy AE      =    -905.82298710 Ry
      -> PAW xc energy PS      =     226.85959428 Ry
      -> total E_H with PAW    =     530.45143043 Ry
      -> total E_XC with PAW   =   -1139.17016954 Ry

     convergence has been achieved in  33 iterations

     negative rho (up, down):  3.070E-01 0.000E+00

     Forces acting on atoms (cartesian axes, Ry/au):

     atom    1 type  1   force =    -0.00032549    0.00214117    0.00911774
     atom    2 type  1   force =     0.00204053    0.00077102    0.00911868
     atom    3 type  1   force =     0.00204053    0.00077102   -0.00911868
     atom    4 type  1   force =    -0.00032549    0.00214117   -0.00911774
     atom    5 type  1   force =     0.00200570    0.00344383    0.00000000
     atom    6 type  2   force =    -0.00510717    0.00712896    0.00000000
     atom    7 type  2   force =     0.00871146   -0.00091522    0.00000000
     atom    8 type  2   force =    -0.00517261   -0.00891734    0.00000000
     atom    9 type  2   force =     0.00452015   -0.00732879    0.00000000
     atom   10 type  2   force =    -0.00862928    0.00025354    0.00000000
     atom   11 type  3   force =    -0.00918992   -0.01557431    0.00000000
     atom   12 type  3   force =     0.01492844   -0.00050151    0.00000000
     atom   13 type  3   force =    -0.00753419    0.01298762    0.00000000
     atom   14 type  3   force =     0.00998791    0.01752709    0.00000000
     atom   15 type  3   force =    -0.01221217   -0.00240128    0.00000000
     atom   16 type  3   force =     0.00426157   -0.01152697    0.00000000
     The non-local contrib.  to forces
     atom    1 type  1   force =    -0.00052633    0.00172198   -0.00704141
     atom    2 type  1   force =     0.00175927    0.00039655   -0.00704267
     atom    3 type  1   force =     0.00175927    0.00039655    0.00704267
     atom    4 type  1   force =    -0.00052633    0.00172198    0.00704141
     atom    5 type  1   force =     0.01029462    0.01773395    0.00000000
     atom    6 type  2   force =    -0.04669331    0.00372828    0.00000000
     atom    7 type  2   force =     0.02636500   -0.03870231    0.00000000
     atom    8 type  2   force =    -0.01733757   -0.02990216    0.00000000
     atom    9 type  2   force =     0.03206227   -0.00059274    0.00000000
     atom   10 type  2   force =    -0.01647388    0.02750732    0.00000000
     atom   11 type  3   force =     0.02259269    0.03920069    0.00000000
     atom   12 type  3   force =    -0.03264391    0.00735160    0.00000000
     atom   13 type  3   force =     0.02287738   -0.02442003    0.00000000
     atom   14 type  3   force =    -0.03273849   -0.05610541    0.00000000
     atom   15 type  3   force =     0.00695580    0.01611780    0.00000000
     atom   16 type  3   force =     0.01080285    0.01429032    0.00000000
     The ionic contribution  to forces
     atom    1 type  1   force =    -0.22533419    0.25057068   -0.00675171
     atom    2 type  1   force =     0.32937009   -0.07124960   -0.00675171
     atom    3 type  1   force =     0.32937009   -0.07124960    0.00675171
     atom    4 type  1   force =    -0.22533419    0.25057068    0.00675171
     atom    5 type  1   force =    -4.16799218   -7.18414358   -0.00000000
     atom    6 type  2   force =     7.93356461    0.07971441   -0.00000000
     atom    7 type  2   force =    -3.86856661    6.92690365    0.00000000
     atom    8 type  2   force =     4.12725157    7.11392118   -0.00000000
     atom    9 type  2   force =    -7.97583856   -0.28846816   -0.00000000
     atom   10 type  2   force =     3.70832431   -7.06721624   -0.00000000
     atom   11 type  3   force =     1.98350610    3.41886261   -0.00000000
     atom   12 type  3   force =    -3.52755328   -0.25300782   -0.00000000
     atom   13 type  3   force =     1.53123337   -3.18794126   -0.00000000
     atom   14 type  3   force =    -1.84898177   -3.18699027   -0.00000000
     atom   15 type  3   force =     3.66077205    0.06128939   -0.00000000
     atom   16 type  3   force =    -1.76379142    3.20843392    0.00000000
     The local contribution  to forces
     atom    1 type  1   force =     0.22518981   -0.24972020    0.01972176
     atom    2 type  1   force =    -0.32856899    0.07148970    0.01974165
     atom    3 type  1   force =    -0.32851104    0.07145138   -0.01974174
     atom    4 type  1   force =     0.22524798   -0.24974973   -0.01972502
     atom    5 type  1   force =     4.16383933    7.17681907   -0.00003178
     atom    6 type  2   force =    -7.89498472   -0.07558227    0.00004961
     atom    7 type  2   force =     3.85277091   -6.89145137   -0.00010074
     atom    8 type  2   force =    -4.11601565   -7.09457464    0.00002857
     atom    9 type  2   force =     7.95055247    0.28153930    0.00010100
     atom   10 type  2   force =    -3.70204621    7.04166225   -0.00005372
     atom   11 type  3   force =    -2.01530702   -3.47411478   -0.00004559
     atom   12 type  3   force =     3.57600148    0.24507225   -0.00013756
     atom   13 type  3   force =    -1.56266327    3.22558756    0.00005123
     atom   14 type  3   force =     1.89198142    3.26056237    0.00004512
     atom   15 type  3   force =    -3.68094171   -0.07875550   -0.00005182
     atom   16 type  3   force =     1.75818943   -3.23504198    0.00013697
     The core correction contribution to forces
     atom    1 type  1   force =    -0.00005848   -0.00018342    0.00318000
     atom    2 type  1   force =    -0.00013040   -0.00014172    0.00318004
     atom    3 type  1   force =    -0.00013038   -0.00014145   -0.00317999
     atom    4 type  1   force =    -0.00005869   -0.00018369   -0.00318016
     atom    5 type  1   force =    -0.00454767   -0.00783681   -0.00000006
     atom    6 type  2   force =     0.00351065   -0.00022989   -0.00000126
     atom    7 type  2   force =    -0.00194113    0.00293401    0.00000141
     atom    8 type  2   force =     0.00144576    0.00249323   -0.00000006
     atom    9 type  2   force =    -0.00277275    0.00006784   -0.00000128
     atom   10 type  2   force =     0.00143538   -0.00237316    0.00000089
     atom   11 type  3   force =     0.00059156    0.00101916    0.00000003
     atom   12 type  3   force =    -0.00141115    0.00018400   -0.00000021
     atom   13 type  3   force =     0.00085955   -0.00113405    0.00000025
     atom   14 type  3   force =    -0.00048923   -0.00084418   -0.00000008
     atom   15 type  3   force =     0.00164927   -0.00040350   -0.00000021
     atom   16 type  3   force =    -0.00116944    0.00123083    0.00000019
     The Hubbard contrib.    to forces
     atom    1 type  1   force =     0.00000000    0.00000000    0.00000000
     atom    2 type  1   force =     0.00000000    0.00000000    0.00000000
     atom    3 type  1   force =     0.00000000    0.00000000    0.00000000
     atom    4 type  1   force =     0.00000000    0.00000000    0.00000000
     atom    5 type  1   force =     0.00000000    0.00000000    0.00000000
     atom    6 type  2   force =     0.00000000    0.00000000    0.00000000
     atom    7 type  2   force =     0.00000000    0.00000000    0.00000000
     atom    8 type  2   force =     0.00000000    0.00000000    0.00000000
     atom    9 type  2   force =     0.00000000    0.00000000    0.00000000
     atom   10 type  2   force =     0.00000000    0.00000000    0.00000000
     atom   11 type  3   force =     0.00000000    0.00000000    0.00000000
     atom   12 type  3   force =     0.00000000    0.00000000    0.00000000
     atom   13 type  3   force =     0.00000000    0.00000000    0.00000000
     atom   14 type  3   force =     0.00000000    0.00000000    0.00000000
     atom   15 type  3   force =     0.00000000    0.00000000    0.00000000
     atom   16 type  3   force =     0.00000000    0.00000000    0.00000000
     The SCF correction term to forces
     atom    1 type  1   force =     0.00039894   -0.00022992    0.00000842
     atom    2 type  1   force =    -0.00039388    0.00029351   -0.00000846
     atom    3 type  1   force =    -0.00044496    0.00032767    0.00000883
     atom    4 type  1   force =     0.00034848   -0.00020504   -0.00000637
     atom    5 type  1   force =     0.00041060    0.00088668    0.00003165
     atom    6 type  2   force =    -0.00050539   -0.00048609   -0.00005217
     atom    7 type  2   force =     0.00008228   -0.00058373    0.00010968
     atom    8 type  2   force =    -0.00051773   -0.00083948   -0.00003054
     atom    9 type  2   force =     0.00051572    0.00014044   -0.00010719
     atom   10 type  2   force =     0.00013011    0.00068885    0.00005099
     atom   11 type  3   force =    -0.00057425   -0.00052650    0.00004975
     atom   12 type  3   force =     0.00053430   -0.00008606    0.00013937
     atom   13 type  3   force =     0.00015778    0.00091089   -0.00004607
     atom   14 type  3   force =     0.00021498    0.00092006   -0.00004623
     atom   15 type  3   force =    -0.00064858   -0.00063401    0.00004360
     atom   16 type  3   force =     0.00022914   -0.00042458   -0.00013630

     Total force =     0.047586     Total SCF correction =     0.002872

     Computing stress (Cartesian axis) and pressure

     negative rho (up, down):  3.070E-01 0.000E+00
          total   stress  (Ry/bohr**3)                   (kbar)     P=     -110.00
  -0.00056253   0.00000793   0.00000000          -82.75        1.17        0.00
   0.00000793  -0.00055343   0.00000000            1.17      -81.41        0.00
   0.00000000   0.00000000  -0.00112740            0.00        0.00     -165.85

     kinetic stress (kbar)  16703.73     12.55      0.00
                               12.55  16718.11      0.00
                                0.00      0.00  16550.71

     local   stress (kbar)   -933.01    100.69      0.00
                              100.69   -817.91     -0.00
                                0.00     -0.00    641.33

     nonloc. stress (kbar)   9308.63      5.14      0.00
                                5.14   9314.51      0.00
                                0.00      0.00   9296.68

     hartree stress (kbar)  11726.00    -44.41     -0.00
                              -44.41  11675.24      0.00
                               -0.00      0.00  11456.27

     exc-cor stress (kbar)   6513.72      0.10     -0.00
                                0.10   6513.84      0.00
                               -0.00      0.00   6510.25

     corecor stress (kbar) -13411.43      0.07     -0.00
                                0.07 -13411.36      0.00
                               -0.00      0.00 -13411.86

     ewald   stress (kbar) -29990.39    -72.97      0.00
                              -72.97 -30073.83      0.00
                                0.00      0.00 -31209.23

     hubbard stress (kbar)      0.00      0.00      0.00
                                0.00      0.00      0.00
                                0.00      0.00      0.00

     DFT-D   stress (kbar)      0.00      0.00      0.00
                                0.00      0.00      0.00
                                0.00      0.00      0.00

     XDM     stress (kbar)      0.00      0.00      0.00
                                0.00      0.00      0.00
                                0.00      0.00      0.00

     dft-nl  stress (kbar)      0.00      0.00      0.00
                                0.00      0.00      0.00
                                0.00      0.00      0.00

     TS-vdW  stress (kbar)      0.00      0.00      0.00
                                0.00      0.00      0.00
                                0.00      0.00      0.00

[...]

                                0.00      0.00      0.00

     Writing all to output data dir new_calculations/myprefix.save/

     General routines

     Parallel routines

     PAW routines

   This run was terminated on:   7:40:10  21May2023

   JOB DONE.