     Program PWSCF v.7.0 starts on 20May2023 at  6:59:10

     Reading input from espresso_10213.pwi
Warning: card &CELL ignored
Warning: card / ignored

     Current dimensions of program PWSCF are:
     Max number of different atomic species (ntypx) = 10
     Max number of k-points (npk) =  40000
     Max angular momentum in pseudopotentials (lmaxx) =  4
     file C.pbe-n-kjpaw_psl.1.0.0.UPF: wavefunction(s)  2S 2P renormalized

     gamma-point specific algorithms are used
     Message from routine setup:
     using ibrav=0 with symmetry is DISCOURAGED, use correct ibrav instead

     Subspace diagonalization in iterative solution of the eigenvalue problem:
     a serial algorithm will be used

     Using Slab Decomposition

     bravais-lattice index     =            0
     lattice parameter (alat)  =      10.8438  a.u.
     unit-cell volume          =    1664.9047 (a.u.)^3
     number of atoms/cell      =           16
     number of atomic types    =            4
     number of electrons       =       138.00
     number of Kohn-Sham states=           83
     kinetic-energy cutoff     =      30.0000  Ry
     charge density cutoff     =     240.0000  Ry
     scf convergence threshold =      1.0E-06
     mixing beta               =       0.7000
     number of iterations used =            8  plain     mixing
     Exchange-correlation=  SLA  PW   PBX  PBC
                           (   1   4   3   4   0   0   0)

     celldm(1)=  10.843849  celldm(2)=   0.000000  celldm(3)=   0.000000
     celldm(4)=   0.000000  celldm(5)=   0.000000  celldm(6)=   0.000000

     crystal axes: (cart. coord. in units of alat)
               a(1) = (   1.000000   0.000000   0.000000 )
               a(2) = (  -0.500025   0.866011   0.000000 )
               a(3) = (   0.166966   0.289204   1.507702 )

     reciprocal axes: (cart. coord. in units 2 pi/alat)
               b(1) = (  1.000000  0.577388 -0.221496 )
               b(2) = (  0.000000  1.154720 -0.221496 )
               b(3) = (  0.000000  0.000000  0.663261 )

     PseudoPot. # 1 for Ta read from file:
     /home/pragov/projects/rrg-bengioy-ad/pragov/crystal_structure_design/SSSP/Ta_pbe_v1.uspp.F.UPF
     MD5 check sum: f8bbe9446314a3b8ea5d9f3e3836c939
     Pseudo is Ultrasoft + core correction, Zval = 13.0
     Generated by new atomic code, or converted to UPF format
     Using radial grid of  921 points,  7 beta functions with:
                l(1) =   0
                l(2) =   0
                l(3) =   1
                l(4) =   1
                l(5) =   2
                l(6) =   2
                l(7) =   3
     Q(r) pseudized with  6 coefficients,  rinner =    1.300   1.300   1.300
                                                       1.300   1.300   1.300
                                                       1.300

     PseudoPot. # 2 for Ti read from file:
     /home/pragov/projects/rrg-bengioy-ad/pragov/crystal_structure_design/SSSP/ti_pbe_v1.4.uspp.F.UPF
     MD5 check sum: 88a00a6731bd790ddea75d31a80cb452
     Pseudo is Ultrasoft + core correction, Zval = 12.0
     Generated by new atomic code, or converted to UPF format
     Using radial grid of  851 points,  6 beta functions with:
                l(1) =   0
                l(2) =   0
                l(3) =   1
                l(4) =   1
                l(5) =   2
                l(6) =   2
     Q(r) pseudized with  6 coefficients,  rinner =    1.000   1.000   1.000
                                                       1.000   1.000

     PseudoPot. # 3 for C  read from file:
     /home/pragov/projects/rrg-bengioy-ad/pragov/crystal_structure_design/SSSP/C.pbe-n-kjpaw_psl.1.0.0.UPF
     MD5 check sum: 5d2aebdfa2cae82b50a7e79e9516da0f
     Pseudo is Projector augmented-wave + core cor, Zval =  4.0
     Generated using "atomic" code by A. Dal Corso  v.5.1
     Shape of augmentation charge: PSQ
     Using radial grid of 1073 points,  4 beta functions with:
                l(1) =   0
                l(2) =   0
                l(3) =   1
                l(4) =   1
     Q(r) pseudized with 0 coefficients

     PseudoPot. # 4 for S  read from file:
     /home/pragov/projects/rrg-bengioy-ad/pragov/crystal_structure_design/SSSP/s_pbe_v1.4.uspp.F.UPF
     MD5 check sum: 88d86576ff6df21479756cfb9bdac1df
     Pseudo is Ultrasoft + core correction, Zval =  6.0
     Generated by new atomic code, or converted to UPF format
     Using radial grid of  907 points,  6 beta functions with:
                l(1) =   0
                l(2) =   0
                l(3) =   1
                l(4) =   1
                l(5) =   2
                l(6) =   2
     Q(r) pseudized with  8 coefficients,  rinner =    1.300   1.300   1.300
                                                       1.300   1.300

     atomic species   valence    mass     pseudopotential
        Ta            13.00   180.94788     Ta( 1.00)
        Ti            12.00    47.86700     Ti( 1.00)
        C              4.00    12.01100     C ( 1.00)
        S              6.00    32.06000     S ( 1.00)

      2 Sym. Ops., with inversion, found

                                    s                        frac. trans.

      isym =  1     identity

 cryst.   s( 1) = (     1          0          0      )
                  (     0          1          0      )
                  (     0          0          1      )

 cart.    s( 1) = (  1.0000000 -0.0000000  0.0000000 )
                  (  0.0000000  1.0000000  0.0000000 )
                  (  0.0000000  0.0000000  1.0000000 )

      isym =  2     inversion

 cryst.   s( 2) = (    -1          0          0      )
                  (     0         -1          0      )
                  (     0          0         -1      )

 cart.    s( 2) = ( -1.0000000  0.0000000 -0.0000000 )
                  (  0.0000000 -1.0000000 -0.0000000 )
                  (  0.0000000  0.0000000 -1.0000000 )

   Cartesian axes

     site n.     atom                  positions (alat units)
         1           Ta  tau(   1) = (   0.1670027   0.8663652   0.9542939  )
         2           Ta  tau(   2) = (   0.1666842   0.2887150   0.9525013  )
         3           Ta  tau(   3) = (   0.6667764   0.5778302   0.9542939  )
         4           Ta  tau(   4) = (   0.4999390   0.2888497   0.5534080  )
         5           Ta  tau(   5) = (   0.0001652   0.5773847   0.5534080  )
         6           Ta  tau(   6) = (   0.5002575   0.8665000   0.5552007  )
         7           Ti  tau(   7) = (   0.0000000   0.0000000   0.0000000  )
         8           C   tau(   8) = (   0.3334708   0.5776075   0.7538510  )
         9           C   tau(   9) = (  -0.1650489   0.8654185   0.7538510  )
        10           C   tau(  10) = (   0.8319906   0.2897965   0.7538510  )
        11           S   tau(  11) = (   0.1642479   0.8660054   0.2619029  )
        12           S   tau(  12) = (   0.1678957   0.2908135   0.2612335  )
        13           S   tau(  13) = (   0.6678422   0.5752646   0.2619029  )
        14           S   tau(  14) = (   0.5026937   0.2892096   1.2457990  )
        15           S   tau(  15) = (  -0.0009006   0.5799503   1.2457990  )
        16           S   tau(  16) = (   0.4990460   0.8644014   1.2464685  )

   Crystallographic axes

     site n.     atom                  positions (cryst. coord.)
         1           Ta  tau(   1) = (  0.4558600  0.7890370  0.6329460  )
         2           Ta  tau(   2) = (  0.1224100  0.1224100  0.6317570  )
         3           Ta  tau(   3) = (  0.7890370  0.4558600  0.6329460  )
         4           Ta  tau(   4) = (  0.5441400  0.2109630  0.3670540  )
         5           Ta  tau(   5) = (  0.2109630  0.5441400  0.3670540  )
         6           Ta  tau(   6) = (  0.8775900  0.8775900  0.3682430  )
         7           Ti  tau(   7) = (  0.0000000  0.0000000  0.0000000  )
         8           C   tau(   8) = (  0.5000000  0.5000000  0.5000000  )
         9           C   tau(   9) = (  0.1676590  0.8323410  0.5000000  )
        10           C   tau(  10) = (  0.8323410  0.1676590  0.5000000  )
        11           S   tau(  11) = (  0.6062590  0.9419830  0.1737100  )
        12           S   tau(  12) = (  0.2779460  0.2779460  0.1732660  )
        13           S   tau(  13) = (  0.9419830  0.6062590  0.1737100  )
        14           S   tau(  14) = (  0.3937410  0.0580170  0.8262900  )
        15           S   tau(  15) = (  0.0580170  0.3937410  0.8262900  )
        16           S   tau(  16) = (  0.7220540  0.7220540  0.8267340  )

     number of k points=     1  Methfessel-Paxton smearing, width (Ry)=  0.0010
                       cart. coord. in units 2pi/alat
        k(    1) = (   0.0000000   0.0000000   0.0000000), wk =   2.0000000

                       cryst. coord.
        k(    1) = (   0.0000000   0.0000000   0.0000000), wk =   2.0000000

     Check: negative core charge=   -0.000003

     Initial potential from superposition of free atoms

     starting charge     136.9929, renormalised to     138.0000

     negative rho (up, down):  5.619E-01 0.000E+00
     Starting wfcs are  124 randomized atomic wfcs
     Checking if some PAW data can be deallocated...

     Self-consistent Calculation

     iteration #  1     ecut=    30.00 Ry     beta= 0.70
     Davidson diagonalization with overlap

     ethr =  1.00E-02,  avg # of iterations =  3.0

     negative rho (up, down):  5.616E-01 0.000E+00

     total energy              =   -1129.22350412 Ry
     estimated scf accuracy    <      51.90175035 Ry

[...]

     ethr =  2.70E-05,  avg # of iterations =  2.0
     Minimization algorithm failed to find Fermi energy: reverting to bisection
     Possible cause: smearing is larger than the electronic band-gap.

[...]

     WARNING: integrated charge=   137.99920043, expected=   138.00000000

[...]

     WARNING: integrated charge=   137.99997168, expected=   138.00000000

[...]

     total energy              =   -1171.01555649 Ry
     estimated scf accuracy    <       0.00000128 Ry

     iteration # 42     ecut=    30.00 Ry     beta= 0.70
     Davidson diagonalization with overlap

     ethr =  9.31E-10,  avg # of iterations =  2.0

[...]

     End of self-consistent calculation

          k = 0.0000 0.0000 0.0000 (  2321 PWs)   bands (ev):

   -54.6194 -54.6006 -54.4886 -54.4649 -54.4646 -54.4616 -43.0743 -21.4006
   -21.3499 -21.3225 -21.2835 -21.2820 -21.2365 -21.2114 -21.0628 -21.0554
   -21.0090 -20.9655 -20.9341 -20.9085 -20.8951 -20.8699 -20.8632 -20.8615
   -20.8103 -19.4705 -19.4487 -19.2286  -1.0081  -0.1301   0.9765   0.9842
     1.0845   1.0965   1.6791   2.4577   2.5297   6.8126   7.6112   7.8156
     7.8292   7.9313   8.2858   8.2968   8.3729   8.4547   8.5856   8.9253
     8.9328   9.3281   9.3299   9.3459   9.7479   9.7813   9.8438   9.8844
    10.0777  10.1246  10.2472  11.4873  11.5215  12.1434  12.9942  12.9974
    13.1883  13.1980  13.3503  13.7659  14.2421  14.2566  14.2745  14.4450
    14.7243  14.7580  15.1831  15.3462  15.6086  15.8651  15.9244  15.9512
    16.3028  16.5871  16.8736

     occupation numbers
     1.0000   1.0000   1.0000   1.0000   1.0000   1.0000   1.0000   1.0000
     1.0000   1.0000   1.0000   1.0000   1.0000   1.0000   1.0000   1.0000
     1.0000   1.0000   1.0000   1.0000   1.0000   1.0000   1.0000   1.0000
     1.0000   1.0000   1.0000   1.0000   1.0000   1.0000   1.0000   1.0000
     1.0000   1.0000   1.0000   1.0000   1.0000   1.0000   1.0000   1.0000
     1.0000   1.0000   1.0000   1.0000   1.0000   1.0000   1.0000   1.0000
     1.0000   1.0000   1.0000   1.0000   1.0000   1.0000   1.0000   1.0000
     1.0000   1.0000   1.0000   1.0000   1.0000   1.0000   1.0000   1.0000
     1.0000   1.0000   1.0000   1.0000   0.8943   0.1187  -0.0130  -0.0000
    -0.0000  -0.0000  -0.0000  -0.0000  -0.0000  -0.0000  -0.0000  -0.0000
    -0.0000  -0.0000  -0.0000

     the Fermi energy is    14.2495 ev

!    total energy              =   -1171.01555617 Ry
     estimated scf accuracy    <       0.00000054 Ry
     smearing contrib. (-TS)   =      -0.00012762 Ry
     internal energy E=F+TS    =   -1171.01542854 Ry

     The total energy is F=E-TS. E is the sum of the following terms:
     one-electron contribution =    -374.76458455 Ry
     hartree contribution      =     250.64689707 Ry
     xc contribution           =    -336.92486232 Ry
     ewald contribution        =    -691.46477358 Ry
     one-center paw contrib.   =     -18.50810516 Ry
      -> PAW hartree energy AE =      22.83661838 Ry
      -> PAW hartree energy PS =     -22.81126021 Ry
      -> PAW xc energy AE      =     -30.64452636 Ry
      -> PAW xc energy PS      =      12.11106304 Ry
      -> total E_H with PAW    =     250.67225523 Ry
      -> total E_XC with PAW   =    -355.45832565 Ry

     convergence has been achieved in  42 iterations

     negative rho (up, down):  5.681E-01 0.000E+00

     Forces acting on atoms (cartesian axes, Ry/au):

     atom    1 type  1   force =     0.00046233   -0.03447285    0.03971385
     atom    2 type  1   force =     0.02422987    0.04211892    0.02754856
     atom    3 type  1   force =    -0.02988920   -0.01702826    0.03952006
     atom    4 type  1   force =    -0.00046233    0.03447285   -0.03971385
     atom    5 type  1   force =     0.02988920    0.01702826   -0.03952006
     atom    6 type  1   force =    -0.02422987   -0.04211892   -0.02754856
     atom    7 type  2   force =     0.00000000    0.00000000    0.00000000
     atom    8 type  3   force =     0.00000000    0.00000000    0.00000000
     atom    9 type  3   force =    -0.01889034    0.01101144   -0.00008964
     atom   10 type  3   force =     0.01889034   -0.01101144    0.00008964
     atom   11 type  4   force =    -0.00056963   -0.00984554    0.00808551
     atom   12 type  4   force =     0.00656824    0.01127527    0.04235532
     atom   13 type  4   force =    -0.00822588   -0.00538433    0.00803656
     atom   14 type  4   force =     0.00056963    0.00984554   -0.00808551
     atom   15 type  4   force =     0.00822588    0.00538433   -0.00803656
     atom   16 type  4   force =    -0.00656824   -0.01127527   -0.04235532
     The non-local contrib.  to forces
     atom    1 type  1   force =    -0.01519266   -0.00617650    0.04716498
     atom    2 type  1   force =     0.00103051    0.00182909    0.06392173
     atom    3 type  1   force =     0.00239843   -0.01634756    0.04708919
     atom    4 type  1   force =     0.01519266    0.00617650   -0.04716498
     atom    5 type  1   force =    -0.00239843    0.01634756   -0.04708919
     atom    6 type  1   force =    -0.00103051   -0.00182909   -0.06392173
     atom    7 type  2   force =     0.00000000    0.00000000    0.00000000
     atom    8 type  3   force =     0.00000000    0.00000000    0.00000000
     atom    9 type  3   force =    -0.02367189    0.01370950   -0.00000195
     atom   10 type  3   force =     0.02367189   -0.01370950    0.00000195
     atom   11 type  4   force =     0.05484616   -0.01279331    0.15496012
     atom   12 type  4   force =    -0.02436996   -0.04204717    0.17253210
     atom   13 type  4   force =    -0.03860827    0.04115539    0.15488591
     atom   14 type  4   force =    -0.05484616    0.01279331   -0.15496012
     atom   15 type  4   force =     0.03860827   -0.04115539   -0.15488591
     atom   16 type  4   force =     0.02436996    0.04204717   -0.17253210
     The ionic contribution  to forces
     atom    1 type  1   force =    -0.05123428   -0.00633836   21.16853402
     atom    2 type  1   force =     0.03284585    0.05689255   18.19212763
     atom    3 type  1   force =     0.02012931   -0.04753879   21.16853402
     atom    4 type  1   force =     0.05123428    0.00633836  -21.16853402
     atom    5 type  1   force =    -0.02012932    0.04753879  -21.16853402
     atom    6 type  1   force =    -0.03284585   -0.05689255  -18.19212763
     atom    7 type  2   force =     0.00000000    0.00000000   -0.00000000
     atom    8 type  3   force =     0.00000000    0.00000000    0.00000000
     atom    9 type  3   force =     0.09189095   -0.05305151   -0.00000000
     atom   10 type  3   force =    -0.09189095    0.05305151   -0.00000000
     atom   11 type  4   force =    -3.18883515    0.00247395  -12.23549434
     atom   12 type  4   force =     1.60268195    2.77601807  -12.22421576
     atom   13 type  4   force =     1.59663888   -2.76032970  -12.23549434
     atom   14 type  4   force =     3.18883515   -0.00247395   12.23549434
     atom   15 type  4   force =    -1.59663888    2.76032970   12.23549434
     atom   16 type  4   force =    -1.60268195   -2.77601807   12.22421576
     The local contribution  to forces
     atom    1 type  1   force =     0.06944411   -0.02204423  -21.17947911
     atom    2 type  1   force =    -0.00856294   -0.01447056  -18.23236906
     atom    3 type  1   force =    -0.05335023    0.04940483  -21.17982891
     atom    4 type  1   force =    -0.06938324    0.02197406   21.17947084
     atom    5 type  1   force =     0.05308048   -0.04883505   21.17981080
     atom    6 type  1   force =     0.00873518    0.01395158   18.23247522
     atom    7 type  2   force =     0.00012410    0.00001412    0.00009259
     atom    8 type  3   force =     0.00010735    0.00018624    0.00000670
     atom    9 type  3   force =    -0.08757166    0.05017459   -0.00013630
     atom   10 type  3   force =     0.08748528   -0.05034789    0.00015868
     atom   11 type  4   force =     3.13631575   -0.00040531   12.09695850
     atom   12 type  4   force =    -1.57307649   -2.72484956   12.10328769
     atom   13 type  4   force =    -1.56825128    2.71608929   12.09705192
     atom   14 type  4   force =    -3.13618907    0.00037527  -12.09685678
     atom   15 type  4   force =     1.56811215   -2.71587489  -12.09693691
     atom   16 type  4   force =     1.57301817    2.72460269  -12.10325545
     The core correction contribution to forces
     atom    1 type  1   force =    -0.00228070   -0.00024079    0.00321762
     atom    2 type  1   force =    -0.00134535   -0.00234301    0.00336916
     atom    3 type  1   force =     0.00093665   -0.00210297    0.00322471
     atom    4 type  1   force =     0.00227881    0.00024361   -0.00321336
     atom    5 type  1   force =    -0.00094077    0.00210360   -0.00322443
     atom    6 type  1   force =     0.00135389    0.00234511   -0.00337547
     atom    7 type  2   force =     0.00000498    0.00000713    0.00000124
     atom    8 type  3   force =    -0.00000047   -0.00000036    0.00000017
     atom    9 type  3   force =     0.00013709   -0.00007847   -0.00000041
     atom   10 type  3   force =    -0.00013636    0.00007898    0.00000068
     atom   11 type  4   force =    -0.00283775    0.00071333   -0.00804511
     atom   12 type  4   force =     0.00122451    0.00211041   -0.00893132
     atom   13 type  4   force =     0.00204264   -0.00210364   -0.00804091
     atom   14 type  4   force =     0.00283478   -0.00071415    0.00804953
     atom   15 type  4   force =    -0.00204395    0.00210076    0.00804495
     atom   16 type  4   force =    -0.00122461   -0.00211089    0.00893323
     The Hubbard contrib.    to forces
     atom    1 type  1   force =     0.00000000    0.00000000    0.00000000
     atom    2 type  1   force =     0.00000000    0.00000000    0.00000000
     atom    3 type  1   force =     0.00000000    0.00000000    0.00000000
     atom    4 type  1   force =     0.00000000    0.00000000    0.00000000
     atom    5 type  1   force =     0.00000000    0.00000000    0.00000000
     atom    6 type  1   force =     0.00000000    0.00000000    0.00000000
     atom    7 type  2   force =     0.00000000    0.00000000    0.00000000
     atom    8 type  3   force =     0.00000000    0.00000000    0.00000000
     atom    9 type  3   force =     0.00000000    0.00000000    0.00000000
     atom   10 type  3   force =     0.00000000    0.00000000    0.00000000
     atom   11 type  4   force =     0.00000000    0.00000000    0.00000000
     atom   12 type  4   force =     0.00000000    0.00000000    0.00000000
     atom   13 type  4   force =     0.00000000    0.00000000    0.00000000
     atom   14 type  4   force =     0.00000000    0.00000000    0.00000000
     atom   15 type  4   force =     0.00000000    0.00000000    0.00000000
     atom   16 type  4   force =     0.00000000    0.00000000    0.00000000
     The SCF correction term to forces
     atom    1 type  1   force =    -0.00024037    0.00033019    0.00023076
     atom    2 type  1   force =     0.00020661    0.00018512    0.00051747
     atom    3 type  1   force =     0.00001426   -0.00042698    0.00049330
     atom    4 type  1   force =     0.00024894   -0.00025652   -0.00031791
     atom    5 type  1   force =     0.00029485   -0.00010988   -0.00049097
     atom    6 type  1   force =    -0.00049778    0.00028029   -0.00058056
     atom    7 type  2   force =    -0.00010264    0.00001495   -0.00007118
     atom    8 type  3   force =    -0.00013337   -0.00021049   -0.00000436
     atom    9 type  3   force =     0.00034876    0.00027773    0.00006508
     atom   10 type  3   force =    -0.00021594   -0.00006414   -0.00005560
     atom   11 type  4   force =    -0.00008201    0.00015759   -0.00025902
     atom   12 type  4   force =     0.00011849    0.00004265   -0.00029341
     atom   13 type  4   force =    -0.00006990   -0.00022313   -0.00033800
     atom   14 type  4   force =    -0.00008843   -0.00014316    0.00022215
     atom   15 type  4   force =     0.00016625   -0.00004331    0.00027498
     atom   16 type  4   force =    -0.00003956    0.00020294    0.00030724

     Total force =     0.150978     Total SCF correction =     0.001802

     Computing stress (Cartesian axis) and pressure

     negative rho (up, down):  5.681E-01 0.000E+00
          total   stress  (Ry/bohr**3)                   (kbar)     P=       37.15
   0.00021110   0.00012898   0.00001013           31.05       18.97        1.49
   0.00012898   0.00035871   0.00001701           18.97       52.77        2.50
   0.00001013   0.00001701   0.00018773            1.49        2.50       27.62

     kinetic stress (kbar)  19863.76     84.58     -1.77
                               84.58  19962.01     -3.07
                               -1.77     -3.07  19829.05

     local   stress (kbar)  -6835.70   -103.94     11.99
                             -103.94  -6956.54     20.75
                               11.99     20.75  30230.50

     nonloc. stress (kbar)  -6518.97    -10.02     -4.23
                              -10.02  -6530.76     -7.39
                               -4.23     -7.39  -6536.67

     hartree stress (kbar)  13194.00     37.04     -4.96
                               37.04  13237.06     -8.59
                               -4.96     -8.59  -4284.79

     exc-cor stress (kbar)  12183.02      1.11     -0.08
                                1.11  12184.32     -0.14
                               -0.08     -0.14  12184.91

     corecor stress (kbar) -18000.63     -1.99      0.32
                               -1.99 -18002.96      0.56
                                0.32      0.56 -17994.79

     ewald   stress (kbar) -13854.43     12.18      0.22
                               12.18 -13840.36      0.39
                                0.22      0.39 -33400.59

     hubbard stress (kbar)      0.00      0.00      0.00
                                0.00      0.00      0.00
                                0.00      0.00      0.00

     DFT-D   stress (kbar)      0.00      0.00      0.00
                                0.00      0.00      0.00
                                0.00      0.00      0.00

     XDM     stress (kbar)      0.00      0.00      0.00
                                0.00      0.00      0.00
                                0.00      0.00      0.00

     dft-nl  stress (kbar)      0.00      0.00      0.00
                                0.00      0.00      0.00
                                0.00      0.00      0.00

     TS-vdW  stress (kbar)      0.00      0.00      0.00
                                0.00      0.00      0.00
                                0.00      0.00      0.00

[...]

                                0.00      0.00      0.00

     Writing all to output data dir new_calculations/myprefix.save/

     General routines

     Parallel routines

     PAW routines

   This run was terminated on:   7: 0:18  20May2023

   JOB DONE.