     Program PWSCF v.7.0 starts on 20May2023 at 14: 5:15

     Reading input from espresso_14435.pwi
Warning: card &CELL ignored
Warning: card / ignored

     Current dimensions of program PWSCF are:
     Max number of different atomic species (ntypx) = 10
     Max number of k-points (npk) =  40000
     Max angular momentum in pseudopotentials (lmaxx) =  4

     gamma-point specific algorithms are used
     Message from routine setup:
     using ibrav=0 with symmetry is DISCOURAGED, use correct ibrav instead

     Subspace diagonalization in iterative solution of the eigenvalue problem:
     a serial algorithm will be used

     Using Slab Decomposition

     bravais-lattice index     =            0
     lattice parameter (alat)  =       7.4691  a.u.
     unit-cell volume          =     574.9476 (a.u.)^3
     number of atoms/cell      =            4
     number of atomic types    =            2
     number of electrons       =        42.00
     number of Kohn-Sham states=           25
     kinetic-energy cutoff     =      30.0000  Ry
     charge density cutoff     =     240.0000  Ry
     scf convergence threshold =      1.0E-06
     mixing beta               =       0.7000
     number of iterations used =            8  plain     mixing
     Exchange-correlation=  SLA  PW   PBX  PBC
                           (   1   4   3   4   0   0   0)

     celldm(1)=   7.469091  celldm(2)=   0.000000  celldm(3)=   0.000000
     celldm(4)=   0.000000  celldm(5)=   0.000000  celldm(6)=   0.000000

     crystal axes: (cart. coord. in units of alat)
               a(1) = (   1.000000   0.000000   0.000000 )
               a(2) = (  -0.500000   0.866025   0.000000 )
               a(3) = (   0.000000   0.000000   1.593289 )

     reciprocal axes: (cart. coord. in units 2 pi/alat)
               b(1) = (  1.000000  0.577351  0.000000 )
               b(2) = (  0.000000  1.154701  0.000000 )
               b(3) = (  0.000000  0.000000  0.627633 )

     PseudoPot. # 1 for Mn read from file:
     /home/pragov/projects/rrg-bengioy-ad/pragov/crystal_structure_design/SSSP/mn_pbe_v1.5.uspp.F.UPF
     MD5 check sum: 82ef2b46521d7a7d9e736dc3972e4928
     Pseudo is Ultrasoft + core correction, Zval = 15.0
     Generated by new atomic code, or converted to UPF format
     Using radial grid of  859 points,  6 beta functions with:
                l(1) =   0
                l(2) =   0
                l(3) =   1
                l(4) =   1
                l(5) =   2
                l(6) =   2
     Q(r) pseudized with  8 coefficients,  rinner =    0.950   0.950   0.950
                                                       0.950   0.950

     PseudoPot. # 2 for S  read from file:
     /home/pragov/projects/rrg-bengioy-ad/pragov/crystal_structure_design/SSSP/s_pbe_v1.4.uspp.F.UPF
     MD5 check sum: 88d86576ff6df21479756cfb9bdac1df
     Pseudo is Ultrasoft + core correction, Zval =  6.0
     Generated by new atomic code, or converted to UPF format
     Using radial grid of  907 points,  6 beta functions with:
                l(1) =   0
                l(2) =   0
                l(3) =   1
                l(4) =   1
                l(5) =   2
                l(6) =   2
     Q(r) pseudized with  8 coefficients,  rinner =    1.300   1.300   1.300
                                                       1.300   1.300

     atomic species   valence    mass     pseudopotential
        Mn            15.00    54.93804     Mn( 1.00)
        S              6.00    32.06000     S ( 1.00)

     12 Sym. Ops. (no inversion) found ( 6 have fractional translation)

                                    s                        frac. trans.

      isym =  1     identity

 cryst.   s( 1) = (     1          0          0      )
                  (     0          1          0      )
                  (     0          0          1      )

 cart.    s( 1) = (  1.0000000 -0.0000000  0.0000000 )
                  (  0.0000000  1.0000000  0.0000000 )
                  (  0.0000000  0.0000000  1.0000000 )

      isym =  2     180 deg rotation - cart. axis [0,0,1]

 cryst.   s( 2) = (    -1          0          0      )    f =( -0.0000000 )
                  (     0         -1          0      )       (  0.0000000 )
                  (     0          0          1      )       (  0.5000000 )

 cart.    s( 2) = ( -1.0000000  0.0000000  0.0000000 )    f =( -0.0000000 )
                  (  0.0000000 -1.0000000  0.0000000 )       (  0.0000000 )
                  (  0.0000000  0.0000000  1.0000000 )       (  0.7966443 )

      isym =  3      60 deg rotation - cryst. axis [0,0,1]

[...]

      isym =  6     120 deg rotation - cryst. axis [0,0,-1]

[...]

      isym =  7     inv. 180 deg rotation - cart. axis [0,1,0]

[...]

      isym =  8     inv. 180 deg rotation - cart. axis [1,0,0]

 cryst.   s( 8) = (    -1          0          0      )
                  (     1          1          0      )
                  (     0          0          1      )

 cart.    s( 8) = ( -1.0000000 -0.0000004  0.0000000 )
                  (  0.0000000  1.0000000  0.0000000 )
                  (  0.0000000  0.0000000  1.0000000 )

      isym =  9     inv. 180 deg rotation - cryst. axis [1,-1,0]

 cryst.   s( 9) = (     0          1          0      )    f =( -0.0000000 )
                  (     1          0          0      )       (  0.0000000 )
                  (     0          0          1      )       (  0.5000000 )

 cart.    s( 9) = ( -0.5000002  0.8660253  0.0000000 )    f =( -0.0000000 )
                  (  0.8660253  0.5000002  0.0000000 )       (  0.0000000 )
                  (  0.0000000  0.0000000  1.0000000 )       (  0.7966443 )

[...]

 cryst.   s(10) = (    -1         -1          0      )    f =( -0.0000000 )
                  (     0          1          0      )       ( -0.0000010 )
                  (     0          0          1      )       (  0.5000000 )

 cart.    s(10) = ( -0.4999998 -0.8660257  0.0000000 )    f =(  0.0000005 )
                  ( -0.8660253  0.4999998  0.0000000 )       ( -0.0000009 )
                  (  0.0000000  0.0000000  1.0000000 )       (  0.7966443 )

[...]

 cryst.   s(11) = (     1          1          0      )
                  (     0         -1          0      )
                  (     0          0          1      )

 cart.    s(11) = (  0.4999998  0.8660257  0.0000000 )
                  (  0.8660253 -0.4999998  0.0000000 )
                  (  0.0000000  0.0000000  1.0000000 )

      isym = 12     inv. 180 deg rotation - cryst. axis [1,1,0]

 cryst.   s(12) = (     0         -1          0      )
                  (    -1          0          0      )
                  (     0          0          1      )

 cart.    s(12) = (  0.5000002 -0.8660253  0.0000000 )
                  ( -0.8660253 -0.5000002  0.0000000 )
                  (  0.0000000  0.0000000  1.0000000 )

   Cartesian axes

     site n.     atom                  positions (alat units)
         1           Mn  tau(   1) = (  -0.0000006   0.5773505   1.5905737  )
         2           Mn  tau(   2) = (   0.5000004   0.2886748   0.7939294  )
         3           S   tau(   3) = (   0.5000004   0.2886748   0.2018601  )
         4           S   tau(   4) = (  -0.0000006   0.5773505   0.9985044  )

   Crystallographic axes

     site n.     atom                  positions (cryst. coord.)
         1           Mn  tau(   1) = (  0.3333330  0.6666670  0.9982960  )
         2           Mn  tau(   2) = (  0.6666670  0.3333330  0.4982960  )
         3           S   tau(   3) = (  0.6666670  0.3333330  0.1266940  )
         4           S   tau(   4) = (  0.3333330  0.6666670  0.6266940  )

     number of k points=     1  Methfessel-Paxton smearing, width (Ry)=  0.0010
                       cart. coord. in units 2pi/alat
        k(    1) = (   0.0000000   0.0000000   0.0000000), wk =   2.0000000

                       cryst. coord.
        k(    1) = (   0.0000000   0.0000000   0.0000000), wk =   2.0000000

     Check: negative core charge=   -0.000020

     Initial potential from superposition of free atoms

     starting charge      40.9998, renormalised to      42.0000
     Starting wfcs are   34 randomized atomic wfcs

     Self-consistent Calculation

     iteration #  1     ecut=    30.00 Ry     beta= 0.70
     Davidson diagonalization with overlap

     ethr =  1.00E-02,  avg # of iterations =  3.0

     total energy              =    -467.48492502 Ry
     estimated scf accuracy    <       3.72511002 Ry

[...]

     total energy              =    -470.29653882 Ry
     estimated scf accuracy    <       0.00000467 Ry

     iteration # 21     ecut=    30.00 Ry     beta= 0.70
     Davidson diagonalization with overlap

     ethr =  7.21E-09,  avg # of iterations =  5.0

     End of self-consistent calculation

          k = 0.0000 0.0000 0.0000 (   809 PWs)   bands (ev):

   -70.5065 -70.5050 -39.6932 -39.6931 -39.6846 -39.6846 -38.4836 -38.4811
    -6.4174  -5.7098   2.1656   3.8839   3.8839   3.8921   3.8921   4.1028
     7.4469   7.4470   8.1693   8.1693   8.3180   8.7358   8.7358   9.9684
     9.9685

     occupation numbers
     1.0000   1.0000   1.0000   1.0000   1.0000   1.0000   1.0000   1.0000
     1.0000   1.0000   1.0000   1.0000   1.0000   1.0000   1.0000   1.0000
     1.0000   1.0000   1.0000   1.0000   1.0000  -0.0000  -0.0000  -0.0000
    -0.0000

     the Fermi energy is     8.5275 ev

!    total energy              =    -470.29653903 Ry
     estimated scf accuracy    <       0.00000013 Ry
     smearing contrib. (-TS)   =       0.00000000 Ry
     internal energy E=F+TS    =    -470.29653903 Ry

     The total energy is F=E-TS. E is the sum of the following terms:
     one-electron contribution =    -315.39495636 Ry
     hartree contribution      =     170.53905131 Ry
     xc contribution           =     -69.83290888 Ry
     ewald contribution        =    -255.60772510 Ry

     convergence has been achieved in  21 iterations

     Forces acting on atoms (cartesian axes, Ry/au):

     atom    1 type  1   force =     0.00000000   -0.00000000   -0.04959131
     atom    2 type  1   force =     0.00000000    0.00000000   -0.04959131
     atom    3 type  2   force =     0.00000000    0.00000000    0.04959131
     atom    4 type  2   force =    -0.00000000   -0.00000000    0.04959131
     The non-local contrib.  to forces
     atom    1 type  1   force =     0.00000000    0.00000000    0.45718810
     atom    2 type  1   force =     0.00000000   -0.00000000    0.45718810
     atom    3 type  2   force =     0.00000000    0.00000000   -0.05337319
     atom    4 type  2   force =     0.00000000    0.00000000   -0.05337319
     The ionic contribution  to forces
     atom    1 type  1   force =     0.00003277   -0.00001892    0.44220316
     atom    2 type  1   force =    -0.00003277    0.00001892    0.44220316
     atom    3 type  2   force =    -0.00002904    0.00001677   -0.44220316
     atom    4 type  2   force =     0.00002904   -0.00001677   -0.44220316
     The local contribution  to forces
     atom    1 type  1   force =    -0.00007048    0.00004421   -0.92603220
     atom    2 type  1   force =     0.00004943   -0.00004026   -0.92511378
     atom    3 type  2   force =     0.00005125   -0.00004413    0.54135026
     atom    4 type  2   force =    -0.00005515    0.00002233    0.54151446
     The core correction contribution to forces
     atom    1 type  1   force =    -0.00000057    0.00000023   -0.02337720
     atom    2 type  1   force =     0.00000077   -0.00000016   -0.02338716
     atom    3 type  2   force =     0.00000030   -0.00000136    0.00374592
     atom    4 type  2   force =    -0.00000122   -0.00000020    0.00376338
     The Hubbard contrib.    to forces
     atom    1 type  1   force =     0.00000000    0.00000000    0.00000000
     atom    2 type  1   force =     0.00000000    0.00000000    0.00000000
     atom    3 type  2   force =     0.00000000    0.00000000    0.00000000
     atom    4 type  2   force =     0.00000000    0.00000000    0.00000000
     The SCF correction term to forces
     atom    1 type  1   force =     0.00000611   -0.00003791    0.00047843
     atom    2 type  1   force =    -0.00001372    0.00001882   -0.00052700
     atom    3 type  2   force =    -0.00000388    0.00000798   -0.00009465
     atom    4 type  2   force =     0.00000327   -0.00000162    0.00006215

     Total force =     0.099183     Total SCF correction =     0.000722

     Computing stress (Cartesian axis) and pressure

          total   stress  (Ry/bohr**3)                   (kbar)     P=     -316.77
  -0.00208941  -0.00000000   0.00000000         -307.36       -0.00        0.00
  -0.00000000  -0.00208941   0.00000000           -0.00     -307.36        0.00
  -0.00000000   0.00000000  -0.00228123           -0.00        0.00     -335.58

     kinetic stress (kbar)  16801.04      0.00      0.00
                                0.00  16801.05     -0.00
                                0.00     -0.00  17888.31

     local   stress (kbar) -12815.74     -0.08     -0.00
                               -0.08 -12815.85     -0.00
                               -0.00     -0.00 -19721.60

     nonloc. stress (kbar)   9801.49      0.00      0.00
                                0.00   9801.50      0.00
                                0.00      0.00  10362.73

     hartree stress (kbar)  13634.69      0.03     -0.00
                                0.03  13634.73     -0.00
                               -0.00     -0.00  16364.39

     exc-cor stress (kbar)  -1273.43     -0.00     -0.00
                               -0.00  -1273.43     -0.00
                               -0.00     -0.00  -1250.47

     corecor stress (kbar)  -3825.69      0.00     -0.00
                                0.00  -3825.69     -0.00
                               -0.00     -0.00  -3839.01

     ewald   stress (kbar) -22629.74      0.06      0.00
                                0.06 -22629.67      0.00
                                0.00      0.00 -20139.93

     hubbard stress (kbar)      0.00      0.00      0.00
                                0.00      0.00      0.00
                                0.00      0.00      0.00

     DFT-D   stress (kbar)      0.00      0.00      0.00
                                0.00      0.00      0.00
                                0.00      0.00      0.00

     XDM     stress (kbar)      0.00      0.00      0.00
                                0.00      0.00      0.00
                                0.00      0.00      0.00

     dft-nl  stress (kbar)      0.00      0.00      0.00
                                0.00      0.00      0.00
                                0.00      0.00      0.00

     TS-vdW  stress (kbar)      0.00      0.00      0.00
                                0.00      0.00      0.00
                                0.00      0.00      0.00

[...]

                                0.00      0.00      0.00

     Writing all to output data dir new_calculations/myprefix.save/

     General routines

     Parallel routines

   This run was terminated on:  14: 5:22  20May2023

   JOB DONE.