     Program PWSCF v.7.0 starts on 20May2023 at 18: 8:10

     Reading input from espresso_700.pwi
Warning: card &CELL ignored
Warning: card / ignored

     Current dimensions of program PWSCF are:
     Max number of different atomic species (ntypx) = 10
     Max number of k-points (npk) =  40000
     Max angular momentum in pseudopotentials (lmaxx) =  4

     gamma-point specific algorithms are used
     Message from routine setup:
     using ibrav=0 with symmetry is DISCOURAGED, use correct ibrav instead

     Subspace diagonalization in iterative solution of the eigenvalue problem:
     a serial algorithm will be used

     Using Slab Decomposition

     bravais-lattice index     =            0
     lattice parameter (alat)  =       7.2079  a.u.
     unit-cell volume          =    1213.0079 (a.u.)^3
     number of atoms/cell      =           12
     number of atomic types    =            3
     number of electrons       =       128.00
     number of Kohn-Sham states=           77
     kinetic-energy cutoff     =      30.0000  Ry
     charge density cutoff     =     240.0000  Ry
     scf convergence threshold =      1.0E-06
     mixing beta               =       0.7000
     number of iterations used =            8  plain     mixing
     Exchange-correlation= SLA  PW   PBE  PBE
                           (   1   4   3   4   0   0   0)

     celldm(1)=   7.207943  celldm(2)=   0.000000  celldm(3)=   0.000000
     celldm(4)=   0.000000  celldm(5)=   0.000000  celldm(6)=   0.000000

     crystal axes: (cart. coord. in units of alat)
               a(1) = (   1.000000   0.000000   0.000000 )
               a(2) = (   0.000000   1.686107   0.000000 )
               a(3) = (   0.000000   0.000000   1.921076 )

     reciprocal axes: (cart. coord. in units 2 pi/alat)
               b(1) = (  1.000000  0.000000  0.000000 )
               b(2) = (  0.000000  0.593082  0.000000 )
               b(3) = (  0.000000  0.000000  0.520542 )

     PseudoPot. # 1 for Ta read from file:
     /home/pragov/projects/rrg-bengioy-ad/pragov/crystal_structure_design/SSSP/Ta_pbe_v1.uspp.F.UPF
     MD5 check sum: f8bbe9446314a3b8ea5d9f3e3836c939
     Pseudo is Ultrasoft + core correction, Zval = 13.0
     Generated by new atomic code, or converted to UPF format
     Using radial grid of  921 points,  7 beta functions with:
                l(1) =   0
                l(2) =   0
                l(3) =   1
                l(4) =   1
                l(5) =   2
                l(6) =   2
                l(7) =   3
     Q(r) pseudized with  6 coefficients,  rinner =    1.300   1.300   1.300
                                                       1.300   1.300   1.300
                                                       1.300

     PseudoPot. # 2 for Si read from file:
     /home/pragov/projects/rrg-bengioy-ad/pragov/crystal_structure_design/SSSP/Si.pbe-n-rrkjus_psl.1.0.0.UPF
     MD5 check sum: 0b0bb1205258b0d07b9f9672cf965d36
     Pseudo is Ultrasoft + core correction, Zval =  4.0
     Generated using "atomic" code by A. Dal Corso  v.5.1
     Using radial grid of 1141 points,  6 beta functions with:
                l(1) =   0
                l(2) =   0
                l(3) =   1
                l(4) =   1
                l(5) =   2
                l(6) =   2
     Q(r) pseudized with 0 coefficients

     PseudoPot. # 3 for Ir read from file:
     /home/pragov/projects/rrg-bengioy-ad/pragov/crystal_structure_design/SSSP/Ir_pbe_v1.2.uspp.F.UPF
     MD5 check sum: 8836f839c3459d2b385c504ce6d91f2c
     Pseudo is Ultrasoft + core correction, Zval = 15.0
     Generated by new atomic code, or converted to UPF format
     Using radial grid of  983 points,  7 beta functions with:
                l(1) =   0
                l(2) =   0
                l(3) =   1
                l(4) =   1
                l(5) =   1
                l(6) =   2
                l(7) =   2
     Q(r) pseudized with  8 coefficients,  rinner =    1.400   1.400   1.400
                                                       1.400   1.400

     atomic species   valence    mass     pseudopotential
        Ta            13.00   180.94788     Ta( 1.00)
        Si             4.00    28.08500     Si( 1.00)
        Ir            15.00   192.21700     Ir( 1.00)

      8 Sym. Ops., with inversion, found ( 6 have fractional translation)

                                    s                        frac. trans.

      isym =  1     identity

 cryst.   s( 1) = (     1          0          0      )
                  (     0          1          0      )
                  (     0          0          1      )

 cart.    s( 1) = (  1.0000000  0.0000000  0.0000000 )
                  (  0.0000000  1.0000000  0.0000000 )
                  (  0.0000000  0.0000000  1.0000000 )

      isym =  2     180 deg rotation - cart. axis [0,0,1]

 cryst.   s( 2) = (    -1          0          0      )    f =(  0.0000000 )
                  (     0         -1          0      )       (  0.5000000 )
                  (     0          0          1      )       ( -0.5000000 )

 cart.    s( 2) = ( -1.0000000  0.0000000  0.0000000 )    f =(  0.0000000 )
                  (  0.0000000 -1.0000000  0.0000000 )       (  0.8430533 )
                  (  0.0000000  0.0000000  1.0000000 )       ( -0.9605382 )

[...]

      isym =  4     180 deg rotation - cart. axis [1,0,0]

[...]

      isym =  5     inversion

 cryst.   s( 5) = (    -1          0          0      )
                  (     0         -1          0      )
                  (     0          0         -1      )

 cart.    s( 5) = ( -1.0000000  0.0000000  0.0000000 )
                  (  0.0000000 -1.0000000  0.0000000 )
                  (  0.0000000  0.0000000 -1.0000000 )

      isym =  6     inv. 180 deg rotation - cart. axis [0,0,1]

[...]

      isym =  8     inv. 180 deg rotation - cart. axis [1,0,0]

 cryst.   s( 8) = (    -1          0          0      )    f =(  0.5000000 )
                  (     0          1          0      )       (  0.0000000 )
                  (     0          0          1      )       (  0.0000000 )

 cart.    s( 8) = ( -1.0000000  0.0000000  0.0000000 )    f =(  0.5000000 )
                  (  0.0000000  1.0000000  0.0000000 )       (  0.0000000 )
                  (  0.0000000  0.0000000  1.0000000 )       (  0.0000000 )

   Cartesian axes

     site n.     atom                  positions (alat units)
         1           Ta  tau(   1) = (   0.7500000   0.8839009   1.5903092  )
         2           Ta  tau(   2) = (   0.2500000   1.6452590   0.6297711  )
         3           Ta  tau(   3) = (   0.7500000   0.0408476   1.2913052  )
         4           Ta  tau(   4) = (   0.2500000   0.8022057   0.3307671  )
         5           Si  tau(   5) = (   0.2500000   0.3921901   1.6828993  )
         6           Si  tau(   6) = (   0.2500000   1.2352434   1.1987151  )
         7           Si  tau(   7) = (   0.7500000   1.2939165   0.2381770  )
         8           Si  tau(   8) = (   0.7500000   0.4508632   0.7223612  )
         9           Ir  tau(   9) = (   0.2500000   1.4409703   1.7964061  )
        10           Ir  tau(  10) = (   0.2500000   0.5979170   1.0852083  )
        11           Ir  tau(  11) = (   0.7500000   1.0881896   0.8358680  )
        12           Ir  tau(  12) = (   0.7500000   0.2451363   0.1246702  )

   Crystallographic axes

     site n.     atom                  positions (cryst. coord.)
         1           Ta  tau(   1) = (  0.7500000  0.5242260  0.8278220  )
         2           Ta  tau(   2) = (  0.2500000  0.9757740  0.3278220  )
         3           Ta  tau(   3) = (  0.7500000  0.0242260  0.6721780  )
         4           Ta  tau(   4) = (  0.2500000  0.4757740  0.1721780  )
         5           Si  tau(   5) = (  0.2500000  0.2326010  0.8760190  )
         6           Si  tau(   6) = (  0.2500000  0.7326010  0.6239810  )
         7           Si  tau(   7) = (  0.7500000  0.7673990  0.1239810  )
         8           Si  tau(   8) = (  0.7500000  0.2673990  0.3760190  )
         9           Ir  tau(   9) = (  0.2500000  0.8546140  0.9351040  )
        10           Ir  tau(  10) = (  0.2500000  0.3546140  0.5648960  )
        11           Ir  tau(  11) = (  0.7500000  0.6453860  0.4351040  )
        12           Ir  tau(  12) = (  0.7500000  0.1453860  0.0648960  )

     number of k points=     1  Methfessel-Paxton smearing, width (Ry)=  0.0010
                       cart. coord. in units 2pi/alat
        k(    1) = (   0.0000000   0.0000000   0.0000000), wk =   2.0000000

                       cryst. coord.
        k(    1) = (   0.0000000   0.0000000   0.0000000), wk =   2.0000000

     Initial potential from superposition of free atoms

     starting charge     125.9932, renormalised to     128.0000

     negative rho (up, down):  1.847E+00 0.000E+00
     Starting wfcs are  116 randomized atomic wfcs

     Self-consistent Calculation

     iteration #  1     ecut=    30.00 Ry     beta= 0.70
     Davidson diagonalization with overlap

     ethr =  1.00E-02,  avg # of iterations =  2.0

     negative rho (up, down):  1.524E+00 0.000E+00

     total energy              =   -1335.97619895 Ry
     estimated scf accuracy    <       7.98961928 Ry

[...]

     total energy              =   -1340.79372338 Ry
     estimated scf accuracy    <       0.00000163 Ry

     iteration # 25     ecut=    30.00 Ry     beta= 0.70
     Davidson diagonalization with overlap

     ethr =  1.27E-09,  avg # of iterations =  5.0

[...]

     End of self-consistent calculation

          k = 0.0000 0.0000 0.0000 (  1693 PWs)   bands (ev):

   -49.1151 -49.1103 -49.1029 -49.0979 -30.7161 -30.7151 -30.6065 -30.6062
   -30.3837 -30.3819 -30.3569 -30.3564 -30.3292 -30.3275 -30.1921 -30.1910
   -15.8600 -15.8271 -15.7342 -15.7281 -15.6403 -15.6046 -15.4623 -15.4563
   -15.4502 -15.4369 -15.3661 -15.3509   6.8630   9.1797   9.2997   9.4469
    11.7143  12.0429  12.6567  12.7914  13.0394  13.3258  13.3448  13.4037
    13.7466  13.9128  14.0947  14.1833  15.0318  15.0481  15.2330  15.3655
    15.3903  15.5000  15.7325  16.3578  16.6545  16.7181  16.7397  16.8245
    17.1294  17.5539  17.7938  17.8336  18.0934  18.6314  18.7161  19.4261
    19.4302  19.4313  19.8620  20.4340  20.4528  20.6230  20.7953  20.9125
    21.3038  21.6059  21.8324  22.0378  22.1071

     occupation numbers
     1.0000   1.0000   1.0000   1.0000   1.0000   1.0000   1.0000   1.0000
     1.0000   1.0000   1.0000   1.0000   1.0000   1.0000   1.0000   1.0000
     1.0000   1.0000   1.0000   1.0000   1.0000   1.0000   1.0000   1.0000
     1.0000   1.0000   1.0000   1.0000   1.0000   1.0000   1.0000   1.0000
     1.0000   1.0000   1.0000   1.0000   1.0000   1.0000   1.0000   1.0000
     1.0000   1.0000   1.0000   1.0000   1.0000   1.0000   1.0000   1.0000
     1.0000   1.0000   1.0000   1.0000   1.0000   1.0000   1.0000   1.0000
     1.0000   1.0000   1.0000   1.0000   1.0000   1.0000   1.0000   0.5139
     0.2731   0.2130  -0.0000  -0.0000  -0.0000  -0.0000  -0.0000  -0.0000
    -0.0000  -0.0000  -0.0000  -0.0000  -0.0000

     the Fermi energy is    19.4264 ev

!    total energy              =   -1340.79372326 Ry
     estimated scf accuracy    <       0.00000024 Ry
     smearing contrib. (-TS)   =      -0.00068317 Ry
     internal energy E=F+TS    =   -1340.79304009 Ry

     The total energy is F=E-TS. E is the sum of the following terms:
     one-electron contribution =    -176.67879184 Ry
     hartree contribution      =     172.04651716 Ry
     xc contribution           =    -396.24205369 Ry
     ewald contribution        =    -939.91871173 Ry

     convergence has been achieved in  25 iterations

     negative rho (up, down):  1.642E+00 0.000E+00

     Forces acting on atoms (cartesian axes, Ry/au):

     atom    1 type  1   force =     0.00000000   -0.04557796    0.01920559
     atom    2 type  1   force =     0.00000000    0.04557796    0.01920559
     atom    3 type  1   force =    -0.00000000   -0.04557796   -0.01920559
     atom    4 type  1   force =     0.00000000    0.04557796   -0.01920559
     atom    5 type  2   force =    -0.00000000    0.02309456   -0.03563432
     atom    6 type  2   force =     0.00000000    0.02309456    0.03563432
     atom    7 type  2   force =     0.00000000   -0.02309456    0.03563432
     atom    8 type  2   force =     0.00000000   -0.02309456   -0.03563432
     atom    9 type  3   force =    -0.00000000   -0.08390429    0.02804968
     atom   10 type  3   force =     0.00000000   -0.08390429   -0.02804968
     atom   11 type  3   force =     0.00000000    0.08390429    0.02804968
     atom   12 type  3   force =     0.00000000    0.08390429   -0.02804968
     The non-local contrib.  to forces
     atom    1 type  1   force =     0.00000000   -0.03090945   -0.10541735
     atom    2 type  1   force =     0.00000000    0.03090945   -0.10541735
     atom    3 type  1   force =     0.00000000   -0.03090945    0.10541735
     atom    4 type  1   force =    -0.00000000    0.03090945    0.10541735
     atom    5 type  2   force =     0.00000000   -0.01658024   -0.00294171
     atom    6 type  2   force =    -0.00000000   -0.01658024    0.00294171
     atom    7 type  2   force =     0.00000000    0.01658024    0.00294171
     atom    8 type  2   force =    -0.00000000    0.01658024   -0.00294171
     atom    9 type  3   force =     0.00000000   -0.00286110    0.07913241
     atom   10 type  3   force =    -0.00000000   -0.00286110   -0.07913241
     atom   11 type  3   force =     0.00000000    0.00286110    0.07913241
     atom   12 type  3   force =     0.00000000    0.00286110   -0.07913241
     The ionic contribution  to forces
     atom    1 type  1   force =     0.00000000   -0.23639755    3.00103303
     atom    2 type  1   force =     0.00000000    0.23639755    3.00103303
     atom    3 type  1   force =    -0.00000000   -0.23639755   -3.00103303
     atom    4 type  1   force =    -0.00000000    0.23639755   -3.00103303
     atom    5 type  2   force =    -0.00000000    1.52128937   -0.56898224
     atom    6 type  2   force =     0.00000000    1.52128937    0.56898224
     atom    7 type  2   force =     0.00000000   -1.52128937    0.56898224
     atom    8 type  2   force =    -0.00000000   -1.52128937   -0.56898224
     atom    9 type  3   force =    -0.00000000   -4.22586346   -2.01726876
     atom   10 type  3   force =    -0.00000000   -4.22586346    2.01726876
     atom   11 type  3   force =     0.00000000    4.22586346   -2.01726876
     atom   12 type  3   force =     0.00000000    4.22586346    2.01726876
     The local contribution  to forces
     atom    1 type  1   force =    -0.00000011    0.22333492   -2.88496539
     atom    2 type  1   force =     0.00000183   -0.22347011   -2.88404426
     atom    3 type  1   force =    -0.00000022    0.22461734    2.88454405
     atom    4 type  1   force =    -0.00000036   -0.22468661    2.88390558
     atom    5 type  2   force =     0.00000019   -1.48263672    0.53589216
     atom    6 type  2   force =    -0.00000085   -1.48313436   -0.53590036
     atom    7 type  2   force =     0.00000038    1.48307367   -0.53633709
     atom    8 type  2   force =    -0.00000023    1.48285911    0.53638967
     atom    9 type  3   force =     0.00000168    4.12530125    1.97841362
     atom   10 type  3   force =     0.00000089    4.12512201   -1.97811071
     atom   11 type  3   force =    -0.00000211   -4.12568417    1.98021673
     atom   12 type  3   force =    -0.00000069   -4.12472567   -1.97966485
     The core correction contribution to forces
     atom    1 type  1   force =     0.00000017   -0.00229994    0.00797377
     atom    2 type  1   force =    -0.00000006    0.00231256    0.00797757
     atom    3 type  1   force =     0.00000011   -0.00231986   -0.00798799
     atom    4 type  1   force =    -0.00000008    0.00232614   -0.00798894
     atom    5 type  2   force =     0.00000002    0.00132638    0.00015383
     atom    6 type  2   force =    -0.00000007    0.00131942   -0.00015320
     atom    7 type  2   force =     0.00000007   -0.00131730   -0.00015938
     atom    8 type  2   force =     0.00000000   -0.00132429    0.00015776
     atom    9 type  3   force =     0.00000024    0.01958996   -0.01293860
     atom   10 type  3   force =    -0.00000011    0.01957640    0.01293721
     atom   11 type  3   force =    -0.00000035   -0.01962239   -0.01292421
     atom   12 type  3   force =     0.00000001   -0.01960728    0.01292590
     The Hubbard contrib.    to forces
     atom    1 type  1   force =     0.00000000    0.00000000    0.00000000
     atom    2 type  1   force =     0.00000000    0.00000000    0.00000000
     atom    3 type  1   force =     0.00000000    0.00000000    0.00000000
     atom    4 type  1   force =     0.00000000    0.00000000    0.00000000
     atom    5 type  2   force =     0.00000000    0.00000000    0.00000000
     atom    6 type  2   force =     0.00000000    0.00000000    0.00000000
     atom    7 type  2   force =     0.00000000    0.00000000    0.00000000
     atom    8 type  2   force =     0.00000000    0.00000000    0.00000000
     atom    9 type  3   force =     0.00000000    0.00000000    0.00000000
     atom   10 type  3   force =     0.00000000    0.00000000    0.00000000
     atom   11 type  3   force =     0.00000000    0.00000000    0.00000000
     atom   12 type  3   force =     0.00000000    0.00000000    0.00000000
     The SCF correction term to forces
     atom    1 type  1   force =    -0.00000003    0.00063924    0.00056092
     atom    2 type  1   force =    -0.00000239   -0.00058263   -0.00034952
     atom    3 type  1   force =    -0.00000032   -0.00057237   -0.00013589
     atom    4 type  1   force =     0.00000082    0.00058380    0.00045665
     atom    5 type  2   force =     0.00000001   -0.00018957    0.00019912
     atom    6 type  2   force =     0.00000022    0.00014543   -0.00017851
     atom    7 type  2   force =    -0.00000001   -0.00004064    0.00014997
     atom    8 type  2   force =     0.00000032    0.00003832   -0.00021262
     atom    9 type  3   force =    -0.00000216   -0.00006404    0.00074516
     atom   10 type  3   force =    -0.00000054    0.00009437   -0.00097000
     atom   11 type  3   force =     0.00000121    0.00046265   -0.00106166
     atom   12 type  3   force =     0.00000011   -0.00048425    0.00058940

     Total force =     0.219782     Total SCF correction =     0.002390

     Computing stress (Cartesian axis) and pressure

     negative rho (up, down):  1.642E+00 0.000E+00
          total   stress  (Ry/bohr**3)                   (kbar)     P=      -49.51
  -0.00027248   0.00000000   0.00000000          -40.08        0.00        0.00
   0.00000000  -0.00033623   0.00000000            0.00      -49.46        0.00
   0.00000000   0.00000000  -0.00040093            0.00        0.00      -58.98

     kinetic stress (kbar)  29255.57      0.00      0.00
                                0.00  29224.10      0.00
                                0.00      0.00  29330.60

     local   stress (kbar)  16657.72      0.00     -0.00
                                0.00  17364.25      0.03
                               -0.00      0.03  17271.83

     nonloc. stress (kbar)  -6628.81      0.00      0.00
                                0.00  -6326.38      0.00
                                0.00      0.00  -6437.58

     hartree stress (kbar)   7263.48     -0.00      0.00
                               -0.00   6887.15     -0.01
                                0.00     -0.01   6713.96

     exc-cor stress (kbar)  23413.10     -0.00      0.00
                               -0.00  23411.37     -0.00
                                0.00     -0.00  23416.72

     corecor stress (kbar) -32325.66      0.00     -0.00
                                0.00 -32322.33      0.00
                               -0.00      0.00 -32330.90

     ewald   stress (kbar) -37675.50     -0.00     -0.00
                               -0.00 -38287.63      0.00
                               -0.00      0.00 -38023.62

     hubbard stress (kbar)      0.00      0.00      0.00
                                0.00      0.00      0.00
                                0.00      0.00      0.00

     DFT-D   stress (kbar)      0.00      0.00      0.00
                                0.00      0.00      0.00
                                0.00      0.00      0.00

     XDM     stress (kbar)      0.00      0.00      0.00
                                0.00      0.00      0.00
                                0.00      0.00      0.00

     dft-nl  stress (kbar)      0.00      0.00      0.00
                                0.00      0.00      0.00
                                0.00      0.00      0.00

     TS-vdW  stress (kbar)      0.00      0.00      0.00
                                0.00      0.00      0.00
                                0.00      0.00      0.00

[...]

                                0.00      0.00      0.00

     Writing all to output data dir new_calculations/myprefix.save/

     General routines

     Parallel routines

   This run was terminated on:  18: 8:59  20May2023

   JOB DONE.