     Program PWSCF v.7.0 starts on 21May2023 at 12:32:36

     Reading input from espresso_23645.pwi
Warning: card &CELL ignored
Warning: card / ignored

     Current dimensions of program PWSCF are:
     Max number of different atomic species (ntypx) = 10
     Max number of k-points (npk) =  40000
     Max angular momentum in pseudopotentials (lmaxx) =  4

     gamma-point specific algorithms are used
     Message from routine setup:
     using ibrav=0 with symmetry is DISCOURAGED, use correct ibrav instead

     Subspace diagonalization in iterative solution of the eigenvalue problem:
     a serial algorithm will be used

     Using Slab Decomposition

     bravais-lattice index     =            0
     lattice parameter (alat)  =       8.0758  a.u.
     unit-cell volume          =     741.2916 (a.u.)^3
     number of atoms/cell      =            8
     number of atomic types    =            3
     number of electrons       =       142.00
     number of Kohn-Sham states=           85
     kinetic-energy cutoff     =      30.0000  Ry
     charge density cutoff     =     240.0000  Ry
     scf convergence threshold =      1.0E-06
     mixing beta               =       0.7000
     number of iterations used =            8  plain     mixing
     Exchange-correlation=  SLA  PW   PBX  PBC
                           (   1   4   3   4   0   0   0)

     celldm(1)=   8.075756  celldm(2)=   0.000000  celldm(3)=   0.000000
     celldm(4)=   0.000000  celldm(5)=   0.000000  celldm(6)=   0.000000

     crystal axes: (cart. coord. in units of alat)
               a(1) = (   1.000000   0.000000   0.000000 )
               a(2) = (   0.000000   1.085378   0.000000 )
               a(3) = (   0.000000   0.000000   1.296756 )

     reciprocal axes: (cart. coord. in units 2 pi/alat)
               b(1) = (  1.000000  0.000000  0.000000 )
               b(2) = (  0.000000  0.921338  0.000000 )
               b(3) = (  0.000000  0.000000  0.771155 )

     PseudoPot. # 1 for Cu read from file:
     /home/pragov/projects/rrg-bengioy-ad/pragov/crystal_structure_design/SSSP/Cu_pbe_v1.2.uspp.F.UPF
     MD5 check sum: 6e991ff952a84172a2a52a1c1e996048
     Pseudo is Ultrasoft + core correction, Zval = 19.0
     Generated by new atomic code, or converted to UPF format
     Using radial grid of  867 points,  6 beta functions with:
                l(1) =   0
                l(2) =   0
                l(3) =   1
                l(4) =   1
                l(5) =   2
                l(6) =   2
     Q(r) pseudized with  8 coefficients,  rinner =    1.150   1.150   1.150
                                                       1.150   1.150

     PseudoPot. # 2 for Sn read from file:
     /home/pragov/projects/rrg-bengioy-ad/pragov/crystal_structure_design/SSSP/Sn_pbe_v1.uspp.F.UPF
     MD5 check sum: 4cf58ce39ec5d5d420df3dd08604eb00
     Pseudo is Ultrasoft + core correction, Zval = 14.0
     Generated by new atomic code, or converted to UPF format
     Using radial grid of  891 points,  6 beta functions with:
                l(1) =   0
                l(2) =   0
                l(3) =   1
                l(4) =   1
                l(5) =   2
                l(6) =   2
     Q(r) pseudized with  6 coefficients,  rinner =    1.200   1.200   1.200
                                                       1.200   1.200

     PseudoPot. # 3 for Ge read from file:
     /home/pragov/projects/rrg-bengioy-ad/pragov/crystal_structure_design/SSSP/ge_pbe_v1.4.uspp.F.UPF
     MD5 check sum: 9c9eaa91e581c3f09632fb3098b2c6b2
     Pseudo is Ultrasoft + core correction, Zval = 14.0
     Generated by new atomic code, or converted to UPF format
     Using radial grid of  873 points,  6 beta functions with:
                l(1) =   0
                l(2) =   0
                l(3) =   1
                l(4) =   1
                l(5) =   2
                l(6) =   2
     Q(r) pseudized with  8 coefficients,  rinner =    1.400   1.400   1.400
                                                       1.400   1.400

     atomic species   valence    mass     pseudopotential
        Cu            19.00    63.54600     Cu( 1.00)
        Sn            14.00   118.71000     Sn( 1.00)
        Ge            14.00    72.63000     Ge( 1.00)

      4 Sym. Ops. (no inversion) found

                                    s                        frac. trans.

      isym =  1     identity

 cryst.   s( 1) = (     1          0          0      )
                  (     0          1          0      )
                  (     0          0          1      )

 cart.    s( 1) = (  1.0000000  0.0000000  0.0000000 )
                  (  0.0000000  1.0000000  0.0000000 )
                  (  0.0000000  0.0000000  1.0000000 )

      isym =  2     180 deg rotation - cart. axis [0,1,0]

[...]

      isym =  3     inv. 180 deg rotation - cart. axis [0,0,1]

[...]

      isym =  4     inv. 180 deg rotation - cart. axis [1,0,0]

 cryst.   s( 4) = (    -1          0          0      )
                  (     0          1          0      )
                  (     0          0          1      )

 cart.    s( 4) = ( -1.0000000  0.0000000  0.0000000 )
                  (  0.0000000  1.0000000  0.0000000 )
                  (  0.0000000  0.0000000  1.0000000 )

   Cartesian axes

     site n.     atom                  positions (alat units)
         1           Cu  tau(   1) = (   0.5000000   0.9149620   0.9526672  )
         2           Cu  tau(   2) = (   0.0000000   0.1799731   0.3436690  )
         3           Cu  tau(   3) = (   0.0000000   0.1799731   0.9530874  )
         4           Cu  tau(   4) = (   0.5000000   0.9149620   0.3440891  )
         5           Cu  tau(   5) = (   0.0000000   0.7243327   0.6483782  )
         6           Cu  tau(   6) = (   0.5000000   0.3322539   0.0000000  )
         7           Sn  tau(   7) = (   0.0000000   0.7298464   0.0000000  )
         8           Ge  tau(   8) = (   0.5000000   0.3652114   0.6483782  )

   Crystallographic axes

     site n.     atom                  positions (cryst. coord.)
         1           Cu  tau(   1) = (  0.5000000  0.8429890  0.7346540  )
         2           Cu  tau(   2) = (  0.0000000  0.1658160  0.2650220  )
         3           Cu  tau(   3) = (  0.0000000  0.1658160  0.7349780  )
         4           Cu  tau(   4) = (  0.5000000  0.8429890  0.2653460  )
         5           Cu  tau(   5) = (  0.0000000  0.6673550  0.5000000  )
         6           Cu  tau(   6) = (  0.5000000  0.3061180  0.0000000  )
         7           Sn  tau(   7) = (  0.0000000  0.6724350  0.0000000  )
         8           Ge  tau(   8) = (  0.5000000  0.3364830  0.5000000  )

     number of k points=     1  Methfessel-Paxton smearing, width (Ry)=  0.0010
                       cart. coord. in units 2pi/alat
        k(    1) = (   0.0000000   0.0000000   0.0000000), wk =   2.0000000

                       cryst. coord.
        k(    1) = (   0.0000000   0.0000000   0.0000000), wk =   2.0000000

     Check: negative core charge=   -0.000002

     Initial potential from superposition of free atoms

     starting charge     134.9991, renormalised to     142.0000
     Starting wfcs are   96 randomized atomic wfcs

     Self-consistent Calculation

     iteration #  1     ecut=    30.00 Ry     beta= 0.70
     Davidson diagonalization with overlap

     ethr =  1.00E-02,  avg # of iterations =  4.0

     total energy              =   -2774.83635838 Ry
     estimated scf accuracy    <      35.20525338 Ry

[...]

     total energy              =   -2798.68950937 Ry
     estimated scf accuracy    <       0.00008556 Ry

     iteration # 14     ecut=    30.00 Ry     beta= 0.70
     Davidson diagonalization with overlap

     ethr =  6.03E-08,  avg # of iterations =  1.0

     End of self-consistent calculation

          k = 0.0000 0.0000 0.0000 (  1024 PWs)   bands (ev):

   -97.7130 -97.7100 -97.5254 -97.5228 -97.3512 -97.3269 -55.1304 -55.1173
   -55.1133 -55.1069 -55.0291 -55.0135 -55.0102 -54.9974 -54.9584 -54.9529
   -54.7844 -54.7310 -54.7218 -54.7134 -54.7040 -54.6944 -54.6912 -54.6549
    -9.0898  -9.0852  -9.0587  -9.0501  -9.0450  -6.5727  -6.5645  -6.5153
    -6.4870  -6.4824   3.8147   6.8680   9.1364  10.5150  10.7955  10.9374
    10.9642  11.0719  11.1369  11.3112  11.3760  11.6878  11.7117  11.8293
    11.9305  12.0068  12.1808  12.2442  12.2871  12.4351  12.4987  12.5678
    12.6377  12.7442  12.7716  12.8503  12.9831  12.9851  12.9940  13.0334
    13.0858  13.2539  13.3671  13.5589  13.7060  14.6301  16.1690  16.8468
    17.0597  17.6843  17.9691  18.8562  19.1910  19.7207  20.3714  21.0147
    21.1355  23.0463  23.3759  23.6533  25.2988

     occupation numbers
     1.0000   1.0000   1.0000   1.0000   1.0000   1.0000   1.0000   1.0000
     1.0000   1.0000   1.0000   1.0000   1.0000   1.0000   1.0000   1.0000
     1.0000   1.0000   1.0000   1.0000   1.0000   1.0000   1.0000   1.0000
     1.0000   1.0000   1.0000   1.0000   1.0000   1.0000   1.0000   1.0000
     1.0000   1.0000   1.0000   1.0000   1.0000   1.0000   1.0000   1.0000
     1.0000   1.0000   1.0000   1.0000   1.0000   1.0000   1.0000   1.0000
     1.0000   1.0000   1.0000   1.0000   1.0000   1.0000   1.0000   1.0000
     1.0000   1.0000   1.0000   1.0000   1.0000   1.0000   1.0000   1.0000
     1.0000   1.0000   1.0000   1.0000   1.0000   1.0000   1.0000  -0.0000
    -0.0000  -0.0000  -0.0000  -0.0000  -0.0000  -0.0000  -0.0000  -0.0000
    -0.0000  -0.0000  -0.0000  -0.0000  -0.0000

     the Fermi energy is    16.7665 ev

!    total energy              =   -2798.68951854 Ry
     estimated scf accuracy    <       0.00000078 Ry
     smearing contrib. (-TS)   =       0.00000000 Ry
     internal energy E=F+TS    =   -2798.68951854 Ry

     The total energy is F=E-TS. E is the sum of the following terms:
     one-electron contribution =   -1879.87496173 Ry
     hartree contribution      =    1034.08229357 Ry
     xc contribution           =    -338.90808428 Ry
     ewald contribution        =   -1613.98876611 Ry

     convergence has been achieved in  14 iterations

     Forces acting on atoms (cartesian axes, Ry/au):

     atom    1 type  1   force =     0.00000000    0.02226722    0.00867700
     atom    2 type  1   force =     0.00000000   -0.02417058   -0.00008509
     atom    3 type  1   force =     0.00000000   -0.02417058    0.00008509
     atom    4 type  1   force =     0.00000000    0.02226722   -0.00867700
     atom    5 type  1   force =     0.00000000    0.04219429    0.00000000
     atom    6 type  1   force =     0.00000000   -0.03881630    0.00000000
     atom    7 type  2   force =     0.00000000   -0.05218011    0.00000000
     atom    8 type  3   force =     0.00000000    0.05260883    0.00000000
     The non-local contrib.  to forces
     atom    1 type  1   force =     0.00000000    0.02155082    0.09864297
     atom    2 type  1   force =     0.00000000   -0.22433205   -0.33242635
     atom    3 type  1   force =     0.00000000   -0.22433205    0.33242635
     atom    4 type  1   force =     0.00000000    0.02155082   -0.09864297
     atom    5 type  1   force =     0.00000000   -0.34359239    0.00000000
     atom    6 type  1   force =     0.00000000    0.46950574    0.00000000
     atom    7 type  2   force =     0.00000000    0.24937790    0.00000000
     atom    8 type  3   force =     0.00000000   -0.56912214    0.00000000
     The ionic contribution  to forces
     atom    1 type  1   force =     0.00000000   -8.48107048   10.77949361
     atom    2 type  1   force =    -0.00000000    5.45772755   -9.74843433
     atom    3 type  1   force =    -0.00000000    5.45772755    9.74843433
     atom    4 type  1   force =     0.00000000   -8.48107048  -10.77949361
     atom    5 type  1   force =    -0.00000000   -6.31950442    0.00000000
     atom    6 type  1   force =    -0.00000000   10.93611558    0.00000000
     atom    7 type  2   force =     0.00000000   -2.57527160   -0.00000000
     atom    8 type  3   force =    -0.00000000    4.00534630    0.00000000
     The local contribution  to forces
     atom    1 type  1   force =    -0.00001556    8.48110839  -10.87068792
     atom    2 type  1   force =     0.00001043   -5.25759560   10.08104777
     atom    3 type  1   force =     0.00000306   -5.25756156  -10.08088049
     atom    4 type  1   force =    -0.00000755    8.48124714   10.87078497
     atom    5 type  1   force =    -0.00000269    6.70377643    0.00092519
     atom    6 type  1   force =     0.00000859  -11.44331389   -0.00063736
     atom    7 type  2   force =    -0.00000619    2.28214757   -0.00055220
     atom    8 type  3   force =     0.00000942   -3.39567380    0.00097228
     The core correction contribution to forces
     atom    1 type  1   force =    -0.00000001    0.00002788   -0.00018322
     atom    2 type  1   force =     0.00000000    0.00007831    0.00029116
     atom    3 type  1   force =     0.00000002    0.00007831   -0.00029124
     atom    4 type  1   force =     0.00000001    0.00002772    0.00018327
     atom    5 type  1   force =     0.00000001    0.00044551    0.00000016
     atom    6 type  1   force =     0.00000001   -0.00057311   -0.00000022
     atom    7 type  2   force =    -0.00000042   -0.00786963    0.00000193
     atom    8 type  3   force =     0.00000024    0.01259886    0.00001162
     The Hubbard contrib.    to forces
     atom    1 type  1   force =     0.00000000    0.00000000    0.00000000
     atom    2 type  1   force =     0.00000000    0.00000000    0.00000000
     atom    3 type  1   force =     0.00000000    0.00000000    0.00000000
     atom    4 type  1   force =     0.00000000    0.00000000    0.00000000
     atom    5 type  1   force =     0.00000000    0.00000000    0.00000000
     atom    6 type  1   force =     0.00000000    0.00000000    0.00000000
     atom    7 type  2   force =     0.00000000    0.00000000    0.00000000
     atom    8 type  3   force =     0.00000000    0.00000000    0.00000000
     The SCF correction term to forces
     atom    1 type  1   force =     0.00000606    0.00062286    0.00143438
     atom    2 type  1   force =    -0.00000141   -0.00005442   -0.00053532
     atom    3 type  1   force =     0.00000273   -0.00009845    0.00042415
     atom    4 type  1   force =     0.00000397    0.00051854   -0.00148583
     atom    5 type  1   force =     0.00000164    0.00105854   -0.00080289
     atom    6 type  1   force =    -0.00000531   -0.00056123    0.00072319
     atom    7 type  2   force =     0.00000234   -0.00057497    0.00056410
     atom    8 type  3   force =    -0.00001151   -0.00055100   -0.00095478

     Total force =     0.105301     Total SCF correction =     0.003141

     Computing stress (Cartesian axis) and pressure

          total   stress  (Ry/bohr**3)                   (kbar)     P=     -711.74
  -0.00444452   0.00000000   0.00000000         -653.81        0.00        0.00
   0.00000000  -0.00403911   0.00000000            0.00     -594.17        0.00
   0.00000000   0.00000000  -0.00603136            0.00        0.00     -887.24

     kinetic stress (kbar)  38144.56      0.00      0.00
                                0.00  38240.87      0.00
                                0.00      0.00  38069.93

     local   stress (kbar) -16464.52      0.00     -0.00
                                0.00  -6189.26     -0.06
                               -0.00     -0.06  -3191.34

     nonloc. stress (kbar)  26482.07      0.00      0.00
                                0.00  26679.85      0.00
                                0.00      0.00  26529.13

     hartree stress (kbar)  71878.85     -0.00      0.00
                               -0.00  67297.61      0.03
                                0.00      0.03  66031.25

     exc-cor stress (kbar)  -6211.99      0.00      0.00
                                0.00  -6209.03      0.00
                                0.00      0.00  -6212.07

     corecor stress (kbar) -12241.37     -0.00     -0.00
                               -0.00 -12242.88     -0.00
                               -0.00     -0.00 -12240.06

     ewald   stress (kbar)-102241.41     -0.00     -0.00
                               -0.00-108171.33     -0.00
                               -0.00     -0.00-109874.08

     hubbard stress (kbar)      0.00      0.00      0.00
                                0.00      0.00      0.00
                                0.00      0.00      0.00

     DFT-D   stress (kbar)      0.00      0.00      0.00
                                0.00      0.00      0.00
                                0.00      0.00      0.00

     XDM     stress (kbar)      0.00      0.00      0.00
                                0.00      0.00      0.00
                                0.00      0.00      0.00

     dft-nl  stress (kbar)      0.00      0.00      0.00
                                0.00      0.00      0.00
                                0.00      0.00      0.00

     TS-vdW  stress (kbar)      0.00      0.00      0.00
                                0.00      0.00      0.00
                                0.00      0.00      0.00

[...]

                                0.00      0.00      0.00

     Writing all to output data dir new_calculations/myprefix.save/

     General routines

     Parallel routines

   This run was terminated on:  12:33:24  21May2023

   JOB DONE.