     Program PWSCF v.7.0 starts on 21May2023 at 13:20: 6

     Reading input from espresso_23668.pwi
Warning: card &CELL ignored
Warning: card / ignored

     Current dimensions of program PWSCF are:
     Max number of different atomic species (ntypx) = 10
     Max number of k-points (npk) =  40000
     Max angular momentum in pseudopotentials (lmaxx) =  4

     gamma-point specific algorithms are used
     Message from routine setup:
     using ibrav=0 with symmetry is DISCOURAGED, use correct ibrav instead

     Subspace diagonalization in iterative solution of the eigenvalue problem:
     a serial algorithm will be used

     Using Slab Decomposition

     bravais-lattice index     =            0
     lattice parameter (alat)  =       5.0398  a.u.
     unit-cell volume          =     195.0040 (a.u.)^3
     number of atoms/cell      =            3
     number of atomic types    =            2
     number of electrons       =        27.00
     number of Kohn-Sham states=           18
     kinetic-energy cutoff     =      30.0000  Ry
     charge density cutoff     =     240.0000  Ry
     scf convergence threshold =      1.0E-06
     mixing beta               =       0.7000
     number of iterations used =            8  plain     mixing
     Exchange-correlation= PBE
                           (   1   4   3   4   0   0   0)

     celldm(1)=   5.039841  celldm(2)=   0.000000  celldm(3)=   0.000000
     celldm(4)=   0.000000  celldm(5)=   0.000000  celldm(6)=   0.000000

     crystal axes: (cart. coord. in units of alat)
               a(1) = (   1.000000   0.000000   0.000000 )
               a(2) = (   0.387669   0.921799   0.000000 )
               a(3) = (   0.176973   0.117559   1.652559 )

     reciprocal axes: (cart. coord. in units 2 pi/alat)
               b(1) = (  1.000000 -0.420557 -0.077173 )
               b(2) = (  0.000000  1.084836 -0.077173 )
               b(3) = (  0.000000  0.000000  0.605122 )

     PseudoPot. # 1 for V  read from file:
     /home/pragov/projects/rrg-bengioy-ad/pragov/crystal_structure_design/SSSP/v_pbe_v1.4.uspp.F.UPF
     MD5 check sum: 22b79981416ebb76fdaf5b1b8640f6fb
     Pseudo is Ultrasoft + core correction, Zval = 13.0
     Generated by new atomic code, or converted to UPF format
     Using radial grid of  853 points,  6 beta functions with:
                l(1) =   0
                l(2) =   0
                l(3) =   1
                l(4) =   1
                l(5) =   2
                l(6) =   2
     Q(r) pseudized with  8 coefficients,  rinner =    1.100   1.100   1.100
                                                       1.100   1.100

     PseudoPot. # 2 for H  read from file:
     /home/pragov/projects/rrg-bengioy-ad/pragov/crystal_structure_design/SSSP/H.pbe-rrkjus_psl.1.0.0.UPF
     MD5 check sum: f52b6d4d1c606e5624b1dc7b2218f220
     Pseudo is Ultrasoft, Zval =  1.0
     Generated using "atomic" code by A. Dal Corso  v.5.1
     Using radial grid of  929 points,  2 beta functions with:
                l(1) =   0
                l(2) =   0
     Q(r) pseudized with 0 coefficients

     atomic species   valence    mass     pseudopotential
        V             13.00    50.94150     V ( 1.00)
        H              1.00     1.00800     H ( 1.00)

      2 Sym. Ops., with inversion, found

                                    s                        frac. trans.

      isym =  1     identity

 cryst.   s( 1) = (     1          0          0      )
                  (     0          1          0      )
                  (     0          0          1      )

 cart.    s( 1) = (  1.0000000  0.0000000  0.0000000 )
                  (  0.0000000  1.0000000 -0.0000000 )
                  (  0.0000000  0.0000000  1.0000000 )

      isym =  2     inversion

 cryst.   s( 2) = (    -1          0          0      )
                  (     0         -1          0      )
                  (     0          0         -1      )

 cart.    s( 2) = ( -1.0000000 -0.0000000 -0.0000000 )
                  (  0.0000000 -1.0000000  0.0000000 )
                  (  0.0000000  0.0000000 -1.0000000 )

   Cartesian axes

     site n.     atom                  positions (alat units)
         1           V   tau(   1) = (   1.1430256   0.7592871   1.2090371  )
         2           V   tau(   2) = (   0.4216167   0.2800708   0.4435221  )
         3           H   tau(   3) = (   0.0000000   0.0000000   0.0000000  )

   Crystallographic axes

     site n.     atom                  positions (cryst. coord.)
         1           V   tau(   1) = (  0.7303970  0.7303970  0.7316150  )
         2           V   tau(   2) = (  0.2696030  0.2696030  0.2683850  )
         3           H   tau(   3) = (  0.0000000  0.0000000  0.0000000  )

     number of k points=     1  Methfessel-Paxton smearing, width (Ry)=  0.0010
                       cart. coord. in units 2pi/alat
        k(    1) = (   0.0000000   0.0000000   0.0000000), wk =   2.0000000

                       cryst. coord.
        k(    1) = (   0.0000000   0.0000000   0.0000000), wk =   2.0000000

     Check: negative core charge=   -0.000010

     Initial potential from superposition of free atoms

     starting charge      26.9975, renormalised to      27.0000

     negative rho (up, down):  1.362E-03 0.000E+00
     Starting wfcs are   21 randomized atomic wfcs

     Self-consistent Calculation

     iteration #  1     ecut=    30.00 Ry     beta= 0.70
     Davidson diagonalization with overlap

     ethr =  1.00E-02,  avg # of iterations =  2.0

     negative rho (up, down):  2.294E-03 0.000E+00

     total energy              =    -291.32651060 Ry
     estimated scf accuracy    <       0.27808433 Ry

[...]

     total energy              =    -291.38895544 Ry
     estimated scf accuracy    <       0.00001023 Ry

     iteration # 17     ecut=    30.00 Ry     beta= 0.70
     Davidson diagonalization with overlap

     ethr =  3.79E-08,  avg # of iterations =  2.0

[...]

     End of self-consistent calculation

          k = 0.0000 0.0000 0.0000 (   274 PWs)   bands (ev):

   -47.6677 -47.4976 -21.9546 -21.3349 -21.2863 -21.0533 -20.9531 -20.7523
     6.5849  12.8954  14.8753  15.2789  16.4004  16.4055  16.7864  17.6200
    17.7186  18.6152

     occupation numbers
     1.0000   1.0000   1.0000   1.0000   1.0000   1.0000   1.0000   1.0000
     1.0000   1.0000   1.0000   1.0000   0.8789   0.6211  -0.0000  -0.0000
    -0.0000  -0.0000

     the Fermi energy is    16.4074 ev

!    total energy              =    -291.38895574 Ry
     estimated scf accuracy    <       0.00000010 Ry
     smearing contrib. (-TS)   =      -0.00036557 Ry
     internal energy E=F+TS    =    -291.38859018 Ry

     The total energy is F=E-TS. E is the sum of the following terms:
     one-electron contribution =     -95.40274952 Ry
     hartree contribution      =      60.30511115 Ry
     xc contribution           =     -40.16853023 Ry
     ewald contribution        =    -216.12242157 Ry

     convergence has been achieved in  17 iterations

     negative rho (up, down):  2.410E-03 0.000E+00

     Forces acting on atoms (cartesian axes, Ry/au):

     atom    1 type  1   force =     0.05103689    0.03389082   -0.04753976
     atom    2 type  1   force =    -0.05103689   -0.03389082    0.04753976
     atom    3 type  2   force =     0.00000000    0.00000000    0.00000000
     The non-local contrib.  to forces
     atom    1 type  1   force =     0.03550432    0.02360398    0.57397081
     atom    2 type  1   force =    -0.03550432   -0.02360398   -0.57397081
     atom    3 type  2   force =     0.00000000    0.00000000    0.00000000
     The ionic contribution  to forces
     atom    1 type  1   force =    -0.23170129   -0.15391415    3.37669530
     atom    2 type  1   force =     0.23170129    0.15391415   -3.37669530
     atom    3 type  2   force =     0.00000000    0.00000000    0.00000000
     The local contribution  to forces
     atom    1 type  1   force =     0.25046390    0.16638041   -3.98806287
     atom    2 type  1   force =    -0.25049380   -0.16640033    3.98797587
     atom    3 type  2   force =     0.00000056    0.00000127    0.00005316
     The core correction contribution to forces
     atom    1 type  1   force =    -0.00326640   -0.00218019   -0.01036571
     atom    2 type  1   force =     0.00326451    0.00217796    0.01036836
     atom    3 type  2   force =     0.00000000    0.00000000    0.00000000
     The Hubbard contrib.    to forces
     atom    1 type  1   force =     0.00000000    0.00000000    0.00000000
     atom    2 type  1   force =     0.00000000    0.00000000    0.00000000
     atom    3 type  2   force =     0.00000000    0.00000000    0.00000000
     The SCF correction term to forces
     atom    1 type  1   force =     0.00003952   -0.00000099    0.00022564
     atom    2 type  1   force =    -0.00000141    0.00001963   -0.00013543
     atom    3 type  2   force =    -0.00000302   -0.00000265   -0.00005609

     Total force =     0.109667     Total SCF correction =     0.000273

     Computing stress (Cartesian axis) and pressure

     negative rho (up, down):  2.410E-03 0.000E+00
          total   stress  (Ry/bohr**3)                   (kbar)     P=      389.34
  -0.00032419  -0.00365632   0.00081138          -47.69     -537.86      119.36
  -0.00365632   0.00274562   0.00054483         -537.86      403.90       80.15
   0.00081138   0.00054483   0.00551861          119.36       80.15      811.82

     kinetic stress (kbar)  38083.39   -664.59    737.13
                             -664.59  38643.01    488.90
                              737.13    488.90  36919.13

     local   stress (kbar)  11083.99   -323.00  -2030.54
                             -323.00  11353.15  -1346.23
                            -2030.54  -1346.23  13665.35

     nonloc. stress (kbar)  -1267.64    107.66     95.57
                              107.66  -1358.01     63.48
                               95.57     63.48    -53.32

     hartree stress (kbar)  15717.70     86.48    569.94
                               86.48  15645.86    377.62
                              569.94    377.62  14128.78

     exc-cor stress (kbar)  -5526.68     -3.13      8.64
                               -3.13  -5524.04      5.72
                                8.64      5.72  -5556.36

     corecor stress (kbar)  -3907.90     -2.99    -11.91
                               -2.99  -3905.41     -7.89
                              -11.91     -7.89  -3936.78

     ewald   stress (kbar) -54230.54    261.70    750.53
                              261.70 -54450.66    498.56
                              750.53    498.56 -54354.98

     hubbard stress (kbar)      0.00      0.00      0.00
                                0.00      0.00      0.00
                                0.00      0.00      0.00

     DFT-D   stress (kbar)      0.00      0.00      0.00
                                0.00      0.00      0.00
                                0.00      0.00      0.00

     XDM     stress (kbar)      0.00      0.00      0.00
                                0.00      0.00      0.00
                                0.00      0.00      0.00

     dft-nl  stress (kbar)      0.00      0.00      0.00
                                0.00      0.00      0.00
                                0.00      0.00      0.00

     TS-vdW  stress (kbar)      0.00      0.00      0.00
                                0.00      0.00      0.00
                                0.00      0.00      0.00

[...]

                                0.00      0.00      0.00

     Writing all to output data dir new_calculations/myprefix.save/

     General routines

     Parallel routines

   This run was terminated on:  13:20:18  21May2023

   JOB DONE.