     Program PWSCF v.7.0 starts on 20May2023 at 13: 3:59

     Reading input from espresso_5435.pwi
Warning: card &CELL ignored
Warning: card / ignored

     Current dimensions of program PWSCF are:
     Max number of different atomic species (ntypx) = 10
     Max number of k-points (npk) =  40000
     Max angular momentum in pseudopotentials (lmaxx) =  4
     file O.pbe-n-kjpaw_psl.0.1.UPF: wavefunction(s)  2P renormalized

     gamma-point specific algorithms are used
     Message from routine setup:
     using ibrav=0 with symmetry is DISCOURAGED, use correct ibrav instead

     Subspace diagonalization in iterative solution of the eigenvalue problem:
     a serial algorithm will be used

     Using Slab Decomposition

     bravais-lattice index     =            0
     lattice parameter (alat)  =       9.3851  a.u.
     unit-cell volume          =    1654.5866 (a.u.)^3
     number of atoms/cell      =           18
     number of atomic types    =            3
     number of electrons       =       170.00
     number of Kohn-Sham states=          102
     kinetic-energy cutoff     =      30.0000  Ry
     charge density cutoff     =     240.0000  Ry
     scf convergence threshold =      1.0E-06
     mixing beta               =       0.7000
     number of iterations used =            8  plain     mixing
     Exchange-correlation= SLA  PW   PBX  PBC
                           (   1   4   3   4   0   0   0)

     celldm(1)=   9.385132  celldm(2)=   0.000000  celldm(3)=   0.000000
     celldm(4)=   0.000000  celldm(5)=   0.000000  celldm(6)=   0.000000

     crystal axes: (cart. coord. in units of alat)
               a(1) = (   1.000000   0.000000   0.000000 )
               a(2) = (  -0.330999   0.943631   0.000000 )
               a(3) = (   0.000000   0.000000   2.121125 )

     reciprocal axes: (cart. coord. in units 2 pi/alat)
               b(1) = (  1.000000  0.350772  0.000000 )
               b(2) = (  0.000000  1.059736  0.000000 )
               b(3) = (  0.000000  0.000000  0.471448 )

     PseudoPot. # 1 for Na read from file:
     /home/pragov/projects/rrg-bengioy-ad/pragov/crystal_structure_design/SSSP/na_pbe_v1.5.uspp.F.UPF
     MD5 check sum: 44600605ef58000f06b90626533354dc
     Pseudo is Ultrasoft, Zval =  9.0
     Generated by new atomic code, or converted to UPF format
     Using radial grid of  819 points,  5 beta functions with:
                l(1) =   0
                l(2) =   0
                l(3) =   1
                l(4) =   1
                l(5) =   2
     Q(r) pseudized with  8 coefficients,  rinner =    1.250   1.250   1.250
                                                       1.250   1.250

     PseudoPot. # 2 for Co read from file:
     /home/pragov/projects/rrg-bengioy-ad/pragov/crystal_structure_design/SSSP/Co_pbe_v1.2.uspp.F.UPF
     MD5 check sum: 5f91765df6ddd3222702df6e7b74a16d
     Pseudo is Ultrasoft + core correction, Zval = 17.0
     Generated by new atomic code, or converted to UPF format
     Using radial grid of  863 points,  6 beta functions with:
                l(1) =   0
                l(2) =   0
                l(3) =   1
                l(4) =   1
                l(5) =   2
                l(6) =   2
     Q(r) pseudized with  8 coefficients,  rinner =    1.200   1.200   1.200
                                                       1.200   1.200

     PseudoPot. # 3 for O  read from file:
     /home/pragov/projects/rrg-bengioy-ad/pragov/crystal_structure_design/SSSP/O.pbe-n-kjpaw_psl.0.1.UPF
     MD5 check sum: 0234752ac141de4415c5fc33072bef88
     Pseudo is Projector augmented-wave + core cor, Zval =  6.0
     Generated using "atomic" code by A. Dal Corso  v.5.0.99 svn rev. 10869
     Shape of augmentation charge: BESSEL
     Using radial grid of 1095 points,  4 beta functions with:
                l(1) =   0
                l(2) =   0
                l(3) =   1
                l(4) =   1
     Q(r) pseudized with 0 coefficients

     atomic species   valence    mass     pseudopotential
        Na             9.00    22.98977     Na( 1.00)
        Co            17.00    58.93319     Co( 1.00)
        O              6.00    15.99900     O ( 1.00)

      4 Sym. Ops., with inversion, found ( 2 have fractional translation)

                                    s                        frac. trans.

      isym =  1     identity

 cryst.   s( 1) = (     1          0          0      )
                  (     0          1          0      )
                  (     0          0          1      )

 cart.    s( 1) = (  1.0000000 -0.0000000  0.0000000 )
                  (  0.0000000  1.0000000  0.0000000 )
                  (  0.0000000  0.0000000  1.0000000 )

      isym =  2     180 deg rotation - cart. axis [0,0,1]

 cryst.   s( 2) = (    -1          0          0      )    f =(  0.0000000 )
                  (     0         -1          0      )       (  0.0000000 )
                  (     0          0          1      )       ( -0.5000000 )

 cart.    s( 2) = ( -1.0000000  0.0000000  0.0000000 )    f =(  0.0000000 )
                  (  0.0000000 -1.0000000  0.0000000 )       (  0.0000000 )
                  (  0.0000000  0.0000000  1.0000000 )       ( -1.0605624 )

      isym =  3     inversion

 cryst.   s( 3) = (    -1          0          0      )
                  (     0         -1          0      )
                  (     0          0         -1      )

 cart.    s( 3) = ( -1.0000000  0.0000000  0.0000000 )
                  (  0.0000000 -1.0000000  0.0000000 )
                  (  0.0000000  0.0000000 -1.0000000 )

      isym =  4     inv. 180 deg rotation - cart. axis [0,0,1]

 cryst.   s( 4) = (     1          0          0      )    f =(  0.0000000 )
                  (     0          1          0      )       (  0.0000000 )
                  (     0          0         -1      )       (  0.5000000 )

 cart.    s( 4) = (  1.0000000 -0.0000000  0.0000000 )    f =(  0.0000000 )
                  (  0.0000000  1.0000000  0.0000000 )       (  0.0000000 )
                  (  0.0000000  0.0000000 -1.0000000 )       (  1.0605624 )

   Cartesian axes

     site n.     atom                  positions (alat units)
         1           Na  tau(   1) = (   0.5290152   0.3339114   0.1305510  )
         2           Na  tau(   2) = (   0.5290152   0.3339114   0.9300114  )
         3           Na  tau(   3) = (   0.1399854   0.6097196   1.1911133  )
         4           Na  tau(   4) = (   0.0899572   0.6451879   0.5302812  )
         5           Na  tau(   5) = (   0.5790435   0.2984431   1.5908435  )
         6           Na  tau(   6) = (   0.1399854   0.6097196   1.9905737  )
         7           Co  tau(   7) = (   0.0000000   0.0000000   0.0000000  )
         8           Co  tau(   8) = (   0.9098088   0.0639423   0.5302812  )
         9           Co  tau(   9) = (   0.0000000   0.0000000   1.0605624  )
        10           Co  tau(  10) = (  -0.2408081   0.8796887   1.5908435  )
        11           O   tau(  11) = (   0.0399211   0.2854729   0.2420903  )
        12           O   tau(  12) = (   0.0399211   0.2854729   0.8184720  )
        13           O   tau(  13) = (   0.2561672   0.1321621   1.8790344  )
        14           O   tau(  14) = (   0.2561672   0.1321621   1.3026527  )
        15           O   tau(  15) = (   0.4128335   0.8114689   0.8184720  )
        16           O   tau(  16) = (   0.4128335   0.8114689   0.2420903  )
        17           O   tau(  17) = (   0.6290796   0.6581581   1.3026527  )
        18           O   tau(  18) = (   0.6290796   0.6581581   1.8790344  )

   Crystallographic axes

     site n.     atom                  positions (cryst. coord.)
         1           Na  tau(   1) = (  0.6461420  0.3538580  0.0615480  )
         2           Na  tau(   2) = (  0.6461420  0.3538580  0.4384520  )
         3           Na  tau(   3) = (  0.3538580  0.6461420  0.5615480  )
         4           Na  tau(   4) = (  0.3162710  0.6837290  0.2500000  )
         5           Na  tau(   5) = (  0.6837290  0.3162710  0.7500000  )
         6           Na  tau(   6) = (  0.3538580  0.6461420  0.9384520  )
         7           Co  tau(   7) = (  0.0000000  0.0000000  0.0000000  )
         8           Co  tau(   8) = (  0.9322380  0.0677620  0.2500000  )
         9           Co  tau(   9) = (  0.0000000  0.0000000  0.5000000  )
        10           Co  tau(  10) = (  0.0677620  0.9322380  0.7500000  )
        11           O   tau(  11) = (  0.1400570  0.3025260  0.1141330  )
        12           O   tau(  12) = (  0.1400570  0.3025260  0.3858670  )
        13           O   tau(  13) = (  0.3025260  0.1400570  0.8858670  )
        14           O   tau(  14) = (  0.3025260  0.1400570  0.6141330  )
        15           O   tau(  15) = (  0.6974740  0.8599430  0.3858670  )
        16           O   tau(  16) = (  0.6974740  0.8599430  0.1141330  )
        17           O   tau(  17) = (  0.8599430  0.6974740  0.6141330  )
        18           O   tau(  18) = (  0.8599430  0.6974740  0.8858670  )

     number of k points=     1  Methfessel-Paxton smearing, width (Ry)=  0.0010
                       cart. coord. in units 2pi/alat
        k(    1) = (   0.0000000   0.0000000   0.0000000), wk =   2.0000000

                       cryst. coord.
        k(    1) = (   0.0000000   0.0000000   0.0000000), wk =   2.0000000

     Check: negative core charge=   -0.000017

     Initial potential from superposition of free atoms

     starting charge     165.9622, renormalised to     170.0000
     Starting wfcs are  114 randomized atomic wfcs
     Checking if some PAW data can be deallocated...

     Self-consistent Calculation

     iteration #  1     ecut=    30.00 Ry     beta= 0.70
     Davidson diagonalization with overlap

     ethr =  1.00E-02,  avg # of iterations =  4.0

     total energy              =   -2087.26717168 Ry
     estimated scf accuracy    <      17.15054356 Ry

[...]

     total energy              =   -2098.92961165 Ry
     estimated scf accuracy    <       0.00000309 Ry

     iteration # 23     ecut=    30.00 Ry     beta= 0.70
     Davidson diagonalization with overlap

     ethr =  1.82E-09,  avg # of iterations =  1.0

     End of self-consistent calculation

          k = 0.0000 0.0000 0.0000 (  2290 PWs)   bands (ev):

   -89.2954 -89.2949 -89.1572 -89.1570 -52.7146 -52.7107 -52.7071 -52.6997
   -52.6869 -52.6856 -52.5248 -52.5136 -52.1728 -52.1716 -51.9532 -51.9530
   -45.3469 -45.3460 -45.3271 -45.3263 -44.9108 -44.9103 -17.3599 -17.3566
   -17.2868 -17.2844 -17.2591 -17.2551 -17.2294 -17.2277 -17.2196 -17.2144
   -17.1883 -17.1845 -16.8761 -16.8740 -16.8435 -16.8342 -16.8291 -16.8291
   -12.5853 -12.2274 -12.0879 -11.6876 -11.5454 -11.5384 -11.5247 -11.5159
     0.1122   0.3184   0.8572   0.9878   1.2686   1.4469   1.4905   1.4956
     1.6460   1.8609   1.9285   1.9474   2.0528   2.0760   2.1471   2.5910
     2.9377   3.0154   3.1722   3.3117   3.7723   3.7997   4.1454   4.2813
     4.2935   4.6341   4.7565   5.1077   5.1312   5.1408   5.2848   5.4570
     5.5420   5.6902   5.7626   5.7641   5.8882   5.9876   6.1053   6.2367
     7.8219   8.1395   8.1781   8.1805   8.4754   9.2710  10.1723  10.6178
    10.8274  11.3861  13.7181  13.7320  13.9503  13.9845

     occupation numbers
     1.0000   1.0000   1.0000   1.0000   1.0000   1.0000   1.0000   1.0000
     1.0000   1.0000   1.0000   1.0000   1.0000   1.0000   1.0000   1.0000
     1.0000   1.0000   1.0000   1.0000   1.0000   1.0000   1.0000   1.0000
     1.0000   1.0000   1.0000   1.0000   1.0000   1.0000   1.0000   1.0000
     1.0000   1.0000   1.0000   1.0000   1.0000   1.0000   1.0000   1.0000
     1.0000   1.0000   1.0000   1.0000   1.0000   1.0000   1.0000   1.0000
     1.0000   1.0000   1.0000   1.0000   1.0000   1.0000   1.0000   1.0000
     1.0000   1.0000   1.0000   1.0000   1.0000   1.0000   1.0000   1.0000
     1.0000   1.0000   1.0000   1.0000   1.0000   1.0000   1.0000   1.0000
     1.0000   1.0000   1.0000   1.0000   1.0000   1.0000   1.0000   1.0000
     1.0000   1.0000   1.0000   1.0000   1.0000  -0.0000  -0.0000  -0.0000
    -0.0000  -0.0000  -0.0000  -0.0000  -0.0000  -0.0000  -0.0000  -0.0000
    -0.0000  -0.0000  -0.0000  -0.0000  -0.0000  -0.0000

     the Fermi energy is     5.9379 ev

!    total energy              =   -2098.92961117 Ry
     estimated scf accuracy    <       0.00000069 Ry
     smearing contrib. (-TS)   =       0.00000002 Ry
     internal energy E=F+TS    =   -2098.92961120 Ry

     The total energy is F=E-TS. E is the sum of the following terms:
     one-electron contribution =   -1611.40234578 Ry
     hartree contribution      =     866.25213777 Ry
     xc contribution           =    -275.64672940 Ry
     ewald contribution        =   -1001.92638206 Ry
     one-center paw contrib.   =     -76.20629172 Ry
      -> PAW hartree energy AE =     230.98544183 Ry
      -> PAW hartree energy PS =    -230.18839451 Ry
      -> PAW xc energy AE      =    -136.40576457 Ry
      -> PAW xc energy PS      =      59.40242553 Ry
      -> total E_H with PAW    =     867.04918509 Ry
      -> total E_XC with PAW   =    -352.65006844 Ry

     convergence has been achieved in  23 iterations

     Forces acting on atoms (cartesian axes, Ry/au):

     atom    1 type  1   force =     0.00246993   -0.00174630   -0.00024875
     atom    2 type  1   force =     0.00246993   -0.00174630    0.00024875
     atom    3 type  1   force =    -0.00246993    0.00174630   -0.00024875
     atom    4 type  1   force =    -0.00544548    0.00383861    0.00000000
     atom    5 type  1   force =     0.00544548   -0.00383861    0.00000000
     atom    6 type  1   force =    -0.00246993    0.00174630    0.00024875
     atom    7 type  2   force =     0.00000000    0.00000000    0.00000000
     atom    8 type  2   force =    -0.01128907    0.00810670    0.00000000
     atom    9 type  2   force =     0.00000000    0.00000000    0.00000000
     atom   10 type  2   force =     0.01128907   -0.00810670    0.00000000
     atom   11 type  3   force =    -0.00495781   -0.03521967    0.01236987
     atom   12 type  3   force =    -0.00495781   -0.03521967   -0.01236987
     atom   13 type  3   force =    -0.03158952   -0.01632926   -0.01237333
     atom   14 type  3   force =    -0.03158952   -0.01632926    0.01237333
     atom   15 type  3   force =     0.03158952    0.01632926   -0.01237333
     atom   16 type  3   force =     0.03158952    0.01632926    0.01237333
     atom   17 type  3   force =     0.00495781    0.03521967    0.01236987
     atom   18 type  3   force =     0.00495781    0.03521967   -0.01236987
     The non-local contrib.  to forces
     atom    1 type  1   force =    -0.04896782    0.03471544    0.05113734
     atom    2 type  1   force =    -0.04896782    0.03471544   -0.05113734
     atom    3 type  1   force =     0.04896782   -0.03471544    0.05113734
     atom    4 type  1   force =    -0.24111754    0.17093644    0.00000000
     atom    5 type  1   force =     0.24111754   -0.17093644    0.00000000
     atom    6 type  1   force =     0.04896782   -0.03471544   -0.05113734
     atom    7 type  2   force =     0.00000000   -0.00000000    0.00000000
     atom    8 type  2   force =     0.10687508   -0.07567438    0.00000000
     atom    9 type  2   force =    -0.00000000   -0.00000000    0.00000000
     atom   10 type  2   force =    -0.10687508    0.07567438    0.00000000
     atom   11 type  3   force =    -0.32098777   -0.85225895    0.02647045
     atom   12 type  3   force =    -0.32098777   -0.85225895   -0.02647045
     atom   13 type  3   force =    -0.69796109   -0.58497593   -0.02646193
     atom   14 type  3   force =    -0.69796109   -0.58497593    0.02646193
     atom   15 type  3   force =     0.69796109    0.58497593   -0.02646193
     atom   16 type  3   force =     0.69796109    0.58497593    0.02646193
     atom   17 type  3   force =     0.32098777    0.85225895    0.02647045
     atom   18 type  3   force =     0.32098777    0.85225895   -0.02647045
     The ionic contribution  to forces
     atom    1 type  1   force =    -0.77170358    0.54711029    3.05589118
     atom    2 type  1   force =    -0.77170358    0.54711029   -3.05589118
     atom    3 type  1   force =     0.77170358   -0.54711029    3.05589118
     atom    4 type  1   force =    -2.30634978    1.63511965    0.00000000
     atom    5 type  1   force =     2.30634978   -1.63511965   -0.00000000
     atom    6 type  1   force =     0.77170358   -0.54711029   -3.05589118
     atom    7 type  2   force =    -0.00000000   -0.00000000    0.00000000
     atom    8 type  2   force =     0.10987491   -0.07789739    0.00000000
     atom    9 type  2   force =    -0.00000000   -0.00000000   -0.00000000
     atom   10 type  2   force =    -0.10987491    0.07789739   -0.00000000
     atom   11 type  3   force =     4.65257149   13.43272943    0.79149075
     atom   12 type  3   force =     4.65257149   13.43272943   -0.79149075
     atom   13 type  3   force =    11.13554181    8.83653496   -0.79149075
     atom   14 type  3   force =    11.13554181    8.83653496    0.79149075
     atom   15 type  3   force =   -11.13554181   -8.83653495   -0.79149075
     atom   16 type  3   force =   -11.13554181   -8.83653495    0.79149075
     atom   17 type  3   force =    -4.65257149  -13.43272943    0.79149075
     atom   18 type  3   force =    -4.65257149  -13.43272943   -0.79149075
     The local contribution  to forces
     atom    1 type  1   force =     0.82311192   -0.58368374   -3.10639588
     atom    2 type  1   force =     0.82326455   -0.58360050    3.10685113
     atom    3 type  1   force =    -0.82313240    0.58362275   -3.10808703
     atom    4 type  1   force =     2.54205881   -1.80219813    0.00063045
     atom    5 type  1   force =    -2.54204028    1.80212523   -0.00060149
     atom    6 type  1   force =    -0.82312400    0.58350841    3.10758611
     atom    7 type  2   force =     0.00007975    0.00065500    0.00176062
     atom    8 type  2   force =    -0.22650225    0.16046786    0.00169440
     atom    9 type  2   force =    -0.00049589   -0.00009703   -0.00179161
     atom   10 type  2   force =     0.22647867   -0.16022764   -0.00167464
     atom   11 type  3   force =    -4.34029593  -12.62496626   -0.80435062
     atom   12 type  3   force =    -4.34036892  -12.62536188    0.80503176
     atom   13 type  3   force =   -10.47648275   -8.27420063    0.80516743
     atom   14 type  3   force =   -10.47686844   -8.27441366   -0.80582783
     atom   15 type  3   force =    10.47699099    8.27469300    0.80505710
     atom   16 type  3   force =    10.47667540    8.27448719   -0.80426166
     atom   17 type  3   force =     4.34013914   12.62509320   -0.80591276
     atom   18 type  3   force =     4.34008349   12.62474237    0.80511919
     The core correction contribution to forces
     atom    1 type  1   force =     0.00000000    0.00000000    0.00000000
     atom    2 type  1   force =     0.00000000    0.00000000    0.00000000
     atom    3 type  1   force =     0.00000000    0.00000000    0.00000000
     atom    4 type  1   force =     0.00000000    0.00000000    0.00000000
     atom    5 type  1   force =     0.00000000    0.00000000    0.00000000
     atom    6 type  1   force =     0.00000000    0.00000000    0.00000000
     atom    7 type  2   force =     0.00000045    0.00000183    0.00000069
     atom    8 type  2   force =    -0.00168450    0.00119364    0.00000059
     atom    9 type  2   force =    -0.00000117   -0.00000050   -0.00000131
     atom   10 type  2   force =     0.00168371   -0.00119216    0.00000011
     atom   11 type  3   force =     0.00364115    0.00934594   -0.00037235
     atom   12 type  3   force =     0.00364162    0.00934555    0.00037171
     atom   13 type  3   force =     0.00761384    0.00652996    0.00037177
     atom   14 type  3   force =     0.00761352    0.00653032   -0.00037128
     atom   15 type  3   force =    -0.00761341   -0.00652914    0.00037185
     atom   16 type  3   force =    -0.00761386   -0.00653008   -0.00037193
     atom   17 type  3   force =    -0.00364202   -0.00934602   -0.00037150
     atom   18 type  3   force =    -0.00364249   -0.00934666    0.00037178
     The Hubbard contrib.    to forces
     atom    1 type  1   force =     0.00000000    0.00000000    0.00000000
     atom    2 type  1   force =     0.00000000    0.00000000    0.00000000
     atom    3 type  1   force =     0.00000000    0.00000000    0.00000000
     atom    4 type  1   force =     0.00000000    0.00000000    0.00000000
     atom    5 type  1   force =     0.00000000    0.00000000    0.00000000
     atom    6 type  1   force =     0.00000000    0.00000000    0.00000000
     atom    7 type  2   force =     0.00000000    0.00000000    0.00000000
     atom    8 type  2   force =     0.00000000    0.00000000    0.00000000
     atom    9 type  2   force =     0.00000000    0.00000000    0.00000000
     atom   10 type  2   force =     0.00000000    0.00000000    0.00000000
     atom   11 type  3   force =     0.00000000    0.00000000    0.00000000
     atom   12 type  3   force =     0.00000000    0.00000000    0.00000000
     atom   13 type  3   force =     0.00000000    0.00000000    0.00000000
     atom   14 type  3   force =     0.00000000    0.00000000    0.00000000
     atom   15 type  3   force =     0.00000000    0.00000000    0.00000000
     atom   16 type  3   force =     0.00000000    0.00000000    0.00000000
     atom   17 type  3   force =     0.00000000    0.00000000    0.00000000
     atom   18 type  3   force =     0.00000000    0.00000000    0.00000000
     The SCF correction term to forces
     atom    1 type  1   force =     0.00003970    0.00012377   -0.00088368
     atom    2 type  1   force =    -0.00013714    0.00002855    0.00041380
     atom    3 type  1   force =    -0.00001128   -0.00004956    0.00078876
     atom    4 type  1   force =    -0.00003930   -0.00001224   -0.00061275
     atom    5 type  1   force =     0.00001612    0.00009935    0.00062183
     atom    6 type  1   force =    -0.00001865    0.00007459   -0.00031979
     atom    7 type  2   force =    -0.00005776   -0.00066794   -0.00170798
     atom    8 type  2   force =     0.00014491    0.00002377   -0.00162462
     atom    9 type  2   force =     0.00051901    0.00007798    0.00171151
     atom   10 type  2   force =    -0.00012609   -0.00025188    0.00164026
     atom   11 type  3   force =     0.00007307   -0.00006708   -0.00089759
     atom   12 type  3   force =     0.00018339    0.00031119    0.00016977
     atom   13 type  3   force =    -0.00029247   -0.00021186    0.00004949
     atom   14 type  3   force =     0.00006369    0.00001026    0.00063984
     atom   15 type  3   force =    -0.00021851   -0.00024765    0.00016333
     atom   16 type  3   force =     0.00010775   -0.00007580   -0.00094357
     atom   17 type  3   force =     0.00003081   -0.00006029    0.00070438
     atom   18 type  3   force =     0.00007157    0.00028548    0.00010067

     Total force =     0.108879     Total SCF correction =     0.004202

     Computing stress (Cartesian axis) and pressure

          total   stress  (Ry/bohr**3)                   (kbar)     P=     -462.66
  -0.00291760  -0.00016653   0.00000000         -429.19      -24.50        0.00
  -0.00016653  -0.00303443   0.00000000          -24.50     -446.38        0.00
   0.00000000   0.00000000  -0.00348329            0.00        0.00     -512.41

     kinetic stress (kbar)  24490.87   -284.64      0.00
                             -284.64  24291.20      0.00
                                0.00      0.00  23901.30

     local   stress (kbar)  22080.00 -19534.41     -0.07
                           -19534.41   8375.80      0.21
                               -0.07      0.21 -25711.18

     nonloc. stress (kbar) -14526.55    -52.16      0.00
                              -52.16 -14563.14      0.00
                                0.00      0.00 -14532.23

     hartree stress (kbar)  16900.64   8222.44      0.13
                             8222.44  22668.98     -0.14
                                0.13     -0.14  37446.65

     exc-cor stress (kbar)  -6618.70      9.02     -0.00
                                9.02  -6612.38     -0.00
                               -0.00     -0.00  -6603.15

     corecor stress (kbar)  -1099.53      1.05      0.00
                                1.05  -1098.80      0.00
                                0.00      0.00  -1099.05

     ewald   stress (kbar) -41655.93  11614.21      0.00
                            11614.21 -33508.05     -0.00
                                0.00     -0.00 -13914.75

     hubbard stress (kbar)      0.00      0.00      0.00
                                0.00      0.00      0.00
                                0.00      0.00      0.00

     DFT-D   stress (kbar)      0.00      0.00      0.00
                                0.00      0.00      0.00
                                0.00      0.00      0.00

     XDM     stress (kbar)      0.00      0.00      0.00
                                0.00      0.00      0.00
                                0.00      0.00      0.00

     dft-nl  stress (kbar)      0.00      0.00      0.00
                                0.00      0.00      0.00
                                0.00      0.00      0.00

     TS-vdW  stress (kbar)      0.00      0.00      0.00
                                0.00      0.00      0.00
                                0.00      0.00      0.00

[...]

                                0.00      0.00      0.00

     Writing all to output data dir new_calculations/myprefix.save/

     General routines

     Parallel routines

     PAW routines

   This run was terminated on:  13: 4:40  20May2023

   JOB DONE.