     Program PWSCF v.7.0 starts on 21May2023 at  8: 7:10

     Reading input from espresso_22611.pwi
Warning: card &CELL ignored
Warning: card / ignored

     Current dimensions of program PWSCF are:
     Max number of different atomic species (ntypx) = 10
     Max number of k-points (npk) =  40000
     Max angular momentum in pseudopotentials (lmaxx) =  4

     gamma-point specific algorithms are used
     Message from routine setup:
     using ibrav=0 with symmetry is DISCOURAGED, use correct ibrav instead

     Subspace diagonalization in iterative solution of the eigenvalue problem:
     a serial algorithm will be used

     Using Slab Decomposition

     bravais-lattice index     =            0
     lattice parameter (alat)  =       8.6165  a.u.
     unit-cell volume          =    1303.6624 (a.u.)^3
     number of atoms/cell      =            6
     number of atomic types    =            2
     number of electrons       =        46.00
     number of Kohn-Sham states=           28
     kinetic-energy cutoff     =      30.0000  Ry
     charge density cutoff     =     240.0000  Ry
     scf convergence threshold =      1.0E-06
     mixing beta               =       0.7000
     number of iterations used =            8  plain     mixing
     Exchange-correlation= SLA  PW   PBE  PBE
                           (   1   4   3   4   0   0   0)

     celldm(1)=   8.616503  celldm(2)=   0.000000  celldm(3)=   0.000000
     celldm(4)=   0.000000  celldm(5)=   0.000000  celldm(6)=   0.000000

     crystal axes: (cart. coord. in units of alat)
               a(1) = (   1.000000   0.000000   0.000000 )
               a(2) = (   0.000000   1.000000   0.000000 )
               a(3) = (   0.000000   0.000000   2.037849 )

     reciprocal axes: (cart. coord. in units 2 pi/alat)
               b(1) = (  1.000000  0.000000  0.000000 )
               b(2) = (  0.000000  1.000000  0.000000 )
               b(3) = (  0.000000  0.000000  0.490713 )

     PseudoPot. # 1 for La read from file:
     /home/pragov/projects/rrg-bengioy-ad/pragov/crystal_structure_design/SSSP/La.GGA-PBE-paw-v1.0.UPF
     MD5 check sum: 436541e95c1ad8901025bd0b0ed42ae2
     Pseudo is Projector augmented-wave + core cor, Zval = 11.0
     Generated using ATOMPAW code
     Shape of augmentation charge: BESSEL
     Using radial grid of 1101 points,  8 beta functions with:
                l(1) =   0
                l(2) =   0
                l(3) =   1
                l(4) =   1
                l(5) =   2
                l(6) =   2
                l(7) =   3
                l(8) =   3
     Q(r) pseudized with 0 coefficients

     PseudoPot. # 2 for Te read from file:
     /home/pragov/projects/rrg-bengioy-ad/pragov/crystal_structure_design/SSSP/Te_pbe_v1.uspp.F.UPF
     MD5 check sum: c319670d6894cc26e93307826a071b75
     Pseudo is Ultrasoft + core correction, Zval =  6.0
     Generated by new atomic code, or converted to UPF format
     Using radial grid of  891 points,  5 beta functions with:
                l(1) =   0
                l(2) =   0
                l(3) =   1
                l(4) =   1
                l(5) =   2
     Q(r) pseudized with  6 coefficients,  rinner =    1.800   1.800   1.800
                                                       1.800   1.800

     atomic species   valence    mass     pseudopotential
        La            11.00   138.90547     La( 1.00)
        Te             6.00   127.60000     Te( 1.00)

     16 Sym. Ops., with inversion, found ( 8 have fractional translation)

                                    s                        frac. trans.

      isym =  1     identity

 cryst.   s( 1) = (     1          0          0      )
                  (     0          1          0      )
                  (     0          0          1      )

 cart.    s( 1) = (  1.0000000  0.0000000  0.0000000 )
                  (  0.0000000  1.0000000  0.0000000 )
                  (  0.0000000  0.0000000  1.0000000 )

      isym =  2     180 deg rotation - cart. axis [0,0,1]

[...]

 cryst.   s( 3) = (    -1          0          0      )    f =(  0.5000000 )
                  (     0          1          0      )       (  0.5000000 )
                  (     0          0         -1      )       ( -0.0000000 )

 cart.    s( 3) = ( -1.0000000  0.0000000  0.0000000 )    f =(  0.5000000 )
                  (  0.0000000  1.0000000  0.0000000 )       (  0.5000000 )
                  (  0.0000000  0.0000000 -1.0000000 )       ( -0.0000000 )

[...]

 cryst.   s( 6) = (     0         -1          0      )
                  (    -1          0          0      )
                  (     0          0         -1      )

 cart.    s( 6) = (  0.0000000 -1.0000000  0.0000000 )
                  ( -1.0000000  0.0000000  0.0000000 )
                  (  0.0000000  0.0000000 -1.0000000 )

[...]

      isym =  8      90 deg rotation - cart. axis [0,0,1]

[...]

      isym =  9     inversion

 cryst.   s( 9) = (    -1          0          0      )    f =(  0.5000000 )
                  (     0         -1          0      )       (  0.5000000 )
                  (     0          0         -1      )       ( -0.0000000 )

 cart.    s( 9) = ( -1.0000000  0.0000000  0.0000000 )    f =(  0.5000000 )
                  (  0.0000000 -1.0000000  0.0000000 )       (  0.5000000 )
                  (  0.0000000  0.0000000 -1.0000000 )       ( -0.0000000 )

      isym = 10     inv. 180 deg rotation - cart. axis [0,0,1]

 cryst.   s(10) = (     1          0          0      )    f =( -0.5000000 )
                  (     0          1          0      )       (  0.5000000 )
                  (     0          0         -1      )       ( -0.0000000 )

 cart.    s(10) = (  1.0000000  0.0000000  0.0000000 )    f =( -0.5000000 )
                  (  0.0000000  1.0000000  0.0000000 )       (  0.5000000 )
                  (  0.0000000  0.0000000 -1.0000000 )       ( -0.0000000 )

[...]

 cryst.   s(11) = (     1          0          0      )
                  (     0         -1          0      )
                  (     0          0          1      )

 cart.    s(11) = (  1.0000000  0.0000000  0.0000000 )
                  (  0.0000000 -1.0000000  0.0000000 )
                  (  0.0000000  0.0000000  1.0000000 )

[...]

 cryst.   s(14) = (     0          1          0      )    f =( -0.5000000 )
                  (     1          0          0      )       (  0.5000000 )
                  (     0          0          1      )       (  0.0000000 )

 cart.    s(14) = (  0.0000000  1.0000000  0.0000000 )    f =( -0.5000000 )
                  (  1.0000000  0.0000000  0.0000000 )       (  0.5000000 )
                  (  0.0000000  0.0000000  1.0000000 )       (  0.0000000 )

[...]

      isym = 16     inv.  90 deg rotation - cart. axis [0,0,1]

 cryst.   s(16) = (     0         -1          0      )
                  (     1          0          0      )
                  (     0          0         -1      )

 cart.    s(16) = (  0.0000000  1.0000000  0.0000000 )
                  ( -1.0000000  0.0000000  0.0000000 )
                  (  0.0000000  0.0000000 -1.0000000 )

   Cartesian axes

     site n.     atom                  positions (alat units)
         1           La  tau(   1) = (   0.0000000   0.5000000   1.4786755  )
         2           La  tau(   2) = (   0.5000000   0.0000000   0.5591736  )
         3           Te  tau(   3) = (   0.0000000   0.5000000   0.7468228  )
         4           Te  tau(   4) = (   0.5000000   0.0000000   1.2910263  )
         5           Te  tau(   5) = (   0.5000000   0.5000000   0.0000000  )
         6           Te  tau(   6) = (   0.0000000   0.0000000   0.0000000  )

   Crystallographic axes

     site n.     atom                  positions (cryst. coord.)
         1           La  tau(   1) = (  0.0000000  0.5000000  0.7256060  )
         2           La  tau(   2) = (  0.5000000  0.0000000  0.2743940  )
         3           Te  tau(   3) = (  0.0000000  0.5000000  0.3664760  )
         4           Te  tau(   4) = (  0.5000000  0.0000000  0.6335240  )
         5           Te  tau(   5) = (  0.5000000  0.5000000  0.0000000  )
         6           Te  tau(   6) = (  0.0000000  0.0000000  0.0000000  )

     number of k points=     1  Methfessel-Paxton smearing, width (Ry)=  0.0010
                       cart. coord. in units 2pi/alat
        k(    1) = (   0.0000000   0.0000000   0.0000000), wk =   2.0000000

                       cryst. coord.
        k(    1) = (   0.0000000   0.0000000   0.0000000), wk =   2.0000000

     Initial potential from superposition of free atoms

     starting charge      45.9821, renormalised to      46.0000
     Starting wfcs are   80 randomized atomic wfcs
     Checking if some PAW data can be deallocated...

     Self-consistent Calculation

     iteration #  1     ecut=    30.00 Ry     beta= 0.70
     Davidson diagonalization with overlap

     ethr =  1.00E-02,  avg # of iterations =  2.0

     total energy              =   -1021.27393176 Ry
     estimated scf accuracy    <       1.46423391 Ry

[...]

     c_bands:  1 eigenvalues not converged
     ethr =  4.52E-07,  avg # of iterations = 20.0

[...]

     total energy              =   -1022.30398779 Ry
     estimated scf accuracy    <       0.00000287 Ry

     iteration # 24     ecut=    30.00 Ry     beta= 0.70
     Davidson diagonalization with overlap

     ethr =  6.24E-09,  avg # of iterations =  6.0

     End of self-consistent calculation

          k = 0.0000 0.0000 0.0000 (  1824 PWs)   bands (ev):

   -23.6542 -23.6501  -7.8495  -7.6251  -7.3163  -7.3160  -7.2993  -7.2990
    -4.6698  -1.5471  -1.3955  -1.1531   3.7809   3.7810   4.2582   5.9699
     6.5161   7.2932   7.2933   8.2634   8.2635   8.5980   9.2230   9.2322
     9.2323   9.6778  10.7359  11.1071

     occupation numbers
     1.0000   1.0000   1.0000   1.0000   1.0000   1.0000   1.0000   1.0000
     1.0000   1.0000   1.0000   1.0000   1.0000   1.0000   1.0000   1.0000
     1.0000   1.0000   1.0000   1.0000   1.0000   1.0000   0.6861   0.1578
     0.1561  -0.0000  -0.0000  -0.0000

     the Fermi energy is     9.2261 ev

!    total energy              =   -1022.30398839 Ry
     estimated scf accuracy    <       0.00000065 Ry
     smearing contrib. (-TS)   =      -0.00051176 Ry
     internal energy E=F+TS    =   -1022.30347663 Ry

     The total energy is F=E-TS. E is the sum of the following terms:
     one-electron contribution =       3.35496471 Ry
     hartree contribution      =      22.03654408 Ry
     xc contribution           =     -75.55211118 Ry
     ewald contribution        =    -175.91273690 Ry
     one-center paw contrib.   =    -796.23013735 Ry
      -> PAW hartree energy AE =      70.66146943 Ry
      -> PAW hartree energy PS =     -70.71797814 Ry
      -> PAW xc energy AE      =    -810.87427112 Ry
      -> PAW xc energy PS      =      14.70064249 Ry
      -> total E_H with PAW    =      21.98003537 Ry
      -> total E_XC with PAW   =    -871.72573982 Ry

     convergence has been achieved in  24 iterations

     Forces acting on atoms (cartesian axes, Ry/au):

     atom    1 type  1   force =     0.00000000    0.00000000    0.04443256
     atom    2 type  1   force =     0.00000000    0.00000000   -0.04443256
     atom    3 type  2   force =     0.00000000    0.00000000    0.01208628
     atom    4 type  2   force =     0.00000000    0.00000000   -0.01208628
     atom    5 type  2   force =     0.00000000    0.00000000    0.00000000
     atom    6 type  2   force =     0.00000000    0.00000000    0.00000000
     The non-local contrib.  to forces
     atom    1 type  1   force =     0.00000000    0.00000000   -0.25264414
     atom    2 type  1   force =     0.00000000    0.00000000    0.25264414
     atom    3 type  2   force =     0.00000000    0.00000000    0.21110174
     atom    4 type  2   force =     0.00000000    0.00000000   -0.21110174
     atom    5 type  2   force =     0.00000000    0.00000000    0.00000000
     atom    6 type  2   force =     0.00000000    0.00000000    0.00000000
     The ionic contribution  to forces
     atom    1 type  1   force =    -0.00000000   -0.00000000   -0.97590755
     atom    2 type  1   force =    -0.00000000   -0.00000000    0.97590755
     atom    3 type  2   force =    -0.00000000   -0.00000000    0.36349584
     atom    4 type  2   force =    -0.00000000   -0.00000000   -0.36349584
     atom    5 type  2   force =     0.00000000    0.00000000    0.00000000
     atom    6 type  2   force =    -0.00000000   -0.00000000    0.00000000
     The local contribution  to forces
     atom    1 type  1   force =    -0.00019305    0.00099629    1.27204714
     atom    2 type  1   force =     0.00019253   -0.00077626   -1.27326407
     atom    3 type  2   force =     0.00003116    0.00020601   -0.58861455
     atom    4 type  2   force =     0.00001871   -0.00014599    0.58796468
     atom    5 type  2   force =    -0.00009623   -0.00060902    0.00051682
     atom    6 type  2   force =     0.00010851    0.00062669    0.00054768
     The core correction contribution to forces
     atom    1 type  1   force =    -0.00000009    0.00000058    0.00034842
     atom    2 type  1   force =     0.00000008   -0.00000043   -0.00034894
     atom    3 type  2   force =    -0.00000888    0.00000739    0.02572720
     atom    4 type  2   force =     0.00000093   -0.00001737   -0.02572363
     atom    5 type  2   force =     0.00001222    0.00007883   -0.00002422
     atom    6 type  2   force =    -0.00001224   -0.00007952    0.00001709
     The Hubbard contrib.    to forces
     atom    1 type  1   force =     0.00000000    0.00000000    0.00000000
     atom    2 type  1   force =     0.00000000    0.00000000    0.00000000
     atom    3 type  2   force =     0.00000000    0.00000000    0.00000000
     atom    4 type  2   force =     0.00000000    0.00000000    0.00000000
     atom    5 type  2   force =     0.00000000    0.00000000    0.00000000
     atom    6 type  2   force =     0.00000000    0.00000000    0.00000000
     The SCF correction term to forces
     atom    1 type  1   force =     0.00011063   -0.00041440    0.00036810
     atom    2 type  1   force =    -0.00003062    0.00032577    0.00040815
     atom    3 type  2   force =     0.00003754   -0.00015267    0.00035870
     atom    4 type  2   force =    -0.00002114    0.00022225    0.00025288
     atom    5 type  2   force =    -0.00002352   -0.00013426   -0.00034415
     atom    6 type  2   force =     0.00000938    0.00012611   -0.00061489

     Total force =     0.065120     Total SCF correction =     0.001180

     Computing stress (Cartesian axis) and pressure

          total   stress  (Ry/bohr**3)                   (kbar)     P=       70.72
   0.00070406   0.00000000   0.00000000          103.57        0.00        0.00
   0.00000000   0.00070406   0.00000000            0.00      103.57        0.00
   0.00000000   0.00000000   0.00003417            0.00        0.00        5.03

     kinetic stress (kbar)   4234.81      0.00      0.00
                                0.00   4234.81      0.00
                                0.00      0.00   4100.01

     local   stress (kbar)   4312.74      0.00     -0.02
                                0.00   4312.85      0.21
                               -0.02      0.21   4616.61

     nonloc. stress (kbar)  -1198.78      0.00      0.00
                                0.00  -1198.78      0.00
                                0.00      0.00  -1223.82

     hartree stress (kbar)    867.07     -0.03      0.01
                               -0.03    866.94     -0.05
                                0.01     -0.05    752.59

     exc-cor stress (kbar)   3429.77     -0.00      0.00
                               -0.00   3429.76     -0.00
                                0.00     -0.00   3429.33

     corecor stress (kbar)  -4967.01      0.01     -0.00
                                0.01  -4966.95     -0.00
                               -0.00     -0.00  -4969.83

     ewald   stress (kbar)  -6575.04      0.00      0.00
                                0.00  -6575.04     -0.00
                                0.00     -0.00  -6699.88

     hubbard stress (kbar)      0.00      0.00      0.00
                                0.00      0.00      0.00
                                0.00      0.00      0.00

     DFT-D   stress (kbar)      0.00      0.00      0.00
                                0.00      0.00      0.00
                                0.00      0.00      0.00

     XDM     stress (kbar)      0.00      0.00      0.00
                                0.00      0.00      0.00
                                0.00      0.00      0.00

     dft-nl  stress (kbar)      0.00      0.00      0.00
                                0.00      0.00      0.00
                                0.00      0.00      0.00

     TS-vdW  stress (kbar)      0.00      0.00      0.00
                                0.00      0.00      0.00
                                0.00      0.00      0.00

[...]

                                0.00      0.00      0.00

     Writing all to output data dir new_calculations/myprefix.save/

     General routines

     Parallel routines

     PAW routines

   This run was terminated on:   8: 7:38  21May2023

   JOB DONE.