     Program PWSCF v.7.0 starts on 21May2023 at  5:59: 6

     Reading input from espresso_8153.pwi
Warning: card &CELL ignored
Warning: card / ignored

     Current dimensions of program PWSCF are:
     Max number of different atomic species (ntypx) = 10
     Max number of k-points (npk) =  40000
     Max angular momentum in pseudopotentials (lmaxx) =  4

     gamma-point specific algorithms are used

     Subspace diagonalization in iterative solution of the eigenvalue problem:
     a serial algorithm will be used

     Using Slab Decomposition

     bravais-lattice index     =            0
     lattice parameter (alat)  =       9.3958  a.u.
     unit-cell volume          =     579.4045 (a.u.)^3
     number of atoms/cell      =            7
     number of atomic types    =            3
     number of electrons       =       101.00
     number of Kohn-Sham states=           61
     kinetic-energy cutoff     =      30.0000  Ry
     charge density cutoff     =     240.0000  Ry
     scf convergence threshold =      1.0E-06
     mixing beta               =       0.7000
     number of iterations used =            8  plain     mixing
     Exchange-correlation= PBE
                           (   1   4   3   4   0   0   0)

     celldm(1)=   9.395754  celldm(2)=   0.000000  celldm(3)=   0.000000
     celldm(4)=   0.000000  celldm(5)=   0.000000  celldm(6)=   0.000000

     crystal axes: (cart. coord. in units of alat)
               a(1) = (   1.000000   0.000000   0.000000 )
               a(2) = (   0.485996   0.873961   0.000000 )
               a(3) = (   0.012939   0.007610   0.799272 )

     reciprocal axes: (cart. coord. in units 2 pi/alat)
               b(1) = (  1.000000 -0.556084 -0.010894 )
               b(2) = (  0.000000  1.144215 -0.010894 )
               b(3) = (  0.000000  0.000000  1.251138 )

     PseudoPot. # 1 for Ca read from file:
     /home/pragov/projects/rrg-bengioy-ad/pragov/crystal_structure_design/SSSP/Ca_pbe_v1.uspp.F.UPF
     MD5 check sum: 403a4c14b9e4d4dfdc3024c9a3812218
     Pseudo is Ultrasoft + core correction, Zval = 10.0
     Generated by new atomic code, or converted to UPF format
     Using radial grid of  845 points,  6 beta functions with:
                l(1) =   0
                l(2) =   0
                l(3) =   1
                l(4) =   1
                l(5) =   2
                l(6) =   2
     Q(r) pseudized with  8 coefficients,  rinner =    1.500   1.500   1.500
                                                       1.500   1.500

     PseudoPot. # 2 for Ni read from file:
     /home/pragov/projects/rrg-bengioy-ad/pragov/crystal_structure_design/SSSP/ni_pbe_v1.4.uspp.F.UPF
     MD5 check sum: 1ee80287db30b12d2bc1f57a5b5d6409
     Pseudo is Ultrasoft + core correction, Zval = 18.0
     Generated by new atomic code, or converted to UPF format
     Using radial grid of  865 points,  6 beta functions with:
                l(1) =   0
                l(2) =   0
                l(3) =   1
                l(4) =   1
                l(5) =   2
                l(6) =   2
     Q(r) pseudized with 10 coefficients,  rinner =    0.980   0.980   0.980
                                                       0.980   0.980

     PseudoPot. # 3 for H  read from file:
     /home/pragov/projects/rrg-bengioy-ad/pragov/crystal_structure_design/SSSP/H.pbe-rrkjus_psl.1.0.0.UPF
     MD5 check sum: f52b6d4d1c606e5624b1dc7b2218f220
     Pseudo is Ultrasoft, Zval =  1.0
     Generated using "atomic" code by A. Dal Corso  v.5.1
     Using radial grid of  929 points,  2 beta functions with:
                l(1) =   0
                l(2) =   0
     Q(r) pseudized with 0 coefficients

     atomic species   valence    mass     pseudopotential
        Ca            10.00    40.07800     Ca( 1.00)
        Ni            18.00    58.69340     Ni( 1.00)
        H              1.00     1.00800     H ( 1.00)

     No symmetry found

                                    s                        frac. trans.

      isym =  1     identity

 cryst.   s( 1) = (     1          0          0      )
                  (     0          1          0      )
                  (     0          0          1      )

 cart.    s( 1) = (  1.0000000  0.0000000 -0.0000000 )
                  (  0.0000000  1.0000000 -0.0000000 )
                  (  0.0000000  0.0000000  1.0000000 )

   Cartesian axes

     site n.     atom                  positions (alat units)
         1           Ca  tau(   1) = (   1.4928026   0.8779647   0.7831342  )
         2           Ni  tau(   2) = (   0.5056704   0.2974008   0.0092348  )
         3           Ni  tau(   3) = (   0.9837380   0.5785676   0.0078001  )
         4           Ni  tau(   4) = (   0.7500634   0.4411361   0.4096383  )
         5           Ni  tau(   5) = (   0.9997280   0.8707491   0.4133892  )
         6           Ni  tau(   6) = (   1.2468644   0.4505433   0.4133892  )
         7           H   tau(   7) = (   0.3054453   0.1796421   0.2444614  )

   Crystallographic axes

     site n.     atom                  positions (cryst. coord.)
         1           Ca  tau(   1) = (  0.9960490  0.9960490  0.9798090  )
         2           Ni  tau(   2) = (  0.3401900  0.3401900  0.0115540  )
         3           Ni  tau(   3) = (  0.6619210  0.6619210  0.0097590  )
         4           Ni  tau(   4) = (  0.5002920  0.5002920  0.5125140  )
         5           Ni  tau(   5) = (  0.5110150  0.9918210  0.5172070  )
         6           Ni  tau(   6) = (  0.9918210  0.5110150  0.5172070  )
         7           H   tau(   7) = (  0.2028860  0.2028860  0.3058550  )

     number of k points=     1  Methfessel-Paxton smearing, width (Ry)=  0.0010
                       cart. coord. in units 2pi/alat
        k(    1) = (   0.0000000   0.0000000   0.0000000), wk =   2.0000000

                       cryst. coord.
        k(    1) = (   0.0000000   0.0000000   0.0000000), wk =   2.0000000

     Check: negative core charge=   -0.000011

     Initial potential from superposition of free atoms

     starting charge      90.9945, renormalised to     101.0000
     Starting wfcs are   76 randomized atomic wfcs

     Self-consistent Calculation

     iteration #  1     ecut=    30.00 Ry     beta= 0.70
     Davidson diagonalization with overlap

     ethr =  1.00E-02,  avg # of iterations =  7.0

     total energy              =   -1621.01912536 Ry
     estimated scf accuracy    <     252.48106254 Ry

[...]

     ethr =  2.33E-05,  avg # of iterations =  1.0
     Minimization algorithm failed to find Fermi energy: reverting to bisection
     Possible cause: smearing is larger than the electronic band-gap.

[...]

     ethr =  1.89E-06,  avg # of iterations =  1.0
     Minimization algorithm failed to find Fermi energy: reverting to bisection
     Possible cause: smearing is larger than the electronic band-gap.

[...]

     total energy              =   -1791.57616793 Ry
     estimated scf accuracy    <       0.00000682 Ry

     iteration # 53     ecut=    30.00 Ry     beta= 0.70
     Davidson diagonalization with overlap

     ethr =  1.24E-09,  avg # of iterations =  1.0

     End of self-consistent calculation

          k = 0.0000 0.0000 0.0000 (   820 PWs)   bands (ev):

   -89.0535 -88.9987 -88.9825 -88.9822 -88.9764 -49.5892 -49.5509 -49.5217
   -49.5080 -49.4243 -49.4070 -49.4000 -49.3914 -49.3403 -49.3258 -49.2126
   -49.2038 -49.1974 -49.1597 -49.1338 -26.2879  -7.3927  -7.3741  -7.3411
     5.1924   8.9822   9.9251  10.8557  10.9718  11.1419  11.1838  11.1978
    11.2665  11.4074  11.4420  11.8869  12.2400  12.2455  12.2982  12.8788
    12.9450  13.0127  13.2930  13.3149  13.3232  13.4447  13.5199  14.1492
    14.1510  14.1520  14.1526  15.0241  15.6591  15.7544  16.0013  16.0585
    16.8182  18.5964  18.7850  21.0385  21.2706

     occupation numbers
     1.0000   1.0000   1.0000   1.0000   1.0000   1.0000   1.0000   1.0000
     1.0000   1.0000   1.0000   1.0000   1.0000   1.0000   1.0000   1.0000
     1.0000   1.0000   1.0000   1.0000   1.0000   1.0000   1.0000   1.0000
     1.0000   1.0000   1.0000   1.0000   1.0000   1.0000   1.0000   1.0000
     1.0000   1.0000   1.0000   1.0000   1.0000   1.0000   1.0000   1.0000
     1.0000   1.0000   1.0000   1.0000   1.0000   1.0000   1.0000   0.9482
     0.8863   0.8471   0.8185  -0.0000  -0.0000  -0.0000  -0.0000  -0.0000
    -0.0000  -0.0000  -0.0000  -0.0000  -0.0000

     the Fermi energy is    14.1582 ev

!    total energy              =   -1791.57616805 Ry
     estimated scf accuracy    <          4.4E-09 Ry
     smearing contrib. (-TS)   =      -0.00040141 Ry
     internal energy E=F+TS    =   -1791.57576664 Ry

     The total energy is F=E-TS. E is the sum of the following terms:
     one-electron contribution =   -1281.56968562 Ry
     hartree contribution      =     692.30991450 Ry
     xc contribution           =    -190.64229570 Ry
     ewald contribution        =   -1011.67369982 Ry

     convergence has been achieved in  53 iterations

     Forces acting on atoms (cartesian axes, Ry/au):

     atom    1 type  1   force =     0.00665621    0.00391898    0.01015406
     atom    2 type  2   force =     0.02314022    0.01360415    0.04672157
     atom    3 type  2   force =    -0.01173321   -0.00689721   -0.04529259
     atom    4 type  2   force =    -0.00375178   -0.00219818    0.00780524
     atom    5 type  2   force =     0.00525811   -0.01837558    0.00383800
     atom    6 type  2   force =    -0.01349276    0.01351464    0.00382931
     atom    7 type  3   force =    -0.00607679   -0.00356681   -0.02705558
     The non-local contrib.  to forces
     atom    1 type  1   force =     0.03440006    0.02023169    0.02983044
     atom    2 type  2   force =     0.06590606    0.03874864   -0.53115892
     atom    3 type  2   force =    -0.11320859   -0.06658918    0.70358475
     atom    4 type  2   force =     0.03339410    0.01964840   -0.16348789
     atom    5 type  2   force =     0.02279905    0.17268545   -0.03078810
     atom    6 type  2   force =     0.16202729   -0.06403369   -0.03080012
     atom    7 type  3   force =     0.01161835    0.00683352    0.00188530
     The ionic contribution  to forces
     atom    1 type  1   force =     1.21690385    0.71569983    0.99041287
     atom    2 type  2   force =    -2.15134572   -1.26527478    0.19976396
     atom    3 type  2   force =     1.39513161    0.82052123    2.25032156
     atom    4 type  2   force =    -1.17368146   -0.69027936   -1.36565408
     atom    5 type  2   force =     0.60251115    3.41957964   -0.62660115
     atom    6 type  2   force =     3.28139787   -1.13532933   -0.62660115
     atom    7 type  3   force =    -3.17091731   -1.86491723   -0.82164202
     The local contribution  to forces
     atom    1 type  1   force =    -1.24385921   -0.73155117   -1.00923625
     atom    2 type  2   force =     2.11064735    1.24135132    0.36889374
     atom    3 type  2   force =    -1.29497962   -0.76161090   -2.98994064
     atom    4 type  2   force =     1.13774910    0.66913375    1.53533037
     atom    5 type  2   force =    -0.61780284   -3.60983414    0.66194209
     atom    6 type  2   force =    -3.45514189    1.21446105    0.66195181
     atom    7 type  3   force =     3.15322660    1.85451598    0.79269435
     The core correction contribution to forces
     atom    1 type  1   force =    -0.00078660   -0.00046258   -0.00084699
     atom    2 type  2   force =    -0.00199894   -0.00117524    0.00922492
     atom    3 type  2   force =     0.00125332    0.00073747   -0.00922795
     atom    4 type  2   force =    -0.00122243   -0.00071919    0.00160566
     atom    5 type  2   force =    -0.00224415   -0.00078937   -0.00072769
     atom    6 type  2   force =    -0.00178146   -0.00157640   -0.00072731
     atom    7 type  3   force =     0.00000000    0.00000000    0.00000000
     The Hubbard contrib.    to forces
     atom    1 type  1   force =     0.00000000    0.00000000    0.00000000
     atom    2 type  2   force =     0.00000000    0.00000000    0.00000000
     atom    3 type  2   force =     0.00000000    0.00000000    0.00000000
     atom    4 type  2   force =     0.00000000    0.00000000    0.00000000
     atom    5 type  2   force =     0.00000000    0.00000000    0.00000000
     atom    6 type  2   force =     0.00000000    0.00000000    0.00000000
     atom    7 type  3   force =     0.00000000    0.00000000    0.00000000
     The SCF correction term to forces
     atom    1 type  1   force =     0.00000376    0.00000060   -0.00000774
     atom    2 type  2   force =    -0.00006286   -0.00004641   -0.00000386
     atom    3 type  2   force =     0.00007574    0.00004355   -0.00003205
     atom    4 type  2   force =     0.00001457    0.00001760    0.00000944
     atom    5 type  2   force =     0.00000055   -0.00001778    0.00001113
     atom    6 type  2   force =     0.00001109   -0.00000761    0.00000436
     atom    7 type  3   force =     0.00000122    0.00000030    0.00000506

     Total force =     0.083209     Total SCF correction =     0.000127

     Computing stress (Cartesian axis) and pressure

          total   stress  (Ry/bohr**3)                   (kbar)     P=    -1170.97
  -0.00819419  -0.00024533   0.00025791        -1205.41      -36.09       37.94
  -0.00024533  -0.00792135   0.00015169          -36.09    -1165.27       22.31
   0.00025791   0.00015169  -0.00776482           37.94       22.31    -1142.25

     kinetic stress (kbar)  43947.06   -137.73     65.98
                             -137.73  44100.21     38.78
                               65.98     38.78  44009.87

     local   stress (kbar)   -413.84  -3404.82    -65.65
                            -3404.82   3373.01    -38.53
                              -65.65    -38.53 -66030.16

     nonloc. stress (kbar)  18185.93    -59.48     33.79
                              -59.48  18252.04     19.85
                               33.79     19.85  18029.28

     hartree stress (kbar)  49047.33   1574.16     99.00
                             1574.16  47296.56     58.20
                               99.00     58.20  79426.77

     exc-cor stress (kbar) -12585.37     -2.83      0.19
                               -2.83 -12582.22      0.11
                                0.19      0.11 -12571.24

     corecor stress (kbar)  -2716.20      0.35     -0.35
                                0.35  -2716.59     -0.21
                               -0.35     -0.21  -2711.38

     ewald   stress (kbar) -96670.32   1994.27    -95.02
                             1994.27 -98888.28    -55.89
                              -95.02    -55.89 -61295.38

     hubbard stress (kbar)      0.00      0.00      0.00
                                0.00      0.00      0.00
                                0.00      0.00      0.00

     DFT-D   stress (kbar)      0.00      0.00      0.00
                                0.00      0.00      0.00
                                0.00      0.00      0.00

     XDM     stress (kbar)      0.00      0.00      0.00
                                0.00      0.00      0.00
                                0.00      0.00      0.00

     dft-nl  stress (kbar)      0.00      0.00      0.00
                                0.00      0.00      0.00
                                0.00      0.00      0.00

     TS-vdW  stress (kbar)      0.00      0.00      0.00
                                0.00      0.00      0.00
                                0.00      0.00      0.00

[...]

                                0.00      0.00      0.00

     Writing all to output data dir new_calculations/myprefix.save/

     General routines

     Parallel routines

   This run was terminated on:   5:59:40  21May2023

   JOB DONE.