     Program PWSCF v.7.0 starts on 20May2023 at 16:50:54

     Reading input from espresso_15245.pwi
Warning: card &CELL ignored
Warning: card / ignored

     Current dimensions of program PWSCF are:
     Max number of different atomic species (ntypx) = 10
     Max number of k-points (npk) =  40000
     Max angular momentum in pseudopotentials (lmaxx) =  4

     gamma-point specific algorithms are used
     Message from routine setup:
     using ibrav=0 with symmetry is DISCOURAGED, use correct ibrav instead

     Subspace diagonalization in iterative solution of the eigenvalue problem:
     a serial algorithm will be used

     Using Slab Decomposition

     bravais-lattice index     =            0
     lattice parameter (alat)  =      17.3674  a.u.
     unit-cell volume          =    2619.3609 (a.u.)^3
     number of atoms/cell      =            4
     number of atomic types    =            2
     number of electrons       =        36.00
     number of Kohn-Sham states=           22
     kinetic-energy cutoff     =      30.0000  Ry
     charge density cutoff     =     240.0000  Ry
     scf convergence threshold =      1.0E-06
     mixing beta               =       0.7000
     number of iterations used =            8  plain     mixing
     Exchange-correlation= PBE
                           (   1   4   3   4   0   0   0)

     celldm(1)=  17.367387  celldm(2)=   0.000000  celldm(3)=   0.000000
     celldm(4)=   0.000000  celldm(5)=   0.000000  celldm(6)=   0.000000

     crystal axes: (cart. coord. in units of alat)
               a(1) = (   1.000000   0.000000   0.000000 )
               a(2) = (   0.402994   0.915203   0.000000 )
               a(3) = (  -0.701497  -0.457601   0.546354 )

     reciprocal axes: (cart. coord. in units 2 pi/alat)
               b(1) = (  1.000000 -0.440332  0.915157 )
               b(2) = (  0.000000  1.092654  0.915157 )
               b(3) = (  0.000000  0.000000  1.830313 )

     PseudoPot. # 1 for Cs read from file:
     /home/pragov/projects/rrg-bengioy-ad/pragov/crystal_structure_design/SSSP/Cs_pbe_v1.uspp.F.UPF
     MD5 check sum: 3476d69cb178dfad3ffaa59df4e07ca4
     Pseudo is Ultrasoft + core correction, Zval =  9.0
     Generated by new atomic code, or converted to UPF format
     Using radial grid of  905 points,  6 beta functions with:
                l(1) =   0
                l(2) =   0
                l(3) =   1
                l(4) =   1
                l(5) =   2
                l(6) =   2
     Q(r) pseudized with  6 coefficients,  rinner =    1.500   1.500   1.500
                                                       1.500   1.500

     PseudoPot. # 2 for Rb read from file:
     /home/pragov/projects/rrg-bengioy-ad/pragov/crystal_structure_design/SSSP/Rb_ONCV_PBE-1.0.oncvpsp.upf
     MD5 check sum: 55a5172d6bfbce6759a58e35d43f6aa9
     Pseudo is Norm-conserving, Zval =  9.0
     Generated using ONCVPSP code by D. R. Hamann
     Using radial grid of 2308 points,  6 beta functions with:
                l(1) =   0
                l(2) =   0
                l(3) =   1
                l(4) =   1
                l(5) =   2
                l(6) =   2

     atomic species   valence    mass     pseudopotential
        Cs             9.00   132.90545     Cs( 1.00)
        Rb             9.00    85.46780     Rb( 1.00)

      4 Sym. Ops., with inversion, found

                                    s                        frac. trans.

      isym =  1     identity

 cryst.   s( 1) = (     1          0          0      )
                  (     0          1          0      )
                  (     0          0          1      )

 cart.    s( 1) = (  1.0000000  0.0000000 -0.0000000 )
                  (  0.0000000  1.0000000  0.0000000 )
                  (  0.0000000  0.0000000  1.0000000 )

      isym =  2     180 deg rotation - cart. axis [0,0,1]

[...]

      isym =  3     inversion

[...]

      isym =  4     inv. 180 deg rotation - cart. axis [0,0,1]

 cryst.   s( 4) = (     1          0          0      )
                  (     0          1          0      )
                  (    -1         -1         -1      )

 cart.    s( 4) = (  1.0000000  0.0000000  0.0000000 )
                  (  0.0000000  1.0000000  0.0000000 )
                  (  0.0000000  0.0000000 -1.0000000 )

   Cartesian axes

     site n.     atom                  positions (alat units)
         1           Cs  tau(   1) = (   0.0000000   0.0000000   0.0000000  )
         2           Rb  tau(   2) = (   0.5000000  -0.0000000   0.2731772  )
         3           Rb  tau(   3) = (   0.2014968   0.4576014   0.2731772  )
         4           Rb  tau(   4) = (   0.7014968   0.4576014   0.0000000  )

   Crystallographic axes

     site n.     atom                  positions (cryst. coord.)
         1           Cs  tau(   1) = (  0.0000000  0.0000000  0.0000000  )
         2           Rb  tau(   2) = (  0.7500000  0.2500000  0.5000000  )
         3           Rb  tau(   3) = (  0.2500000  0.7500000  0.5000000  )
         4           Rb  tau(   4) = (  0.5000000  0.5000000  0.0000000  )

     number of k points=     1  Methfessel-Paxton smearing, width (Ry)=  0.0010
                       cart. coord. in units 2pi/alat
        k(    1) = (   0.0000000   0.0000000   0.0000000), wk =   2.0000000

                       cryst. coord.
        k(    1) = (   0.0000000   0.0000000   0.0000000), wk =   2.0000000

     Initial potential from superposition of free atoms

     starting charge      35.8863, renormalised to      36.0000
     Starting wfcs are   28 randomized atomic wfcs

     Self-consistent Calculation

     iteration #  1     ecut=    30.00 Ry     beta= 0.70
     Davidson diagonalization with overlap

     ethr =  1.00E-02,  avg # of iterations =  3.0

     Threshold (ethr) on eigenvalues was too large:
     Diagonalizing with lowered threshold

     Davidson diagonalization with overlap

[...]

     total energy              =    -209.92392846 Ry
     estimated scf accuracy    <       0.02265525 Ry

[...]

     total energy              =    -209.92695905 Ry
     estimated scf accuracy    <       0.00000593 Ry

     iteration #  6     ecut=    30.00 Ry     beta= 0.70
     Davidson diagonalization with overlap

     ethr =  1.65E-08,  avg # of iterations =  2.0

     End of self-consistent calculation

          k = 0.0000 0.0000 0.0000 (  3615 PWs)   bands (ev):

   -27.0684 -27.0564 -26.9111 -21.4318 -11.1742 -11.1600 -11.1241 -11.1199
   -11.0920 -11.0891 -11.0378 -10.9648 -10.9619  -8.5969  -8.3715  -8.3095
     0.1959   2.3141   2.9409   3.1182   3.3746   3.5052

     occupation numbers
     1.0000   1.0000   1.0000   1.0000   1.0000   1.0000   1.0000   1.0000
     1.0000   1.0000   1.0000   1.0000   1.0000   1.0000   1.0000   1.0000
     1.0000   1.0000  -0.0000  -0.0000  -0.0000  -0.0000

     the Fermi energy is     2.6774 ev

!    total energy              =    -209.92695994 Ry
     estimated scf accuracy    <       0.00000007 Ry
     smearing contrib. (-TS)   =       0.00000000 Ry
     internal energy E=F+TS    =    -209.92695994 Ry

     The total energy is F=E-TS. E is the sum of the following terms:
     one-electron contribution =    -104.74595168 Ry
     hartree contribution      =      54.89316343 Ry
     xc contribution           =     -52.32700417 Ry
     ewald contribution        =    -107.74716753 Ry

     convergence has been achieved in   6 iterations

     Forces acting on atoms (cartesian axes, Ry/au):

     atom    1 type  1   force =     0.00000000    0.00000000   -0.00000000
     atom    2 type  2   force =     0.00000000    0.00000000   -0.00002432
     atom    3 type  2   force =     0.00000000    0.00000000    0.00002432
     atom    4 type  2   force =     0.00000000    0.00000000    0.00000000
     The non-local contrib.  to forces
     atom    1 type  1   force =     0.00000000    0.00000000    0.00000000
     atom    2 type  2   force =     0.00000000    0.00000000    0.00000127
     atom    3 type  2   force =     0.00000000    0.00000000   -0.00000127
     atom    4 type  2   force =     0.00000000    0.00000000   -0.00000000
     The ionic contribution  to forces
     atom    1 type  1   force =    -0.00000000    0.00000000    0.00000000
     atom    2 type  2   force =    -0.00000000    0.00000000   -0.00000000
     atom    3 type  2   force =     0.00000000   -0.00000000   -0.00000000
     atom    4 type  2   force =     0.00000000   -0.00000000    0.00000000
     The local contribution  to forces
     atom    1 type  1   force =    -0.00003409   -0.00002682   -0.00002203
     atom    2 type  2   force =    -0.00005854   -0.00006051   -0.00002792
     atom    3 type  2   force =     0.00007655    0.00007155    0.00003405
     atom    4 type  2   force =     0.00000723    0.00000155    0.00001570
     The core correction contribution to forces
     atom    1 type  1   force =    -0.00000081   -0.00000141    0.00000017
     atom    2 type  2   force =     0.00000000    0.00000000    0.00000000
     atom    3 type  2   force =     0.00000000    0.00000000    0.00000000
     atom    4 type  2   force =     0.00000000    0.00000000    0.00000000
     The Hubbard contrib.    to forces
     atom    1 type  1   force =     0.00000000    0.00000000    0.00000000
     atom    2 type  2   force =     0.00000000    0.00000000    0.00000000
     atom    3 type  2   force =     0.00000000    0.00000000    0.00000000
     atom    4 type  2   force =     0.00000000    0.00000000    0.00000000
     The SCF correction term to forces
     atom    1 type  1   force =     0.00002880    0.00002212    0.00001664
     atom    2 type  2   force =    -0.00000100    0.00000308    0.00000161
     atom    3 type  2   force =    -0.00002243   -0.00000898   -0.00000918
     atom    4 type  2   force =    -0.00000083   -0.00000812   -0.00001340

     Total force =     0.000034     Total SCF correction =     0.000050
     SCF correction compared to forces is large: reduce conv_thr to get better values

     Computing stress (Cartesian axis) and pressure

          total   stress  (Ry/bohr**3)                   (kbar)     P=        1.89
   0.00003623   0.00005077   0.00000000            5.33        7.47        0.00
   0.00005077  -0.00002778   0.00000000            7.47       -4.09        0.00
   0.00000000   0.00000000   0.00003012            0.00        0.00        4.43

     kinetic stress (kbar)   1999.59     -0.30      0.00
                               -0.30   1999.30      0.00
                                0.00      0.00   2007.16

     local   stress (kbar)  -1146.92     60.11      1.61
                               60.11  -1203.92      2.35
                                1.61      2.35  -1240.47

     nonloc. stress (kbar)    772.08      4.48      0.00
                                4.48    770.36      0.00
                                0.00      0.00    772.04

     hartree stress (kbar)    998.05    -36.97      0.06
                              -36.97   1030.76     -0.28
                                0.06     -0.28   1054.03

     exc-cor stress (kbar)    760.96     -0.60     -0.02
                               -0.60    761.52     -0.02
                               -0.02     -0.02    761.88

     corecor stress (kbar)  -1346.14     -0.31      0.42
                               -0.31  -1346.49      0.07
                                0.42      0.07  -1346.95

     ewald   stress (kbar)  -2032.29    -18.94      0.00
                              -18.94  -2015.61      0.00
                                0.00      0.00  -2003.26

     hubbard stress (kbar)      0.00      0.00      0.00
                                0.00      0.00      0.00
                                0.00      0.00      0.00

     DFT-D   stress (kbar)      0.00      0.00      0.00
                                0.00      0.00      0.00
                                0.00      0.00      0.00

     XDM     stress (kbar)      0.00      0.00      0.00
                                0.00      0.00      0.00
                                0.00      0.00      0.00

     dft-nl  stress (kbar)      0.00      0.00      0.00
                                0.00      0.00      0.00
                                0.00      0.00      0.00

     TS-vdW  stress (kbar)      0.00      0.00      0.00
                                0.00      0.00      0.00
                                0.00      0.00      0.00

[...]

                                0.00      0.00      0.00

     Writing all to output data dir new_calculations/myprefix.save/

     General routines

     Parallel routines

   This run was terminated on:  16:51:16  20May2023

   JOB DONE.