     Program PWSCF v.7.0 starts on 20May2023 at 18:28: 5

     Reading input from espresso_16540.pwi
Warning: card &CELL ignored
Warning: card / ignored

     Current dimensions of program PWSCF are:
     Max number of different atomic species (ntypx) = 10
     Max number of k-points (npk) =  40000
     Max angular momentum in pseudopotentials (lmaxx) =  4
     file Nb.pbe-spn-kjpaw_psl.0.3.0.UPF: wavefunction(s)  4S 4P renormalized

     gamma-point specific algorithms are used
     Message from routine setup:
     using ibrav=0 with symmetry is DISCOURAGED, use correct ibrav instead

     Subspace diagonalization in iterative solution of the eigenvalue problem:
     a serial algorithm will be used

     Using Slab Decomposition

     bravais-lattice index     =            0
     lattice parameter (alat)  =      10.0382  a.u.
     unit-cell volume          =    1011.5017 (a.u.)^3
     number of atoms/cell      =            8
     number of atomic types    =            2
     number of electrons       =       108.00
     number of Kohn-Sham states=           65
     kinetic-energy cutoff     =      30.0000  Ry
     charge density cutoff     =     240.0000  Ry
     scf convergence threshold =      1.0E-06
     mixing beta               =       0.7000
     number of iterations used =            8  plain     mixing
     Exchange-correlation=  SLA  PW   PBX  PBC
                           (   1   4   3   4   0   0   0)

     celldm(1)=  10.038193  celldm(2)=   0.000000  celldm(3)=   0.000000
     celldm(4)=   0.000000  celldm(5)=   0.000000  celldm(6)=   0.000000

     crystal axes: (cart. coord. in units of alat)
               a(1) = (   1.000000   0.000000   0.000000 )
               a(2) = (   0.000000   1.000000   0.000000 )
               a(3) = (   0.000000   0.000000   1.000000 )

     reciprocal axes: (cart. coord. in units 2 pi/alat)
               b(1) = (  1.000000  0.000000  0.000000 )
               b(2) = (  0.000000  1.000000  0.000000 )
               b(3) = (  0.000000  0.000000  1.000000 )

     PseudoPot. # 1 for Nb read from file:
     /home/pragov/projects/rrg-bengioy-ad/pragov/crystal_structure_design/SSSP/Nb.pbe-spn-kjpaw_psl.0.3.0.UPF
     MD5 check sum: 411d72ad547312f8017e2943ceca08cc
     Pseudo is Projector augmented-wave + core cor, Zval = 13.0
     Generated using "atomic" code by A. Dal Corso  v.5.0.99 svn rev. 10869
     Shape of augmentation charge: PSQ
     Using radial grid of 1227 points,  6 beta functions with:
                l(1) =   0
                l(2) =   0
                l(3) =   1
                l(4) =   1
                l(5) =   2
                l(6) =   2
     Q(r) pseudized with 0 coefficients

     PseudoPot. # 2 for Sb read from file:
     /home/pragov/projects/rrg-bengioy-ad/pragov/crystal_structure_design/SSSP/sb_pbe_v1.4.uspp.F.UPF
     MD5 check sum: 9bc50dfb53373b713f5709b9110fe27f
     Pseudo is Ultrasoft + core correction, Zval = 15.0
     Generated by new atomic code, or converted to UPF format
     Using radial grid of  891 points,  6 beta functions with:
                l(1) =   0
                l(2) =   0
                l(3) =   1
                l(4) =   1
                l(5) =   2
                l(6) =   2
     Q(r) pseudized with  8 coefficients,  rinner =    1.350   1.350   1.350
                                                       1.350   1.350

     atomic species   valence    mass     pseudopotential
        Nb            13.00    92.90637     Nb( 1.00)
        Sb            15.00   121.76000     Sb( 1.00)

     48 Sym. Ops., with inversion, found (24 have fractional translation)

                                    s                        frac. trans.

      isym =  1     identity

 cryst.   s( 1) = (     1          0          0      )
                  (     0          1          0      )
                  (     0          0          1      )

 cart.    s( 1) = (  1.0000000  0.0000000  0.0000000 )
                  (  0.0000000  1.0000000  0.0000000 )
                  (  0.0000000  0.0000000  1.0000000 )

      isym =  2     180 deg rotation - cart. axis [0,0,1]

[...]

 cryst.   s( 4) = (     1          0          0      )
                  (     0         -1          0      )
                  (     0          0         -1      )

 cart.    s( 4) = (  1.0000000  0.0000000  0.0000000 )
                  (  0.0000000 -1.0000000  0.0000000 )
                  (  0.0000000  0.0000000 -1.0000000 )

[...]

 cryst.   s( 5) = (     0          1          0      )    f =( -0.5000000 )
                  (     1          0          0      )       ( -0.5000000 )
                  (     0          0         -1      )       (  0.5000000 )

 cart.    s( 5) = (  0.0000000  1.0000000  0.0000000 )    f =( -0.5000000 )
                  (  1.0000000  0.0000000  0.0000000 )       ( -0.5000000 )
                  (  0.0000000  0.0000000 -1.0000000 )       (  0.5000000 )

[...]

 cryst.   s( 9) = (     0          0          1      )    f =( -0.5000000 )
                  (     0         -1          0      )       (  0.5000000 )
                  (     1          0          0      )       (  0.5000000 )

 cart.    s( 9) = (  0.0000000  0.0000000  1.0000000 )    f =( -0.5000000 )
                  (  0.0000000 -1.0000000  0.0000000 )       (  0.5000000 )
                  (  1.0000000  0.0000000  0.0000000 )       (  0.5000000 )

[...]

 cryst.   s(10) = (     0          0         -1      )    f =(  0.5000000 )
                  (     0         -1          0      )       (  0.5000000 )
                  (    -1          0          0      )       (  0.5000000 )

 cart.    s(10) = (  0.0000000  0.0000000 -1.0000000 )    f =(  0.5000000 )
                  (  0.0000000 -1.0000000  0.0000000 )       (  0.5000000 )
                  ( -1.0000000  0.0000000  0.0000000 )       (  0.5000000 )

[...]

 cryst.   s(17) = (     0          0          1      )
                  (     1          0          0      )
                  (     0          1          0      )

 cart.    s(17) = (  0.0000000  1.0000000  0.0000000 )
                  (  0.0000000  0.0000000  1.0000000 )
                  (  1.0000000  0.0000000  0.0000000 )

[...]

      isym = 24     120 deg rotation - cart. axis [-1,-1,1]

[...]

      isym = 25     inversion

[...]

      isym = 26     inv. 180 deg rotation - cart. axis [0,0,1]

[...]

 cryst.   s(40) = (    -1          0          0      )    f =(  0.5000000 )
                  (     0          0         -1      )       ( -0.5000000 )
                  (     0          1          0      )       (  0.5000000 )

 cart.    s(40) = ( -1.0000000  0.0000000  0.0000000 )    f =(  0.5000000 )
                  (  0.0000000  0.0000000  1.0000000 )       ( -0.5000000 )
                  (  0.0000000 -1.0000000  0.0000000 )       (  0.5000000 )

[...]

      isym = 48     inv. 120 deg rotation - cart. axis [-1,-1,1]

 cryst.   s(48) = (     0         -1          0      )
                  (     0          0          1      )
                  (     1          0          0      )

 cart.    s(48) = (  0.0000000  0.0000000  1.0000000 )
                  ( -1.0000000  0.0000000  0.0000000 )
                  (  0.0000000  1.0000000  0.0000000 )

   Cartesian axes

     site n.     atom                  positions (alat units)
         1           Nb  tau(   1) = (   0.2500000   0.0000000   0.5000000  )
         2           Nb  tau(   2) = (   0.7500000   0.0000000   0.5000000  )
         3           Nb  tau(   3) = (   0.0000000   0.5000000   0.2500000  )
         4           Nb  tau(   4) = (   0.0000000   0.5000000   0.7500000  )
         5           Nb  tau(   5) = (   0.5000000   0.7500000   0.0000000  )
         6           Nb  tau(   6) = (   0.5000000   0.2500000   0.0000000  )
         7           Sb  tau(   7) = (   0.0000000   0.0000000   0.0000000  )
         8           Sb  tau(   8) = (   0.5000000   0.5000000   0.5000000  )

   Crystallographic axes

     site n.     atom                  positions (cryst. coord.)
         1           Nb  tau(   1) = (  0.2500000  0.0000000  0.5000000  )
         2           Nb  tau(   2) = (  0.7500000  0.0000000  0.5000000  )
         3           Nb  tau(   3) = (  0.0000000  0.5000000  0.2500000  )
         4           Nb  tau(   4) = (  0.0000000  0.5000000  0.7500000  )
         5           Nb  tau(   5) = (  0.5000000  0.7500000  0.0000000  )
         6           Nb  tau(   6) = (  0.5000000  0.2500000  0.0000000  )
         7           Sb  tau(   7) = (  0.0000000  0.0000000  0.0000000  )
         8           Sb  tau(   8) = (  0.5000000  0.5000000  0.5000000  )

     number of k points=     1  Methfessel-Paxton smearing, width (Ry)=  0.0010
                       cart. coord. in units 2pi/alat
        k(    1) = (   0.0000000   0.0000000   0.0000000), wk =   2.0000000

                       cryst. coord.
        k(    1) = (   0.0000000   0.0000000   0.0000000), wk =   2.0000000

     Check: negative core charge=   -0.000019

     Initial potential from superposition of free atoms

     starting charge     105.9872, renormalised to     108.0000
     Starting wfcs are   78 randomized atomic wfcs
     Checking if some PAW data can be deallocated...

     Self-consistent Calculation

     iteration #  1     ecut=    30.00 Ry     beta= 0.70
     Davidson diagonalization with overlap

     ethr =  1.00E-02,  avg # of iterations =  2.0

     total energy              =   -2375.76507838 Ry
     estimated scf accuracy    <       1.37197795 Ry

[...]

     total energy              =   -2376.10117108 Ry
     estimated scf accuracy    <       0.00000506 Ry

     iteration # 10     ecut=    30.00 Ry     beta= 0.70
     Davidson diagonalization with overlap

     ethr =  4.69E-09,  avg # of iterations =  3.0

     End of self-consistent calculation

          k = 0.0000 0.0000 0.0000 (  1401 PWs)   bands (ev):

   -37.0344 -36.9669 -36.9669 -36.7576 -36.7576 -36.7575 -13.9399 -13.9399
   -13.7865 -13.2276 -13.2276 -13.2275 -12.9253 -12.9253 -12.9253 -12.8672
   -12.8672 -12.8672 -12.8036 -12.8036 -12.8036 -12.2200 -12.2199 -12.2198
   -11.9999 -11.9998 -11.9800 -11.9800 -11.9385 -11.9385 -11.9385 -11.9281
   -11.9281 -11.9281   6.3767   7.3520  13.1660  13.1660  13.1660  13.4319
    13.4319  13.4320  14.7241  14.7242  15.2360  15.4876  15.4877  15.4878
    16.1753  16.8601  16.8602  16.8602  17.4782  17.4783  18.3535  19.8946
    19.8947  19.8947  20.6497  20.6497  21.0055  21.0055  21.2242  21.2243
    21.2244

     occupation numbers
     1.0000   1.0000   1.0000   1.0000   1.0000   1.0000   1.0000   1.0000
     1.0000   1.0000   1.0000   1.0000   1.0000   1.0000   1.0000   1.0000
     1.0000   1.0000   1.0000   1.0000   1.0000   1.0000   1.0000   1.0000
     1.0000   1.0000   1.0000   1.0000   1.0000   1.0000   1.0000   1.0000
     1.0000   1.0000   1.0000   1.0000   1.0000   1.0000   1.0000   1.0000
     1.0000   1.0000   1.0000   1.0000   1.0000   1.0000   1.0000   1.0000
     1.0000   1.0000   1.0000   1.0000   1.0000   1.0000  -0.0000  -0.0000
    -0.0000  -0.0000  -0.0000  -0.0000  -0.0000  -0.0000  -0.0000  -0.0000
    -0.0000

     the Fermi energy is    17.7023 ev

!    total energy              =   -2376.10117143 Ry
     estimated scf accuracy    <       0.00000035 Ry
     smearing contrib. (-TS)   =       0.00000000 Ry
     internal energy E=F+TS    =   -2376.10117143 Ry

     The total energy is F=E-TS. E is the sum of the following terms:
     one-electron contribution =    -193.70098236 Ry
     hartree contribution      =     169.33279987 Ry
     xc contribution           =    -261.99617761 Ry
     ewald contribution        =    -838.85770317 Ry
     one-center paw contrib.   =   -1250.87910816 Ry
      -> PAW hartree energy AE =     415.19821769 Ry
      -> PAW hartree energy PS =    -412.98956569 Ry
      -> PAW xc energy AE      =   -1415.53689323 Ry
      -> PAW xc energy PS      =     162.44913308 Ry
      -> total E_H with PAW    =     171.54145187 Ry
      -> total E_XC with PAW   =   -1515.08393777 Ry

     convergence has been achieved in  10 iterations

     Forces acting on atoms (cartesian axes, Ry/au):

     atom    1 type  1   force =     0.00000000   -0.00000000    0.00000000
     atom    2 type  1   force =    -0.00000000    0.00000000    0.00000000
     atom    3 type  1   force =     0.00000000    0.00000000   -0.00000000
     atom    4 type  1   force =     0.00000000    0.00000000   -0.00000000
     atom    5 type  1   force =     0.00000000   -0.00000000    0.00000000
     atom    6 type  1   force =     0.00000000    0.00000000    0.00000000
     atom    7 type  2   force =     0.00000000    0.00000000    0.00000000
     atom    8 type  2   force =     0.00000000    0.00000000    0.00000000
     The non-local contrib.  to forces
     atom    1 type  1   force =     0.00000000    0.00000000    0.00000000
     atom    2 type  1   force =    -0.00000000    0.00000000    0.00000000
     atom    3 type  1   force =     0.00000000   -0.00000000    0.00000000
     atom    4 type  1   force =     0.00000000   -0.00000000    0.00000000
     atom    5 type  1   force =    -0.00000000   -0.00000000    0.00000000
     atom    6 type  1   force =    -0.00000000    0.00000000    0.00000000
     atom    7 type  2   force =     0.00000000    0.00000000    0.00000000
     atom    8 type  2   force =     0.00000000    0.00000000    0.00000000
     The ionic contribution  to forces
     atom    1 type  1   force =    -0.00000000   -0.00000000    0.00000000
     atom    2 type  1   force =     0.00000000   -0.00000000    0.00000000
     atom    3 type  1   force =    -0.00000000    0.00000000   -0.00000000
     atom    4 type  1   force =    -0.00000000    0.00000000    0.00000000
     atom    5 type  1   force =     0.00000000    0.00000000   -0.00000000
     atom    6 type  1   force =     0.00000000   -0.00000000   -0.00000000
     atom    7 type  2   force =    -0.00000000   -0.00000000   -0.00000000
     atom    8 type  2   force =     0.00000000    0.00000000    0.00000000
     The local contribution  to forces
     atom    1 type  1   force =    -0.00065419   -0.00036714   -0.00009181
     atom    2 type  1   force =     0.00054674   -0.00038259   -0.00010466
     atom    3 type  1   force =     0.00025370    0.00034520    0.00057673
     atom    4 type  1   force =     0.00022102    0.00037503   -0.00063148
     atom    5 type  1   force =    -0.00024926   -0.00044592    0.00005372
     atom    6 type  1   force =    -0.00028957    0.00041985    0.00010664
     atom    7 type  2   force =     0.00023340   -0.00049724    0.00002454
     atom    8 type  2   force =    -0.00019747    0.00051556   -0.00008681
     The core correction contribution to forces
     atom    1 type  1   force =    -0.00001212   -0.00000168   -0.00000052
     atom    2 type  1   force =     0.00000630   -0.00000172   -0.00000080
     atom    3 type  1   force =     0.00000109    0.00000184    0.00000703
     atom    4 type  1   force =     0.00000009    0.00000135   -0.00000979
     atom    5 type  1   force =    -0.00000232   -0.00000547   -0.00000034
     atom    6 type  1   force =    -0.00000269    0.00000546    0.00000060
     atom    7 type  2   force =     0.00000414   -0.00000474   -0.00000375
     atom    8 type  2   force =    -0.00000323    0.00000489    0.00000142
     The Hubbard contrib.    to forces
     atom    1 type  1   force =     0.00000000    0.00000000    0.00000000
     atom    2 type  1   force =     0.00000000    0.00000000    0.00000000
     atom    3 type  1   force =     0.00000000    0.00000000    0.00000000
     atom    4 type  1   force =     0.00000000    0.00000000    0.00000000
     atom    5 type  1   force =     0.00000000    0.00000000    0.00000000
     atom    6 type  1   force =     0.00000000    0.00000000    0.00000000
     atom    7 type  2   force =     0.00000000    0.00000000    0.00000000
     atom    8 type  2   force =     0.00000000    0.00000000    0.00000000
     The SCF correction term to forces
     atom    1 type  1   force =     0.00044684    0.00031601    0.00014142
     atom    2 type  1   force =    -0.00040818    0.00033267    0.00013423
     atom    3 type  1   force =    -0.00020709   -0.00027608   -0.00048794
     atom    4 type  1   force =    -0.00018345   -0.00032245    0.00051185
     atom    5 type  1   force =     0.00019991    0.00038799   -0.00011973
     atom    6 type  1   force =     0.00022781   -0.00035342   -0.00016321
     atom    7 type  2   force =    -0.00024958    0.00052628   -0.00004219
     atom    8 type  2   force =     0.00020878   -0.00055477    0.00012839

     Total force =     0.000000     Total SCF correction =     0.001578

     Computing stress (Cartesian axis) and pressure

          total   stress  (Ry/bohr**3)                   (kbar)     P=     -280.27
  -0.00190525   0.00000000   0.00000000         -280.27        0.00        0.00
   0.00000000  -0.00190525   0.00000000            0.00     -280.27        0.00
   0.00000000   0.00000000  -0.00190525            0.00        0.00     -280.27

     kinetic stress (kbar)  32082.38      0.00      0.00
                                0.00  32082.38      0.00
                                0.00      0.00  32082.38

     local   stress (kbar)  -1631.33      0.00      0.00
                                0.00  -1631.38      0.00
                                0.00      0.00  -1631.27

     nonloc. stress (kbar)   9424.76      0.00      0.00
                                0.00   9424.76      0.00
                                0.00      0.00   9424.76

     hartree stress (kbar)   8208.82      0.00     -0.00
                                0.00   8208.84      0.00
                               -0.00      0.00   8208.81

     exc-cor stress (kbar)  12246.15     -0.00     -0.00
                               -0.00  12246.15     -0.00
                               -0.00     -0.00  12246.15

     corecor stress (kbar) -19945.38      0.00      0.00
                                0.00 -19945.37     -0.00
                                0.00     -0.00 -19945.38

     ewald   stress (kbar) -40665.68      0.00      0.00
                                0.00 -40665.68      0.00
                                0.00      0.00 -40665.68

     hubbard stress (kbar)      0.00      0.00      0.00
                                0.00      0.00      0.00
                                0.00      0.00      0.00

     DFT-D   stress (kbar)      0.00      0.00      0.00
                                0.00      0.00      0.00
                                0.00      0.00      0.00

     XDM     stress (kbar)      0.00      0.00      0.00
                                0.00      0.00      0.00
                                0.00      0.00      0.00

     dft-nl  stress (kbar)      0.00      0.00      0.00
                                0.00      0.00      0.00
                                0.00      0.00      0.00

     TS-vdW  stress (kbar)      0.00      0.00      0.00
                                0.00      0.00      0.00
                                0.00      0.00      0.00

[...]

                                0.00      0.00      0.00

     Writing all to output data dir new_calculations/myprefix.save/

     General routines

     Parallel routines

     PAW routines

   This run was terminated on:  18:28:28  20May2023

   JOB DONE.