     Program PWSCF v.7.0 starts on 21May2023 at 11:28:39

     Reading input from espresso_20588.pwi
Warning: card &CELL ignored
Warning: card / ignored

     Current dimensions of program PWSCF are:
     Max number of different atomic species (ntypx) = 10
     Max number of k-points (npk) =  40000
     Max angular momentum in pseudopotentials (lmaxx) =  4
     file O.pbe-n-kjpaw_psl.0.1.UPF: wavefunction(s)  2P renormalized

     gamma-point specific algorithms are used
     Message from routine setup:
     using ibrav=0 with symmetry is DISCOURAGED, use correct ibrav instead

     Subspace diagonalization in iterative solution of the eigenvalue problem:
     a serial algorithm will be used

     Using Slab Decomposition

     bravais-lattice index     =            0
     lattice parameter (alat)  =      12.5295  a.u.
     unit-cell volume          =    1452.8763 (a.u.)^3
     number of atoms/cell      =           11
     number of atomic types    =            3
     number of electrons       =        90.00
     number of Kohn-Sham states=           54
     kinetic-energy cutoff     =      30.0000  Ry
     charge density cutoff     =     240.0000  Ry
     scf convergence threshold =      1.0E-06
     mixing beta               =       0.7000
     number of iterations used =            8  plain     mixing
     Exchange-correlation= SLA  PW   PBX  PBC
                           (   1   4   3   4   0   0   0)

     celldm(1)=  12.529468  celldm(2)=   0.000000  celldm(3)=   0.000000
     celldm(4)=   0.000000  celldm(5)=   0.000000  celldm(6)=   0.000000

     crystal axes: (cart. coord. in units of alat)
               a(1) = (   1.000000   0.000000   0.000000 )
               a(2) = (  -0.822452   0.568834   0.000000 )
               a(3) = (   0.000000   0.000000   1.298509 )

     reciprocal axes: (cart. coord. in units 2 pi/alat)
               b(1) = (  1.000000  1.445856  0.000000 )
               b(2) = (  0.000000  1.757982  0.000000 )
               b(3) = (  0.000000  0.000000  0.770114 )

     PseudoPot. # 1 for Ce read from file:
     /home/pragov/projects/rrg-bengioy-ad/pragov/crystal_structure_design/SSSP/Ce.GGA-PBE-paw-v1.0.UPF
     MD5 check sum: f2b950f613061344c13339c8d844425d
     Pseudo is Projector augmented-wave + core cor, Zval = 12.0
     Generated using ATOMPAW code
     Shape of augmentation charge: BESSEL
     Using radial grid of 1102 points,  8 beta functions with:
                l(1) =   0
                l(2) =   0
                l(3) =   1
                l(4) =   1
                l(5) =   2
                l(6) =   2
                l(7) =   3
                l(8) =   3
     Q(r) pseudized with 0 coefficients

     PseudoPot. # 2 for Se read from file:
     /home/pragov/projects/rrg-bengioy-ad/pragov/crystal_structure_design/SSSP/Se_pbe_v1.uspp.F.UPF
     MD5 check sum: 1b3568f3a8ae88f9a2a0ad0698632c85
     Pseudo is Ultrasoft + core correction, Zval =  6.0
     Generated by new atomic code, or converted to UPF format
     Using radial grid of  877 points,  6 beta functions with:
                l(1) =   0
                l(2) =   0
                l(3) =   1
                l(4) =   1
                l(5) =   2
                l(6) =   2
     Q(r) pseudized with  8 coefficients,  rinner =    1.300   1.300   1.300
                                                       1.300   1.300

     PseudoPot. # 3 for O  read from file:
     /home/pragov/projects/rrg-bengioy-ad/pragov/crystal_structure_design/SSSP/O.pbe-n-kjpaw_psl.0.1.UPF
     MD5 check sum: 0234752ac141de4415c5fc33072bef88
     Pseudo is Projector augmented-wave + core cor, Zval =  6.0
     Generated using "atomic" code by A. Dal Corso  v.5.0.99 svn rev. 10869
     Shape of augmentation charge: BESSEL
     Using radial grid of 1095 points,  4 beta functions with:
                l(1) =   0
                l(2) =   0
                l(3) =   1
                l(4) =   1
     Q(r) pseudized with 0 coefficients

     atomic species   valence    mass     pseudopotential
        Ce            12.00   140.11600     Ce( 1.00)
        Se             6.00    78.97100     Se( 1.00)
        O              6.00    15.99900     O ( 1.00)

      2 Sym. Ops. (no inversion) found

                                    s                        frac. trans.

      isym =  1     identity

 cryst.   s( 1) = (     1          0          0      )
                  (     0          1          0      )
                  (     0          0          1      )

 cart.    s( 1) = (  1.0000000 -0.0000000  0.0000000 )
                  (  0.0000000  1.0000000  0.0000000 )
                  (  0.0000000  0.0000000  1.0000000 )

      isym =  2     inv. 180 deg rotation - cart. axis [0,0,1]

 cryst.   s( 2) = (     1          0          0      )
                  (     0          1          0      )
                  (     0          0         -1      )

 cart.    s( 2) = (  1.0000000 -0.0000000  0.0000000 )
                  (  0.0000000  1.0000000  0.0000000 )
                  (  0.0000000  0.0000000 -1.0000000 )

   Cartesian axes

     site n.     atom                  positions (alat units)
         1           Ce  tau(   1) = (  -0.2531874   0.3911520   0.3106528  )
         2           Ce  tau(   2) = (   0.9798583   0.0062868   0.6492547  )
         3           Ce  tau(   3) = (  -0.8179362   0.5674246   0.0000000  )
         4           Ce  tau(   4) = (  -0.2531874   0.3911520   0.9878553  )
         5           Se  tau(   5) = (   0.3370429   0.2069260   0.8669874  )
         6           Se  tau(   6) = (   0.3370429   0.2069260   0.4315219  )
         7           Se  tau(   7) = (   0.4409628   0.1744899   0.0000000  )
         8           O   tau(   8) = (  -0.0710151   0.3342913   0.0000000  )
         9           O   tau(   9) = (   0.8367101   0.0509670   0.9780334  )
        10           O   tau(  10) = (   0.8367101   0.0509670   0.3204760  )
        11           O   tau(  11) = (  -0.1246134   0.3510208   0.6492547  )

   Crystallographic axes

     site n.     atom                  positions (cryst. coord.)
         1           Ce  tau(   1) = (  0.3123620  0.6876380  0.2392380  )
         2           Ce  tau(   2) = (  0.9889480  0.0110520  0.5000000  )
         3           Ce  tau(   3) = (  0.0024780  0.9975220  0.0000000  )
         4           Ce  tau(   4) = (  0.3123620  0.6876380  0.7607610  )
         5           Se  tau(   5) = (  0.6362280  0.3637720  0.6676790  )
         6           Se  tau(   6) = (  0.6362280  0.3637720  0.3323210  )
         7           Se  tau(   7) = (  0.6932500  0.3067500  0.0000000  )
         8           O   tau(   8) = (  0.4123220  0.5876780  0.0000000  )
         9           O   tau(   9) = (  0.9104010  0.0895990  0.7531970  )
        10           O   tau(  10) = (  0.9104010  0.0895990  0.2468030  )
        11           O   tau(  11) = (  0.3829120  0.6170880  0.5000000  )

     number of k points=     1  Methfessel-Paxton smearing, width (Ry)=  0.0010
                       cart. coord. in units 2pi/alat
        k(    1) = (   0.0000000   0.0000000   0.0000000), wk =   2.0000000

                       cryst. coord.
        k(    1) = (   0.0000000   0.0000000   0.0000000), wk =   2.0000000

     Check: negative core charge=   -0.000005

     Initial potential from superposition of free atoms

     starting charge      89.9718, renormalised to      90.0000
     Starting wfcs are  156 randomized atomic wfcs
     Checking if some PAW data can be deallocated...

     Self-consistent Calculation

     iteration #  1     ecut=    30.00 Ry     beta= 0.70
     Davidson diagonalization with overlap

     ethr =  1.00E-02,  avg # of iterations =  1.0

     total energy              =   -2221.53980014 Ry
     estimated scf accuracy    <       5.65345915 Ry

[...]

     c_bands:  2 eigenvalues not converged
     ethr =  6.27E-05,  avg # of iterations = 20.0

[...]

     c_bands:  4 eigenvalues not converged
     ethr =  2.13E-05,  avg # of iterations = 20.0

[...]

     total energy              =   -2226.76691478 Ry
     estimated scf accuracy    <       0.00000321 Ry

     iteration # 72     ecut=    30.00 Ry     beta= 0.70
     Davidson diagonalization with overlap

     ethr =  3.56E-09,  avg # of iterations =  7.0

     End of self-consistent calculation

          k = 0.0000 0.0000 0.0000 (  2004 PWs)   bands (ev):

   -23.2364 -23.0917 -23.0560 -22.9846  -9.0811  -8.9729  -8.7736  -7.6392
    -6.3995  -6.0832  -6.0017  -5.9601  -5.8578  -5.8018  -5.7821  -5.6897
    -5.5539  -4.8668  -4.6262  -4.5853  -2.0278  -1.1846  -1.0473   5.3793
     6.0828   6.1138   6.3536   6.4943   6.5340   6.5399   6.6209   6.7735
     6.7785   7.0533   7.4047   7.6199   7.6496   8.7108   8.9596   9.0650
     9.2929   9.5761   9.6686  11.9364  11.9758  11.9990  12.0299  12.0679
    12.0918  12.1278  12.1357  12.1753  12.1771  12.2037

     occupation numbers
     1.0000   1.0000   1.0000   1.0000   1.0000   1.0000   1.0000   1.0000
     1.0000   1.0000   1.0000   1.0000   1.0000   1.0000   1.0000   1.0000
     1.0000   1.0000   1.0000   1.0000   1.0000   1.0000   1.0000   1.0000
     1.0000   1.0000   1.0000   1.0000   1.0000   1.0000   1.0000   1.0000
     1.0000   1.0000   1.0000   1.0000   1.0000   1.0000   1.0000   1.0000
     1.0000   1.0000   1.0000   1.0000   1.0018  -0.0018  -0.0000  -0.0000
    -0.0000  -0.0000  -0.0000  -0.0000  -0.0000  -0.0000

     the Fermi energy is    11.9874 ev

!    total energy              =   -2226.76691426 Ry
     estimated scf accuracy    <       0.00000069 Ry
     smearing contrib. (-TS)   =       0.00012233 Ry
     internal energy E=F+TS    =   -2226.76703659 Ry

     The total energy is F=E-TS. E is the sum of the following terms:
     one-electron contribution =     -99.73022976 Ry
     hartree contribution      =     111.28931650 Ry
     xc contribution           =    -160.69317221 Ry
     ewald contribution        =    -406.02806742 Ry
     one-center paw contrib.   =   -1671.60488371 Ry
      -> PAW hartree energy AE =     295.37808318 Ry
      -> PAW hartree energy PS =    -293.85957548 Ry
      -> PAW xc energy AE      =   -1737.63314884 Ry
      -> PAW xc energy PS      =      64.50975743 Ry
      -> total E_H with PAW    =     112.80782420 Ry
      -> total E_XC with PAW   =   -1833.81656362 Ry

     convergence has been achieved in  72 iterations

     Forces acting on atoms (cartesian axes, Ry/au):

     atom    1 type  1   force =    -0.01454064    0.00454186   -0.00845875
     atom    2 type  1   force =     0.01431783   -0.00445117    0.00000000
     atom    3 type  1   force =     0.01677588   -0.00524965    0.00000000
     atom    4 type  1   force =    -0.01454064    0.00454186    0.00845875
     atom    5 type  2   force =     0.01932410   -0.00603536   -0.01412966
     atom    6 type  2   force =     0.01932410   -0.00603536    0.01412966
     atom    7 type  2   force =    -0.04171291    0.01302377    0.00000000
     atom    8 type  3   force =     0.00418331   -0.00130332    0.00000000
     atom    9 type  3   force =    -0.01910157    0.00596018    0.01352310
     atom   10 type  3   force =    -0.01910157    0.00596018   -0.01352310
     atom   11 type  3   force =     0.03507210   -0.01095298    0.00000000
     The non-local contrib.  to forces
     atom    1 type  1   force =     0.15912051   -0.04969567    0.09949303
     atom    2 type  1   force =    -0.14995854    0.04683674    0.00000000
     atom    3 type  1   force =    -0.10431394    0.03247808    0.00000000
     atom    4 type  1   force =     0.15912051   -0.04969567   -0.09949303
     atom    5 type  2   force =    -0.04307857    0.01344738    0.02826940
     atom    6 type  2   force =    -0.04307857    0.01344738   -0.02826940
     atom    7 type  2   force =     0.04828153   -0.01507416    0.00000000
     atom    8 type  3   force =     0.27471567   -0.08574351    0.00000000
     atom    9 type  3   force =    -0.20840350    0.06504218    0.02898366
     atom   10 type  3   force =    -0.20840350    0.06504218   -0.02898366
     atom   11 type  3   force =     0.17616610   -0.05498785    0.00000000
     The ionic contribution  to forces
     atom    1 type  1   force =   -11.31324362    3.53115421    1.40679794
     atom    2 type  1   force =    10.37310072   -3.23771144   -0.00001346
     atom    3 type  1   force =    12.44940827   -3.88578041   -0.00000696
     atom    4 type  1   force =   -11.31324311    3.53115405   -1.40672800
     atom    5 type  2   force =     0.78124360   -0.24384621   -0.18671391
     atom    6 type  2   force =     0.78125115   -0.24384857    0.18671761
     atom    7 type  2   force =    -1.93996886    0.60551416   -0.00000964
     atom    8 type  3   force =     0.01987431   -0.00620328   -0.00003251
     atom    9 type  3   force =     1.52998075   -0.47754633   -0.65184667
     atom   10 type  3   force =     1.52997805   -0.47754549    0.65187985
     atom   11 type  3   force =    -2.89838126    0.90465931   -0.00004426
     The local contribution  to forces
     atom    1 type  1   force =    11.15047897   -3.48034288   -1.51499467
     atom    2 type  1   force =   -10.20923796    3.18655842    0.02569965
     atom    3 type  1   force =   -12.32864392    3.84821107   -0.01542513
     atom    4 type  1   force =    11.12992450   -3.47380739    1.51526141
     atom    5 type  2   force =    -0.73032071    0.22793596    0.14545524
     atom    6 type  2   force =    -0.71808553    0.22411923   -0.15136112
     atom    7 type  2   force =     1.85593240   -0.57929334   -0.00128437
     atom    8 type  3   force =    -0.28655903    0.08941895   -0.00033479
     atom    9 type  3   force =    -1.34299930    0.41918774    0.63630131
     atom   10 type  3   force =    -1.34278712    0.41913960   -0.63860174
     atom   11 type  3   force =     2.75918849   -0.86121733    0.00346540
     The core correction contribution to forces
     atom    1 type  1   force =    -0.00030167    0.00009416   -0.00012240
     atom    2 type  1   force =     0.00030241   -0.00009440    0.00000846
     atom    3 type  1   force =     0.00026675   -0.00008316   -0.00000998
     atom    4 type  1   force =    -0.00031200    0.00009749    0.00013474
     atom    5 type  2   force =     0.00507489   -0.00158559   -0.00429928
     atom    6 type  2   force =     0.00551516   -0.00172149    0.00331018
     atom    7 type  2   force =    -0.00618630    0.00193375    0.00002927
     atom    8 type  3   force =    -0.00335874    0.00104828   -0.00001310
     atom    9 type  3   force =     0.00251185   -0.00078400   -0.00045777
     atom   10 type  3   force =     0.00246403   -0.00076894    0.00040524
     atom   11 type  3   force =    -0.00197051    0.00061504    0.00003495
     The Hubbard contrib.    to forces
     atom    1 type  1   force =     0.00000000    0.00000000    0.00000000
     atom    2 type  1   force =     0.00000000    0.00000000    0.00000000
     atom    3 type  1   force =     0.00000000    0.00000000    0.00000000
     atom    4 type  1   force =     0.00000000    0.00000000    0.00000000
     atom    5 type  2   force =     0.00000000    0.00000000    0.00000000
     atom    6 type  2   force =     0.00000000    0.00000000    0.00000000
     atom    7 type  2   force =     0.00000000    0.00000000    0.00000000
     atom    8 type  3   force =     0.00000000    0.00000000    0.00000000
     atom    9 type  3   force =     0.00000000    0.00000000    0.00000000
     atom   10 type  3   force =     0.00000000    0.00000000    0.00000000
     atom   11 type  3   force =     0.00000000    0.00000000    0.00000000
     The SCF correction term to forces
     atom    1 type  1   force =    -0.00031483    0.00007786    0.00054433
     atom    2 type  1   force =     0.00011235   -0.00004121   -0.00019020
     atom    3 type  1   force =     0.00005987   -0.00007594    0.00022031
     atom    4 type  1   force =    -0.00030822    0.00004612   -0.00053938
     atom    5 type  2   force =     0.00002824    0.00000256   -0.00035869
     atom    6 type  2   force =     0.00010084   -0.00002280    0.00021480
     atom    7 type  2   force =     0.00022947   -0.00005736    0.00017048
     atom    8 type  3   force =    -0.00048774    0.00017553    0.00021899
     atom    9 type  3   force =    -0.00019480    0.00005469   -0.00062006
     atom   10 type  3   force =    -0.00034728    0.00009730    0.00061459
     atom   11 type  3   force =     0.00007042   -0.00002286   -0.00023152

     Total force =     0.082495     Total SCF correction =     0.001574

     Computing stress (Cartesian axis) and pressure

          total   stress  (Ry/bohr**3)                   (kbar)     P=     -127.75
  -0.00085713   0.00018542   0.00000000         -126.09       27.28        0.00
   0.00018542  -0.00032114   0.00000000           27.28      -47.24        0.00
   0.00000000   0.00000000  -0.00142702            0.00        0.00     -209.92

     kinetic stress (kbar)  11629.42     67.18      0.00
                               67.18  11823.70      0.00
                                0.00      0.00  11375.14

     local   stress (kbar)   2977.29  -5380.76    -11.36
                            -5380.76 -12582.47      3.56
                              -11.36      3.56 -11543.25

     nonloc. stress (kbar)   8187.23      3.77      0.00
                                3.77   8198.19      0.00
                                0.00      0.00   8042.85

     hartree stress (kbar)   -727.87   2334.83      4.43
                             2334.83   6023.80     -1.38
                                4.43     -1.38   5972.21

     exc-cor stress (kbar)   4950.75      2.72      0.10
                                2.72   4958.62     -0.03
                                0.10     -0.03   4951.64

     corecor stress (kbar)  -7840.86     -2.08      0.05
                               -2.08  -7846.89     -0.02
                                0.05     -0.02  -7822.04

     ewald   stress (kbar) -19302.04   3001.63     -0.01
                             3001.63 -10622.20      0.00
                               -0.01      0.00 -11186.48

     hubbard stress (kbar)      0.00      0.00      0.00
                                0.00      0.00      0.00
                                0.00      0.00      0.00

     DFT-D   stress (kbar)      0.00      0.00      0.00
                                0.00      0.00      0.00
                                0.00      0.00      0.00

     XDM     stress (kbar)      0.00      0.00      0.00
                                0.00      0.00      0.00
                                0.00      0.00      0.00

     dft-nl  stress (kbar)      0.00      0.00      0.00
                                0.00      0.00      0.00
                                0.00      0.00      0.00

     TS-vdW  stress (kbar)      0.00      0.00      0.00
                                0.00      0.00      0.00
                                0.00      0.00      0.00

[...]

                                0.00      0.00      0.00

     Writing all to output data dir new_calculations/myprefix.save/

     General routines

     Parallel routines

     PAW routines

   This run was terminated on:  11:32:21  21May2023

   JOB DONE.