     Program PWSCF v.7.0 starts on 21May2023 at  3:39:49

     Reading input from espresso_12758.pwi
Warning: card &CELL ignored
Warning: card / ignored

     Current dimensions of program PWSCF are:
     Max number of different atomic species (ntypx) = 10
     Max number of k-points (npk) =  40000
     Max angular momentum in pseudopotentials (lmaxx) =  4

     gamma-point specific algorithms are used
     Message from routine setup:
     using ibrav=0 with symmetry is DISCOURAGED, use correct ibrav instead

     Subspace diagonalization in iterative solution of the eigenvalue problem:
     a serial algorithm will be used

     Using Slab Decomposition

     bravais-lattice index     =            0
     lattice parameter (alat)  =       7.3426  a.u.
     unit-cell volume          =    1001.2958 (a.u.)^3
     number of atoms/cell      =            8
     number of atomic types    =            3
     number of electrons       =       102.00
     number of Kohn-Sham states=           61
     kinetic-energy cutoff     =      30.0000  Ry
     charge density cutoff     =     240.0000  Ry
     scf convergence threshold =      1.0E-06
     mixing beta               =       0.7000
     number of iterations used =            8  plain     mixing
     Exchange-correlation= PBE
                           (   1   4   3   4   0   0   0)

     celldm(1)=   7.342597  celldm(2)=   0.000000  celldm(3)=   0.000000
     celldm(4)=   0.000000  celldm(5)=   0.000000  celldm(6)=   0.000000

     crystal axes: (cart. coord. in units of alat)
               a(1) = (   1.000000   0.000000   0.000000 )
               a(2) = (   0.000000   1.000000   0.000000 )
               a(3) = (   0.000000   0.000000   2.529375 )

     reciprocal axes: (cart. coord. in units 2 pi/alat)
               b(1) = (  1.000000  0.000000  0.000000 )
               b(2) = (  0.000000  1.000000  0.000000 )
               b(3) = (  0.000000  0.000000  0.395355 )

     PseudoPot. # 1 for Er read from file:
     /home/pragov/projects/rrg-bengioy-ad/pragov/crystal_structure_design/SSSP/Er.GGA-PBE-paw-v1.0.UPF
     MD5 check sum: 5952a841f12bc97f67d25f9d1b2e7e35
     Pseudo is Projector augmented-wave + core cor, Zval = 22.0
     Generated using ATOMPAW code
     Shape of augmentation charge: BESSEL
     Using radial grid of 1114 points,  8 beta functions with:
                l(1) =   0
                l(2) =   0
                l(3) =   1
                l(4) =   1
                l(5) =   2
                l(6) =   2
                l(7) =   3
                l(8) =   3
     Q(r) pseudized with 0 coefficients

     PseudoPot. # 2 for Cu read from file:
     /home/pragov/projects/rrg-bengioy-ad/pragov/crystal_structure_design/SSSP/Cu_pbe_v1.2.uspp.F.UPF
     MD5 check sum: 6e991ff952a84172a2a52a1c1e996048
     Pseudo is Ultrasoft + core correction, Zval = 19.0
     Generated by new atomic code, or converted to UPF format
     Using radial grid of  867 points,  6 beta functions with:
                l(1) =   0
                l(2) =   0
                l(3) =   1
                l(4) =   1
                l(5) =   2
                l(6) =   2
     Q(r) pseudized with  8 coefficients,  rinner =    1.150   1.150   1.150
                                                       1.150   1.150

     PseudoPot. # 3 for As read from file:
     /home/pragov/projects/rrg-bengioy-ad/pragov/crystal_structure_design/SSSP/As.pbe-n-rrkjus_psl.0.2.UPF
     MD5 check sum: 767315de957beeeb34f87d97bf945c8f
     Pseudo is Ultrasoft + core correction, Zval =  5.0
     Generated using "atomic" code by A. Dal Corso  v.5.0.99 svn rev. 10869
     Using radial grid of 1209 points,  4 beta functions with:
                l(1) =   0
                l(2) =   0
                l(3) =   1
                l(4) =   1
     Q(r) pseudized with 0 coefficients

     atomic species   valence    mass     pseudopotential
        Er            22.00   167.25900     Er( 1.00)
        Cu            19.00    63.54600     Cu( 1.00)
        As             5.00    74.92159     As( 1.00)

     16 Sym. Ops., with inversion, found ( 8 have fractional translation)

                                    s                        frac. trans.

      isym =  1     identity

 cryst.   s( 1) = (     1          0          0      )
                  (     0          1          0      )
                  (     0          0          1      )

 cart.    s( 1) = (  1.0000000  0.0000000  0.0000000 )
                  (  0.0000000  1.0000000  0.0000000 )
                  (  0.0000000  0.0000000  1.0000000 )

      isym =  2     180 deg rotation - cart. axis [0,0,1]

[...]

 cryst.   s( 3) = (    -1          0          0      )    f =(  0.5000000 )
                  (     0          1          0      )       (  0.5000000 )
                  (     0          0         -1      )       (  0.0000000 )

 cart.    s( 3) = ( -1.0000000  0.0000000  0.0000000 )    f =(  0.5000000 )
                  (  0.0000000  1.0000000  0.0000000 )       (  0.5000000 )
                  (  0.0000000  0.0000000 -1.0000000 )       (  0.0000000 )

[...]

 cryst.   s( 6) = (     0         -1          0      )
                  (    -1          0          0      )
                  (     0          0         -1      )

 cart.    s( 6) = (  0.0000000 -1.0000000  0.0000000 )
                  ( -1.0000000  0.0000000  0.0000000 )
                  (  0.0000000  0.0000000 -1.0000000 )

[...]

      isym =  8      90 deg rotation - cart. axis [0,0,1]

[...]

      isym =  9     inversion

 cryst.   s( 9) = (    -1          0          0      )    f =(  0.5000000 )
                  (     0         -1          0      )       (  0.5000000 )
                  (     0          0         -1      )       (  0.0000000 )

 cart.    s( 9) = ( -1.0000000  0.0000000  0.0000000 )    f =(  0.5000000 )
                  (  0.0000000 -1.0000000  0.0000000 )       (  0.5000000 )
                  (  0.0000000  0.0000000 -1.0000000 )       (  0.0000000 )

      isym = 10     inv. 180 deg rotation - cart. axis [0,0,1]

 cryst.   s(10) = (     1          0          0      )    f =( -0.5000000 )
                  (     0          1          0      )       (  0.5000000 )
                  (     0          0         -1      )       (  0.0000000 )

 cart.    s(10) = (  1.0000000  0.0000000  0.0000000 )    f =( -0.5000000 )
                  (  0.0000000  1.0000000  0.0000000 )       (  0.5000000 )
                  (  0.0000000  0.0000000 -1.0000000 )       (  0.0000000 )

[...]

 cryst.   s(11) = (     1          0          0      )
                  (     0         -1          0      )
                  (     0          0          1      )

 cart.    s(11) = (  1.0000000  0.0000000  0.0000000 )
                  (  0.0000000 -1.0000000  0.0000000 )
                  (  0.0000000  0.0000000  1.0000000 )

[...]

 cryst.   s(14) = (     0          1          0      )    f =( -0.5000000 )
                  (     1          0          0      )       (  0.5000000 )
                  (     0          0          1      )       (  0.0000000 )

 cart.    s(14) = (  0.0000000  1.0000000  0.0000000 )    f =( -0.5000000 )
                  (  1.0000000  0.0000000  0.0000000 )       (  0.5000000 )
                  (  0.0000000  0.0000000  1.0000000 )       (  0.0000000 )

[...]

      isym = 16     inv.  90 deg rotation - cart. axis [0,0,1]

 cryst.   s(16) = (     0         -1          0      )
                  (     1          0          0      )
                  (     0          0         -1      )

 cart.    s(16) = (  0.0000000  1.0000000  0.0000000 )
                  ( -1.0000000  0.0000000  0.0000000 )
                  (  0.0000000  0.0000000 -1.0000000 )

   Cartesian axes

     site n.     atom                  positions (alat units)
         1           Er  tau(   1) = (   0.0000000   0.5000000   1.9290156  )
         2           Er  tau(   2) = (   0.5000000   0.0000000   0.6003599  )
         3           Cu  tau(   3) = (   0.5000000   0.5000000   1.2646877  )
         4           Cu  tau(   4) = (   0.0000000   0.0000000   1.2646877  )
         5           As  tau(   5) = (   0.0000000   0.0000000   0.0000000  )
         6           As  tau(   6) = (   0.5000000   0.5000000   0.0000000  )
         7           As  tau(   7) = (   0.0000000   0.5000000   0.8511450  )
         8           As  tau(   8) = (   0.5000000   0.0000000   1.6782305  )

   Crystallographic axes

     site n.     atom                  positions (cryst. coord.)
         1           Er  tau(   1) = (  0.0000000  0.5000000  0.7626450  )
         2           Er  tau(   2) = (  0.5000000  0.0000000  0.2373550  )
         3           Cu  tau(   3) = (  0.5000000  0.5000000  0.5000000  )
         4           Cu  tau(   4) = (  0.0000000  0.0000000  0.5000000  )
         5           As  tau(   5) = (  0.0000000  0.0000000  0.0000000  )
         6           As  tau(   6) = (  0.5000000  0.5000000  0.0000000  )
         7           As  tau(   7) = (  0.0000000  0.5000000  0.3365040  )
         8           As  tau(   8) = (  0.5000000  0.0000000  0.6634960  )

     number of k points=     1  Methfessel-Paxton smearing, width (Ry)=  0.0010
                       cart. coord. in units 2pi/alat
        k(    1) = (   0.0000000   0.0000000   0.0000000), wk =   2.0000000

                       cryst. coord.
        k(    1) = (   0.0000000   0.0000000   0.0000000), wk =   2.0000000

     Initial potential from superposition of free atoms

     starting charge      99.9906, renormalised to     102.0000
     Starting wfcs are  106 randomized atomic wfcs
     Checking if some PAW data can be deallocated...

     Self-consistent Calculation

     iteration #  1     ecut=    30.00 Ry     beta= 0.70
     Davidson diagonalization with overlap

     ethr =  1.00E-02,  avg # of iterations =  3.0
     Minimization algorithm failed to find Fermi energy: reverting to bisection
     Possible cause: smearing is larger than the electronic band-gap.

     total energy              =   -2557.51917570 Ry
     estimated scf accuracy    <      94.85345657 Ry

[...]

     ethr =  1.00E-02,  avg # of iterations = 22.0

[...]

     negative rho (up, down):  3.142E-04 0.000E+00

[...]

     negative rho (up, down):  2.414E-06 0.000E+00

[...]

     total energy              =   -2651.54331212 Ry
     estimated scf accuracy    <       0.00000465 Ry

     iteration # 50     ecut=    30.00 Ry     beta= 0.70
     Davidson diagonalization with overlap

     ethr =  4.56E-09,  avg # of iterations =  1.0

     End of self-consistent calculation

          k = 0.0000 0.0000 0.0000 (  1397 PWs)   bands (ev):

  -100.9340-100.9299 -58.3619 -58.3596 -58.2762 -58.2761 -58.2581 -58.2581
   -34.9394 -34.9393  -9.3801  -9.3370  -9.2849  -9.2849  -9.2829  -9.2828
    -1.0029   0.4274   1.1833   5.3203   6.7427   7.1739   8.0720   8.0720
     8.2905   8.7787   8.8941   8.8941   9.0747   9.0747   9.0935   9.2984
     9.6168  10.0808  10.7009  10.7009  11.6182  11.7979  12.4257  12.4257
    12.8916  12.8916  12.9925  13.0143  13.0725  13.1153  13.1176  13.1262
    13.1852  13.1852  13.2626  13.2626  13.4623  13.4623  13.7272  14.7781
    15.2019  15.9621  16.2244  16.2244  16.4455

     occupation numbers
     1.0000   1.0000   1.0000   1.0000   1.0000   1.0000   1.0000   1.0000
     1.0000   1.0000   1.0000   1.0000   1.0000   1.0000   1.0000   1.0000
     1.0000   1.0000   1.0000   1.0000   1.0000   1.0000   1.0000   1.0000
     1.0000   1.0000   1.0000   1.0000   1.0000   1.0000   1.0000   1.0000
     1.0000   1.0000   1.0000   1.0000   1.0000   1.0000   1.0000   1.0000
     1.0000   1.0000   1.0000   1.0000   1.0000   1.0000   1.0000   1.0000
     1.0000   1.0000   0.5003   0.4997  -0.0000  -0.0000  -0.0000  -0.0000
    -0.0000  -0.0000  -0.0000  -0.0000  -0.0000

     the Fermi energy is    13.2626 ev

!    total energy              =   -2651.54331221 Ry
     estimated scf accuracy    <       0.00000013 Ry
     smearing contrib. (-TS)   =      -0.00056419 Ry
     internal energy E=F+TS    =   -2651.54274802 Ry

     The total energy is F=E-TS. E is the sum of the following terms:
     one-electron contribution =   -1543.98826109 Ry
     hartree contribution      =     799.11901072 Ry
     xc contribution           =    -180.60399875 Ry
     ewald contribution        =    -754.03060182 Ry
     one-center paw contrib.   =    -972.03889708 Ry
      -> PAW hartree energy AE =     693.53528757 Ry
      -> PAW hartree energy PS =    -620.39811476 Ry
      -> PAW xc energy AE      =   -1108.97726236 Ry
      -> PAW xc energy PS      =      63.80119247 Ry
      -> total E_H with PAW    =     872.25618353 Ry
      -> total E_XC with PAW   =   -1225.78006864 Ry

     convergence has been achieved in  50 iterations

     Forces acting on atoms (cartesian axes, Ry/au):

     atom    1 type  1   force =     0.00000000    0.00000000    0.02462698
     atom    2 type  1   force =     0.00000000    0.00000000   -0.02462698
     atom    3 type  2   force =     0.00000000    0.00000000    0.00000000
     atom    4 type  2   force =     0.00000000    0.00000000   -0.00000000
     atom    5 type  3   force =     0.00000000    0.00000000    0.00000000
     atom    6 type  3   force =     0.00000000    0.00000000    0.00000000
     atom    7 type  3   force =     0.00000000    0.00000000   -0.00153164
     atom    8 type  3   force =     0.00000000    0.00000000    0.00153164
     The non-local contrib.  to forces
     atom    1 type  1   force =     0.00000000    0.00000000   -0.07675735
     atom    2 type  1   force =     0.00000000    0.00000000    0.07675735
     atom    3 type  2   force =     0.00000000    0.00000000    0.00000000
     atom    4 type  2   force =     0.00000000    0.00000000    0.00000000
     atom    5 type  3   force =     0.00000000    0.00000000    0.00000000
     atom    6 type  3   force =     0.00000000    0.00000000    0.00000000
     atom    7 type  3   force =     0.00000000    0.00000000    0.19392030
     atom    8 type  3   force =     0.00000000    0.00000000   -0.19392030
     The ionic contribution  to forces
     atom    1 type  1   force =     0.00000000   -0.00000000   72.65368259
     atom    2 type  1   force =    -0.00000000    0.00000000  -72.65368259
     atom    3 type  2   force =     0.00000000    0.00000000    0.00000000
     atom    4 type  2   force =     0.00000000    0.00000000   -0.00000000
     atom    5 type  3   force =     0.00000000    0.00000000   -0.00000000
     atom    6 type  3   force =    -0.00000000    0.00000000   -0.00000000
     atom    7 type  3   force =     0.00000000   -0.00000000  -18.49992471
     atom    8 type  3   force =     0.00000000    0.00000000   18.49992471
     The local contribution  to forces
     atom    1 type  1   force =    -0.00000850   -0.00001065  -72.55289475
     atom    2 type  1   force =    -0.00001614   -0.00001892   72.55318483
     atom    3 type  2   force =    -0.00000206   -0.00000126   -0.00014312
     atom    4 type  2   force =     0.00000122    0.00000065   -0.00021876
     atom    5 type  3   force =     0.00000111    0.00000055    0.00001069
     atom    6 type  3   force =    -0.00000128   -0.00000043   -0.00000558
     atom    7 type  3   force =     0.00000132    0.00000051   18.32136988
     atom    8 type  3   force =     0.00000041    0.00000165  -18.32136661
     The core correction contribution to forces
     atom    1 type  1   force =    -0.00000000   -0.00000000   -0.00000176
     atom    2 type  1   force =    -0.00000000   -0.00000000    0.00000176
     atom    3 type  2   force =    -0.00000000    0.00000000   -0.00000004
     atom    4 type  2   force =     0.00000000   -0.00000000   -0.00000003
     atom    5 type  3   force =     0.00000007    0.00000003    0.00000065
     atom    6 type  3   force =    -0.00000010   -0.00000004    0.00000025
     atom    7 type  3   force =     0.00000010   -0.00000000   -0.01683681
     atom    8 type  3   force =     0.00000005    0.00000014    0.01683654
     The Hubbard contrib.    to forces
     atom    1 type  1   force =     0.00000000    0.00000000    0.00000000
     atom    2 type  1   force =     0.00000000    0.00000000    0.00000000
     atom    3 type  2   force =     0.00000000    0.00000000    0.00000000
     atom    4 type  2   force =     0.00000000    0.00000000    0.00000000
     atom    5 type  3   force =     0.00000000    0.00000000    0.00000000
     atom    6 type  3   force =     0.00000000    0.00000000    0.00000000
     atom    7 type  3   force =     0.00000000    0.00000000    0.00000000
     atom    8 type  3   force =     0.00000000    0.00000000    0.00000000
     The SCF correction term to forces
     atom    1 type  1   force =     0.00000134    0.00001088    0.00068575
     atom    2 type  1   force =     0.00001661    0.00002239   -0.00080083
     atom    3 type  2   force =     0.00000372    0.00000092    0.00014728
     atom    4 type  2   force =    -0.00000171   -0.00000112    0.00023532
     atom    5 type  3   force =    -0.00000082   -0.00000038   -0.00001207
     atom    6 type  3   force =     0.00000092    0.00000027    0.00000071
     atom    7 type  3   force =    -0.00000090   -0.00000039   -0.00005762
     atom    8 type  3   force =    -0.00000005   -0.00000070    0.00005998

     Total force =     0.034895     Total SCF correction =     0.001094

     Computing stress (Cartesian axis) and pressure

          total   stress  (Ry/bohr**3)                   (kbar)     P=     -131.85
  -0.00075058   0.00000000   0.00000000         -110.41        0.00        0.00
   0.00000000  -0.00075058   0.00000000            0.00     -110.41        0.00
   0.00000000   0.00000000  -0.00118770            0.00        0.00     -174.72

     kinetic stress (kbar)  14486.11      0.00      0.00
                                0.00  14486.11      0.00
                                0.00      0.00  14491.66

     local   stress (kbar) -58513.20     -0.03     -0.00
                               -0.03 -58512.55      0.00
                               -0.00      0.00  49724.89

     nonloc. stress (kbar)  13238.46      0.00      0.00
                                0.00  13238.46      0.00
                                0.00      0.00  13220.65

     hartree stress (kbar)  57067.70      0.01      0.00
                                0.01  57067.43     -0.00
                                0.00     -0.00   3267.21

     exc-cor stress (kbar)  -3952.82      0.00      0.00
                                0.00  -3952.82     -0.00
                                0.00     -0.00  -3954.15

     corecor stress (kbar)  -3674.00      0.00      0.00
                                0.00  -3674.00     -0.00
                                0.00     -0.00  -3672.48

     ewald   stress (kbar) -18762.85      0.00      0.00
                                0.00 -18762.85      0.00
                                0.00      0.00 -73252.49

     hubbard stress (kbar)      0.00      0.00      0.00
                                0.00      0.00      0.00
                                0.00      0.00      0.00

     DFT-D   stress (kbar)      0.00      0.00      0.00
                                0.00      0.00      0.00
                                0.00      0.00      0.00

     XDM     stress (kbar)      0.00      0.00      0.00
                                0.00      0.00      0.00
                                0.00      0.00      0.00

     dft-nl  stress (kbar)      0.00      0.00      0.00
                                0.00      0.00      0.00
                                0.00      0.00      0.00

     TS-vdW  stress (kbar)      0.00      0.00      0.00
                                0.00      0.00      0.00
                                0.00      0.00      0.00

[...]

                                0.00      0.00      0.00

     Writing all to output data dir new_calculations/myprefix.save/

     General routines

     Parallel routines

     PAW routines

   This run was terminated on:   3:41:20  21May2023

   JOB DONE.