     Program PWSCF v.7.0 starts on 20May2023 at 17:50:33

     Reading input from espresso_6465.pwi
Warning: card &CELL ignored
Warning: card / ignored

     Current dimensions of program PWSCF are:
     Max number of different atomic species (ntypx) = 10
     Max number of k-points (npk) =  40000
     Max angular momentum in pseudopotentials (lmaxx) =  4

     gamma-point specific algorithms are used
     Message from routine setup:
     using ibrav=0 with symmetry is DISCOURAGED, use correct ibrav instead

     Subspace diagonalization in iterative solution of the eigenvalue problem:
     a serial algorithm will be used

     Using Slab Decomposition

     bravais-lattice index     =            0
     lattice parameter (alat)  =      13.6037  a.u.
     unit-cell volume          =    2144.2669 (a.u.)^3
     number of atoms/cell      =           16
     number of atomic types    =            3
     number of electrons       =       172.00
     number of Kohn-Sham states=          103
     kinetic-energy cutoff     =      30.0000  Ry
     charge density cutoff     =     240.0000  Ry
     scf convergence threshold =      1.0E-06
     mixing beta               =       0.7000
     number of iterations used =            8  plain     mixing
     Exchange-correlation=  SLA  PW   PBX  PBC
                           (   1   4   3   4   0   0   0)

     celldm(1)=  13.603740  celldm(2)=   0.000000  celldm(3)=   0.000000
     celldm(4)=   0.000000  celldm(5)=   0.000000  celldm(6)=   0.000000

     crystal axes: (cart. coord. in units of alat)
               a(1) = (   1.000000   0.000000   0.000000 )
               a(2) = (   0.000000   0.897044   0.000000 )
               a(3) = (   0.000000   0.130121   0.949490 )

     reciprocal axes: (cart. coord. in units 2 pi/alat)
               b(1) = (  1.000000  0.000000  0.000000 )
               b(2) = (  0.000000  1.114773 -0.152771 )
               b(3) = (  0.000000  0.000000  1.053197 )

     PseudoPot. # 1 for Ce read from file:
     /home/pragov/projects/rrg-bengioy-ad/pragov/crystal_structure_design/SSSP/Ce.GGA-PBE-paw-v1.0.UPF
     MD5 check sum: f2b950f613061344c13339c8d844425d
     Pseudo is Projector augmented-wave + core cor, Zval = 12.0
     Generated using ATOMPAW code
     Shape of augmentation charge: BESSEL
     Using radial grid of 1102 points,  8 beta functions with:
                l(1) =   0
                l(2) =   0
                l(3) =   1
                l(4) =   1
                l(5) =   2
                l(6) =   2
                l(7) =   3
                l(8) =   3
     Q(r) pseudized with 0 coefficients

     PseudoPot. # 2 for Cu read from file:
     /home/pragov/projects/rrg-bengioy-ad/pragov/crystal_structure_design/SSSP/Cu_pbe_v1.2.uspp.F.UPF
     MD5 check sum: 6e991ff952a84172a2a52a1c1e996048
     Pseudo is Ultrasoft + core correction, Zval = 19.0
     Generated by new atomic code, or converted to UPF format
     Using radial grid of  867 points,  6 beta functions with:
                l(1) =   0
                l(2) =   0
                l(3) =   1
                l(4) =   1
                l(5) =   2
                l(6) =   2
     Q(r) pseudized with  8 coefficients,  rinner =    1.150   1.150   1.150
                                                       1.150   1.150

     PseudoPot. # 3 for S  read from file:
     /home/pragov/projects/rrg-bengioy-ad/pragov/crystal_structure_design/SSSP/s_pbe_v1.4.uspp.F.UPF
     MD5 check sum: 88d86576ff6df21479756cfb9bdac1df
     Pseudo is Ultrasoft + core correction, Zval =  6.0
     Generated by new atomic code, or converted to UPF format
     Using radial grid of  907 points,  6 beta functions with:
                l(1) =   0
                l(2) =   0
                l(3) =   1
                l(4) =   1
                l(5) =   2
                l(6) =   2
     Q(r) pseudized with  8 coefficients,  rinner =    1.300   1.300   1.300
                                                       1.300   1.300

     atomic species   valence    mass     pseudopotential
        Ce            12.00   140.11600     Ce( 1.00)
        Cu            19.00    63.54600     Cu( 1.00)
        S              6.00    32.06000     S ( 1.00)

      4 Sym. Ops., with inversion, found ( 2 have fractional translation)

                                    s                        frac. trans.

      isym =  1     identity

 cryst.   s( 1) = (     1          0          0      )
                  (     0          1          0      )
                  (     0          0          1      )

 cart.    s( 1) = (  1.0000000  0.0000000  0.0000000 )
                  (  0.0000000  1.0000000 -0.0000000 )
                  (  0.0000000  0.0000000  1.0000000 )

      isym =  2     180 deg rotation - cart. axis [1,0,0]

 cryst.   s( 2) = (     1          0          0      )    f =(  0.5000000 )
                  (     0         -1          0      )       (  0.0000000 )
                  (     0          0         -1      )       (  0.5000000 )

 cart.    s( 2) = (  1.0000000  0.0000000  0.0000000 )    f =(  0.5000000 )
                  (  0.0000000 -1.0000000  0.0000000 )       (  0.0650603 )
                  (  0.0000000  0.0000000 -1.0000000 )       (  0.4747448 )

      isym =  3     inversion

 cryst.   s( 3) = (    -1          0          0      )
                  (     0         -1          0      )
                  (     0          0         -1      )

 cart.    s( 3) = ( -1.0000000  0.0000000  0.0000000 )
                  (  0.0000000 -1.0000000  0.0000000 )
                  (  0.0000000  0.0000000 -1.0000000 )

      isym =  4     inv. 180 deg rotation - cart. axis [1,0,0]

 cryst.   s( 4) = (    -1          0          0      )    f =(  0.5000000 )
                  (     0          1          0      )       (  0.0000000 )
                  (     0          0          1      )       ( -0.5000000 )

 cart.    s( 4) = ( -1.0000000  0.0000000  0.0000000 )    f =(  0.5000000 )
                  (  0.0000000  1.0000000 -0.0000000 )       ( -0.0650603 )
                  (  0.0000000  0.0000000  1.0000000 )       ( -0.4747448 )

   Cartesian axes

     site n.     atom                  positions (alat units)
         1           Ce  tau(   1) = (   0.5519100   0.6440238   0.1894403  )
         2           Ce  tau(   2) = (   0.0519100   0.3180805   0.2853045  )
         3           Ce  tau(   3) = (   0.4480900   0.3831408   0.7600493  )
         4           Ce  tau(   4) = (   0.9480900   0.7090841   0.6641850  )
         5           Cu  tau(   5) = (   0.8336990   0.1871692   0.9125468  )
         6           Cu  tau(   6) = (   0.1663010   0.8399953   0.0369427  )
         7           Cu  tau(   7) = (   0.3336990   0.9050557   0.5116875  )
         8           Cu  tau(   8) = (   0.6663010   0.1221089   0.4378020  )
         9           S   tau(   9) = (   0.8835820   0.8527092   0.2689429  )
        10           S   tau(  10) = (   0.3835820   0.1093951   0.2058019  )
        11           S   tau(  11) = (   0.1164180   0.1744554   0.6805466  )
        12           S   tau(  12) = (   0.6164180   0.9177695   0.7436877  )
        13           S   tau(  13) = (   0.7265910   0.4348614   0.4747125  )
        14           S   tau(  14) = (   0.7734090   0.4999217   0.9494573  )
        15           S   tau(  15) = (   0.2734090   0.5923032   0.4747771  )
        16           S   tau(  16) = (   0.2265910   0.5272429   0.0000323  )

   Crystallographic axes

     site n.     atom                  positions (cryst. coord.)
         1           Ce  tau(   1) = (  0.5519100  0.6889990  0.1995180  )
         2           Ce  tau(   2) = (  0.0519100  0.3110010  0.3004820  )
         3           Ce  tau(   3) = (  0.4480900  0.3110010  0.8004820  )
         4           Ce  tau(   4) = (  0.9480900  0.6889990  0.6995180  )
         5           Cu  tau(   5) = (  0.8336990  0.0692400  0.9610920  )
         6           Cu  tau(   6) = (  0.1663010  0.9307600  0.0389080  )
         7           Cu  tau(   7) = (  0.3336990  0.9307600  0.5389080  )
         8           Cu  tau(   8) = (  0.6663010  0.0692400  0.4610920  )
         9           S   tau(   9) = (  0.8835820  0.9094900  0.2832500  )
        10           S   tau(  10) = (  0.3835820  0.0905100  0.2167500  )
        11           S   tau(  11) = (  0.1164180  0.0905100  0.7167500  )
        12           S   tau(  12) = (  0.6164180  0.9094900  0.7832500  )
        13           S   tau(  13) = (  0.7265910  0.4122490  0.4999660  )
        14           S   tau(  14) = (  0.7734090  0.4122490  0.9999660  )
        15           S   tau(  15) = (  0.2734090  0.5877510  0.5000340  )
        16           S   tau(  16) = (  0.2265910  0.5877510  0.0000340  )

     number of k points=     1  Methfessel-Paxton smearing, width (Ry)=  0.0010
                       cart. coord. in units 2pi/alat
        k(    1) = (   0.0000000   0.0000000   0.0000000), wk =   2.0000000

                       cryst. coord.
        k(    1) = (   0.0000000   0.0000000   0.0000000), wk =   2.0000000

     Initial potential from superposition of free atoms

     starting charge     167.9717, renormalised to     172.0000
     Starting wfcs are  212 randomized atomic wfcs
     Checking if some PAW data can be deallocated...

     Self-consistent Calculation

     iteration #  1     ecut=    30.00 Ry     beta= 0.70
     Davidson diagonalization with overlap

     ethr =  1.00E-02,  avg # of iterations =  2.0

     total energy              =   -3732.29450388 Ry
     estimated scf accuracy    <       6.92485287 Ry

[...]

     c_bands:  1 eigenvalues not converged
     ethr =  8.62E-05,  avg # of iterations = 20.0

     WARNING: integrated charge=   171.99987724, expected=   172.00000000

[...]

     ethr =  8.62E-05,  avg # of iterations =  2.0
     Minimization algorithm failed to find Fermi energy: reverting to bisection
     Possible cause: smearing is larger than the electronic band-gap.

[...]

     c_bands:  2 eigenvalues not converged
     ethr =  1.07E-05,  avg # of iterations = 20.0

     WARNING: integrated charge=   171.99998212, expected=   172.00000000

[...]

     total energy              =   -3737.24349013 Ry
     estimated scf accuracy    <       0.00001509 Ry

     iteration # 92     ecut=    30.00 Ry     beta= 0.70
     Davidson diagonalization with overlap

     ethr =  8.09E-10,  avg # of iterations =  2.0

     End of self-consistent calculation

          k = 0.0000 0.0000 0.0000 (  2988 PWs)   bands (ev):

  -101.4038-101.4036-101.4021-101.4015 -58.8502 -58.8488 -58.8393 -58.8384
   -58.7963 -58.7959 -58.7857 -58.7839 -58.7278 -58.7273 -58.7268 -58.7253
   -23.4529 -23.4328 -23.4248 -23.4214  -6.8291  -6.7122  -6.7050  -6.5010
    -6.4130  -6.4022  -6.3600  -6.3365  -6.3196  -6.3058  -6.2901  -6.1821
    -2.7016  -1.8280  -1.7677  -1.7465  -1.4722  -1.1730  -1.0754  -1.0228
     4.7841   5.1174   5.8894   6.1037   6.1865   6.3523   6.4111   6.7676
     6.7781   6.9575   6.9712   7.0906   7.1412   7.2186   7.2387   7.2829
     7.4080   7.4145   7.4854   7.5896   7.7666   8.0589   8.1050   8.3516
     8.4379   8.4389   8.4806   8.6810   8.7032   8.8624   8.9360   8.9614
     8.9873   8.9906   9.2101   9.2798   9.3381   9.4524   9.5253   9.5374
     9.9193   9.9369  10.2226  10.5619  11.6066  11.6422  11.6548  11.6571
    11.6795  11.6879  11.7040  11.7186  11.7349  11.7843  11.7881  11.7936
    11.8271  11.8496  11.8623  11.8821  11.8839  11.9294  11.9366

     occupation numbers
     1.0000   1.0000   1.0000   1.0000   1.0000   1.0000   1.0000   1.0000
     1.0000   1.0000   1.0000   1.0000   1.0000   1.0000   1.0000   1.0000
     1.0000   1.0000   1.0000   1.0000   1.0000   1.0000   1.0000   1.0000
     1.0000   1.0000   1.0000   1.0000   1.0000   1.0000   1.0000   1.0000
     1.0000   1.0000   1.0000   1.0000   1.0000   1.0000   1.0000   1.0000
     1.0000   1.0000   1.0000   1.0000   1.0000   1.0000   1.0000   1.0000
     1.0000   1.0000   1.0000   1.0000   1.0000   1.0000   1.0000   1.0000
     1.0000   1.0000   1.0000   1.0000   1.0000   1.0000   1.0000   1.0000
     1.0000   1.0000   1.0000   1.0000   1.0000   1.0000   1.0000   1.0000
     1.0000   1.0000   1.0000   1.0000   1.0000   1.0000   1.0000   1.0000
     1.0000   1.0000   1.0000   1.0000   1.0001   0.8245   0.1274   0.0507
    -0.0025  -0.0001  -0.0000  -0.0000  -0.0000  -0.0000  -0.0000  -0.0000
    -0.0000  -0.0000  -0.0000  -0.0000  -0.0000  -0.0000  -0.0000

     the Fermi energy is    11.6479 ev

!    total energy              =   -3737.24348972 Ry
     estimated scf accuracy    <       0.00000062 Ry
     smearing contrib. (-TS)   =      -0.00026311 Ry
     internal energy E=F+TS    =   -3737.24322660 Ry

     The total energy is F=E-TS. E is the sum of the following terms:
     one-electron contribution =   -1689.45617510 Ry
     hartree contribution      =     937.43647887 Ry
     xc contribution           =    -264.67493761 Ry
     ewald contribution        =   -1087.04546228 Ry
     one-center paw contrib.   =   -1633.50313048 Ry
      -> PAW hartree energy AE =     176.17535428 Ry
      -> PAW hartree energy PS =    -175.05188023 Ry
      -> PAW xc energy AE      =   -1668.90994955 Ry
      -> PAW xc energy PS      =      34.28334502 Ry
      -> total E_H with PAW    =     938.55995292 Ry
      -> total E_XC with PAW   =   -1899.30154214 Ry

     convergence has been achieved in  92 iterations

     Forces acting on atoms (cartesian axes, Ry/au):

     atom    1 type  1   force =     0.00587863   -0.00188985    0.00821789
     atom    2 type  1   force =     0.00587863    0.00188985   -0.00821789
     atom    3 type  1   force =    -0.00587863    0.00188985   -0.00821789
     atom    4 type  1   force =    -0.00587863   -0.00188985    0.00821789
     atom    5 type  2   force =    -0.00076765   -0.00422681    0.00186214
     atom    6 type  2   force =     0.00076765    0.00422681   -0.00186214
     atom    7 type  2   force =    -0.00076765    0.00422681   -0.00186214
     atom    8 type  2   force =     0.00076765   -0.00422681    0.00186214
     atom    9 type  3   force =    -0.00939984   -0.00878258    0.01018922
     atom   10 type  3   force =    -0.00939984    0.00878258   -0.01018922
     atom   11 type  3   force =     0.00939984    0.00878258   -0.01018922
     atom   12 type  3   force =     0.00939984   -0.00878258    0.01018922
     atom   13 type  3   force =    -0.00090496    0.01759936    0.00831852
     atom   14 type  3   force =     0.00090496    0.01759936    0.00831852
     atom   15 type  3   force =     0.00090496   -0.01759936   -0.00831852
     atom   16 type  3   force =    -0.00090496   -0.01759936   -0.00831852
     The non-local contrib.  to forces
     atom    1 type  1   force =    -0.02018368    0.01621932   -0.10246323
     atom    2 type  1   force =    -0.02018368   -0.01621932    0.10246323
     atom    3 type  1   force =     0.02018368   -0.01621932    0.10246323
     atom    4 type  1   force =     0.02018368    0.01621932   -0.10246323
     atom    5 type  2   force =     0.10723439    0.04361403   -0.15899695
     atom    6 type  2   force =    -0.10723439   -0.04361403    0.15899695
     atom    7 type  2   force =     0.10723439   -0.04361403    0.15899695
     atom    8 type  2   force =    -0.10723439    0.04361403   -0.15899695
     atom    9 type  3   force =    -0.06713270    0.13465000   -0.04091045
     atom   10 type  3   force =    -0.06713270   -0.13465000    0.04091045
     atom   11 type  3   force =     0.06713270   -0.13465000    0.04091045
     atom   12 type  3   force =     0.06713270    0.13465000   -0.04091045
     atom   13 type  3   force =    -0.01835948   -0.09569529   -0.01803617
     atom   14 type  3   force =     0.01835948   -0.09569529   -0.01803617
     atom   15 type  3   force =     0.01835948    0.09569529    0.01803617
     atom   16 type  3   force =    -0.01835948    0.09569529    0.01803617
     The ionic contribution  to forces
     atom    1 type  1   force =     2.00105273  -11.86065155   -1.34555577
     atom    2 type  1   force =     2.00105273   11.86065155    1.34555577
     atom    3 type  1   force =    -2.00105273   11.86065155    1.34555577
     atom    4 type  1   force =    -2.00105273  -11.86065155   -1.34555577
     atom    5 type  2   force =    -9.81149974    8.06070181   -4.52401984
     atom    6 type  2   force =     9.81149974   -8.06070181    4.52401984
     atom    7 type  2   force =    -9.81149974   -8.06070181    4.52401984
     atom    8 type  2   force =     9.81149974    8.06070181   -4.52401984
     atom    9 type  3   force =     2.40587429   -7.85522478    4.78621127
     atom   10 type  3   force =     2.40587429    7.85522478   -4.78621127
     atom   11 type  3   force =    -2.40587429    7.85522478   -4.78621127
     atom   12 type  3   force =    -2.40587429   -7.85522478    4.78621127
     atom   13 type  3   force =     1.43601674    7.94493227    0.17181590
     atom   14 type  3   force =    -1.43601674    7.94493227    0.17181590
     atom   15 type  3   force =    -1.43601674   -7.94493227   -0.17181590
     atom   16 type  3   force =     1.43601674   -7.94493227   -0.17181590
     The local contribution  to forces
     atom    1 type  1   force =    -1.97533127   11.84252577    1.45597672
     atom    2 type  1   force =    -1.97465916  -11.84249689   -1.45604150
     atom    3 type  1   force =     1.97462760  -11.84236045   -1.45610479
     atom    4 type  1   force =     1.97535450   11.84270694    1.45605670
     atom    5 type  2   force =     9.70321496   -8.10894419    4.68450674
     atom    6 type  2   force =    -9.70323319    8.10827757   -4.68482414
     atom    7 type  2   force =     9.70431707    8.10826738   -4.68452487
     atom    8 type  2   force =    -9.70435119   -8.10885540    4.68471029
     atom    9 type  3   force =    -2.35190285    7.71902070   -4.73749663
     atom   10 type  3   force =    -2.35144764   -7.71932676    4.73738940
     atom   11 type  3   force =     2.35180619   -7.71919217    4.73759123
     atom   12 type  3   force =     2.35159741    7.71920197   -4.73739516
     atom   13 type  3   force =    -1.41991350   -7.83698404   -0.14636818
     atom   14 type  3   force =     1.41931993   -7.83698611   -0.14642755
     atom   15 type  3   force =     1.41985400    7.83710940    0.14648090
     atom   16 type  3   force =    -1.41929510    7.83713494    0.14628651
     The core correction contribution to forces
     atom    1 type  1   force =     0.00000099   -0.00005726    0.00004310
     atom    2 type  1   force =     0.00000131    0.00005719   -0.00004310
     atom    3 type  1   force =    -0.00000143    0.00005730   -0.00004318
     atom    4 type  1   force =    -0.00000088   -0.00005712    0.00004307
     atom    5 type  2   force =    -0.00018207    0.00002710    0.00024332
     atom    6 type  2   force =     0.00018207   -0.00002716   -0.00024332
     atom    7 type  2   force =    -0.00018202   -0.00002712   -0.00024335
     atom    8 type  2   force =     0.00018205    0.00002709    0.00024332
     atom    9 type  3   force =     0.00355116   -0.00739961    0.00233340
     atom   10 type  3   force =     0.00355067    0.00739973   -0.00233193
     atom   11 type  3   force =    -0.00355074    0.00740007   -0.00233304
     atom   12 type  3   force =    -0.00354979   -0.00739971    0.00233205
     atom   13 type  3   force =     0.00109051    0.00540585    0.00093744
     atom   14 type  3   force =    -0.00108983    0.00540573    0.00093763
     atom   15 type  3   force =    -0.00109055   -0.00540600   -0.00093666
     atom   16 type  3   force =     0.00108967   -0.00540528   -0.00093699
     The Hubbard contrib.    to forces
     atom    1 type  1   force =     0.00000000    0.00000000    0.00000000
     atom    2 type  1   force =     0.00000000    0.00000000    0.00000000
     atom    3 type  1   force =     0.00000000    0.00000000    0.00000000
     atom    4 type  1   force =     0.00000000    0.00000000    0.00000000
     atom    5 type  2   force =     0.00000000    0.00000000    0.00000000
     atom    6 type  2   force =     0.00000000    0.00000000    0.00000000
     atom    7 type  2   force =     0.00000000    0.00000000    0.00000000
     atom    8 type  2   force =     0.00000000    0.00000000    0.00000000
     atom    9 type  3   force =     0.00000000    0.00000000    0.00000000
     atom   10 type  3   force =     0.00000000    0.00000000    0.00000000
     atom   11 type  3   force =     0.00000000    0.00000000    0.00000000
     atom   12 type  3   force =     0.00000000    0.00000000    0.00000000
     atom   13 type  3   force =     0.00000000    0.00000000    0.00000000
     atom   14 type  3   force =     0.00000000    0.00000000    0.00000000
     atom   15 type  3   force =     0.00000000    0.00000000    0.00000000
     atom   16 type  3   force =     0.00000000    0.00000000    0.00000000
     The SCF correction term to forces
     atom    1 type  1   force =     0.00022261    0.00003775    0.00022294
     atom    2 type  1   force =    -0.00022389   -0.00012850   -0.00012611
     atom    3 type  1   force =     0.00013996   -0.00017250   -0.00015597
     atom    4 type  1   force =    -0.00014748   -0.00003040    0.00009037
     atom    5 type  2   force =     0.00040293    0.00036734    0.00011410
     atom    6 type  2   force =    -0.00043186    0.00026912    0.00018891
     atom    7 type  2   force =    -0.00059047    0.00029548   -0.00011763
     atom    8 type  2   force =     0.00064171    0.00026274   -0.00006645
     atom    9 type  3   force =     0.00021633    0.00017173    0.00007051
     atom   10 type  3   force =    -0.00023913    0.00013365    0.00007045
     atom   11 type  3   force =    -0.00012411    0.00000433   -0.00015867
     atom   12 type  3   force =     0.00011533   -0.00000744   -0.00006314
     atom   13 type  3   force =     0.00026656   -0.00005715   -0.00002691
     atom   14 type  3   force =     0.00034125   -0.00005530    0.00004454
     atom   15 type  3   force =    -0.00021048   -0.00007108   -0.00006284
     atom   16 type  3   force =    -0.00036268   -0.00008250    0.00011087

     Total force =     0.055737     Total SCF correction =     0.001564

     Computing stress (Cartesian axis) and pressure

          total   stress  (Ry/bohr**3)                   (kbar)     P=     -153.53
  -0.00117279   0.00000000   0.00000000         -172.52        0.00        0.00
   0.00000000  -0.00120955  -0.00000079            0.00     -177.93       -0.12
   0.00000000  -0.00000079  -0.00074869            0.00       -0.12     -110.14

     kinetic stress (kbar)  14371.02      0.00      0.00
                                0.00  14270.83    -17.20
                                0.00    -17.20  14413.46

     local   stress (kbar) -28653.36      0.12      0.05
                                0.12   -946.18  -6011.42
                                0.05  -6011.42 -23176.95

     nonloc. stress (kbar)  11714.15      0.00      0.00
                                0.00  11767.69    -10.00
                                0.00    -10.00  11742.09

     hartree stress (kbar)  26819.02     -0.04     -0.04
                               -0.04  13194.25   2647.58
                               -0.04   2647.58  24298.54

     exc-cor stress (kbar)  -2969.37      0.00      0.00
                                0.00  -2971.03      0.86
                                0.00      0.86  -2969.88

     corecor stress (kbar)  -2263.20      0.00     -0.00
                                0.00  -2263.28      0.43
                               -0.00      0.43  -2262.84

     ewald   stress (kbar) -19190.79      0.00     -0.00
                                0.00 -33230.21   3389.63
                               -0.00   3389.63 -22154.56

     hubbard stress (kbar)      0.00      0.00      0.00
                                0.00      0.00      0.00
                                0.00      0.00      0.00

     DFT-D   stress (kbar)      0.00      0.00      0.00
                                0.00      0.00      0.00
                                0.00      0.00      0.00

     XDM     stress (kbar)      0.00      0.00      0.00
                                0.00      0.00      0.00
                                0.00      0.00      0.00

     dft-nl  stress (kbar)      0.00      0.00      0.00
                                0.00      0.00      0.00
                                0.00      0.00      0.00

     TS-vdW  stress (kbar)      0.00      0.00      0.00
                                0.00      0.00      0.00
                                0.00      0.00      0.00

[...]

                                0.00      0.00      0.00

     Writing all to output data dir new_calculations/myprefix.save/

     General routines

     Parallel routines

     PAW routines

   This run was terminated on:  17:56:18  20May2023

   JOB DONE.