     Program PWSCF v.7.0 starts on 20May2023 at  9:24:32

     Reading input from espresso_17218.pwi
Warning: card &CELL ignored
Warning: card / ignored

     Current dimensions of program PWSCF are:
     Max number of different atomic species (ntypx) = 10
     Max number of k-points (npk) =  40000
     Max angular momentum in pseudopotentials (lmaxx) =  4

     gamma-point specific algorithms are used
     Message from routine setup:
     using ibrav=0 with symmetry is DISCOURAGED, use correct ibrav instead

     Subspace diagonalization in iterative solution of the eigenvalue problem:
     a serial algorithm will be used

     Using Slab Decomposition

     bravais-lattice index     =            0
     lattice parameter (alat)  =      10.4774  a.u.
     unit-cell volume          =    1125.3562 (a.u.)^3
     number of atoms/cell      =           19
     number of atomic types    =            2
     number of electrons       =        92.00
     number of Kohn-Sham states=           55
     kinetic-energy cutoff     =      30.0000  Ry
     charge density cutoff     =     240.0000  Ry
     scf convergence threshold =      1.0E-06
     mixing beta               =       0.7000
     number of iterations used =            8  plain     mixing
     Exchange-correlation=  SLA  PW   PBX  PBC
                           (   1   4   3   4   0   0   0)

     celldm(1)=  10.477419  celldm(2)=   0.000000  celldm(3)=   0.000000
     celldm(4)=   0.000000  celldm(5)=   0.000000  celldm(6)=   0.000000

     crystal axes: (cart. coord. in units of alat)
               a(1) = (   1.000000   0.000000   0.000000 )
               a(2) = (   0.124569   0.992211   0.000000 )
               a(3) = (   0.124569   0.109908   0.986105 )

     reciprocal axes: (cart. coord. in units 2 pi/alat)
               b(1) = (  1.000000 -0.125547 -0.112331 )
               b(2) = (  0.000000  1.007850 -0.112331 )
               b(3) = (  0.000000  0.000000  1.014091 )

     PseudoPot. # 1 for Ti read from file:
     /home/pragov/projects/rrg-bengioy-ad/pragov/crystal_structure_design/SSSP/ti_pbe_v1.4.uspp.F.UPF
     MD5 check sum: 88a00a6731bd790ddea75d31a80cb452
     Pseudo is Ultrasoft + core correction, Zval = 12.0
     Generated by new atomic code, or converted to UPF format
     Using radial grid of  851 points,  6 beta functions with:
                l(1) =   0
                l(2) =   0
                l(3) =   1
                l(4) =   1
                l(5) =   2
                l(6) =   2
     Q(r) pseudized with  6 coefficients,  rinner =    1.000   1.000   1.000
                                                       1.000   1.000

     PseudoPot. # 2 for Be read from file:
     /home/pragov/projects/rrg-bengioy-ad/pragov/crystal_structure_design/SSSP/be_pbe_v1.4.uspp.F.UPF
     MD5 check sum: 5ecff1440924c7c98ad504bef30f5264
     Pseudo is Ultrasoft, Zval =  4.0
     Generated by new atomic code, or converted to UPF format
     Using radial grid of  769 points,  6 beta functions with:
                l(1) =   0
                l(2) =   0
                l(3) =   0
                l(4) =   1
                l(5) =   1
                l(6) =   2
     Q(r) pseudized with 10 coefficients,  rinner =    1.000   1.000   1.000
                                                       1.000   1.000

     atomic species   valence    mass     pseudopotential
        Ti            12.00    47.86700     Ti( 1.00)
        Be             4.00     9.01218     Be( 1.00)

      2 Sym. Ops., with inversion, found

                                    s                        frac. trans.

      isym =  1     identity

 cryst.   s( 1) = (     1          0          0      )
                  (     0          1          0      )
                  (     0          0          1      )

 cart.    s( 1) = (  1.0000000 -0.0000000  0.0000000 )
                  (  0.0000000  1.0000000  0.0000000 )
                  (  0.0000000  0.0000000  1.0000000 )

      isym =  2     inversion

 cryst.   s( 2) = (    -1          0          0      )
                  (     0         -1          0      )
                  (     0          0         -1      )

 cart.    s( 2) = ( -1.0000000  0.0000000 -0.0000000 )
                  (  0.0000000 -1.0000000 -0.0000000 )
                  (  0.0000000  0.0000000 -1.0000000 )

   Cartesian axes

     site n.     atom                  positions (alat units)
         1           Ti  tau(   1) = (   0.2046576   0.1805700   0.1615624  )
         2           Ti  tau(   2) = (   1.0444808   0.9215487   0.8245425  )
         3           Be  tau(   3) = (   0.5009207   0.4419639   0.3954409  )
         4           Be  tau(   4) = (   0.7482176   0.6601548   0.5906640  )
         5           Be  tau(   5) = (   0.5622846   0.4961055   0.0000000  )
         6           Be  tau(   6) = (   0.5622846   0.0549539   0.4930525  )
         7           Be  tau(   7) = (   0.1245692   0.5510594   0.4930525  )
         8           Be  tau(   8) = (   0.6245692   0.8115099   0.2019602  )
         9           Be  tau(   9) = (   0.8829911   0.2581646   0.4930525  )
        10           Be  tau(  10) = (   0.3661472   0.5835035   0.7841447  )
        11           Be  tau(  11) = (   0.6245692   0.2906088   0.7841447  )
        12           Be  tau(  12) = (   0.3661472   0.8439541   0.4930525  )
        13           Be  tau(  13) = (   0.8829911   0.5186152   0.2019602  )
        14           Be  tau(  14) = (   0.6984464   0.1692755   0.1514568  )
        15           Be  tau(  15) = (   0.2549619   0.2249537   0.6510077  )
        16           Be  tau(  16) = (   0.2549619   0.6719196   0.1514568  )
        17           Be  tau(  17) = (   0.9941764   0.4301991   0.8346481  )
        18           Be  tau(  18) = (   0.5506919   0.9328432   0.8346481  )
        19           Be  tau(  19) = (   0.9941764   0.8771650   0.3350972  )

   Crystallographic axes

     site n.     atom                  positions (cryst. coord.)
         1           Ti  tau(   1) = (  0.1638390  0.1638390  0.1638390  )
         2           Ti  tau(   2) = (  0.8361610  0.8361610  0.8361610  )
         3           Be  tau(   3) = (  0.4010130  0.4010130  0.4010130  )
         4           Be  tau(   4) = (  0.5989870  0.5989870  0.5989870  )
         5           Be  tau(   5) = (  0.5000000  0.5000000  0.0000000  )
         6           Be  tau(   6) = (  0.5000000  0.0000000  0.5000000  )
         7           Be  tau(   7) = ( -0.0000000  0.5000000  0.5000000  )
         8           Be  tau(   8) = (  0.5000000  0.7951940  0.2048060  )
         9           Be  tau(   9) = (  0.7951940  0.2048060  0.5000000  )
        10           Be  tau(  10) = (  0.2048060  0.5000000  0.7951940  )
        11           Be  tau(  11) = (  0.5000000  0.2048060  0.7951940  )
        12           Be  tau(  12) = (  0.2048060  0.7951940  0.5000000  )
        13           Be  tau(  13) = (  0.7951940  0.5000000  0.2048060  )
        14           Be  tau(  14) = (  0.6601810  0.1535910  0.1535910  )
        15           Be  tau(  15) = (  0.1535910  0.1535910  0.6601810  )
        16           Be  tau(  16) = (  0.1535910  0.6601810  0.1535910  )
        17           Be  tau(  17) = (  0.8464090  0.3398190  0.8464090  )
        18           Be  tau(  18) = (  0.3398190  0.8464090  0.8464090  )
        19           Be  tau(  19) = (  0.8464090  0.8464090  0.3398190  )

     number of k points=     1  Methfessel-Paxton smearing, width (Ry)=  0.0010
                       cart. coord. in units 2pi/alat
        k(    1) = (   0.0000000   0.0000000   0.0000000), wk =   2.0000000

                       cryst. coord.
        k(    1) = (   0.0000000   0.0000000   0.0000000), wk =   2.0000000

     Check: negative core charge=   -0.000004

     Initial potential from superposition of free atoms

     starting charge      89.9973, renormalised to      92.0000

     negative rho (up, down):  2.783E-03 0.000E+00
     Starting wfcs are  105 randomized atomic wfcs

     Self-consistent Calculation

     iteration #  1     ecut=    30.00 Ry     beta= 0.70
     Davidson diagonalization with overlap

     ethr =  1.00E-02,  avg # of iterations =  2.0

     Threshold (ethr) on eigenvalues was too large:
     Diagonalizing with lowered threshold

     Davidson diagonalization with overlap

[...]

     negative rho (up, down):  2.194E-03 0.000E+00

     total energy              =    -718.86257241 Ry
     estimated scf accuracy    <       0.48143274 Ry

[...]

     total energy              =    -719.07698064 Ry
     estimated scf accuracy    <       0.00000148 Ry

     iteration # 14     ecut=    30.00 Ry     beta= 0.70
     Davidson diagonalization with overlap

     ethr =  1.61E-09,  avg # of iterations =  3.0

[...]

     End of self-consistent calculation

          k = 0.0000 0.0000 0.0000 (  1569 PWs)   bands (ev):

   -90.2923 -90.2794 -90.0411 -90.0410 -90.0355 -90.0354 -90.0322 -90.0197
   -89.4989 -89.4934 -89.4933 -89.4852 -89.4851 -89.4787 -89.4043 -89.4041
   -89.3907 -47.8486 -47.8467 -24.1308 -24.1045 -24.0804 -24.0804 -24.0778
   -24.0778  -0.8893   2.3497   2.3497   2.7280   2.7281   3.4777   3.5643
     5.3263   5.3264   5.4933   5.4933   5.7985   6.2564   6.5572   6.9642
     6.9642   7.0295   7.0296   7.1852   7.8294   9.3036   9.3036   9.9263
     9.9263  10.4012  10.4012  11.3724  11.4570  11.4570  11.9279

     occupation numbers
     1.0000   1.0000   1.0000   1.0000   1.0000   1.0000   1.0000   1.0000
     1.0000   1.0000   1.0000   1.0000   1.0000   1.0000   1.0000   1.0000
     1.0000   1.0000   1.0000   1.0000   1.0000   1.0000   1.0000   1.0000
     1.0000   1.0000   1.0000   1.0000   1.0000   1.0000   1.0000   1.0000
     1.0000   1.0000   1.0000   1.0000   1.0000   1.0000   1.0000   1.0000
     1.0000   1.0000   1.0000   1.0000   1.0000   0.5007   0.4993  -0.0000
    -0.0000  -0.0000  -0.0000  -0.0000  -0.0000  -0.0000  -0.0000

     the Fermi energy is     9.3036 ev

!    total energy              =    -719.07698068 Ry
     estimated scf accuracy    <       0.00000009 Ry
     smearing contrib. (-TS)   =      -0.00056419 Ry
     internal energy E=F+TS    =    -719.07641649 Ry

     The total energy is F=E-TS. E is the sum of the following terms:
     one-electron contribution =    -354.97311548 Ry
     hartree contribution      =     131.17678212 Ry
     xc contribution           =    -122.83607814 Ry
     ewald contribution        =    -372.44400499 Ry

     convergence has been achieved in  14 iterations

     negative rho (up, down):  2.170E-03 0.000E+00

     Forces acting on atoms (cartesian axes, Ry/au):

     atom    1 type  1   force =    -0.01461808   -0.01282188   -0.01149958
     atom    2 type  1   force =     0.01461808    0.01282188    0.01149958
     atom    3 type  2   force =     0.00690575    0.00611231    0.00546988
     atom    4 type  2   force =    -0.00690575   -0.00611231   -0.00546988
     atom    5 type  2   force =     0.00000000    0.00000000    0.00000000
     atom    6 type  2   force =     0.00000000    0.00000000    0.00000000
     atom    7 type  2   force =     0.00000000    0.00000000    0.00000000
     atom    8 type  2   force =    -0.00000282    0.00332979   -0.00371586
     atom    9 type  2   force =     0.00332375   -0.00374092    0.00000398
     atom   10 type  2   force =    -0.00333565    0.00041377    0.00372543
     atom   11 type  2   force =     0.00000282   -0.00332979    0.00371586
     atom   12 type  2   force =    -0.00332375    0.00374092   -0.00000398
     atom   13 type  2   force =     0.00333565   -0.00041377   -0.00372543
     atom   14 type  2   force =    -0.00428218   -0.00644423   -0.00576330
     atom   15 type  2   force =    -0.00693341   -0.00610378   -0.00280979
     atom   16 type  2   force =    -0.00694434   -0.00346334   -0.00576346
     atom   17 type  2   force =     0.00694434    0.00346334    0.00576346
     atom   18 type  2   force =     0.00428218    0.00644423    0.00576330
     atom   19 type  2   force =     0.00693341    0.00610378    0.00280979
     The non-local contrib.  to forces
     atom    1 type  1   force =     0.00178945    0.00149885    0.00138339
     atom    2 type  1   force =    -0.00178945   -0.00149885   -0.00138339
     atom    3 type  2   force =     0.06684943    0.05900670    0.05278957
     atom    4 type  2   force =    -0.06684943   -0.05900670   -0.05278957
     atom    5 type  2   force =     0.00000000    0.00000000    0.00000000
     atom    6 type  2   force =     0.00000000    0.00000000    0.00000000
     atom    7 type  2   force =     0.00000000    0.00000000    0.00000000
     atom    8 type  2   force =    -0.00000236   -0.03456136    0.03861280
     atom    9 type  2   force =    -0.03422984    0.03886073    0.00000251
     atom   10 type  2   force =     0.03422587   -0.00430343   -0.03859956
     atom   11 type  2   force =     0.00000236    0.03456136   -0.03861280
     atom   12 type  2   force =     0.03422984   -0.03886073   -0.00000251
     atom   13 type  2   force =    -0.03422587    0.00430343    0.03859956
     atom   14 type  2   force =    -0.01968014    0.02352121    0.02101991
     atom   15 type  2   force =     0.02079803    0.01843442   -0.02464716
     atom   16 type  2   force =     0.02078767   -0.02244587    0.02101515
     atom   17 type  2   force =    -0.02078767    0.02244587   -0.02101515
     atom   18 type  2   force =     0.01968014   -0.02352121   -0.02101991
     atom   19 type  2   force =    -0.02079803   -0.01843442    0.02464716
     The ionic contribution  to forces
     atom    1 type  1   force =    -0.28392485   -0.25050780   -0.22413824
     atom    2 type  1   force =     0.28392485    0.25050780    0.22413824
     atom    3 type  2   force =     0.51482650    0.45423305    0.40641851
     atom    4 type  2   force =    -0.51482650   -0.45423305   -0.40641851
     atom    5 type  2   force =    -0.00000000   -0.00000000    0.00000000
     atom    6 type  2   force =     0.00000000   -0.00000000    0.00000000
     atom    7 type  2   force =    -0.00000000    0.00000000   -0.00000000
     atom    8 type  2   force =     0.00000004   -0.31634313    0.35356048
     atom    9 type  2   force =    -0.31387909    0.35574971    0.00000000
     atom   10 type  2   force =     0.31387910   -0.03940664   -0.35356048
     atom   11 type  2   force =    -0.00000004    0.31634312   -0.35356048
     atom   12 type  2   force =     0.31387909   -0.35574971    0.00000000
     atom   13 type  2   force =    -0.31387910    0.03940664    0.35356048
     atom   14 type  2   force =    -0.02519252    0.06444512    0.05766141
     atom   15 type  2   force =     0.06080503    0.05364847   -0.03920821
     atom   16 type  2   force =     0.06080494   -0.03302417    0.05766141
     atom   17 type  2   force =    -0.06080494    0.03302417   -0.05766141
     atom   18 type  2   force =     0.02519252   -0.06444512   -0.05766141
     atom   19 type  2   force =    -0.06080503   -0.05364847    0.03920821
     The local contribution  to forces
     atom    1 type  1   force =     0.26687490    0.23543906    0.21066209
     atom    2 type  1   force =    -0.26715021   -0.23555580   -0.21067406
     atom    3 type  2   force =    -0.57469432   -0.50715001   -0.45379136
     atom    4 type  2   force =     0.57480187    0.50719415    0.45376484
     atom    5 type  2   force =     0.00004450    0.00000077   -0.00002382
     atom    6 type  2   force =     0.00008705   -0.00005847   -0.00001224
     atom    7 type  2   force =    -0.00007975    0.00004787   -0.00001018
     atom    8 type  2   force =     0.00007568    0.35429470   -0.39594321
     atom    9 type  2   force =     0.35134450   -0.39841324   -0.00002000
     atom   10 type  2   force =    -0.35134032    0.04416408    0.39590288
     atom   11 type  2   force =     0.00005198   -0.35429749    0.39595261
     atom   12 type  2   force =    -0.35138672    0.39839601    0.00001003
     atom   13 type  2   force =     0.35133670   -0.04409716   -0.39587680
     atom   14 type  2   force =     0.04059229   -0.09452357   -0.08445511
     atom   15 type  2   force =    -0.08846402   -0.07830591    0.06107109
     atom   16 type  2   force =    -0.08845722    0.05203093   -0.08446891
     atom   17 type  2   force =     0.08835682   -0.05197054    0.08447128
     atom   18 type  2   force =    -0.04051526    0.09446328    0.08446319
     atom   19 type  2   force =     0.08840249    0.07829346   -0.06105404
     The core correction contribution to forces
     atom    1 type  1   force =     0.00067505    0.00062046    0.00054433
     atom    2 type  1   force =    -0.00067664   -0.00062195   -0.00054479
     atom    3 type  2   force =     0.00000000    0.00000000    0.00000000
     atom    4 type  2   force =     0.00000000    0.00000000    0.00000000
     atom    5 type  2   force =     0.00000000    0.00000000    0.00000000
     atom    6 type  2   force =     0.00000000    0.00000000    0.00000000
     atom    7 type  2   force =     0.00000000    0.00000000    0.00000000
     atom    8 type  2   force =     0.00000000    0.00000000    0.00000000
     atom    9 type  2   force =     0.00000000    0.00000000    0.00000000
     atom   10 type  2   force =     0.00000000    0.00000000    0.00000000
     atom   11 type  2   force =     0.00000000    0.00000000    0.00000000
     atom   12 type  2   force =     0.00000000    0.00000000    0.00000000
     atom   13 type  2   force =     0.00000000    0.00000000    0.00000000
     atom   14 type  2   force =     0.00000000    0.00000000    0.00000000
     atom   15 type  2   force =     0.00000000    0.00000000    0.00000000
     atom   16 type  2   force =     0.00000000    0.00000000    0.00000000
     atom   17 type  2   force =     0.00000000    0.00000000    0.00000000
     atom   18 type  2   force =     0.00000000    0.00000000    0.00000000
     atom   19 type  2   force =     0.00000000    0.00000000    0.00000000
     The Hubbard contrib.    to forces
     atom    1 type  1   force =     0.00000000    0.00000000    0.00000000
     atom    2 type  1   force =     0.00000000    0.00000000    0.00000000
     atom    3 type  2   force =     0.00000000    0.00000000    0.00000000
     atom    4 type  2   force =     0.00000000    0.00000000    0.00000000
     atom    5 type  2   force =     0.00000000    0.00000000    0.00000000
     atom    6 type  2   force =     0.00000000    0.00000000    0.00000000
     atom    7 type  2   force =     0.00000000    0.00000000    0.00000000
     atom    8 type  2   force =     0.00000000    0.00000000    0.00000000
     atom    9 type  2   force =     0.00000000    0.00000000    0.00000000
     atom   10 type  2   force =     0.00000000    0.00000000    0.00000000
     atom   11 type  2   force =     0.00000000    0.00000000    0.00000000
     atom   12 type  2   force =     0.00000000    0.00000000    0.00000000
     atom   13 type  2   force =     0.00000000    0.00000000    0.00000000
     atom   14 type  2   force =     0.00000000    0.00000000    0.00000000
     atom   15 type  2   force =     0.00000000    0.00000000    0.00000000
     atom   16 type  2   force =     0.00000000    0.00000000    0.00000000
     atom   17 type  2   force =     0.00000000    0.00000000    0.00000000
     atom   18 type  2   force =     0.00000000    0.00000000    0.00000000
     atom   19 type  2   force =     0.00000000    0.00000000    0.00000000
     The SCF correction term to forces
     atom    1 type  1   force =    -0.00003053    0.00012204    0.00005240
     atom    2 type  1   force =     0.00031164   -0.00001482   -0.00003286
     atom    3 type  2   force =    -0.00008187    0.00002281    0.00005424
     atom    4 type  2   force =    -0.00003768   -0.00006646   -0.00002555
     atom    5 type  2   force =    -0.00004797    0.00000087    0.00002808
     atom    6 type  2   force =    -0.00010058    0.00006236    0.00000969
     atom    7 type  2   force =     0.00009272   -0.00005038    0.00001392
     atom    8 type  2   force =    -0.00008182   -0.00005947    0.00005301
     atom    9 type  2   force =     0.00008989    0.00006223    0.00002356
     atom   10 type  2   force =    -0.00010230   -0.00003817   -0.00002274
     atom   11 type  2   force =    -0.00005711    0.00006416   -0.00006451
     atom   12 type  2   force =    -0.00004425   -0.00004431   -0.00000941
     atom   13 type  2   force =     0.00010194   -0.00002461   -0.00001401
     atom   14 type  2   force =    -0.00000505    0.00011078    0.00000803
     atom   15 type  2   force =    -0.00006875    0.00011776   -0.00002695
     atom   16 type  2   force =    -0.00007327   -0.00002340    0.00003040
     atom   17 type  2   force =     0.00018661   -0.00003532   -0.00002976
     atom   18 type  2   force =    -0.00007843   -0.00005494   -0.00002103
     atom   19 type  2   force =     0.00013769   -0.00010825    0.00000701

     Total force =     0.044275     Total SCF correction =     0.000585

     Computing stress (Cartesian axis) and pressure

     negative rho (up, down):  2.170E-03 0.000E+00
          total   stress  (Ry/bohr**3)                   (kbar)     P=      -94.51
  -0.00060495   0.00016405   0.00014662          -88.99       24.13       21.57
   0.00016405  -0.00064690   0.00012988           24.13      -95.16       19.11
   0.00014662   0.00012988  -0.00067547           21.57       19.11      -99.37

     kinetic stress (kbar)   9849.02      2.91      2.48
                                2.91   9848.35      2.48
                                2.48      2.48   9847.80

     local   stress (kbar)   5933.98    172.92    154.91
                              172.92   5890.31    136.27
                              154.91    136.27   5860.01

     nonloc. stress (kbar)   -287.79      7.38      6.58
                                7.38   -289.61      5.85
                                6.58      5.85   -290.93

     hartree stress (kbar)   5700.05    -69.38    -62.15
                              -69.38   5717.51    -54.68
                              -62.15    -54.68   5729.69

     exc-cor stress (kbar)  -4077.47     -0.67     -0.60
                               -0.67  -4077.31     -0.52
                               -0.60     -0.52  -4077.19

     corecor stress (kbar)   -958.24     -0.27     -0.24
                               -0.27   -958.18     -0.22
                               -0.24     -0.22   -958.13

     ewald   stress (kbar) -16248.53    -88.76    -79.42
                              -88.76 -16226.24    -70.07
                              -79.42    -70.07 -16210.62

     hubbard stress (kbar)      0.00      0.00      0.00
                                0.00      0.00      0.00
                                0.00      0.00      0.00

     DFT-D   stress (kbar)      0.00      0.00      0.00
                                0.00      0.00      0.00
                                0.00      0.00      0.00

     XDM     stress (kbar)      0.00      0.00      0.00
                                0.00      0.00      0.00
                                0.00      0.00      0.00

     dft-nl  stress (kbar)      0.00      0.00      0.00
                                0.00      0.00      0.00
                                0.00      0.00      0.00

     TS-vdW  stress (kbar)      0.00      0.00      0.00
                                0.00      0.00      0.00
                                0.00      0.00      0.00

[...]

                                0.00      0.00      0.00

     Writing all to output data dir new_calculations/myprefix.save/

     General routines

     Parallel routines

   This run was terminated on:   9:24:47  20May2023

   JOB DONE.