     Program PWSCF v.7.0 starts on 21May2023 at  4:24:20

     Reading input from espresso_18868.pwi
Warning: card &CELL ignored
Warning: card / ignored

     Current dimensions of program PWSCF are:
     Max number of different atomic species (ntypx) = 10
     Max number of k-points (npk) =  40000
     Max angular momentum in pseudopotentials (lmaxx) =  4
     file Nb.pbe-spn-kjpaw_psl.0.3.0.UPF: wavefunction(s)  4S 4P renormalized
     file Al.pbe-n-kjpaw_psl.1.0.0.UPF: wavefunction(s)  3S 3P renormalized

     gamma-point specific algorithms are used
     Message from routine setup:
     using ibrav=0 with symmetry is DISCOURAGED, use correct ibrav instead

     Subspace diagonalization in iterative solution of the eigenvalue problem:
     a serial algorithm will be used

     Using Slab Decomposition

     bravais-lattice index     =            0
     lattice parameter (alat)  =       9.3225  a.u.
     unit-cell volume          =    1151.2801 (a.u.)^3
     number of atoms/cell      =           12
     number of atomic types    =            3
     number of electrons       =       136.00
     number of Kohn-Sham states=           82
     kinetic-energy cutoff     =      30.0000  Ry
     charge density cutoff     =     240.0000  Ry
     scf convergence threshold =      1.0E-06
     mixing beta               =       0.7000
     number of iterations used =            8  plain     mixing
     Exchange-correlation=  SLA  PW   PBX  PBC
                           (   1   4   3   4   0   0   0)

     celldm(1)=   9.322512  celldm(2)=   0.000000  celldm(3)=   0.000000
     celldm(4)=   0.000000  celldm(5)=   0.000000  celldm(6)=   0.000000

     crystal axes: (cart. coord. in units of alat)
               a(1) = (   1.000000   0.000000   0.000000 )
               a(2) = (   0.481087   0.876869   0.000000 )
               a(3) = (   0.000000   0.000000   1.620493 )

     reciprocal axes: (cart. coord. in units 2 pi/alat)
               b(1) = (  1.000000 -0.548642  0.000000 )
               b(2) = (  0.000000  1.140421  0.000000 )
               b(3) = (  0.000000  0.000000  0.617096 )

     PseudoPot. # 1 for Nb read from file:
     /home/pragov/projects/rrg-bengioy-ad/pragov/crystal_structure_design/SSSP/Nb.pbe-spn-kjpaw_psl.0.3.0.UPF
     MD5 check sum: 411d72ad547312f8017e2943ceca08cc
     Pseudo is Projector augmented-wave + core cor, Zval = 13.0
     Generated using "atomic" code by A. Dal Corso  v.5.0.99 svn rev. 10869
     Shape of augmentation charge: PSQ
     Using radial grid of 1227 points,  6 beta functions with:
                l(1) =   0
                l(2) =   0
                l(3) =   1
                l(4) =   1
                l(5) =   2
                l(6) =   2
     Q(r) pseudized with 0 coefficients

     PseudoPot. # 2 for Al read from file:
     /home/pragov/projects/rrg-bengioy-ad/pragov/crystal_structure_design/SSSP/Al.pbe-n-kjpaw_psl.1.0.0.UPF
     MD5 check sum: cfc449ca30b5f3223ec38ddd88ac046d
     Pseudo is Projector augmented-wave + core cor, Zval =  3.0
     Generated using "atomic" code by A. Dal Corso  v.5.1
     Shape of augmentation charge: PSQ
     Using radial grid of 1135 points,  6 beta functions with:
                l(1) =   0
                l(2) =   0
                l(3) =   1
                l(4) =   1
                l(5) =   2
                l(6) =   2
     Q(r) pseudized with 0 coefficients

     PseudoPot. # 3 for Ni read from file:
     /home/pragov/projects/rrg-bengioy-ad/pragov/crystal_structure_design/SSSP/ni_pbe_v1.4.uspp.F.UPF
     MD5 check sum: 1ee80287db30b12d2bc1f57a5b5d6409
     Pseudo is Ultrasoft + core correction, Zval = 18.0
     Generated by new atomic code, or converted to UPF format
     Using radial grid of  865 points,  6 beta functions with:
                l(1) =   0
                l(2) =   0
                l(3) =   1
                l(4) =   1
                l(5) =   2
                l(6) =   2
     Q(r) pseudized with 10 coefficients,  rinner =    0.980   0.980   0.980
                                                       0.980   0.980

     atomic species   valence    mass     pseudopotential
        Nb            13.00    92.90637     Nb( 1.00)
        Al             3.00    26.98154     Al( 1.00)
        Ni            18.00    58.69340     Ni( 1.00)

      2 Sym. Ops. (no inversion) found ( 1 have fractional translation)

                                    s                        frac. trans.

      isym =  1     identity

 cryst.   s( 1) = (     1          0          0      )
                  (     0          1          0      )
                  (     0          0          1      )

 cart.    s( 1) = (  1.0000000 -0.0000000  0.0000000 )
                  (  0.0000000  1.0000000  0.0000000 )
                  (  0.0000000  0.0000000  1.0000000 )

      isym =  2     inv. 180 deg rotation - cart. axis [0,0,1]

 cryst.   s( 2) = (     1          0          0      )    f =(  0.0000000 )
                  (     0          1          0      )       (  0.0000000 )
                  (     0          0         -1      )       (  0.5000000 )

 cart.    s( 2) = (  1.0000000 -0.0000000  0.0000000 )    f =(  0.0000000 )
                  (  0.0000000  1.0000000  0.0000000 )       (  0.0000000 )
                  (  0.0000000  0.0000000 -1.0000000 )       (  0.8102466 )

   Cartesian axes

     site n.     atom                  positions (alat units)
         1           Nb  tau(   1) = (   0.4944397   0.2927349   0.8931770  )
         2           Nb  tau(   2) = (   0.9815534   0.5811303   0.6950198  )
         3           Nb  tau(   3) = (   0.9815534   0.5811303   0.1152268  )
         4           Nb  tau(   4) = (   0.4944397   0.2927349   1.5375629  )
         5           Al  tau(   5) = (   1.4698087   0.8702429   0.7898981  )
         6           Al  tau(   6) = (   1.4698087   0.8702429   0.0203485  )
         7           Al  tau(   7) = (   1.0029757   0.3071524   1.2153699  )
         8           Al  tau(   8) = (   0.7517287   0.7317063   1.2153699  )
         9           Ni  tau(   9) = (   1.2421324   0.7353856   1.2153699  )
        10           Ni  tau(  10) = (   0.4886116   0.5729140   0.4051233  )
        11           Ni  tau(  11) = (   0.7372657   0.1527585   0.4051233  )
        12           Ni  tau(  12) = (   0.2532942   0.1499543   0.4051233  )

   Crystallographic axes

     site n.     atom                  positions (cryst. coord.)
         1           Nb  tau(   1) = (  0.3338330  0.3338410  0.5511760  )
         2           Nb  tau(   2) = (  0.6627210  0.6627330  0.4288940  )
         3           Nb  tau(   3) = (  0.6627210  0.6627330  0.0711060  )
         4           Nb  tau(   4) = (  0.3338330  0.3338410  0.9488240  )
         5           Al  tau(   5) = (  0.9923570  0.9924430  0.4874430  )
         6           Al  tau(   6) = (  0.9923570  0.9924430  0.0125570  )
         7           Al  tau(   7) = (  0.8344590  0.3502830  0.7500000  )
         8           Al  tau(   8) = (  0.3502840  0.8344530  0.7500000  )
         9           Ni  tau(   9) = (  0.8386690  0.8386490  0.7500000  )
        10           Ni  tau(  10) = (  0.1742870  0.6533630  0.2500000  )
        11           Ni  tau(  11) = (  0.6534560  0.1742090  0.2500000  )
        12           Ni  tau(  12) = (  0.1710230  0.1710110  0.2500000  )

     number of k points=     1  Methfessel-Paxton smearing, width (Ry)=  0.0010
                       cart. coord. in units 2pi/alat
        k(    1) = (   0.0000000   0.0000000   0.0000000), wk =   2.0000000

                       cryst. coord.
        k(    1) = (   0.0000000   0.0000000   0.0000000), wk =   2.0000000

     Check: negative core charge=   -0.000014

     Initial potential from superposition of free atoms

     starting charge     127.9824, renormalised to     136.0000
     Starting wfcs are  108 randomized atomic wfcs
     Checking if some PAW data can be deallocated...

     Self-consistent Calculation

     iteration #  1     ecut=    30.00 Ry     beta= 0.70
     Davidson diagonalization with overlap

     ethr =  1.00E-02,  avg # of iterations =  5.0

     total energy              =   -2803.33666069 Ry
     estimated scf accuracy    <      94.94870182 Ry

[...]

     total energy              =   -2867.77058974 Ry
     estimated scf accuracy    <       0.00000245 Ry

     iteration # 24     ecut=    30.00 Ry     beta= 0.70
     Davidson diagonalization with overlap

     ethr =  1.80E-09,  avg # of iterations =  2.0

     End of self-consistent calculation

          k = 0.0000 0.0000 0.0000 (  1594 PWs)   bands (ev):

   -88.4573 -88.4467 -88.3956 -88.3849 -49.1416 -49.0005 -48.9775 -48.9115
   -48.9006 -48.7888 -48.7744 -48.7378 -48.5406 -48.3698 -48.3518 -48.3034
   -39.6747 -39.6576 -39.5140 -39.4657 -15.8983 -15.8686 -15.8387 -15.8164
   -15.7634 -15.7328 -15.6635 -15.4822 -15.4770 -15.4426 -15.4349 -15.3753
     5.6488   8.0777   8.1345  10.5751  10.8327  11.1569  11.4430  11.5412
    11.5979  12.0176  12.1339  12.2725  12.4034  12.5032  12.6298  12.7321
    12.7718  12.8023  12.8917  13.1979  13.2314  13.3676  13.4154  13.5828
    13.8293  13.9279  13.9284  13.9795  14.0280  14.1124  14.1154  14.3053
    14.3970  14.7250  14.8652  15.0017  15.4099  15.4332  15.5278  16.0892
    16.4805  17.4008  17.4981  17.7584  17.8796  18.1517  18.3399  18.4470
    18.9257  19.1263

     occupation numbers
     1.0000   1.0000   1.0000   1.0000   1.0000   1.0000   1.0000   1.0000
     1.0000   1.0000   1.0000   1.0000   1.0000   1.0000   1.0000   1.0000
     1.0000   1.0000   1.0000   1.0000   1.0000   1.0000   1.0000   1.0000
     1.0000   1.0000   1.0000   1.0000   1.0000   1.0000   1.0000   1.0000
     1.0000   1.0000   1.0000   1.0000   1.0000   1.0000   1.0000   1.0000
     1.0000   1.0000   1.0000   1.0000   1.0000   1.0000   1.0000   1.0000
     1.0000   1.0000   1.0000   1.0000   1.0000   1.0000   1.0000   1.0000
     1.0000   1.0000   1.0000   1.0000   1.0000   1.0000   1.0000   1.0000
     1.0000   1.0000   1.0000   1.0000  -0.0000  -0.0000  -0.0000  -0.0000
    -0.0000  -0.0000  -0.0000  -0.0000  -0.0000  -0.0000  -0.0000  -0.0000
    -0.0000  -0.0000

     the Fermi energy is    15.2599 ev

!    total energy              =   -2867.77058950 Ry
     estimated scf accuracy    <       0.00000058 Ry
     smearing contrib. (-TS)   =       0.00000000 Ry
     internal energy E=F+TS    =   -2867.77058950 Ry

     The total energy is F=E-TS. E is the sum of the following terms:
     one-electron contribution =   -1373.45507534 Ry
     hartree contribution      =     762.50607908 Ry
     xc contribution           =    -268.34887344 Ry
     ewald contribution        =   -1015.73220553 Ry
     one-center paw contrib.   =    -972.74051428 Ry
      -> PAW hartree energy AE =     281.26047441 Ry
      -> PAW hartree energy PS =    -279.76676216 Ry
      -> PAW xc energy AE      =   -1090.72981863 Ry
      -> PAW xc energy PS      =     116.49559210 Ry
      -> total E_H with PAW    =     763.99979133 Ry
      -> total E_XC with PAW   =   -1242.58309997 Ry

     convergence has been achieved in  24 iterations

     Forces acting on atoms (cartesian axes, Ry/au):

     atom    1 type  1   force =    -0.00162589   -0.00095587    0.16109762
     atom    2 type  1   force =     0.01178104    0.00695266   -0.10062673
     atom    3 type  1   force =     0.01178104    0.00695266    0.10062673
     atom    4 type  1   force =    -0.00162589   -0.00095587   -0.16109762
     atom    5 type  2   force =    -0.00552969   -0.00338169    0.01388706
     atom    6 type  2   force =    -0.00552969   -0.00338169   -0.01388706
     atom    7 type  2   force =     0.00221587   -0.00288391    0.00000000
     atom    8 type  2   force =    -0.00148572    0.00338048    0.00000000
     atom    9 type  3   force =    -0.00616209   -0.00363388    0.00000000
     atom   10 type  3   force =     0.00133327    0.00331387    0.00000000
     atom   11 type  3   force =     0.00325119   -0.00039601    0.00000000
     atom   12 type  3   force =    -0.00840343   -0.00501072    0.00000000
     The non-local contrib.  to forces
     atom    1 type  1   force =     0.00376919    0.00215021   -0.03673614
     atom    2 type  1   force =    -0.01153733   -0.00676882    0.00573017
     atom    3 type  1   force =    -0.01153733   -0.00676882   -0.00573017
     atom    4 type  1   force =     0.00376919    0.00215021    0.03673614
     atom    5 type  2   force =     0.02012966    0.01178055    0.04754026
     atom    6 type  2   force =     0.02012966    0.01178055   -0.04754026
     atom    7 type  2   force =    -0.01078094   -0.04302824    0.00000000
     atom    8 type  2   force =    -0.04290142    0.01125471    0.00000000
     atom    9 type  3   force =     0.11788912    0.06977956    0.00000000
     atom   10 type  3   force =    -0.03836755    0.22986702    0.00000000
     atom   11 type  3   force =     0.18359215   -0.14413103    0.00000000
     atom   12 type  3   force =    -0.21910723   -0.12975610    0.00000000
     The ionic contribution  to forces
     atom    1 type  1   force =    -0.49024732   -0.29196979   31.52598445
     atom    2 type  1   force =    -1.08065047   -0.63765357   31.56729457
     atom    3 type  1   force =    -1.08065047   -0.63765357  -31.56729457
     atom    4 type  1   force =    -0.49024732   -0.29196979  -31.52598445
     atom    5 type  2   force =     1.13909590    0.67282746    8.87490252
     atom    6 type  2   force =     1.13909590    0.67282746   -8.87490252
     atom    7 type  2   force =    -0.24737911   -0.81127786    0.00000000
     atom    8 type  2   force =    -0.82979884    0.17378700    0.00000000
     atom    9 type  3   force =     2.70190232    1.60108363   -0.00000000
     atom   10 type  3   force =    -0.80778429   11.05210408   -0.00000000
     atom   11 type  3   force =     9.29225268   -6.02524374   -0.00000000
     atom   12 type  3   force =    -9.24558897   -5.47686132   -0.00000000
     The local contribution  to forces
     atom    1 type  1   force =     0.48532388    0.28911473  -31.33420063
     atom    2 type  1   force =     1.10273536    0.65052678  -31.67455900
     atom    3 type  1   force =     1.10271724    0.65060959   31.67591770
     atom    4 type  1   force =     0.48523805    0.28905246   31.33319338
     atom    5 type  2   force =    -1.16259014   -0.68672189   -8.90261294
     atom    6 type  2   force =    -1.16258754   -0.68672269    8.90265968
     atom    7 type  2   force =     0.25919292    0.84669285   -0.00032053
     atom    8 type  2   force =     0.86651068   -0.18043724   -0.00031449
     atom    9 type  3   force =    -2.82358323   -1.67308448   -0.00182772
     atom   10 type  3   force =     0.84676797  -11.27749967    0.00209033
     atom   11 type  3   force =    -9.47175228    6.16784300    0.00209138
     atom   12 type  3   force =     9.45487918    5.60089254    0.00207350
     The core correction contribution to forces
     atom    1 type  1   force =    -0.00052691   -0.00030805    0.00567961
     atom    2 type  1   force =     0.00143067    0.00083921    0.00130296
     atom    3 type  1   force =     0.00142877    0.00083951   -0.00129944
     atom    4 type  1   force =    -0.00052968   -0.00030930   -0.00567944
     atom    5 type  2   force =    -0.00220435   -0.00128887   -0.00594296
     atom    6 type  2   force =    -0.00220474   -0.00128905    0.00594367
     atom    7 type  2   force =     0.00120513    0.00471998    0.00000020
     atom    8 type  2   force =     0.00471632   -0.00121504    0.00000031
     atom    9 type  3   force =    -0.00248385   -0.00146874   -0.00000141
     atom   10 type  3   force =     0.00055216   -0.00133946    0.00000212
     atom   11 type  3   force =    -0.00091974    0.00112755    0.00000251
     atom   12 type  3   force =     0.00167390    0.00099115    0.00000205
     The Hubbard contrib.    to forces
     atom    1 type  1   force =     0.00000000    0.00000000    0.00000000
     atom    2 type  1   force =     0.00000000    0.00000000    0.00000000
     atom    3 type  1   force =     0.00000000    0.00000000    0.00000000
     atom    4 type  1   force =     0.00000000    0.00000000    0.00000000
     atom    5 type  2   force =     0.00000000    0.00000000    0.00000000
     atom    6 type  2   force =     0.00000000    0.00000000    0.00000000
     atom    7 type  2   force =     0.00000000    0.00000000    0.00000000
     atom    8 type  2   force =     0.00000000    0.00000000    0.00000000
     atom    9 type  3   force =     0.00000000    0.00000000    0.00000000
     atom   10 type  3   force =     0.00000000    0.00000000    0.00000000
     atom   11 type  3   force =     0.00000000    0.00000000    0.00000000
     atom   12 type  3   force =     0.00000000    0.00000000    0.00000000
     The SCF correction term to forces
     atom    1 type  1   force =     0.00006762    0.00005275    0.00036718
     atom    2 type  1   force =    -0.00018442   -0.00000189   -0.00037303
     atom    3 type  1   force =    -0.00019095   -0.00008441   -0.00094439
     atom    4 type  1   force =     0.00013054    0.00010352    0.00063360
     atom    5 type  2   force =     0.00003916    0.00001038    0.00000373
     atom    6 type  2   force =     0.00003612    0.00001141   -0.00004408
     atom    7 type  2   force =    -0.00002264   -0.00000129    0.00029938
     atom    8 type  2   force =    -0.00001296   -0.00001959    0.00029563
     atom    9 type  3   force =     0.00011305    0.00004550    0.00171939
     atom   10 type  3   force =     0.00016447    0.00017124   -0.00197024
     atom   11 type  3   force =     0.00007790   -0.00000244   -0.00195145
     atom   12 type  3   force =    -0.00026080   -0.00028764   -0.00196670

     Total force =     0.270564     Total SCF correction =     0.004075

     Computing stress (Cartesian axis) and pressure

          total   stress  (Ry/bohr**3)                   (kbar)     P=     -635.45
  -0.00457928  -0.00025433   0.00000000         -673.63      -37.41        0.00
  -0.00025433  -0.00430876   0.00000000          -37.41     -633.84        0.00
   0.00000000   0.00000000  -0.00407099            0.00        0.00     -598.86

     kinetic stress (kbar)  31451.35    -36.73      0.00
                              -36.73  31490.75      0.00
                                0.00      0.00  31438.84

     local   stress (kbar) -50766.33   3920.13     -0.05
                             3920.13 -55057.56     -0.03
                               -0.05     -0.03  30643.86

     nonloc. stress (kbar)  12910.81    -58.11      0.00
                              -58.11  12974.26      0.00
                                0.00      0.00  12749.10

     hartree stress (kbar)  45032.44  -2043.27      0.05
                            -2043.27  47271.45      0.03
                                0.05      0.03   5125.50

     exc-cor stress (kbar)     62.96      1.05      0.00
                                1.05     61.79     -0.00
                                0.00     -0.00     62.92

     corecor stress (kbar)  -9192.72      1.28      0.00
                                1.28  -9194.12      0.00
                                0.00      0.00  -9186.23

     ewald   stress (kbar) -30172.15  -1821.76      0.00
                            -1821.76 -28180.40      0.00
                                0.00      0.00 -71432.86

     hubbard stress (kbar)      0.00      0.00      0.00
                                0.00      0.00      0.00
                                0.00      0.00      0.00

     DFT-D   stress (kbar)      0.00      0.00      0.00
                                0.00      0.00      0.00
                                0.00      0.00      0.00

     XDM     stress (kbar)      0.00      0.00      0.00
                                0.00      0.00      0.00
                                0.00      0.00      0.00

     dft-nl  stress (kbar)      0.00      0.00      0.00
                                0.00      0.00      0.00
                                0.00      0.00      0.00

     TS-vdW  stress (kbar)      0.00      0.00      0.00
                                0.00      0.00      0.00
                                0.00      0.00      0.00

[...]

                                0.00      0.00      0.00

     Writing all to output data dir new_calculations/myprefix.save/

     General routines

     Parallel routines

     PAW routines

   This run was terminated on:   4:25: 5  21May2023

   JOB DONE.