     Program PWSCF v.7.0 starts on 20May2023 at 15:53:22

     Reading input from espresso_13519.pwi
Warning: card &CELL ignored
Warning: card / ignored

     Current dimensions of program PWSCF are:
     Max number of different atomic species (ntypx) = 10
     Max number of k-points (npk) =  40000
     Max angular momentum in pseudopotentials (lmaxx) =  4

     gamma-point specific algorithms are used
     Message from routine setup:
     using ibrav=0 with symmetry is DISCOURAGED, use correct ibrav instead

     Subspace diagonalization in iterative solution of the eigenvalue problem:
     a serial algorithm will be used

     Using Slab Decomposition

     bravais-lattice index     =            0
     lattice parameter (alat)  =      25.4932  a.u.
     unit-cell volume          =    2903.0652 (a.u.)^3
     number of atoms/cell      =           20
     number of atomic types    =            3
     number of electrons       =       286.00
     number of Kohn-Sham states=          172
     kinetic-energy cutoff     =      30.0000  Ry
     charge density cutoff     =     240.0000  Ry
     scf convergence threshold =      1.0E-06
     mixing beta               =       0.7000
     number of iterations used =            8  plain     mixing
     Exchange-correlation= PBE
                           (   1   4   3   4   0   0   0)

     celldm(1)=  25.493232  celldm(2)=   0.000000  celldm(3)=   0.000000
     celldm(4)=   0.000000  celldm(5)=   0.000000  celldm(6)=   0.000000

     crystal axes: (cart. coord. in units of alat)
               a(1) = (   1.000000   0.000000   0.000000 )
               a(2) = (  -0.945288   0.326236   0.000000 )
               a(3) = (   0.000000   0.000000   0.537094 )

     reciprocal axes: (cart. coord. in units 2 pi/alat)
               b(1) = (  1.000000  2.897561  0.000000 )
               b(2) = (  0.000000  3.065267  0.000000 )
               b(3) = (  0.000000  0.000000  1.861871 )

     PseudoPot. # 1 for Y  read from file:
     /home/pragov/projects/rrg-bengioy-ad/pragov/crystal_structure_design/SSSP/Y_pbe_v1.uspp.F.UPF
     MD5 check sum: 2cf71db95cafeb975fc457bd7f14888e
     Pseudo is Ultrasoft + core correction, Zval = 11.0
     Generated by new atomic code, or converted to UPF format
     Using radial grid of  885 points,  6 beta functions with:
                l(1) =   0
                l(2) =   0
                l(3) =   1
                l(4) =   1
                l(5) =   2
                l(6) =   2
     Q(r) pseudized with  6 coefficients,  rinner =    1.200   1.200   1.200
                                                       1.200   1.200

     PseudoPot. # 2 for Sn read from file:
     /home/pragov/projects/rrg-bengioy-ad/pragov/crystal_structure_design/SSSP/Sn_pbe_v1.uspp.F.UPF
     MD5 check sum: 4cf58ce39ec5d5d420df3dd08604eb00
     Pseudo is Ultrasoft + core correction, Zval = 14.0
     Generated by new atomic code, or converted to UPF format
     Using radial grid of  891 points,  6 beta functions with:
                l(1) =   0
                l(2) =   0
                l(3) =   1
                l(4) =   1
                l(5) =   2
                l(6) =   2
     Q(r) pseudized with  6 coefficients,  rinner =    1.200   1.200   1.200
                                                       1.200   1.200

     PseudoPot. # 3 for Rh read from file:
     /home/pragov/projects/rrg-bengioy-ad/pragov/crystal_structure_design/SSSP/Rh_ONCV_PBE-1.0.oncvpsp.upf
     MD5 check sum: ba07c69523b14cacd10683cd4c4284c1
     Pseudo is Norm-conserving, Zval = 17.0
     Generated using ONCVPSP code by D. R. Hamann
     Using radial grid of 1442 points,  6 beta functions with:
                l(1) =   0
                l(2) =   0
                l(3) =   1
                l(4) =   1
                l(5) =   2
                l(6) =   2

     atomic species   valence    mass     pseudopotential
        Y             11.00    88.90584     Y ( 1.00)
        Sn            14.00   118.71000     Sn( 1.00)
        Rh            17.00   102.90550     Rh( 1.00)

      2 Sym. Ops. (no inversion) found ( 1 have fractional translation)

                                    s                        frac. trans.

      isym =  1     identity

 cryst.   s( 1) = (     1          0          0      )
                  (     0          1          0      )
                  (     0          0          1      )

 cart.    s( 1) = (  1.0000000 -0.0000000  0.0000000 )
                  (  0.0000000  1.0000000  0.0000000 )
                  (  0.0000000  0.0000000  1.0000000 )

      isym =  2     180 deg rotation - cart. axis [0,0,1]

 cryst.   s( 2) = (    -1          0          0      )    f =( -0.0000000 )
                  (     0         -1          0      )       (  0.0000000 )
                  (     0          0          1      )       ( -0.5000000 )

 cart.    s( 2) = ( -1.0000000  0.0000000  0.0000000 )    f =( -0.0000000 )
                  (  0.0000000 -1.0000000  0.0000000 )       (  0.0000000 )
                  (  0.0000000  0.0000000  1.0000000 )       ( -0.2685470 )

   Cartesian axes

     site n.     atom                  positions (alat units)
         1           Y   tau(   1) = (  -0.0184441   0.1707988   0.1276205  )
         2           Y   tau(   2) = (  -0.6110042   0.2701745   0.1380471  )
         3           Y   tau(   3) = (   0.0731557   0.1554370   0.3961676  )
         4           Y   tau(   4) = (   0.6657158   0.0560614   0.4065942  )
         5           Sn  tau(   5) = (   0.4261458   0.0962386   0.2948808  )
         6           Sn  tau(   6) = (   0.2153777   0.1315856   0.0587656  )
         7           Sn  tau(   7) = (  -0.8527355   0.3107142   0.2159859  )
         8           Sn  tau(   8) = (   0.9074471   0.0155217   0.4845330  )
         9           Sn  tau(   9) = (   0.4355065   0.0946688   0.5249520  )
        10           Sn  tau(  10) = (  -0.3807949   0.2315671   0.2564050  )
        11           Sn  tau(  11) = (  -0.3714342   0.2299973   0.0263337  )
        12           Sn  tau(  12) = (   0.7660655   0.0392321   0.1255919  )
        13           Sn  tau(  13) = (  -0.7113538   0.2870037   0.3941390  )
        14           Sn  tau(  14) = (  -0.1606660   0.1946503   0.3273126  )
        15           Rh  tau(  15) = (  -0.1787631   0.1976852   0.5277272  )
        16           Rh  tau(  16) = (   0.5666617   0.0726733   0.1424492  )
        17           Rh  tau(  17) = (  -0.5119501   0.2535626   0.4109962  )
        18           Rh  tau(  18) = (  -0.8477341   0.3098755   0.0094894  )
        19           Rh  tau(  19) = (   0.2334747   0.1285506   0.2591801  )
        20           Rh  tau(  20) = (   0.9024457   0.0163604   0.2780364  )

   Crystallographic axes

     site n.     atom                  positions (cryst. coord.)
         1           Y   tau(   1) = (  0.4764560  0.5235440  0.2376130  )
         2           Y   tau(   2) = (  0.1718430  0.8281570  0.2570260  )
         3           Y   tau(   3) = (  0.5235440  0.4764560  0.7376130  )
         4           Y   tau(   4) = (  0.8281570  0.1718430  0.7570260  )
         5           Sn  tau(   5) = (  0.7050030  0.2949970  0.5490300  )
         6           Sn  tau(   6) = (  0.5966550  0.4033450  0.1094140  )
         7           Sn  tau(   7) = (  0.0475780  0.9524220  0.4021380  )
         8           Sn  tau(   8) = (  0.9524220  0.0475780  0.9021380  )
         9           Sn  tau(   9) = (  0.7098150  0.2901850  0.9773930  )
        10           Sn  tau(  10) = (  0.2901850  0.7098150  0.4773930  )
        11           Sn  tau(  11) = (  0.2949970  0.7050030  0.0490300  )
        12           Sn  tau(  12) = (  0.8797430  0.1202570  0.2338360  )
        13           Sn  tau(  13) = (  0.1202570  0.8797430  0.7338360  )
        14           Sn  tau(  14) = (  0.4033450  0.5966550  0.6094140  )
        15           Rh  tau(  15) = (  0.3940420  0.6059580  0.9825600  )
        16           Rh  tau(  16) = (  0.7772370  0.2227630  0.2652220  )
        17           Rh  tau(  17) = (  0.2227630  0.7772370  0.7652220  )
        18           Rh  tau(  18) = (  0.0501490  0.9498510  0.0176680  )
        19           Rh  tau(  19) = (  0.6059580  0.3940420  0.4825600  )
        20           Rh  tau(  20) = (  0.9498510  0.0501490  0.5176680  )

     number of k points=     1  Methfessel-Paxton smearing, width (Ry)=  0.0010
                       cart. coord. in units 2pi/alat
        k(    1) = (   0.0000000   0.0000000   0.0000000), wk =   2.0000000

                       cryst. coord.
        k(    1) = (   0.0000000   0.0000000   0.0000000), wk =   2.0000000

     Check: negative core charge=   -0.000003

     Initial potential from superposition of free atoms

     starting charge     275.9790, renormalised to     286.0000

     negative rho (up, down):  1.799E-01 0.000E+00
     Starting wfcs are  202 randomized atomic wfcs

     Self-consistent Calculation

     iteration #  1     ecut=    30.00 Ry     beta= 0.70
     Davidson diagonalization with overlap

     ethr =  1.00E-02,  avg # of iterations =  6.0

     negative rho (up, down):  1.644E-01 0.000E+00

     total energy              =   -3237.69761045 Ry
     estimated scf accuracy    <      56.41439325 Ry

[...]

     total energy              =   -3284.18479585 Ry
     estimated scf accuracy    <       0.00000111 Ry

     iteration # 28     ecut=    30.00 Ry     beta= 0.70
     Davidson diagonalization with overlap

     ethr =  3.90E-10,  avg # of iterations =  1.0

[...]

     End of self-consistent calculation

          k = 0.0000 0.0000 0.0000 (  4034 PWs)   bands (ev):

   -63.7378 -63.7371 -63.6682 -63.6681 -63.6165 -63.6165 -31.8482 -31.8482
   -31.8095 -31.8092 -31.8062 -31.8055 -31.5543 -31.5537 -31.4891 -31.4885
   -31.4833 -31.4827 -31.3880 -31.3877 -31.3689 -31.3684 -31.2975 -31.2975
   -28.1077 -28.1076 -27.8846 -27.8746  -8.3085  -8.3055  -8.1890  -8.1885
    -8.0897  -8.0409  -8.0380  -8.0274  -8.0222  -7.9301  -7.7921  -7.7848
    -7.0215  -7.0201  -6.9979  -6.9959  -6.9957  -6.9753  -6.9704  -6.9679
    -6.9502  -6.9459  -6.9365  -6.9239  -6.9234  -6.9216  -6.8931  -6.8882
    -6.8858  -6.8850  -6.8784  -6.8741  -6.8233  -6.8228  -6.8125  -6.8018
    -6.7809  -6.7767  -6.7660  -6.7638  -6.7582  -6.7575  -6.7454  -6.7417
    -6.7415  -6.7316  -6.7230  -6.7137  -6.7113  -6.7108  -6.6515  -6.6503
    -6.5492  -6.5484  -6.5352  -6.5262  -6.5167  -6.5165  -6.4924  -6.4861
    -6.4739  -6.4634   3.9175   4.8322   5.0291   6.2158   6.3631   6.9480
     7.1594   7.3476   7.6900   8.6194   9.3115   9.7492  10.3399  10.5389
    10.5559  10.6668  10.7325  10.8341  10.9325  11.1563  11.1995  11.4644
    11.4963  11.5304  11.6000  11.7029  11.8310  11.8842  11.9091  12.0068
    12.0333  12.1679  12.2271  12.3032  12.3507  12.3762  12.4159  12.4292
    12.6609  12.7353  12.7809  12.9356  12.9838  13.2238  13.4513  13.5621
    13.7756  13.9684  14.1152  14.4041  14.8480  15.2422  15.2678  15.3602
    15.5985  15.6016  15.7995  15.8162  15.8655  15.8704  15.9494  15.9907
    16.3904  16.4389  16.5274  16.6186  16.7595  16.8799  17.0629  17.0787
    17.1839  17.5876  17.7027  17.7212  17.8177  18.0425  18.0521  18.1039
    18.4787  18.5807  18.6069  18.7608

     occupation numbers
     1.0000   1.0000   1.0000   1.0000   1.0000   1.0000   1.0000   1.0000
     1.0000   1.0000   1.0000   1.0000   1.0000   1.0000   1.0000   1.0000
     1.0000   1.0000   1.0000   1.0000   1.0000   1.0000   1.0000   1.0000
     1.0000   1.0000   1.0000   1.0000   1.0000   1.0000   1.0000   1.0000
     1.0000   1.0000   1.0000   1.0000   1.0000   1.0000   1.0000   1.0000
     1.0000   1.0000   1.0000   1.0000   1.0000   1.0000   1.0000   1.0000
     1.0000   1.0000   1.0000   1.0000   1.0000   1.0000   1.0000   1.0000
     1.0000   1.0000   1.0000   1.0000   1.0000   1.0000   1.0000   1.0000
     1.0000   1.0000   1.0000   1.0000   1.0000   1.0000   1.0000   1.0000
     1.0000   1.0000   1.0000   1.0000   1.0000   1.0000   1.0000   1.0000
     1.0000   1.0000   1.0000   1.0000   1.0000   1.0000   1.0000   1.0000
     1.0000   1.0000   1.0000   1.0000   1.0000   1.0000   1.0000   1.0000
     1.0000   1.0000   1.0000   1.0000   1.0000   1.0000   1.0000   1.0000
     1.0000   1.0000   1.0000   1.0000   1.0000   1.0000   1.0000   1.0000
     1.0000   1.0000   1.0000   1.0000   1.0000   1.0000   1.0000   1.0000
     1.0000   1.0000   1.0000   1.0000   1.0000   1.0000   1.0000   1.0000
     1.0000   1.0000   1.0000   1.0000   1.0000   1.0000   1.0000   1.0000
     1.0000   1.0000   1.0000   1.0000   1.0000   1.0000   1.0000  -0.0000
    -0.0000  -0.0000  -0.0000  -0.0000  -0.0000  -0.0000  -0.0000  -0.0000
    -0.0000  -0.0000  -0.0000  -0.0000  -0.0000  -0.0000  -0.0000  -0.0000
    -0.0000  -0.0000  -0.0000  -0.0000  -0.0000  -0.0000  -0.0000  -0.0000
    -0.0000  -0.0000  -0.0000  -0.0000

     the Fermi energy is    15.3140 ev

!    total energy              =   -3284.18479584 Ry
     estimated scf accuracy    <       0.00000009 Ry
     smearing contrib. (-TS)   =       0.00000012 Ry
     internal energy E=F+TS    =   -3284.18479596 Ry

     The total energy is F=E-TS. E is the sum of the following terms:
     one-electron contribution =   -1107.05560316 Ry
     hartree contribution      =     736.14896316 Ry
     xc contribution           =    -697.24762607 Ry
     ewald contribution        =   -2216.03052990 Ry

     convergence has been achieved in  28 iterations

     negative rho (up, down):  1.689E-01 0.000E+00

     Forces acting on atoms (cartesian axes, Ry/au):

     atom    1 type  1   force =     0.00584550   -0.00098032    0.00435244
     atom    2 type  1   force =    -0.02235093    0.00374822   -0.00296929
     atom    3 type  1   force =    -0.00584550    0.00098032    0.00435244
     atom    4 type  1   force =     0.02235093   -0.00374822   -0.00296929
     atom    5 type  2   force =    -0.02674985    0.00448496   -0.05498275
     atom    6 type  2   force =     0.01986807   -0.00333254    0.00799254
     atom    7 type  2   force =    -0.04004806    0.00671700    0.00599067
     atom    8 type  2   force =     0.04004806   -0.00671700    0.00599067
     atom    9 type  2   force =    -0.01690421    0.00283447    0.04070063
     atom   10 type  2   force =     0.01690421   -0.00283447    0.04070063
     atom   11 type  2   force =     0.02674985   -0.00448496   -0.05498275
     atom   12 type  2   force =     0.01107900   -0.00185820   -0.01037039
     atom   13 type  2   force =    -0.01107900    0.00185820   -0.01037039
     atom   14 type  2   force =    -0.01986807    0.00333254    0.00799254
     atom   15 type  3   force =    -0.00181172    0.00030368   -0.01568375
     atom   16 type  3   force =    -0.01256296    0.00210699    0.04294607
     atom   17 type  3   force =     0.01256296   -0.00210699    0.04294607
     atom   18 type  3   force =     0.04407216   -0.00739096   -0.01797618
     atom   19 type  3   force =     0.00181172   -0.00030368   -0.01568375
     atom   20 type  3   force =    -0.04407216    0.00739096   -0.01797618
     The non-local contrib.  to forces
     atom    1 type  1   force =     0.01493688   -0.00250501   -0.02030494
     atom    2 type  1   force =    -0.02463476    0.00413135   -0.03076652
     atom    3 type  1   force =    -0.01493688    0.00250501   -0.02030494
     atom    4 type  1   force =     0.02463476   -0.00413135   -0.03076652
     atom    5 type  2   force =    -0.13620903    0.02284200   -0.05013457
     atom    6 type  2   force =    -0.25502630    0.04276889   -0.00710873
     atom    7 type  2   force =     0.15476539   -0.02595438   -0.11635242
     atom    8 type  2   force =    -0.15476539    0.02595438   -0.11635242
     atom    9 type  2   force =     0.03772812   -0.00632756   -0.22096176
     atom   10 type  2   force =    -0.03772812    0.00632756   -0.22096176
     atom   11 type  2   force =     0.13620903   -0.02284200   -0.05013457
     atom   12 type  2   force =    -0.03997305    0.00670359    0.06537563
     atom   13 type  2   force =     0.03997305   -0.00670359    0.06537563
     atom   14 type  2   force =     0.25502630   -0.04276889   -0.00710873
     atom   15 type  3   force =     0.12438374   -0.02085995    0.09554036
     atom   16 type  3   force =     0.15667003   -0.02627430   -0.02272387
     atom   17 type  3   force =    -0.15667003    0.02627430   -0.02272387
     atom   18 type  3   force =     0.11965409   -0.02006669    0.02340966
     atom   19 type  3   force =    -0.12438374    0.02085995    0.09554036
     atom   20 type  3   force =    -0.11965409    0.02006669    0.02340966
     The ionic contribution  to forces
     atom    1 type  1   force =     1.08646510   -0.18220635    0.39966808
     atom    2 type  1   force =     0.09712130   -0.01628779   -2.69155453
     atom    3 type  1   force =    -1.08646510    0.18220635    0.39966808
     atom    4 type  1   force =    -0.09712130    0.01628779   -2.69155452
     atom    5 type  2   force =    -0.48192030    0.08082076   -3.43346718
     atom    6 type  2   force =     6.55038858   -1.09853728   -5.08315239
     atom    7 type  2   force =    -3.45933791    0.58015057    1.54804936
     atom    8 type  2   force =     3.45933790   -0.58015057    1.54804936
     atom    9 type  2   force =    -8.25486262    1.38438723    4.11900900
     atom   10 type  2   force =     8.25486262   -1.38438723    4.11900900
     atom   11 type  2   force =     0.48192030   -0.08082076   -3.43346718
     atom   12 type  2   force =     1.73031199   -0.29018312    4.70659915
     atom   13 type  2   force =    -1.73031200    0.29018312    4.70659915
     atom   14 type  2   force =    -6.55038858    1.09853728   -5.08315239
     atom   15 type  3   force =     0.37152391   -0.06230666    1.63267210
     atom   16 type  3   force =    -0.98773403    0.16564859    2.14828580
     atom   17 type  3   force =     0.98773404   -0.16564859    2.14828580
     atom   18 type  3   force =    -2.46080923    0.41269165   -3.34610939
     atom   19 type  3   force =    -0.37152391    0.06230666    1.63267210
     atom   20 type  3   force =     2.46080923   -0.41269165   -3.34610940
     The local contribution  to forces
     atom    1 type  1   force =    -1.09477162    0.18360048   -0.37733390
     atom    2 type  1   force =    -0.09759469    0.01636649    2.71774644
     atom    3 type  1   force =     1.09544960   -0.18371203   -0.37757800
     atom    4 type  1   force =     0.09722401   -0.01630412    2.71761683
     atom    5 type  2   force =     0.58464952   -0.09804773    3.42381513
     atom    6 type  2   force =    -6.27674543    1.05264749    5.09847957
     atom    7 type  2   force =     3.26700902   -0.54789818   -1.42897441
     atom    8 type  2   force =    -3.26609401    0.54774218   -1.42946528
     atom    9 type  2   force =     8.19685456   -1.37465796   -3.86136488
     atom   10 type  2   force =    -8.19759034    1.37478182   -3.86137322
     atom   11 type  2   force =    -0.58558265    0.09820368    3.42382804
     atom   12 type  2   force =    -1.68146610    0.28199155   -4.77692445
     atom   13 type  2   force =     1.68142733   -0.28198537   -4.77732834
     atom   14 type  2   force =     6.27715440   -1.05271416    5.09836331
     atom   15 type  3   force =    -0.49781417    0.08348555   -1.74388790
     atom   16 type  3   force =     0.81786204   -0.13715848   -2.08260672
     atom   17 type  3   force =    -0.81877346    0.13730998   -2.08265096
     atom   18 type  3   force =     2.38546062   -0.40005747    3.30447226
     atom   19 type  3   force =     0.49794443   -0.08350520   -1.74364747
     atom   20 type  3   force =    -2.38460092    0.39990879    3.30478845
     The core correction contribution to forces
     atom    1 type  1   force =    -0.00052772    0.00008852    0.00238263
     atom    2 type  1   force =     0.00270783   -0.00045412    0.00175520
     atom    3 type  1   force =     0.00052892   -0.00008869    0.00238200
     atom    4 type  1   force =    -0.00270853    0.00045425    0.00175471
     atom    5 type  2   force =     0.00629946   -0.00105643    0.00470486
     atom    6 type  2   force =     0.00162099   -0.00027181   -0.00006325
     atom    7 type  2   force =    -0.00192682    0.00032309    0.00367391
     atom    8 type  2   force =     0.00192897   -0.00032351    0.00367125
     atom    9 type  2   force =     0.00316224   -0.00053031    0.00408716
     atom   10 type  2   force =    -0.00316340    0.00053052    0.00408654
     atom   11 type  2   force =    -0.00630075    0.00105663    0.00470358
     atom   12 type  2   force =     0.00213894   -0.00035871   -0.00544121
     atom   13 type  2   force =    -0.00213747    0.00035847   -0.00544518
     atom   14 type  2   force =    -0.00162088    0.00027184   -0.00006201
     atom   15 type  3   force =     0.00000000    0.00000000    0.00000000
     atom   16 type  3   force =     0.00000000    0.00000000    0.00000000
     atom   17 type  3   force =     0.00000000    0.00000000    0.00000000
     atom   18 type  3   force =     0.00000000    0.00000000    0.00000000
     atom   19 type  3   force =     0.00000000    0.00000000    0.00000000
     atom   20 type  3   force =     0.00000000    0.00000000    0.00000000
     The Hubbard contrib.    to forces
     atom    1 type  1   force =     0.00000000    0.00000000    0.00000000
     atom    2 type  1   force =     0.00000000    0.00000000    0.00000000
     atom    3 type  1   force =     0.00000000    0.00000000    0.00000000
     atom    4 type  1   force =     0.00000000    0.00000000    0.00000000
     atom    5 type  2   force =     0.00000000    0.00000000    0.00000000
     atom    6 type  2   force =     0.00000000    0.00000000    0.00000000
     atom    7 type  2   force =     0.00000000    0.00000000    0.00000000
     atom    8 type  2   force =     0.00000000    0.00000000    0.00000000
     atom    9 type  2   force =     0.00000000    0.00000000    0.00000000
     atom   10 type  2   force =     0.00000000    0.00000000    0.00000000
     atom   11 type  2   force =     0.00000000    0.00000000    0.00000000
     atom   12 type  2   force =     0.00000000    0.00000000    0.00000000
     atom   13 type  2   force =     0.00000000    0.00000000    0.00000000
     atom   14 type  2   force =     0.00000000    0.00000000    0.00000000
     atom   15 type  3   force =     0.00000000    0.00000000    0.00000000
     atom   16 type  3   force =     0.00000000    0.00000000    0.00000000
     atom   17 type  3   force =     0.00000000    0.00000000    0.00000000
     atom   18 type  3   force =     0.00000000    0.00000000    0.00000000
     atom   19 type  3   force =     0.00000000    0.00000000    0.00000000
     atom   20 type  3   force =     0.00000000    0.00000000    0.00000000
     The SCF correction term to forces
     atom    1 type  1   force =    -0.00025736    0.00004231   -0.00005575
     atom    2 type  1   force =     0.00005063   -0.00000783   -0.00014496
     atom    3 type  1   force =    -0.00042227    0.00006995    0.00018476
     atom    4 type  1   force =     0.00032324   -0.00005491   -0.00002158
     atom    5 type  2   force =     0.00040663   -0.00006963    0.00011885
     atom    6 type  2   force =    -0.00036887    0.00005978   -0.00016702
     atom    7 type  2   force =    -0.00053458    0.00009217   -0.00040090
     atom    8 type  2   force =    -0.00033624    0.00005678    0.00008602
     atom    9 type  2   force =     0.00018729   -0.00003257   -0.00007583
     atom   10 type  2   force =     0.00049726   -0.00008277   -0.00004983
     atom   11 type  2   force =     0.00048006   -0.00007850    0.00007067
     atom   12 type  2   force =     0.00008763   -0.00001488    0.00004329
     atom   13 type  2   force =    -0.00000949    0.00000219    0.00040870
     atom   14 type  2   force =    -0.00003841    0.00000608   -0.00004014
     atom   15 type  3   force =     0.00008881   -0.00001425   -0.00000778
     atom   16 type  3   force =     0.00066153   -0.00011259   -0.00001086
     atom   17 type  3   force =     0.00029493   -0.00004645    0.00003997
     atom   18 type  3   force =    -0.00025507    0.00004540    0.00026722
     atom   19 type  3   force =    -0.00023106    0.00003591   -0.00024613
     atom   20 type  3   force =    -0.00064812    0.00011100   -0.00007766

     Total force =     0.162788     Total SCF correction =     0.001820

     Computing stress (Cartesian axis) and pressure

     negative rho (up, down):  1.689E-01 0.000E+00
          total   stress  (Ry/bohr**3)                   (kbar)     P=       16.10
   0.00013903   0.00006428   0.00000000           20.45        9.46        0.00
   0.00006428   0.00051152   0.00000000            9.46       75.25        0.00
   0.00000000   0.00000000  -0.00032219            0.00        0.00      -47.40

     kinetic stress (kbar)  24451.27    -48.07      0.00
                              -48.07  24172.67      0.00
                                0.00      0.00  24384.40

     local   stress (kbar)   1994.41  -1122.37     -0.01
                            -1122.37  -4509.88      0.00
                               -0.01      0.00   -901.71

     nonloc. stress (kbar)   9169.18     17.60      0.00
                               17.60   9271.17      0.00
                                0.00      0.00   9127.95

     hartree stress (kbar)  11064.26    480.14      0.01
                              480.14  13846.71     -0.00
                                0.01     -0.00  12391.42

     exc-cor stress (kbar)   9701.29      0.25     -0.00
                                0.25   9702.72      0.00
                               -0.00      0.00   9699.98

     corecor stress (kbar) -17075.57     -0.13      0.00
                               -0.13 -17076.34     -0.00
                                0.00     -0.00 -17074.18

     ewald   stress (kbar) -39284.39    682.05      0.00
                              682.05 -35331.80     -0.00
                                0.00     -0.00 -37675.25

     hubbard stress (kbar)      0.00      0.00      0.00
                                0.00      0.00      0.00
                                0.00      0.00      0.00

     DFT-D   stress (kbar)      0.00      0.00      0.00
                                0.00      0.00      0.00
                                0.00      0.00      0.00

     XDM     stress (kbar)      0.00      0.00      0.00
                                0.00      0.00      0.00
                                0.00      0.00      0.00

     dft-nl  stress (kbar)      0.00      0.00      0.00
                                0.00      0.00      0.00
                                0.00      0.00      0.00

     TS-vdW  stress (kbar)      0.00      0.00      0.00
                                0.00      0.00      0.00
                                0.00      0.00      0.00

[...]

                                0.00      0.00      0.00

     Writing all to output data dir new_calculations/myprefix.save/

     General routines

     Parallel routines

   This run was terminated on:  15:56:46  20May2023

   JOB DONE.