     Program PWSCF v.7.0 starts on 20May2023 at  9:18: 9

     Reading input from espresso_1306.pwi
Warning: card &CELL ignored
Warning: card / ignored

     Current dimensions of program PWSCF are:
     Max number of different atomic species (ntypx) = 10
     Max number of k-points (npk) =  40000
     Max angular momentum in pseudopotentials (lmaxx) =  4
     file In.pbe-dn-rrkjus_psl.0.2.2.UPF: wavefunction(s)  5S renormalized

     gamma-point specific algorithms are used
     Message from routine setup:
     using ibrav=0 with symmetry is DISCOURAGED, use correct ibrav instead

     Subspace diagonalization in iterative solution of the eigenvalue problem:
     a serial algorithm will be used

     Using Slab Decomposition

     bravais-lattice index     =            0
     lattice parameter (alat)  =      14.3189  a.u.
     unit-cell volume          =    1351.0695 (a.u.)^3
     number of atoms/cell      =            9
     number of atomic types    =            3
     number of electrons       =       126.00
     number of Kohn-Sham states=           76
     kinetic-energy cutoff     =      30.0000  Ry
     charge density cutoff     =     240.0000  Ry
     scf convergence threshold =      1.0E-06
     mixing beta               =       0.7000
     number of iterations used =            8  plain     mixing
     Exchange-correlation= PBE
                           (   1   4   3   4   0   0   0)

     celldm(1)=  14.318949  celldm(2)=   0.000000  celldm(3)=   0.000000
     celldm(4)=   0.000000  celldm(5)=   0.000000  celldm(6)=   0.000000

     crystal axes: (cart. coord. in units of alat)
               a(1) = (   1.000000   0.000000   0.000000 )
               a(2) = (  -0.500000   0.866025   0.000000 )
               a(3) = (   0.000000   0.000000   0.531390 )

     reciprocal axes: (cart. coord. in units 2 pi/alat)
               b(1) = (  1.000000  0.577350  0.000000 )
               b(2) = (  0.000000  1.154701  0.000000 )
               b(3) = (  0.000000  0.000000  1.881856 )

     PseudoPot. # 1 for Ce read from file:
     /home/pragov/projects/rrg-bengioy-ad/pragov/crystal_structure_design/SSSP/Ce.GGA-PBE-paw-v1.0.UPF
     MD5 check sum: f2b950f613061344c13339c8d844425d
     Pseudo is Projector augmented-wave + core cor, Zval = 12.0
     Generated using ATOMPAW code
     Shape of augmentation charge: BESSEL
     Using radial grid of 1102 points,  8 beta functions with:
                l(1) =   0
                l(2) =   0
                l(3) =   1
                l(4) =   1
                l(5) =   2
                l(6) =   2
                l(7) =   3
                l(8) =   3
     Q(r) pseudized with 0 coefficients

     PseudoPot. # 2 for In read from file:
     /home/pragov/projects/rrg-bengioy-ad/pragov/crystal_structure_design/SSSP/In.pbe-dn-rrkjus_psl.0.2.2.UPF
     MD5 check sum: 25e7c42c3b55b68f4bf926be2e7201a4
     Pseudo is Ultrasoft + core correction, Zval = 13.0
     Generated using "atomic" code by A. Dal Corso  v.5.0.99 svn rev. 10869
     Using radial grid of 1241 points,  6 beta functions with:
                l(1) =   0
                l(2) =   0
                l(3) =   1
                l(4) =   1
                l(5) =   2
                l(6) =   2
     Q(r) pseudized with 0 coefficients

     PseudoPot. # 3 for Rh read from file:
     /home/pragov/projects/rrg-bengioy-ad/pragov/crystal_structure_design/SSSP/Rh_ONCV_PBE-1.0.oncvpsp.upf
     MD5 check sum: ba07c69523b14cacd10683cd4c4284c1
     Pseudo is Norm-conserving, Zval = 17.0
     Generated using ONCVPSP code by D. R. Hamann
     Using radial grid of 1442 points,  6 beta functions with:
                l(1) =   0
                l(2) =   0
                l(3) =   1
                l(4) =   1
                l(5) =   2
                l(6) =   2

     atomic species   valence    mass     pseudopotential
        Ce            12.00   140.11600     Ce( 1.00)
        In            13.00   114.81800     In( 1.00)
        Rh            17.00   102.90550     Rh( 1.00)

     12 Sym. Ops. (no inversion) found

                                    s                        frac. trans.

      isym =  1     identity

 cryst.   s( 1) = (     1          0          0      )
                  (     0          1          0      )
                  (     0          0          1      )

 cart.    s( 1) = (  1.0000000  0.0000000  0.0000000 )
                  (  0.0000000  1.0000000  0.0000000 )
                  (  0.0000000  0.0000000  1.0000000 )

      isym =  2     180 deg rotation - cart. axis [1,0,0]

[...]

      isym =  3     120 deg rotation - cryst. axis [0,0,1]

[...]

      isym =  6     180 deg rotation - cryst. axis [1,1,0]

[...]

      isym =  7     inv. 180 deg rotation - cart. axis [0,0,1]

[...]

      isym =  8     inv. 180 deg rotation - cart. axis [0,1,0]

[...]

      isym =  9     inv.  60 deg rotation - cryst. axis [0,0,1]

 cryst.   s( 9) = (    -1         -1          0      )
                  (     1          0          0      )
                  (     0          0         -1      )

 cart.    s( 9) = ( -0.5000000  0.8660254  0.0000000 )
                  ( -0.8660254 -0.5000000  0.0000000 )
                  (  0.0000000  0.0000000 -1.0000000 )

[...]

 cryst.   s(10) = (     0          1          0      )
                  (    -1         -1          0      )
                  (     0          0         -1      )

 cart.    s(10) = ( -0.5000000 -0.8660254  0.0000000 )
                  (  0.8660254 -0.5000000  0.0000000 )
                  (  0.0000000  0.0000000 -1.0000000 )

[...]

      isym = 12     inv. 180 deg rotation - cryst. axis [2,1,0]

 cryst.   s(12) = (    -1         -1          0      )
                  (     0          1          0      )
                  (     0          0          1      )

 cart.    s(12) = ( -0.5000000 -0.8660253  0.0000000 )
                  ( -0.8660254  0.5000000  0.0000000 )
                  (  0.0000000  0.0000000  1.0000000 )

   Cartesian axes

     site n.     atom                  positions (alat units)
         1           Ce  tau(   1) = (   0.4136910   0.0000000   0.2656951  )
         2           Ce  tau(   2) = (  -0.2068455   0.3582669   0.2656951  )
         3           Ce  tau(   3) = (   0.2931545   0.5077585   0.2656951  )
         4           In  tau(   4) = (   0.7501110   0.0000000   0.0000000  )
         5           In  tau(   5) = (   0.6249445   0.6496152   0.0000000  )
         6           In  tau(   6) = (   0.1249445   0.2164102   0.0000000  )
         7           Rh  tau(   7) = (  -0.0000005   0.5773506   0.0000000  )
         8           Rh  tau(   8) = (   0.5000005   0.2886749   0.0000000  )
         9           Rh  tau(   9) = (   0.0000000   0.0000000   0.2656951  )

   Crystallographic axes

     site n.     atom                  positions (cryst. coord.)
         1           Ce  tau(   1) = (  0.4136910  0.0000000  0.5000000  )
         2           Ce  tau(   2) = ( -0.0000000  0.4136910  0.5000000  )
         3           Ce  tau(   3) = (  0.5863090  0.5863090  0.5000000  )
         4           In  tau(   4) = (  0.7501110  0.0000000  0.0000000  )
         5           In  tau(   5) = (  1.0000000  0.7501110  0.0000000  )
         6           In  tau(   6) = (  0.2498890  0.2498890  0.0000000  )
         7           Rh  tau(   7) = (  0.3333330  0.6666670  0.0000000  )
         8           Rh  tau(   8) = (  0.6666670  0.3333330  0.0000000  )
         9           Rh  tau(   9) = (  0.0000000  0.0000000  0.5000000  )

     number of k points=     1  Methfessel-Paxton smearing, width (Ry)=  0.0010
                       cart. coord. in units 2pi/alat
        k(    1) = (   0.0000000   0.0000000   0.0000000), wk =   2.0000000

                       cryst. coord.
        k(    1) = (   0.0000000   0.0000000   0.0000000), wk =   2.0000000

     Initial potential from superposition of free atoms

     starting charge     125.9666, renormalised to     126.0000
     Starting wfcs are  153 randomized atomic wfcs
     Checking if some PAW data can be deallocated...

     Self-consistent Calculation

     iteration #  1     ecut=    30.00 Ry     beta= 0.70
     Davidson diagonalization with overlap

     ethr =  1.00E-02,  avg # of iterations =  2.0

     total energy              =   -2530.24755521 Ry
     estimated scf accuracy    <       2.46189839 Ry

[...]

     total energy              =   -2531.99890730 Ry
     estimated scf accuracy    <       0.00000218 Ry

     iteration # 68     ecut=    30.00 Ry     beta= 0.70
     Davidson diagonalization with overlap

     ethr =  1.28E-09,  avg # of iterations =  1.0

     End of self-consistent calculation

          k = 0.0000 0.0000 0.0000 (  1885 PWs)   bands (ev):

   -63.1502 -63.1502 -62.8743 -31.1440 -31.1438 -30.9820 -30.9403 -30.9403
   -30.9385 -30.9385 -30.6602 -30.6602 -19.3179 -19.2704 -19.2703  -2.5589
    -2.4634  -2.4633  -2.2457  -2.0241  -2.0241  -1.9329  -1.9157  -1.9156
     0.5680   0.6441   0.6526   0.6527   0.7040   0.7041   0.7488   0.7489
     0.7650   0.7786   0.8063   0.8063   0.8980   0.8980   0.9693   6.9820
     9.6535   9.6536  11.0350  11.5541  12.1514  12.1515  12.2954  12.2955
    12.4788  12.5808  12.5808  12.7912  12.8525  12.8525  13.2102  13.2102
    13.5578  13.5578  13.7760  13.7760  13.9023  15.6027  15.6106  15.6106
    15.6168  15.8251  15.8252  15.8457  15.8457  15.8476  15.8784  15.8977
    15.9460  15.9460  16.0263  16.0823

     occupation numbers
     1.0000   1.0000   1.0000   1.0000   1.0000   1.0000   1.0000   1.0000
     1.0000   1.0000   1.0000   1.0000   1.0000   1.0000   1.0000   1.0000
     1.0000   1.0000   1.0000   1.0000   1.0000   1.0000   1.0000   1.0000
     1.0000   1.0000   1.0000   1.0000   1.0000   1.0000   1.0000   1.0000
     1.0000   1.0000   1.0000   1.0000   1.0000   1.0000   1.0000   1.0000
     1.0000   1.0000   1.0000   1.0000   1.0000   1.0000   1.0000   1.0000
     1.0000   1.0000   1.0000   1.0000   1.0000   1.0000   1.0000   1.0000
     1.0000   1.0000   1.0000   1.0000   1.0000   0.8995   0.4802   0.4796
     0.1407  -0.0000  -0.0000  -0.0000  -0.0000  -0.0000  -0.0000  -0.0000
    -0.0000  -0.0000  -0.0000  -0.0000

     the Fermi energy is    15.6103 ev

!    total energy              =   -2531.99890730 Ry
     estimated scf accuracy    <       0.00000012 Ry
     smearing contrib. (-TS)   =      -0.00076245 Ry
     internal energy E=F+TS    =   -2531.99814485 Ry

     The total energy is F=E-TS. E is the sum of the following terms:
     one-electron contribution =    -402.28003492 Ry
     hartree contribution      =     291.63099138 Ry
     xc contribution           =    -240.27581873 Ry
     ewald contribution        =    -955.89608087 Ry
     one-center paw contrib.   =   -1225.17720171 Ry
      -> PAW hartree energy AE =     132.91430850 Ry
      -> PAW hartree energy PS =    -132.10234279 Ry
      -> PAW xc energy AE      =   -1251.79348017 Ry
      -> PAW xc energy PS      =      25.80431276 Ry
      -> total E_H with PAW    =     292.44295708 Ry
      -> total E_XC with PAW   =   -1466.26498615 Ry

     convergence has been achieved in  68 iterations

     Forces acting on atoms (cartesian axes, Ry/au):

     atom    1 type  1   force =     0.01795671   -0.00000000    0.00000000
     atom    2 type  1   force =    -0.00897836    0.01555097    0.00000000
     atom    3 type  1   force =    -0.00897836   -0.01555097   -0.00000000
     atom    4 type  2   force =    -0.00828758    0.00000000    0.00000000
     atom    5 type  2   force =     0.00414379   -0.00717725    0.00000000
     atom    6 type  2   force =     0.00414379    0.00717725    0.00000000
     atom    7 type  3   force =     0.00000000    0.00000000   -0.00000000
     atom    8 type  3   force =    -0.00000000    0.00000000    0.00000000
     atom    9 type  3   force =     0.00000000    0.00000000    0.00000000
     The non-local contrib.  to forces
     atom    1 type  1   force =     0.08742065   -0.00000000    0.00000000
     atom    2 type  1   force =    -0.04371032    0.07570850    0.00000000
     atom    3 type  1   force =    -0.04371032   -0.07570850    0.00000000
     atom    4 type  2   force =    -0.05564387    0.00000000    0.00000000
     atom    5 type  2   force =     0.02782193   -0.04818900   -0.00000000
     atom    6 type  2   force =     0.02782193    0.04818900    0.00000000
     atom    7 type  3   force =     0.00000000    0.00000000   -0.00000000
     atom    8 type  3   force =     0.00000000    0.00000000   -0.00000000
     atom    9 type  3   force =     0.00000000    0.00000000    0.00000000
     The ionic contribution  to forces
     atom    1 type  1   force =     1.14645259    0.00003104   -0.00000000
     atom    2 type  1   force =    -0.57319937    0.99287261    0.00000000
     atom    3 type  1   force =    -0.57325253   -0.99290245    0.00000000
     atom    4 type  2   force =    -5.35839722   -0.00006827   -0.00000000
     atom    5 type  2   force =     2.67913925   -4.64054239   -0.00000000
     atom    6 type  2   force =     2.67925674    4.64060852   -0.00000000
     atom    7 type  3   force =     0.00012923   -0.00007411   -0.00000000
     atom    8 type  3   force =    -0.00012879    0.00007487   -0.00000000
     atom    9 type  3   force =     0.00000010    0.00000018    0.00000000
     The local contribution  to forces
     atom    1 type  1   force =    -1.21650120   -0.00027171    0.00000917
     atom    2 type  1   force =     0.60761005   -1.05286215    0.00000843
     atom    3 type  1   force =     0.60821836    1.05291658    0.00000308
     atom    4 type  2   force =     5.40779979   -0.00015740   -0.00000205
     atom    5 type  2   force =    -2.70384825    4.68330951   -0.00000551
     atom    6 type  2   force =    -2.70356884   -4.68330775   -0.00000190
     atom    7 type  3   force =    -0.00002323    0.00014797   -0.00000563
     atom    8 type  3   force =    -0.00038940    0.00028231    0.00000179
     atom    9 type  3   force =     0.00029736   -0.00028508   -0.00001390
     The core correction contribution to forces
     atom    1 type  1   force =     0.00002688   -0.00000020    0.00000001
     atom    2 type  1   force =    -0.00001379    0.00002355    0.00000001
     atom    3 type  1   force =    -0.00001349   -0.00002359    0.00000000
     atom    4 type  2   force =    -0.00164121    0.00000005   -0.00000012
     atom    5 type  2   force =     0.00082312   -0.00142053   -0.00000027
     atom    6 type  2   force =     0.00082387    0.00142134   -0.00000034
     atom    7 type  3   force =     0.00000000    0.00000000    0.00000000
     atom    8 type  3   force =     0.00000000    0.00000000    0.00000000
     atom    9 type  3   force =     0.00000000    0.00000000    0.00000000
     The Hubbard contrib.    to forces
     atom    1 type  1   force =     0.00000000    0.00000000    0.00000000
     atom    2 type  1   force =     0.00000000    0.00000000    0.00000000
     atom    3 type  1   force =     0.00000000    0.00000000    0.00000000
     atom    4 type  2   force =     0.00000000    0.00000000    0.00000000
     atom    5 type  2   force =     0.00000000    0.00000000    0.00000000
     atom    6 type  2   force =     0.00000000    0.00000000    0.00000000
     atom    7 type  3   force =     0.00000000    0.00000000    0.00000000
     atom    8 type  3   force =     0.00000000    0.00000000    0.00000000
     atom    9 type  3   force =     0.00000000    0.00000000    0.00000000
     The SCF correction term to forces
     atom    1 type  1   force =     0.00034056    0.00005370   -0.00000402
     atom    2 type  1   force =     0.00011077   -0.00014557   -0.00000418
     atom    3 type  1   force =    -0.00017494    0.00006541    0.00000078
     atom    4 type  2   force =    -0.00040093    0.00022770    0.00000103
     atom    5 type  2   force =     0.00022685   -0.00031796    0.00000606
     atom    6 type  2   force =    -0.00016403    0.00026180    0.00000120
     atom    7 type  3   force =    -0.00009440   -0.00003438    0.00000423
     atom    8 type  3   force =     0.00048078   -0.00032142   -0.00000060
     atom    9 type  3   force =    -0.00031156    0.00027070    0.00000768

     Total force =     0.034255     Total SCF correction =     0.001078

     Computing stress (Cartesian axis) and pressure

          total   stress  (Ry/bohr**3)                   (kbar)     P=        6.02
   0.00022779  -0.00000000   0.00000000           33.51       -0.00        0.00
  -0.00000000   0.00022779  -0.00000000           -0.00       33.51       -0.00
   0.00000000  -0.00000000  -0.00033290            0.00       -0.00      -48.97

     kinetic stress (kbar)  26073.42     -0.00      0.00
                               -0.00  26073.42      0.00
                                0.00      0.00  25854.33

     local   stress (kbar)  -4779.77     -0.02     -0.00
                               -0.02  -4779.81     -0.00
                               -0.00     -0.00  -3491.02

     nonloc. stress (kbar)   8338.66     -0.00      0.00
                               -0.00   8338.66     -0.00
                                0.00      0.00   8126.72

     hartree stress (kbar)  10777.44      0.01      0.00
                                0.01  10777.38      0.00
                                0.00      0.00  10198.10

     exc-cor stress (kbar)   3783.21      0.00      0.00
                                0.00   3783.21      0.00
                                0.00      0.00   3782.91

     corecor stress (kbar)  -9588.31     -0.00     -0.00
                               -0.00  -9588.31     -0.00
                               -0.00     -0.00  -9583.77

     ewald   stress (kbar) -34571.08     -0.01     -0.00
                               -0.01 -34571.09      0.00
                               -0.00      0.00 -34936.24

     hubbard stress (kbar)      0.00      0.00      0.00
                                0.00      0.00      0.00
                                0.00      0.00      0.00

     DFT-D   stress (kbar)      0.00      0.00      0.00
                                0.00      0.00      0.00
                                0.00      0.00      0.00

     XDM     stress (kbar)      0.00      0.00      0.00
                                0.00      0.00      0.00
                                0.00      0.00      0.00

     dft-nl  stress (kbar)      0.00      0.00      0.00
                                0.00      0.00      0.00
                                0.00      0.00      0.00

     TS-vdW  stress (kbar)      0.00      0.00      0.00
                                0.00      0.00      0.00
                                0.00      0.00      0.00

[...]

                                0.00      0.00      0.00

     Writing all to output data dir new_calculations/myprefix.save/

     General routines

     Parallel routines

     PAW routines

   This run was terminated on:   9:21: 1  20May2023

   JOB DONE.