     Program PWSCF v.7.0 starts on 21May2023 at  2:51:50

     Reading input from espresso_3986.pwi
Warning: card &CELL ignored
Warning: card / ignored

     Current dimensions of program PWSCF are:
     Max number of different atomic species (ntypx) = 10
     Max number of k-points (npk) =  40000
     Max angular momentum in pseudopotentials (lmaxx) =  4
     file O.pbe-n-kjpaw_psl.0.1.UPF: wavefunction(s)  2P renormalized

     gamma-point specific algorithms are used
     Message from routine setup:
     using ibrav=0 with symmetry is DISCOURAGED, use correct ibrav instead

     Subspace diagonalization in iterative solution of the eigenvalue problem:
     a serial algorithm will be used

     Using Slab Decomposition

     bravais-lattice index     =            0
     lattice parameter (alat)  =      12.2325  a.u.
     unit-cell volume          =    1417.4897 (a.u.)^3
     number of atoms/cell      =           20
     number of atomic types    =            5
     number of electrons       =       201.00
     number of Kohn-Sham states=          121
     kinetic-energy cutoff     =      30.0000  Ry
     charge density cutoff     =     240.0000  Ry
     scf convergence threshold =      1.0E-06
     mixing beta               =       0.7000
     number of iterations used =            8  plain     mixing
     Exchange-correlation= SLA  PW   PBX  PBC
                           (   1   4   3   4   0   0   0)

     celldm(1)=  12.232475  celldm(2)=   0.000000  celldm(3)=   0.000000
     celldm(4)=   0.000000  celldm(5)=   0.000000  celldm(6)=   0.000000

     crystal axes: (cart. coord. in units of alat)
               a(1) = (   1.000000   0.000000   0.000000 )
               a(2) = (   0.344666   0.938725   0.000000 )
               a(3) = (   0.671100   0.468502   0.824970 )

     reciprocal axes: (cart. coord. in units 2 pi/alat)
               b(1) = (  1.000000 -0.367164 -0.604971 )
               b(2) = (  0.000000  1.065274 -0.604971 )
               b(3) = (  0.000000  0.000000  1.212165 )

     PseudoPot. # 1 for Ca read from file:
     /home/pragov/projects/rrg-bengioy-ad/pragov/crystal_structure_design/SSSP/Ca_pbe_v1.uspp.F.UPF
     MD5 check sum: 403a4c14b9e4d4dfdc3024c9a3812218
     Pseudo is Ultrasoft + core correction, Zval = 10.0
     Generated by new atomic code, or converted to UPF format
     Using radial grid of  845 points,  6 beta functions with:
                l(1) =   0
                l(2) =   0
                l(3) =   1
                l(4) =   1
                l(5) =   2
                l(6) =   2
     Q(r) pseudized with  8 coefficients,  rinner =    1.500   1.500   1.500
                                                       1.500   1.500

     PseudoPot. # 2 for Mn read from file:
     /home/pragov/projects/rrg-bengioy-ad/pragov/crystal_structure_design/SSSP/mn_pbe_v1.5.uspp.F.UPF
     MD5 check sum: 82ef2b46521d7a7d9e736dc3972e4928
     Pseudo is Ultrasoft + core correction, Zval = 15.0
     Generated by new atomic code, or converted to UPF format
     Using radial grid of  859 points,  6 beta functions with:
                l(1) =   0
                l(2) =   0
                l(3) =   1
                l(4) =   1
                l(5) =   2
                l(6) =   2
     Q(r) pseudized with  8 coefficients,  rinner =    0.950   0.950   0.950
                                                       0.950   0.950

     PseudoPot. # 3 for Cu read from file:
     /home/pragov/projects/rrg-bengioy-ad/pragov/crystal_structure_design/SSSP/Cu_pbe_v1.2.uspp.F.UPF
     MD5 check sum: 6e991ff952a84172a2a52a1c1e996048
     Pseudo is Ultrasoft + core correction, Zval = 19.0
     Generated by new atomic code, or converted to UPF format
     Using radial grid of  867 points,  6 beta functions with:
                l(1) =   0
                l(2) =   0
                l(3) =   1
                l(4) =   1
                l(5) =   2
                l(6) =   2
     Q(r) pseudized with  8 coefficients,  rinner =    1.150   1.150   1.150
                                                       1.150   1.150

     PseudoPot. # 4 for Ru read from file:
     /home/pragov/projects/rrg-bengioy-ad/pragov/crystal_structure_design/SSSP/Ru_ONCV_PBE-1.0.oncvpsp.upf
     MD5 check sum: be037bb81c227cfb9b1461a9f099f4bd
     Pseudo is Norm-conserving, Zval = 16.0
     Generated using ONCVPSP code by D. R. Hamann
     Using radial grid of 1458 points,  6 beta functions with:
                l(1) =   0
                l(2) =   0
                l(3) =   1
                l(4) =   1
                l(5) =   2
                l(6) =   2

     PseudoPot. # 5 for O  read from file:
     /home/pragov/projects/rrg-bengioy-ad/pragov/crystal_structure_design/SSSP/O.pbe-n-kjpaw_psl.0.1.UPF
     MD5 check sum: 0234752ac141de4415c5fc33072bef88
     Pseudo is Projector augmented-wave + core cor, Zval =  6.0
     Generated using "atomic" code by A. Dal Corso  v.5.0.99 svn rev. 10869
     Shape of augmentation charge: BESSEL
     Using radial grid of 1095 points,  4 beta functions with:
                l(1) =   0
                l(2) =   0
                l(3) =   1
                l(4) =   1
     Q(r) pseudized with 0 coefficients

     atomic species   valence    mass     pseudopotential
        Ca            10.00    40.07800     Ca( 1.00)
        Mn            15.00    54.93804     Mn( 1.00)
        Cu            19.00    63.54600     Cu( 1.00)
        Ru            16.00   101.07000     Ru( 1.00)
        O              6.00    15.99900     O ( 1.00)

      2 Sym. Ops., with inversion, found

                                    s                        frac. trans.

      isym =  1     identity

 cryst.   s( 1) = (     1          0          0      )
                  (     0          1          0      )
                  (     0          0          1      )

 cart.    s( 1) = (  1.0000000 -0.0000000 -0.0000000 )
                  (  0.0000000  1.0000000 -0.0000000 )
                  (  0.0000000  0.0000000  1.0000000 )

      isym =  2     inversion

 cryst.   s( 2) = (    -1          0          0      )
                  (     0         -1          0      )
                  (     0          0         -1      )

 cart.    s( 2) = ( -1.0000000  0.0000000  0.0000000 )
                  (  0.0000000 -1.0000000  0.0000000 )
                  (  0.0000000  0.0000000 -1.0000000 )

   Cartesian axes

     site n.     atom                  positions (alat units)
         1           Ca  tau(   1) = (   0.0000000   0.0000000   0.0000000  )
         2           Mn  tau(   2) = (   0.5078834   0.7036136   0.4124852  )
         3           Mn  tau(   3) = (   0.8355502   0.2342510   0.4124852  )
         4           Cu  tau(   4) = (   0.6723332   0.4693626   0.0000000  )
         5           Cu  tau(   5) = (   0.3355502   0.2342510   0.4124852  )
         6           Cu  tau(   6) = (   1.0078834   0.7036136   0.4124852  )
         7           Ru  tau(   7) = (   0.1723332   0.4693626   0.0000000  )
         8           Ru  tau(   8) = (   0.5000000   0.0000000   0.0000000  )
         9           O   tau(   9) = (   0.9157137   0.3713721   0.1348332  )
        10           O   tau(  10) = (   1.3515348   0.6756231   0.6901373  )
        11           O   tau(  11) = (   0.6642321   0.7316041   0.1348332  )
        12           O   tau(  12) = (   1.1000531   1.0358552   0.6901373  )
        13           O   tau(  13) = (   1.4361128   1.0025649   0.3957309  )
        14           O   tau(  14) = (   0.3223558   0.2250398   0.1136669  )
        15           O   tau(  15) = (   1.6934111   1.1821874   0.7113035  )
        16           O   tau(  16) = (   0.5796541   0.4046624   0.4292395  )
        17           O   tau(  17) = (   1.0201399   0.9498597   0.2485677  )
        18           O   tau(  18) = (   1.2432652   0.6302463   0.2485677  )
        19           O   tau(  19) = (   0.7725016   0.7769810   0.5764027  )
        20           O   tau(  20) = (   0.9956270   0.4573675   0.5764027  )

   Crystallographic axes

     site n.     atom                  positions (cryst. coord.)
         1           Ca  tau(   1) = (  0.0000000  0.0000000  0.0000000  )
         2           Mn  tau(   2) = ( -0.0000000  0.5000000  0.5000000  )
         3           Mn  tau(   3) = (  0.5000000 -0.0000000  0.5000000  )
         4           Cu  tau(   4) = (  0.5000000  0.5000000  0.0000000  )
         5           Cu  tau(   5) = ( -0.0000000 -0.0000000  0.5000000  )
         6           Cu  tau(   6) = (  0.5000000  0.5000000  0.5000000  )
         7           Ru  tau(   7) = (  0.0000000  0.5000000  0.0000000  )
         8           Ru  tau(   8) = (  0.5000000  0.0000000  0.0000000  )
         9           O   tau(   9) = (  0.6977890  0.3140430  0.1634400  )
        10           O   tau(  10) = (  0.6859570  0.3022110  0.8365600  )
        11           O   tau(  11) = (  0.3140430  0.6977890  0.1634400  )
        12           O   tau(  12) = (  0.3022110  0.6859570  0.8365600  )
        13           O   tau(  13) = (  0.8286010  0.8286010  0.4796910  )
        14           O   tau(  14) = (  0.1709640  0.1709640  0.1377830  )
        15           O   tau(  15) = (  0.8290360  0.8290360  0.8622170  )
        16           O   tau(  16) = (  0.1713990  0.1713990  0.5203090  )
        17           O   tau(  17) = (  0.5210090  0.8614850  0.3013050  )
        18           O   tau(  18) = (  0.8614850  0.5210090  0.3013050  )
        19           O   tau(  19) = (  0.1385150  0.4789910  0.6986950  )
        20           O   tau(  20) = (  0.4789910  0.1385150  0.6986950  )

     number of k points=     1  Methfessel-Paxton smearing, width (Ry)=  0.0010
                       cart. coord. in units 2pi/alat
        k(    1) = (   0.0000000   0.0000000   0.0000000), wk =   2.0000000

                       cryst. coord.
        k(    1) = (   0.0000000   0.0000000   0.0000000), wk =   2.0000000

     Check: negative core charge=   -0.000022

     Initial potential from superposition of free atoms

     starting charge     196.9932, renormalised to     201.0000
     Starting wfcs are  143 randomized atomic wfcs
     Checking if some PAW data can be deallocated...

     Self-consistent Calculation

     iteration #  1     ecut=    30.00 Ry     beta= 0.70
     Davidson diagonalization with overlap

     ethr =  1.00E-02,  avg # of iterations =  2.0

     total energy              =   -2567.69850444 Ry
     estimated scf accuracy    <      22.85452198 Ry

[...]

     ethr =  1.05E-06,  avg # of iterations =  1.0
     Minimization algorithm failed to find Fermi energy: reverting to bisection
     Possible cause: smearing is larger than the electronic band-gap.

[...]

     ethr =  7.53E-10,  avg # of iterations =  2.0
     Minimization algorithm failed to find Fermi energy: reverting to bisection
     Possible cause: smearing is larger than the electronic band-gap.

[...]

     total energy              =   -2584.95162745 Ry
     estimated scf accuracy    <       0.00000872 Ry

     iteration # 61     ecut=    30.00 Ry     beta= 0.70
     Davidson diagonalization with overlap

     ethr =  7.53E-10,  avg # of iterations =  1.0

[...]
   -32.4963 -32.4920 -32.4792 -32.4591 -28.3203  -9.4842  -9.4434  -9.4272
    -8.3021  -7.5523  -7.3264  -7.0437  -7.0161  -6.9731  -6.8849  -6.8326
    -6.7342  -6.6169  -6.5940  -6.5782   4.0395   4.0858   4.1449   4.4771
     4.5686   4.8125   5.1496   5.1794   5.3316   5.9322   5.9661   6.1779
     6.1953   6.2167   6.2244   6.4145   7.1684   7.2300   7.2721   7.3329
     7.3949   7.4405   7.5580   7.5956   7.5977   7.6317   7.8651   7.9420
     8.0017   8.0499   8.6539   8.7042   8.7765   8.9104   8.9896   9.0016
     9.0312   9.1271   9.1283   9.3160   9.3199   9.3642   9.4509   9.5110
     9.5362   9.5585   9.8224   9.9375  10.0039  10.0686  10.2042  10.3779
    10.5097  10.5876  11.2314  11.2812  11.7348  11.7393  11.7419  11.9382
    11.9745  12.0126  12.0535  12.5596  12.5788  13.4146  13.9747  14.0879
    15.5068  15.6334  15.6563  16.1020  17.4447  17.5229  17.5954  17.6237
    17.7117

     occupation numbers
     1.0000   1.0000   1.0000   1.0000   1.0000   1.0000   1.0000   1.0000
     1.0000   1.0000   1.0000   1.0000   1.0000   1.0000   1.0000   1.0000
     1.0000   1.0000   1.0000   1.0000   1.0000   1.0000   1.0000   1.0000
     1.0000   1.0000   1.0000   1.0000   1.0000   1.0000   1.0000   1.0000
     1.0000   1.0000   1.0000   1.0000   1.0000   1.0000   1.0000   1.0000
     1.0000   1.0000   1.0000   1.0000   1.0000   1.0000   1.0000   1.0000
     1.0000   1.0000   1.0000   1.0000   1.0000   1.0000   1.0000   1.0000
     1.0000   1.0000   1.0000   1.0000   1.0000   1.0000   1.0000   1.0000
     1.0000   1.0000   1.0000   1.0000   1.0000   1.0000   1.0000   1.0000
     1.0000   1.0000   1.0000   1.0000   1.0000   1.0000   1.0000   1.0000
     1.0000   1.0000   1.0000   1.0000   1.0000   1.0000   1.0000   1.0000
     1.0000   1.0000   1.0000   1.0000   1.0000   1.0000   1.0000   1.0000
     1.0000   1.0000   1.0000   1.0000   0.3445   0.1181   0.0375  -0.0000
    -0.0000  -0.0000  -0.0000  -0.0000  -0.0000  -0.0000  -0.0000  -0.0000
    -0.0000  -0.0000  -0.0000  -0.0000  -0.0000  -0.0000  -0.0000  -0.0000
    -0.0000

     the Fermi energy is    11.7322 ev

!    total energy              =   -2584.95162697 Ry
     estimated scf accuracy    <       0.00000090 Ry
     smearing contrib. (-TS)   =      -0.00035070 Ry
     internal energy E=F+TS    =   -2584.95127628 Ry

     The total energy is F=E-TS. E is the sum of the following terms:
     one-electron contribution =   -1441.62414019 Ry
     hartree contribution      =     826.71577148 Ry
     xc contribution           =    -308.57704026 Ry
     ewald contribution        =   -1547.16791613 Ry
     one-center paw contrib.   =    -114.29795118 Ry
      -> PAW hartree energy AE =     344.05829071 Ry
      -> PAW hartree energy PS =    -342.83872373 Ry
      -> PAW xc energy AE      =    -204.26400344 Ry
      -> PAW xc energy PS      =      88.74648528 Ry
      -> total E_H with PAW    =     827.93533846 Ry
      -> total E_XC with PAW   =    -424.09455842 Ry

     convergence has been achieved in  61 iterations

     Forces acting on atoms (cartesian axes, Ry/au):

     atom    1 type  1   force =     0.00000000    0.00000000    0.00000000
     atom    2 type  2   force =     0.00000000    0.00000000    0.00000000
     atom    3 type  2   force =     0.00000000    0.00000000    0.00000000
     atom    4 type  3   force =     0.00000000    0.00000000    0.00000000
     atom    5 type  3   force =     0.00000000    0.00000000    0.00000000
     atom    6 type  3   force =     0.00000000    0.00000000    0.00000000
     atom    7 type  4   force =     0.00000000    0.00000000    0.00000000
     atom    8 type  4   force =     0.00000000    0.00000000    0.00000000
     atom    9 type  5   force =    -0.00961770   -0.02034358    0.04334812
     atom   10 type  5   force =     0.02236673    0.00195138   -0.04332279
     atom   11 type  5   force =    -0.02236673   -0.00195138    0.04332279
     atom   12 type  5   force =     0.00961770    0.02034358   -0.04334812
     atom   13 type  5   force =    -0.03346320   -0.02337845    0.01718143
     atom   14 type  5   force =    -0.00380094   -0.00275069    0.00772567
     atom   15 type  5   force =     0.00380094    0.00275069   -0.00772567
     atom   16 type  5   force =     0.03346320    0.02337845   -0.01718143
     atom   17 type  5   force =     0.02263831    0.03806343    0.02661014
     atom   18 type  5   force =     0.04356901    0.00820432    0.02669937
     atom   19 type  5   force =    -0.04356901   -0.00820432   -0.02669937
     atom   20 type  5   force =    -0.02263831   -0.03806343   -0.02661014
     The non-local contrib.  to forces
     atom    1 type  1   force =     0.00000000    0.00000000    0.00000000
     atom    2 type  2   force =     0.00000000    0.00000000    0.00000000
     atom    3 type  2   force =     0.00000000    0.00000000    0.00000000
     atom    4 type  3   force =     0.00000000    0.00000000    0.00000000
     atom    5 type  3   force =     0.00000000    0.00000000    0.00000000
     atom    6 type  3   force =     0.00000000    0.00000000    0.00000000
     atom    7 type  4   force =     0.00000000    0.00000000    0.00000000
     atom    8 type  4   force =     0.00000000    0.00000000    0.00000000
     atom    9 type  5   force =     0.06039860    0.24500648   -0.11844736
     atom   10 type  5   force =    -0.25081512    0.02776721    0.11854435
     atom   11 type  5   force =     0.25081512   -0.02776721   -0.11854435
     atom   12 type  5   force =    -0.06039860   -0.24500648    0.11844736
     atom   13 type  5   force =     0.13365024    0.09321654    0.02960073
     atom   14 type  5   force =     0.09432054    0.06571899   -0.06662166
     atom   15 type  5   force =    -0.09432054   -0.06571899    0.06662166
     atom   16 type  5   force =    -0.13365024   -0.09321654   -0.02960073
     atom   17 type  5   force =    -0.20583990   -0.12836271   -0.05526347
     atom   18 type  5   force =    -0.19125646   -0.14898663   -0.05511851
     atom   19 type  5   force =     0.19125646    0.14898663    0.05511851
     atom   20 type  5   force =     0.20583990    0.12836271    0.05526347
     The ionic contribution  to forces
     atom    1 type  1   force =    -0.00000000   -0.00000000    0.00000000
     atom    2 type  2   force =     0.00000000    0.00000000   -0.00000000
     atom    3 type  2   force =     0.00000000   -0.00000000   -0.00000000
     atom    4 type  3   force =    -0.00000000    0.00000000    0.00000000
     atom    5 type  3   force =    -0.00000000   -0.00000000   -0.00000000
     atom    6 type  3   force =    -0.00000000   -0.00000000   -0.00000000
     atom    7 type  4   force =     0.00000000    0.00000000    0.00000000
     atom    8 type  4   force =     0.00000000   -0.00000000    0.00000000
     atom    9 type  5   force =     3.08319406   -4.91735654    2.32427522
     atom   10 type  5   force =     3.55337328   -4.58911967   -2.32427522
     atom   11 type  5   force =    -3.55337328    4.58911967    2.32427522
     atom   12 type  5   force =    -3.08319406    4.91735654   -2.32427522
     atom   13 type  5   force =    -4.09732901   -2.86038688   -2.97260938
     atom   14 type  5   force =    -2.58881766   -1.80727983   -3.73785812
     atom   15 type  5   force =     2.58881767    1.80727983    3.73785812
     atom   16 type  5   force =     4.09732901    2.86038689    2.97260938
     atom   17 type  5   force =     3.67963816    4.11001175   -2.66301705
     atom   18 type  5   force =     5.12641941    2.03758623   -2.66301705
     atom   19 type  5   force =    -5.12641941   -2.03758623    2.66301705
     atom   20 type  5   force =    -3.67963816   -4.11001175    2.66301705
     The local contribution  to forces
     atom    1 type  1   force =     0.00000009   -0.00000034   -0.00000025
     atom    2 type  2   force =     0.00000051   -0.00000085   -0.00000049
     atom    3 type  2   force =    -0.00000070    0.00000055    0.00000007
     atom    4 type  3   force =     0.00000050    0.00000053    0.00000109
     atom    5 type  3   force =     0.00000077    0.00000063    0.00000009
     atom    6 type  3   force =    -0.00000025   -0.00000030   -0.00000054
     atom    7 type  4   force =    -0.00000033    0.00000020    0.00000034
     atom    8 type  4   force =    -0.00000016   -0.00000057    0.00000039
     atom    9 type  5   force =    -3.15212516    4.65520984   -2.16323174
     atom   10 type  5   force =    -3.28304616    4.56412218    2.16295176
     atom   11 type  5   force =     3.28304630   -4.56412241   -2.16295179
     atom   12 type  5   force =     3.15212499   -4.65520948    2.16323196
     atom   13 type  5   force =     3.93175105    2.74516809    2.96059584
     atom   14 type  5   force =     2.49137297    1.74043551    3.81158063
     atom   15 type  5   force =    -2.49137282   -1.74043544   -3.81158060
     atom   16 type  5   force =    -3.93175108   -2.74516808   -2.96059579
     atom   17 type  5   force =    -3.45296175   -3.94496641    2.74524854
     atom   18 type  5   force =    -4.89390923   -1.88221010    2.74422971
     atom   19 type  5   force =     4.89390919    1.88220998   -2.74422983
     atom   20 type  5   force =     3.45296157    3.94496630   -2.74524857
     The core correction contribution to forces
     atom    1 type  1   force =     0.00000000   -0.00000000   -0.00000000
     atom    2 type  2   force =     0.00000000   -0.00000000   -0.00000000
     atom    3 type  2   force =    -0.00000001    0.00000000    0.00000000
     atom    4 type  3   force =    -0.00000000    0.00000000   -0.00000000
     atom    5 type  3   force =     0.00000000   -0.00000000    0.00000000
     atom    6 type  3   force =     0.00000000    0.00000000    0.00000000
     atom    7 type  4   force =     0.00000000    0.00000000    0.00000000
     atom    8 type  4   force =     0.00000000    0.00000000    0.00000000
     atom    9 type  5   force =    -0.00031261   -0.00294822    0.00079461
     atom   10 type  5   force =     0.00287491   -0.00072362   -0.00079589
     atom   11 type  5   force =    -0.00287491    0.00072362    0.00079589
     atom   12 type  5   force =     0.00031261    0.00294822   -0.00079461
     atom   13 type  5   force =    -0.00167059   -0.00116522   -0.00047921
     atom   14 type  5   force =    -0.00131587   -0.00091763    0.00055029
     atom   15 type  5   force =     0.00131587    0.00091763   -0.00055029
     atom   16 type  5   force =     0.00167059    0.00116522    0.00047921
     atom   17 type  5   force =     0.00221605    0.00126142    0.00002164
     atom   18 type  5   force =     0.00194547    0.00164616    0.00002030
     atom   19 type  5   force =    -0.00194547   -0.00164616   -0.00002030
     atom   20 type  5   force =    -0.00221605   -0.00126142   -0.00002164
     The Hubbard contrib.    to forces
     atom    1 type  1   force =     0.00000000    0.00000000    0.00000000
     atom    2 type  2   force =     0.00000000    0.00000000    0.00000000
     atom    3 type  2   force =     0.00000000    0.00000000    0.00000000
     atom    4 type  3   force =     0.00000000    0.00000000    0.00000000
     atom    5 type  3   force =     0.00000000    0.00000000    0.00000000
     atom    6 type  3   force =     0.00000000    0.00000000    0.00000000
     atom    7 type  4   force =     0.00000000    0.00000000    0.00000000
     atom    8 type  4   force =     0.00000000    0.00000000    0.00000000
     atom    9 type  5   force =     0.00000000    0.00000000    0.00000000
     atom   10 type  5   force =     0.00000000    0.00000000    0.00000000
     atom   11 type  5   force =     0.00000000    0.00000000    0.00000000
     atom   12 type  5   force =     0.00000000    0.00000000    0.00000000
     atom   13 type  5   force =     0.00000000    0.00000000    0.00000000
     atom   14 type  5   force =     0.00000000    0.00000000    0.00000000
     atom   15 type  5   force =     0.00000000    0.00000000    0.00000000
     atom   16 type  5   force =     0.00000000    0.00000000    0.00000000
     atom   17 type  5   force =     0.00000000    0.00000000    0.00000000
     atom   18 type  5   force =     0.00000000    0.00000000    0.00000000
     atom   19 type  5   force =     0.00000000    0.00000000    0.00000000
     atom   20 type  5   force =     0.00000000    0.00000000    0.00000000
     The SCF correction term to forces
     atom    1 type  1   force =    -0.00000008    0.00000032    0.00000023
     atom    2 type  2   force =    -0.00000052    0.00000087    0.00000051
     atom    3 type  2   force =     0.00000071   -0.00000051   -0.00000014
     atom    4 type  3   force =    -0.00000043   -0.00000061   -0.00000114
     atom    5 type  3   force =    -0.00000090   -0.00000071   -0.00000016
     atom    6 type  3   force =     0.00000024    0.00000034    0.00000056
     atom    7 type  4   force =     0.00000031   -0.00000023   -0.00000033
     atom    8 type  4   force =     0.00000017    0.00000060   -0.00000036
     atom    9 type  5   force =    -0.00077260   -0.00025519   -0.00004256
     atom   10 type  5   force =    -0.00002015   -0.00009470    0.00025219
     atom   11 type  5   force =     0.00002004    0.00009495   -0.00025220
     atom   12 type  5   force =     0.00077275    0.00025473    0.00004245
     atom   13 type  5   force =     0.00013507   -0.00021099    0.00007347
     atom   14 type  5   force =     0.00063911   -0.00070771    0.00007450
     atom   15 type  5   force =    -0.00063920    0.00070768   -0.00007459
     atom   16 type  5   force =    -0.00013510    0.00021094   -0.00007346
     atom   17 type  5   force =    -0.00041424    0.00011936   -0.00037953
     atom   18 type  5   force =     0.00036982    0.00016868    0.00058492
     atom   19 type  5   force =    -0.00036980   -0.00016854   -0.00058479
     atom   20 type  5   force =     0.00041445   -0.00011927    0.00037956

     Total force =     0.155932     Total SCF correction =     0.002261

     Computing stress (Cartesian axis) and pressure

          total   stress  (Ry/bohr**3)                   (kbar)     P=     -741.55
  -0.00507521  -0.00001695   0.00000157         -746.59       -2.49        0.23
  -0.00001695  -0.00506266   0.00000098           -2.49     -744.74        0.14
   0.00000157   0.00000098  -0.00498491            0.23        0.14     -733.31

     kinetic stress (kbar)  38149.59      4.37     11.60
                                4.37  38146.25      8.10
                               11.60      8.10  38220.16

     local   stress (kbar) -17700.61    929.17    -36.04
                              929.17 -18381.99    -25.28
                              -36.04    -25.28 -18604.74

     nonloc. stress (kbar)  14323.41     29.97     -2.57
                               29.97  14301.34     -1.67
                               -2.57     -1.67  14300.08

     hartree stress (kbar)  28377.64   -356.91      4.44
                             -356.91  28639.02      3.09
                                4.44      3.09  28778.73

     exc-cor stress (kbar)  -8510.82     -0.48      0.19
                               -0.48  -8510.47      0.13
                                0.19      0.13  -8511.54

     corecor stress (kbar)  -1559.67     -0.87     -0.05
                               -0.87  -1559.03     -0.04
                               -0.05     -0.04  -1559.09

     ewald   stress (kbar) -53826.14   -607.74     22.66
                             -607.74 -53379.86     15.82
                               22.66     15.82 -53356.90

     hubbard stress (kbar)      0.00      0.00      0.00
                                0.00      0.00      0.00
                                0.00      0.00      0.00

     DFT-D   stress (kbar)      0.00      0.00      0.00
                                0.00      0.00      0.00
                                0.00      0.00      0.00

     XDM     stress (kbar)      0.00      0.00      0.00
                                0.00      0.00      0.00
                                0.00      0.00      0.00

     dft-nl  stress (kbar)      0.00      0.00      0.00
                                0.00      0.00      0.00
                                0.00      0.00      0.00

     TS-vdW  stress (kbar)      0.00      0.00      0.00
                                0.00      0.00      0.00
                                0.00      0.00      0.00

[...]

                                0.00      0.00      0.00

     Writing all to output data dir new_calculations/myprefix.save/

     General routines

     Parallel routines

     PAW routines

   This run was terminated on:   2:53:27  21May2023

   JOB DONE.