     Program PWSCF v.7.0 starts on 20May2023 at  4:25:42

     Reading input from espresso_16033.pwi
Warning: card &CELL ignored
Warning: card / ignored

     Current dimensions of program PWSCF are:
     Max number of different atomic species (ntypx) = 10
     Max number of k-points (npk) =  40000
     Max angular momentum in pseudopotentials (lmaxx) =  4

     gamma-point specific algorithms are used
     Message from routine setup:
     using ibrav=0 with symmetry is DISCOURAGED, use correct ibrav instead

     Subspace diagonalization in iterative solution of the eigenvalue problem:
     a serial algorithm will be used

     Using Slab Decomposition

     bravais-lattice index     =            0
     lattice parameter (alat)  =      11.3356  a.u.
     unit-cell volume          =     687.2087 (a.u.)^3
     number of atoms/cell      =            5
     number of atomic types    =            3
     number of electrons       =        69.00
     number of Kohn-Sham states=           42
     kinetic-energy cutoff     =      30.0000  Ry
     charge density cutoff     =     240.0000  Ry
     scf convergence threshold =      1.0E-06
     mixing beta               =       0.7000
     number of iterations used =            8  plain     mixing
     Exchange-correlation= SLA  PW   PBE  PBE
                           (   1   4   3   4   0   0   0)

     celldm(1)=  11.335593  celldm(2)=   0.000000  celldm(3)=   0.000000
     celldm(4)=   0.000000  celldm(5)=   0.000000  celldm(6)=   0.000000

     crystal axes: (cart. coord. in units of alat)
               a(1) = (   1.000000   0.000000   0.000000 )
               a(2) = (   0.444930   0.895565   0.000000 )
               a(3) = (  -0.722465  -0.447783   0.526816 )

     reciprocal axes: (cart. coord. in units 2 pi/alat)
               b(1) = (  1.000000 -0.496815  0.949098 )
               b(2) = (  0.000000  1.116613  0.949098 )
               b(3) = (  0.000000  0.000000  1.898197 )

     PseudoPot. # 1 for La read from file:
     /home/pragov/projects/rrg-bengioy-ad/pragov/crystal_structure_design/SSSP/La.GGA-PBE-paw-v1.0.UPF
     MD5 check sum: 436541e95c1ad8901025bd0b0ed42ae2
     Pseudo is Projector augmented-wave + core cor, Zval = 11.0
     Generated using ATOMPAW code
     Shape of augmentation charge: BESSEL
     Using radial grid of 1101 points,  8 beta functions with:
                l(1) =   0
                l(2) =   0
                l(3) =   1
                l(4) =   1
                l(5) =   2
                l(6) =   2
                l(7) =   3
                l(8) =   3
     Q(r) pseudized with 0 coefficients

     PseudoPot. # 2 for Ge read from file:
     /home/pragov/projects/rrg-bengioy-ad/pragov/crystal_structure_design/SSSP/ge_pbe_v1.4.uspp.F.UPF
     MD5 check sum: 9c9eaa91e581c3f09632fb3098b2c6b2
     Pseudo is Ultrasoft + core correction, Zval = 14.0
     Generated by new atomic code, or converted to UPF format
     Using radial grid of  873 points,  6 beta functions with:
                l(1) =   0
                l(2) =   0
                l(3) =   1
                l(4) =   1
                l(5) =   2
                l(6) =   2
     Q(r) pseudized with  8 coefficients,  rinner =    1.400   1.400   1.400
                                                       1.400   1.400

     PseudoPot. # 3 for Os read from file:
     /home/pragov/projects/rrg-bengioy-ad/pragov/crystal_structure_design/SSSP/Os_pbe_v1.2.uspp.F.UPF
     MD5 check sum: a3fb40a04f0c37c25c34bbc47164c9a8
     Pseudo is Ultrasoft + core correction, Zval = 16.0
     Generated by new atomic code, or converted to UPF format
     Using radial grid of  983 points,  8 beta functions with:
                l(1) =   0
                l(2) =   0
                l(3) =   1
                l(4) =   1
                l(5) =   2
                l(6) =   2
                l(7) =   3
                l(8) =   3
     Q(r) pseudized with  8 coefficients,  rinner =    1.150   1.150   1.150
                                                       1.150   1.150   1.150
                                                       1.150

     atomic species   valence    mass     pseudopotential
        La            11.00   138.90547     La( 1.00)
        Ge            14.00    72.63000     Ge( 1.00)
        Os            16.00   190.23000     Os( 1.00)

      2 Sym. Ops. (no inversion) found

                                    s                        frac. trans.

      isym =  1     identity

 cryst.   s( 1) = (     1          0          0      )
                  (     0          1          0      )
                  (     0          0          1      )

 cart.    s( 1) = (  1.0000000 -0.0000000  0.0000000 )
                  (  0.0000000  1.0000000  0.0000000 )
                  (  0.0000000  0.0000000  1.0000000 )

      isym =  2     inv. 180 deg rotation - cart. axis [0,0,1]

 cryst.   s( 2) = (     1          0          0      )
                  (     0          1          0      )
                  (    -1         -1         -1      )

 cart.    s( 2) = (  1.0000000 -0.0000000 -0.0000000 )
                  (  0.0000000  1.0000000 -0.0000000 )
                  (  0.0000000  0.0000000 -1.0000000 )

   Cartesian axes

     site n.     atom                  positions (alat units)
         1           La  tau(   1) = (   0.0005028   0.0003117   0.0000000  )
         2           Ge  tau(   2) = (   0.6120725   0.3793614   0.0000000  )
         3           Ge  tau(   3) = (   0.2370922   0.4568484   0.2634079  )
         4           Ge  tau(   4) = (   0.5146270   0.0090658   0.2634079  )
         5           Os  tau(   5) = (   0.9504839   0.5891081   0.0000000  )

   Crystallographic axes

     site n.     atom                  positions (cryst. coord.)
         1           La  tau(   1) = (  0.0003480  0.0003480  0.0000000  )
         2           Ge  tau(   2) = (  0.4236000  0.4236000  0.0000000  )
         3           Ge  tau(   3) = (  0.2601230  0.7601230  0.5000000  )
         4           Ge  tau(   4) = (  0.7601230  0.2601230  0.5000000  )
         5           Os  tau(   5) = (  0.6578060  0.6578060  0.0000000  )

     number of k points=     1  Methfessel-Paxton smearing, width (Ry)=  0.0010
                       cart. coord. in units 2pi/alat
        k(    1) = (   0.0000000   0.0000000   0.0000000), wk =   2.0000000

                       cryst. coord.
        k(    1) = (   0.0000000   0.0000000   0.0000000), wk =   2.0000000

     Check: negative core charge=   -0.000001

     Initial potential from superposition of free atoms

     starting charge      68.4888, renormalised to      69.0000

     negative rho (up, down):  1.257E-01 0.000E+00
     Starting wfcs are   72 randomized atomic wfcs
     Checking if some PAW data can be deallocated...

     Self-consistent Calculation

     iteration #  1     ecut=    30.00 Ry     beta= 0.70
     Davidson diagonalization with overlap

     ethr =  1.00E-02,  avg # of iterations =  2.0

     negative rho (up, down):  1.152E-01 0.000E+00

     total energy              =   -1296.74265116 Ry
     estimated scf accuracy    <       0.89882272 Ry

[...]

     total energy              =   -1297.27696077 Ry
     estimated scf accuracy    <       0.00000195 Ry

     iteration # 17     ecut=    30.00 Ry     beta= 0.70
     Davidson diagonalization with overlap

     ethr =  2.82E-09,  avg # of iterations =  3.0

[...]

     End of self-consistent calculation

          k = 0.0000 0.0000 0.0000 (   965 PWs)   bands (ev):

   -72.0493 -31.6445 -31.5595 -30.8868 -18.7747 -11.4185 -11.3619 -11.3406
   -11.3093 -11.2910 -11.2647 -11.2565 -11.2271 -11.1853 -11.1185 -11.0429
   -10.9761 -10.8876 -10.7382 -10.6764  -2.6391  -2.5288  -2.5138   1.7626
     6.1198   6.3155   9.2917   9.3131   9.8935  10.8374  11.8619  12.0444
    13.1590  13.2233  13.6926  13.6933  15.2190  15.8464  15.9004  15.9721
    16.0595  16.1372

     occupation numbers
     1.0000   1.0000   1.0000   1.0000   1.0000   1.0000   1.0000   1.0000
     1.0000   1.0000   1.0000   1.0000   1.0000   1.0000   1.0000   1.0000
     1.0000   1.0000   1.0000   1.0000   1.0000   1.0000   1.0000   1.0000
     1.0000   1.0000   1.0000   1.0000   1.0000   1.0000   1.0000   1.0000
     1.0000   1.0000   0.2701   0.2299  -0.0000  -0.0000  -0.0000  -0.0000
    -0.0000  -0.0000

     the Fermi energy is    13.6887 ev

!    total energy              =   -1297.27696070 Ry
     estimated scf accuracy    <       0.00000045 Ry
     smearing contrib. (-TS)   =      -0.00041149 Ry
     internal energy E=F+TS    =   -1297.27654921 Ry

     The total energy is F=E-TS. E is the sum of the following terms:
     one-electron contribution =    -449.52719395 Ry
     hartree contribution      =     283.34656215 Ry
     xc contribution           =    -221.15497009 Ry
     ewald contribution        =    -511.87484626 Ry
     one-center paw contrib.   =    -398.06610106 Ry
      -> PAW hartree energy AE =      35.26000265 Ry
      -> PAW hartree energy PS =     -35.28530067 Ry
      -> PAW xc energy AE      =    -405.37700462 Ry
      -> PAW xc energy PS      =       7.33620157 Ry
      -> total E_H with PAW    =     283.32126414 Ry
      -> total E_XC with PAW   =    -619.19577314 Ry

     convergence has been achieved in  17 iterations

     negative rho (up, down):  1.246E-01 0.000E+00

     Forces acting on atoms (cartesian axes, Ry/au):

     atom    1 type  1   force =     0.04809029    0.04100075   -0.00000000
     atom    2 type  2   force =    -0.03260527   -0.01744362    0.00000000
     atom    3 type  2   force =     0.02184265    0.02150549   -0.00114466
     atom    4 type  2   force =     0.02184265    0.02150549    0.00114466
     atom    5 type  3   force =    -0.05917032   -0.06656812    0.00000000
     The non-local contrib.  to forces
     atom    1 type  1   force =    -0.09634463   -0.04904884    0.00000000
     atom    2 type  2   force =     0.01450805   -0.01138977   -0.00000000
     atom    3 type  2   force =    -0.26494947   -0.16343034    0.01598602
     atom    4 type  2   force =    -0.26494947   -0.16343034   -0.01598602
     atom    5 type  3   force =     0.03892893    0.02577059   -0.00000000
     The ionic contribution  to forces
     atom    1 type  1   force =     1.95270204    1.21028108    0.00000000
     atom    2 type  2   force =     0.92754985    0.57489366   -0.00000001
     atom    3 type  2   force =     2.19614305    1.36116537   -0.00000000
     atom    4 type  2   force =     2.19614306    1.36116537   -0.00000000
     atom    5 type  3   force =    -7.27253800   -4.50750549    0.00000001
     The local contribution  to forces
     atom    1 type  1   force =    -1.80982137   -1.12941037    0.00876067
     atom    2 type  2   force =    -0.97816206   -0.59255054   -0.00667066
     atom    3 type  2   force =    -1.91738970   -1.18298779   -0.00893245
     atom    4 type  2   force =    -1.91378619   -1.19349817    0.02419975
     atom    5 type  3   force =     7.18063388    4.40223704   -0.03643085
     The core correction contribution to forces
     atom    1 type  1   force =     0.00000609   -0.00000322    0.00000671
     atom    2 type  2   force =     0.00183048    0.00233115   -0.00056991
     atom    3 type  2   force =     0.00474674    0.00379743    0.00055923
     atom    4 type  2   force =     0.00439338    0.00167193    0.00170547
     atom    5 type  3   force =    -0.00762016    0.00391754    0.00670893
     The Hubbard contrib.    to forces
     atom    1 type  1   force =     0.00000000    0.00000000    0.00000000
     atom    2 type  2   force =     0.00000000    0.00000000    0.00000000
     atom    3 type  2   force =     0.00000000    0.00000000    0.00000000
     atom    4 type  2   force =     0.00000000    0.00000000    0.00000000
     atom    5 type  3   force =     0.00000000    0.00000000    0.00000000
     The SCF correction term to forces
     atom    1 type  1   force =    -0.00002023   -0.00000889   -0.00001551
     atom    2 type  2   force =     0.00010003    0.00008089    0.00001610
     atom    3 type  2   force =     0.00094391    0.00056735    0.00000087
     atom    4 type  2   force =    -0.00074678   -0.00039181   -0.00001621
     atom    5 type  3   force =    -0.00014336   -0.00017881   -0.00003890

     Total force =     0.123188     Total SCF correction =     0.001413

     Computing stress (Cartesian axis) and pressure

     negative rho (up, down):  1.246E-01 0.000E+00
          total   stress  (Ry/bohr**3)                   (kbar)     P=     -269.30
  -0.00187303  -0.00037280   0.00000000         -275.53      -54.84        0.00
  -0.00037280  -0.00200865   0.00000000          -54.84     -295.48        0.00
   0.00000000   0.00000000  -0.00161031            0.00        0.00     -236.88

     kinetic stress (kbar)  18549.58    163.29     -0.00
                              163.29  18357.70     -0.00
                               -0.00     -0.00  18292.64

     local   stress (kbar)  14140.82   3735.98      0.54
                             3735.98  10401.81      4.67
                                0.54      4.67   8044.61

     nonloc. stress (kbar)  -4098.94    -42.86      0.00
                              -42.86  -4085.55      0.00
                                0.00      0.00  -4047.57

     hartree stress (kbar)  18507.06  -1954.58      2.85
                            -1954.58  20458.10     -4.26
                                2.85     -4.26  21688.49

     exc-cor stress (kbar)  14604.10      3.54     -0.19
                                3.54  14600.74      0.09
                               -0.19      0.09  14599.16

     corecor stress (kbar) -23753.63     -3.71      0.54
                               -3.71 -23747.82     -1.46
                                0.54     -1.46 -23746.39

     ewald   stress (kbar) -38224.52  -1956.51     -0.00
                            -1956.51 -36280.47     -0.00
                               -0.00     -0.00 -35067.83

     hubbard stress (kbar)      0.00      0.00      0.00
                                0.00      0.00      0.00
                                0.00      0.00      0.00

     DFT-D   stress (kbar)      0.00      0.00      0.00
                                0.00      0.00      0.00
                                0.00      0.00      0.00

     XDM     stress (kbar)      0.00      0.00      0.00
                                0.00      0.00      0.00
                                0.00      0.00      0.00

     dft-nl  stress (kbar)      0.00      0.00      0.00
                                0.00      0.00      0.00
                                0.00      0.00      0.00

     TS-vdW  stress (kbar)      0.00      0.00      0.00
                                0.00      0.00      0.00
                                0.00      0.00      0.00

[...]

                                0.00      0.00      0.00

     Writing all to output data dir new_calculations/myprefix.save/

     General routines

     Parallel routines

     PAW routines

   This run was terminated on:   4:26:23  20May2023

   JOB DONE.