     Program PWSCF v.7.0 starts on 20May2023 at  9:11:35

     Reading input from espresso_10290.pwi
Warning: card &CELL ignored
Warning: card / ignored

     Current dimensions of program PWSCF are:
     Max number of different atomic species (ntypx) = 10
     Max number of k-points (npk) =  40000
     Max angular momentum in pseudopotentials (lmaxx) =  4
     file Al.pbe-n-kjpaw_psl.1.0.0.UPF: wavefunction(s)  3S 3P renormalized

     gamma-point specific algorithms are used
     Message from routine setup:
     using ibrav=0 with symmetry is DISCOURAGED, use correct ibrav instead

     Subspace diagonalization in iterative solution of the eigenvalue problem:
     a serial algorithm will be used

     Using Slab Decomposition

     bravais-lattice index     =            0
     lattice parameter (alat)  =      13.3365  a.u.
     unit-cell volume          =    1677.3151 (a.u.)^3
     number of atoms/cell      =           14
     number of atomic types    =            4
     number of electrons       =       126.00
     number of Kohn-Sham states=           76
     kinetic-energy cutoff     =      30.0000  Ry
     charge density cutoff     =     240.0000  Ry
     scf convergence threshold =      1.0E-06
     mixing beta               =       0.7000
     number of iterations used =            8  plain     mixing
     Exchange-correlation=  SLA  PW   PBX  PBC
                           (   1   4   3   4   0   0   0)

     celldm(1)=  13.336541  celldm(2)=   0.000000  celldm(3)=   0.000000
     celldm(4)=   0.000000  celldm(5)=   0.000000  celldm(6)=   0.000000

     crystal axes: (cart. coord. in units of alat)
               a(1) = (   1.000000   0.000000   0.000000 )
               a(2) = (   0.500000   0.866025   0.000000 )
               a(3) = (   0.500000   0.288675   0.816497 )

     reciprocal axes: (cart. coord. in units 2 pi/alat)
               b(1) = (  1.000000 -0.577350 -0.408248 )
               b(2) = (  0.000000  1.154701 -0.408248 )
               b(3) = (  0.000000  0.000000  1.224745 )

     PseudoPot. # 1 for Al read from file:
     /home/pragov/projects/rrg-bengioy-ad/pragov/crystal_structure_design/SSSP/Al.pbe-n-kjpaw_psl.1.0.0.UPF
     MD5 check sum: cfc449ca30b5f3223ec38ddd88ac046d
     Pseudo is Projector augmented-wave + core cor, Zval =  3.0
     Generated using "atomic" code by A. Dal Corso  v.5.1
     Shape of augmentation charge: PSQ
     Using radial grid of 1135 points,  6 beta functions with:
                l(1) =   0
                l(2) =   0
                l(3) =   1
                l(4) =   1
                l(5) =   2
                l(6) =   2
     Q(r) pseudized with 0 coefficients

     PseudoPot. # 2 for Cr read from file:
     /home/pragov/projects/rrg-bengioy-ad/pragov/crystal_structure_design/SSSP/cr_pbe_v1.5.uspp.F.UPF
     MD5 check sum: 0d52af634a40206e4dee301ad30da4bf
     Pseudo is Ultrasoft + core correction, Zval = 14.0
     Generated by new atomic code, or converted to UPF format
     Using radial grid of  857 points,  6 beta functions with:
                l(1) =   0
                l(2) =   0
                l(3) =   1
                l(4) =   1
                l(5) =   2
                l(6) =   2
     Q(r) pseudized with  8 coefficients,  rinner =    0.950   0.950   0.950
                                                       0.950   0.950

     PseudoPot. # 3 for Cu read from file:
     /home/pragov/projects/rrg-bengioy-ad/pragov/crystal_structure_design/SSSP/Cu_pbe_v1.2.uspp.F.UPF
     MD5 check sum: 6e991ff952a84172a2a52a1c1e996048
     Pseudo is Ultrasoft + core correction, Zval = 19.0
     Generated by new atomic code, or converted to UPF format
     Using radial grid of  867 points,  6 beta functions with:
                l(1) =   0
                l(2) =   0
                l(3) =   1
                l(4) =   1
                l(5) =   2
                l(6) =   2
     Q(r) pseudized with  8 coefficients,  rinner =    1.150   1.150   1.150
                                                       1.150   1.150

     PseudoPot. # 4 for S  read from file:
     /home/pragov/projects/rrg-bengioy-ad/pragov/crystal_structure_design/SSSP/s_pbe_v1.4.uspp.F.UPF
     MD5 check sum: 88d86576ff6df21479756cfb9bdac1df
     Pseudo is Ultrasoft + core correction, Zval =  6.0
     Generated by new atomic code, or converted to UPF format
     Using radial grid of  907 points,  6 beta functions with:
                l(1) =   0
                l(2) =   0
                l(3) =   1
                l(4) =   1
                l(5) =   2
                l(6) =   2
     Q(r) pseudized with  8 coefficients,  rinner =    1.300   1.300   1.300
                                                       1.300   1.300

     atomic species   valence    mass     pseudopotential
        Al             3.00    26.98154     Al( 1.00)
        Cr            14.00    51.99610     Cr( 1.00)
        Cu            19.00    63.54600     Cu( 1.00)
        S              6.00    32.06000     S ( 1.00)

      6 Sym. Ops. (no inversion) found

                                    s                        frac. trans.

      isym =  1     identity

 cryst.   s( 1) = (     1          0          0      )
                  (     0          1          0      )
                  (     0          0          1      )

 cart.    s( 1) = (  1.0000000  0.0000000  0.0000000 )
                  (  0.0000000  1.0000000  0.0000000 )
                  (  0.0000000  0.0000000  1.0000000 )

      isym =  2     120 deg rotation - cryst. axis [0,0,1]

[...]

      isym =  3     120 deg rotation - cryst. axis [0,0,-1]

[...]

      isym =  4     inv. 180 deg rotation - cart. axis [1,0,0]

[...]

      isym =  5     inv. 180 deg rotation - cryst. axis [0,1,0]

[...]

      isym =  6     inv. 180 deg rotation - cryst. axis [1,1,0]

 cryst.   s( 6) = (     1         -1          0      )
                  (     0         -1          0      )
                  (     0         -1          1      )

 cart.    s( 6) = (  0.5000000 -0.8660254  0.0000000 )
                  ( -0.8660254 -0.5000000  0.0000000 )
                  (  0.0000000  0.0000000  1.0000000 )

   Cartesian axes

     site n.     atom                  positions (alat units)
         1           Al  tau(   1) = (   1.0000000   0.5773503   0.4082483  )
         2           Cr  tau(   2) = (   0.7572030   0.1401783   0.0991211  )
         3           Cr  tau(   3) = (   0.4999995   0.5856679   0.0991211  )
         4           Cr  tau(   4) = (   0.4999995   0.2886748   0.5191326  )
         5           Cr  tau(   5) = (   0.2427960   0.1401783   0.0991211  )
         6           Cu  tau(   6) = (   1.5000000   0.8660254   0.6123724  )
         7           S   tau(   7) = (   1.2325730   1.0204239   0.7215486  )
         8           S   tau(   8) = (   1.4999995   0.5572276   0.7215486  )
         9           S   tau(   9) = (   1.4999995   0.8660251   0.2848430  )
        10           S   tau(  10) = (   1.7674260   1.0204239   0.7215486  )
        11           S   tau(  11) = (   1.2657840   0.4238998   0.2997424  )
        12           S   tau(  12) = (   1.0000000   0.8842512   0.2997424  )
        13           S   tau(  13) = (   1.0000000   0.5773503   0.7337659  )
        14           S   tau(  14) = (   0.7342160   0.4238998   0.2997424  )

   Crystallographic axes

     site n.     atom                  positions (cryst. coord.)
         1           Al  tau(   1) = (  0.5000000  0.5000000  0.5000000  )
         2           Cr  tau(   2) = (  0.6358050  0.1213980  0.1213980  )
         3           Cr  tau(   3) = (  0.1213980  0.6358050  0.1213980  )
         4           Cr  tau(   4) = (  0.1213980  0.1213980  0.6358050  )
         5           Cr  tau(   5) = (  0.1213980  0.1213980  0.1213980  )
         6           Cu  tau(   6) = (  0.7500000  0.7500000  0.7500000  )
         7           S   tau(   7) = (  0.3488600  0.8837130  0.8837130  )
         8           S   tau(   8) = (  0.8837130  0.3488600  0.8837130  )
         9           S   tau(   9) = (  0.8837130  0.8837130  0.3488600  )
        10           S   tau(  10) = (  0.8837130  0.8837130  0.8837130  )
        11           S   tau(  11) = (  0.8986760  0.3671080  0.3671080  )
        12           S   tau(  12) = (  0.3671080  0.8986760  0.3671080  )
        13           S   tau(  13) = (  0.3671080  0.3671080  0.8986760  )
        14           S   tau(  14) = (  0.3671080  0.3671080  0.3671080  )

     number of k points=     1  Methfessel-Paxton smearing, width (Ry)=  0.0010
                       cart. coord. in units 2pi/alat
        k(    1) = (   0.0000000   0.0000000   0.0000000), wk =   2.0000000

                       cryst. coord.
        k(    1) = (   0.0000000   0.0000000   0.0000000), wk =   2.0000000

     Check: negative core charge=   -0.000006

     Initial potential from superposition of free atoms

     starting charge     120.9974, renormalised to     126.0000

     negative rho (up, down):  1.578E-03 0.000E+00
     Starting wfcs are   89 randomized atomic wfcs
     Checking if some PAW data can be deallocated...

     Self-consistent Calculation

     iteration #  1     ecut=    30.00 Ry     beta= 0.70
     Davidson diagonalization with overlap

     ethr =  1.00E-02,  avg # of iterations =  6.0

     negative rho (up, down):  1.118E-02 0.000E+00

     total energy              =   -1330.22042094 Ry
     estimated scf accuracy    <      10.96420966 Ry

[...]

     total energy              =   -1338.12782559 Ry
     estimated scf accuracy    <       0.00000257 Ry

     iteration # 25     ecut=    30.00 Ry     beta= 0.70
     Davidson diagonalization with overlap

     ethr =  2.04E-09,  avg # of iterations = 17.0

[...]

     End of self-consistent calculation

          k = 0.0000 0.0000 0.0000 (  2323 PWs)   bands (ev):

  -103.3711 -63.4129 -63.4115 -63.4115 -63.4114 -60.7551 -60.7550 -60.7550
   -34.8160 -34.7920 -34.7919 -34.7919 -34.7014 -34.7014 -34.6976 -34.6976
   -34.6976 -34.6929 -34.6929 -34.6928  -5.6453  -4.2756  -3.9514  -3.9512
    -3.9510  -3.8327  -3.8324  -3.8322   1.3569   2.4989   2.7538   2.7539
     2.7539   3.7639   3.7640   5.0025   5.0028   5.0029   5.1263   5.1263
     5.3425   5.3429   5.3430   5.6091   5.6092   5.6092   6.5463   6.5463
     6.5465   6.6406   6.6406   6.9002   6.9002   6.9003   7.3783   7.6849
     7.6849   8.0890   8.0890   8.0891   8.3142   8.3143   8.3143   8.7245
     8.7245   8.7246   8.8701   8.8701   8.8701  10.9585  10.9585  11.0498
    11.0498  11.0499  11.1429  11.1429

     occupation numbers
     1.0000   1.0000   1.0000   1.0000   1.0000   1.0000   1.0000   1.0000
     1.0000   1.0000   1.0000   1.0000   1.0000   1.0000   1.0000   1.0000
     1.0000   1.0000   1.0000   1.0000   1.0000   1.0000   1.0000   1.0000
     1.0000   1.0000   1.0000   1.0000   1.0000   1.0000   1.0000   1.0000
     1.0000   1.0000   1.0000   1.0000   1.0000   1.0000   1.0000   1.0000
     1.0000   1.0000   1.0000   1.0000   1.0000   1.0000   1.0000   1.0000
     1.0000   1.0000   1.0000   1.0000   1.0000   1.0000   1.0000   1.0000
     1.0000   1.0000   1.0000   1.0000   1.0000   1.0000   1.0000  -0.0000
    -0.0000  -0.0000  -0.0000  -0.0000  -0.0000  -0.0000  -0.0000  -0.0000
    -0.0000  -0.0000  -0.0000  -0.0000

     the Fermi energy is     8.5887 ev

!    total energy              =   -1338.12782566 Ry
     estimated scf accuracy    <       0.00000048 Ry
     smearing contrib. (-TS)   =       0.00000000 Ry
     internal energy E=F+TS    =   -1338.12782566 Ry

     The total energy is F=E-TS. E is the sum of the following terms:
     one-electron contribution =    -909.73975921 Ry
     hartree contribution      =     501.24285309 Ry
     xc contribution           =    -198.54240727 Ry
     ewald contribution        =    -696.42361326 Ry
     one-center paw contrib.   =     -34.66489902 Ry
      -> PAW hartree energy AE =       1.42344833 Ry
      -> PAW hartree energy PS =      -1.41944612 Ry
      -> PAW xc energy AE      =     -36.59125136 Ry
      -> PAW xc energy PS      =       1.92235013 Ry
      -> total E_H with PAW    =     501.24685531 Ry
      -> total E_XC with PAW   =    -233.21130850 Ry

     convergence has been achieved in  25 iterations

     negative rho (up, down):  1.846E-03 0.000E+00

     Forces acting on atoms (cartesian axes, Ry/au):

     atom    1 type  1   force =     0.00000000    0.00000000    0.00001905
     atom    2 type  2   force =     0.05797107   -0.03346961   -0.02360792
     atom    3 type  2   force =     0.00000000    0.06693923   -0.02360792
     atom    4 type  2   force =     0.00000000    0.00000000    0.07095249
     atom    5 type  2   force =    -0.05797107   -0.03346961   -0.02360792
     atom    6 type  3   force =     0.00000000    0.00000000   -0.00020047
     atom    7 type  4   force =     0.00061661   -0.00035600   -0.00023613
     atom    8 type  4   force =     0.00000000    0.00071200   -0.00023613
     atom    9 type  4   force =     0.00000000    0.00000000    0.00075386
     atom   10 type  4   force =    -0.00061661   -0.00035600   -0.00023613
     atom   11 type  4   force =     0.01006612   -0.00581168   -0.00410577
     atom   12 type  4   force =     0.00000000    0.01162336   -0.00410577
     atom   13 type  4   force =     0.00000000    0.00000000    0.01232455
     atom   14 type  4   force =    -0.01006612   -0.00581168   -0.00410577
     The non-local contrib.  to forces
     atom    1 type  1   force =    -0.00000000   -0.00000000    0.00001501
     atom    2 type  2   force =    -0.02458734    0.01419550    0.01006298
     atom    3 type  2   force =     0.00000000   -0.02839101    0.01006298
     atom    4 type  2   force =     0.00000000    0.00000000   -0.03012977
     atom    5 type  2   force =     0.02458734    0.01419550    0.01006298
     atom    6 type  3   force =     0.00000000    0.00000000   -0.00019922
     atom    7 type  4   force =    -0.01696606    0.00979536    0.00694757
     atom    8 type  4   force =     0.00000000   -0.01959072    0.00694757
     atom    9 type  4   force =    -0.00000000   -0.00000000   -0.02079354
     atom   10 type  4   force =     0.01696606    0.00979536    0.00694757
     atom   11 type  4   force =    -0.08058034    0.04652308    0.03291785
     atom   12 type  4   force =     0.00000000   -0.09304616    0.03291785
     atom   13 type  4   force =     0.00000000    0.00000000   -0.09864900
     atom   14 type  4   force =     0.08058034    0.04652308    0.03291785
     The ionic contribution  to forces
     atom    1 type  1   force =    -0.00000799   -0.00000462   -0.00000326
     atom    2 type  2   force =    -3.94603057    2.27827222    1.61098174
     atom    3 type  2   force =     0.00002633   -4.55649883    1.61098174
     atom    4 type  2   force =     0.00002633    0.00001520   -4.83290221
     atom    5 type  2   force =     3.94606370    2.27826094    1.61097376
     atom    6 type  3   force =    -0.00005062   -0.00002923   -0.00002067
     atom    7 type  4   force =     2.37821740   -1.37306954   -0.97090678
     atom    8 type  4   force =    -0.00000440    2.74613146   -0.97090678
     atom    9 type  4   force =    -0.00000440   -0.00000254    2.91271316
     atom   10 type  4   force =    -2.37817183   -1.37303815   -0.97088458
     atom   11 type  4   force =    -6.81023662    3.93186528    2.78024861
     atom   12 type  4   force =    -0.00002309   -7.86377056    2.78024861
     atom   13 type  4   force =    -0.00002309   -0.00001333   -8.34078352
     atom   14 type  4   force =     6.81021886    3.93188169    2.78026021
     The local contribution  to forces
     atom    1 type  1   force =     0.00002263    0.00000130    0.00008566
     atom    2 type  2   force =     4.02716740   -2.32573790   -1.64496054
     atom    3 type  2   force =    -0.00027997    4.65066620   -1.64508968
     atom    4 type  2   force =    -0.00044085   -0.00042179    4.93334689
     atom    5 type  2   force =    -4.02715293   -2.32532731   -1.64464504
     atom    6 type  3   force =     0.00040370    0.00087565    0.00040652
     atom    7 type  4   force =    -2.36087176    1.36334388    0.96384674
     atom    8 type  4   force =     0.00005199   -2.72642455    0.96405677
     atom    9 type  4   force =     0.00004843    0.00028660   -2.89170396
     atom   10 type  4   force =     2.36076798    1.36331091    0.96374568
     atom   11 type  4   force =     6.89614274   -3.98179759   -2.81546462
     atom   12 type  4   force =    -0.00005807    7.96318277   -2.81563387
     atom   13 type  4   force =    -0.00010566   -0.00029162    8.44609648
     atom   14 type  4   force =    -6.89609954   -3.98176533   -2.81538803
     The core correction contribution to forces
     atom    1 type  1   force =     0.00000027   -0.00000074   -0.00000119
     atom    2 type  2   force =     0.00088232   -0.00051208   -0.00036483
     atom    3 type  2   force =    -0.00000004    0.00102134   -0.00036499
     atom    4 type  2   force =    -0.00000167   -0.00000178    0.00108573
     atom    5 type  2   force =    -0.00088337   -0.00051168   -0.00036383
     atom    6 type  3   force =    -0.00000007   -0.00000030    0.00000003
     atom    7 type  4   force =     0.00047287   -0.00027327   -0.00019462
     atom    8 type  4   force =    -0.00000116    0.00054519   -0.00019351
     atom    9 type  4   force =    -0.00000143    0.00000119    0.00057969
     atom   10 type  4   force =    -0.00047464   -0.00027105   -0.00019465
     atom   11 type  4   force =     0.00443419   -0.00256110   -0.00181185
     atom   12 type  4   force =     0.00000053    0.00511992   -0.00181267
     atom   13 type  4   force =    -0.00000087   -0.00000124    0.00542829
     atom   14 type  4   force =    -0.00443316   -0.00256212   -0.00181127
     The Hubbard contrib.    to forces
     atom    1 type  1   force =     0.00000000    0.00000000    0.00000000
     atom    2 type  2   force =     0.00000000    0.00000000    0.00000000
     atom    3 type  2   force =     0.00000000    0.00000000    0.00000000
     atom    4 type  2   force =     0.00000000    0.00000000    0.00000000
     atom    5 type  2   force =     0.00000000    0.00000000    0.00000000
     atom    6 type  3   force =     0.00000000    0.00000000    0.00000000
     atom    7 type  4   force =     0.00000000    0.00000000    0.00000000
     atom    8 type  4   force =     0.00000000    0.00000000    0.00000000
     atom    9 type  4   force =     0.00000000    0.00000000    0.00000000
     atom   10 type  4   force =     0.00000000    0.00000000    0.00000000
     atom   11 type  4   force =     0.00000000    0.00000000    0.00000000
     atom   12 type  4   force =     0.00000000    0.00000000    0.00000000
     atom   13 type  4   force =     0.00000000    0.00000000    0.00000000
     atom   14 type  4   force =     0.00000000    0.00000000    0.00000000
     The SCF correction term to forces
     atom    1 type  1   force =    -0.00001191   -0.00000246   -0.00009112
     atom    2 type  2   force =     0.00054715    0.00033608    0.00066446
     atom    3 type  2   force =     0.00026506    0.00013849    0.00078931
     atom    4 type  2   force =     0.00044945    0.00040655   -0.00046211
     atom    5 type  2   force =    -0.00059607   -0.00008516    0.00034332
     atom    6 type  3   force =    -0.00040918   -0.00102061   -0.00040110
     atom    7 type  4   force =    -0.00023611   -0.00016098    0.00004696
     atom    8 type  4   force =    -0.00006198    0.00003308   -0.00013916
     atom    9 type  4   force =    -0.00006276   -0.00027281   -0.00005545
     atom   10 type  4   force =     0.00026509   -0.00012679    0.00013096
     atom   11 type  4   force =     0.00030498    0.00013621   -0.00001073
     atom   12 type  4   force =     0.00007901    0.00012564    0.00015211
     atom   13 type  4   force =     0.00010996    0.00026869    0.00021834
     atom   14 type  4   force =    -0.00031839    0.00008326   -0.00008922

     Total force =     0.144080     Total SCF correction =     0.002169

     Computing stress (Cartesian axis) and pressure

     negative rho (up, down):  1.846E-03 0.000E+00
          total   stress  (Ry/bohr**3)                   (kbar)     P=     -166.63
  -0.00113276   0.00000000   0.00000000         -166.63        0.00        0.00
   0.00000000  -0.00113276   0.00000000            0.00     -166.63        0.00
   0.00000000   0.00000000  -0.00113277            0.00        0.00     -166.64

     kinetic stress (kbar)  15271.80     -0.00     -0.00
                               -0.00  15271.80     -0.00
                               -0.00     -0.00  15271.80

     local   stress (kbar) -12462.75     -0.14     -0.08
                               -0.14 -12462.30     -0.16
                               -0.08     -0.16 -12462.27

     nonloc. stress (kbar)   7551.55      0.00      0.00
                                0.00   7551.55     -0.00
                                0.00     -0.00   7551.56

     hartree stress (kbar)  14653.73      0.11      0.07
                                0.11  14653.34      0.14
                                0.07      0.14  14653.28

     exc-cor stress (kbar)  -1069.50      0.00     -0.00
                                0.00  -1069.50      0.00
                               -0.00      0.00  -1069.50

     corecor stress (kbar)  -3752.08     -0.00      0.00
                               -0.00  -3752.08      0.00
                                0.00      0.00  -3752.08

     ewald   stress (kbar) -20359.40      0.02      0.01
                                0.02 -20359.42      0.01
                                0.01      0.01 -20359.42

     hubbard stress (kbar)      0.00      0.00      0.00
                                0.00      0.00      0.00
                                0.00      0.00      0.00

     DFT-D   stress (kbar)      0.00      0.00      0.00
                                0.00      0.00      0.00
                                0.00      0.00      0.00

     XDM     stress (kbar)      0.00      0.00      0.00
                                0.00      0.00      0.00
                                0.00      0.00      0.00

     dft-nl  stress (kbar)      0.00      0.00      0.00
                                0.00      0.00      0.00
                                0.00      0.00      0.00

     TS-vdW  stress (kbar)      0.00      0.00      0.00
                                0.00      0.00      0.00
                                0.00      0.00      0.00

[...]

                                0.00      0.00      0.00

     Writing all to output data dir new_calculations/myprefix.save/

     General routines

     Parallel routines

     PAW routines

   This run was terminated on:   9:12:31  20May2023

   JOB DONE.