     Program PWSCF v.7.0 starts on 20May2023 at 19:12:32

     Reading input from espresso_8748.pwi
Warning: card &CELL ignored
Warning: card / ignored

     Current dimensions of program PWSCF are:
     Max number of different atomic species (ntypx) = 10
     Max number of k-points (npk) =  40000
     Max angular momentum in pseudopotentials (lmaxx) =  4
     file Pb.pbe-dn-kjpaw_psl.0.2.2.UPF: wavefunction(s)  6S renormalized

     gamma-point specific algorithms are used
     Message from routine setup:
     using ibrav=0 with symmetry is DISCOURAGED, use correct ibrav instead

     Subspace diagonalization in iterative solution of the eigenvalue problem:
     a serial algorithm will be used

     Using Slab Decomposition

     bravais-lattice index     =            0
     lattice parameter (alat)  =      10.8740  a.u.
     unit-cell volume          =    2353.9624 (a.u.)^3
     number of atoms/cell      =           16
     number of atomic types    =            3
     number of electrons       =       260.00
     number of Kohn-Sham states=          156
     kinetic-energy cutoff     =      30.0000  Ry
     charge density cutoff     =     240.0000  Ry
     scf convergence threshold =      1.0E-06
     mixing beta               =       0.7000
     number of iterations used =            8  plain     mixing
     Exchange-correlation= SLA  PW   PBX  PBC
                           (   1   4   3   4   0   0   0)

     celldm(1)=  10.874030  celldm(2)=   0.000000  celldm(3)=   0.000000
     celldm(4)=   0.000000  celldm(5)=   0.000000  celldm(6)=   0.000000

     crystal axes: (cart. coord. in units of alat)
               a(1) = (   1.000000   0.000000   0.000000 )
               a(2) = (  -0.191100   0.981571   0.000000 )
               a(3) = (   0.000000   0.000000   1.865118 )

     reciprocal axes: (cart. coord. in units 2 pi/alat)
               b(1) = (  1.000000  0.194688  0.000000 )
               b(2) = (  0.000000  1.018776  0.000000 )
               b(3) = (  0.000000  0.000000  0.536159 )

     PseudoPot. # 1 for Bi read from file:
     /home/pragov/projects/rrg-bengioy-ad/pragov/crystal_structure_design/SSSP/Bi_pbe_v1.uspp.F.UPF
     MD5 check sum: cceb9f28ec65b6d7ff33140f5b0b1758
     Pseudo is Ultrasoft + core correction, Zval = 15.0
     Generated by new atomic code, or converted to UPF format
     Using radial grid of  899 points,  6 beta functions with:
                l(1) =   0
                l(2) =   0
                l(3) =   1
                l(4) =   1
                l(5) =   2
                l(6) =   2
     Q(r) pseudized with  6 coefficients,  rinner =    1.000   1.000   1.000
                                                       1.000   1.000

     PseudoPot. # 2 for Pd read from file:
     /home/pragov/projects/rrg-bengioy-ad/pragov/crystal_structure_design/SSSP/Pd_ONCV_PBE-1.0.oncvpsp.upf
     MD5 check sum: eb77f42b51d86fb18e25f68156a31cf1
     Pseudo is Norm-conserving, Zval = 18.0
     Generated using ONCVPSP code by D. R. Hamann
     Using radial grid of 1410 points,  6 beta functions with:
                l(1) =   0
                l(2) =   0
                l(3) =   1
                l(4) =   1
                l(5) =   2
                l(6) =   2

     PseudoPot. # 3 for Pb read from file:
     /home/pragov/projects/rrg-bengioy-ad/pragov/crystal_structure_design/SSSP/Pb.pbe-dn-kjpaw_psl.0.2.2.UPF
     MD5 check sum: 9d431e6316058b74ade52399a6cf67da
     Pseudo is Projector augmented-wave + core cor, Zval = 14.0
     Generated using "atomic" code by A. Dal Corso  v.5.0.99 svn rev. 10869
     Shape of augmentation charge: PSQ
     Using radial grid of 1281 points,  6 beta functions with:
                l(1) =   0
                l(2) =   0
                l(3) =   1
                l(4) =   1
                l(5) =   2
                l(6) =   2
     Q(r) pseudized with 0 coefficients

     atomic species   valence    mass     pseudopotential
        Bi            15.00   208.98040     Bi( 1.00)
        Pd            18.00   106.42000     Pd( 1.00)
        Pb            14.00   207.20000     Pb( 1.00)

      2 Sym. Ops. (no inversion) found ( 1 have fractional translation)

                                    s                        frac. trans.

      isym =  1     identity

 cryst.   s( 1) = (     1          0          0      )
                  (     0          1          0      )
                  (     0          0          1      )

 cart.    s( 1) = (  1.0000000  0.0000000  0.0000000 )
                  (  0.0000000  1.0000000  0.0000000 )
                  (  0.0000000  0.0000000  1.0000000 )

      isym =  2     180 deg rotation - cart. axis [0,0,1]

 cryst.   s( 2) = (    -1          0          0      )    f =( -0.0000000 )
                  (     0         -1          0      )       ( -0.0000000 )
                  (     0          0          1      )       ( -0.5000000 )

 cart.    s( 2) = ( -1.0000000 -0.0000000  0.0000000 )    f =( -0.0000000 )
                  (  0.0000000 -1.0000000  0.0000000 )       ( -0.0000000 )
                  (  0.0000000  0.0000000  1.0000000 )       ( -0.9325592 )

   Cartesian axes

     site n.     atom                  positions (alat units)
         1           Bi  tau(   1) = (   0.2341160   0.8324434   0.5349626  )
         2           Bi  tau(   2) = (   0.5747837   0.1491271   1.4675217  )
         3           Bi  tau(   3) = (   0.7723623   0.3888815   0.5349626  )
         4           Bi  tau(   4) = (   0.0365374   0.5926890   1.4675217  )
         5           Pd  tau(   5) = (   0.2100441   0.8499321   1.0545323  )
         6           Pd  tau(   6) = (   0.7418840   0.9002494   0.4323065  )
         7           Pd  tau(   7) = (   0.5988555   0.1316384   0.1219731  )
         8           Pd  tau(   8) = (   0.5444413   0.6606598   1.3751387  )
         9           Pd  tau(   9) = (   0.2644584   0.3209107   0.4425795  )
        10           Pd  tau(  10) = (   0.0147709   0.6129751   0.1219731  )
        11           Pd  tau(  11) = (   0.0670157   0.0813212   1.3648656  )
        12           Pd  tau(  12) = (   0.7941288   0.3685954   1.0545323  )
        13           Pb  tau(  13) = (   0.0989543   0.1200775   0.0011172  )
        14           Pb  tau(  14) = (   0.2939509   0.3566988   0.9509865  )
        15           Pb  tau(  15) = (   0.5149488   0.6248717   0.0184274  )
        16           Pb  tau(  16) = (   0.7099454   0.8614930   0.9336764  )

   Crystallographic axes

     site n.     atom                  positions (cryst. coord.)
         1           Bi  tau(   1) = (  0.3961830  0.8480730  0.2868250  )
         2           Bi  tau(   2) = (  0.6038170  0.1519270  0.7868250  )
         3           Bi  tau(   3) = (  0.8480730  0.3961830  0.2868250  )
         4           Bi  tau(   4) = (  0.1519270  0.6038170  0.7868250  )
         5           Pd  tau(   5) = (  0.3755160  0.8658900  0.5653970  )
         6           Pd  tau(   6) = (  0.9171520  0.9171520  0.2317850  )
         7           Pd  tau(   7) = (  0.6244840  0.1341100  0.0653970  )
         8           Pd  tau(   8) = (  0.6730640  0.6730640  0.7372930  )
         9           Pd  tau(   9) = (  0.3269360  0.3269360  0.2372930  )
        10           Pd  tau(  10) = (  0.1341100  0.6244840  0.0653970  )
        11           Pd  tau(  11) = (  0.0828480  0.0828480  0.7317850  )
        12           Pd  tau(  12) = (  0.8658900  0.3755160  0.5653970  )
        13           Pb  tau(  13) = (  0.1223320  0.1223320  0.0005990  )
        14           Pb  tau(  14) = (  0.3633960  0.3633960  0.5098800  )
        15           Pb  tau(  15) = (  0.6366040  0.6366040  0.0098800  )
        16           Pb  tau(  16) = (  0.8776680  0.8776680  0.5005990  )

     number of k points=     1  Methfessel-Paxton smearing, width (Ry)=  0.0010
                       cart. coord. in units 2pi/alat
        k(    1) = (   0.0000000   0.0000000   0.0000000), wk =   2.0000000

                       cryst. coord.
        k(    1) = (   0.0000000   0.0000000   0.0000000), wk =   2.0000000

     Check: negative core charge=   -0.000003

     Initial potential from superposition of free atoms

     starting charge     255.9876, renormalised to     260.0000

     negative rho (up, down):  1.701E-01 0.000E+00
     Starting wfcs are  152 randomized atomic wfcs +    4 random wfcs
     Checking if some PAW data can be deallocated...

     Self-consistent Calculation

     iteration #  1     ecut=    30.00 Ry     beta= 0.70
     Davidson diagonalization with overlap

     ethr =  1.00E-02,  avg # of iterations =  6.0

     Threshold (ethr) on eigenvalues was too large:
     Diagonalizing with lowered threshold

     Davidson diagonalization with overlap

[...]

     negative rho (up, down):  1.705E-01 0.000E+00

     total energy              =   -6246.50990498 Ry
     estimated scf accuracy    <       1.77250941 Ry

[...]

     total energy              =   -6247.19853827 Ry
     estimated scf accuracy    <       0.00000391 Ry

     iteration # 23     ecut=    30.00 Ry     beta= 0.70
     Davidson diagonalization with overlap

     ethr =  4.29E-10,  avg # of iterations =  1.0

[...]

     End of self-consistent calculation

          k = 0.0000 0.0000 0.0000 (  3281 PWs)   bands (ev):

   -70.1962 -70.1956 -70.1672 -70.1668 -70.1667 -70.1665 -70.0359 -70.0353
   -35.7944 -35.7934 -35.7900 -35.7897 -35.7548 -35.7534 -35.6518 -35.6509
   -35.6103 -35.6088 -35.5949 -35.5943 -35.5590 -35.5581 -35.4908 -35.4887
   -35.4356 -35.4351 -35.3911 -35.3904 -35.3820 -35.3805 -35.3017 -35.3005
    -7.9478  -7.9472  -7.9228  -7.9227  -7.9004  -7.8995  -7.8898  -7.8894
    -7.8864  -7.8861  -7.8661  -7.8641  -7.8640  -7.8639  -7.8563  -7.8558
    -7.8548  -7.8541  -7.8159  -7.8158  -1.8125  -1.8080  -1.8041  -1.8039
    -1.7877  -1.7846  -1.7668  -1.7639  -1.7562  -1.7552  -1.7372  -1.7353
    -1.7140  -1.7120  -1.6820  -1.6801  -1.6761  -1.6760  -1.5710  -1.5708
     2.7500   3.2344   4.5363   4.5488   5.2566   6.0901   6.8582   6.8888
    10.4458  10.4770  10.5849  10.7022  10.8496  11.0140  11.4131  11.4716
    11.5753  11.6080  11.6252  11.6350  11.7253  11.8299  11.9881  12.0387
    12.0439  12.0591  12.1326  12.1504  12.2395  12.2541  12.2866  12.3052
    12.3855  12.4443  12.5832  12.6209  12.6225  12.6486  12.8157  12.9345
    12.9733  13.0323  13.0636  13.1434  13.2740  13.2787  13.2887  13.3621
    13.3958  13.5228  13.5393  13.5883  13.6748  13.6788  13.9677  14.0059
    14.0596  14.0944  14.1515  14.8929  15.9202  16.1926  16.3316  16.4636
    16.5359  16.5420  16.7081  17.0573  17.8936  18.0308  18.6875  18.7298
    18.7720  18.9077  19.1712  19.1838  19.4422  19.8147  20.1876  20.9944
    21.5709  21.6984  23.1882  23.4624

     occupation numbers
     1.0000   1.0000   1.0000   1.0000   1.0000   1.0000   1.0000   1.0000
     1.0000   1.0000   1.0000   1.0000   1.0000   1.0000   1.0000   1.0000
     1.0000   1.0000   1.0000   1.0000   1.0000   1.0000   1.0000   1.0000
     1.0000   1.0000   1.0000   1.0000   1.0000   1.0000   1.0000   1.0000
     1.0000   1.0000   1.0000   1.0000   1.0000   1.0000   1.0000   1.0000
     1.0000   1.0000   1.0000   1.0000   1.0000   1.0000   1.0000   1.0000
     1.0000   1.0000   1.0000   1.0000   1.0000   1.0000   1.0000   1.0000
     1.0000   1.0000   1.0000   1.0000   1.0000   1.0000   1.0000   1.0000
     1.0000   1.0000   1.0000   1.0000   1.0000   1.0000   1.0000   1.0000
     1.0000   1.0000   1.0000   1.0000   1.0000   1.0000   1.0000   1.0000
     1.0000   1.0000   1.0000   1.0000   1.0000   1.0000   1.0000   1.0000
     1.0000   1.0000   1.0000   1.0000   1.0000   1.0000   1.0000   1.0000
     1.0000   1.0000   1.0000   1.0000   1.0000   1.0000   1.0000   1.0000
     1.0000   1.0000   1.0000   1.0000   1.0000   1.0000   1.0000   1.0000
     1.0000   1.0000   1.0000   1.0000   1.0000   1.0000   1.0000   1.0000
     1.0000   1.0000   1.0000   1.0000   1.0000   1.0000   1.0000   1.0000
     1.0000   1.0057  -0.0057  -0.0000  -0.0000  -0.0000  -0.0000  -0.0000
    -0.0000  -0.0000  -0.0000  -0.0000  -0.0000  -0.0000  -0.0000  -0.0000
    -0.0000  -0.0000  -0.0000  -0.0000  -0.0000  -0.0000  -0.0000  -0.0000
    -0.0000  -0.0000  -0.0000  -0.0000

     the Fermi energy is    14.1230 ev

!    total energy              =   -6247.19853813 Ry
     estimated scf accuracy    <       0.00000044 Ry
     smearing contrib. (-TS)   =       0.00005382 Ry
     internal energy E=F+TS    =   -6247.19859195 Ry

     The total energy is F=E-TS. E is the sum of the following terms:
     one-electron contribution =   -1170.50113171 Ry
     hartree contribution      =     752.27442662 Ry
     xc contribution           =    -634.93941503 Ry
     ewald contribution        =   -2280.08353123 Ry
     one-center paw contrib.   =   -2913.94894059 Ry
      -> PAW hartree energy AE =     397.26902279 Ry
      -> PAW hartree energy PS =    -396.49655647 Ry
      -> PAW xc energy AE      =   -3089.99076131 Ry
      -> PAW xc energy PS      =     175.26935440 Ry
      -> total E_H with PAW    =     753.04689294 Ry
      -> total E_XC with PAW   =   -3549.66082195 Ry

     convergence has been achieved in  23 iterations

     negative rho (up, down):  1.744E-01 0.000E+00

     Forces acting on atoms (cartesian axes, Ry/au):

     atom    1 type  1   force =     0.00544705    0.00306482   -0.03074842
     atom    2 type  1   force =    -0.00544705   -0.00306482   -0.03074842
     atom    3 type  1   force =     0.00205002    0.00596877   -0.03053062
     atom    4 type  1   force =    -0.00205002   -0.00596877   -0.03053062
     atom    5 type  2   force =     0.00709093   -0.00240407    0.07700989
     atom    6 type  2   force =     0.03072331    0.03726813   -0.03574046
     atom    7 type  2   force =    -0.00709093    0.00240407    0.07700989
     atom    8 type  2   force =     0.03011544    0.03651377   -0.03152795
     atom    9 type  2   force =    -0.03011544   -0.03651377   -0.03152795
     atom   10 type  2   force =     0.00372678   -0.00650093    0.07698592
     atom   11 type  2   force =    -0.03072331   -0.03726813   -0.03574046
     atom   12 type  2   force =    -0.00372678    0.00650093    0.07698592
     atom   13 type  3   force =     0.00352868    0.00426881   -0.01680121
     atom   14 type  3   force =    -0.00125586   -0.00154062   -0.00864716
     atom   15 type  3   force =     0.00125586    0.00154062   -0.00864716
     atom   16 type  3   force =    -0.00352868   -0.00426881   -0.01680121
     The non-local contrib.  to forces
     atom    1 type  1   force =    -0.12071084    0.12461849   -0.18466061
     atom    2 type  1   force =     0.12071084   -0.12461849   -0.18466061
     atom    3 type  1   force =     0.14539480   -0.09474588   -0.18428470
     atom    4 type  1   force =    -0.14539480    0.09474588   -0.18428470
     atom    5 type  2   force =    -0.01772372    0.01088699   -0.33197708
     atom    6 type  2   force =    -0.04891923   -0.05936977    0.21484727
     atom    7 type  2   force =     0.01772372   -0.01088699   -0.33197708
     atom    8 type  2   force =    -0.07791125   -0.09451629    0.28354991
     atom    9 type  2   force =     0.07791125    0.09451629    0.28354991
     atom   10 type  2   force =    -0.01413752    0.01528047   -0.33189203
     atom   11 type  2   force =     0.04891923    0.05936977    0.21484727
     atom   12 type  2   force =     0.01413752   -0.01528047   -0.33189203
     atom   13 type  3   force =    -0.01310429   -0.01600073    0.20203448
     atom   14 type  3   force =    -0.00379790   -0.00474526    0.14688070
     atom   15 type  3   force =     0.00379790    0.00474526    0.14688070
     atom   16 type  3   force =     0.01310429    0.01600073    0.20203448
     The ionic contribution  to forces
     atom    1 type  1   force =     3.67367451   -2.80961794    9.96805513
     atom    2 type  1   force =    -3.67367451    2.80961793    9.96805512
     atom    3 type  1   force =    -3.45987850    3.06905166    9.96805513
     atom    4 type  1   force =     3.45987850   -3.06905166    9.96805512
     atom    5 type  2   force =     0.49446808   -0.51470443  -11.91065194
     atom    6 type  2   force =    -3.60429222   -4.37367830   10.15686578
     atom    7 type  2   force =    -0.49446808    0.51470443  -11.91065194
     atom    8 type  2   force =    -3.61843826   -4.39084401   10.66183468
     atom    9 type  2   force =     3.61843826    4.39084401   10.66183468
     atom   10 type  2   force =     0.59971170   -0.38699510  -11.91065194
     atom   11 type  2   force =     3.60429222    4.37367830   10.15686578
     atom   12 type  2   force =    -0.59971170    0.38699510  -11.91065194
     atom   13 type  3   force =     0.73486097    0.89172722  -10.68611272
     atom   14 type  3   force =     0.95005029    1.15285168   -6.24739410
     atom   15 type  3   force =    -0.95005029   -1.15285169   -6.24739411
     atom   16 type  3   force =    -0.73486097   -0.89172722  -10.68611272
     The local contribution  to forces
     atom    1 type  1   force =    -3.55389358    2.69506114   -9.82355094
     atom    2 type  1   force =     3.55383020   -2.69499158   -9.82449507
     atom    3 type  1   force =     3.32439456   -2.97335784   -9.82412415
     atom    4 type  1   force =    -3.32427078    2.97342194   -9.82483758
     atom    5 type  2   force =    -0.46965714    0.50169188   12.31938824
     atom    6 type  2   force =     3.68362881    4.47017520  -10.40667991
     atom    7 type  2   force =     0.46990852   -0.50220044   12.31982153
     atom    8 type  2   force =     3.72625843    4.52259578  -10.97727124
     atom    9 type  2   force =    -3.72659379   -4.52260527  -10.97619790
     atom   10 type  2   force =    -0.58210360    0.36594862   12.31972653
     atom   11 type  2   force =    -3.68376922   -4.47076594  -10.40773223
     atom   12 type  2   force =     0.58189245   -0.36549574   12.31915450
     atom   13 type  3   force =    -0.71895346   -0.87236485   10.47906859
     atom   14 type  3   force =    -0.94721088   -1.14933227    6.10297845
     atom   15 type  3   force =     0.94728979    1.14936713    6.10288005
     atom   16 type  3   force =     0.71885839    0.87222937   10.47878085
     The core correction contribution to forces
     atom    1 type  1   force =     0.00636023   -0.00668270    0.01014578
     atom    2 type  1   force =    -0.00636366    0.00668926    0.01014045
     atom    3 type  1   force =    -0.00776925    0.00497615    0.01012771
     atom    4 type  1   force =     0.00777029   -0.00498379    0.01012973
     atom    5 type  2   force =     0.00000000    0.00000000    0.00000000
     atom    6 type  2   force =     0.00000000    0.00000000    0.00000000
     atom    7 type  2   force =     0.00000000    0.00000000    0.00000000
     atom    8 type  2   force =     0.00000000    0.00000000    0.00000000
     atom    9 type  2   force =     0.00000000    0.00000000    0.00000000
     atom   10 type  2   force =     0.00000000    0.00000000    0.00000000
     atom   11 type  2   force =     0.00000000    0.00000000    0.00000000
     atom   12 type  2   force =     0.00000000    0.00000000    0.00000000
     atom   13 type  3   force =     0.00055612    0.00068493   -0.01196335
     atom   14 type  3   force =    -0.00038913   -0.00046380   -0.01114128
     atom   15 type  3   force =     0.00038836    0.00045652   -0.01114361
     atom   16 type  3   force =    -0.00055561   -0.00068144   -0.01196567
     The Hubbard contrib.    to forces
     atom    1 type  1   force =     0.00000000    0.00000000    0.00000000
     atom    2 type  1   force =     0.00000000    0.00000000    0.00000000
     atom    3 type  1   force =     0.00000000    0.00000000    0.00000000
     atom    4 type  1   force =     0.00000000    0.00000000    0.00000000
     atom    5 type  2   force =     0.00000000    0.00000000    0.00000000
     atom    6 type  2   force =     0.00000000    0.00000000    0.00000000
     atom    7 type  2   force =     0.00000000    0.00000000    0.00000000
     atom    8 type  2   force =     0.00000000    0.00000000    0.00000000
     atom    9 type  2   force =     0.00000000    0.00000000    0.00000000
     atom   10 type  2   force =     0.00000000    0.00000000    0.00000000
     atom   11 type  2   force =     0.00000000    0.00000000    0.00000000
     atom   12 type  2   force =     0.00000000    0.00000000    0.00000000
     atom   13 type  3   force =     0.00000000    0.00000000    0.00000000
     atom   14 type  3   force =     0.00000000    0.00000000    0.00000000
     atom   15 type  3   force =     0.00000000    0.00000000    0.00000000
     atom   16 type  3   force =     0.00000000    0.00000000    0.00000000
     The SCF correction term to forces
     atom    1 type  1   force =    -0.00000207   -0.00028402   -0.00071505
     atom    2 type  1   force =     0.00003127    0.00026822    0.00015612
     atom    3 type  1   force =    -0.00008721    0.00000637   -0.00032374
     atom    4 type  1   force =    -0.00002885   -0.00013946    0.00039309
     atom    5 type  2   force =    -0.00001969   -0.00028490    0.00026475
     atom    6 type  2   force =     0.00028594    0.00011864   -0.00081165
     atom    7 type  2   force =    -0.00027848    0.00078069   -0.00022953
     atom    8 type  2   force =     0.00020833   -0.00070629    0.00035239
     atom    9 type  2   force =     0.00013064    0.00074660   -0.00074118
     atom   10 type  2   force =     0.00027724   -0.00074354   -0.00019998
     atom   11 type  2   force =    -0.00018555    0.00042737    0.00028391
     atom   12 type  2   force =    -0.00002402    0.00027340    0.00034588
     atom   13 type  3   force =     0.00017302    0.00024269    0.00015923
     atom   14 type  3   force =     0.00008662    0.00010808    0.00002036
     atom   15 type  3   force =    -0.00017502   -0.00021755    0.00010568
     atom   16 type  3   force =    -0.00007110   -0.00006980    0.00044157

     Total force =     0.205729     Total SCF correction =     0.002450

     Computing stress (Cartesian axis) and pressure

     negative rho (up, down):  1.744E-01 0.000E+00
          total   stress  (Ry/bohr**3)                   (kbar)     P=     -591.87
  -0.00372966  -0.00009403   0.00000000         -548.65      -13.83        0.00
  -0.00009403  -0.00376612   0.00000000          -13.83     -554.02        0.00
   0.00000000   0.00000000  -0.00457448            0.00        0.00     -672.93

     kinetic stress (kbar)  36138.33    190.63      0.00
                              190.63  36212.54      0.00
                                0.00      0.00  35625.25

     local   stress (kbar) -11448.45   4190.07      0.01
                             4190.07  -9816.74      0.01
                                0.01      0.01  -1113.82

     nonloc. stress (kbar)  11109.87    -45.13      0.00
                              -45.13  11092.28      0.00
                                0.00      0.00  11080.51

     hartree stress (kbar)  17481.36  -1700.76     -0.00
                            -1700.76  16818.98     -0.01
                               -0.00     -0.01  12711.20

     exc-cor stress (kbar)  10711.28     -0.72     -0.00
                               -0.72  10711.00      0.00
                               -0.00      0.00  10709.74

     corecor stress (kbar) -19104.81      0.62      0.00
                                0.62 -19104.57     -0.00
                                0.00     -0.00 -19101.33

     ewald   stress (kbar) -45436.23  -2648.54     -0.00
                            -2648.54 -46467.50      0.00
                               -0.00      0.00 -50584.47

     hubbard stress (kbar)      0.00      0.00      0.00
                                0.00      0.00      0.00
                                0.00      0.00      0.00

     DFT-D   stress (kbar)      0.00      0.00      0.00
                                0.00      0.00      0.00
                                0.00      0.00      0.00

     XDM     stress (kbar)      0.00      0.00      0.00
                                0.00      0.00      0.00
                                0.00      0.00      0.00

     dft-nl  stress (kbar)      0.00      0.00      0.00
                                0.00      0.00      0.00
                                0.00      0.00      0.00

     TS-vdW  stress (kbar)      0.00      0.00      0.00
                                0.00      0.00      0.00
                                0.00      0.00      0.00

[...]

                                0.00      0.00      0.00

     Writing all to output data dir new_calculations/myprefix.save/

     General routines

     Parallel routines

     PAW routines

   This run was terminated on:  19:13:34  20May2023

   JOB DONE.