     Program PWSCF v.7.0 starts on 21May2023 at 18:23:54

     Reading input from espresso_26961.pwi
Warning: card &CELL ignored
Warning: card / ignored

     Current dimensions of program PWSCF are:
     Max number of different atomic species (ntypx) = 10
     Max number of k-points (npk) =  40000
     Max angular momentum in pseudopotentials (lmaxx) =  4
     file Mg.pbe-n-kjpaw_psl.0.3.0.UPF: wavefunction(s)  3S renormalized

     gamma-point specific algorithms are used
     Message from routine setup:
     using ibrav=0 with symmetry is DISCOURAGED, use correct ibrav instead

     Subspace diagonalization in iterative solution of the eigenvalue problem:
     a serial algorithm will be used

     Using Slab Decomposition

     bravais-lattice index     =            0
     lattice parameter (alat)  =       8.3868  a.u.
     unit-cell volume          =    1998.5606 (a.u.)^3
     number of atoms/cell      =           12
     number of atomic types    =            3
     number of electrons       =       180.00
     number of Kohn-Sham states=          108
     kinetic-energy cutoff     =      30.0000  Ry
     charge density cutoff     =     240.0000  Ry
     scf convergence threshold =      1.0E-06
     mixing beta               =       0.7000
     number of iterations used =            8  plain     mixing
     Exchange-correlation= PBE
                           (   1   4   3   4   0   0   0)

     celldm(1)=   8.386759  celldm(2)=   0.000000  celldm(3)=   0.000000
     celldm(4)=   0.000000  celldm(5)=   0.000000  celldm(6)=   0.000000

     crystal axes: (cart. coord. in units of alat)
               a(1) = (   1.000000   0.000000   0.000000 )
               a(2) = (   0.000000   1.702219   0.000000 )
               a(3) = (   0.000000   0.000000   1.990304 )

     reciprocal axes: (cart. coord. in units 2 pi/alat)
               b(1) = (  1.000000  0.000000  0.000000 )
               b(2) = (  0.000000  0.587469  0.000000 )
               b(3) = (  0.000000  0.000000  0.502436 )

     PseudoPot. # 1 for Yb read from file:
     /home/pragov/projects/rrg-bengioy-ad/pragov/crystal_structure_design/SSSP/Yb.GGA-PBE-paw-v1.0.UPF
     MD5 check sum: 43b6465ad8021f06e3edb42ae292e187
     Pseudo is Projector augmented-wave + core cor, Zval = 24.0
     Generated using ATOMPAW code
     Shape of augmentation charge: BESSEL
     Using radial grid of 1117 points,  8 beta functions with:
                l(1) =   0
                l(2) =   0
                l(3) =   1
                l(4) =   1
                l(5) =   2
                l(6) =   2
                l(7) =   3
                l(8) =   3
     Q(r) pseudized with 0 coefficients

     PseudoPot. # 2 for Mg read from file:
     /home/pragov/projects/rrg-bengioy-ad/pragov/crystal_structure_design/SSSP/Mg.pbe-n-kjpaw_psl.0.3.0.UPF
     MD5 check sum: 24ecedc7f3e3cbe212e682f4413594e4
     Pseudo is Projector augmented-wave + core cor, Zval =  2.0
     Generated using "atomic" code by A. Dal Corso  v.5.0.99 svn rev. 10869
     Shape of augmentation charge: PSQ
     Using radial grid of 1129 points,  4 beta functions with:
                l(1) =   0
                l(2) =   0
                l(3) =   1
                l(4) =   1
     Q(r) pseudized with 0 coefficients

     PseudoPot. # 3 for Ag read from file:
     /home/pragov/projects/rrg-bengioy-ad/pragov/crystal_structure_design/SSSP/Ag_ONCV_PBE-1.0.oncvpsp.upf
     MD5 check sum: 94f47bd0669c641108e45594df92fabc
     Pseudo is Norm-conserving, Zval = 19.0
     Generated using ONCVPSP code by D. R. Hamann
     Using radial grid of 1398 points,  6 beta functions with:
                l(1) =   0
                l(2) =   0
                l(3) =   1
                l(4) =   1
                l(5) =   2
                l(6) =   2

     atomic species   valence    mass     pseudopotential
        Yb            24.00   173.05400     Yb( 1.00)
        Mg             2.00    24.30500     Mg( 1.00)
        Ag            19.00   107.86820     Ag( 1.00)

      8 Sym. Ops., with inversion, found ( 6 have fractional translation)

                                    s                        frac. trans.

      isym =  1     identity

 cryst.   s( 1) = (     1          0          0      )
                  (     0          1          0      )
                  (     0          0          1      )

 cart.    s( 1) = (  1.0000000  0.0000000  0.0000000 )
                  (  0.0000000  1.0000000  0.0000000 )
                  (  0.0000000  0.0000000  1.0000000 )

      isym =  2     180 deg rotation - cart. axis [0,0,1]

 cryst.   s( 2) = (    -1          0          0      )    f =(  0.0000000 )
                  (     0         -1          0      )       (  0.5000000 )
                  (     0          0          1      )       (  0.5000000 )

 cart.    s( 2) = ( -1.0000000  0.0000000  0.0000000 )    f =(  0.0000000 )
                  (  0.0000000 -1.0000000  0.0000000 )       (  0.8511093 )
                  (  0.0000000  0.0000000  1.0000000 )       (  0.9951520 )

[...]

      isym =  4     180 deg rotation - cart. axis [1,0,0]

[...]

      isym =  5     inversion

 cryst.   s( 5) = (    -1          0          0      )
                  (     0         -1          0      )
                  (     0          0         -1      )

 cart.    s( 5) = ( -1.0000000  0.0000000  0.0000000 )
                  (  0.0000000 -1.0000000  0.0000000 )
                  (  0.0000000  0.0000000 -1.0000000 )

      isym =  6     inv. 180 deg rotation - cart. axis [0,0,1]

[...]

      isym =  8     inv. 180 deg rotation - cart. axis [1,0,0]

 cryst.   s( 8) = (    -1          0          0      )    f =(  0.5000000 )
                  (     0          1          0      )       (  0.0000000 )
                  (     0          0          1      )       (  0.0000000 )

 cart.    s( 8) = ( -1.0000000  0.0000000  0.0000000 )    f =(  0.5000000 )
                  (  0.0000000  1.0000000  0.0000000 )       (  0.0000000 )
                  (  0.0000000  0.0000000  1.0000000 )       (  0.0000000 )

   Cartesian axes

     site n.     atom                  positions (alat units)
         1           Yb  tau(   1) = (   0.2500000   0.9089575   0.3505741  )
         2           Yb  tau(   2) = (   0.7500000   0.7932611   1.6397298  )
         3           Yb  tau(   3) = (   0.7500000   1.6443705   1.3457261  )
         4           Yb  tau(   4) = (   0.2500000   0.0578482   0.6445778  )
         5           Mg  tau(   5) = (   0.2500000   1.0867798   1.1151056  )
         6           Mg  tau(   6) = (   0.7500000   0.6154389   0.8751983  )
         7           Mg  tau(   7) = (   0.7500000   1.4665482   0.1199536  )
         8           Mg  tau(   8) = (   0.2500000   0.2356705   1.8703503  )
         9           Ag  tau(   9) = (   0.2500000   1.3018177   1.7336502  )
        10           Ag  tau(  10) = (   0.7500000   0.4004010   0.2566537  )
        11           Ag  tau(  11) = (   0.7500000   1.2515103   0.7384983  )
        12           Ag  tau(  12) = (   0.2500000   0.4507084   1.2518056  )

   Crystallographic axes

     site n.     atom                  positions (cryst. coord.)
         1           Yb  tau(   1) = (  0.2500000  0.5339840  0.1761410  )
         2           Yb  tau(   2) = (  0.7500000  0.4660160  0.8238590  )
         3           Yb  tau(   3) = (  0.7500000  0.9660160  0.6761410  )
         4           Yb  tau(   4) = (  0.2500000  0.0339840  0.3238590  )
         5           Mg  tau(   5) = (  0.2500000  0.6384490  0.5602690  )
         6           Mg  tau(   6) = (  0.7500000  0.3615510  0.4397310  )
         7           Mg  tau(   7) = (  0.7500000  0.8615510  0.0602690  )
         8           Mg  tau(   8) = (  0.2500000  0.1384490  0.9397310  )
         9           Ag  tau(   9) = (  0.2500000  0.7647770  0.8710480  )
        10           Ag  tau(  10) = (  0.7500000  0.2352230  0.1289520  )
        11           Ag  tau(  11) = (  0.7500000  0.7352230  0.3710480  )
        12           Ag  tau(  12) = (  0.2500000  0.2647770  0.6289520  )

     number of k points=     1  Methfessel-Paxton smearing, width (Ry)=  0.0010
                       cart. coord. in units 2pi/alat
        k(    1) = (   0.0000000   0.0000000   0.0000000), wk =   2.0000000

                       cryst. coord.
        k(    1) = (   0.0000000   0.0000000   0.0000000), wk =   2.0000000

     Initial potential from superposition of free atoms

     starting charge     179.9791, renormalised to     180.0000
     Starting wfcs are  184 randomized atomic wfcs
     Checking if some PAW data can be deallocated...

     Self-consistent Calculation

     iteration #  1     ecut=    30.00 Ry     beta= 0.70
     Davidson diagonalization with overlap

     ethr =  1.00E-02,  avg # of iterations =  4.0

     Threshold (ethr) on eigenvalues was too large:
     Diagonalizing with lowered threshold

     Davidson diagonalization with overlap

[...]

     total energy              =   -5325.80048792 Ry
     estimated scf accuracy    <       1.74037989 Ry

[...]

     c_bands:  1 eigenvalues not converged
     ethr =  7.27E-06,  avg # of iterations = 20.0

[...]

     total energy              =   -5327.60606145 Ry
     estimated scf accuracy    <       0.00002607 Ry

     iteration # 97     ecut=    30.00 Ry     beta= 0.70
     Davidson diagonalization with overlap

     ethr =  9.18E-09,  avg # of iterations =  1.0

     End of self-consistent calculation

          k = 0.0000 0.0000 0.0000 (  2784 PWs)   bands (ev):

   -83.2073 -83.2072 -83.2071 -83.2070 -46.3401 -46.3378 -46.3371 -46.3331
   -46.1950 -46.1941 -46.1907 -46.1900 -46.1343 -46.1341 -46.1289 -46.1283
   -40.7021 -40.7000 -40.6990 -40.6971 -13.1291 -13.1273 -13.1087 -13.0938
   -13.0605 -13.0498 -13.0205 -13.0163 -12.9614 -12.9546 -12.9296 -12.9222
     4.1707   5.1896   5.2287   5.3442   5.3850   5.4617   5.4918   5.5708
     5.5768   5.5982   5.6087   5.6167   5.6584   5.6630   5.6745   5.6785
     5.6822   5.6853   5.7180   5.7197   5.8504   6.3264   6.6268   7.3575
     7.8560   8.3426   9.2538   9.7498  10.0330  10.8988  10.9272  10.9323
    10.9366  10.9757  10.9909  10.9941  10.9981  11.0096  11.0236  11.0327
    11.0444  11.0462  11.0569  11.0633  11.0755  11.0782  11.0849  11.0863
    11.0882  11.0890  11.0934  11.0966  11.0988  11.1047  11.1244  11.1253
    11.1294  11.8549  11.8559  11.8646  11.9169  11.9271  12.0932  12.5460
    12.6715  12.9978  13.3907  13.4939  13.8575  13.9090  14.1282  14.2012
    14.8477  14.9294  15.1160  15.5130

     occupation numbers
     1.0000   1.0000   1.0000   1.0000   1.0000   1.0000   1.0000   1.0000
     1.0000   1.0000   1.0000   1.0000   1.0000   1.0000   1.0000   1.0000
     1.0000   1.0000   1.0000   1.0000   1.0000   1.0000   1.0000   1.0000
     1.0000   1.0000   1.0000   1.0000   1.0000   1.0000   1.0000   1.0000
     1.0000   1.0000   1.0000   1.0000   1.0000   1.0000   1.0000   1.0000
     1.0000   1.0000   1.0000   1.0000   1.0000   1.0000   1.0000   1.0000
     1.0000   1.0000   1.0000   1.0000   1.0000   1.0000   1.0000   1.0000
     1.0000   1.0000   1.0000   1.0000   1.0000   1.0000   1.0000   1.0000
     1.0000   1.0000   1.0000   1.0000   1.0000   1.0000   1.0000   1.0000
     1.0000   1.0000   1.0000   1.0000   1.0000   1.0000   1.0000   1.0000
     1.0000   1.0000   1.0000   1.0000   1.0000   1.0000   1.0000   1.0000
     1.0000   0.5117   0.4478   0.0405  -0.0000  -0.0000  -0.0000  -0.0000
    -0.0000  -0.0000  -0.0000  -0.0000  -0.0000  -0.0000  -0.0000  -0.0000
    -0.0000  -0.0000  -0.0000  -0.0000

     the Fermi energy is    11.8550 ev

!    total energy              =   -5327.60606103 Ry
     estimated scf accuracy    <       0.00000077 Ry
     smearing contrib. (-TS)   =      -0.00056473 Ry
     internal energy E=F+TS    =   -5327.60549630 Ry

     The total energy is F=E-TS. E is the sum of the following terms:
     one-electron contribution =   -2449.99629343 Ry
     hartree contribution      =    1147.88529356 Ry
     xc contribution           =    -266.97012964 Ry
     ewald contribution        =   -1696.62563210 Ry
     one-center paw contrib.   =   -2061.89873470 Ry
      -> PAW hartree energy AE =    1807.23524653 Ry
      -> PAW hartree energy PS =   -1553.26314452 Ry
      -> PAW xc energy AE      =   -2470.12263452 Ry
      -> PAW xc energy PS      =     154.25179781 Ry
      -> total E_H with PAW    =    1401.85739557 Ry
      -> total E_XC with PAW   =   -2582.84096635 Ry

     convergence has been achieved in  97 iterations

     Forces acting on atoms (cartesian axes, Ry/au):

     atom    1 type  1   force =     0.00000000   -0.00812034   -0.00219414
     atom    2 type  1   force =     0.00000000    0.00812034    0.00219414
     atom    3 type  1   force =     0.00000000    0.00812034   -0.00219414
     atom    4 type  1   force =     0.00000000   -0.00812034    0.00219414
     atom    5 type  2   force =     0.00000000   -0.00114468    0.01598888
     atom    6 type  2   force =     0.00000000    0.00114468   -0.01598888
     atom    7 type  2   force =    -0.00000000    0.00114468    0.01598888
     atom    8 type  2   force =    -0.00000000   -0.00114468   -0.01598888
     atom    9 type  3   force =     0.00000000   -0.00702852   -0.01090024
     atom   10 type  3   force =    -0.00000000    0.00702852    0.01090024
     atom   11 type  3   force =     0.00000000    0.00702852   -0.01090024
     atom   12 type  3   force =     0.00000000   -0.00702852    0.01090024
     The non-local contrib.  to forces
     atom    1 type  1   force =    -0.00000000   -0.03477642   -0.01438882
     atom    2 type  1   force =     0.00000000    0.03477642    0.01438882
     atom    3 type  1   force =     0.00000000    0.03477642   -0.01438882
     atom    4 type  1   force =     0.00000000   -0.03477642    0.01438882
     atom    5 type  2   force =     0.00000000    0.01734269   -0.00894823
     atom    6 type  2   force =     0.00000000   -0.01734269    0.00894823
     atom    7 type  2   force =     0.00000000   -0.01734269   -0.00894823
     atom    8 type  2   force =     0.00000000    0.01734269    0.00894823
     atom    9 type  3   force =     0.00000000    0.03541113    0.08420065
     atom   10 type  3   force =     0.00000000   -0.03541113   -0.08420065
     atom   11 type  3   force =     0.00000000   -0.03541113    0.08420065
     atom   12 type  3   force =    -0.00000000    0.03541113   -0.08420065
     The ionic contribution  to forces
     atom    1 type  1   force =    -0.00000000    1.39690872    7.15699645
     atom    2 type  1   force =    -0.00000000   -1.39690872   -7.15699645
     atom    3 type  1   force =    -0.00000000   -1.39690872    7.15699645
     atom    4 type  1   force =     0.00000000    1.39690872   -7.15699645
     atom    5 type  2   force =     0.00000000   -0.78876549   -0.37376758
     atom    6 type  2   force =    -0.00000000    0.78876549    0.37376758
     atom    7 type  2   force =    -0.00000000    0.78876549   -0.37376758
     atom    8 type  2   force =     0.00000000   -0.78876549    0.37376758
     atom    9 type  3   force =    -0.00000000   10.64592609    4.94038803
     atom   10 type  3   force =    -0.00000000  -10.64592609   -4.94038803
     atom   11 type  3   force =    -0.00000000  -10.64592609    4.94038803
     atom   12 type  3   force =    -0.00000000   10.64592609   -4.94038803
     The local contribution  to forces
     atom    1 type  1   force =    -0.00016361   -1.36952716   -7.14639945
     atom    2 type  1   force =     0.00017157    1.37103334    7.14540566
     atom    3 type  1   force =     0.00033643    1.37172822   -7.14406283
     atom    4 type  1   force =    -0.00026788   -1.37138233    7.14476505
     atom    5 type  2   force =    -0.00000402    0.77229991    0.39793128
     atom    6 type  2   force =     0.00000017   -0.77239951   -0.39773188
     atom    7 type  2   force =    -0.00000256   -0.77220799    0.39770263
     atom    8 type  2   force =    -0.00000788    0.77210164   -0.39789793
     atom    9 type  3   force =    -0.00008033  -10.68693122   -5.03468454
     atom   10 type  3   force =    -0.00012462   10.68673845    5.03459527
     atom   11 type  3   force =    -0.00014093   10.68935204   -5.03527732
     atom   12 type  3   force =    -0.00007997  -10.68948395    5.03551693
     The core correction contribution to forces
     atom    1 type  1   force =    -0.00000000    0.00000034    0.00000073
     atom    2 type  1   force =     0.00000000   -0.00000034   -0.00000073
     atom    3 type  1   force =     0.00000000   -0.00000034    0.00000073
     atom    4 type  1   force =    -0.00000000    0.00000034   -0.00000073
     atom    5 type  2   force =    -0.00000029   -0.00198962    0.00086931
     atom    6 type  2   force =    -0.00000029    0.00198734   -0.00086804
     atom    7 type  2   force =    -0.00000036    0.00198975    0.00086696
     atom    8 type  2   force =    -0.00000076   -0.00199193   -0.00086817
     atom    9 type  3   force =     0.00000000    0.00000000    0.00000000
     atom   10 type  3   force =     0.00000000    0.00000000    0.00000000
     atom   11 type  3   force =     0.00000000    0.00000000    0.00000000
     atom   12 type  3   force =     0.00000000    0.00000000    0.00000000
     The Hubbard contrib.    to forces
     atom    1 type  1   force =     0.00000000    0.00000000    0.00000000
     atom    2 type  1   force =     0.00000000    0.00000000    0.00000000
     atom    3 type  1   force =     0.00000000    0.00000000    0.00000000
     atom    4 type  1   force =     0.00000000    0.00000000    0.00000000
     atom    5 type  2   force =     0.00000000    0.00000000    0.00000000
     atom    6 type  2   force =     0.00000000    0.00000000    0.00000000
     atom    7 type  2   force =     0.00000000    0.00000000    0.00000000
     atom    8 type  2   force =     0.00000000    0.00000000    0.00000000
     atom    9 type  3   force =     0.00000000    0.00000000    0.00000000
     atom   10 type  3   force =     0.00000000    0.00000000    0.00000000
     atom   11 type  3   force =     0.00000000    0.00000000    0.00000000
     atom   12 type  3   force =     0.00000000    0.00000000    0.00000000
     The SCF correction term to forces
     atom    1 type  1   force =     0.00018844   -0.00089612    0.00161747
     atom    2 type  1   force =    -0.00018214   -0.00104950   -0.00065662
     atom    3 type  1   force =    -0.00035313   -0.00129008   -0.00071569
     atom    4 type  1   force =     0.00026732    0.00121566    0.00013540
     atom    5 type  2   force =     0.00000059   -0.00003871   -0.00006507
     atom    6 type  2   force =    -0.00000167    0.00009220   -0.00009454
     atom    7 type  2   force =    -0.00000111   -0.00006512    0.00010438
     atom    8 type  2   force =     0.00000153    0.00012787    0.00005127
     atom    9 type  3   force =     0.00006587   -0.00160248   -0.00083643
     atom   10 type  3   force =     0.00011927    0.00173832    0.00089225
     atom   11 type  3   force =     0.00013343   -0.00110456   -0.00018680
     atom   12 type  3   force =     0.00006861    0.00127895   -0.00003387

     Total force =     0.044539     Total SCF correction =     0.004355

     Computing stress (Cartesian axis) and pressure

          total   stress  (Ry/bohr**3)                   (kbar)     P=     -416.67
  -0.00355749   0.00000000   0.00000000         -523.32        0.00        0.00
   0.00000000  -0.00219890   0.00000000            0.00     -323.47        0.00
   0.00000000   0.00000000  -0.00274092            0.00        0.00     -403.20

     kinetic stress (kbar)  22466.31      0.00      0.00
                                0.00  22878.75      0.00
                                0.00      0.00  22688.86

     local   stress (kbar) -19133.03     -0.00      0.00
                               -0.00 -10116.25     -0.02
                                0.00     -0.02    978.81

     nonloc. stress (kbar)   6038.42      0.00      0.00
                                0.00   5918.49      0.00
                                0.00      0.00   5939.13

     hartree stress (kbar)  32743.07      0.00     -0.00
                                0.00  28426.50      0.00
                               -0.00      0.00  23321.11

     exc-cor stress (kbar)  -5955.51     -0.00     -0.00
                               -0.00  -5956.98      0.00
                               -0.00      0.00  -5958.29

     corecor stress (kbar)   -217.03     -0.00      0.00
                               -0.00   -215.44      0.00
                                0.00      0.00   -215.90

     ewald   stress (kbar) -36465.54      0.00     -0.00
                                0.00 -41258.55      0.00
                               -0.00      0.00 -47156.91

     hubbard stress (kbar)      0.00      0.00      0.00
                                0.00      0.00      0.00
                                0.00      0.00      0.00

     DFT-D   stress (kbar)      0.00      0.00      0.00
                                0.00      0.00      0.00
                                0.00      0.00      0.00

     XDM     stress (kbar)      0.00      0.00      0.00
                                0.00      0.00      0.00
                                0.00      0.00      0.00

     dft-nl  stress (kbar)      0.00      0.00      0.00
                                0.00      0.00      0.00
                                0.00      0.00      0.00

     TS-vdW  stress (kbar)      0.00      0.00      0.00
                                0.00      0.00      0.00
                                0.00      0.00      0.00

[...]

                                0.00      0.00      0.00

     Writing all to output data dir new_calculations/myprefix.save/

     General routines

     Parallel routines

     PAW routines

   This run was terminated on:  18:28:29  21May2023

   JOB DONE.