     Program PWSCF v.7.0 starts on 20May2023 at 17:45:55

     Reading input from espresso_8682.pwi
Warning: card &CELL ignored
Warning: card / ignored

     Current dimensions of program PWSCF are:
     Max number of different atomic species (ntypx) = 10
     Max number of k-points (npk) =  40000
     Max angular momentum in pseudopotentials (lmaxx) =  4
     file Mg.pbe-n-kjpaw_psl.0.3.0.UPF: wavefunction(s)  3S renormalized

     gamma-point specific algorithms are used
     Found identity + ( -0.5000  0.5000  0.0000) symmetry
     This is a supercell, fractional translations are disabled
     Message from routine setup:
     using ibrav=0 with symmetry is DISCOURAGED, use correct ibrav instead

     Subspace diagonalization in iterative solution of the eigenvalue problem:
     a serial algorithm will be used

     Using Slab Decomposition

     bravais-lattice index     =            0
     lattice parameter (alat)  =      24.1962  a.u.
     unit-cell volume          =    2369.3393 (a.u.)^3
     number of atoms/cell      =           12
     number of atomic types    =            2
     number of electrons       =        96.00
     number of Kohn-Sham states=           58
     kinetic-energy cutoff     =      30.0000  Ry
     charge density cutoff     =     240.0000  Ry
     scf convergence threshold =      1.0E-06
     mixing beta               =       0.7000
     number of iterations used =            8  plain     mixing
     Exchange-correlation= SLA  PW   PBX  PBC
                           (   1   4   3   4   0   0   0)

     celldm(1)=  24.196227  celldm(2)=   0.000000  celldm(3)=   0.000000
     celldm(4)=   0.000000  celldm(5)=   0.000000  celldm(6)=   0.000000

     crystal axes: (cart. coord. in units of alat)
               a(1) = (   1.000000   0.000000   0.000000 )
               a(2) = (   0.000000   0.409028   0.000000 )
               a(3) = (   0.000000   0.000000   0.408913 )

     reciprocal axes: (cart. coord. in units 2 pi/alat)
               b(1) = (  1.000000  0.000000  0.000000 )
               b(2) = (  0.000000  2.444821  0.000000 )
               b(3) = (  0.000000  0.000000  2.445505 )

     PseudoPot. # 1 for Y  read from file:
     /home/pragov/projects/rrg-bengioy-ad/pragov/crystal_structure_design/SSSP/Y_pbe_v1.uspp.F.UPF
     MD5 check sum: 2cf71db95cafeb975fc457bd7f14888e
     Pseudo is Ultrasoft + core correction, Zval = 11.0
     Generated by new atomic code, or converted to UPF format
     Using radial grid of  885 points,  6 beta functions with:
                l(1) =   0
                l(2) =   0
                l(3) =   1
                l(4) =   1
                l(5) =   2
                l(6) =   2
     Q(r) pseudized with  6 coefficients,  rinner =    1.200   1.200   1.200
                                                       1.200   1.200

     PseudoPot. # 2 for Mg read from file:
     /home/pragov/projects/rrg-bengioy-ad/pragov/crystal_structure_design/SSSP/Mg.pbe-n-kjpaw_psl.0.3.0.UPF
     MD5 check sum: 24ecedc7f3e3cbe212e682f4413594e4
     Pseudo is Projector augmented-wave + core cor, Zval =  2.0
     Generated using "atomic" code by A. Dal Corso  v.5.0.99 svn rev. 10869
     Shape of augmentation charge: PSQ
     Using radial grid of 1129 points,  4 beta functions with:
                l(1) =   0
                l(2) =   0
                l(3) =   1
                l(4) =   1
     Q(r) pseudized with 0 coefficients

     atomic species   valence    mass     pseudopotential
        Y             11.00    88.90584     Y ( 1.00)
        Mg             2.00    24.30500     Mg( 1.00)

      4 Sym. Ops., with inversion, found

                                    s                        frac. trans.

      isym =  1     identity

 cryst.   s( 1) = (     1          0          0      )
                  (     0          1          0      )
                  (     0          0          1      )

 cart.    s( 1) = (  1.0000000  0.0000000  0.0000000 )
                  (  0.0000000  1.0000000  0.0000000 )
                  (  0.0000000  0.0000000  1.0000000 )

      isym =  2     180 deg rotation - cart. axis [1,0,0]

[...]

      isym =  3     inversion

[...]

      isym =  4     inv. 180 deg rotation - cart. axis [1,0,0]

 cryst.   s( 4) = (    -1          0          0      )
                  (     0          1          0      )
                  (     0          0          1      )

 cart.    s( 4) = ( -1.0000000  0.0000000  0.0000000 )
                  (  0.0000000  1.0000000  0.0000000 )
                  (  0.0000000  0.0000000  1.0000000 )

   Cartesian axes

     site n.     atom                  positions (alat units)
         1           Y   tau(   1) = (   0.1562600   0.1008597   0.3066851  )
         2           Y   tau(   2) = (   0.3437400   0.3053736   0.3066851  )
         3           Y   tau(   3) = (   0.1562600   0.3081681   0.1022284  )
         4           Y   tau(   4) = (   0.3437400   0.1036542   0.1022284  )
         5           Y   tau(   5) = (   0.6562600   0.3053736   0.3066851  )
         6           Y   tau(   6) = (   0.8437400   0.1008597   0.3066851  )
         7           Y   tau(   7) = (   0.6562600   0.1036542   0.1022284  )
         8           Y   tau(   8) = (   0.8437400   0.3081681   0.1022284  )
         9           Mg  tau(   9) = (   0.0000000   0.3029567   0.3066851  )
        10           Mg  tau(  10) = (   0.0000000   0.1060711   0.1022284  )
        11           Mg  tau(  11) = (   0.5000000   0.0984428   0.3066851  )
        12           Mg  tau(  12) = (   0.5000000   0.3105851   0.1022284  )

   Crystallographic axes

     site n.     atom                  positions (cryst. coord.)
         1           Y   tau(   1) = (  0.1562600  0.2465840  0.7500000  )
         2           Y   tau(   2) = (  0.3437400  0.7465840  0.7500000  )
         3           Y   tau(   3) = (  0.1562600  0.7534160  0.2500000  )
         4           Y   tau(   4) = (  0.3437400  0.2534160  0.2500000  )
         5           Y   tau(   5) = (  0.6562600  0.7465840  0.7500000  )
         6           Y   tau(   6) = (  0.8437400  0.2465840  0.7500000  )
         7           Y   tau(   7) = (  0.6562600  0.2534160  0.2500000  )
         8           Y   tau(   8) = (  0.8437400  0.7534160  0.2500000  )
         9           Mg  tau(   9) = (  0.0000000  0.7406750  0.7500000  )
        10           Mg  tau(  10) = (  0.0000000  0.2593250  0.2500000  )
        11           Mg  tau(  11) = (  0.5000000  0.2406750  0.7500000  )
        12           Mg  tau(  12) = (  0.5000000  0.7593250  0.2500000  )

     number of k points=     1  Methfessel-Paxton smearing, width (Ry)=  0.0010
                       cart. coord. in units 2pi/alat
        k(    1) = (   0.0000000   0.0000000   0.0000000), wk =   2.0000000

                       cryst. coord.
        k(    1) = (   0.0000000   0.0000000   0.0000000), wk =   2.0000000

     Check: negative core charge=   -0.000004

     Initial potential from superposition of free atoms

     starting charge      95.9606, renormalised to      96.0000

     negative rho (up, down):  3.512E-01 0.000E+00
     Starting wfcs are  120 randomized atomic wfcs
     Checking if some PAW data can be deallocated...

     Self-consistent Calculation

     iteration #  1     ecut=    30.00 Ry     beta= 0.70
     Davidson diagonalization with overlap

     ethr =  1.00E-02,  avg # of iterations =  2.0

     Threshold (ethr) on eigenvalues was too large:
     Diagonalizing with lowered threshold

     Davidson diagonalization with overlap

[...]

     negative rho (up, down):  3.410E-01 0.000E+00

     total energy              =    -834.85264860 Ry
     estimated scf accuracy    <       0.15076904 Ry

[...]

     total energy              =    -834.89395146 Ry
     estimated scf accuracy    <       0.00000323 Ry

     iteration # 11     ecut=    30.00 Ry     beta= 0.70
     Davidson diagonalization with overlap

     ethr =  3.37E-09,  avg # of iterations =  2.0

[...]

     End of self-consistent calculation

          k = 0.0000 0.0000 0.0000 (  3306 PWs)   bands (ev):

   -34.5372 -34.5344 -34.4889 -34.4860 -34.4842 -34.4839 -34.4815 -34.4811
   -14.8006 -14.7441 -14.6568 -14.6568 -14.6503 -14.6502 -14.6213 -14.6209
   -14.5708 -14.5704 -14.5463 -14.4867 -14.4618 -14.4617 -14.4547 -14.4546
   -14.4219 -14.4217 -14.4176 -14.4174 -14.2972 -14.2970 -14.2925 -14.2923
     2.7035   3.4917   4.2810   5.9758   6.1676   6.1680   6.8501   6.8899
     6.8900   7.0101   7.0101   7.2370   7.4238   7.4440   7.5912   7.7998
     8.0456   8.0465   8.7933   8.7964   8.9019   8.9544   8.9985   9.4250
     9.7945   9.7966

     occupation numbers
     1.0000   1.0000   1.0000   1.0000   1.0000   1.0000   1.0000   1.0000
     1.0000   1.0000   1.0000   1.0000   1.0000   1.0000   1.0000   1.0000
     1.0000   1.0000   1.0000   1.0000   1.0000   1.0000   1.0000   1.0000
     1.0000   1.0000   1.0000   1.0000   1.0000   1.0000   1.0000   1.0000
     1.0000   1.0000   1.0000   1.0000   1.0000   1.0000   1.0000   1.0000
     1.0000   1.0000   1.0000   1.0000   1.0000   1.0000   1.0000   1.0000
    -0.0000  -0.0000  -0.0000  -0.0000  -0.0000  -0.0000  -0.0000  -0.0000
    -0.0000  -0.0000

     the Fermi energy is     7.9289 ev

!    total energy              =    -834.89395097 Ry
     estimated scf accuracy    <       0.00000096 Ry
     smearing contrib. (-TS)   =       0.00000000 Ry
     internal energy E=F+TS    =    -834.89395097 Ry

     The total energy is F=E-TS. E is the sum of the following terms:
     one-electron contribution =    -227.23041767 Ry
     hartree contribution      =     134.23794459 Ry
     xc contribution           =    -181.78520301 Ry
     ewald contribution        =    -434.89346335 Ry
     one-center paw contrib.   =    -125.22281152 Ry
      -> PAW hartree energy AE =       3.64463855 Ry
      -> PAW hartree energy PS =      -3.63550256 Ry
      -> PAW xc energy AE      =    -130.71993708 Ry
      -> PAW xc energy PS      =       5.48798957 Ry
      -> total E_H with PAW    =     134.24708057 Ry
      -> total E_XC with PAW   =    -307.01715052 Ry

     convergence has been achieved in  11 iterations

     negative rho (up, down):  3.389E-01 0.000E+00

     Forces acting on atoms (cartesian axes, Ry/au):

     atom    1 type  1   force =     0.01077524    0.00255205    0.00000291
     atom    2 type  1   force =    -0.01090227    0.00253401   -0.00000090
     atom    3 type  1   force =     0.01077524   -0.00255205   -0.00000291
     atom    4 type  1   force =    -0.01090227   -0.00253401    0.00000090
     atom    5 type  1   force =     0.01090227    0.00253401   -0.00000090
     atom    6 type  1   force =    -0.01077524    0.00255205    0.00000291
     atom    7 type  1   force =     0.01090227   -0.00253401    0.00000090
     atom    8 type  1   force =    -0.01077524   -0.00255205   -0.00000291
     atom    9 type  2   force =     0.00000000    0.00676858   -0.00000043
     atom   10 type  2   force =     0.00000000   -0.00676858    0.00000043
     atom   11 type  2   force =     0.00000000    0.00676993   -0.00000035
     atom   12 type  2   force =     0.00000000   -0.00676993    0.00000035
     The non-local contrib.  to forces
     atom    1 type  1   force =    -0.15407624   -0.00630917    0.00000016
     atom    2 type  1   force =     0.15399039   -0.00632264    0.00000038
     atom    3 type  1   force =    -0.15407624    0.00630917   -0.00000016
     atom    4 type  1   force =     0.15399039    0.00632264   -0.00000038
     atom    5 type  1   force =    -0.15399039   -0.00632264    0.00000038
     atom    6 type  1   force =     0.15407624   -0.00630917    0.00000016
     atom    7 type  1   force =    -0.15399039    0.00632264   -0.00000038
     atom    8 type  1   force =     0.15407624    0.00630917   -0.00000016
     atom    9 type  2   force =     0.00000000    0.00732378   -0.00000039
     atom   10 type  2   force =     0.00000000   -0.00732378    0.00000039
     atom   11 type  2   force =     0.00000000    0.00732352    0.00000050
     atom   12 type  2   force =     0.00000000   -0.00732352   -0.00000050
     The ionic contribution  to forces
     atom    1 type  1   force =    -4.36818065    0.05814793   -0.00000000
     atom    2 type  1   force =     4.36818065    0.05814793   -0.00000000
     atom    3 type  1   force =    -4.36818065   -0.05814793   -0.00000000
     atom    4 type  1   force =     4.36818065   -0.05814793   -0.00000000
     atom    5 type  1   force =    -4.36818065    0.05814793    0.00000000
     atom    6 type  1   force =     4.36818065    0.05814793    0.00000000
     atom    7 type  1   force =    -4.36818065   -0.05814793   -0.00000000
     atom    8 type  1   force =     4.36818065   -0.05814793   -0.00000000
     atom    9 type  2   force =     0.00000000    0.01549811   -0.00000000
     atom   10 type  2   force =     0.00000000   -0.01549811   -0.00000000
     atom   11 type  2   force =     0.00000000    0.01549811    0.00000000
     atom   12 type  2   force =    -0.00000000   -0.01549811    0.00000000
     The local contribution  to forces
     atom    1 type  1   force =     4.52159498   -0.04979211    0.00000939
     atom    2 type  1   force =    -4.52232446   -0.05000843   -0.00001817
     atom    3 type  1   force =     4.52180589    0.04985256    0.00000229
     atom    4 type  1   force =    -4.52221812    0.04996183   -0.00000500
     atom    5 type  1   force =     4.52085997   -0.04993313   -0.00001268
     atom    6 type  1   force =    -4.51939805   -0.04981714    0.00000495
     atom    7 type  1   force =     4.52066198    0.04989542    0.00000173
     atom    8 type  1   force =    -4.51958342    0.04983174    0.00000063
     atom    9 type  2   force =     0.00023189   -0.01529851   -0.00000184
     atom   10 type  2   force =     0.00023174    0.01529461   -0.00000155
     atom   11 type  2   force =    -0.00042082   -0.01528392   -0.00000203
     atom   12 type  2   force =    -0.00042300    0.01529288    0.00000086
     The core correction contribution to forces
     atom    1 type  1   force =     0.01237260    0.00055245    0.00000009
     atom    2 type  1   force =    -0.01237609    0.00055110   -0.00000049
     atom    3 type  1   force =     0.01237360   -0.00055208    0.00000092
     atom    4 type  1   force =    -0.01237670   -0.00055207    0.00000023
     atom    5 type  1   force =     0.01235079    0.00055112   -0.00000004
     atom    6 type  1   force =    -0.01235204    0.00055179   -0.00000008
     atom    7 type  1   force =     0.01234978   -0.00055216    0.00000013
     atom    8 type  1   force =    -0.01235051   -0.00055380    0.00000046
     atom    9 type  2   force =     0.00000182   -0.00075517   -0.00000011
     atom   10 type  2   force =     0.00000162    0.00075521   -0.00000023
     atom   11 type  2   force =    -0.00000629   -0.00075484   -0.00000010
     atom   12 type  2   force =    -0.00000643    0.00075523    0.00000002
     The Hubbard contrib.    to forces
     atom    1 type  1   force =     0.00000000    0.00000000    0.00000000
     atom    2 type  1   force =     0.00000000    0.00000000    0.00000000
     atom    3 type  1   force =     0.00000000    0.00000000    0.00000000
     atom    4 type  1   force =     0.00000000    0.00000000    0.00000000
     atom    5 type  1   force =     0.00000000    0.00000000    0.00000000
     atom    6 type  1   force =     0.00000000    0.00000000    0.00000000
     atom    7 type  1   force =     0.00000000    0.00000000    0.00000000
     atom    8 type  1   force =     0.00000000    0.00000000    0.00000000
     atom    9 type  2   force =     0.00000000    0.00000000    0.00000000
     atom   10 type  2   force =     0.00000000    0.00000000    0.00000000
     atom   11 type  2   force =     0.00000000    0.00000000    0.00000000
     atom   12 type  2   force =     0.00000000    0.00000000    0.00000000
     The SCF correction term to forces
     atom    1 type  1   force =    -0.00080251   -0.00003953   -0.00000710
     atom    2 type  1   force =     0.00151472    0.00016013    0.00000368
     atom    3 type  1   force =    -0.00101453    0.00000562   -0.00000243
     atom    4 type  1   force =     0.00136454   -0.00013096    0.00000624
     atom    5 type  1   force =    -0.00027702    0.00007582    0.00001802
     atom    6 type  1   force =    -0.00116665   -0.00001583    0.00000293
     atom    7 type  1   force =    -0.00006836   -0.00006035   -0.00000787
     atom    8 type  1   force =    -0.00094783    0.00000248   -0.00000271
     atom    9 type  2   force =    -0.00021522    0.00000025    0.00000015
     atom   10 type  2   force =    -0.00021817    0.00000336    0.00000006
     atom   11 type  2   force =     0.00034127   -0.00001034    0.00000075
     atom   12 type  2   force =     0.00034295    0.00000618   -0.00000056

     Total force =     0.034277     Total SCF correction =     0.002925

     Computing stress (Cartesian axis) and pressure

     negative rho (up, down):  3.389E-01 0.000E+00
          total   stress  (Ry/bohr**3)                   (kbar)     P=      -96.76
  -0.00037118   0.00000000   0.00000000          -54.60        0.00        0.00
   0.00000000  -0.00080131  -0.00000001            0.00     -117.88       -0.00
   0.00000000  -0.00000001  -0.00080071            0.00       -0.00     -117.79

     kinetic stress (kbar)   7297.58      0.00      0.00
                                0.00   7462.49     -0.00
                                0.00     -0.00   7462.67

     local   stress (kbar)  -2746.14     -0.00      0.00
                               -0.00  -7345.21     -0.00
                                0.00     -0.00  -7348.51

     nonloc. stress (kbar)   6990.84      0.00      0.00
                                0.00   6932.34      0.00
                                0.00      0.00   6932.39

     hartree stress (kbar)   1364.48      0.00     -0.00
                                0.00   3484.26      0.00
                               -0.00      0.00   3485.68

     exc-cor stress (kbar)   3853.91      0.00     -0.00
                                0.00   3859.59      0.00
                               -0.00      0.00   3859.60

     corecor stress (kbar)  -6281.20     -0.00     -0.00
                               -0.00  -6276.90     -0.00
                               -0.00     -0.00  -6276.92

     ewald   stress (kbar) -10534.07     -0.00     -0.00
                               -0.00  -8234.45     -0.00
                               -0.00     -0.00  -8232.70

     hubbard stress (kbar)      0.00      0.00      0.00
                                0.00      0.00      0.00
                                0.00      0.00      0.00

     DFT-D   stress (kbar)      0.00      0.00      0.00
                                0.00      0.00      0.00
                                0.00      0.00      0.00

     XDM     stress (kbar)      0.00      0.00      0.00
                                0.00      0.00      0.00
                                0.00      0.00      0.00

     dft-nl  stress (kbar)      0.00      0.00      0.00
                                0.00      0.00      0.00
                                0.00      0.00      0.00

     TS-vdW  stress (kbar)      0.00      0.00      0.00
                                0.00      0.00      0.00
                                0.00      0.00      0.00

[...]

                                0.00      0.00      0.00

     Writing all to output data dir new_calculations/myprefix.save/

     General routines

     Parallel routines

     PAW routines

   This run was terminated on:  17:46:17  20May2023

   JOB DONE.