     Program PWSCF v.7.0 starts on 21May2023 at  6: 9:38

     Reading input from espresso_21631.pwi
Warning: card &CELL ignored
Warning: card / ignored

     Current dimensions of program PWSCF are:
     Max number of different atomic species (ntypx) = 10
     Max number of k-points (npk) =  40000
     Max angular momentum in pseudopotentials (lmaxx) =  4

     gamma-point specific algorithms are used

     Subspace diagonalization in iterative solution of the eigenvalue problem:
     a serial algorithm will be used

     Using Slab Decomposition

     bravais-lattice index     =            0
     lattice parameter (alat)  =      10.8346  a.u.
     unit-cell volume          =     772.8013 (a.u.)^3
     number of atoms/cell      =            6
     number of atomic types    =            2
     number of electrons       =       109.00
     number of Kohn-Sham states=           66
     kinetic-energy cutoff     =      30.0000  Ry
     charge density cutoff     =     240.0000  Ry
     scf convergence threshold =      1.0E-06
     mixing beta               =       0.7000
     number of iterations used =            8  plain     mixing
     Exchange-correlation= PBE
                           (   1   4   3   4   0   0   0)

     celldm(1)=  10.834614  celldm(2)=   0.000000  celldm(3)=   0.000000
     celldm(4)=   0.000000  celldm(5)=   0.000000  celldm(6)=   0.000000

     crystal axes: (cart. coord. in units of alat)
               a(1) = (   1.000000   0.000000   0.000000 )
               a(2) = (   0.588116   0.808777   0.000000 )
               a(3) = (   0.588116   0.299509   0.751275 )

     reciprocal axes: (cart. coord. in units 2 pi/alat)
               b(1) = (  1.000000 -0.727167 -0.492926 )
               b(2) = (  0.000000  1.236435 -0.492926 )
               b(3) = (  0.000000  0.000000  1.331071 )

     PseudoPot. # 1 for Sn read from file:
     /home/pragov/projects/rrg-bengioy-ad/pragov/crystal_structure_design/SSSP/Sn_pbe_v1.uspp.F.UPF
     MD5 check sum: 4cf58ce39ec5d5d420df3dd08604eb00
     Pseudo is Ultrasoft + core correction, Zval = 14.0
     Generated by new atomic code, or converted to UPF format
     Using radial grid of  891 points,  6 beta functions with:
                l(1) =   0
                l(2) =   0
                l(3) =   1
                l(4) =   1
                l(5) =   2
                l(6) =   2
     Q(r) pseudized with  6 coefficients,  rinner =    1.200   1.200   1.200
                                                       1.200   1.200

     PseudoPot. # 2 for Au read from file:
     /home/pragov/projects/rrg-bengioy-ad/pragov/crystal_structure_design/SSSP/Au_ONCV_PBE-1.0.oncvpsp.upf
     MD5 check sum: d14007822ba0e19f0206237467fc06c2
     Pseudo is Norm-conserving, Zval = 19.0
     Generated using ONCVPSP code by D. R. Hamann
     Using radial grid of 1278 points,  8 beta functions with:
                l(1) =   0
                l(2) =   0
                l(3) =   1
                l(4) =   1
                l(5) =   2
                l(6) =   2
                l(7) =   3
                l(8) =   3

     atomic species   valence    mass     pseudopotential
        Sn            14.00   118.71000     Sn( 1.00)
        Au            19.00   196.96657     Au( 1.00)

     No symmetry found

                                    s                        frac. trans.

      isym =  1     identity

 cryst.   s( 1) = (     1          0          0      )
                  (     0          1          0      )
                  (     0          0          1      )

 cart.    s( 1) = (  1.0000000  0.0000000  0.0000000 )
                  (  0.0000000  1.0000000  0.0000000 )
                  (  0.0000000  0.0000000  1.0000000 )

   Cartesian axes

     site n.     atom                  positions (alat units)
         1           Sn  tau(   1) = (   0.0000000   0.0000000   0.0000000  )
         2           Au  tau(   2) = (   1.4581733   0.7426011   0.5033880  )
         3           Au  tau(   3) = (   0.9532108   0.6522414   0.6217041  )
         4           Au  tau(   4) = (   1.0881159   0.7209442   0.1295709  )
         5           Au  tau(   5) = (   1.2230212   0.2892424   0.3756375  )
         6           Au  tau(   6) = (   0.7180586   0.3656843   0.2478869  )

   Crystallographic axes

     site n.     atom                  positions (cryst. coord.)
         1           Sn  tau(   1) = (  0.0000000  0.0000000  0.0000000  )
         2           Au  tau(   2) = (  0.6700450  0.6700450  0.6700450  )
         3           Au  tau(   3) = (  0.1724680  0.5000000  0.8275320  )
         4           Au  tau(   4) = (  0.5000000  0.8275320  0.1724680  )
         5           Au  tau(   5) = (  0.8275320  0.1724680  0.5000000  )
         6           Au  tau(   6) = (  0.3299550  0.3299550  0.3299550  )

     number of k points=     1  Methfessel-Paxton smearing, width (Ry)=  0.0010
                       cart. coord. in units 2pi/alat
        k(    1) = (   0.0000000   0.0000000   0.0000000), wk =   2.0000000

                       cryst. coord.
        k(    1) = (   0.0000000   0.0000000   0.0000000), wk =   2.0000000

     Check: negative core charge=   -0.000001

     Initial potential from superposition of free atoms

     starting charge     107.9995, renormalised to     109.0000
     Starting wfcs are   59 randomized atomic wfcs +    7 random wfcs

     Self-consistent Calculation

     iteration #  1     ecut=    30.00 Ry     beta= 0.70
     Davidson diagonalization with overlap

     ethr =  1.00E-02,  avg # of iterations =  3.0

     Threshold (ethr) on eigenvalues was too large:
     Diagonalizing with lowered threshold

     Davidson diagonalization with overlap

[...]

     total energy              =   -1534.80739980 Ry
     estimated scf accuracy    <       0.86335709 Ry

[...]

     total energy              =   -1535.24129703 Ry
     estimated scf accuracy    <       0.00000189 Ry

     iteration # 14     ecut=    30.00 Ry     beta= 0.70
     Davidson diagonalization with overlap

     ethr =  1.74E-09,  avg # of iterations =  1.0

     End of self-consistent calculation

          k = 0.0000 0.0000 0.0000 (  1083 PWs)   bands (ev):

   -89.2801 -89.2772 -88.9658 -88.9614 -88.9612 -40.3329 -40.3329 -40.2819
   -40.2819 -40.2322 -40.2154 -40.0874 -40.0828 -40.0827 -40.0281 -39.9736
   -39.9735 -39.8021 -39.7894 -39.7893  -2.1079  -2.1079  -1.9991  -1.9991
    -1.9960   7.7218  10.7363  11.8427  11.8994  11.8995  12.1071  12.1071
    12.3395  12.7826  12.7826  12.9369  12.9369  12.9566  13.0264  13.2558
    13.2558  13.5061  13.5061  13.5576  13.8779  13.8779  14.6199  14.6199
    14.7788  14.9207  14.9208  15.9789  17.3651  18.9502  18.9502  19.0709
    19.5247  20.4184  20.4184  21.4443  21.4443  21.9698  22.0599  23.4370
    23.4370  29.4559

     occupation numbers
     1.0000   1.0000   1.0000   1.0000   1.0000   1.0000   1.0000   1.0000
     1.0000   1.0000   1.0000   1.0000   1.0000   1.0000   1.0000   1.0000
     1.0000   1.0000   1.0000   1.0000   1.0000   1.0000   1.0000   1.0000
     1.0000   1.0000   1.0000   1.0000   1.0000   1.0000   1.0000   1.0000
     1.0000   1.0000   1.0000   1.0000   1.0000   1.0000   1.0000   1.0000
     1.0000   1.0000   1.0000   1.0000   1.0000   1.0000   1.0000   1.0000
     1.0000   1.0000   1.0000   1.0000   1.0000   0.7511   0.7489  -0.0000
    -0.0000  -0.0000  -0.0000  -0.0000  -0.0000  -0.0000  -0.0000  -0.0000
    -0.0000  -0.0000

     the Fermi energy is    18.9544 ev

!    total energy              =   -1535.24129699 Ry
     estimated scf accuracy    <       0.00000017 Ry
     smearing contrib. (-TS)   =      -0.00041261 Ry
     internal energy E=F+TS    =   -1535.24088438 Ry

     The total energy is F=E-TS. E is the sum of the following terms:
     one-electron contribution =    -542.29761584 Ry
     hartree contribution      =     318.70692962 Ry
     xc contribution           =    -174.06004198 Ry
     ewald contribution        =   -1137.59015618 Ry

     convergence has been achieved in  14 iterations

     Forces acting on atoms (cartesian axes, Ry/au):

     atom    1 type  1   force =     0.00016827   -0.00025823   -0.00016349
     atom    2 type  2   force =    -0.01322120   -0.00675563   -0.00464290
     atom    3 type  2   force =     0.01356112   -0.00987152   -0.02491381
     atom    4 type  2   force =    -0.00005196   -0.01678496    0.02493318
     atom    5 type  2   force =    -0.01366389    0.02692491    0.00004267
     atom    6 type  2   force =     0.01320766    0.00674544    0.00474435
     The non-local contrib.  to forces
     atom    1 type  1   force =     0.00036582   -0.00061473   -0.00022090
     atom    2 type  2   force =     0.02506320    0.01296615    0.00893553
     atom    3 type  2   force =    -0.00548307    0.00444295    0.01084018
     atom    4 type  2   force =    -0.00043828    0.00701527   -0.01087590
     atom    5 type  2   force =     0.00600461   -0.01161990    0.00001823
     atom    6 type  2   force =    -0.02524496   -0.01262027   -0.00889529
     The ionic contribution  to forces
     atom    1 type  1   force =     0.00000060   -0.00000119    0.00000000
     atom    2 type  2   force =    -0.37589888   -0.19143534   -0.12977020
     atom    3 type  2   force =    -0.90265303    0.65637943    1.64643281
     atom    4 type  2   force =     0.00000021    1.11607188   -1.64643281
     atom    5 type  2   force =     0.90265057   -1.77244687    0.00000000
     atom    6 type  2   force =     0.37590054    0.19143209    0.12977020
     The local contribution  to forces
     atom    1 type  1   force =    -0.00061019    0.00105170    0.00033635
     atom    2 type  2   force =     0.33812981    0.17137381    0.11559617
     atom    3 type  2   force =     0.92058444   -0.67126899   -1.68234730
     atom    4 type  2   force =     0.00175804   -1.13927387    1.68240910
     atom    5 type  2   force =    -0.92266262    1.81094986   -0.00018591
     atom    6 type  2   force =    -0.33724219   -0.17271356   -0.11579979
     The core correction contribution to forces
     atom    1 type  1   force =    -0.00001566    0.00002743    0.00000695
     atom    2 type  2   force =     0.00000000    0.00000000    0.00000000
     atom    3 type  2   force =     0.00000000    0.00000000    0.00000000
     atom    4 type  2   force =     0.00000000    0.00000000    0.00000000
     atom    5 type  2   force =     0.00000000    0.00000000    0.00000000
     atom    6 type  2   force =     0.00000000    0.00000000    0.00000000
     The Hubbard contrib.    to forces
     atom    1 type  1   force =     0.00000000    0.00000000    0.00000000
     atom    2 type  2   force =     0.00000000    0.00000000    0.00000000
     atom    3 type  2   force =     0.00000000    0.00000000    0.00000000
     atom    4 type  2   force =     0.00000000    0.00000000    0.00000000
     atom    5 type  2   force =     0.00000000    0.00000000    0.00000000
     atom    6 type  2   force =     0.00000000    0.00000000    0.00000000
     The SCF correction term to forces
     atom    1 type  1   force =     0.00047781   -0.00080646   -0.00031188
     atom    2 type  2   force =    -0.00046522    0.00025473    0.00056961
     atom    3 type  2   force =     0.00116289    0.00049009    0.00013451
     atom    4 type  2   force =    -0.00132182   -0.00068326   -0.00019320
     atom    5 type  2   force =     0.00039366   -0.00004319    0.00018436
     atom    6 type  2   force =    -0.00015562    0.00056217   -0.00035675

     Total force =     0.056583     Total SCF correction =     0.002470

     Computing stress (Cartesian axis) and pressure

          total   stress  (Ry/bohr**3)                   (kbar)     P=     -623.55
  -0.00452503  -0.00026958  -0.00018318         -665.65      -39.66      -26.95
  -0.00026958  -0.00413301  -0.00009326          -39.66     -607.99      -13.72
  -0.00018318  -0.00009326  -0.00405844          -26.95      -13.72     -597.02

     kinetic stress (kbar)  55770.45    107.86     73.19
                              107.86  55613.59     37.27
                               73.19     37.27  55583.77

     local   stress (kbar)  -3354.06   -635.36   -430.87
                             -635.36  -2430.06   -219.43
                             -430.87   -219.43  -2255.00

     nonloc. stress (kbar)   7606.11     43.06     29.13
                               43.06   7543.48     14.85
                               29.13     14.85   7531.72

     hartree stress (kbar)  20477.93    240.87    163.38
                              240.87  20127.64     83.20
                              163.38     83.20  20061.26

     exc-cor stress (kbar)  -3718.26      0.83      0.57
                                0.83  -3719.48      0.29
                                0.57      0.29  -3719.71

     corecor stress (kbar)  -5482.58     -0.46     -0.31
                               -0.46  -5481.92     -0.16
                               -0.31     -0.16  -5481.80

     ewald   stress (kbar) -71965.23    203.54    137.97
                              203.54 -72261.25     70.26
                              137.97     70.26 -72317.26

     hubbard stress (kbar)      0.00      0.00      0.00
                                0.00      0.00      0.00
                                0.00      0.00      0.00

     DFT-D   stress (kbar)      0.00      0.00      0.00
                                0.00      0.00      0.00
                                0.00      0.00      0.00

     XDM     stress (kbar)      0.00      0.00      0.00
                                0.00      0.00      0.00
                                0.00      0.00      0.00

     dft-nl  stress (kbar)      0.00      0.00      0.00
                                0.00      0.00      0.00
                                0.00      0.00      0.00

     TS-vdW  stress (kbar)      0.00      0.00      0.00
                                0.00      0.00      0.00
                                0.00      0.00      0.00

[...]

                                0.00      0.00      0.00

     Writing all to output data dir new_calculations/myprefix.save/

     General routines

     Parallel routines

   This run was terminated on:   6: 9:52  21May2023

   JOB DONE.