     Program PWSCF v.7.0 starts on 20May2023 at 16:55:59

     Reading input from espresso_2591.pwi
Warning: card &CELL ignored
Warning: card / ignored

     Current dimensions of program PWSCF are:
     Max number of different atomic species (ntypx) = 10
     Max number of k-points (npk) =  40000
     Max angular momentum in pseudopotentials (lmaxx) =  4
     file K.pbe-spn-kjpaw_psl.1.0.0.UPF: wavefunction(s)  3S renormalized
     file O.pbe-n-kjpaw_psl.0.1.UPF: wavefunction(s)  2P renormalized

     gamma-point specific algorithms are used
     Message from routine setup:
     using ibrav=0 with symmetry is DISCOURAGED, use correct ibrav instead

     Subspace diagonalization in iterative solution of the eigenvalue problem:
     a serial algorithm will be used

     Using Slab Decomposition

     bravais-lattice index     =            0
     lattice parameter (alat)  =      11.7234  a.u.
     unit-cell volume          =    1611.2457 (a.u.)^3
     number of atoms/cell      =           12
     number of atomic types    =            2
     number of electrons       =        84.00
     number of Kohn-Sham states=           50
     kinetic-energy cutoff     =      30.0000  Ry
     charge density cutoff     =     240.0000  Ry
     scf convergence threshold =      1.0E-06
     mixing beta               =       0.7000
     number of iterations used =            8  plain     mixing
     Exchange-correlation= SLA  PW   PBX  PBC
                           (   1   4   3   4   0   0   0)

     celldm(1)=  11.723409  celldm(2)=   0.000000  celldm(3)=   0.000000
     celldm(4)=   0.000000  celldm(5)=   0.000000  celldm(6)=   0.000000

     crystal axes: (cart. coord. in units of alat)
               a(1) = (   1.000000   0.000000   0.000000 )
               a(2) = (   0.000000   1.000000   0.000000 )
               a(3) = (   0.000000   0.000000   1.000000 )

     reciprocal axes: (cart. coord. in units 2 pi/alat)
               b(1) = (  1.000000  0.000000  0.000000 )
               b(2) = (  0.000000  1.000000  0.000000 )
               b(3) = (  0.000000  0.000000  1.000000 )

     PseudoPot. # 1 for K  read from file:
     /home/pragov/projects/rrg-bengioy-ad/pragov/crystal_structure_design/SSSP/K.pbe-spn-kjpaw_psl.1.0.0.UPF
     MD5 check sum: 7d58810084cac21f60fbe77ea2b688fd
     Pseudo is Projector augmented-wave + core cor, Zval =  9.0
     Generated using "atomic" code by A. Dal Corso  v.5.1
     Shape of augmentation charge: PSQ
     Using radial grid of 1165 points,  6 beta functions with:
                l(1) =   0
                l(2) =   0
                l(3) =   1
                l(4) =   1
                l(5) =   2
                l(6) =   2
     Q(r) pseudized with 0 coefficients

     PseudoPot. # 2 for O  read from file:
     /home/pragov/projects/rrg-bengioy-ad/pragov/crystal_structure_design/SSSP/O.pbe-n-kjpaw_psl.0.1.UPF
     MD5 check sum: 0234752ac141de4415c5fc33072bef88
     Pseudo is Projector augmented-wave + core cor, Zval =  6.0
     Generated using "atomic" code by A. Dal Corso  v.5.0.99 svn rev. 10869
     Shape of augmentation charge: BESSEL
     Using radial grid of 1095 points,  4 beta functions with:
                l(1) =   0
                l(2) =   0
                l(3) =   1
                l(4) =   1
     Q(r) pseudized with 0 coefficients

     atomic species   valence    mass     pseudopotential
        K              9.00    39.09830     K ( 1.00)
        O              6.00    15.99900     O ( 1.00)

     24 Sym. Ops., with inversion, found (18 have fractional translation)

                                    s                        frac. trans.

      isym =  1     identity

 cryst.   s( 1) = (     1          0          0      )
                  (     0          1          0      )
                  (     0          0          1      )

 cart.    s( 1) = (  1.0000000  0.0000000  0.0000000 )
                  (  0.0000000  1.0000000  0.0000000 )
                  (  0.0000000  0.0000000  1.0000000 )

      isym =  2     180 deg rotation - cart. axis [0,0,1]

 cryst.   s( 2) = (    -1          0          0      )    f =(  0.5000000 )
                  (     0         -1          0      )       (  0.0000000 )
                  (     0          0          1      )       (  0.5000000 )

 cart.    s( 2) = ( -1.0000000  0.0000000  0.0000000 )    f =(  0.5000000 )
                  (  0.0000000 -1.0000000  0.0000000 )       (  0.0000000 )
                  (  0.0000000  0.0000000  1.0000000 )       (  0.5000000 )

[...]

 cryst.   s( 8) = (     0          0          1      )    f =(  0.5000000 )
                  (    -1          0          0      )       (  0.0000000 )
                  (     0         -1          0      )       (  0.5000000 )

 cart.    s( 8) = (  0.0000000 -1.0000000  0.0000000 )    f =(  0.5000000 )
                  (  0.0000000  0.0000000 -1.0000000 )       (  0.0000000 )
                  (  1.0000000  0.0000000  0.0000000 )       (  0.5000000 )

[...]

 cryst.   s( 9) = (     0          1          0      )
                  (     0          0          1      )
                  (     1          0          0      )

 cart.    s( 9) = (  0.0000000  0.0000000  1.0000000 )
                  (  1.0000000  0.0000000  0.0000000 )
                  (  0.0000000  1.0000000  0.0000000 )

[...]

 cryst.   s(10) = (     0         -1          0      )    f =( -0.5000000 )
                  (     0          0         -1      )       (  0.5000000 )
                  (     1          0          0      )       (  0.0000000 )

 cart.    s(10) = (  0.0000000  0.0000000  1.0000000 )    f =( -0.5000000 )
                  ( -1.0000000  0.0000000  0.0000000 )       (  0.5000000 )
                  (  0.0000000 -1.0000000  0.0000000 )       (  0.0000000 )

[...]

      isym = 12     120 deg rotation - cart. axis [-1,-1,1]

[...]

      isym = 13     inversion

 cryst.   s(13) = (    -1          0          0      )
                  (     0         -1          0      )
                  (     0          0         -1      )

 cart.    s(13) = ( -1.0000000  0.0000000  0.0000000 )
                  (  0.0000000 -1.0000000  0.0000000 )
                  (  0.0000000  0.0000000 -1.0000000 )

      isym = 14     inv. 180 deg rotation - cart. axis [0,0,1]

[...]

 cryst.   s(21) = (     0         -1          0      )
                  (     0          0         -1      )
                  (    -1          0          0      )

 cart.    s(21) = (  0.0000000  0.0000000 -1.0000000 )
                  ( -1.0000000  0.0000000  0.0000000 )
                  (  0.0000000 -1.0000000  0.0000000 )

[...]

      isym = 24     inv. 120 deg rotation - cart. axis [-1,-1,1]

 cryst.   s(24) = (     0         -1          0      )    f =(  0.0000000 )
                  (     0          0          1      )       (  0.5000000 )
                  (     1          0          0      )       (  0.5000000 )

 cart.    s(24) = (  0.0000000  0.0000000  1.0000000 )    f =(  0.0000000 )
                  ( -1.0000000  0.0000000  0.0000000 )       (  0.5000000 )
                  (  0.0000000  1.0000000  0.0000000 )       (  0.5000000 )

   Cartesian axes

     site n.     atom                  positions (alat units)
         1           K   tau(   1) = (   0.0000000   0.5000000   0.5000000  )
         2           K   tau(   2) = (   0.5000000   0.5000000   0.0000000  )
         3           K   tau(   3) = (   0.5000000   0.0000000   0.5000000  )
         4           K   tau(   4) = (   0.0000000   0.0000000   0.0000000  )
         5           O   tau(   5) = (   0.4369930   0.0630070   0.9369930  )
         6           O   tau(   6) = (   0.0630070   0.9369930   0.4369930  )
         7           O   tau(   7) = (   0.9369930   0.4369930   0.0630070  )
         8           O   tau(   8) = (   0.5630070   0.5630070   0.5630070  )
         9           O   tau(   9) = (   0.4369930   0.4369930   0.4369930  )
        10           O   tau(  10) = (   0.0630070   0.5630070   0.9369930  )
        11           O   tau(  11) = (   0.9369930   0.0630070   0.5630070  )
        12           O   tau(  12) = (   0.5630070   0.9369930   0.0630070  )

   Crystallographic axes

     site n.     atom                  positions (cryst. coord.)
         1           K   tau(   1) = (  0.0000000  0.5000000  0.5000000  )
         2           K   tau(   2) = (  0.5000000  0.5000000  0.0000000  )
         3           K   tau(   3) = (  0.5000000  0.0000000  0.5000000  )
         4           K   tau(   4) = (  0.0000000  0.0000000  0.0000000  )
         5           O   tau(   5) = (  0.4369930  0.0630070  0.9369930  )
         6           O   tau(   6) = (  0.0630070  0.9369930  0.4369930  )
         7           O   tau(   7) = (  0.9369930  0.4369930  0.0630070  )
         8           O   tau(   8) = (  0.5630070  0.5630070  0.5630070  )
         9           O   tau(   9) = (  0.4369930  0.4369930  0.4369930  )
        10           O   tau(  10) = (  0.0630070  0.5630070  0.9369930  )
        11           O   tau(  11) = (  0.9369930  0.0630070  0.5630070  )
        12           O   tau(  12) = (  0.5630070  0.9369930  0.0630070  )

     number of k points=     1  Methfessel-Paxton smearing, width (Ry)=  0.0010
                       cart. coord. in units 2pi/alat
        k(    1) = (   0.0000000   0.0000000   0.0000000), wk =   2.0000000

                       cryst. coord.
        k(    1) = (   0.0000000   0.0000000   0.0000000), wk =   2.0000000

     Check: negative core charge=   -0.000012

     Initial potential from superposition of free atoms

     starting charge      83.9247, renormalised to      84.0000
     Starting wfcs are   64 randomized atomic wfcs
     Checking if some PAW data can be deallocated...

     Self-consistent Calculation

     iteration #  1     ecut=    30.00 Ry     beta= 0.70
     Davidson diagonalization with overlap

     ethr =  1.00E-02,  avg # of iterations =  2.0

     Threshold (ethr) on eigenvalues was too large:
     Diagonalizing with lowered threshold

     Davidson diagonalization with overlap

[...]

     total energy              =    -784.23915837 Ry
     estimated scf accuracy    <       0.62918860 Ry

[...]

     total energy              =    -784.40909212 Ry
     estimated scf accuracy    <       0.00000371 Ry

     iteration # 28     ecut=    30.00 Ry     beta= 0.70
     Davidson diagonalization with overlap

     ethr =  4.42E-09,  avg # of iterations =  1.0

     End of self-consistent calculation

          k = 0.0000 0.0000 0.0000 (  2229 PWs)   bands (ev):

   -26.1141 -26.0905 -26.0904 -26.0904 -20.1949 -20.1865 -20.1865 -20.1865
   -11.8023 -11.8022 -11.8022 -11.7498  -9.7036  -9.7036  -9.7036  -9.6571
    -9.6571  -9.6007  -9.6007  -9.6007  -9.3143  -9.3143  -9.3143  -9.3132
    -3.6900  -3.5443  -3.5443  -3.5443  -2.1891  -2.1891  -2.1890  -2.1110
    -2.1109  -2.0428  -2.0428  -2.0428   2.4286   2.4286   2.4286   2.4733
     2.4733   2.4733   2.5467   2.5467   6.8540   8.5016   8.5016   8.5016
     8.6950   8.6950

     occupation numbers
     1.0000   1.0000   1.0000   1.0000   1.0000   1.0000   1.0000   1.0000
     1.0000   1.0000   1.0000   1.0000   1.0000   1.0000   1.0000   1.0000
     1.0000   1.0000   1.0000   1.0000   1.0000   1.0000   1.0000   1.0000
     1.0000   1.0000   1.0000   1.0000   1.0000   1.0000   1.0000   1.0000
     1.0000   1.0000   1.0000   1.0000   1.0000   1.0000   1.0000   1.0004
     1.0004   1.0004  -0.0006  -0.0006  -0.0000  -0.0000  -0.0000  -0.0000
    -0.0000  -0.0000

     the Fermi energy is     2.5106 ev

!    total energy              =    -784.40909200 Ry

     total all-electron energy =     -6020.139079 Ry
     estimated scf accuracy    <       0.00000017 Ry
     smearing contrib. (-TS)   =       0.00001298 Ry
     internal energy E=F+TS    =    -784.40910499 Ry

     The total energy is F=E-TS. E is the sum of the following terms:
     one-electron contribution =    -229.92821327 Ry
     hartree contribution      =     151.12424643 Ry
     xc contribution           =    -103.57905736 Ry
     ewald contribution        =    -304.03286777 Ry
     one-center paw contrib.   =    -297.99321303 Ry
      -> PAW hartree energy AE =     374.33478429 Ry
      -> PAW hartree energy PS =    -372.76911423 Ry
      -> PAW xc energy AE      =    -400.20273943 Ry
      -> PAW xc energy PS      =     100.64385635 Ry
      -> total E_H with PAW    =     152.68991649 Ry
      -> total E_XC with PAW   =    -403.13794044 Ry

     convergence has been achieved in  28 iterations

     Forces acting on atoms (cartesian axes, Ry/au):

     atom    1 type  1   force =    -0.00000000    0.00000000    0.00000000
     atom    2 type  1   force =     0.00000000    0.00000000    0.00000000
     atom    3 type  1   force =     0.00000000   -0.00000000    0.00000000
     atom    4 type  1   force =     0.00000000    0.00000000    0.00000000
     atom    5 type  2   force =     0.02829807   -0.02829807    0.02829807
     atom    6 type  2   force =    -0.02829807    0.02829807    0.02829807
     atom    7 type  2   force =     0.02829807    0.02829807   -0.02829807
     atom    8 type  2   force =    -0.02829807   -0.02829807   -0.02829807
     atom    9 type  2   force =     0.02829807    0.02829807    0.02829807
     atom   10 type  2   force =    -0.02829807   -0.02829807    0.02829807
     atom   11 type  2   force =     0.02829807   -0.02829807   -0.02829807
     atom   12 type  2   force =    -0.02829807    0.02829807   -0.02829807
     The non-local contrib.  to forces
     atom    1 type  1   force =    -0.00000000   -0.00000000   -0.00000000
     atom    2 type  1   force =     0.00000000    0.00000000    0.00000000
     atom    3 type  1   force =     0.00000000   -0.00000000   -0.00000000
     atom    4 type  1   force =     0.00000000    0.00000000   -0.00000000
     atom    5 type  2   force =     1.13727448   -1.13727448    1.13727448
     atom    6 type  2   force =    -1.13727448    1.13727448    1.13727448
     atom    7 type  2   force =     1.13727448    1.13727448   -1.13727448
     atom    8 type  2   force =    -1.13727448   -1.13727448   -1.13727448
     atom    9 type  2   force =     1.13727448    1.13727448    1.13727448
     atom   10 type  2   force =    -1.13727448   -1.13727448    1.13727448
     atom   11 type  2   force =     1.13727448   -1.13727448   -1.13727448
     atom   12 type  2   force =    -1.13727448    1.13727448   -1.13727448
     The ionic contribution  to forces
     atom    1 type  1   force =    -0.00000000    0.00000000    0.00000000
     atom    2 type  1   force =     0.00000000    0.00000000   -0.00000000
     atom    3 type  1   force =     0.00000000   -0.00000000    0.00000000
     atom    4 type  1   force =    -0.00000000   -0.00000000   -0.00000000
     atom    5 type  2   force =    -4.73505457    4.73505457   -4.73505457
     atom    6 type  2   force =     4.73505457   -4.73505457   -4.73505457
     atom    7 type  2   force =    -4.73505457   -4.73505457    4.73505457
     atom    8 type  2   force =     4.73505457    4.73505457    4.73505457
     atom    9 type  2   force =    -4.73505457   -4.73505457   -4.73505457
     atom   10 type  2   force =     4.73505457    4.73505457   -4.73505457
     atom   11 type  2   force =    -4.73505457    4.73505457    4.73505457
     atom   12 type  2   force =     4.73505457   -4.73505457    4.73505457
     The local contribution  to forces
     atom    1 type  1   force =     0.00002420    0.00004902   -0.00002694
     atom    2 type  1   force =    -0.00000519    0.00001774    0.00001777
     atom    3 type  1   force =    -0.00004608   -0.00002208   -0.00003416
     atom    4 type  1   force =     0.00000942   -0.00002478    0.00005506
     atom    5 type  2   force =     3.63899918   -3.63902020    3.63903889
     atom    6 type  2   force =    -3.63874150    3.63874262    3.63871261
     atom    7 type  2   force =     3.63894153    3.63894412   -3.63895151
     atom    8 type  2   force =    -3.63888561   -3.63886798   -3.63886027
     atom    9 type  2   force =     3.63886171    3.63886704    3.63883697
     atom   10 type  2   force =    -3.63893680   -3.63893239    3.63896532
     atom   11 type  2   force =     3.63885493   -3.63886777   -3.63883633
     atom   12 type  2   force =    -3.63897925    3.63897618   -3.63899006
     The core correction contribution to forces
     atom    1 type  1   force =     0.00000001   -0.00000011    0.00000002
     atom    2 type  1   force =     0.00000002   -0.00000007   -0.00000004
     atom    3 type  1   force =     0.00000014    0.00000000    0.00000005
     atom    4 type  1   force =     0.00000005    0.00000001   -0.00000014
     atom    5 type  2   force =    -0.01282369    0.01282351   -0.01282376
     atom    6 type  2   force =     0.01282349   -0.01282357   -0.01282349
     atom    7 type  2   force =    -0.01282343   -0.01282373    0.01282370
     atom    8 type  2   force =     0.01282392    0.01282380    0.01282368
     atom    9 type  2   force =    -0.01282380   -0.01282386   -0.01282354
     atom   10 type  2   force =     0.01282339    0.01282364   -0.01282383
     atom   11 type  2   force =    -0.01282417    0.01282421    0.01282414
     atom   12 type  2   force =     0.01282359   -0.01282333    0.01282350
     The Hubbard contrib.    to forces
     atom    1 type  1   force =     0.00000000    0.00000000    0.00000000
     atom    2 type  1   force =     0.00000000    0.00000000    0.00000000
     atom    3 type  1   force =     0.00000000    0.00000000    0.00000000
     atom    4 type  1   force =     0.00000000    0.00000000    0.00000000
     atom    5 type  2   force =     0.00000000    0.00000000    0.00000000
     atom    6 type  2   force =     0.00000000    0.00000000    0.00000000
     atom    7 type  2   force =     0.00000000    0.00000000    0.00000000
     atom    8 type  2   force =     0.00000000    0.00000000    0.00000000
     atom    9 type  2   force =     0.00000000    0.00000000    0.00000000
     atom   10 type  2   force =     0.00000000    0.00000000    0.00000000
     atom   11 type  2   force =     0.00000000    0.00000000    0.00000000
     atom   12 type  2   force =     0.00000000    0.00000000    0.00000000
     The SCF correction term to forces
     atom    1 type  1   force =    -0.00002432   -0.00005148    0.00002724
     atom    2 type  1   force =     0.00000575   -0.00002001   -0.00001952
     atom    3 type  1   force =     0.00004860    0.00002269    0.00003658
     atom    4 type  1   force =    -0.00000901    0.00002584   -0.00005928
     atom    5 type  2   force =    -0.00012946    0.00014208   -0.00017566
     atom    6 type  2   force =    -0.00020566    0.00019739    0.00023394
     atom    7 type  2   force =    -0.00003938   -0.00005971    0.00006283
     atom    8 type  2   force =    -0.00001471   -0.00004430   -0.00005887
     atom    9 type  2   force =     0.00004674    0.00003854    0.00009178
     atom   10 type  2   force =     0.00003157    0.00003985   -0.00008770
     atom   11 type  2   force =     0.00005750   -0.00004041   -0.00007573
     atom   12 type  2   force =     0.00010591   -0.00008751    0.00011009

     Total force =     0.138632     Total SCF correction =     0.000544

     Computing stress (Cartesian axis) and pressure

          total   stress  (Ry/bohr**3)                   (kbar)     P=     -244.96
  -0.00166517   0.00000000   0.00000000         -244.96        0.00        0.00
   0.00000000  -0.00166517   0.00000000            0.00     -244.96        0.00
   0.00000000   0.00000000  -0.00166517            0.00        0.00     -244.96

     kinetic stress (kbar)  13721.84      0.00      0.00
                                0.00  13721.84      0.00
                                0.00      0.00  13721.84

     local   stress (kbar)  -9618.98      0.07     -0.03
                                0.07  -9618.97     -0.09
                               -0.03     -0.09  -9618.97

     nonloc. stress (kbar)   3166.90      0.00      0.00
                                0.00   3166.90      0.00
                                0.00      0.00   3166.90

     hartree stress (kbar)   4599.17     -0.02      0.02
                               -0.02   4599.16     -0.01
                                0.02     -0.01   4599.16

     exc-cor stress (kbar)  -1568.69     -0.00     -0.00
                               -0.00  -1568.69      0.00
                               -0.00      0.00  -1568.69

     corecor stress (kbar)  -1292.57      0.00     -0.00
                                0.00  -1292.57     -0.00
                               -0.00     -0.00  -1292.57

     ewald   stress (kbar)  -9252.63     -0.00     -0.00
                               -0.00  -9252.63     -0.00
                               -0.00     -0.00  -9252.63

     hubbard stress (kbar)      0.00      0.00      0.00
                                0.00      0.00      0.00
                                0.00      0.00      0.00

     DFT-D   stress (kbar)      0.00      0.00      0.00
                                0.00      0.00      0.00
                                0.00      0.00      0.00

     XDM     stress (kbar)      0.00      0.00      0.00
                                0.00      0.00      0.00
                                0.00      0.00      0.00

     dft-nl  stress (kbar)      0.00      0.00      0.00
                                0.00      0.00      0.00
                                0.00      0.00      0.00

     TS-vdW  stress (kbar)      0.00      0.00      0.00
                                0.00      0.00      0.00
                                0.00      0.00      0.00

[...]

                                0.00      0.00      0.00

     Writing all to output data dir new_calculations/myprefix.save/

     General routines

     Parallel routines

     PAW routines

   This run was terminated on:  16:57: 1  20May2023

   JOB DONE.