     Program PWSCF v.7.0 starts on 21May2023 at  2:48:32

     Reading input from espresso_14990.pwi
Warning: card &CELL ignored
Warning: card / ignored

     Current dimensions of program PWSCF are:
     Max number of different atomic species (ntypx) = 10
     Max number of k-points (npk) =  40000
     Max angular momentum in pseudopotentials (lmaxx) =  4
     file O.pbe-n-kjpaw_psl.0.1.UPF: wavefunction(s)  2P renormalized

     gamma-point specific algorithms are used
     Message from routine setup:
     using ibrav=0 with symmetry is DISCOURAGED, use correct ibrav instead

     Subspace diagonalization in iterative solution of the eigenvalue problem:
     a serial algorithm will be used

     Using Slab Decomposition

     bravais-lattice index     =            0
     lattice parameter (alat)  =      10.0549  a.u.
     unit-cell volume          =    1080.2557 (a.u.)^3
     number of atoms/cell      =           12
     number of atomic types    =            4
     number of electrons       =        96.00
     number of Kohn-Sham states=           58
     kinetic-energy cutoff     =      30.0000  Ry
     charge density cutoff     =     240.0000  Ry
     scf convergence threshold =      1.0E-06
     mixing beta               =       0.7000
     number of iterations used =            8  plain     mixing
     Exchange-correlation= SLA  PW   PBX  PBC
                           (   1   4   3   4   0   0   0)

     celldm(1)=  10.054870  celldm(2)=   0.000000  celldm(3)=   0.000000
     celldm(4)=   0.000000  celldm(5)=   0.000000  celldm(6)=   0.000000

     crystal axes: (cart. coord. in units of alat)
               a(1) = (   1.000000   0.000000   0.000000 )
               a(2) = (   0.000000   1.000000   0.000000 )
               a(3) = (   0.500000   0.500000   1.062667 )

     reciprocal axes: (cart. coord. in units 2 pi/alat)
               b(1) = (  1.000000  0.000000 -0.470514 )
               b(2) = (  0.000000  1.000000 -0.470514 )
               b(3) = (  0.000000  0.000000  0.941029 )

     PseudoPot. # 1 for Li read from file:
     /home/pragov/projects/rrg-bengioy-ad/pragov/crystal_structure_design/SSSP/li_pbe_v1.4.uspp.F.UPF
     MD5 check sum: e912e257baa3777c20ea3d68f190483c
     Pseudo is Ultrasoft, Zval =  3.0
     Generated by new atomic code, or converted to UPF format
     Using radial grid of  751 points,  5 beta functions with:
                l(1) =   0
                l(2) =   0
                l(3) =   0
                l(4) =   1
                l(5) =   1
     Q(r) pseudized with 10 coefficients,  rinner =    1.150   1.150   1.150

     PseudoPot. # 2 for Eu read from file:
     /home/pragov/projects/rrg-bengioy-ad/pragov/crystal_structure_design/SSSP/Eu.GGA-PBE-paw-v1.0.UPF
     MD5 check sum: acec5fd9176fb57ec8e299eae1ecaf48
     Pseudo is Projector augmented-wave + core cor, Zval = 17.0
     Generated using ATOMPAW code
     Shape of augmentation charge: BESSEL
     Using radial grid of 1109 points,  8 beta functions with:
                l(1) =   0
                l(2) =   0
                l(3) =   1
                l(4) =   1
                l(5) =   2
                l(6) =   2
                l(7) =   3
                l(8) =   3
     Q(r) pseudized with 0 coefficients

     PseudoPot. # 3 for W  read from file:
     /home/pragov/projects/rrg-bengioy-ad/pragov/crystal_structure_design/SSSP/W_pbe_v1.2.uspp.F.UPF
     MD5 check sum: 9c083fa34c2a2ea0f02f1f893e16e1c8
     Pseudo is Ultrasoft + core correction, Zval = 14.0
     Generated by new atomic code, or converted to UPF format
     Using radial grid of  923 points,  8 beta functions with:
                l(1) =   0
                l(2) =   0
                l(3) =   0
                l(4) =   1
                l(5) =   1
                l(6) =   2
                l(7) =   2
                l(8) =   3
     Q(r) pseudized with  6 coefficients,  rinner =    1.350   1.350   1.350
                                                       1.350   1.350   1.350
                                                       1.350

     PseudoPot. # 4 for O  read from file:
     /home/pragov/projects/rrg-bengioy-ad/pragov/crystal_structure_design/SSSP/O.pbe-n-kjpaw_psl.0.1.UPF
     MD5 check sum: 0234752ac141de4415c5fc33072bef88
     Pseudo is Projector augmented-wave + core cor, Zval =  6.0
     Generated using "atomic" code by A. Dal Corso  v.5.0.99 svn rev. 10869
     Shape of augmentation charge: BESSEL
     Using radial grid of 1095 points,  4 beta functions with:
                l(1) =   0
                l(2) =   0
                l(3) =   1
                l(4) =   1
     Q(r) pseudized with 0 coefficients

     atomic species   valence    mass     pseudopotential
        Li             3.00     6.94000     Li( 1.00)
        Eu            17.00   151.96400     Eu( 1.00)
        W             14.00   183.84000     W ( 1.00)
        O              6.00    15.99900     O ( 1.00)

      4 Sym. Ops. (no inversion) found ( 3 have fractional translation)

                                    s                        frac. trans.

      isym =  1     identity

 cryst.   s( 1) = (     1          0          0      )
                  (     0          1          0      )
                  (     0          0          1      )

 cart.    s( 1) = (  1.0000000  0.0000000  0.0000000 )
                  (  0.0000000  1.0000000  0.0000000 )
                  (  0.0000000  0.0000000  1.0000000 )

      isym =  2     180 deg rotation - cart. axis [0,0,1]

 cryst.   s( 2) = (    -1          0          0      )    f =( -0.0000000 )
                  (     0         -1          0      )       (  0.5000000 )
                  (    -1         -1          1      )       (  0.0000000 )

 cart.    s( 2) = ( -1.0000000  0.0000000  0.0000004 )    f =( -0.0000000 )
                  (  0.0000000 -1.0000000  0.0000004 )       (  0.5000000 )
                  (  0.0000000  0.0000000  1.0000000 )       (  0.0000000 )

      isym =  3     inv.  90 deg rotation - cart. axis [0,0,-1]

[...]

      isym =  4     inv.  90 deg rotation - cart. axis [0,0,1]

 cryst.   s( 4) = (     0         -1          0      )    f =(  0.5000000 )
                  (     1          0          0      )       ( -0.0000000 )
                  (     1          0         -1      )       ( -0.5000000 )

 cart.    s( 4) = (  0.0000000  1.0000000 -0.0000004 )    f =(  0.2499999 )
                  ( -1.0000000  0.0000000 -0.0000000 )       ( -0.2500001 )
                  (  0.0000000  0.0000000 -1.0000000 )       ( -0.5313335 )

   Cartesian axes

     site n.     atom                  positions (alat units)
         1           Li  tau(   1) = (   1.0000000   0.2500000   0.2656667  )
         2           Eu  tau(   2) = (   0.5000001   1.2500001   0.7970002  )
         3           W   tau(   3) = (   0.5000000   0.7500000   0.2656667  )
         4           W   tau(   4) = (   1.0000001   0.7500001   0.7970002  )
         5           O   tau(   5) = (   0.6565346   0.9903056   0.4554198  )
         6           O   tau(   6) = (   0.3434666   0.5096956   0.4554198  )
         7           O   tau(   7) = (   1.2421957   0.5907227   0.9827321  )
         8           O   tau(   8) = (   0.7578047   0.9092777   0.9827321  )
         9           O   tau(   9) = (   0.8407226   0.5078046   0.6112684  )
        10           O   tau(  10) = (   1.1592776   0.9921956   0.6112684  )
        11           O   tau(  11) = (   0.2596945   0.9065335   0.0759137  )
        12           O   tau(  12) = (   0.7403045   0.5934655   0.0759137  )

   Crystallographic axes

     site n.     atom                  positions (cryst. coord.)
         1           Li  tau(   1) = (  0.8750000  0.1250000  0.2500000  )
         2           Eu  tau(   2) = (  0.1250000  0.8750000  0.7500000  )
         3           W   tau(   3) = (  0.3750000  0.6250000  0.2500000  )
         4           W   tau(   4) = (  0.6250000  0.3750000  0.7500000  )
         5           O   tau(   5) = (  0.4422530  0.7760240  0.4285630  )
         6           O   tau(   6) = (  0.1291850  0.2954140  0.4285630  )
         7           O   tau(   7) = (  0.7798060  0.1283330  0.9247790  )
         8           O   tau(   8) = (  0.2954150  0.4468880  0.9247790  )
         9           O   tau(   9) = (  0.5531120  0.2201940  0.5752210  )
        10           O   tau(  10) = (  0.8716670  0.7045850  0.5752210  )
        11           O   tau(  11) = (  0.2239760  0.8708150  0.0714370  )
        12           O   tau(  12) = (  0.7045860  0.5577470  0.0714370  )

     number of k points=     1  Methfessel-Paxton smearing, width (Ry)=  0.0010
                       cart. coord. in units 2pi/alat
        k(    1) = (   0.0000000   0.0000000   0.0000000), wk =   2.0000000

                       cryst. coord.
        k(    1) = (   0.0000000   0.0000000   0.0000000), wk =   2.0000000

     Check: negative core charge=   -0.000011

     Initial potential from superposition of free atoms

     starting charge      95.3438, renormalised to      96.0000

     negative rho (up, down):  1.260E-01 0.000E+00
     Starting wfcs are   95 randomized atomic wfcs
     Checking if some PAW data can be deallocated...

     Self-consistent Calculation

     iteration #  1     ecut=    30.00 Ry     beta= 0.70
     Davidson diagonalization with overlap

     ethr =  1.00E-02,  avg # of iterations =  2.0

     negative rho (up, down):  1.183E-01 0.000E+00

     total energy              =   -1305.63044688 Ry
     estimated scf accuracy    <       4.73478933 Ry

[...]

     total energy              =   -1308.52062489 Ry
     estimated scf accuracy    <       0.00000874 Ry

     iteration # 41     ecut=    30.00 Ry     beta= 0.70
     Davidson diagonalization with overlap

     ethr =  1.83E-09,  avg # of iterations =  2.0

[...]

     End of self-consistent calculation

          k = 0.0000 0.0000 0.0000 (  1506 PWs)   bands (ev):

   -66.9187 -66.9025 -36.7535 -32.1317 -31.2658 -31.2447 -31.2447 -31.2342
   -31.2211 -31.2209 -11.3827 -11.3022 -11.3011 -10.4116  -9.3529  -9.3283
    -9.3280  -9.3277  -8.8578  -8.7439  -8.7434   2.4874   2.7239   2.7728
     2.7728   2.9259   3.3467   3.4098   3.7797   4.0114   4.0114   4.0811
     4.5040   4.9652   4.9653   5.4475   5.6035   5.6038   5.7183   6.0810
     6.0814   6.3510   6.6678   6.9305   6.9305   8.2218   8.3294   8.3347
     8.3348   8.5170   8.6564   8.6567  10.7133  11.1330  11.4380  11.5127
    12.7190  12.8226

     occupation numbers
     1.0000   1.0000   1.0000   1.0000   1.0000   1.0000   1.0000   1.0000
     1.0000   1.0000   1.0000   1.0000   1.0000   1.0000   1.0000   1.0000
     1.0000   1.0000   1.0000   1.0000   1.0000   1.0000   1.0000   1.0000
     1.0000   1.0000   1.0000   1.0000   1.0000   1.0000   1.0000   1.0000
     1.0000   1.0000   1.0000   1.0000   1.0000   1.0000   1.0000   1.0000
     1.0000   1.0000   1.0000   1.0000   1.0000   1.0000   0.8572   0.5746
     0.5683  -0.0000  -0.0000  -0.0000  -0.0000  -0.0000  -0.0000  -0.0000
    -0.0000  -0.0000

     the Fermi energy is     8.3359 ev

!    total energy              =   -1308.52063022 Ry
     estimated scf accuracy    <       0.00000090 Ry
     smearing contrib. (-TS)   =      -0.00067457 Ry
     internal energy E=F+TS    =   -1308.51995565 Ry

     The total energy is F=E-TS. E is the sum of the following terms:
     one-electron contribution =    -300.25725343 Ry
     hartree contribution      =     198.47633120 Ry
     xc contribution           =    -164.97154454 Ry
     ewald contribution        =    -508.31658543 Ry
     one-center paw contrib.   =    -533.45090345 Ry
      -> PAW hartree energy AE =     389.92610151 Ry
      -> PAW hartree energy PS =    -382.29931547 Ry
      -> PAW xc energy AE      =    -620.21135497 Ry
      -> PAW xc energy PS      =      79.13366548 Ry
      -> total E_H with PAW    =     206.10311724 Ry
      -> total E_XC with PAW   =    -706.04923403 Ry

     convergence has been achieved in  41 iterations

     negative rho (up, down):  1.200E-01 0.000E+00

     Forces acting on atoms (cartesian axes, Ry/au):

     atom    1 type  1   force =     0.00000000    0.00000000    0.00000000
     atom    2 type  2   force =     0.00000000    0.00000000    0.00000000
     atom    3 type  3   force =     0.00000000    0.00000000    0.00000000
     atom    4 type  3   force =     0.00000000    0.00000000    0.00000000
     atom    5 type  4   force =    -0.01821475   -0.01558130   -0.02630191
     atom    6 type  4   force =     0.01821475    0.01558130   -0.02630192
     atom    7 type  4   force =    -0.02358091    0.01737517   -0.03611447
     atom    8 type  4   force =     0.02358091   -0.01737517   -0.03611447
     atom    9 type  4   force =     0.01737517    0.02358091    0.03611447
     atom   10 type  4   force =    -0.01737517   -0.02358091    0.03611448
     atom   11 type  4   force =     0.01558130   -0.01821475    0.02630192
     atom   12 type  4   force =    -0.01558130    0.01821475    0.02630192
     The non-local contrib.  to forces
     atom    1 type  1   force =     0.00000000    0.00000000    0.00000000
     atom    2 type  2   force =     0.00000000    0.00000000    0.00000000
     atom    3 type  3   force =     0.00000000    0.00000000    0.00000000
     atom    4 type  3   force =     0.00000000    0.00000000    0.00000000
     atom    5 type  4   force =    -0.58955632   -0.73990298   -0.33127585
     atom    6 type  4   force =     0.58955632    0.73990298   -0.33127632
     atom    7 type  4   force =    -0.73814037    0.26392945   -0.62622366
     atom    8 type  4   force =     0.73814037   -0.26392945   -0.62622383
     atom    9 type  4   force =     0.26392945    0.73814037    0.62622356
     atom   10 type  4   force =    -0.26392945   -0.73814037    0.62622392
     atom   11 type  4   force =     0.73990298   -0.58955632    0.33127606
     atom   12 type  4   force =    -0.73990298    0.58955632    0.33127611
     The ionic contribution  to forces
     atom    1 type  1   force =     0.00000902    0.00000338    0.00000000
     atom    2 type  2   force =    -0.00003273   -0.00000997    0.00000000
     atom    3 type  3   force =     0.00003932    0.00011568    0.00000000
     atom    4 type  3   force =    -0.00000841   -0.00002287    0.00000000
     atom    5 type  4   force =     5.66308279    6.48262722    0.10585151
     atom    6 type  4   force =    -5.66312585   -6.48270309    0.10594911
     atom    7 type  4   force =     6.33722127   -0.50016853    7.29521188
     atom    8 type  4   force =    -6.33722895    0.50015415    7.29521659
     atom    9 type  4   force =    -0.50015038   -6.33721750   -7.29520969
     atom   10 type  4   force =     0.50017230    6.33723272   -7.29521877
     atom   11 type  4   force =    -6.48265435    5.66309872   -0.10588229
     atom   12 type  4   force =     6.48267596   -5.66310992   -0.10591833
     The local contribution  to forces
     atom    1 type  1   force =    -0.00000119    0.00000266    0.00000837
     atom    2 type  2   force =     0.00006700    0.00029972    0.00046794
     atom    3 type  3   force =    -0.00006953   -0.00016929   -0.00012232
     atom    4 type  3   force =    -0.00001127    0.00005787   -0.00007807
     atom    5 type  4   force =    -5.09665546   -5.76481366    0.19688041
     atom    6 type  4   force =     5.09668059    5.76484604    0.19682368
     atom    7 type  4   force =    -5.62914399    0.25546107   -6.71024098
     atom    8 type  4   force =     5.62914813   -0.25541104   -6.71022676
     atom    9 type  4   force =     0.25538846    5.62901433    6.71017968
     atom   10 type  4   force =    -0.25541505   -5.62900625    6.71020353
     atom   11 type  4   force =     5.76480133   -5.09673794   -0.19703469
     atom   12 type  4   force =    -5.76481852    5.09670987   -0.19699038
     The core correction contribution to forces
     atom    1 type  1   force =     0.00000000    0.00000000    0.00000000
     atom    2 type  2   force =     0.00000000    0.00000001    0.00000001
     atom    3 type  3   force =     0.00000060   -0.00000126    0.00000467
     atom    4 type  3   force =    -0.00000058   -0.00000034   -0.00000095
     atom    5 type  4   force =     0.00505438    0.00642497    0.00216728
     atom    6 type  4   force =    -0.00505664   -0.00642402    0.00216754
     atom    7 type  4   force =     0.00634734   -0.00172538    0.00499878
     atom    8 type  4   force =    -0.00634403    0.00172258    0.00499516
     atom    9 type  4   force =    -0.00172273   -0.00634678   -0.00499823
     atom   10 type  4   force =     0.00172508    0.00634410   -0.00499918
     atom   11 type  4   force =    -0.00642544    0.00505668   -0.00216956
     atom   12 type  4   force =     0.00642389   -0.00505442   -0.00216722
     The Hubbard contrib.    to forces
     atom    1 type  1   force =     0.00000000    0.00000000    0.00000000
     atom    2 type  2   force =     0.00000000    0.00000000    0.00000000
     atom    3 type  3   force =     0.00000000    0.00000000    0.00000000
     atom    4 type  3   force =     0.00000000    0.00000000    0.00000000
     atom    5 type  4   force =     0.00000000    0.00000000    0.00000000
     atom    6 type  4   force =     0.00000000    0.00000000    0.00000000
     atom    7 type  4   force =     0.00000000    0.00000000    0.00000000
     atom    8 type  4   force =     0.00000000    0.00000000    0.00000000
     atom    9 type  4   force =     0.00000000    0.00000000    0.00000000
     atom   10 type  4   force =     0.00000000    0.00000000    0.00000000
     atom   11 type  4   force =     0.00000000    0.00000000    0.00000000
     atom   12 type  4   force =     0.00000000    0.00000000    0.00000000
     The SCF correction term to forces
     atom    1 type  1   force =    -0.00000757   -0.00000721   -0.00001070
     atom    2 type  2   force =    -0.00002403   -0.00020410    0.00004249
     atom    3 type  3   force =     0.00003058    0.00006670    0.00014265
     atom    4 type  3   force =     0.00001821   -0.00003524    0.00007088
     atom    5 type  4   force =    -0.00013220    0.00007733    0.00004624
     atom    6 type  4   force =     0.00013525   -0.00003434    0.00000943
     atom    7 type  4   force =     0.00013652   -0.00012369    0.00006628
     atom    8 type  4   force =    -0.00012973    0.00008838    0.00003919
     atom    9 type  4   force =    -0.00006854   -0.00001061   -0.00016418
     atom   10 type  4   force =     0.00007101   -0.00000902   -0.00017012
     atom   11 type  4   force =    -0.00004210   -0.00009037    0.00009549
     atom   12 type  4   force =     0.00005352    0.00013144    0.00006553

     Total force =     0.117108     Total SCF correction =     0.000544

     Computing stress (Cartesian axis) and pressure

     negative rho (up, down):  1.200E-01 0.000E+00
          total   stress  (Ry/bohr**3)                   (kbar)     P=     -404.29
  -0.00269036   0.00000000   0.00000000         -395.76        0.00        0.00
  -0.00000000  -0.00269036   0.00000000           -0.00     -395.76        0.00
   0.00000000   0.00000000  -0.00286419            0.00        0.00     -421.34

     kinetic stress (kbar)  22761.90      0.00     -0.00
                                0.00  22761.90     -0.00
                               -0.00     -0.00  22750.23

     local   stress (kbar)  -4441.79     -0.53     -0.18
                               -0.53  -4440.83      0.07
                               -0.18      0.07  -2068.50

     nonloc. stress (kbar)    305.34      0.00     -0.00
                                0.00    305.34     -0.00
                               -0.00     -0.00    297.74

     hartree stress (kbar)   9315.31      0.22      0.06
                                0.22   9314.99     -0.03
                                0.06     -0.03   8397.45

     exc-cor stress (kbar)   1827.52      0.00      0.00
                                0.00   1827.52     -0.00
                                0.00     -0.00   1825.98

     corecor stress (kbar)  -7578.07      0.00     -0.00
                                0.00  -7578.07     -0.00
                               -0.00     -0.00  -7576.23

     ewald   stress (kbar) -22586.29     -0.00     -0.00
                               -0.00 -22586.29     -0.00
                               -0.00     -0.00 -24048.02

     hubbard stress (kbar)      0.00      0.00      0.00
                                0.00      0.00      0.00
                                0.00      0.00      0.00

     DFT-D   stress (kbar)      0.00      0.00      0.00
                                0.00      0.00      0.00
                                0.00      0.00      0.00

     XDM     stress (kbar)      0.00      0.00      0.00
                                0.00      0.00      0.00
                                0.00      0.00      0.00

     dft-nl  stress (kbar)      0.00      0.00      0.00
                                0.00      0.00      0.00
                                0.00      0.00      0.00

     TS-vdW  stress (kbar)      0.00      0.00      0.00
                                0.00      0.00      0.00
                                0.00      0.00      0.00

[...]

                                0.00      0.00      0.00

     Writing all to output data dir new_calculations/myprefix.save/

     General routines

     Parallel routines

     PAW routines

   This run was terminated on:   2:49:28  21May2023

   JOB DONE.