     Program PWSCF v.7.1 starts on 16Jul2023 at 16:53:14

     Reading input from espresso_12877.pwi
Warning: card &CELL ignored
Warning: card / ignored

     Current dimensions of program PWSCF are:
     Max number of different atomic species (ntypx) = 10
     Max number of k-points (npk) =  40000
     Max angular momentum in pseudopotentials (lmaxx) =  4
     Message from routine setup:
     using ibrav=0 with symmetry is DISCOURAGED, use correct ibrav instead

     K-points division:     npool     =       2
     R & G space division:  proc/nbgrp/npool/nimage =       4
     Subspace diagonalization in iterative solution of the eigenvalue problem:
     a serial algorithm will be used

     Using Slab Decomposition

     bravais-lattice index     =            0
     lattice parameter (alat)  =      11.8006  a.u.
     unit-cell volume          =     694.2187 (a.u.)^3
     number of atoms/cell      =            4
     number of atomic types    =            2
     number of electrons       =        29.00
     number of Kohn-Sham states=           19
     kinetic-energy cutoff     =      30.0000  Ry
     charge density cutoff     =     240.0000  Ry
     scf convergence threshold =      1.0E-06
     mixing beta               =       0.7000
     number of iterations used =            8  plain     mixing
     Exchange-correlation= SLA  PW   PBE  PBE
                           (   1   4   3   4   0   0   0)

     celldm(1)=  11.800627  celldm(2)=   0.000000  celldm(3)=   0.000000
     celldm(4)=   0.000000  celldm(5)=   0.000000  celldm(6)=   0.000000

     crystal axes: (cart. coord. in units of alat)
               a(1) = (   1.000000   0.000000   0.000000 )
               a(2) = (   0.514537   0.857468   0.000000 )
               a(3) = (  -0.757268  -0.428734   0.492678 )

     reciprocal axes: (cart. coord. in units 2 pi/alat)
               b(1) = (  1.000000 -0.600065  1.014862 )
               b(2) = (  0.000000  1.166224  1.014862 )
               b(3) = (  0.000000  0.000000  2.029724 )

     PseudoPot. # 1 for Ac read from file:
     /lustre07/scratch/pragov/crystal_structure_design/utils/SSSP/Ac.us.z_11.ld1.psl.v1.0.0-high.upf
     MD5 check sum: 3a78bb30464666358a3ec0edb47f6656
     Pseudo is Ultrasoft + core correction, Zval = 11.0
     Generated using &quot;atomic&quot; code by A. Dal Corso  v.6.3MaX
     Using radial grid of 1289 points,  8 beta functions with:
                l(1) =   0
                l(2) =   0
                l(3) =   1
                l(4) =   1
                l(5) =   2
                l(6) =   2
                l(7) =   3
                l(8) =   3
     Q(r) pseudized with 0 coefficients

     PseudoPot. # 2 for Se read from file:
     /lustre07/scratch/pragov/crystal_structure_design/utils/SSSP/Se_pbe_v1.uspp.F.UPF
     MD5 check sum: 1b3568f3a8ae88f9a2a0ad0698632c85
     Pseudo is Ultrasoft + core correction, Zval =  6.0
     Generated by new atomic code, or converted to UPF format
     Using radial grid of  877 points,  6 beta functions with:
                l(1) =   0
                l(2) =   0
                l(3) =   1
                l(4) =   1
                l(5) =   2
                l(6) =   2
     Q(r) pseudized with  8 coefficients,  rinner =    1.300   1.300   1.300
                                                       1.300   1.300

     atomic species   valence    mass     pseudopotential
        Ac            11.00   227.02775     Ac( 1.00)
        Se             6.00    78.97100     Se( 1.00)

      4 Sym. Ops., with inversion, found

                                    s                        frac. trans.

      isym =  1     identity

 cryst.   s( 1) = (     1          0          0      )
                  (     0          1          0      )
                  (     0          0          1      )

 cart.    s( 1) = (  1.0000000  0.0000000  0.0000000 )
                  (  0.0000000  1.0000000  0.0000000 )
                  (  0.0000000  0.0000000  1.0000000 )

      isym =  2     180 deg rotation - cart. axis [0,0,1]

[...]

      isym =  3     inversion

[...]

      isym =  4     inv. 180 deg rotation - cart. axis [0,0,1]

 cryst.   s( 4) = (     1          0          0      )
                  (     0          1          0      )
                  (    -1         -1         -1      )

 cart.    s( 4) = (  1.0000000  0.0000000  0.0000000 )
                  (  0.0000000  1.0000000  0.0000000 )
                  (  0.0000000  0.0000000 -1.0000000 )

   Cartesian axes

     site n.     atom                  positions (alat units)
         1           Ac  tau(   1) = (   0.0000000   0.0000000   0.0000000  )
         2           Se  tau(   2) = (   0.5000000   0.0000000   0.2463390  )
         3           Se  tau(   3) = (   0.2572685   0.4287341   0.2463390  )
         4           Se  tau(   4) = (   0.7572685   0.4287341   0.0000000  )

   Crystallographic axes

     site n.     atom                  positions (cryst. coord.)
         1           Ac  tau(   1) = (  0.0000000  0.0000000  0.0000000  )
         2           Se  tau(   2) = (  0.7500000  0.2500000  0.5000000  )
         3           Se  tau(   3) = (  0.2500000  0.7500000  0.5000000  )
         4           Se  tau(   4) = (  0.5000000  0.5000000  0.0000000  )

     number of k points=    10  Gaussian smearing, width (Ry)=  0.0010
                       cart. coord. in units 2pi/alat
        k(    1) = (   0.0000000   0.0000000   0.0000000), wk =   0.0740741
        k(    2) = (   0.0000000   0.0000000   0.6765745), wk =   0.1481481
        k(    3) = (   0.0000000   0.3887413   0.3382873), wk =   0.2962963
        k(    4) = (   0.0000000   0.3887413   1.0148618), wk =   0.1481481
        k(    5) = (   0.3333333  -0.2000218   0.3382873), wk =   0.2962963
        k(    6) = (   0.3333333  -0.2000218   1.0148618), wk =   0.1481481
        k(    7) = (   0.3333333   0.1887196   0.6765745), wk =   0.2962963
        k(    8) = (   0.3333333   0.1887196   0.0000000), wk =   0.1481481
        k(    9) = (   0.3333333  -0.5887631   0.0000000), wk =   0.1481481
        k(   10) = (   0.3333333  -0.5887631   0.6765745), wk =   0.2962963

                       cryst. coord.
        k(    1) = (   0.0000000   0.0000000   0.0000000), wk =   0.0740741
        k(    2) = (   0.0000000   0.0000000   0.3333333), wk =   0.1481481
        k(    3) = (   0.0000000   0.3333333   0.0000000), wk =   0.2962963
        k(    4) = (   0.0000000   0.3333333   0.3333333), wk =   0.1481481
        k(    5) = (   0.3333333   0.0000000   0.0000000), wk =   0.2962963
        k(    6) = (   0.3333333   0.0000000   0.3333333), wk =   0.1481481
        k(    7) = (   0.3333333   0.3333333   0.0000000), wk =   0.2962963
        k(    8) = (   0.3333333   0.3333333  -0.3333333), wk =   0.1481481
        k(    9) = (   0.3333333  -0.3333333   0.0000000), wk =   0.1481481
        k(   10) = (   0.3333333  -0.3333333   0.3333333), wk =   0.2962963

     Initial potential from superposition of free atoms

     starting charge      28.9913, renormalised to      29.0000
     Starting wfcs are   25 randomized atomic wfcs

     Self-consistent Calculation

     iteration #  1     ecut=    30.00 Ry     beta= 0.70
     Davidson diagonalization with overlap

     ethr =  1.00E-02,  avg # of iterations =  3.9

     Threshold (ethr) on eigenvalues was too large:
     Diagonalizing with lowered threshold

     Davidson diagonalization with overlap

[...]

     total energy              =    -225.07777110 Ry
     estimated scf accuracy    <       0.09363573 Ry

[...]

     total energy              =    -225.12094584 Ry
     estimated scf accuracy    <       0.00000291 Ry

     iteration #  8     ecut=    30.00 Ry     beta= 0.70
     Davidson diagonalization with overlap

     ethr =  1.00E-08,  avg # of iterations =  3.8

     End of self-consistent calculation

          k = 0.0000 0.0000 0.0000 (  1929 PWs)   bands (ev):

   -25.8139  -5.6578  -5.5164  -5.5164  -5.0434  -2.9597  -2.1373   4.9289
     5.2589   5.2589   6.8325   7.4081   7.4081   9.4579  10.2782  10.2782
    11.9304  12.0029  12.2180

     occupation numbers
     1.0000   1.0000   1.0000   1.0000   1.0000   1.0000   1.0000   1.0000
     1.0000   1.0000   1.0000   1.0000   1.0000   0.0000   0.0000   0.0000
     0.0000   0.0000   0.0000

[...]

          k = 0.3333-0.5888 0.6766 (  1931 PWs)   bands (ev):

   -25.8044  -6.2741  -5.9268  -5.4535  -3.7775  -2.8795  -2.4056   4.8186
     5.7052   6.1602   6.2062   7.0821   7.2550   7.7412   8.1206   8.9078
    11.5688  12.4400  13.8161

     occupation numbers
     1.0000   1.0000   1.0000   1.0000   1.0000   1.0000   1.0000   1.0000
     1.0000   1.0000   1.0000   1.0000   1.0000   1.0000   1.0000   0.6250
     0.0000   0.0000   0.0000

     the Fermi energy is     8.9108 ev

!    total energy              =    -225.12094589 Ry
     estimated scf accuracy    <       0.00000058 Ry
     smearing contrib. (-TS)   =      -0.00007945 Ry
     internal energy E=F+TS    =    -225.12086644 Ry

     The total energy is F=E-TS. E is the sum of the following terms:
     one-electron contribution =      12.98319617 Ry
     hartree contribution      =       9.05747827 Ry
     xc contribution           =    -133.85759855 Ry
     ewald contribution        =    -113.30394232 Ry

     convergence has been achieved in   8 iterations

     Writing all to output data dir energy_m/myprefix.save/

     General routines

     Parallel routines

   This run was terminated on:  16:53:19  16Jul2023

   JOB DONE.