     Program PWSCF v.7.1 starts on 16Jul2023 at 16:50:20

     Reading input from espresso_12044.pwi
Warning: card &CELL ignored
Warning: card / ignored

     Current dimensions of program PWSCF are:
     Max number of different atomic species (ntypx) = 10
     Max number of k-points (npk) =  40000
     Max angular momentum in pseudopotentials (lmaxx) =  4
     file Fe.pbe-spn-kjpaw_psl.0.2.1.UPF: wavefunction(s)  3D renormalized
     Message from routine setup:
     using ibrav=0 with symmetry is DISCOURAGED, use correct ibrav instead

     K-points division:     npool     =       2
     R & G space division:  proc/nbgrp/npool/nimage =       4
     Subspace diagonalization in iterative solution of the eigenvalue problem:
     a serial algorithm will be used

     Using Slab Decomposition

     bravais-lattice index     =            0
     lattice parameter (alat)  =       9.4962  a.u.
     unit-cell volume          =    1187.9732 (a.u.)^3
     number of atoms/cell      =           13
     number of atomic types    =            3
     number of electrons       =       192.00
     number of Kohn-Sham states=          115
     kinetic-energy cutoff     =      30.0000  Ry
     charge density cutoff     =     240.0000  Ry
     scf convergence threshold =      1.0E-06
     mixing beta               =       0.7000
     number of iterations used =            8  plain     mixing
     Exchange-correlation=  SLA  PW   PBX  PBC
                           (   1   4   3   4   0   0   0)

     celldm(1)=   9.496178  celldm(2)=   0.000000  celldm(3)=   0.000000
     celldm(4)=   0.000000  celldm(5)=   0.000000  celldm(6)=   0.000000

     crystal axes: (cart. coord. in units of alat)
               a(1) = (   1.000000   0.000000   0.000000 )
               a(2) = (  -0.500000   0.866025   0.000000 )
               a(3) = (   0.000000   0.000000   1.601878 )

     reciprocal axes: (cart. coord. in units 2 pi/alat)
               b(1) = (  1.000000  0.577350  0.000000 )
               b(2) = (  0.000000  1.154700  0.000000 )
               b(3) = (  0.000000  0.000000  0.624267 )

     PseudoPot. # 1 for Ti read from file:
     /lustre07/scratch/pragov/crystal_structure_design/utils/SSSP/ti_pbe_v1.4.uspp.F.UPF
     MD5 check sum: 88a00a6731bd790ddea75d31a80cb452
     Pseudo is Ultrasoft + core correction, Zval = 12.0
     Generated by new atomic code, or converted to UPF format
     Using radial grid of  851 points,  6 beta functions with:
                l(1) =   0
                l(2) =   0
                l(3) =   1
                l(4) =   1
                l(5) =   2
                l(6) =   2
     Q(r) pseudized with  6 coefficients,  rinner =    1.000   1.000   1.000
                                                       1.000   1.000

     PseudoPot. # 2 for Fe read from file:
     /lustre07/scratch/pragov/crystal_structure_design/utils/SSSP/Fe.pbe-spn-kjpaw_psl.0.2.1.UPF
     MD5 check sum: e86618425769142926afa95317d90200
     Pseudo is Projector augmented-wave + core cor, Zval = 16.0
     Generated using "atomic" code by A. Dal Corso  v.5.0.99 svn rev. 10869
     Shape of augmentation charge: PSQ
     Using radial grid of 1191 points,  6 beta functions with:
                l(1) =   0
                l(2) =   0
                l(3) =   1
                l(4) =   1
                l(5) =   2
                l(6) =   2
     Q(r) pseudized with 0 coefficients

     PseudoPot. # 3 for Ge read from file:
     /lustre07/scratch/pragov/crystal_structure_design/utils/SSSP/ge_pbe_v1.4.uspp.F.UPF
     MD5 check sum: 9c9eaa91e581c3f09632fb3098b2c6b2
     Pseudo is Ultrasoft + core correction, Zval = 14.0
     Generated by new atomic code, or converted to UPF format
     Using radial grid of  873 points,  6 beta functions with:
                l(1) =   0
                l(2) =   0
                l(3) =   1
                l(4) =   1
                l(5) =   2
                l(6) =   2
     Q(r) pseudized with  8 coefficients,  rinner =    1.400   1.400   1.400
                                                       1.400   1.400

     atomic species   valence    mass     pseudopotential
        Ti            12.00    47.86700     Ti( 1.00)
        Fe            16.00    55.84500     Fe( 1.00)
        Ge            14.00    72.63000     Ge( 1.00)

     24 Sym. Ops., with inversion, found

                                    s                        frac. trans.

      isym =  1     identity

 cryst.   s( 1) = (     1          0          0      )
                  (     0          1          0      )
                  (     0          0          1      )

 cart.    s( 1) = (  1.0000000  0.0000000  0.0000000 )
                  (  0.0000000  1.0000000  0.0000000 )
                  (  0.0000000  0.0000000  1.0000000 )

      isym =  2     180 deg rotation - cart. axis [0,0,1]

[...]

      isym =  4     180 deg rotation - cart. axis [1,0,0]

[...]

      isym =  5      60 deg rotation - cryst. axis [0,0,1]

[...]

 cryst.   s( 9) = (     0         -1          0      )
                  (    -1          0          0      )
                  (     0          0         -1      )

 cart.    s( 9) = (  0.4999998 -0.8660255  0.0000000 )
                  ( -0.8660255 -0.4999998  0.0000000 )
                  (  0.0000000  0.0000000 -1.0000000 )

[...]

 cryst.   s(10) = (     1          1          0      )
                  (     0         -1          0      )
                  (     0          0         -1      )

 cart.    s(10) = (  0.5000002  0.8660251  0.0000000 )
                  (  0.8660255 -0.5000002  0.0000000 )
                  (  0.0000000  0.0000000 -1.0000000 )

[...]

      isym = 12     180 deg rotation - cryst. axis [1,1,0]

[...]

      isym = 13     inversion

[...]

      isym = 14     inv. 180 deg rotation - cart. axis [0,0,1]

[...]

      isym = 16     inv. 180 deg rotation - cart. axis [1,0,0]

[...]

      isym = 17     inv.  60 deg rotation - cryst. axis [0,0,1]

[...]

      isym = 24     inv. 180 deg rotation - cryst. axis [1,1,0]

 cryst.   s(24) = (     0         -1          0      )
                  (    -1          0          0      )
                  (     0          0          1      )

 cart.    s(24) = (  0.4999998 -0.8660255  0.0000000 )
                  ( -0.8660255 -0.4999998  0.0000000 )
                  (  0.0000000  0.0000000  1.0000000 )

   Cartesian axes

     site n.     atom                  positions (alat units)
         1           Ti  tau(   1) = (   0.0000000   0.0000000   0.0000000  )
         2           Fe  tau(   2) = (   0.5000000   0.0000000   0.3979529  )
         3           Fe  tau(   3) = (   0.2500001   0.4330127   0.3979529  )
         4           Fe  tau(   4) = (  -0.2499999   0.4330127   0.3979529  )
         5           Fe  tau(   5) = (   0.5000000   0.0000000   1.2039249  )
         6           Fe  tau(   6) = (   0.2500001   0.4330127   1.2039249  )
         7           Fe  tau(   7) = (  -0.2499999   0.4330127   1.2039249  )
         8           Ge  tau(   8) = (  -0.0000004   0.5773506   0.8009389  )
         9           Ge  tau(   9) = (   0.5000006   0.2886749   0.8009389  )
        10           Ge  tau(  10) = (  -0.0000004   0.5773506   0.0000000  )
        11           Ge  tau(  11) = (   0.5000006   0.2886749   0.0000000  )
        12           Ge  tau(  12) = (   0.0000000   0.0000000   1.0618143  )
        13           Ge  tau(  13) = (   0.0000000   0.0000000   0.5400635  )

   Crystallographic axes

     site n.     atom                  positions (cryst. coord.)
         1           Ti  tau(   1) = (  0.0000000  0.0000000  0.0000000  )
         2           Fe  tau(   2) = (  0.5000000  0.0000000  0.2484290  )
         3           Fe  tau(   3) = (  0.5000000  0.5000000  0.2484290  )
         4           Fe  tau(   4) = (  0.0000000  0.5000000  0.2484290  )
         5           Fe  tau(   5) = (  0.5000000  0.0000000  0.7515710  )
         6           Fe  tau(   6) = (  0.5000000  0.5000000  0.7515710  )
         7           Fe  tau(   7) = (  0.0000000  0.5000000  0.7515710  )
         8           Ge  tau(   8) = (  0.3333330  0.6666670  0.5000000  )
         9           Ge  tau(   9) = (  0.6666670  0.3333330  0.5000000  )
        10           Ge  tau(  10) = (  0.3333330  0.6666670  0.0000000  )
        11           Ge  tau(  11) = (  0.6666670  0.3333330  0.0000000  )
        12           Ge  tau(  12) = (  0.0000000  0.0000000  0.6628560  )
        13           Ge  tau(  13) = (  0.0000000  0.0000000  0.3371440  )

     number of k points=     6  Gaussian smearing, width (Ry)=  0.0010
                       cart. coord. in units 2pi/alat
        k(    1) = (   0.0000000   0.0000000   0.0000000), wk =   0.0740741
        k(    2) = (   0.0000000   0.0000000   0.2080891), wk =   0.1481481
        k(    3) = (   0.0000000   0.3849001   0.0000000), wk =   0.4444444
        k(    4) = (   0.0000000   0.3849001   0.2080891), wk =   0.8888889
        k(    5) = (   0.3333333   0.5773501   0.0000000), wk =   0.1481481
        k(    6) = (   0.3333333   0.5773501   0.2080891), wk =   0.2962963

                       cryst. coord.
        k(    1) = (   0.0000000   0.0000000   0.0000000), wk =   0.0740741
        k(    2) = (   0.0000000   0.0000000   0.3333333), wk =   0.1481481
        k(    3) = (   0.0000000   0.3333333   0.0000000), wk =   0.4444444
        k(    4) = (   0.0000000   0.3333333   0.3333333), wk =   0.8888889
        k(    5) = (   0.3333333   0.3333333   0.0000000), wk =   0.1481481
        k(    6) = (   0.3333333   0.3333333   0.3333333), wk =   0.2962963

     Check: negative core charge=   -0.000167

     Initial potential from superposition of free atoms

     starting charge     190.9921, renormalised to     192.0000

     negative rho (up, down):  1.550E-03 0.000E+00
     Starting wfcs are  142 randomized atomic wfcs
     Checking if some PAW data can be deallocated...

     Self-consistent Calculation

     iteration #  1     ecut=    30.00 Ry     beta= 0.70
     Davidson diagonalization with overlap

     ethr =  1.00E-02,  avg # of iterations =  2.3

     total energy              =   -3342.99330910 Ry
     estimated scf accuracy    <      38.74489111 Ry

[...]

     negative rho (up, down):  9.022E-04 0.000E+00

[...]

     total energy              =   -3374.76052258 Ry
     estimated scf accuracy    <       0.00000456 Ry

     iteration # 18     ecut=    30.00 Ry     beta= 0.70
     Davidson diagonalization with overlap

     ethr =  2.38E-09,  avg # of iterations =  1.5

     negative rho (up, down):  1.180E-03 0.000E+00

     End of self-consistent calculation

          k = 0.0000 0.0000 0.0000 (  3321 PWs)   bands (ev):

   -71.0337 -71.0279 -71.0135 -71.0134 -71.0032 -71.0030 -41.7493 -37.0867
   -37.0507 -36.8409 -36.8409 -36.8084 -36.8084 -36.5983 -36.5688 -36.5634
   -36.5634 -36.5590 -36.5590 -36.5354 -36.5321 -36.5320 -36.4991 -36.4817
   -36.4815 -18.0104 -18.0104 -17.9752  -8.9085  -8.9085  -8.8684  -8.8684
    -8.8622  -8.8622  -8.8506  -8.8323  -8.8323  -8.7964  -8.7828  -8.7614
    -8.7614  -8.7278  -8.7278  -8.7253  -8.7253  -8.7247  -8.7133  -8.7133
    -8.7125  -8.7125  -8.7075  -8.7075  -8.7021  -8.7021  -8.6722  -8.6722
    -8.6714  -8.6519   3.1812   4.9105   6.5844   7.8212   8.4911   9.4800
    10.3960  10.9676  10.9677  11.6619  11.9454  11.9782  11.9783  12.8599
    12.9295  12.9297  13.1679  13.1680  13.5161  13.5161  13.6068  13.6070
    13.6108  13.6278  13.6279  13.7702  14.5221  14.5222  14.9793  15.1488
    15.1490  15.4735  15.4736  15.5376  15.5377  15.5969  15.5970  15.6065
    15.6631  15.6632  15.6719  15.9490  16.6627  16.7406  16.7412  17.0842
    17.0843  17.1831  18.0855  18.0855  18.3531  18.3533  18.4536  18.7212
    18.7212  20.1449  20.1952

     occupation numbers
     1.0000   1.0000   1.0000   1.0000   1.0000   1.0000   1.0000   1.0000
     1.0000   1.0000   1.0000   1.0000   1.0000   1.0000   1.0000   1.0000
     1.0000   1.0000   1.0000   1.0000   1.0000   1.0000   1.0000   1.0000
     1.0000   1.0000   1.0000   1.0000   1.0000   1.0000   1.0000   1.0000
     1.0000   1.0000   1.0000   1.0000   1.0000   1.0000   1.0000   1.0000
     1.0000   1.0000   1.0000   1.0000   1.0000   1.0000   1.0000   1.0000
     1.0000   1.0000   1.0000   1.0000   1.0000   1.0000   1.0000   1.0000
     1.0000   1.0000   1.0000   1.0000   1.0000   1.0000   1.0000   1.0000
     1.0000   1.0000   1.0000   1.0000   1.0000   1.0000   1.0000   1.0000
     1.0000   1.0000   1.0000   1.0000   1.0000   1.0000   1.0000   1.0000
     1.0000   1.0000   1.0000   1.0000   1.0000   1.0000   1.0000   1.0000
     1.0000   1.0000   1.0000   1.0000   1.0000   1.0000   1.0000   1.0000
     0.9966   0.9965   0.9639   0.0000   0.0000   0.0000   0.0000   0.0000
     0.0000   0.0000   0.0000   0.0000   0.0000   0.0000   0.0000   0.0000
     0.0000   0.0000   0.0000

[...]

          k = 0.3333 0.5774 0.2081 (  3291 PWs)   bands (ev):

   -71.0201 -71.0199 -71.0184 -71.0183 -71.0048 -71.0030 -41.7492 -36.8928
   -36.8927 -36.8906 -36.8905 -36.7234 -36.7018 -36.6832 -36.6781 -36.6205
   -36.6204 -36.6175 -36.6174 -36.4981 -36.4980 -36.4909 -36.4907 -36.4821
   -36.4813 -18.0113 -18.0113 -17.9750  -8.9395  -8.8992  -8.8992  -8.8614
    -8.8428  -8.8428  -8.8333  -8.8234  -8.8139  -8.8139  -8.7931  -8.7828
    -8.7544  -8.7544  -8.7280  -8.7280  -8.7260  -8.7127  -8.7127  -8.7100
    -8.7100  -8.7065  -8.7065  -8.6904  -8.6843  -8.6816  -8.6816  -8.6746
    -8.6746  -8.6497   5.6872   5.8798   5.8800   6.3243   6.3245   7.6119
    10.4229  10.9842  10.9843  11.7626  11.7904  11.7904  12.6358  12.6359
    13.1071  13.1071  13.2961  13.2961  13.6029  13.6030  13.6822  13.6914
    13.7478  14.0593  14.2615  14.2616  14.3519  14.3520  14.9790  14.9791
    14.9964  15.0714  15.1834  15.1835  15.2697  15.5622  15.5623  15.7297
    15.8978  16.0108  16.2361  16.2361  16.4467  16.4468  16.6317  17.1764
    17.1764  17.2666  17.6386  17.6386  18.6758  18.6759  19.7584  20.7411
    20.7411  21.0794  21.0795

     occupation numbers
     1.0000   1.0000   1.0000   1.0000   1.0000   1.0000   1.0000   1.0000
     1.0000   1.0000   1.0000   1.0000   1.0000   1.0000   1.0000   1.0000
     1.0000   1.0000   1.0000   1.0000   1.0000   1.0000   1.0000   1.0000
     1.0000   1.0000   1.0000   1.0000   1.0000   1.0000   1.0000   1.0000
     1.0000   1.0000   1.0000   1.0000   1.0000   1.0000   1.0000   1.0000
     1.0000   1.0000   1.0000   1.0000   1.0000   1.0000   1.0000   1.0000
     1.0000   1.0000   1.0000   1.0000   1.0000   1.0000   1.0000   1.0000
     1.0000   1.0000   1.0000   1.0000   1.0000   1.0000   1.0000   1.0000
     1.0000   1.0000   1.0000   1.0000   1.0000   1.0000   1.0000   1.0000
     1.0000   1.0000   1.0000   1.0000   1.0000   1.0000   1.0000   1.0000
     1.0000   1.0000   1.0000   1.0000   1.0000   1.0000   1.0000   1.0000
     1.0000   1.0000   1.0000   1.0000   1.0000   1.0000   1.0000   0.0000
     0.0000   0.0000   0.0000   0.0000   0.0000   0.0000   0.0000   0.0000
     0.0000   0.0000   0.0000   0.0000   0.0000   0.0000   0.0000   0.0000
     0.0000   0.0000   0.0000

     the Fermi energy is    15.6891 ev

!    total energy              =   -3374.76052289 Ry
     estimated scf accuracy    <       0.00000010 Ry
     smearing contrib. (-TS)   =      -0.00031910 Ry
     internal energy E=F+TS    =   -3374.76020379 Ry

     The total energy is F=E-TS. E is the sum of the following terms:
     one-electron contribution =   -1437.88233698 Ry
     hartree contribution      =     879.86666890 Ry
     xc contribution           =    -576.76670731 Ry
     ewald contribution        =   -1783.54774520 Ry
     one-center paw contrib.   =    -456.43008320 Ry
      -> PAW hartree energy AE =     215.18326829 Ry
      -> PAW hartree energy PS =    -214.40012101 Ry
      -> PAW xc energy AE      =    -111.37955894 Ry
      -> PAW xc energy PS      =      34.52473112 Ry
      -> total E_H with PAW    =     880.64981619 Ry
      -> total E_XC with PAW   =    -653.62153512 Ry

     convergence has been achieved in  18 iterations

     Writing all to output data dir energy_m/myprefix.save/

     General routines

     Parallel routines

     PAW routines

   This run was terminated on:  16:50:45  16Jul2023

   JOB DONE.