     Program PWSCF v.7.0 starts on 20May2023 at 11:36:28

     Reading input from espresso_465.pwi
Warning: card &CELL ignored
Warning: card / ignored

     Current dimensions of program PWSCF are:
     Max number of different atomic species (ntypx) = 10
     Max number of k-points (npk) =  40000
     Max angular momentum in pseudopotentials (lmaxx) =  4

     gamma-point specific algorithms are used
     Message from routine setup:
     using ibrav=0 with symmetry is DISCOURAGED, use correct ibrav instead

     Subspace diagonalization in iterative solution of the eigenvalue problem:
     a serial algorithm will be used

     Using Slab Decomposition

     bravais-lattice index     =            0
     lattice parameter (alat)  =      14.8592  a.u.
     unit-cell volume          =    2240.3132 (a.u.)^3
     number of atoms/cell      =            8
     number of atomic types    =            2
     number of electrons       =       164.00
     number of Kohn-Sham states=           98
     kinetic-energy cutoff     =      30.0000  Ry
     charge density cutoff     =     240.0000  Ry
     scf convergence threshold =      1.0E-06
     mixing beta               =       0.7000
     number of iterations used =            8  plain     mixing
     Exchange-correlation= SLA PW PBX PBC
                           (   1   4   3   4   0   0   0)

     celldm(1)=  14.859151  celldm(2)=   0.000000  celldm(3)=   0.000000
     celldm(4)=   0.000000  celldm(5)=   0.000000  celldm(6)=   0.000000

     crystal axes: (cart. coord. in units of alat)
               a(1) = (   1.000000   0.000000   0.000000 )
               a(2) = (  -0.500000   0.866025   0.000000 )
               a(3) = (   0.000000   0.000000   0.788490 )

     reciprocal axes: (cart. coord. in units 2 pi/alat)
               b(1) = (  1.000000  0.577350  0.000000 )
               b(2) = (  0.000000  1.154701  0.000000 )
               b(3) = (  0.000000  0.000000  1.268247 )

     PseudoPot. # 1 for Ca read from file:
     /home/pragov/projects/rrg-bengioy-ad/pragov/crystal_structure_design/SSSP/Ca_pbe_v1.uspp.F.UPF
     MD5 check sum: 403a4c14b9e4d4dfdc3024c9a3812218
     Pseudo is Ultrasoft + core correction, Zval = 10.0
     Generated by new atomic code, or converted to UPF format
     Using radial grid of  845 points,  6 beta functions with:
                l(1) =   0
                l(2) =   0
                l(3) =   1
                l(4) =   1
                l(5) =   2
                l(6) =   2
     Q(r) pseudized with  8 coefficients,  rinner =    1.500   1.500   1.500
                                                       1.500   1.500

     PseudoPot. # 2 for Yb read from file:
     /home/pragov/projects/rrg-bengioy-ad/pragov/crystal_structure_design/SSSP/Yb.GGA-PBE-paw-v1.0.UPF
     MD5 check sum: 43b6465ad8021f06e3edb42ae292e187
     Pseudo is Projector augmented-wave + core cor, Zval = 24.0
     Generated using ATOMPAW code
     Shape of augmentation charge: BESSEL
     Using radial grid of 1117 points,  8 beta functions with:
                l(1) =   0
                l(2) =   0
                l(3) =   1
                l(4) =   1
                l(5) =   2
                l(6) =   2
                l(7) =   3
                l(8) =   3
     Q(r) pseudized with 0 coefficients

     atomic species   valence    mass     pseudopotential
        Ca            10.00    40.07800     Ca( 1.00)
        Yb            24.00   173.05400     Yb( 1.00)

     24 Sym. Ops., with inversion, found (12 have fractional translation)

                                    s                        frac. trans.

      isym =  1     identity

 cryst.   s( 1) = (     1          0          0      )
                  (     0          1          0      )
                  (     0          0          1      )

 cart.    s( 1) = (  1.0000000 -0.0000000  0.0000000 )
                  (  0.0000000  1.0000000  0.0000000 )
                  (  0.0000000  0.0000000  1.0000000 )

      isym =  2     180 deg rotation - cart. axis [0,0,1]

 cryst.   s( 2) = (    -1          0          0      )    f =( -0.0000000 )
                  (     0         -1          0      )       (  0.0000000 )
                  (     0          0          1      )       (  0.5000000 )

 cart.    s( 2) = ( -1.0000000  0.0000000  0.0000000 )    f =( -0.0000000 )
                  (  0.0000000 -1.0000000  0.0000000 )       (  0.0000000 )
                  (  0.0000000  0.0000000  1.0000000 )       (  0.3942450 )

[...]

      isym =  4     180 deg rotation - cart. axis [1,0,0]

[...]

      isym =  5      60 deg rotation - cryst. axis [0,0,1]

[...]

 cryst.   s( 8) = (    -1         -1          0      )
                  (     1          0          0      )
                  (     0          0          1      )

 cart.    s( 8) = ( -0.5000000  0.8660254  0.0000000 )
                  ( -0.8660254 -0.5000000  0.0000000 )
                  (  0.0000000  0.0000000  1.0000000 )

[...]

 cryst.   s( 9) = (     0         -1          0      )    f =(  0.0000000 )
                  (    -1          0          0      )       (  0.0000000 )
                  (     0          0         -1      )       (  0.5000000 )

 cart.    s( 9) = (  0.5000000 -0.8660254  0.0000000 )    f =(  0.0000000 )
                  ( -0.8660254 -0.5000000  0.0000000 )       (  0.0000000 )
                  (  0.0000000  0.0000000 -1.0000000 )       (  0.3942450 )

[...]

 cryst.   s(10) = (     1          1          0      )    f =(  0.0000000 )
                  (     0         -1          0      )       ( -0.0000010 )
                  (     0          0         -1      )       (  0.5000000 )

 cart.    s(10) = (  0.5000000  0.8660254  0.0000000 )    f =(  0.0000005 )
                  (  0.8660254 -0.5000000  0.0000000 )       ( -0.0000009 )
                  (  0.0000000  0.0000000 -1.0000000 )       (  0.3942450 )

[...]

 cryst.   s(11) = (    -1         -1          0      )
                  (     0          1          0      )
                  (     0          0         -1      )

 cart.    s(11) = ( -0.5000000 -0.8660254  0.0000000 )
                  ( -0.8660254  0.5000000  0.0000000 )
                  (  0.0000000  0.0000000 -1.0000000 )

      isym = 12     180 deg rotation - cryst. axis [1,1,0]

[...]

      isym = 13     inversion

[...]

      isym = 14     inv. 180 deg rotation - cart. axis [0,0,1]

[...]

      isym = 16     inv. 180 deg rotation - cart. axis [1,0,0]

[...]

      isym = 17     inv.  60 deg rotation - cryst. axis [0,0,1]

[...]

 cryst.   s(22) = (    -1         -1          0      )    f =( -0.0000000 )
                  (     0          1          0      )       ( -0.0000010 )
                  (     0          0          1      )       (  0.5000000 )

 cart.    s(22) = ( -0.5000000 -0.8660254  0.0000000 )    f =(  0.0000005 )
                  ( -0.8660254  0.5000000  0.0000000 )       ( -0.0000009 )
                  (  0.0000000  0.0000000  1.0000000 )       (  0.3942450 )

[...]

      isym = 24     inv. 180 deg rotation - cryst. axis [1,1,0]

 cryst.   s(24) = (     0         -1          0      )
                  (    -1          0          0      )
                  (     0          0          1      )

 cart.    s(24) = (  0.5000000 -0.8660254  0.0000000 )
                  ( -0.8660254 -0.5000000  0.0000000 )
                  (  0.0000000  0.0000000  1.0000000 )

   Cartesian axes

     site n.     atom                  positions (alat units)
         1           Ca  tau(   1) = (  -0.0000005   0.5773506   0.5913674  )
         2           Ca  tau(   2) = (   0.5000005   0.2886748   0.1971225  )
         3           Yb  tau(   3) = (   0.0000000   0.2883709   0.1971225  )
         4           Yb  tau(   4) = (   0.2502635   0.7218400   0.1971225  )
         5           Yb  tau(   5) = (  -0.2502635   0.7218400   0.1971225  )
         6           Yb  tau(   6) = (   0.5000000   0.5776545   0.5913674  )
         7           Yb  tau(   7) = (   0.2497365   0.1441854   0.5913674  )
         8           Yb  tau(   8) = (   0.7502635   0.1441854   0.5913674  )

   Crystallographic axes

     site n.     atom                  positions (cryst. coord.)
         1           Ca  tau(   1) = (  0.3333330  0.6666670  0.7500000  )
         2           Ca  tau(   2) = (  0.6666670  0.3333330  0.2500000  )
         3           Yb  tau(   3) = (  0.1664910  0.3329820  0.2500000  )
         4           Yb  tau(   4) = (  0.6670180  0.8335090  0.2500000  )
         5           Yb  tau(   5) = (  0.1664910  0.8335090  0.2500000  )
         6           Yb  tau(   6) = (  0.8335090  0.6670180  0.7500000  )
         7           Yb  tau(   7) = (  0.3329820  0.1664910  0.7500000  )
         8           Yb  tau(   8) = (  0.8335090  0.1664910  0.7500000  )

     number of k points=     1  Methfessel-Paxton smearing, width (Ry)=  0.0010
                       cart. coord. in units 2pi/alat
        k(    1) = (   0.0000000   0.0000000   0.0000000), wk =   2.0000000

                       cryst. coord.
        k(    1) = (   0.0000000   0.0000000   0.0000000), wk =   2.0000000

     Initial potential from superposition of free atoms

     starting charge     163.9650, renormalised to     164.0000
     Starting wfcs are  212 randomized atomic wfcs
     Checking if some PAW data can be deallocated...

     Self-consistent Calculation

     iteration #  1     ecut=    30.00 Ry     beta= 0.70
     Davidson diagonalization with overlap

     ethr =  1.00E-02,  avg # of iterations =  3.0

     total energy              =   -6213.87649901 Ry
     estimated scf accuracy    <       2.07769970 Ry

[...]

     total energy              =   -6216.36870781 Ry
     estimated scf accuracy    <       0.00000719 Ry

     iteration # 35     ecut=    30.00 Ry     beta= 0.70
     Davidson diagonalization with overlap

     ethr =  1.36E-09,  avg # of iterations =  2.0

     End of self-consistent calculation

          k = 0.0000 0.0000 0.0000 (  3104 PWs)   bands (ev):

   -43.7014 -43.6966 -43.6965 -43.6951 -43.6935 -43.6933 -33.5175 -33.5174
   -16.1668 -16.1142 -16.1140 -16.0464 -16.0423 -16.0422 -16.0190 -16.0141
   -16.0140 -16.0109 -16.0001 -16.0000 -15.9745 -15.9192 -15.9080 -15.9078
   -15.9073 -15.9072 -14.5715 -14.5712 -14.4656 -14.4655 -14.4654 -14.4654
     3.7552   6.6660   6.6660   6.8671   7.1665   7.5508   7.5508   7.6995
     8.0783   8.0890   8.0914   8.1025   8.1026   8.1097   8.1151   8.1152
     8.1163   8.1164   8.1311   8.1418   8.1446   8.1446   8.1539   8.1542
     8.1542   8.1587   8.1589   8.1625   8.1625   8.1655   8.1682   8.1682
     8.1747   8.1749   8.1905   8.1907   8.1907   8.2124   8.2142   8.2230
     8.2285   8.2287   8.2429   8.2430   8.2779   8.2781   8.2827   8.2846
     8.2847   8.2920   8.4421   8.5693   8.5694   8.6137   8.6138   8.6331
     8.6499   9.9302  10.0125  10.0126  10.6670  10.6671  10.6973  10.6973
    10.7275  10.7334

     occupation numbers
     1.0000   1.0000   1.0000   1.0000   1.0000   1.0000   1.0000   1.0000
     1.0000   1.0000   1.0000   1.0000   1.0000   1.0000   1.0000   1.0000
     1.0000   1.0000   1.0000   1.0000   1.0000   1.0000   1.0000   1.0000
     1.0000   1.0000   1.0000   1.0000   1.0000   1.0000   1.0000   1.0000
     1.0000   1.0000   1.0000   1.0000   1.0000   1.0000   1.0000   1.0000
     1.0000   1.0000   1.0000   1.0000   1.0000   1.0000   1.0000   1.0000
     1.0000   1.0000   1.0000   1.0000   1.0000   1.0000   1.0000   1.0000
     1.0000   1.0000   1.0000   1.0000   1.0000   1.0000   1.0000   1.0000
     1.0000   1.0000   1.0000   1.0000   1.0000   1.0000   1.0000   1.0000
     1.0000   1.0000   1.0000   1.0000   1.0000   1.0000   1.0000   1.0000
     1.0000   1.0000  -0.0000  -0.0000  -0.0000  -0.0000  -0.0000  -0.0000
    -0.0000  -0.0000  -0.0000  -0.0000  -0.0000  -0.0000  -0.0000  -0.0000
    -0.0000  -0.0000

     the Fermi energy is     8.3585 ev

!    total energy              =   -6216.36870805 Ry
     estimated scf accuracy    <       0.00000029 Ry
     smearing contrib. (-TS)   =       0.00000000 Ry
     internal energy E=F+TS    =   -6216.36870805 Ry

     The total energy is F=E-TS. E is the sum of the following terms:
     one-electron contribution =   -2712.45700323 Ry
     hartree contribution      =    1198.12756781 Ry
     xc contribution           =    -251.89686825 Ry
     ewald contribution        =   -1546.02920581 Ry
     one-center paw contrib.   =   -2904.11319857 Ry
      -> PAW hartree energy AE =    2700.38830314 Ry
      -> PAW hartree energy PS =   -2318.25970025 Ry
      -> PAW xc energy AE      =   -3509.41625998 Ry
      -> PAW xc energy PS      =     223.17445853 Ry
      -> total E_H with PAW    =    1580.25617070 Ry
      -> total E_XC with PAW   =   -3538.13866971 Ry

     convergence has been achieved in  35 iterations

     Forces acting on atoms (cartesian axes, Ry/au):

     atom    1 type  1   force =     0.00000000    0.00000000    0.00000000
     atom    2 type  1   force =     0.00000000   -0.00000000    0.00000000
     atom    3 type  2   force =    -0.00000000   -0.00140928   -0.00000000
     atom    4 type  2   force =     0.00122048    0.00070464    0.00000000
     atom    5 type  2   force =    -0.00122048    0.00070464    0.00000000
     atom    6 type  2   force =     0.00000000    0.00140928    0.00000000
     atom    7 type  2   force =    -0.00122048   -0.00070464   -0.00000000
     atom    8 type  2   force =     0.00122048   -0.00070464   -0.00000000
     The non-local contrib.  to forces
     atom    1 type  1   force =    -0.00000000   -0.00000000    0.00000000
     atom    2 type  1   force =     0.00000000    0.00000000    0.00000000
     atom    3 type  2   force =    -0.00000000    0.01154561    0.00000000
     atom    4 type  2   force =    -0.00999879   -0.00577280    0.00000000
     atom    5 type  2   force =     0.00999879   -0.00577280   -0.00000000
     atom    6 type  2   force =     0.00000000   -0.01154561    0.00000000
     atom    7 type  2   force =     0.00999879    0.00577280   -0.00000000
     atom    8 type  2   force =    -0.00999879    0.00577280    0.00000000
     The ionic contribution  to forces
     atom    1 type  1   force =     0.00004645   -0.00002682   -0.00000000
     atom    2 type  1   force =    -0.00004645    0.00002682    0.00000000
     atom    3 type  2   force =     0.00004716    8.86615589    0.00000000
     atom    4 type  2   force =    -7.67829273   -4.43311866    0.00000000
     atom    5 type  2   force =     7.67829122   -4.43306359    0.00000000
     atom    6 type  2   force =    -0.00004717   -8.86615589   -0.00000000
     atom    7 type  2   force =     7.67829273    4.43311866   -0.00000000
     atom    8 type  2   force =    -7.67829122    4.43306359   -0.00000000
     The local contribution  to forces
     atom    1 type  1   force =    -0.00024308    0.00012343    0.00002667
     atom    2 type  1   force =     0.00008104   -0.00021082   -0.00001789
     atom    3 type  2   force =    -0.00021717   -8.87972260   -0.00068724
     atom    4 type  2   force =     7.68837591    4.44028637   -0.00006949
     atom    5 type  2   force =    -7.68923211    4.43966174   -0.00013120
     atom    6 type  2   force =     0.00041989    8.87947434    0.00046036
     atom    7 type  2   force =    -7.68978379   -4.44041005    0.00016040
     atom    8 type  2   force =     7.68879658   -4.43947528   -0.00002443
     The core correction contribution to forces
     atom    1 type  1   force =    -0.00000032    0.00000062   -0.00000015
     atom    2 type  1   force =    -0.00000064    0.00000014    0.00000008
     atom    3 type  2   force =    -0.00000000   -0.00000009   -0.00000000
     atom    4 type  2   force =     0.00000007    0.00000004   -0.00000000
     atom    5 type  2   force =    -0.00000007    0.00000004   -0.00000000
     atom    6 type  2   force =     0.00000000    0.00000009    0.00000000
     atom    7 type  2   force =    -0.00000008   -0.00000005    0.00000000
     atom    8 type  2   force =     0.00000007   -0.00000004   -0.00000000
     The Hubbard contrib.    to forces
     atom    1 type  1   force =     0.00000000    0.00000000    0.00000000
     atom    2 type  1   force =     0.00000000    0.00000000    0.00000000
     atom    3 type  2   force =     0.00000000    0.00000000    0.00000000
     atom    4 type  2   force =     0.00000000    0.00000000    0.00000000
     atom    5 type  2   force =     0.00000000    0.00000000    0.00000000
     atom    6 type  2   force =     0.00000000    0.00000000    0.00000000
     atom    7 type  2   force =     0.00000000    0.00000000    0.00000000
     atom    8 type  2   force =     0.00000000    0.00000000    0.00000000
     The SCF correction term to forces
     atom    1 type  1   force =     0.00020177   -0.00009339   -0.00001447
     atom    2 type  1   force =    -0.00004288    0.00018508    0.00000695
     atom    3 type  2   force =     0.00010642    0.00059354    0.00066496
     atom    4 type  2   force =     0.00110071   -0.00067102    0.00001613
     atom    5 type  2   force =    -0.00016117   -0.00011476    0.00000947
     atom    6 type  2   force =    -0.00024967   -0.00030734   -0.00041638
     atom    7 type  2   force =     0.00022410    0.00069747   -0.00010535
     atom    8 type  2   force =     0.00068657   -0.00000306    0.00008226

     Total force =     0.003452     Total SCF correction =     0.001987
     SCF correction compared to forces is large: reduce conv_thr to get better values

     Computing stress (Cartesian axis) and pressure

          total   stress  (Ry/bohr**3)                   (kbar)     P=      -23.38
  -0.00001823   0.00000000  -0.00000000           -2.68        0.00       -0.00
   0.00000000  -0.00001823   0.00000000            0.00       -2.68        0.00
   0.00000000   0.00000000  -0.00044039            0.00        0.00      -64.78

     kinetic stress (kbar)   7089.70     -0.00      0.00
                               -0.00   7089.70      0.00
                                0.00      0.00   6933.85

     local   stress (kbar)  -2860.69      0.04      0.00
                                0.04  -2860.56      0.00
                                0.00      0.00  -6233.91

     nonloc. stress (kbar)   9789.34     -0.00      0.00
                               -0.00   9789.34     -0.00
                                0.00      0.00   9733.15

     hartree stress (kbar)  25760.03     -0.04     -0.00
                               -0.04  25759.90      0.00
                               -0.00      0.00  27152.39

     exc-cor stress (kbar)  -5007.91      0.00      0.00
                                0.00  -5007.91     -0.00
                                0.00     -0.00  -5008.81

     corecor stress (kbar)   -223.87      0.00      0.00
                                0.00   -223.87      0.00
                                0.00      0.00   -223.55

     ewald   stress (kbar) -34549.29     -0.01     -0.00
                               -0.01 -34549.30     -0.00
                               -0.00     -0.00 -32417.91

     hubbard stress (kbar)      0.00      0.00      0.00
                                0.00      0.00      0.00
                                0.00      0.00      0.00

     DFT-D   stress (kbar)      0.00      0.00      0.00
                                0.00      0.00      0.00
                                0.00      0.00      0.00

     XDM     stress (kbar)      0.00      0.00      0.00
                                0.00      0.00      0.00
                                0.00      0.00      0.00

     dft-nl  stress (kbar)      0.00      0.00      0.00
                                0.00      0.00      0.00
                                0.00      0.00      0.00

     TS-vdW  stress (kbar)      0.00      0.00      0.00
                                0.00      0.00      0.00
                                0.00      0.00      0.00

[...]

                                0.00      0.00      0.00

     Writing all to output data dir new_calculations/myprefix.save/

     General routines

     Parallel routines

     PAW routines

   This run was terminated on:  11:38:50  20May2023

   JOB DONE.