     Program PWSCF v.7.0 starts on 21May2023 at  8: 3: 2

     Reading input from espresso_18995.pwi
Warning: card &CELL ignored
Warning: card / ignored

     Current dimensions of program PWSCF are:
     Max number of different atomic species (ntypx) = 10
     Max number of k-points (npk) =  40000
     Max angular momentum in pseudopotentials (lmaxx) =  4
     file O.pbe-n-kjpaw_psl.0.1.UPF: wavefunction(s)  2P renormalized

     gamma-point specific algorithms are used
     Message from routine setup:
     using ibrav=0 with symmetry is DISCOURAGED, use correct ibrav instead

     Subspace diagonalization in iterative solution of the eigenvalue problem:
     a serial algorithm will be used

     Using Slab Decomposition

     bravais-lattice index     =            0
     lattice parameter (alat)  =       7.5897  a.u.
     unit-cell volume          =    1027.9199 (a.u.)^3
     number of atoms/cell      =           14
     number of atomic types    =            3
     number of electrons       =       102.00
     number of Kohn-Sham states=           61
     kinetic-energy cutoff     =      30.0000  Ry
     charge density cutoff     =     240.0000  Ry
     scf convergence threshold =      1.0E-06
     mixing beta               =       0.7000
     number of iterations used =            8  plain     mixing
     Exchange-correlation= SLA  PW   PBX  PBC
                           (   1   4   3   4   0   0   0)

     celldm(1)=   7.589709  celldm(2)=   0.000000  celldm(3)=   0.000000
     celldm(4)=   0.000000  celldm(5)=   0.000000  celldm(6)=   0.000000

     crystal axes: (cart. coord. in units of alat)
               a(1) = (   1.000000   0.000000   0.000000 )
               a(2) = (  -0.500000   1.497543   0.000000 )
               a(3) = (   0.000000  -0.483525   1.570018 )

     reciprocal axes: (cart. coord. in units 2 pi/alat)
               b(1) = (  1.000000  0.333880  0.102826 )
               b(2) = (  0.000000  0.667760  0.205653 )
               b(3) = (  0.000000  0.000000  0.636936 )

     PseudoPot. # 1 for Li read from file:
     /home/pragov/projects/rrg-bengioy-ad/pragov/crystal_structure_design/SSSP/li_pbe_v1.4.uspp.F.UPF
     MD5 check sum: e912e257baa3777c20ea3d68f190483c
     Pseudo is Ultrasoft, Zval =  3.0
     Generated by new atomic code, or converted to UPF format
     Using radial grid of  751 points,  5 beta functions with:
                l(1) =   0
                l(2) =   0
                l(3) =   0
                l(4) =   1
                l(5) =   1
     Q(r) pseudized with 10 coefficients,  rinner =    1.150   1.150   1.150

     PseudoPot. # 2 for Ti read from file:
     /home/pragov/projects/rrg-bengioy-ad/pragov/crystal_structure_design/SSSP/ti_pbe_v1.4.uspp.F.UPF
     MD5 check sum: 88a00a6731bd790ddea75d31a80cb452
     Pseudo is Ultrasoft + core correction, Zval = 12.0
     Generated by new atomic code, or converted to UPF format
     Using radial grid of  851 points,  6 beta functions with:
                l(1) =   0
                l(2) =   0
                l(3) =   1
                l(4) =   1
                l(5) =   2
                l(6) =   2
     Q(r) pseudized with  6 coefficients,  rinner =    1.000   1.000   1.000
                                                       1.000   1.000

     PseudoPot. # 3 for O  read from file:
     /home/pragov/projects/rrg-bengioy-ad/pragov/crystal_structure_design/SSSP/O.pbe-n-kjpaw_psl.0.1.UPF
     MD5 check sum: 0234752ac141de4415c5fc33072bef88
     Pseudo is Projector augmented-wave + core cor, Zval =  6.0
     Generated using "atomic" code by A. Dal Corso  v.5.0.99 svn rev. 10869
     Shape of augmentation charge: BESSEL
     Using radial grid of 1095 points,  4 beta functions with:
                l(1) =   0
                l(2) =   0
                l(3) =   1
                l(4) =   1
     Q(r) pseudized with 0 coefficients

     atomic species   valence    mass     pseudopotential
        Li             3.00     6.94000     Li( 1.00)
        Ti            12.00    47.86700     Ti( 1.00)
        O              6.00    15.99900     O ( 1.00)

      4 Sym. Ops., with inversion, found

                                    s                        frac. trans.

      isym =  1     identity

 cryst.   s( 1) = (     1          0          0      )
                  (     0          1          0      )
                  (     0          0          1      )

 cart.    s( 1) = (  1.0000000  0.0000000 -0.0000000 )
                  (  0.0000000  1.0000000 -0.0000000 )
                  (  0.0000000  0.0000000  1.0000000 )

      isym =  2     180 deg rotation - cart. axis [1,0,0]

[...]

      isym =  3     inversion

[...]

      isym =  4     inv. 180 deg rotation - cart. axis [1,0,0]

 cryst.   s( 4) = (    -1          0          0      )
                  (     1          1          0      )
                  (     0          0          1      )

 cart.    s( 4) = ( -1.0000000 -0.0000002 -0.0000001 )
                  (  0.0000000  1.0000000 -0.0000000 )
                  (  0.0000000  0.0000000  1.0000000 )

   Cartesian axes

     site n.     atom                  positions (alat units)
         1           Li  tau(   1) = (   0.5000004   1.0119433   1.0216607  )
         2           Li  tau(   2) = (  -0.0000005   0.0020753   0.5483569  )
         3           Ti  tau(   3) = (   0.0000004   0.5211580   1.1218921  )
         4           Ti  tau(   4) = (   0.4999994   0.4928606   0.4481254  )
         5           Ti  tau(   5) = (  -0.0000001   1.0167391   0.4570808  )
         6           Ti  tau(   6) = (   0.5000000  -0.0027205   1.1129368  )
         7           O   tau(   7) = (   0.0000004   0.5676567   1.5688494  )
         8           O   tau(   8) = (   0.4999995   0.4463619   0.0011681  )
         9           O   tau(   9) = (   0.0000004   0.5131074   0.5395805  )
        10           O   tau(  10) = (   0.4999994   0.5009113   1.0304370  )
        11           O   tau(  11) = (  -0.0000005   0.0174667   1.0574586  )
        12           O   tau(  12) = (   0.5000004   0.9965519   0.5125589  )
        13           O   tau(  13) = (   0.0000004   1.0067337   1.0073295  )
        14           O   tau(  14) = (   0.4999995   0.0072849   0.5626880  )

   Crystallographic axes

     site n.     atom                  positions (cryst. coord.)
         1           Li  tau(   1) = (  0.9429220  0.8858430  0.6507320  )
         2           Li  tau(   2) = (  0.0570780  0.1141570  0.3492680  )
         3           Ti  tau(   3) = (  0.2893650  0.5787290  0.7145730  )
         4           Ti  tau(   4) = (  0.7106350  0.4212710  0.2854270  )
         5           Ti  tau(   5) = (  0.3864690  0.7729380  0.2911310  )
         6           Ti  tau(   6) = (  0.6135310  0.2270620  0.7088690  )
         7           O   tau(   7) = (  0.3508490  0.7016970  0.9992560  )
         8           O   tau(   8) = (  0.6491510  0.2983030  0.0007440  )
         9           O   tau(   9) = (  0.2268000  0.4535990  0.3436780  )
        10           O   tau(  10) = (  0.7732000  0.5464010  0.6563220  )
        11           O   tau(  11) = (  0.1145660  0.2291330  0.6735330  )
        12           O   tau(  12) = (  0.8854340  0.7708670  0.3264670  )
        13           O   tau(  13) = (  0.4397090  0.8794170  0.6416040  )
        14           O   tau(  14) = (  0.5602910  0.1205830  0.3583960  )

     number of k points=     1  Methfessel-Paxton smearing, width (Ry)=  0.0010
                       cart. coord. in units 2pi/alat
        k(    1) = (   0.0000000   0.0000000   0.0000000), wk =   2.0000000

                       cryst. coord.
        k(    1) = (   0.0000000   0.0000000   0.0000000), wk =   2.0000000

     Check: negative core charge=   -0.000017

     Initial potential from superposition of free atoms

     starting charge      97.0983, renormalised to     102.0000

     negative rho (up, down):  4.842E-03 0.000E+00
     Starting wfcs are   82 randomized atomic wfcs
     Checking if some PAW data can be deallocated...

     Self-consistent Calculation

     iteration #  1     ecut=    30.00 Ry     beta= 0.70
     Davidson diagonalization with overlap

     ethr =  1.00E-02,  avg # of iterations =  2.0

     negative rho (up, down):  6.590E-03 0.000E+00

     total energy              =    -838.89909652 Ry
     estimated scf accuracy    <       2.23738508 Ry

[...]

     c_bands:  1 eigenvalues not converged
     ethr =  1.29E-06,  avg # of iterations = 20.0

[...]

     total energy              =    -840.06892679 Ry
     estimated scf accuracy    <       0.00000210 Ry

     iteration # 18     ecut=    30.00 Ry     beta= 0.70
     Davidson diagonalization with overlap

     ethr =  1.88E-09,  avg # of iterations =  2.0

[...]

     End of self-consistent calculation

          k = 0.0000 0.0000 0.0000 (  1434 PWs)   bands (ev):

   -49.1333 -49.1259 -48.8982 -48.8918 -35.5226 -35.5105 -25.5954 -25.5616
   -25.3845 -25.3628 -25.3601 -25.3591 -25.3276 -25.2720 -25.1132 -25.0935
   -25.0223 -25.0163 -10.3741  -9.5942  -9.4425  -9.4003  -9.3330  -9.2019
    -9.0559  -8.9341   2.8569   3.0484   3.2639   3.4577   3.4615   3.6014
     3.8371   4.0306   4.4297   4.6815   4.7653   5.0279   5.1716   5.2067
     5.2567   5.2996   5.5372   5.8661   5.9148   6.1494   6.4411   6.5118
     6.6356   6.6660   8.7596   8.9488   9.8599   9.9600  10.2240  10.4453
    11.1352  11.1619  11.1856  11.4294  11.5099

     occupation numbers
     1.0000   1.0000   1.0000   1.0000   1.0000   1.0000   1.0000   1.0000
     1.0000   1.0000   1.0000   1.0000   1.0000   1.0000   1.0000   1.0000
     1.0000   1.0000   1.0000   1.0000   1.0000   1.0000   1.0000   1.0000
     1.0000   1.0000   1.0000   1.0000   1.0000   1.0000   1.0000   1.0000
     1.0000   1.0000   1.0000   1.0000   1.0000   1.0000   1.0000   1.0000
     1.0000   1.0000   1.0000   1.0000   1.0000   1.0000   1.0000   1.0000
     1.0000   1.0000   1.0000  -0.0000  -0.0000  -0.0000  -0.0000  -0.0000
    -0.0000  -0.0000  -0.0000  -0.0000  -0.0000

     the Fermi energy is     8.8500 ev

!    total energy              =    -840.06892642 Ry
     estimated scf accuracy    <       0.00000067 Ry
     smearing contrib. (-TS)   =       0.00000000 Ry
     internal energy E=F+TS    =    -840.06892642 Ry

     The total energy is F=E-TS. E is the sum of the following terms:
     one-electron contribution =    -378.65372287 Ry
     hartree contribution      =     232.52348719 Ry
     xc contribution           =    -138.87113021 Ry
     ewald contribution        =    -478.95830506 Ry
     one-center paw contrib.   =     -76.10925546 Ry
      -> PAW hartree energy AE =     241.89875646 Ry
      -> PAW hartree energy PS =    -241.00290245 Ry
      -> PAW xc energy AE      =    -138.08690298 Ry
      -> PAW xc energy PS      =      61.08179352 Ry
      -> total E_H with PAW    =     233.41934119 Ry
      -> total E_XC with PAW   =    -215.87623968 Ry

     convergence has been achieved in  18 iterations

     negative rho (up, down):  3.556E-03 0.000E+00

     Forces acting on atoms (cartesian axes, Ry/au):

     atom    1 type  1   force =     0.00000000   -0.00223407   -0.01625430
     atom    2 type  1   force =    -0.00000000    0.00223407    0.01625430
     atom    3 type  2   force =     0.00000000    0.03193266    0.13674174
     atom    4 type  2   force =     0.00000000   -0.03193266   -0.13674174
     atom    5 type  2   force =     0.00000000    0.08915076   -0.13577559
     atom    6 type  2   force =     0.00000000   -0.08915076    0.13577559
     atom    7 type  3   force =     0.00000000   -0.02024267    0.01938759
     atom    8 type  3   force =     0.00000000    0.02024267   -0.01938759
     atom    9 type  3   force =     0.00000000    0.04892985    0.13815622
     atom   10 type  3   force =     0.00000000   -0.04892985   -0.13815622
     atom   11 type  3   force =     0.00000000    0.08826400   -0.11859607
     atom   12 type  3   force =     0.00000000   -0.08826400    0.11859607
     atom   13 type  3   force =     0.00000000   -0.00850593    0.00094675
     atom   14 type  3   force =     0.00000000    0.00850593   -0.00094675
     The non-local contrib.  to forces
     atom    1 type  1   force =     0.00000000   -0.01135974    0.08621879
     atom    2 type  1   force =     0.00000000    0.01135974   -0.08621879
     atom    3 type  2   force =     0.00000000   -0.02283756   -0.08911231
     atom    4 type  2   force =     0.00000000    0.02283756    0.08911231
     atom    5 type  2   force =     0.00000000   -0.06071572    0.07305002
     atom    6 type  2   force =     0.00000000    0.06071572   -0.07305002
     atom    7 type  3   force =     0.00000000   -0.09352262   -0.01692859
     atom    8 type  3   force =     0.00000000    0.09352262    0.01692859
     atom    9 type  3   force =     0.00000000    0.22175888   -0.40692574
     atom   10 type  3   force =     0.00000000   -0.22175888    0.40692574
     atom   11 type  3   force =     0.00000000    0.19955848    0.37269661
     atom   12 type  3   force =     0.00000000   -0.19955848   -0.37269661
     atom   13 type  3   force =     0.00000000    0.05973437    0.05913133
     atom   14 type  3   force =     0.00000000   -0.05973437   -0.05913133
     The ionic contribution  to forces
     atom    1 type  1   force =     0.00000135    0.44975171    4.45008801
     atom    2 type  1   force =    -0.00000135   -0.44975171   -4.45008801
     atom    3 type  2   force =    -0.00007940    5.15055552    9.92700995
     atom    4 type  2   force =     0.00007940   -5.15055552   -9.92700995
     atom    5 type  2   force =     0.00001445    6.48296546   -8.96525897
     atom    6 type  2   force =    -0.00001445   -6.48296546    8.96525897
     atom    7 type  3   force =     0.00000150    5.34137856    0.60828212
     atom    8 type  3   force =    -0.00000150   -5.34137856   -0.60828212
     atom    9 type  3   force =    -0.00008024   -5.59244982   -5.38504496
     atom   10 type  3   force =     0.00008024    5.59244982    5.38504496
     atom   11 type  3   force =     0.00002800   -6.47608261    3.51774245
     atom   12 type  3   force =    -0.00002800    6.47608261   -3.51774245
     atom   13 type  3   force =     0.00000233    0.74153390    7.36883148
     atom   14 type  3   force =    -0.00000233   -0.74153390   -7.36883148
     The local contribution  to forces
     atom    1 type  1   force =    -0.00000047   -0.44040154   -4.55247376
     atom    2 type  1   force =     0.00000082    0.44080045    4.55268669
     atom    3 type  2   force =     0.00008188   -5.09985714   -9.70905966
     atom    4 type  2   force =    -0.00009758    5.09865975    9.70862634
     atom    5 type  2   force =    -0.00000918   -6.34037252    8.76533471
     atom    6 type  2   force =     0.00001244    6.33986204   -8.76487941
     atom    7 type  3   force =    -0.00000057   -5.26863671   -0.57201452
     atom    8 type  3   force =    -0.00000094    5.26848518    0.57151572
     atom    9 type  3   force =     0.00008446    5.42068745    5.92474840
     atom   10 type  3   force =    -0.00007996   -5.42157422   -5.92483649
     atom   11 type  3   force =    -0.00002391    6.36570610   -4.00409679
     atom   12 type  3   force =     0.00002025   -6.36619206    4.00433539
     atom   13 type  3   force =    -0.00000339   -0.80832917   -7.42565402
     atom   14 type  3   force =     0.00001143    0.80955462    7.42636097
     The core correction contribution to forces
     atom    1 type  1   force =     0.00000000    0.00000000    0.00000000
     atom    2 type  1   force =     0.00000000    0.00000000    0.00000000
     atom    3 type  2   force =     0.00000156    0.00348059    0.00753465
     atom    4 type  2   force =    -0.00000175   -0.00348319   -0.00753915
     atom    5 type  2   force =    -0.00000115    0.00716515   -0.00845397
     atom    6 type  2   force =     0.00000098   -0.00717059    0.00846427
     atom    7 type  3   force =    -0.00000316    0.00049598   -0.00015113
     atom    8 type  3   force =     0.00000318   -0.00049619    0.00015158
     atom    9 type  3   force =    -0.00000133   -0.00160468    0.00534898
     atom   10 type  3   force =     0.00000127    0.00160792   -0.00534652
     atom   11 type  3   force =     0.00000114   -0.00132266   -0.00487764
     atom   12 type  3   force =    -0.00000115    0.00132243    0.00487757
     atom   13 type  3   force =     0.00000222   -0.00075114   -0.00104102
     atom   14 type  3   force =    -0.00000216    0.00074881    0.00104054
     The Hubbard contrib.    to forces
     atom    1 type  1   force =     0.00000000    0.00000000    0.00000000
     atom    2 type  1   force =     0.00000000    0.00000000    0.00000000
     atom    3 type  2   force =     0.00000000    0.00000000    0.00000000
     atom    4 type  2   force =     0.00000000    0.00000000    0.00000000
     atom    5 type  2   force =     0.00000000    0.00000000    0.00000000
     atom    6 type  2   force =     0.00000000    0.00000000    0.00000000
     atom    7 type  3   force =     0.00000000    0.00000000    0.00000000
     atom    8 type  3   force =     0.00000000    0.00000000    0.00000000
     atom    9 type  3   force =     0.00000000    0.00000000    0.00000000
     atom   10 type  3   force =     0.00000000    0.00000000    0.00000000
     atom   11 type  3   force =     0.00000000    0.00000000    0.00000000
     atom   12 type  3   force =     0.00000000    0.00000000    0.00000000
     atom   13 type  3   force =     0.00000000    0.00000000    0.00000000
     atom   14 type  3   force =     0.00000000    0.00000000    0.00000000
     The SCF correction term to forces
     atom    1 type  1   force =     0.00000069   -0.00021488   -0.00007132
     atom    2 type  1   force =     0.00000026   -0.00016480   -0.00010958
     atom    3 type  2   force =     0.00000085    0.00056638    0.00039384
     atom    4 type  2   force =     0.00001774    0.00058388    0.00009343
     atom    5 type  2   force =    -0.00001028    0.00012820   -0.00043724
     atom    6 type  2   force =     0.00000247    0.00042733   -0.00000806
     atom    7 type  3   force =    -0.00000296    0.00003576    0.00021295
     atom    8 type  3   force =     0.00000382    0.00010325    0.00031187
     atom    9 type  3   force =    -0.00001250    0.00064505    0.00012906
     atom   10 type  3   force =     0.00000136    0.00045254    0.00015561
     atom   11 type  3   force =    -0.00000123    0.00041007   -0.00008332
     atom   12 type  3   force =     0.00000457    0.00008687   -0.00020045
     atom   13 type  3   force =    -0.00000192   -0.00079471   -0.00034548
     atom   14 type  3   force =    -0.00000646   -0.00063006   -0.00040993

     Total force =     0.425596     Total SCF correction =     0.001914

     Computing stress (Cartesian axis) and pressure

     negative rho (up, down):  3.556E-03 0.000E+00
          total   stress  (Ry/bohr**3)                   (kbar)     P=     -322.95
  -0.00081292  -0.00000000  -0.00000000         -119.59       -0.00       -0.00
  -0.00000000  -0.00311108  -0.00008917           -0.00     -457.66      -13.12
  -0.00000000  -0.00008917  -0.00266216           -0.00      -13.12     -391.62

     kinetic stress (kbar)  23406.88      0.00      0.00
                                0.00  23334.87    -36.10
                                0.00    -36.10  23207.72

     local   stress (kbar) -19837.82      0.04      0.05
                                0.04 -14879.92   1356.11
                                0.05   1356.11    193.06

     nonloc. stress (kbar)   5822.32      0.00      0.00
                                0.00   5680.55      4.08
                                0.00      4.08   5635.91

     hartree stress (kbar)  14943.17     -0.02     -0.02
                               -0.02  12568.12   -625.34
                               -0.02   -625.34   5765.02

     exc-cor stress (kbar)  -3512.53      0.00     -0.00
                                0.00  -3504.01      0.18
                               -0.00      0.18  -3508.30

     corecor stress (kbar)  -2584.61     -0.00     -0.00
                               -0.00  -2580.10     -0.21
                               -0.00     -0.21  -2575.70

     ewald   stress (kbar) -18356.99     -0.02     -0.03
                               -0.02 -21077.16   -711.85
                               -0.03   -711.85 -29109.32

     hubbard stress (kbar)      0.00      0.00      0.00
                                0.00      0.00      0.00
                                0.00      0.00      0.00

     DFT-D   stress (kbar)      0.00      0.00      0.00
                                0.00      0.00      0.00
                                0.00      0.00      0.00

     XDM     stress (kbar)      0.00      0.00      0.00
                                0.00      0.00      0.00
                                0.00      0.00      0.00

     dft-nl  stress (kbar)      0.00      0.00      0.00
                                0.00      0.00      0.00
                                0.00      0.00      0.00

     TS-vdW  stress (kbar)      0.00      0.00      0.00
                                0.00      0.00      0.00
                                0.00      0.00      0.00

[...]

                                0.00      0.00      0.00

     Writing all to output data dir new_calculations/myprefix.save/

     General routines

     Parallel routines

     PAW routines

   This run was terminated on:   8: 3:21  21May2023

   JOB DONE.