     Program PWSCF v.7.0 starts on 21May2023 at 13:46:47

     Reading input from espresso_26762.pwi
Warning: card &CELL ignored
Warning: card / ignored

     Current dimensions of program PWSCF are:
     Max number of different atomic species (ntypx) = 10
     Max number of k-points (npk) =  40000
     Max angular momentum in pseudopotentials (lmaxx) =  4

     gamma-point specific algorithms are used
     Message from routine setup:
     using ibrav=0 with symmetry is DISCOURAGED, use correct ibrav instead

     Subspace diagonalization in iterative solution of the eigenvalue problem:
     a serial algorithm will be used

     Using Slab Decomposition

     bravais-lattice index     =            0
     lattice parameter (alat)  =       7.4571  a.u.
     unit-cell volume          =    2938.7582 (a.u.)^3
     number of atoms/cell      =           18
     number of atomic types    =            3
     number of electrons       =       272.00
     number of Kohn-Sham states=          163
     kinetic-energy cutoff     =      30.0000  Ry
     charge density cutoff     =     240.0000  Ry
     scf convergence threshold =      1.0E-06
     mixing beta               =       0.7000
     number of iterations used =            8  plain     mixing
     Exchange-correlation=  SLA  PW   PBX  PBC
                           (   1   4   3   4   0   0   0)

     celldm(1)=   7.457054  celldm(2)=   0.000000  celldm(3)=   0.000000
     celldm(4)=   0.000000  celldm(5)=   0.000000  celldm(6)=   0.000000

     crystal axes: (cart. coord. in units of alat)
               a(1) = (   1.000000   0.000000   0.000000 )
               a(2) = (   0.000000   2.170091   0.000000 )
               a(3) = (   0.000000  -0.491272   3.265759 )

     reciprocal axes: (cart. coord. in units 2 pi/alat)
               b(1) = (  1.000000  0.000000  0.000000 )
               b(2) = (  0.000000  0.460810  0.069320 )
               b(3) = (  0.000000  0.000000  0.306208 )

     PseudoPot. # 1 for Sn read from file:
     /home/pragov/projects/rrg-bengioy-ad/pragov/crystal_structure_design/SSSP/Sn_pbe_v1.uspp.F.UPF
     MD5 check sum: 4cf58ce39ec5d5d420df3dd08604eb00
     Pseudo is Ultrasoft + core correction, Zval = 14.0
     Generated by new atomic code, or converted to UPF format
     Using radial grid of  891 points,  6 beta functions with:
                l(1) =   0
                l(2) =   0
                l(3) =   1
                l(4) =   1
                l(5) =   2
                l(6) =   2
     Q(r) pseudized with  6 coefficients,  rinner =    1.200   1.200   1.200
                                                       1.200   1.200

     PseudoPot. # 2 for Sb read from file:
     /home/pragov/projects/rrg-bengioy-ad/pragov/crystal_structure_design/SSSP/sb_pbe_v1.4.uspp.F.UPF
     MD5 check sum: 9bc50dfb53373b713f5709b9110fe27f
     Pseudo is Ultrasoft + core correction, Zval = 15.0
     Generated by new atomic code, or converted to UPF format
     Using radial grid of  891 points,  6 beta functions with:
                l(1) =   0
                l(2) =   0
                l(3) =   1
                l(4) =   1
                l(5) =   2
                l(6) =   2
     Q(r) pseudized with  8 coefficients,  rinner =    1.350   1.350   1.350
                                                       1.350   1.350

     PseudoPot. # 3 for Pt read from file:
     /home/pragov/projects/rrg-bengioy-ad/pragov/crystal_structure_design/SSSP/pt_pbe_v1.4.uspp.F.UPF
     MD5 check sum: f09d6de1a584b5a045c4fc126da2d0c4
     Pseudo is Ultrasoft + core correction, Zval = 16.0
     Generated by new atomic code, or converted to UPF format
     Using radial grid of  985 points,  6 beta functions with:
                l(1) =   0
                l(2) =   0
                l(3) =   1
                l(4) =   1
                l(5) =   2
                l(6) =   2
     Q(r) pseudized with  8 coefficients,  rinner =    1.300   1.300   1.300
                                                       1.300   1.300

     atomic species   valence    mass     pseudopotential
        Sn            14.00   118.71000     Sn( 1.00)
        Sb            15.00   121.76000     Sb( 1.00)
        Pt            16.00   195.08400     Pt( 1.00)

      2 Sym. Ops. (no inversion) found

                                    s                        frac. trans.

      isym =  1     identity

 cryst.   s( 1) = (     1          0          0      )
                  (     0          1          0      )
                  (     0          0          1      )

 cart.    s( 1) = (  1.0000000  0.0000000  0.0000000 )
                  (  0.0000000  1.0000000 -0.0000000 )
                  (  0.0000000  0.0000000  1.0000000 )

      isym =  2     inv. 180 deg rotation - cart. axis [1,0,0]

 cryst.   s( 2) = (    -1          0          0      )
                  (     0          1          0      )
                  (     0          0          1      )

 cart.    s( 2) = ( -1.0000000  0.0000000  0.0000000 )
                  (  0.0000000  1.0000000 -0.0000000 )
                  (  0.0000000  0.0000000  1.0000000 )

   Cartesian axes

     site n.     atom                  positions (alat units)
         1           Sn  tau(   1) = (   0.5000000   0.3099712   2.6408329  )
         2           Sn  tau(   2) = (   0.5000000   2.0833874   0.4666867  )
         3           Sn  tau(   3) = (   0.5000000   1.1985826   1.5624141  )
         4           Sn  tau(   4) = (   0.5000000   1.3715472   0.6228063  )
         5           Sb  tau(   5) = (   0.5000000   0.4853536   1.7095463  )
         6           Sb  tau(   6) = (   0.5000000  -0.4040377   2.7996696  )
         7           Sb  tau(   7) = (   0.0000000   0.6550868   0.1777161  )
         8           Sb  tau(   8) = (   0.0000000   1.9336680   1.2609029  )
         9           Sb  tau(   9) = (   0.0000000   1.0489416   2.3544357  )
        10           Sb  tau(  10) = (   0.0000000   1.0237857   3.0911778  )
        11           Sb  tau(  11) = (   0.0000000   0.6299403   0.9100820  )
        12           Sb  tau(  12) = (   0.0000000  -0.2612312   1.9993301  )
        13           Pt  tau(  13) = (   0.5000000   1.4800500   2.1839206  )
        14           Pt  tau(  14) = (   0.5000000   0.5921819   3.2646255  )
        15           Pt  tau(  15) = (   0.5000000   0.1993868   1.0921709  )
        16           Pt  tau(  16) = (   0.0000000   0.3939782   2.1707204  )
        17           Pt  tau(  17) = (   0.0000000  -0.4880645   3.2593970  )
        18           Pt  tau(  18) = (   0.0000000   1.2805204   1.0911553  )

   Crystallographic axes

     site n.     atom                  positions (cryst. coord.)
         1           Sn  tau(   1) = (  0.5000000  0.3259010  0.8086430  )
         2           Sn  tau(   2) = (  0.5000000  0.9923970  0.1429030  )
         3           Sn  tau(   3) = (  0.5000000  0.6606260  0.4784230  )
         4           Sn  tau(   4) = (  0.5000000  0.6751960  0.1907080  )
         5           Sb  tau(   5) = (  0.5000000  0.3421620  0.5234760  )
         6           Sb  tau(   6) = (  0.5000000  0.0078890  0.8572800  )
         7           Sb  tau(   7) = (  0.0000000  0.3141900  0.0544180  )
         8           Sb  tau(   8) = (  0.0000000  0.9784600  0.3860980  )
         9           Sb  tau(   9) = (  0.0000000  0.6465730  0.7209460  )
        10           Sb  tau(  10) = (  0.0000000  0.6860520  0.9465420  )
        11           Sb  tau(  11) = (  0.0000000  0.3533700  0.2786740  )
        12           Sb  tau(  12) = (  0.0000000  0.0182160  0.6122100  )
        13           Pt  tau(  13) = (  0.5000000  0.8334120  0.6687330  )
        14           Pt  tau(  14) = (  0.5000000  0.4991880  0.9996530  )
        15           Pt  tau(  15) = (  0.5000000  0.1675890  0.3344310  )
        16           Pt  tau(  16) = (  0.0000000  0.3320240  0.6646910  )
        17           Pt  tau(  17) = (  0.0000000  0.0010370  0.9980520  )
        18           Pt  tau(  18) = (  0.0000000  0.6657160  0.3341200  )

     number of k points=     1  Methfessel-Paxton smearing, width (Ry)=  0.0010
                       cart. coord. in units 2pi/alat
        k(    1) = (   0.0000000   0.0000000   0.0000000), wk =   2.0000000

                       cryst. coord.
        k(    1) = (   0.0000000   0.0000000   0.0000000), wk =   2.0000000

     Check: negative core charge=   -0.000003

     Initial potential from superposition of free atoms

     starting charge     256.9996, renormalised to     272.0000

     negative rho (up, down):  1.155E+00 0.000E+00
     Starting wfcs are  180 randomized atomic wfcs

     Self-consistent Calculation

     iteration #  1     ecut=    30.00 Ry     beta= 0.70
     Davidson diagonalization with overlap

     ethr =  1.00E-02,  avg # of iterations =  6.0

     negative rho (up, down):  9.593E-01 0.000E+00

     total energy              =   -3374.95663357 Ry
     estimated scf accuracy    <      38.40193101 Ry

[...]

     total energy              =   -3396.19203486 Ry
     estimated scf accuracy    <       0.00000327 Ry

     iteration # 20     ecut=    30.00 Ry     beta= 0.70
     Davidson diagonalization with overlap

     ethr =  1.20E-09,  avg # of iterations =  2.0

[...]

     End of self-consistent calculation

          k = 0.0000 0.0000 0.0000 (  4093 PWs)   bands (ev):

   -40.2896 -40.2389 -40.1615 -40.1061 -40.0927 -40.0678 -39.9611 -39.9219
   -39.9114 -39.9085 -39.9074 -39.8891 -39.8495 -39.7765 -39.7211 -39.7050
   -39.7011 -39.5249 -16.4942 -16.4920 -16.4514 -16.4506 -16.3858 -16.3833
   -16.2819 -16.2760 -16.2726 -16.2662 -16.1874 -16.1564 -16.1345 -16.1161
   -16.0978 -16.0642 -16.0637 -16.0580 -16.0563 -16.0520 -16.0408 -16.0332
   -16.0298 -15.9945 -15.9914 -15.9820 -15.9692 -15.9576 -15.9550 -15.9327
   -15.9085 -15.9034 -15.8969 -15.8799 -15.8737 -15.8516 -15.8465 -15.7992
   -15.7863 -15.7745  -8.6249  -8.6075  -8.5761  -8.5618  -8.5381  -8.5230
    -8.4488  -8.4429  -8.4253  -8.4245  -8.4182  -8.3652  -8.3573  -8.3508
    -8.3055  -8.2827  -8.2166  -8.2129  -8.1085  -8.0528   0.9956   1.7760
     1.9601   2.6628   2.8793   3.3908   3.4986   4.1925   4.3814   4.6358
     4.7759   6.0553   6.8200   7.3564   7.5262   7.5679   7.7622   7.8223
     8.0564   8.3394   8.4947   8.5701   8.6162   8.6771   8.9382   8.9866
     9.1230   9.2605   9.3813   9.4315   9.4763   9.5184   9.6184   9.6266
     9.6474   9.6687   9.7401   9.7775   9.7984   9.8671   9.9254   9.9366
    10.3986  10.4382  10.5569  10.8818  11.2369  11.3054  11.5244  11.5998
    11.6779  11.7393  11.9190  12.6971  12.8120  12.9061  12.9470  13.7542
    13.9592  14.0234  14.1388  14.1566  14.9630  15.1965  15.2501  15.7876
    15.8604  16.3043  16.3262  16.3854  16.5315  16.5834  16.9157  17.2146
    17.3434  17.4296  17.4997  17.6085  17.6700  17.9035  18.0345  18.0480
    18.1563  18.4093  18.5273

     occupation numbers
     1.0000   1.0000   1.0000   1.0000   1.0000   1.0000   1.0000   1.0000
     1.0000   1.0000   1.0000   1.0000   1.0000   1.0000   1.0000   1.0000
     1.0000   1.0000   1.0000   1.0000   1.0000   1.0000   1.0000   1.0000
     1.0000   1.0000   1.0000   1.0000   1.0000   1.0000   1.0000   1.0000
     1.0000   1.0000   1.0000   1.0000   1.0000   1.0000   1.0000   1.0000
     1.0000   1.0000   1.0000   1.0000   1.0000   1.0000   1.0000   1.0000
     1.0000   1.0000   1.0000   1.0000   1.0000   1.0000   1.0000   1.0000
     1.0000   1.0000   1.0000   1.0000   1.0000   1.0000   1.0000   1.0000
     1.0000   1.0000   1.0000   1.0000   1.0000   1.0000   1.0000   1.0000
     1.0000   1.0000   1.0000   1.0000   1.0000   1.0000   1.0000   1.0000
     1.0000   1.0000   1.0000   1.0000   1.0000   1.0000   1.0000   1.0000
     1.0000   1.0000   1.0000   1.0000   1.0000   1.0000   1.0000   1.0000
     1.0000   1.0000   1.0000   1.0000   1.0000   1.0000   1.0000   1.0000
     1.0000   1.0000   1.0000   1.0000   1.0000   1.0000   1.0000   1.0000
     1.0000   1.0000   1.0000   1.0000   1.0000   1.0000   1.0000   1.0000
     1.0000   1.0000   1.0000   1.0000   1.0000   1.0000   1.0000   1.0000
     1.0000   1.0000   1.0000   1.0000   1.0000   1.0000   1.0000   1.0000
    -0.0000  -0.0000  -0.0000  -0.0000  -0.0000  -0.0000  -0.0000  -0.0000
    -0.0000  -0.0000  -0.0000  -0.0000  -0.0000  -0.0000  -0.0000  -0.0000
    -0.0000  -0.0000  -0.0000  -0.0000  -0.0000  -0.0000  -0.0000  -0.0000
    -0.0000  -0.0000  -0.0000

     the Fermi energy is    13.8740 ev

!    total energy              =   -3396.19203483 Ry
     estimated scf accuracy    <       0.00000053 Ry
     smearing contrib. (-TS)   =       0.00000000 Ry
     internal energy E=F+TS    =   -3396.19203483 Ry

     The total energy is F=E-TS. E is the sum of the following terms:
     one-electron contribution =   -1203.25642979 Ry
     hartree contribution      =     781.43416369 Ry
     xc contribution           =    -885.00995742 Ry
     ewald contribution        =   -2089.35981131 Ry

     convergence has been achieved in  20 iterations

     negative rho (up, down):  1.037E+00 0.000E+00

     Forces acting on atoms (cartesian axes, Ry/au):

     atom    1 type  1   force =     0.00000000    0.00951876    0.04382975
     atom    2 type  1   force =     0.00000000    0.00684693    0.04072280
     atom    3 type  1   force =     0.00000000    0.00949916    0.02320903
     atom    4 type  1   force =     0.00000000   -0.00752770   -0.03968448
     atom    5 type  2   force =     0.00000000   -0.01835191   -0.04617784
     atom    6 type  2   force =     0.00000000   -0.01276154   -0.03182126
     atom    7 type  2   force =     0.00000000   -0.02499897    0.02203827
     atom    8 type  2   force =     0.00000000   -0.01373089    0.01642260
     atom    9 type  2   force =     0.00000000   -0.03155169    0.02476014
     atom   10 type  2   force =     0.00000000    0.02878422   -0.01658597
     atom   11 type  2   force =     0.00000000    0.01499618   -0.01807968
     atom   12 type  2   force =     0.00000000    0.02509461   -0.02113361
     atom   13 type  3   force =     0.00000000    0.00448804    0.00032072
     atom   14 type  3   force =     0.00000000    0.00133229   -0.00013879
     atom   15 type  3   force =     0.00000000    0.00436763    0.00836717
     atom   16 type  3   force =     0.00000000    0.00552159   -0.00435418
     atom   17 type  3   force =     0.00000000    0.00024213   -0.00904938
     atom   18 type  3   force =     0.00000000   -0.00176883    0.00735471
     The non-local contrib.  to forces
     atom    1 type  1   force =     0.00000000   -0.06390094   -0.04576526
     atom    2 type  1   force =     0.00000000   -0.05757545   -0.04446006
     atom    3 type  1   force =     0.00000000   -0.06684619   -0.02357539
     atom    4 type  1   force =     0.00000000    0.06534161    0.04510257
     atom    5 type  2   force =     0.00000000    0.06538006    0.09409940
     atom    6 type  2   force =     0.00000000    0.08035276    0.08241847
     atom    7 type  2   force =     0.00000000    0.00560289   -0.03538472
     atom    8 type  2   force =     0.00000000   -0.03122579   -0.00019730
     atom    9 type  2   force =     0.00000000   -0.00005551   -0.05105327
     atom   10 type  2   force =     0.00000000   -0.00329729   -0.03866505
     atom   11 type  2   force =     0.00000000    0.00377980   -0.00069466
     atom   12 type  2   force =     0.00000000   -0.00326831   -0.00653503
     atom   13 type  3   force =     0.00000000    0.00911140    0.00991499
     atom   14 type  3   force =     0.00000000    0.00560416   -0.01433037
     atom   15 type  3   force =     0.00000000    0.00363614    0.02526250
     atom   16 type  3   force =     0.00000000    0.00655718   -0.01300829
     atom   17 type  3   force =     0.00000000   -0.00277687   -0.02277759
     atom   18 type  3   force =     0.00000000    0.00829874    0.00552915
     The ionic contribution  to forces
     atom    1 type  1   force =     0.00000000   -1.85880232    2.76045276
     atom    2 type  1   force =    -0.00000000   -2.83865221    2.62281378
     atom    3 type  1   force =    -0.00000000   -1.75076605    0.91864496
     atom    4 type  1   force =    -0.00000000    2.77695417   -2.26168804
     atom    5 type  2   force =     0.00000000    2.91881581   -2.93377175
     atom    6 type  2   force =     0.00000000    3.15526297   -1.77250914
     atom    7 type  2   force =    -0.00000000   -2.20379653    3.32508897
     atom    8 type  2   force =    -0.00000000   -2.83499912    1.42329365
     atom    9 type  2   force =    -0.00000000   -3.07773841    2.81094814
     atom   10 type  2   force =     0.00000000    2.06657557   -1.32377630
     atom   11 type  2   force =     0.00000000    2.51221671   -3.38308765
     atom   12 type  2   force =     0.00000000    2.24670743   -3.34155593
     atom   13 type  3   force =    -0.00000000   -0.21947996   -0.97297456
     atom   14 type  3   force =     0.00000000    0.23415614    0.74482082
     atom   15 type  3   force =     0.00000000   -0.67559292   -1.63356965
     atom   16 type  3   force =    -0.00000000   -0.12839619    1.29938153
     atom   17 type  3   force =    -0.00000000   -0.44112206    2.43124137
     atom   18 type  3   force =    -0.00000000    0.11865696   -0.71375296
     The local contribution  to forces
     atom    1 type  1   force =     0.00000142    1.93303488   -2.67366300
     atom    2 type  1   force =    -0.00000136    2.90497232   -2.53914542
     atom    3 type  1   force =    -0.00000095    1.82924847   -0.87416768
     atom    4 type  1   force =    -0.00000165   -2.85146320    2.17992846
     atom    5 type  2   force =     0.00000478   -3.00480849    2.79381392
     atom    6 type  2   force =    -0.00000118   -3.24926644    1.65690289
     atom    7 type  2   force =    -0.00000030    2.17403973   -3.26763250
     atom    8 type  2   force =    -0.00000027    2.85288350   -1.40658637
     atom    9 type  2   force =    -0.00000148    3.04678263   -2.73639424
     atom   10 type  2   force =     0.00000107   -2.03517607    1.34549351
     atom   11 type  2   force =     0.00000034   -2.50171104    3.36551179
     atom   12 type  2   force =    -0.00000106   -2.21868090    3.32715266
     atom   13 type  3   force =     0.00000068    0.21305913    0.95843747
     atom   14 type  3   force =     0.00000022   -0.23722754   -0.73264948
     atom   15 type  3   force =     0.00000103    0.67143055    1.61320619
     atom   16 type  3   force =    -0.00000402    0.12878493   -1.29856808
     atom   17 type  3   force =     0.00000264    0.44903483   -2.42695523
     atom   18 type  3   force =     0.00000321   -0.12629272    0.71526036
     The core correction contribution to forces
     atom    1 type  1   force =     0.00000005   -0.00151725    0.00244950
     atom    2 type  1   force =    -0.00000005   -0.00199832    0.00260578
     atom    3 type  1   force =    -0.00000003   -0.00158012    0.00340857
     atom    4 type  1   force =    -0.00000005    0.00157549   -0.00300767
     atom    5 type  2   force =     0.00000016    0.00189995   -0.00005912
     atom    6 type  2   force =    -0.00000003    0.00128080   -0.00072627
     atom    7 type  2   force =    -0.00000001   -0.00006496    0.00007126
     atom    8 type  2   force =    -0.00000000   -0.00016277    0.00030538
     atom    9 type  2   force =    -0.00000005    0.00045258    0.00021455
     atom   10 type  2   force =     0.00000004   -0.00010356    0.00016413
     atom   11 type  2   force =     0.00000001    0.00033448    0.00007051
     atom   12 type  2   force =    -0.00000003   -0.00013513    0.00039793
     atom   13 type  3   force =     0.00000003    0.00278280    0.00459313
     atom   14 type  3   force =     0.00000002   -0.00166296    0.00239531
     atom   15 type  3   force =     0.00000004    0.00401180    0.00400256
     atom   16 type  3   force =    -0.00000010   -0.00225068    0.00747906
     atom   17 type  3   force =     0.00000008   -0.00434086    0.00882152
     atom   18 type  3   force =     0.00000008   -0.00162723    0.00012113
     The Hubbard contrib.    to forces
     atom    1 type  1   force =     0.00000000    0.00000000    0.00000000
     atom    2 type  1   force =     0.00000000    0.00000000    0.00000000
     atom    3 type  1   force =     0.00000000    0.00000000    0.00000000
     atom    4 type  1   force =     0.00000000    0.00000000    0.00000000
     atom    5 type  2   force =     0.00000000    0.00000000    0.00000000
     atom    6 type  2   force =     0.00000000    0.00000000    0.00000000
     atom    7 type  2   force =     0.00000000    0.00000000    0.00000000
     atom    8 type  2   force =     0.00000000    0.00000000    0.00000000
     atom    9 type  2   force =     0.00000000    0.00000000    0.00000000
     atom   10 type  2   force =     0.00000000    0.00000000    0.00000000
     atom   11 type  2   force =     0.00000000    0.00000000    0.00000000
     atom   12 type  2   force =     0.00000000    0.00000000    0.00000000
     atom   13 type  3   force =     0.00000000    0.00000000    0.00000000
     atom   14 type  3   force =     0.00000000    0.00000000    0.00000000
     atom   15 type  3   force =     0.00000000    0.00000000    0.00000000
     atom   16 type  3   force =     0.00000000    0.00000000    0.00000000
     atom   17 type  3   force =     0.00000000    0.00000000    0.00000000
     atom   18 type  3   force =     0.00000000    0.00000000    0.00000000
     The SCF correction term to forces
     atom    1 type  1   force =    -0.00000150    0.00070552    0.00033978
     atom    2 type  1   force =     0.00000159    0.00010172   -0.00110723
     atom    3 type  1   force =     0.00000114   -0.00055583   -0.00111739
     atom    4 type  1   force =     0.00000194    0.00006536   -0.00003576
     atom    5 type  2   force =    -0.00000547    0.00036189   -0.00027626
     atom    6 type  2   force =     0.00000141   -0.00039051    0.00207682
     atom    7 type  2   force =     0.00000043   -0.00077897   -0.00012069
     atom    8 type  2   force =     0.00000015   -0.00022559   -0.00040872
     atom    9 type  2   force =     0.00000172   -0.00099187    0.00102899
     atom   10 type  2   force =    -0.00000137    0.00078669    0.00018178
     atom   11 type  2   force =    -0.00000051    0.00037736    0.00010437
     atom   12 type  2   force =     0.00000112    0.00047265   -0.00060920
     atom   13 type  3   force =    -0.00000066   -0.00098420    0.00033373
     atom   14 type  3   force =    -0.00000024    0.00046362   -0.00039104
     atom   15 type  3   force =    -0.00000101    0.00088319   -0.00055040
     atom   16 type  3   force =     0.00000420    0.00082746    0.00034564
     atom   17 type  3   force =    -0.00000289   -0.00055178    0.00060459
     atom   18 type  3   force =    -0.00000342   -0.00080346    0.00018107

     Total force =     0.125821     Total SCF correction =     0.004129

     Computing stress (Cartesian axis) and pressure

     negative rho (up, down):  1.037E+00 0.000E+00
          total   stress  (Ry/bohr**3)                   (kbar)     P=      -65.26
  -0.00129221   0.00000000   0.00000000         -190.09        0.00        0.00
   0.00000000  -0.00001986  -0.00056817            0.00       -2.92      -83.58
   0.00000000  -0.00056817  -0.00001884            0.00      -83.58       -2.77

     kinetic stress (kbar)  23553.72      0.00      0.00
                                0.00  23999.68   -103.74
                                0.00   -103.74  24000.48

     local   stress (kbar)   4973.92      0.00     -0.00
                                0.00   2962.51  -1234.37
                               -0.00  -1234.37   5719.68

     nonloc. stress (kbar)   1456.74      0.00      0.00
                                0.00   1722.41    -46.26
                                0.00    -46.26   1679.17

     hartree stress (kbar)  13008.12     -0.00      0.00
                               -0.00  13635.17    531.52
                                0.00    531.52  12472.87

     exc-cor stress (kbar)  18269.32     -0.00      0.00
                               -0.00  18282.01     -0.26
                                0.00     -0.26  18280.06

     corecor stress (kbar) -26533.26      0.00     -0.00
                                0.00 -26546.31      1.31
                               -0.00      1.31 -26545.22

     ewald   stress (kbar) -34918.63     -0.00      0.00
                               -0.00 -34058.39    768.22
                                0.00    768.22 -35609.82

     hubbard stress (kbar)      0.00      0.00      0.00
                                0.00      0.00      0.00
                                0.00      0.00      0.00

     DFT-D   stress (kbar)      0.00      0.00      0.00
                                0.00      0.00      0.00
                                0.00      0.00      0.00

     XDM     stress (kbar)      0.00      0.00      0.00
                                0.00      0.00      0.00
                                0.00      0.00      0.00

     dft-nl  stress (kbar)      0.00      0.00      0.00
                                0.00      0.00      0.00
                                0.00      0.00      0.00

     TS-vdW  stress (kbar)      0.00      0.00      0.00
                                0.00      0.00      0.00
                                0.00      0.00      0.00

[...]

                                0.00      0.00      0.00

     Writing all to output data dir new_calculations/myprefix.save/

     General routines

     Parallel routines

   This run was terminated on:  13:47:45  21May2023

   JOB DONE.