     Program PWSCF v.7.1 starts on 16Jul2023 at 17: 6: 1

     Reading input from espresso_15782.pwi
Warning: card &CELL ignored
Warning: card / ignored

     Current dimensions of program PWSCF are:
     Max number of different atomic species (ntypx) = 10
     Max number of k-points (npk) =  40000
     Max angular momentum in pseudopotentials (lmaxx) =  4
     Message from routine setup:
     using ibrav=0 with symmetry is DISCOURAGED, use correct ibrav instead

     K-points division:     npool     =       2
     R & G space division:  proc/nbgrp/npool/nimage =       4
     Subspace diagonalization in iterative solution of the eigenvalue problem:
     a serial algorithm will be used

     Using Slab Decomposition

     bravais-lattice index     =            0
     lattice parameter (alat)  =      11.7176  a.u.
     unit-cell volume          =     992.2793 (a.u.)^3
     number of atoms/cell      =           10
     number of atomic types    =            2
     number of electrons       =        92.00
     number of Kohn-Sham states=           55
     kinetic-energy cutoff     =      30.0000  Ry
     charge density cutoff     =     240.0000  Ry
     scf convergence threshold =      1.0E-06
     mixing beta               =       0.7000
     number of iterations used =            8  plain     mixing
     Exchange-correlation= PBE
                           (   1   4   3   4   0   0   0)

     celldm(1)=  11.717602  celldm(2)=   0.000000  celldm(3)=   0.000000
     celldm(4)=   0.000000  celldm(5)=   0.000000  celldm(6)=   0.000000

     crystal axes: (cart. coord. in units of alat)
               a(1) = (   1.000000   0.000000   0.000000 )
               a(2) = (   0.580430   0.814310   0.000000 )
               a(3) = (   0.580430   0.299064   0.757405 )

     reciprocal axes: (cart. coord. in units 2 pi/alat)
               b(1) = (  1.000000 -0.712788 -0.484894 )
               b(2) = (  0.000000  1.228033 -0.484894 )
               b(3) = (  0.000000  0.000000  1.320298 )

     PseudoPot. # 1 for Zr read from file:
     /lustre07/scratch/pragov/crystal_structure_design/utils/SSSP/Zr_pbe_v1.uspp.F.UPF
     MD5 check sum: 5db81b1e868ab7776c4564c113de050b
     Pseudo is Ultrasoft + core correction, Zval = 12.0
     Generated by new atomic code, or converted to UPF format
     Using radial grid of  887 points,  6 beta functions with:
                l(1) =   0
                l(2) =   0
                l(3) =   1
                l(4) =   1
                l(5) =   2
                l(6) =   2
     Q(r) pseudized with  6 coefficients,  rinner =    1.200   1.200   1.200
                                                       1.200   1.200

     PseudoPot. # 2 for N  read from file:
     /lustre07/scratch/pragov/crystal_structure_design/utils/SSSP/N.pbe-n-radius_5.UPF
     MD5 check sum: 16739722b17309cd8fe442a2ace49922
     Pseudo is Ultrasoft + core correction, Zval =  5.0
     Generated using "atomic" code by A. Dal Corso  v.5.1
     Using radial grid of 1085 points,  4 beta functions with:
                l(1) =   0
                l(2) =   0
                l(3) =   1
                l(4) =   1
     Q(r) pseudized with 0 coefficients

     atomic species   valence    mass     pseudopotential
        Zr            12.00    91.22400     Zr( 1.00)
        N              5.00    14.00700     N ( 1.00)

      2 Sym. Ops., with inversion, found

                                    s                        frac. trans.

      isym =  1     identity

 cryst.   s( 1) = (     1          0          0      )
                  (     0          1          0      )
                  (     0          0          1      )

 cart.    s( 1) = (  1.0000000  0.0000000  0.0000000 )
                  (  0.0000000  1.0000000 -0.0000000 )
                  (  0.0000000  0.0000000  1.0000000 )

      isym =  2     inversion

 cryst.   s( 2) = (    -1          0          0      )
                  (     0         -1          0      )
                  (     0          0         -1      )

 cart.    s( 2) = ( -1.0000000  0.0000000  0.0000000 )
                  (  0.0000000 -1.0000000  0.0000000 )
                  (  0.0000000  0.0000000 -1.0000000 )

   Cartesian axes

     site n.     atom                  positions (alat units)
         1           Zr  tau(   1) = (   0.7571590   0.5700819   0.5680534  )
         2           Zr  tau(   2) = (   1.0402151   0.1883641   0.3216197  )
         3           Zr  tau(   3) = (   0.9037012   0.6332719   0.0570825  )
         4           Zr  tau(   4) = (   1.2571590   0.4801025   0.7003220  )
         5           Zr  tau(   5) = (   1.1206452   0.9250102   0.4357848  )
         6           Zr  tau(   6) = (   1.4037013   0.5432924   0.1893511  )
         7           N   tau(   7) = (   0.7320800   0.3772012   0.2566018  )
         8           N   tau(   8) = (   0.3483501   0.1794860   0.1221004  )
         9           N   tau(   9) = (   1.8125101   0.9338884   0.6353041  )
        10           N   tau(  10) = (   1.4287802   0.7361731   0.5008027  )

   Crystallographic axes

     site n.     atom                  positions (cryst. coord.)
         1           Zr  tau(   1) = (  0.0753660  0.4246340  0.7500000  )
         2           Zr  tau(   2) = (  0.7500000  0.0753660  0.4246340  )
         3           Zr  tau(   3) = (  0.4246340  0.7500000  0.0753660  )
         4           Zr  tau(   4) = (  0.5753660  0.2500000  0.9246340  )
         5           Zr  tau(   5) = (  0.2500000  0.9246340  0.5753660  )
         6           Zr  tau(   6) = (  0.9246340  0.5753660  0.2500000  )
         7           N   tau(   7) = (  0.3387910  0.3387910  0.3387910  )
         8           N   tau(   8) = (  0.1612090  0.1612090  0.1612090  )
         9           N   tau(   9) = (  0.8387910  0.8387910  0.8387910  )
        10           N   tau(  10) = (  0.6612090  0.6612090  0.6612090  )

     number of k points=    14  Gaussian smearing, width (Ry)=  0.0010
                       cart. coord. in units 2pi/alat
        k(    1) = (   0.0000000   0.0000000   0.0000000), wk =   0.0740741
        k(    2) = (   0.0000000   0.0000000   0.4400995), wk =   0.1481481
        k(    3) = (   0.0000000   0.4093445  -0.1616313), wk =   0.1481481
        k(    4) = (   0.0000000   0.4093445   0.2784682), wk =   0.1481481
        k(    5) = (   0.0000000   0.4093445  -0.6017308), wk =   0.1481481
        k(    6) = (   0.3333333  -0.2375958  -0.1616313), wk =   0.1481481
        k(    7) = (   0.3333333  -0.2375958   0.2784682), wk =   0.1481481
        k(    8) = (   0.3333333  -0.2375958  -0.6017308), wk =   0.1481481
        k(    9) = (   0.3333333   0.1717486  -0.3232627), wk =   0.1481481
        k(   10) = (   0.3333333   0.1717486   0.1168368), wk =   0.1481481
        k(   11) = (   0.3333333   0.1717486  -0.7633621), wk =   0.1481481
        k(   12) = (   0.3333333  -0.6469403   0.0000000), wk =   0.1481481
        k(   13) = (   0.3333333  -0.6469403   0.4400995), wk =   0.1481481
        k(   14) = (   0.3333333  -0.6469403  -0.4400995), wk =   0.1481481

                       cryst. coord.
        k(    1) = (   0.0000000   0.0000000   0.0000000), wk =   0.0740741
        k(    2) = (   0.0000000   0.0000000   0.3333333), wk =   0.1481481
        k(    3) = (   0.0000000   0.3333333   0.0000000), wk =   0.1481481
        k(    4) = (   0.0000000   0.3333333   0.3333333), wk =   0.1481481
        k(    5) = (   0.0000000   0.3333333  -0.3333333), wk =   0.1481481
        k(    6) = (   0.3333333   0.0000000   0.0000000), wk =   0.1481481
        k(    7) = (   0.3333333   0.0000000   0.3333333), wk =   0.1481481
        k(    8) = (   0.3333333   0.0000000  -0.3333333), wk =   0.1481481
        k(    9) = (   0.3333333   0.3333333   0.0000000), wk =   0.1481481
        k(   10) = (   0.3333333   0.3333333   0.3333333), wk =   0.1481481
        k(   11) = (   0.3333333   0.3333333  -0.3333333), wk =   0.1481481
        k(   12) = (   0.3333333  -0.3333333  -0.0000000), wk =   0.1481481
        k(   13) = (   0.3333333  -0.3333333   0.3333333), wk =   0.1481481
        k(   14) = (   0.3333333  -0.3333333  -0.3333333), wk =   0.1481481

     Check: negative core charge=   -0.000005

     Initial potential from superposition of free atoms

     starting charge      91.9871, renormalised to      92.0000

     negative rho (up, down):  3.605E-01 0.000E+00
     Starting wfcs are   94 randomized atomic wfcs

     Self-consistent Calculation

     iteration #  1     ecut=    30.00 Ry     beta= 0.70
     Davidson diagonalization with overlap

     ethr =  1.00E-02,  avg # of iterations =  2.0

     negative rho (up, down):  3.710E-01 0.000E+00

     total energy              =    -675.27004389 Ry
     estimated scf accuracy    <       2.50865916 Ry

[...]

     total energy              =    -676.68619190 Ry
     estimated scf accuracy    <       0.00000469 Ry

     iteration # 10     ecut=    30.00 Ry     beta= 0.70
     Davidson diagonalization with overlap

     ethr =  5.10E-09,  avg # of iterations =  2.0

     negative rho (up, down):  3.781E-01 0.000E+00

     End of self-consistent calculation

          k = 0.0000 0.0000 0.0000 (  2759 PWs)   bands (ev):

   -33.2655 -33.1312 -33.1136 -33.1132 -33.1048 -33.1044 -11.9750 -11.7436
   -11.6195 -11.6193 -11.5201 -11.5200 -11.4537 -11.3967 -11.3265 -11.0598
   -11.0597 -11.0534 -11.0531 -10.9864 -10.9862 -10.8885 -10.8884 -10.8812
     0.2487   1.1489   1.4419   1.9481   9.2749   9.7553   9.7554  10.6562
    10.6562  10.9657  11.9384  11.9384  11.9710  12.0860  12.0860  12.4375
    12.7482  15.1831  15.1832  15.4420  15.5883  15.5884  16.0986  16.2782
    16.2783  16.3427  16.7555  16.7556  17.3022  17.3023  18.5234

     occupation numbers
     1.0000   1.0000   1.0000   1.0000   1.0000   1.0000   1.0000   1.0000
     1.0000   1.0000   1.0000   1.0000   1.0000   1.0000   1.0000   1.0000
     1.0000   1.0000   1.0000   1.0000   1.0000   1.0000   1.0000   1.0000
     1.0000   1.0000   1.0000   1.0000   1.0000   1.0000   1.0000   1.0000
     1.0000   1.0000   1.0000   1.0000   1.0000   1.0000   1.0000   1.0000
     1.0000   1.0000   1.0000   0.9998   0.0000   0.0000   0.0000   0.0000
     0.0000   0.0000   0.0000   0.0000   0.0000   0.0000   0.0000

[...]

          k = 0.3333-0.6469-0.4401 (  2754 PWs)   bands (ev):

   -33.1837 -33.1673 -33.1518 -33.1310 -33.1022 -33.0984 -11.8283 -11.6907
   -11.6300 -11.5726 -11.4431 -11.4404 -11.3655 -11.3175 -11.2368 -11.2063
   -11.1302 -11.0928 -11.0641 -11.0442 -11.0321 -11.0268 -10.9889 -10.9782
     1.0708   1.1681   1.2218   1.3070   9.7418  10.0945  10.4016  10.7023
    10.9485  10.9934  11.1128  11.2035  11.5046  11.8712  11.9046  11.9825
    14.0250  14.1256  14.2718  14.4626  14.9169  15.2580  16.0114  16.2677
    16.9309  17.4586  17.8325  18.0485  18.5562  18.6441  18.6753

     occupation numbers
     1.0000   1.0000   1.0000   1.0000   1.0000   1.0000   1.0000   1.0000
     1.0000   1.0000   1.0000   1.0000   1.0000   1.0000   1.0000   1.0000
     1.0000   1.0000   1.0000   1.0000   1.0000   1.0000   1.0000   1.0000
     1.0000   1.0000   1.0000   1.0000   1.0000   1.0000   1.0000   1.0000
     1.0000   1.0000   1.0000   1.0000   1.0000   1.0000   1.0000   1.0000
     1.0000   1.0000   1.0000   1.0000   1.0000   1.0000   0.0000   0.0000
     0.0000   0.0000   0.0000   0.0000   0.0000   0.0000   0.0000

     the Fermi energy is    15.4766 ev

!    total energy              =    -676.68619239 Ry
     estimated scf accuracy    <       0.00000020 Ry
     smearing contrib. (-TS)   =      -0.00011430 Ry
     internal energy E=F+TS    =    -676.68607808 Ry

     The total energy is F=E-TS. E is the sum of the following terms:
     one-electron contribution =     -79.28920269 Ry
     hartree contribution      =      89.18193091 Ry
     xc contribution           =    -128.84820212 Ry
     ewald contribution        =    -557.73060418 Ry

     convergence has been achieved in  10 iterations

     Writing all to output data dir energy_m/myprefix.save/

     General routines

     Parallel routines

   This run was terminated on:  17: 6: 9  16Jul2023

   JOB DONE.