     Program PWSCF v.7.0 starts on 20May2023 at 14:24:12

     Reading input from espresso_14451.pwi
Warning: card &CELL ignored
Warning: card / ignored

     Current dimensions of program PWSCF are:
     Max number of different atomic species (ntypx) = 10
     Max number of k-points (npk) =  40000
     Max angular momentum in pseudopotentials (lmaxx) =  4

     gamma-point specific algorithms are used
     Message from routine setup:
     using ibrav=0 with symmetry is DISCOURAGED, use correct ibrav instead

     Subspace diagonalization in iterative solution of the eigenvalue problem:
     a serial algorithm will be used

     Using Slab Decomposition

     bravais-lattice index     =            0
     lattice parameter (alat)  =       8.8830  a.u.
     unit-cell volume          =     420.3622 (a.u.)^3
     number of atoms/cell      =            4
     number of atomic types    =            3
     number of electrons       =        61.00
     number of Kohn-Sham states=           37
     kinetic-energy cutoff     =      30.0000  Ry
     charge density cutoff     =     240.0000  Ry
     scf convergence threshold =      1.0E-06
     mixing beta               =       0.7000
     number of iterations used =            8  plain     mixing
     Exchange-correlation= PBE
                           (   1   4   3   4   0   0   0)

     celldm(1)=   8.882965  celldm(2)=   0.000000  celldm(3)=   0.000000
     celldm(4)=   0.000000  celldm(5)=   0.000000  celldm(6)=   0.000000

     crystal axes: (cart. coord. in units of alat)
               a(1) = (   1.000000   0.000000   0.000000 )
               a(2) = (   0.237621   0.971358   0.000000 )
               a(3) = (  -0.618810  -0.485679   0.617406 )

     reciprocal axes: (cart. coord. in units 2 pi/alat)
               b(1) = (  1.000000 -0.244627  0.809841 )
               b(2) = (  0.000000  1.029487  0.809841 )
               b(3) = (  0.000000  0.000000  1.619681 )

     PseudoPot. # 1 for V  read from file:
     /home/pragov/projects/rrg-bengioy-ad/pragov/crystal_structure_design/SSSP/v_pbe_v1.4.uspp.F.UPF
     MD5 check sum: 22b79981416ebb76fdaf5b1b8640f6fb
     Pseudo is Ultrasoft + core correction, Zval = 13.0
     Generated by new atomic code, or converted to UPF format
     Using radial grid of  853 points,  6 beta functions with:
                l(1) =   0
                l(2) =   0
                l(3) =   1
                l(4) =   1
                l(5) =   2
                l(6) =   2
     Q(r) pseudized with  8 coefficients,  rinner =    1.100   1.100   1.100
                                                       1.100   1.100

     PseudoPot. # 2 for Sn read from file:
     /home/pragov/projects/rrg-bengioy-ad/pragov/crystal_structure_design/SSSP/Sn_pbe_v1.uspp.F.UPF
     MD5 check sum: 4cf58ce39ec5d5d420df3dd08604eb00
     Pseudo is Ultrasoft + core correction, Zval = 14.0
     Generated by new atomic code, or converted to UPF format
     Using radial grid of  891 points,  6 beta functions with:
                l(1) =   0
                l(2) =   0
                l(3) =   1
                l(4) =   1
                l(5) =   2
                l(6) =   2
     Q(r) pseudized with  6 coefficients,  rinner =    1.200   1.200   1.200
                                                       1.200   1.200

     PseudoPot. # 3 for Rh read from file:
     /home/pragov/projects/rrg-bengioy-ad/pragov/crystal_structure_design/SSSP/Rh_ONCV_PBE-1.0.oncvpsp.upf
     MD5 check sum: ba07c69523b14cacd10683cd4c4284c1
     Pseudo is Norm-conserving, Zval = 17.0
     Generated using ONCVPSP code by D. R. Hamann
     Using radial grid of 1442 points,  6 beta functions with:
                l(1) =   0
                l(2) =   0
                l(3) =   1
                l(4) =   1
                l(5) =   2
                l(6) =   2

     atomic species   valence    mass     pseudopotential
        V             13.00    50.94150     V ( 1.00)
        Sn            14.00   118.71000     Sn( 1.00)
        Rh            17.00   102.90550     Rh( 1.00)

      4 Sym. Ops., with inversion, found

                                    s                        frac. trans.

      isym =  1     identity

 cryst.   s( 1) = (     1          0          0      )
                  (     0          1          0      )
                  (     0          0          1      )

 cart.    s( 1) = (  1.0000000  0.0000000 -0.0000000 )
                  (  0.0000000  1.0000000 -0.0000000 )
                  (  0.0000000  0.0000000  1.0000000 )

      isym =  2     180 deg rotation - cart. axis [0,0,1]

[...]

      isym =  3     inversion

[...]

      isym =  4     inv. 180 deg rotation - cart. axis [0,0,1]

 cryst.   s( 4) = (     1          0          0      )
                  (     0          1          0      )
                  (    -1         -1         -1      )

 cart.    s( 4) = (  1.0000000  0.0000000 -0.0000000 )
                  (  0.0000000  1.0000000 -0.0000000 )
                  (  0.0000000  0.0000000 -1.0000000 )

   Cartesian axes

     site n.     atom                  positions (alat units)
         1           V   tau(   1) = (   0.6188104   0.4856790   0.0000000  )
         2           Sn  tau(   2) = (   0.0000000   0.0000000   0.0000000  )
         3           Rh  tau(   3) = (   0.5000000   0.0000000   0.3087028  )
         4           Rh  tau(   4) = (   0.1188104   0.4856790   0.3087028  )

   Crystallographic axes

     site n.     atom                  positions (cryst. coord.)
         1           V   tau(   1) = (  0.5000000  0.5000000  0.0000000  )
         2           Sn  tau(   2) = (  0.0000000  0.0000000  0.0000000  )
         3           Rh  tau(   3) = (  0.7500000  0.2500000  0.5000000  )
         4           Rh  tau(   4) = (  0.2500000  0.7500000  0.5000000  )

     number of k points=     1  Methfessel-Paxton smearing, width (Ry)=  0.0010
                       cart. coord. in units 2pi/alat
        k(    1) = (   0.0000000   0.0000000   0.0000000), wk =   2.0000000

                       cryst. coord.
        k(    1) = (   0.0000000   0.0000000   0.0000000), wk =   2.0000000

     Check: negative core charge=   -0.000004

     Initial potential from superposition of free atoms

     starting charge      59.9979, renormalised to      61.0000
     Starting wfcs are   39 randomized atomic wfcs

     Self-consistent Calculation

     iteration #  1     ecut=    30.00 Ry     beta= 0.70
     Davidson diagonalization with overlap

     ethr =  1.00E-02,  avg # of iterations =  3.0

     negative rho (up, down):  3.637E-04 0.000E+00

     total energy              =    -741.26576948 Ry
     estimated scf accuracy    <       0.71406359 Ry

[...]

     ethr =  1.92E-05,  avg # of iterations =  1.0
     Minimization algorithm failed to find Fermi energy: reverting to bisection
     Possible cause: smearing is larger than the electronic band-gap.

[...]

     negative rho (up, down):  1.751E-06 0.000E+00

[...]

     ethr =  1.22E-06,  avg # of iterations =  1.0

[...]

     total energy              =    -741.62018003 Ry
     estimated scf accuracy    <       0.00002162 Ry

     iteration # 42     ecut=    30.00 Ry     beta= 0.70
     Davidson diagonalization with overlap

     ethr =  1.73E-09,  avg # of iterations =  2.0
     Minimization algorithm failed to find Fermi energy: reverting to bisection
     Possible cause: smearing is larger than the electronic band-gap.

     End of self-consistent calculation

          k = 0.0000 0.0000 0.0000 (   597 PWs)   bands (ev):

   -58.4938 -58.4643 -43.2135 -26.5161 -26.4906 -26.4905 -26.4886 -26.3217
   -26.3217 -17.1967 -17.1966 -17.0985  -3.6615  -3.6276  -3.6241  -3.6241
    -3.6167   8.3029  14.2902  14.7648  14.7649  15.0476  15.3980  17.8202
    17.8202  18.5598  18.6029  19.3427  20.0736  20.0736  20.0774  20.3536
    20.7391  21.0621  22.8172  23.4045  23.4046

     occupation numbers
     1.0000   1.0000   1.0000   1.0000   1.0000   1.0000   1.0000   1.0000
     1.0000   1.0000   1.0000   1.0000   1.0000   1.0000   1.0000   1.0000
     1.0000   1.0000   1.0000   1.0000   1.0000   1.0000   1.0000   1.0000
     1.0000   1.0000   1.0000   1.0000   0.8938   0.8920   0.7142  -0.0000
    -0.0000  -0.0000  -0.0000  -0.0000  -0.0000

     the Fermi energy is    20.0810 ev

!    total energy              =    -741.62018010 Ry
     estimated scf accuracy    <       0.00000038 Ry
     smearing contrib. (-TS)   =      -0.00039898 Ry
     internal energy E=F+TS    =    -741.61978112 Ry

     The total energy is F=E-TS. E is the sum of the following terms:
     one-electron contribution =    -196.57195461 Ry
     hartree contribution      =     140.23900971 Ry
     xc contribution           =    -111.86900324 Ry
     ewald contribution        =    -573.41783298 Ry

     convergence has been achieved in  42 iterations

     Forces acting on atoms (cartesian axes, Ry/au):

     atom    1 type  1   force =     0.00000000    0.00000000    0.00000000
     atom    2 type  2   force =     0.00000000    0.00000000    0.00000000
     atom    3 type  3   force =     0.00000000    0.00000000    0.00000140
     atom    4 type  3   force =     0.00000000    0.00000000   -0.00000140
     The non-local contrib.  to forces
     atom    1 type  1   force =     0.00000000    0.00000000   -0.00000000
     atom    2 type  2   force =     0.00000000    0.00000000    0.00000000
     atom    3 type  3   force =     0.00000000    0.00000000    0.00000157
     atom    4 type  3   force =     0.00000000    0.00000000   -0.00000157
     The ionic contribution  to forces
     atom    1 type  1   force =     0.00000000   -0.00000000    0.00000000
     atom    2 type  2   force =    -0.00000000    0.00000000    0.00000000
     atom    3 type  3   force =     0.00000000    0.00000000   -0.00000000
     atom    4 type  3   force =    -0.00000000    0.00000000   -0.00000000
     The local contribution  to forces
     atom    1 type  1   force =    -0.00039585    0.00051811    0.00011557
     atom    2 type  2   force =     0.00058021   -0.00072378   -0.00064824
     atom    3 type  3   force =    -0.00060794    0.00027096   -0.00038531
     atom    4 type  3   force =    -0.00008699    0.00060845   -0.00040199
     The core correction contribution to forces
     atom    1 type  1   force =     0.00000956   -0.00001266   -0.00001308
     atom    2 type  2   force =     0.00000910   -0.00001137   -0.00001794
     atom    3 type  3   force =     0.00000000    0.00000000    0.00000000
     atom    4 type  3   force =     0.00000000    0.00000000    0.00000000
     The Hubbard contrib.    to forces
     atom    1 type  1   force =     0.00000000    0.00000000    0.00000000
     atom    2 type  2   force =     0.00000000    0.00000000    0.00000000
     atom    3 type  3   force =     0.00000000    0.00000000    0.00000000
     atom    4 type  3   force =     0.00000000    0.00000000    0.00000000
     The SCF correction term to forces
     atom    1 type  1   force =     0.00044291   -0.00058284   -0.00023680
     atom    2 type  2   force =    -0.00056168    0.00069553    0.00066269
     atom    3 type  3   force =    -0.00003755   -0.00000825   -0.00024093
     atom    4 type  3   force =    -0.00000742    0.00008817   -0.00022391

     Total force =     0.000002     Total SCF correction =     0.001396
     SCF correction compared to forces is large: reduce conv_thr to get better values

     Computing stress (Cartesian axis) and pressure

          total   stress  (Ry/bohr**3)                   (kbar)     P=       49.63
  -0.00070304  -0.00177119   0.00000000         -103.42     -260.55        0.00
  -0.00177119   0.00016357   0.00000000         -260.55       24.06        0.00
   0.00000000   0.00000000   0.00155163            0.00        0.00      228.25

     kinetic stress (kbar)  46344.39   -278.45     -0.00
                             -278.45  46480.62     -0.00
                               -0.00     -0.00  46699.85

     local   stress (kbar)   7406.66    840.99      0.95
                              840.99   6995.23     -1.20
                                0.95     -1.20   6334.18

     nonloc. stress (kbar)   7171.55    -13.40     -0.00
                              -13.40   7178.10     -0.00
                               -0.00     -0.00   7188.72

     hartree stress (kbar)  16119.20   -407.70     -0.31
                             -407.70  16318.66      0.39
                               -0.31      0.39  16638.56

     exc-cor stress (kbar)    962.14      2.23     -0.01
                                2.23    961.05      0.01
                               -0.01      0.01    959.30

     corecor stress (kbar) -10980.78      0.18      0.01
                                0.18 -10980.87     -0.01
                                0.01     -0.01 -10981.03

     ewald   stress (kbar) -67126.58   -404.40     -0.00
                             -404.40 -66928.72     -0.00
                               -0.00     -0.00 -66611.33

     hubbard stress (kbar)      0.00      0.00      0.00
                                0.00      0.00      0.00
                                0.00      0.00      0.00

     DFT-D   stress (kbar)      0.00      0.00      0.00
                                0.00      0.00      0.00
                                0.00      0.00      0.00

     XDM     stress (kbar)      0.00      0.00      0.00
                                0.00      0.00      0.00
                                0.00      0.00      0.00

     dft-nl  stress (kbar)      0.00      0.00      0.00
                                0.00      0.00      0.00
                                0.00      0.00      0.00

     TS-vdW  stress (kbar)      0.00      0.00      0.00
                                0.00      0.00      0.00
                                0.00      0.00      0.00

[...]

                                0.00      0.00      0.00

     Writing all to output data dir new_calculations/myprefix.save/

     General routines

     Parallel routines

   This run was terminated on:  14:24:22  20May2023

   JOB DONE.