     Program PWSCF v.7.0 starts on 20May2023 at 17:16:55

     Reading input from espresso_13562.pwi
Warning: card &CELL ignored
Warning: card / ignored

     Current dimensions of program PWSCF are:
     Max number of different atomic species (ntypx) = 10
     Max number of k-points (npk) =  40000
     Max angular momentum in pseudopotentials (lmaxx) =  4

     gamma-point specific algorithms are used
     Message from routine setup:
     using ibrav=0 with symmetry is DISCOURAGED, use correct ibrav instead

     Subspace diagonalization in iterative solution of the eigenvalue problem:
     a serial algorithm will be used

     Using Slab Decomposition

     bravais-lattice index     =            0
     lattice parameter (alat)  =      14.4534  a.u.
     unit-cell volume          =     789.0292 (a.u.)^3
     number of atoms/cell      =            5
     number of atomic types    =            3
     number of electrons       =        53.00
     number of Kohn-Sham states=           32
     kinetic-energy cutoff     =      30.0000  Ry
     charge density cutoff     =     240.0000  Ry
     scf convergence threshold =      1.0E-06
     mixing beta               =       0.7000
     number of iterations used =            8  plain     mixing
     Exchange-correlation= PBE
                           (   1   4   3   4   0   0   0)

     celldm(1)=  14.453440  celldm(2)=   0.000000  celldm(3)=   0.000000
     celldm(4)=   0.000000  celldm(5)=   0.000000  celldm(6)=   0.000000

     crystal axes: (cart. coord. in units of alat)
               a(1) = (   1.000000   0.000000   0.000000 )
               a(2) = (   0.718047   0.695995   0.000000 )
               a(3) = (  -0.859023  -0.347997   0.375468 )

     reciprocal axes: (cart. coord. in units 2 pi/alat)
               b(1) = (  1.000000 -1.031684  1.331670 )
               b(2) = (  0.000000  1.436793  1.331670 )
               b(3) = (  0.000000  0.000000  2.663340 )

     PseudoPot. # 1 for Rb read from file:
     /home/pragov/projects/rrg-bengioy-ad/pragov/crystal_structure_design/SSSP/Rb_ONCV_PBE-1.0.oncvpsp.upf
     MD5 check sum: 55a5172d6bfbce6759a58e35d43f6aa9
     Pseudo is Norm-conserving, Zval =  9.0
     Generated using ONCVPSP code by D. R. Hamann
     Using radial grid of 2308 points,  6 beta functions with:
                l(1) =   0
                l(2) =   0
                l(3) =   1
                l(4) =   1
                l(5) =   2
                l(6) =   2

     PseudoPot. # 2 for As read from file:
     /home/pragov/projects/rrg-bengioy-ad/pragov/crystal_structure_design/SSSP/As.pbe-n-rrkjus_psl.0.2.UPF
     MD5 check sum: 767315de957beeeb34f87d97bf945c8f
     Pseudo is Ultrasoft + core correction, Zval =  5.0
     Generated using "atomic" code by A. Dal Corso  v.5.0.99 svn rev. 10869
     Using radial grid of 1209 points,  4 beta functions with:
                l(1) =   0
                l(2) =   0
                l(3) =   1
                l(4) =   1
     Q(r) pseudized with 0 coefficients

     PseudoPot. # 3 for Rh read from file:
     /home/pragov/projects/rrg-bengioy-ad/pragov/crystal_structure_design/SSSP/Rh_ONCV_PBE-1.0.oncvpsp.upf
     MD5 check sum: ba07c69523b14cacd10683cd4c4284c1
     Pseudo is Norm-conserving, Zval = 17.0
     Generated using ONCVPSP code by D. R. Hamann
     Using radial grid of 1442 points,  6 beta functions with:
                l(1) =   0
                l(2) =   0
                l(3) =   1
                l(4) =   1
                l(5) =   2
                l(6) =   2

     atomic species   valence    mass     pseudopotential
        Rb             9.00    85.46780     Rb( 1.00)
        As             5.00    74.92159     As( 1.00)
        Rh            17.00   102.90550     Rh( 1.00)

      4 Sym. Ops., with inversion, found

                                    s                        frac. trans.

      isym =  1     identity

 cryst.   s( 1) = (     1          0          0      )
                  (     0          1          0      )
                  (     0          0          1      )

 cart.    s( 1) = (  1.0000000  0.0000000 -0.0000000 )
                  (  0.0000000  1.0000000 -0.0000000 )
                  (  0.0000000  0.0000000  1.0000000 )

      isym =  2     180 deg rotation - cart. axis [0,0,1]

[...]

      isym =  3     inversion

[...]

      isym =  4     inv. 180 deg rotation - cart. axis [0,0,1]

 cryst.   s( 4) = (     1          0          0      )
                  (     0          1          0      )
                  (    -1         -1         -1      )

 cart.    s( 4) = (  1.0000000  0.0000000 -0.0000000 )
                  (  0.0000000  1.0000000 -0.0000000 )
                  (  0.0000000  0.0000000 -1.0000000 )

   Cartesian axes

     site n.     atom                  positions (alat units)
         1           Rb  tau(   1) = (   0.0000000   0.0000000   0.0000000  )
         2           As  tau(   2) = (   0.5960558   0.2414670   0.0000000  )
         3           As  tau(   3) = (   1.1219911   0.4545277   0.0000000  )
         4           Rh  tau(   4) = (   0.5000000   0.0000000   0.1877342  )
         5           Rh  tau(   5) = (   0.3590235   0.3479974   0.1877342  )

   Crystallographic axes

     site n.     atom                  positions (cryst. coord.)
         1           Rb  tau(   1) = (  0.0000000  0.0000000  0.0000000  )
         2           As  tau(   2) = (  0.3469380  0.3469380  0.0000000  )
         3           As  tau(   3) = (  0.6530620  0.6530620  0.0000000  )
         4           Rh  tau(   4) = (  0.7500000  0.2500000  0.5000000  )
         5           Rh  tau(   5) = (  0.2500000  0.7500000  0.5000000  )

     number of k points=     1  Methfessel-Paxton smearing, width (Ry)=  0.0010
                       cart. coord. in units 2pi/alat
        k(    1) = (   0.0000000   0.0000000   0.0000000), wk =   2.0000000

                       cryst. coord.
        k(    1) = (   0.0000000   0.0000000   0.0000000), wk =   2.0000000

     Initial potential from superposition of free atoms

     starting charge      52.9739, renormalised to      53.0000
     Starting wfcs are   33 randomized atomic wfcs

     Self-consistent Calculation

     iteration #  1     ecut=    30.00 Ry     beta= 0.70
     Davidson diagonalization with overlap

     ethr =  1.00E-02,  avg # of iterations =  7.0

     total energy              =    -518.90654445 Ry
     estimated scf accuracy    <       0.85543769 Ry

[...]

     total energy              =    -519.47628629 Ry
     estimated scf accuracy    <       0.00000390 Ry

     iteration # 11     ecut=    30.00 Ry     beta= 0.70
     Davidson diagonalization with overlap

     ethr =  7.36E-09,  avg # of iterations =  2.0

     End of self-consistent calculation

          k = 0.0000 0.0000 0.0000 (  1098 PWs)   bands (ev):

   -75.2208 -68.4844 -36.6716 -36.6570 -36.5242 -36.5167 -36.3192 -35.5944
   -17.3369  -2.1261  -1.8805  -1.3214  -1.2321  -0.7782   4.4284   4.8124
     5.3952   5.4780   5.5069   7.1114   7.3536   8.1242   8.5840   9.1225
     9.8460  10.0349  10.5507  11.9103  12.1757  13.1789  13.2835  13.7812

     occupation numbers
     1.0000   1.0000   1.0000   1.0000   1.0000   1.0000   1.0000   1.0000
     1.0000   1.0000   1.0000   1.0000   1.0000   1.0000   1.0000   1.0000
     1.0000   1.0000   1.0000   1.0000   1.0000   1.0000   1.0000   1.0000
     1.0000   1.0000   0.5000  -0.0000  -0.0000  -0.0000  -0.0000  -0.0000

     the Fermi energy is    10.5507 ev

!    total energy              =    -519.47628637 Ry
     estimated scf accuracy    <       0.00000043 Ry
     smearing contrib. (-TS)   =      -0.00028209 Ry
     internal energy E=F+TS    =    -519.47600428 Ry

     The total energy is F=E-TS. E is the sum of the following terms:
     one-electron contribution =    -395.91491420 Ry
     hartree contribution      =     214.53765457 Ry
     xc contribution           =     -70.09265152 Ry
     ewald contribution        =    -268.00609312 Ry

     convergence has been achieved in  11 iterations

     Forces acting on atoms (cartesian axes, Ry/au):

     atom    1 type  1   force =     0.00000000    0.00000000    0.00000000
     atom    2 type  2   force =     0.02716116    0.01957886   -0.00000000
     atom    3 type  2   force =    -0.02716116   -0.01957886    0.00000000
     atom    4 type  3   force =     0.00000000    0.00000000   -0.01052978
     atom    5 type  3   force =     0.00000000    0.00000000    0.01052978
     The non-local contrib.  to forces
     atom    1 type  1   force =     0.00000000    0.00000000    0.00000000
     atom    2 type  2   force =    -0.13873701   -0.03180154    0.00000000
     atom    3 type  2   force =     0.13873701    0.03180154   -0.00000000
     atom    4 type  3   force =     0.00000000    0.00000000    0.00611456
     atom    5 type  3   force =     0.00000000    0.00000000   -0.00611456
     The ionic contribution  to forces
     atom    1 type  1   force =    -0.00000000   -0.00000000   -0.00000000
     atom    2 type  2   force =    14.22342941    5.76202648   -0.00000000
     atom    3 type  2   force =   -14.22342941   -5.76202648    0.00000000
     atom    4 type  3   force =     0.00000000   -0.00000000    0.00000000
     atom    5 type  3   force =     0.00000000    0.00000000   -0.00000000
     The local contribution  to forces
     atom    1 type  1   force =     0.00016317    0.00006385    0.00001175
     atom    2 type  2   force =   -14.05393909   -5.70767913   -0.00381657
     atom    3 type  2   force =    14.05390167    5.70767915    0.00381389
     atom    4 type  3   force =     0.01825368    0.00208359   -0.01633901
     atom    5 type  3   force =    -0.01862736   -0.00224673    0.01634868
     The core correction contribution to forces
     atom    1 type  1   force =     0.00000000    0.00000000    0.00000000
     atom    2 type  2   force =    -0.00426902   -0.00320130   -0.00055587
     atom    3 type  2   force =     0.00426822    0.00320074    0.00055610
     atom    4 type  3   force =     0.00000000    0.00000000    0.00000000
     atom    5 type  3   force =     0.00000000    0.00000000    0.00000000
     The Hubbard contrib.    to forces
     atom    1 type  1   force =     0.00000000    0.00000000    0.00000000
     atom    2 type  2   force =     0.00000000    0.00000000    0.00000000
     atom    3 type  2   force =     0.00000000    0.00000000    0.00000000
     atom    4 type  3   force =     0.00000000    0.00000000    0.00000000
     atom    5 type  3   force =     0.00000000    0.00000000    0.00000000
     The SCF correction term to forces
     atom    1 type  1   force =    -0.00016410   -0.00006785   -0.00000616
     atom    2 type  2   force =     0.00067424    0.00023235    0.00001134
     atom    3 type  2   force =    -0.00064126   -0.00023582   -0.00000813
     atom    4 type  3   force =    -0.00006979    0.00013439   -0.00031081
     atom    5 type  3   force =     0.00039508    0.00002775    0.00029019

     Total force =     0.049637     Total SCF correction =     0.001170

     Computing stress (Cartesian axis) and pressure

          total   stress  (Ry/bohr**3)                   (kbar)     P=       32.27
  -0.00037961   0.00005075   0.00000000          -55.84        7.47        0.00
   0.00005075   0.00050697  -0.00000000            7.47       74.58       -0.00
   0.00000000  -0.00000000   0.00053077            0.00       -0.00       78.08

     kinetic stress (kbar)  20640.35    134.91     -0.00
                              134.91  20294.12     -0.00
                               -0.00     -0.00  20476.97

     local   stress (kbar)  30570.38  30983.92     55.88
                            30983.92 -33138.09      2.59
                               55.88      2.59 -45982.16

     nonloc. stress (kbar)   2651.55    -20.98     -0.00
                              -20.98   2699.27     -0.00
                               -0.00     -0.00   2685.86

     hartree stress (kbar)  -8038.59 -14134.68    -14.03
                           -14134.68  21112.28     -1.71
                              -14.03     -1.71  26924.30

     exc-cor stress (kbar)  -1349.50     -0.74     -0.17
                               -0.74  -1346.74     -0.26
                               -0.17     -0.26  -1344.80

     corecor stress (kbar)  -2252.01      6.69     -0.69
                                6.69  -2266.37      1.08
                               -0.69      1.08  -2273.47

     ewald   stress (kbar) -42278.03 -16961.64      0.00
                           -16961.64  -7279.91      0.00
                                0.00      0.00   -408.61

     hubbard stress (kbar)      0.00      0.00      0.00
                                0.00      0.00      0.00
                                0.00      0.00      0.00

     DFT-D   stress (kbar)      0.00      0.00      0.00
                                0.00      0.00      0.00
                                0.00      0.00      0.00

     XDM     stress (kbar)      0.00      0.00      0.00
                                0.00      0.00      0.00
                                0.00      0.00      0.00

     dft-nl  stress (kbar)      0.00      0.00      0.00
                                0.00      0.00      0.00
                                0.00      0.00      0.00

     TS-vdW  stress (kbar)      0.00      0.00      0.00
                                0.00      0.00      0.00
                                0.00      0.00      0.00

[...]

                                0.00      0.00      0.00

     Writing all to output data dir new_calculations/myprefix.save/

     General routines

     Parallel routines

   This run was terminated on:  17:17: 7  20May2023

   JOB DONE.