     Program PWSCF v.7.0 starts on 20May2023 at 20:46:13

     Reading input from espresso_20209.pwi
Warning: card &CELL ignored
Warning: card / ignored

     Current dimensions of program PWSCF are:
     Max number of different atomic species (ntypx) = 10
     Max number of k-points (npk) =  40000
     Max angular momentum in pseudopotentials (lmaxx) =  4

     gamma-point specific algorithms are used

     Subspace diagonalization in iterative solution of the eigenvalue problem:
     a serial algorithm will be used

     Using Slab Decomposition

     bravais-lattice index     =            0
     lattice parameter (alat)  =       7.5515  a.u.
     unit-cell volume          =    1145.7984 (a.u.)^3
     number of atoms/cell      =            7
     number of atomic types    =            3
     number of electrons       =        64.00
     number of Kohn-Sham states=           38
     kinetic-energy cutoff     =      30.0000  Ry
     charge density cutoff     =     240.0000  Ry
     scf convergence threshold =      1.0E-06
     mixing beta               =       0.7000
     number of iterations used =            8  plain     mixing
     Exchange-correlation= SLA  PW   PBE  PBE
                           (   1   4   3   4   0   0   0)

     celldm(1)=   7.551487  celldm(2)=   0.000000  celldm(3)=   0.000000
     celldm(4)=   0.000000  celldm(5)=   0.000000  celldm(6)=   0.000000

     crystal axes: (cart. coord. in units of alat)
               a(1) = (   1.000000   0.000000   0.000000 )
               a(2) = (  -0.003460   1.711566   0.000000 )
               a(3) = (  -0.502584  -0.825499   1.554594 )

     reciprocal axes: (cart. coord. in units 2 pi/alat)
               b(1) = (  1.000000  0.002022  0.324363 )
               b(2) = (  0.000000  0.584260  0.310246 )
               b(3) = (  0.000000  0.000000  0.643255 )

     PseudoPot. # 1 for Ti read from file:
     /home/pragov/projects/rrg-bengioy-ad/pragov/crystal_structure_design/SSSP/ti_pbe_v1.4.uspp.F.UPF
     MD5 check sum: 88a00a6731bd790ddea75d31a80cb452
     Pseudo is Ultrasoft + core correction, Zval = 12.0
     Generated by new atomic code, or converted to UPF format
     Using radial grid of  851 points,  6 beta functions with:
                l(1) =   0
                l(2) =   0
                l(3) =   1
                l(4) =   1
                l(5) =   2
                l(6) =   2
     Q(r) pseudized with  6 coefficients,  rinner =    1.000   1.000   1.000
                                                       1.000   1.000

     PseudoPot. # 2 for Cr read from file:
     /home/pragov/projects/rrg-bengioy-ad/pragov/crystal_structure_design/SSSP/cr_pbe_v1.5.uspp.F.UPF
     MD5 check sum: 0d52af634a40206e4dee301ad30da4bf
     Pseudo is Ultrasoft + core correction, Zval = 14.0
     Generated by new atomic code, or converted to UPF format
     Using radial grid of  857 points,  6 beta functions with:
                l(1) =   0
                l(2) =   0
                l(3) =   1
                l(4) =   1
                l(5) =   2
                l(6) =   2
     Q(r) pseudized with  8 coefficients,  rinner =    0.950   0.950   0.950
                                                       0.950   0.950

     PseudoPot. # 3 for Te read from file:
     /home/pragov/projects/rrg-bengioy-ad/pragov/crystal_structure_design/SSSP/Te_pbe_v1.uspp.F.UPF
     MD5 check sum: c319670d6894cc26e93307826a071b75
     Pseudo is Ultrasoft + core correction, Zval =  6.0
     Generated by new atomic code, or converted to UPF format
     Using radial grid of  891 points,  5 beta functions with:
                l(1) =   0
                l(2) =   0
                l(3) =   1
                l(4) =   1
                l(5) =   2
     Q(r) pseudized with  6 coefficients,  rinner =    1.800   1.800   1.800
                                                       1.800   1.800

     atomic species   valence    mass     pseudopotential
        Ti            12.00    47.86700     Ti( 1.00)
        Cr            14.00    51.99610     Cr( 1.00)
        Te             6.00   127.60000     Te( 1.00)

     No symmetry found

                                    s                        frac. trans.

      isym =  1     identity

 cryst.   s( 1) = (     1          0          0      )
                  (     0          1          0      )
                  (     0          0          1      )

 cart.    s( 1) = (  1.0000000  0.0000000  0.0000000 )
                  (  0.0000000  1.0000000  0.0000000 )
                  (  0.0000000  0.0000000  1.0000000 )

   Cartesian axes

     site n.     atom                  positions (alat units)
         1           Ti  tau(   1) = (  -0.0026727  -0.0399623   0.7780651  )
         2           Cr  tau(   2) = (  -0.0044977   0.0307474   1.5351556  )
         3           Cr  tau(   3) = (   0.4970151   0.9221060   0.7922756  )
         4           Te  tau(   4) = (  -0.0026522   0.5914946   0.4073938  )
         5           Te  tau(   5) = (  -0.0013247  -0.5672260   1.2061101  )
         6           Te  tau(   6) = (   0.4954575   1.4390531   0.3560130  )
         7           Te  tau(   7) = (   0.4962285   0.3122714   1.1433621  )

   Crystallographic axes

     site n.     atom                  positions (cryst. coord.)
         1           Ti  tau(   1) = (  0.2496220  0.2180430  0.5004940  )
         2           Cr  tau(   2) = (  0.4935120  0.4942400  0.9874960  )
         3           Cr  tau(   3) = (  0.7558640  0.7845500  0.5096350  )
         4           Te  tau(   4) = (  0.1306870  0.4719790  0.2620580  )
         5           Te  tau(   5) = (  0.3887460  0.0427830  0.7758360  )
         6           Te  tau(   6) = (  0.6138440  0.9512330  0.2290070  )
         7           Te  tau(   7) = (  0.8677240  0.5371710  0.7354730  )

     number of k points=     1  Methfessel-Paxton smearing, width (Ry)=  0.0010
                       cart. coord. in units 2pi/alat
        k(    1) = (   0.0000000   0.0000000   0.0000000), wk =   2.0000000

                       cryst. coord.
        k(    1) = (   0.0000000   0.0000000   0.0000000), wk =   2.0000000

     Check: negative core charge=   -0.000003

     Initial potential from superposition of free atoms

     starting charge      60.9991, renormalised to      64.0000

     negative rho (up, down):  2.532E-03 0.000E+00
     Starting wfcs are   46 randomized atomic wfcs

     Self-consistent Calculation

     iteration #  1     ecut=    30.00 Ry     beta= 0.70
     Davidson diagonalization with overlap

     ethr =  1.00E-02,  avg # of iterations =  4.0

     negative rho (up, down):  9.252E-03 0.000E+00

     total energy              =    -562.80159361 Ry
     estimated scf accuracy    <      15.82119400 Ry

[...]

     total energy              =    -575.52204986 Ry
     estimated scf accuracy    <       0.00000264 Ry

     iteration # 36     ecut=    30.00 Ry     beta= 0.70
     Davidson diagonalization with overlap

     ethr =  4.13E-09,  avg # of iterations =  2.0

[...]

     End of self-consistent calculation

          k = 0.0000 0.0000 0.0000 (  1590 PWs)   bands (ev):

   -61.7909 -61.6638 -47.4945 -33.3158 -33.2803 -33.1047 -33.0454 -32.9797
   -32.8339 -24.0098 -23.7711 -23.6054  -3.5993  -1.9385  -1.8489  -1.7941
     3.3228   3.8281   3.9845   6.4668   6.5172   6.7161   6.7743   7.3014
     7.3471   8.7176   8.9452   8.9806   9.0454   9.2340   9.2873   9.4272
     9.4439   9.6263  10.2519  10.2893  10.3998  10.5033

     occupation numbers
     1.0000   1.0000   1.0000   1.0000   1.0000   1.0000   1.0000   1.0000
     1.0000   1.0000   1.0000   1.0000   1.0000   1.0000   1.0000   1.0000
     1.0000   1.0000   1.0000   1.0000   1.0000   1.0000   1.0000   1.0000
     1.0000   1.0000   1.0000   1.0000   1.0000   1.0000   1.0000   0.9264
     0.0736  -0.0000  -0.0000  -0.0000  -0.0000  -0.0000

     the Fermi energy is     9.4355 ev

!    total energy              =    -575.52204939 Ry
     estimated scf accuracy    <       0.00000065 Ry
     smearing contrib. (-TS)   =      -0.00009474 Ry
     internal energy E=F+TS    =    -575.52195466 Ry

     The total energy is F=E-TS. E is the sum of the following terms:
     one-electron contribution =    -327.52665129 Ry
     hartree contribution      =     186.53053280 Ry
     xc contribution           =    -120.94475375 Ry
     ewald contribution        =    -313.58108242 Ry

     convergence has been achieved in  36 iterations

     negative rho (up, down):  1.647E-03 0.000E+00

     Forces acting on atoms (cartesian axes, Ry/au):

     atom    1 type  1   force =     0.00164947   -0.04503319    0.05704670
     atom    2 type  2   force =     0.00382435   -0.02779640    0.01510099
     atom    3 type  2   force =     0.00367669    0.02666820   -0.06864145
     atom    4 type  3   force =    -0.00333356    0.01654863    0.03573549
     atom    5 type  3   force =    -0.00069568    0.05500333   -0.00949447
     atom    6 type  3   force =    -0.00249197   -0.04095838    0.01456143
     atom    7 type  3   force =    -0.00262930    0.01556781   -0.04430870
     The non-local contrib.  to forces
     atom    1 type  1   force =    -0.00066713   -0.00054856   -0.04425177
     atom    2 type  2   force =     0.00060819    0.02652202   -0.03483427
     atom    3 type  2   force =    -0.00188655   -0.01530717    0.10868416
     atom    4 type  3   force =    -0.00109569   -0.11887547    0.01898695
     atom    5 type  3   force =    -0.00246118    0.04089667   -0.00542044
     atom    6 type  3   force =     0.00153991    0.02400525    0.07164639
     atom    7 type  3   force =    -0.00305604    0.05555606   -0.07834697
     The ionic contribution  to forces
     atom    1 type  1   force =     0.02674154    2.63798724   -6.28239466
     atom    2 type  2   force =    -0.00481821    0.00145715    0.95100315
     atom    3 type  2   force =    -0.03437068   -2.50616223    5.09066375
     atom    4 type  3   force =     0.00703689   -4.12513739   -1.33272424
     atom    5 type  3   force =     0.04135162   -3.81557526    5.39684715
     atom    6 type  3   force =    -0.03256396    4.67433713   -4.79922943
     atom    7 type  3   force =    -0.00337719    3.13309336    0.97583427
     The local contribution  to forces
     atom    1 type  1   force =    -0.02452137   -2.67835657    6.37985534
     atom    2 type  2   force =     0.00800631   -0.05482891   -0.90715666
     atom    3 type  2   force =     0.03978546    2.54473808   -5.25885753
     atom    4 type  3   force =    -0.00920275    4.27689402    1.35045122
     atom    5 type  3   force =    -0.03942001    3.83278630   -5.40768160
     atom    6 type  3   force =     0.02840096   -4.74600651    4.74258162
     atom    7 type  3   force =     0.00410813   -3.18438877   -0.93763344
     The core correction contribution to forces
     atom    1 type  1   force =     0.00006257   -0.00427608    0.00340669
     atom    2 type  2   force =    -0.00012742   -0.00106866    0.00567056
     atom    3 type  2   force =     0.00008395    0.00364084   -0.00894582
     atom    4 type  3   force =    -0.00003656   -0.01665658   -0.00068934
     atom    5 type  3   force =    -0.00015430   -0.00307638    0.00654831
     atom    6 type  3   force =     0.00014615    0.00706666   -0.00006916
     atom    7 type  3   force =    -0.00027691    0.01127044   -0.00457273
     The Hubbard contrib.    to forces
     atom    1 type  1   force =     0.00000000    0.00000000    0.00000000
     atom    2 type  2   force =     0.00000000    0.00000000    0.00000000
     atom    3 type  2   force =     0.00000000    0.00000000    0.00000000
     atom    4 type  3   force =     0.00000000    0.00000000    0.00000000
     atom    5 type  3   force =     0.00000000    0.00000000    0.00000000
     atom    6 type  3   force =     0.00000000    0.00000000    0.00000000
     atom    7 type  3   force =     0.00000000    0.00000000    0.00000000
     The SCF correction term to forces
     atom    1 type  1   force =     0.00004125    0.00016781    0.00043286
     atom    2 type  2   force =     0.00016287    0.00012903    0.00041994
     atom    3 type  2   force =     0.00007190   -0.00023430   -0.00018427
     atom    4 type  3   force =    -0.00002807    0.00033107   -0.00028735
     atom    5 type  3   force =    -0.00000443   -0.00002098    0.00021385
     atom    6 type  3   force =    -0.00000764   -0.00035390   -0.00036624
     atom    7 type  3   force =    -0.00001990    0.00004375    0.00041191

     Total force =     0.143259     Total SCF correction =     0.001096

     Computing stress (Cartesian axis) and pressure

     negative rho (up, down):  1.647E-03 0.000E+00
          total   stress  (Ry/bohr**3)                   (kbar)     P=      -12.75
   0.00129427   0.00000689   0.00000844          190.39        1.01        1.24
   0.00000689  -0.00033341   0.00003560            1.01      -49.05        5.24
   0.00000844   0.00003560  -0.00122097            1.24        5.24     -179.61

     kinetic stress (kbar)  10794.26      1.99      2.22
                                1.99  10490.50      8.06
                                2.22      8.06  10361.51

     local   stress (kbar)  -2226.21    -15.70    -32.00
                              -15.70   3385.59  -2149.48
                              -32.00  -2149.48  -1661.73

     nonloc. stress (kbar)  -1500.37      1.08     -0.31
                                1.08  -1429.84    -33.71
                               -0.31    -33.71  -1264.12

     hartree stress (kbar)   9066.02      6.21      7.76
                                6.21   6314.67   1038.84
                                7.76   1038.84   8567.31

     exc-cor stress (kbar)   3203.31      0.03      0.12
                                0.03   3204.26     -0.14
                                0.12     -0.14   3204.12

     corecor stress (kbar)  -6781.61     -0.00     -0.13
                               -0.00  -6762.77     -3.25
                               -0.13     -3.25  -6743.57

     ewald   stress (kbar) -12365.01      7.42     23.59
                                7.42 -15251.45   1144.91
                               23.59   1144.91 -12643.13

     hubbard stress (kbar)      0.00      0.00      0.00
                                0.00      0.00      0.00
                                0.00      0.00      0.00

     DFT-D   stress (kbar)      0.00      0.00      0.00
                                0.00      0.00      0.00
                                0.00      0.00      0.00

     XDM     stress (kbar)      0.00      0.00      0.00
                                0.00      0.00      0.00
                                0.00      0.00      0.00

     dft-nl  stress (kbar)      0.00      0.00      0.00
                                0.00      0.00      0.00
                                0.00      0.00      0.00

     TS-vdW  stress (kbar)      0.00      0.00      0.00
                                0.00      0.00      0.00
                                0.00      0.00      0.00

[...]

                                0.00      0.00      0.00

     Writing all to output data dir new_calculations/myprefix.save/

     General routines

     Parallel routines

   This run was terminated on:  20:46:50  20May2023

   JOB DONE.