     Program PWSCF v.7.0 starts on 21May2023 at 11:29:19

     Reading input from espresso_25525.pwi
Warning: card &CELL ignored
Warning: card / ignored

     Current dimensions of program PWSCF are:
     Max number of different atomic species (ntypx) = 10
     Max number of k-points (npk) =  40000
     Max angular momentum in pseudopotentials (lmaxx) =  4
     file Mg.pbe-n-kjpaw_psl.0.3.0.UPF: wavefunction(s)  3S renormalized

     gamma-point specific algorithms are used
     Message from routine setup:
     using ibrav=0 with symmetry is DISCOURAGED, use correct ibrav instead

     Subspace diagonalization in iterative solution of the eigenvalue problem:
     a serial algorithm will be used

     Using Slab Decomposition

     bravais-lattice index     =            0
     lattice parameter (alat)  =      10.9380  a.u.
     unit-cell volume          =     884.8142 (a.u.)^3
     number of atoms/cell      =            8
     number of atomic types    =            3
     number of electrons       =        59.00
     number of Kohn-Sham states=           36
     kinetic-energy cutoff     =      30.0000  Ry
     charge density cutoff     =     240.0000  Ry
     scf convergence threshold =      1.0E-06
     mixing beta               =       0.7000
     number of iterations used =            8  plain     mixing
     Exchange-correlation=  SLA  PW   PBX  PBC
                           (   1   4   3   4   0   0   0)

     celldm(1)=  10.938038  celldm(2)=   0.000000  celldm(3)=   0.000000
     celldm(4)=   0.000000  celldm(5)=   0.000000  celldm(6)=   0.000000

     crystal axes: (cart. coord. in units of alat)
               a(1) = (   1.000000   0.000000   0.000000 )
               a(2) = (   0.528592   0.848876   0.000000 )
               a(3) = (   0.528592   0.293544   0.796507 )

     reciprocal axes: (cart. coord. in units 2 pi/alat)
               b(1) = (  1.000000 -0.622696 -0.434150 )
               b(2) = (  0.000000  1.178028 -0.434150 )
               b(3) = (  0.000000  0.000000  1.255482 )

     PseudoPot. # 1 for Mg read from file:
     /home/pragov/projects/rrg-bengioy-ad/pragov/crystal_structure_design/SSSP/Mg.pbe-n-kjpaw_psl.0.3.0.UPF
     MD5 check sum: 24ecedc7f3e3cbe212e682f4413594e4
     Pseudo is Projector augmented-wave + core cor, Zval =  2.0
     Generated using "atomic" code by A. Dal Corso  v.5.0.99 svn rev. 10869
     Shape of augmentation charge: PSQ
     Using radial grid of 1129 points,  4 beta functions with:
                l(1) =   0
                l(2) =   0
                l(3) =   1
                l(4) =   1
     Q(r) pseudized with 0 coefficients

     PseudoPot. # 2 for Bi read from file:
     /home/pragov/projects/rrg-bengioy-ad/pragov/crystal_structure_design/SSSP/Bi_pbe_v1.uspp.F.UPF
     MD5 check sum: cceb9f28ec65b6d7ff33140f5b0b1758
     Pseudo is Ultrasoft + core correction, Zval = 15.0
     Generated by new atomic code, or converted to UPF format
     Using radial grid of  899 points,  6 beta functions with:
                l(1) =   0
                l(2) =   0
                l(3) =   1
                l(4) =   1
                l(5) =   2
                l(6) =   2
     Q(r) pseudized with  6 coefficients,  rinner =    1.000   1.000   1.000
                                                       1.000   1.000

     PseudoPot. # 3 for F  read from file:
     /home/pragov/projects/rrg-bengioy-ad/pragov/crystal_structure_design/SSSP/f_pbe_v1.4.uspp.F.UPF
     MD5 check sum: 4c38b6a325caf53ec0e86aed9459de46
     Pseudo is Ultrasoft, Zval =  7.0
     Generated by new atomic code, or converted to UPF format
     Using radial grid of  799 points,  4 beta functions with:
                l(1) =   0
                l(2) =   0
                l(3) =   1
                l(4) =   1
     Q(r) pseudized with  8 coefficients,  rinner =    0.950   0.950   0.950

     atomic species   valence    mass     pseudopotential
        Mg             2.00    24.30500     Mg( 1.00)
        Bi            15.00   208.98040     Bi( 1.00)
        F              7.00    18.99840     F ( 1.00)

      2 Sym. Ops., with inversion, found

                                    s                        frac. trans.

      isym =  1     identity

 cryst.   s( 1) = (     1          0          0      )
                  (     0          1          0      )
                  (     0          0          1      )

 cart.    s( 1) = (  1.0000000  0.0000000  0.0000000 )
                  (  0.0000000  1.0000000  0.0000000 )
                  (  0.0000000  0.0000000  1.0000000 )

      isym =  2     inversion

 cryst.   s( 2) = (    -1          0          0      )
                  (     0         -1          0      )
                  (     0          0         -1      )

 cart.    s( 2) = ( -1.0000000 -0.0000000 -0.0000000 )
                  (  0.0000000 -1.0000000 -0.0000000 )
                  (  0.0000000  0.0000000 -1.0000000 )

   Cartesian axes

     site n.     atom                  positions (alat units)
         1           Mg  tau(   1) = (   1.0285916   0.5712102   0.3982533  )
         2           Bi  tau(   2) = (   0.0000000   0.0000000   0.0000000  )
         3           F   tau(   3) = (   1.2224030   0.7853343   0.2062187  )
         4           F   tau(   4) = (   1.3128036   0.4087755   0.5128300  )
         5           F   tau(   5) = (   1.0162464   0.3505821   0.1309329  )
         6           F   tau(   6) = (   0.7443795   0.7336448   0.2836766  )
         7           F   tau(   7) = (   0.8347801   0.3570860   0.5902879  )
         8           F   tau(   8) = (   1.0409367   0.7918382   0.6655737  )

   Crystallographic axes

     site n.     atom                  positions (cryst. coord.)
         1           Mg  tau(   1) = (  0.5000000  0.5000000  0.5000000  )
         2           Bi  tau(   2) = (  0.0000000  0.0000000  0.0000000  )
         3           F   tau(   3) = (  0.6438490  0.8356160  0.2589040  )
         4           F   tau(   4) = (  0.8356160  0.2589040  0.6438490  )
         5           F   tau(   5) = (  0.7410960  0.3561510  0.1643840  )
         6           F   tau(   6) = (  0.1643840  0.7410960  0.3561510  )
         7           F   tau(   7) = (  0.3561510  0.1643840  0.7410960  )
         8           F   tau(   8) = (  0.2589040  0.6438490  0.8356160  )

     number of k points=     1  Methfessel-Paxton smearing, width (Ry)=  0.0010
                       cart. coord. in units 2pi/alat
        k(    1) = (   0.0000000   0.0000000   0.0000000), wk =   2.0000000

                       cryst. coord.
        k(    1) = (   0.0000000   0.0000000   0.0000000), wk =   2.0000000

     Check: negative core charge=   -0.000003

     Initial potential from superposition of free atoms

     starting charge      57.9990, renormalised to      59.0000

     negative rho (up, down):  4.056E-02 0.000E+00
     Starting wfcs are   37 randomized atomic wfcs
     Checking if some PAW data can be deallocated...

     Self-consistent Calculation

     iteration #  1     ecut=    30.00 Ry     beta= 0.70
     Davidson diagonalization with overlap

     ethr =  1.00E-02,  avg # of iterations =  4.0

     negative rho (up, down):  3.795E-02 0.000E+00

     total energy              =    -510.70746770 Ry
     estimated scf accuracy    <       0.61793995 Ry

[...]

     total energy              =    -510.99827244 Ry
     estimated scf accuracy    <       0.00000257 Ry

     iteration #  8     ecut=    30.00 Ry     beta= 0.70
     Davidson diagonalization with overlap

     ethr =  4.36E-09,  avg # of iterations =  5.0

[...]

     End of self-consistent calculation

          k = 0.0000 0.0000 0.0000 (  1238 PWs)   bands (ev):

   -21.3799 -21.3796 -20.5952 -20.4475 -20.4475 -20.4365 -20.0169 -20.0158
   -20.0102 -18.8592 -18.8586  -8.1353  -3.4603  -3.4597  -3.2741  -1.7601
    -1.7597  -1.7488  -1.4223  -1.4214  -1.0824  -1.0472  -0.8107  -0.8100
    -0.6341  -0.6331  -0.6279  -0.3390  -0.3386   0.7750   8.0067   8.1343
     8.1345   8.8387  12.2830  13.8708

     occupation numbers
     1.0000   1.0000   1.0000   1.0000   1.0000   1.0000   1.0000   1.0000
     1.0000   1.0000   1.0000   1.0000   1.0000   1.0000   1.0000   1.0000
     1.0000   1.0000   1.0000   1.0000   1.0000   1.0000   1.0000   1.0000
     1.0000   1.0000   1.0000   1.0000   1.0000   0.5000  -0.0000  -0.0000
    -0.0000  -0.0000  -0.0000  -0.0000

     the Fermi energy is     0.7750 ev

!    total energy              =    -510.99827288 Ry
     estimated scf accuracy    <       0.00000076 Ry
     smearing contrib. (-TS)   =      -0.00028209 Ry
     internal energy E=F+TS    =    -510.99799079 Ry

     The total energy is F=E-TS. E is the sum of the following terms:
     one-electron contribution =    -266.47314871 Ry
     hartree contribution      =     164.79542458 Ry
     xc contribution           =    -122.58226033 Ry
     ewald contribution        =    -255.47458281 Ry
     one-center paw contrib.   =     -31.26342352 Ry
      -> PAW hartree energy AE =       0.66115053 Ry
      -> PAW hartree energy PS =      -0.66037237 Ry
      -> PAW xc energy AE      =     -32.50655139 Ry
      -> PAW xc energy PS      =       1.24234972 Ry
      -> total E_H with PAW    =     164.79620274 Ry
      -> total E_XC with PAW   =    -153.84646201 Ry

     convergence has been achieved in   8 iterations

     negative rho (up, down):  3.925E-02 0.000E+00

     Forces acting on atoms (cartesian axes, Ry/au):

     atom    1 type  1   force =     0.00000000    0.00000000    0.00000000
     atom    2 type  2   force =     0.00000000    0.00000000    0.00000000
     atom    3 type  3   force =    -0.00001201    0.01706244   -0.00060984
     atom    4 type  3   force =     0.01446556   -0.00371859   -0.00824612
     atom    5 type  3   force =    -0.00449051    0.00291593   -0.01618920
     atom    6 type  3   force =    -0.01446556    0.00371859    0.00824612
     atom    7 type  3   force =     0.00001201   -0.01706244    0.00060984
     atom    8 type  3   force =     0.00449051   -0.00291593    0.01618920
     The non-local contrib.  to forces
     atom    1 type  1   force =     0.00000000    0.00000000    0.00000000
     atom    2 type  2   force =     0.00000000    0.00000000    0.00000000
     atom    3 type  3   force =     0.50044334   -0.32502269   -0.17620223
     atom    4 type  3   force =    -0.01139390    0.04092560    0.62078816
     atom    5 type  3   force =    -0.02873129   -0.57142723    0.24398305
     atom    6 type  3   force =     0.01139390   -0.04092560   -0.62078816
     atom    7 type  3   force =    -0.50044334    0.32502269    0.17620223
     atom    8 type  3   force =     0.02873129    0.57142723   -0.24398305
     The ionic contribution  to forces
     atom    1 type  1   force =     0.00000000    0.00000000   -0.00000000
     atom    2 type  2   force =     0.00000000   -0.00000000    0.00000000
     atom    3 type  3   force =    -5.78636016    0.41783215    3.38108364
     atom    4 type  3   force =    -2.70393361    1.39756922   -5.98529982
     atom    5 type  3   force =     0.24291240    6.66523193    0.77713291
     atom    6 type  3   force =     2.70393361   -1.39756922    5.98529982
     atom    7 type  3   force =     5.78636016   -0.41783215   -3.38108364
     atom    8 type  3   force =    -0.24291240   -6.66523193   -0.77713291
     The local contribution  to forces
     atom    1 type  1   force =    -0.00005423   -0.00006384    0.00009583
     atom    2 type  2   force =     0.00049110   -0.00006794   -0.00046563
     atom    3 type  3   force =     5.28555180   -0.07576569   -3.20532537
     atom    4 type  3   force =     2.72944996   -1.44208915    5.35625327
     atom    5 type  3   force =    -0.21867851   -6.09064795   -1.03715039
     atom    6 type  3   force =    -2.72965301    1.44201562   -5.35609683
     atom    7 type  3   force =    -5.28583900    0.07619515    3.20543118
     atom    8 type  3   force =     0.21862731    6.09070574    1.03720105
     The core correction contribution to forces
     atom    1 type  1   force =     0.00000194    0.00000069   -0.00000235
     atom    2 type  2   force =    -0.00001303   -0.00000125    0.00001264
     atom    3 type  3   force =     0.00000000    0.00000000    0.00000000
     atom    4 type  3   force =     0.00000000    0.00000000    0.00000000
     atom    5 type  3   force =     0.00000000    0.00000000    0.00000000
     atom    6 type  3   force =     0.00000000    0.00000000    0.00000000
     atom    7 type  3   force =     0.00000000    0.00000000    0.00000000
     atom    8 type  3   force =     0.00000000    0.00000000    0.00000000
     The Hubbard contrib.    to forces
     atom    1 type  1   force =     0.00000000    0.00000000    0.00000000
     atom    2 type  2   force =     0.00000000    0.00000000    0.00000000
     atom    3 type  3   force =     0.00000000    0.00000000    0.00000000
     atom    4 type  3   force =     0.00000000    0.00000000    0.00000000
     atom    5 type  3   force =     0.00000000    0.00000000    0.00000000
     atom    6 type  3   force =     0.00000000    0.00000000    0.00000000
     atom    7 type  3   force =     0.00000000    0.00000000    0.00000000
     atom    8 type  3   force =     0.00000000    0.00000000    0.00000000
     The SCF correction term to forces
     atom    1 type  1   force =     0.00006086    0.00005647   -0.00009372
     atom    2 type  2   force =    -0.00064946    0.00006345    0.00061267
     atom    3 type  3   force =     0.00023979    0.00009222   -0.00011195
     atom    4 type  3   force =     0.00031505   -0.00011204    0.00002686
     atom    5 type  3   force =    -0.00000811   -0.00018051   -0.00015349
     atom    6 type  3   force =    -0.00016811    0.00021002   -0.00015412
     atom    7 type  3   force =    -0.00017903   -0.00037458    0.00011401
     atom    8 type  3   force =     0.00002931    0.00024336    0.00010540

     Total force =     0.041793     Total SCF correction =     0.001190

     Computing stress (Cartesian axis) and pressure

     negative rho (up, down):  3.925E-02 0.000E+00
          total   stress  (Ry/bohr**3)                   (kbar)     P=      -94.28
  -0.00063947   0.00000102   0.00000085          -94.07        0.15        0.12
   0.00000102  -0.00064172   0.00000005            0.15      -94.40        0.01
   0.00000085   0.00000005  -0.00064145            0.12        0.01      -94.36

     kinetic stress (kbar)  13610.41     32.62     22.73
                               32.62  13569.92     12.64
                               22.73     12.64  13560.49

     local   stress (kbar)  -9709.26   -428.58   -298.73
                             -428.58  -9176.16   -166.12
                             -298.73   -166.12  -9053.33

     nonloc. stress (kbar)   5333.50      4.75      3.31
                                4.75   5327.58      1.83
                                3.31      1.83   5326.23

     hartree stress (kbar)   9307.05    188.56    131.42
                              188.56   9072.60     73.14
                              131.42     73.14   9018.47

     exc-cor stress (kbar)   3402.60      0.23      0.16
                                0.23   3402.32      0.09
                                0.16      0.09   3402.25

     corecor stress (kbar)  -8067.89     -0.06     -0.04
                               -0.06  -8067.82     -0.02
                               -0.04     -0.02  -8067.80

     ewald   stress (kbar) -13970.49    202.63    141.28
                              202.63 -14222.85     78.45
                              141.28     78.45 -14280.68

     hubbard stress (kbar)      0.00      0.00      0.00
                                0.00      0.00      0.00
                                0.00      0.00      0.00

     DFT-D   stress (kbar)      0.00      0.00      0.00
                                0.00      0.00      0.00
                                0.00      0.00      0.00

     XDM     stress (kbar)      0.00      0.00      0.00
                                0.00      0.00      0.00
                                0.00      0.00      0.00

     dft-nl  stress (kbar)      0.00      0.00      0.00
                                0.00      0.00      0.00
                                0.00      0.00      0.00

     TS-vdW  stress (kbar)      0.00      0.00      0.00
                                0.00      0.00      0.00
                                0.00      0.00      0.00

[...]

                                0.00      0.00      0.00

     Writing all to output data dir new_calculations/myprefix.save/

     General routines

     Parallel routines

     PAW routines

   This run was terminated on:  11:29:27  21May2023

   JOB DONE.