     Program PWSCF v.7.0 starts on 20May2023 at 12:56:19

     Reading input from espresso_18331.pwi
Warning: card &CELL ignored
Warning: card / ignored

     Current dimensions of program PWSCF are:
     Max number of different atomic species (ntypx) = 10
     Max number of k-points (npk) =  40000
     Max angular momentum in pseudopotentials (lmaxx) =  4
     file Mg.pbe-n-kjpaw_psl.0.3.0.UPF: wavefunction(s)  3S renormalized

     gamma-point specific algorithms are used
     Message from routine setup:
     using ibrav=0 with symmetry is DISCOURAGED, use correct ibrav instead

     Subspace diagonalization in iterative solution of the eigenvalue problem:
     a serial algorithm will be used

     Using Slab Decomposition

     bravais-lattice index     =            0
     lattice parameter (alat)  =       5.9255  a.u.
     unit-cell volume          =     584.8715 (a.u.)^3
     number of atoms/cell      =            4
     number of atomic types    =            2
     number of electrons       =        10.00
     number of Kohn-Sham states=            9
     kinetic-energy cutoff     =      30.0000  Ry
     charge density cutoff     =     240.0000  Ry
     scf convergence threshold =      1.0E-06
     mixing beta               =       0.7000
     number of iterations used =            8  plain     mixing
     Exchange-correlation= SLA  PW   PBX  PBC
                           (   1   4   3   4   0   0   0)

     celldm(1)=   5.925509  celldm(2)=   0.000000  celldm(3)=   0.000000
     celldm(4)=   0.000000  celldm(5)=   0.000000  celldm(6)=   0.000000

     crystal axes: (cart. coord. in units of alat)
               a(1) = (   1.000000   0.000000   0.000000 )
               a(2) = (  -0.500000   0.866025   0.000000 )
               a(3) = (   0.000000   0.000000   3.246032 )

     reciprocal axes: (cart. coord. in units 2 pi/alat)
               b(1) = (  1.000000  0.577351  0.000000 )
               b(2) = (  0.000000  1.154701  0.000000 )
               b(3) = (  0.000000  0.000000  0.308068 )

     PseudoPot. # 1 for Li read from file:
     /home/pragov/projects/rrg-bengioy-ad/pragov/crystal_structure_design/SSSP/li_pbe_v1.4.uspp.F.UPF
     MD5 check sum: e912e257baa3777c20ea3d68f190483c
     Pseudo is Ultrasoft, Zval =  3.0
     Generated by new atomic code, or converted to UPF format
     Using radial grid of  751 points,  5 beta functions with:
                l(1) =   0
                l(2) =   0
                l(3) =   0
                l(4) =   1
                l(5) =   1
     Q(r) pseudized with 10 coefficients,  rinner =    1.150   1.150   1.150

     PseudoPot. # 2 for Mg read from file:
     /home/pragov/projects/rrg-bengioy-ad/pragov/crystal_structure_design/SSSP/Mg.pbe-n-kjpaw_psl.0.3.0.UPF
     MD5 check sum: 24ecedc7f3e3cbe212e682f4413594e4
     Pseudo is Projector augmented-wave + core cor, Zval =  2.0
     Generated using "atomic" code by A. Dal Corso  v.5.0.99 svn rev. 10869
     Shape of augmentation charge: PSQ
     Using radial grid of 1129 points,  4 beta functions with:
                l(1) =   0
                l(2) =   0
                l(3) =   1
                l(4) =   1
     Q(r) pseudized with 0 coefficients

     atomic species   valence    mass     pseudopotential
        Li             3.00     6.94000     Li( 1.00)
        Mg             2.00    24.30500     Mg( 1.00)

     12 Sym. Ops., with inversion, found

                                    s                        frac. trans.

      isym =  1     identity

 cryst.   s( 1) = (     1          0          0      )
                  (     0          1          0      )
                  (     0          0          1      )

 cart.    s( 1) = (  1.0000000 -0.0000000  0.0000000 )
                  (  0.0000000  1.0000000  0.0000000 )
                  (  0.0000000  0.0000000  1.0000000 )

      isym =  2     180 deg rotation - cart. axis [1,0,0]

[...]

      isym =  3     120 deg rotation - cryst. axis [0,0,1]

[...]

      isym =  6     180 deg rotation - cryst. axis [1,1,0]

[...]

      isym =  7     inversion

[...]

      isym =  8     inv. 180 deg rotation - cart. axis [1,0,0]

[...]

      isym =  9     inv. 120 deg rotation - cryst. axis [0,0,1]

 cryst.   s( 9) = (     0         -1          0      )
                  (     1          1          0      )
                  (     0          0         -1      )

 cart.    s( 9) = (  0.5000002  0.8660255  0.0000000 )
                  ( -0.8660253  0.4999998  0.0000000 )
                  (  0.0000000  0.0000000 -1.0000000 )

[...]

 cryst.   s(10) = (     1          1          0      )
                  (    -1          0          0      )
                  (     0          0         -1      )

 cart.    s(10) = (  0.4999998 -0.8660255  0.0000000 )
                  (  0.8660253  0.5000002  0.0000000 )
                  (  0.0000000  0.0000000 -1.0000000 )

[...]

      isym = 12     inv. 180 deg rotation - cryst. axis [1,1,0]

 cryst.   s(12) = (     0         -1          0      )
                  (    -1          0          0      )
                  (     0          0          1      )

 cart.    s(12) = (  0.5000002 -0.8660253  0.0000000 )
                  ( -0.8660253 -0.5000002  0.0000000 )
                  (  0.0000000  0.0000000  1.0000000 )

   Cartesian axes

     site n.     atom                  positions (alat units)
         1           Li  tau(   1) = (   0.5000004   0.2886748   2.0259231  )
         2           Li  tau(   2) = (  -0.0000006   0.5773505   1.2201087  )
         3           Mg  tau(   3) = (  -0.0000006   0.5773505   2.8293842  )
         4           Mg  tau(   4) = (   0.5000004   0.2886748   0.4166477  )

   Crystallographic axes

     site n.     atom                  positions (cryst. coord.)
         1           Li  tau(   1) = (  0.6666670  0.3333330  0.6241230  )
         2           Li  tau(   2) = (  0.3333330  0.6666670  0.3758770  )
         3           Mg  tau(   3) = (  0.3333330  0.6666670  0.8716440  )
         4           Mg  tau(   4) = (  0.6666670  0.3333330  0.1283560  )

     number of k points=     1  Methfessel-Paxton smearing, width (Ry)=  0.0010
                       cart. coord. in units 2pi/alat
        k(    1) = (   0.0000000   0.0000000   0.0000000), wk =   2.0000000

                       cryst. coord.
        k(    1) = (   0.0000000   0.0000000   0.0000000), wk =   2.0000000

     Initial potential from superposition of free atoms

     starting charge       9.0967, renormalised to      10.0000
     Starting wfcs are   18 randomized atomic wfcs
     Checking if some PAW data can be deallocated...

     Self-consistent Calculation

     iteration #  1     ecut=    30.00 Ry     beta= 0.70
     Davidson diagonalization with overlap

     ethr =  1.00E-02,  avg # of iterations =  3.0

     total energy              =     -95.25142235 Ry
     estimated scf accuracy    <       2.98628664 Ry

[...]

     total energy              =     -97.22163239 Ry
     estimated scf accuracy    <       0.00000299 Ry

     iteration # 13     ecut=    30.00 Ry     beta= 0.70
     Davidson diagonalization with overlap

     ethr =  2.99E-08,  avg # of iterations =  6.0

     End of self-consistent calculation

          k = 0.0000 0.0000 0.0000 (   797 PWs)   bands (ev):

   -43.9875 -43.9808  -4.2841  -2.1952  -0.6527   1.5785   3.2035   8.6411
     9.1408

     occupation numbers
     1.0000   1.0000   1.0000   1.0000   1.0000  -0.0000  -0.0000  -0.0000
    -0.0000

     the Fermi energy is     0.9330 ev

!    total energy              =     -97.22163603 Ry
     estimated scf accuracy    <       0.00000013 Ry
     smearing contrib. (-TS)   =       0.00000000 Ry
     internal energy E=F+TS    =     -97.22163603 Ry

     The total energy is F=E-TS. E is the sum of the following terms:
     one-electron contribution =     -19.99394801 Ry
     hartree contribution      =       8.65195636 Ry
     xc contribution           =      -9.95442006 Ry
     ewald contribution        =     -13.34607745 Ry
     one-center paw contrib.   =     -62.57914687 Ry
      -> PAW hartree energy AE =       1.58003735 Ry
      -> PAW hartree energy PS =      -1.57660492 Ry
      -> PAW xc energy AE      =     -65.21167759 Ry
      -> PAW xc energy PS      =       2.62909828 Ry
      -> total E_H with PAW    =       8.65538878 Ry
      -> total E_XC with PAW   =     -72.53699936 Ry

     convergence has been achieved in  13 iterations

     Forces acting on atoms (cartesian axes, Ry/au):

     atom    1 type  1   force =     0.00000000    0.00000000   -0.00687985
     atom    2 type  1   force =     0.00000000    0.00000000    0.00687985
     atom    3 type  2   force =    -0.00000000    0.00000000   -0.02586243
     atom    4 type  2   force =     0.00000000    0.00000000    0.02586243
     The non-local contrib.  to forces
     atom    1 type  1   force =     0.00000000    0.00000000   -0.01045286
     atom    2 type  1   force =     0.00000000    0.00000000    0.01045286
     atom    3 type  2   force =     0.00000000   -0.00000000    0.00312513
     atom    4 type  2   force =     0.00000000    0.00000000   -0.00312513
     The ionic contribution  to forces
     atom    1 type  1   force =    -0.00000022    0.00000013    0.63153474
     atom    2 type  1   force =     0.00000022   -0.00000013   -0.63153474
     atom    3 type  2   force =     0.00000014   -0.00000008    0.45892947
     atom    4 type  2   force =    -0.00000014    0.00000008   -0.45892947
     The local contribution  to forces
     atom    1 type  1   force =    -0.00000915    0.00001114   -0.62814718
     atom    2 type  1   force =     0.00002259   -0.00001450    0.62809778
     atom    3 type  2   force =    -0.00000546    0.00000227   -0.48788595
     atom    4 type  2   force =    -0.00000047    0.00000219    0.48787710
     The core correction contribution to forces
     atom    1 type  1   force =     0.00000000    0.00000000    0.00000000
     atom    2 type  1   force =     0.00000000    0.00000000    0.00000000
     atom    3 type  2   force =    -0.00000081    0.00000037   -0.00010676
     atom    4 type  2   force =    -0.00000010    0.00000035    0.00010532
     The Hubbard contrib.    to forces
     atom    1 type  1   force =     0.00000000    0.00000000    0.00000000
     atom    2 type  1   force =     0.00000000    0.00000000    0.00000000
     atom    3 type  2   force =     0.00000000    0.00000000    0.00000000
     atom    4 type  2   force =     0.00000000    0.00000000    0.00000000
     The SCF correction term to forces
     atom    1 type  1   force =    -0.00002879    0.00000321    0.00025546
     atom    2 type  1   force =     0.00003060    0.00004059   -0.00006605
     atom    3 type  2   force =     0.00000017    0.00000003    0.00006747
     atom    4 type  2   force =    -0.00000011   -0.00000010   -0.00007360

     Total force =     0.037847     Total SCF correction =     0.000288

     Computing stress (Cartesian axis) and pressure

          total   stress  (Ry/bohr**3)                   (kbar)     P=     -149.13
  -0.00157939  -0.00000000   0.00000000         -232.34       -0.00        0.00
  -0.00000000  -0.00157939  -0.00000000           -0.00     -232.34       -0.00
   0.00000000   0.00000000   0.00011751            0.00        0.00       17.29

     kinetic stress (kbar)   1021.54      0.00      0.00
                                0.00   1021.54      0.00
                                0.00      0.00   1299.49

     local   stress (kbar)   -367.27     -0.00     -0.00
                               -0.00   -367.27     -0.00
                               -0.00     -0.00    646.77

     nonloc. stress (kbar)   -120.08     -0.00      0.00
                               -0.00   -120.08      0.00
                                0.00      0.00   -149.11

     hartree stress (kbar)    917.10      0.00      0.00
                                0.00    917.10      0.00
                                0.00      0.00    341.92

     exc-cor stress (kbar)   -340.42      0.00      0.00
                                0.00   -340.42      0.00
                                0.00      0.00   -340.78

     corecor stress (kbar)   -371.26     -0.00     -0.00
                               -0.00   -371.26     -0.00
                               -0.00     -0.00   -368.11

     ewald   stress (kbar)   -971.94      0.00     -0.00
                                0.00   -971.94      0.00
                               -0.00      0.00  -1412.88

     hubbard stress (kbar)      0.00      0.00      0.00
                                0.00      0.00      0.00
                                0.00      0.00      0.00

     DFT-D   stress (kbar)      0.00      0.00      0.00
                                0.00      0.00      0.00
                                0.00      0.00      0.00

     XDM     stress (kbar)      0.00      0.00      0.00
                                0.00      0.00      0.00
                                0.00      0.00      0.00

     dft-nl  stress (kbar)      0.00      0.00      0.00
                                0.00      0.00      0.00
                                0.00      0.00      0.00

     TS-vdW  stress (kbar)      0.00      0.00      0.00
                                0.00      0.00      0.00
                                0.00      0.00      0.00

[...]

                                0.00      0.00      0.00

     Writing all to output data dir new_calculations/myprefix.save/

     General routines

     Parallel routines

     PAW routines

   This run was terminated on:  12:56:30  20May2023

   JOB DONE.