     Program PWSCF v.7.0 starts on 21May2023 at  3:58:33

     Reading input from espresso_19716.pwi
Warning: card &CELL ignored
Warning: card / ignored

     Current dimensions of program PWSCF are:
     Max number of different atomic species (ntypx) = 10
     Max number of k-points (npk) =  40000
     Max angular momentum in pseudopotentials (lmaxx) =  4
     file Mg.pbe-n-kjpaw_psl.0.3.0.UPF: wavefunction(s)  3S renormalized

     gamma-point specific algorithms are used
     Message from routine setup:
     using ibrav=0 with symmetry is DISCOURAGED, use correct ibrav instead

     Subspace diagonalization in iterative solution of the eigenvalue problem:
     a serial algorithm will be used

     Using Slab Decomposition

     bravais-lattice index     =            0
     lattice parameter (alat)  =      11.7089  a.u.
     unit-cell volume          =     334.2011 (a.u.)^3
     number of atoms/cell      =            2
     number of atomic types    =            2
     number of electrons       =        14.00
     number of Kohn-Sham states=           11
     kinetic-energy cutoff     =      30.0000  Ry
     charge density cutoff     =     240.0000  Ry
     scf convergence threshold =      1.0E-06
     mixing beta               =       0.7000
     number of iterations used =            8  plain     mixing
     Exchange-correlation= SLA  PW   PBX  PBC
                           (   1   4   3   4   0   0   0)

     celldm(1)=  11.708858  celldm(2)=   0.000000  celldm(3)=   0.000000
     celldm(4)=   0.000000  celldm(5)=   0.000000  celldm(6)=   0.000000

     crystal axes: (cart. coord. in units of alat)
               a(1) = (   1.000000   0.000000   0.000000 )
               a(2) = (   0.874429   0.485153   0.000000 )
               a(3) = (   0.874429   0.226326   0.429127 )

     reciprocal axes: (cart. coord. in units 2 pi/alat)
               b(1) = (  1.000000 -1.802379 -1.087101 )
               b(2) = (  0.000000  2.061206 -1.087101 )
               b(3) = (  0.000000  0.000000  2.330313 )

     PseudoPot. # 1 for Ce read from file:
     /home/pragov/projects/rrg-bengioy-ad/pragov/crystal_structure_design/SSSP/Ce.GGA-PBE-paw-v1.0.UPF
     MD5 check sum: f2b950f613061344c13339c8d844425d
     Pseudo is Projector augmented-wave + core cor, Zval = 12.0
     Generated using ATOMPAW code
     Shape of augmentation charge: BESSEL
     Using radial grid of 1102 points,  8 beta functions with:
                l(1) =   0
                l(2) =   0
                l(3) =   1
                l(4) =   1
                l(5) =   2
                l(6) =   2
                l(7) =   3
                l(8) =   3
     Q(r) pseudized with 0 coefficients

     PseudoPot. # 2 for Mg read from file:
     /home/pragov/projects/rrg-bengioy-ad/pragov/crystal_structure_design/SSSP/Mg.pbe-n-kjpaw_psl.0.3.0.UPF
     MD5 check sum: 24ecedc7f3e3cbe212e682f4413594e4
     Pseudo is Projector augmented-wave + core cor, Zval =  2.0
     Generated using "atomic" code by A. Dal Corso  v.5.0.99 svn rev. 10869
     Shape of augmentation charge: PSQ
     Using radial grid of 1129 points,  4 beta functions with:
                l(1) =   0
                l(2) =   0
                l(3) =   1
                l(4) =   1
     Q(r) pseudized with 0 coefficients

     atomic species   valence    mass     pseudopotential
        Ce            12.00   140.11600     Ce( 1.00)
        Mg             2.00    24.30500     Mg( 1.00)

      2 Sym. Ops., with inversion, found

                                    s                        frac. trans.

      isym =  1     identity

 cryst.   s( 1) = (     1          0          0      )
                  (     0          1          0      )
                  (     0          0          1      )

 cart.    s( 1) = (  1.0000000  0.0000000 -0.0000000 )
                  (  0.0000000  1.0000000  0.0000000 )
                  (  0.0000000  0.0000000  1.0000000 )

      isym =  2     inversion

 cryst.   s( 2) = (    -1          0          0      )
                  (     0         -1          0      )
                  (     0          0         -1      )

 cart.    s( 2) = ( -1.0000000 -0.0000000  0.0000000 )
                  (  0.0000000 -1.0000000 -0.0000000 )
                  (  0.0000000  0.0000000 -1.0000000 )

   Cartesian axes

     site n.     atom                  positions (alat units)
         1           Ce  tau(   1) = (   0.0000000   0.0000000   0.0000000  )
         2           Mg  tau(   2) = (   1.3744293   0.3557394   0.2145634  )

   Crystallographic axes

     site n.     atom                  positions (cryst. coord.)
         1           Ce  tau(   1) = (  0.0000000  0.0000000  0.0000000  )
         2           Mg  tau(   2) = (  0.5000000  0.5000000  0.5000000  )

     number of k points=     1  Methfessel-Paxton smearing, width (Ry)=  0.0010
                       cart. coord. in units 2pi/alat
        k(    1) = (   0.0000000   0.0000000   0.0000000), wk =   2.0000000

                       cryst. coord.
        k(    1) = (   0.0000000   0.0000000   0.0000000), wk =   2.0000000

     Initial potential from superposition of free atoms

     starting charge      13.9921, renormalised to      14.0000
     Starting wfcs are   36 randomized atomic wfcs
     Checking if some PAW data can be deallocated...

     Self-consistent Calculation

     iteration #  1     ecut=    30.00 Ry     beta= 0.70
     Davidson diagonalization with overlap

     ethr =  1.00E-02,  avg # of iterations =  1.0

     total energy              =    -514.42103493 Ry
     estimated scf accuracy    <       0.93409461 Ry

[...]

     total energy              =    -515.59911420 Ry
     estimated scf accuracy    <       0.00000529 Ry

     iteration # 56     ecut=    30.00 Ry     beta= 0.70
     Davidson diagonalization with overlap

     ethr =  3.78E-08,  avg # of iterations =  1.0

     End of self-consistent calculation

          k = 0.0000 0.0000 0.0000 (   472 PWs)   bands (ev):

   -24.6226  -7.6110  -5.2288  -5.2286   4.5919   8.8661  10.2581  10.3143
    10.7000  10.9631  10.9637

     occupation numbers
     1.0000   1.0000   1.0000   1.0000   1.0000   1.0000   1.0064  -0.0064
    -0.0000  -0.0000  -0.0000

     the Fermi energy is    10.2862 ev

!    total energy              =    -515.59911421 Ry

     total all-electron energy =      -882.653323 Ry
     estimated scf accuracy    <       0.00000004 Ry
     smearing contrib. (-TS)   =       0.00005969 Ry
     internal energy E=F+TS    =    -515.59917390 Ry

     The total energy is F=E-TS. E is the sum of the following terms:
     one-electron contribution =     -28.73074777 Ry
     hartree contribution      =      22.51828969 Ry
     xc contribution           =     -12.15063571 Ry
     ewald contribution        =     -57.51161548 Ry
     one-center paw contrib.   =    -439.72446464 Ry
      -> PAW hartree energy AE =      46.98367096 Ry
      -> PAW hartree energy PS =     -46.76767305 Ry
      -> PAW xc energy AE      =    -450.20911041 Ry
      -> PAW xc energy PS      =      10.26864786 Ry
      -> total E_H with PAW    =      22.73428760 Ry
      -> total E_XC with PAW   =    -452.09109826 Ry

     convergence has been achieved in  56 iterations

     Forces acting on atoms (cartesian axes, Ry/au):

     atom    1 type  1   force =     0.00000000    0.00000000    0.00000000
     atom    2 type  2   force =     0.00000000    0.00000000    0.00000000
     The non-local contrib.  to forces
     atom    1 type  1   force =     0.00000000    0.00000000    0.00000000
     atom    2 type  2   force =     0.00000000    0.00000000    0.00000000
     The ionic contribution  to forces
     atom    1 type  1   force =    -0.00000000   -0.00000000   -0.00000000
     atom    2 type  2   force =     0.00000000    0.00000000    0.00000000
     The local contribution  to forces
     atom    1 type  1   force =     0.00000441   -0.00000282   -0.00005762
     atom    2 type  2   force =    -0.00000995    0.00000077   -0.00000146
     The core correction contribution to forces
     atom    1 type  1   force =     0.00000001   -0.00000001   -0.00000001
     atom    2 type  2   force =    -0.00000139   -0.00000018   -0.00000021
     The Hubbard contrib.    to forces
     atom    1 type  1   force =     0.00000000    0.00000000    0.00000000
     atom    2 type  2   force =     0.00000000    0.00000000    0.00000000
     The SCF correction term to forces
     atom    1 type  1   force =     0.00000451   -0.00010227    0.00002254
     atom    2 type  2   force =     0.00000179    0.00000039    0.00000020

     Total force =     0.000000     Total SCF correction =     0.000105

     Computing stress (Cartesian axis) and pressure

          total   stress  (Ry/bohr**3)                   (kbar)     P=      597.13
   0.00225624  -0.00073358  -0.00044197          331.90     -107.91      -65.02
  -0.00073358   0.00490076  -0.00011443         -107.91      720.93      -16.83
  -0.00044197  -0.00011443   0.00502056          -65.02      -16.83      738.55

     kinetic stress (kbar)   6332.68   -240.25   -144.70
                             -240.25   7198.90    -37.51
                             -144.70    -37.51   7238.20

     local   stress (kbar)  13188.37   7870.31   4747.01
                             7870.31 -15182.23   1228.74
                             4747.01   1228.74 -16478.44

     nonloc. stress (kbar)   7025.42    193.58    116.57
                              193.58   6327.47     30.16
                              116.57     30.16   6295.96

     hartree stress (kbar)  -4645.89  -3234.20  -1950.69
                            -3234.20   7012.61   -504.91
                            -1950.69   -504.91   7545.14

     exc-cor stress (kbar)  -1225.25     -3.71     -2.24
                               -3.71  -1211.87     -0.58
                               -2.24     -0.58  -1211.26

     corecor stress (kbar)   -369.84     -0.80     -0.48
                               -0.80   -366.94     -0.13
                               -0.48     -0.13   -366.81

     ewald   stress (kbar) -19973.59  -4692.85  -2830.48
                            -4692.85  -3057.01   -732.60
                            -2830.48   -732.60  -2284.25

     hubbard stress (kbar)      0.00      0.00      0.00
                                0.00      0.00      0.00
                                0.00      0.00      0.00

     DFT-D   stress (kbar)      0.00      0.00      0.00
                                0.00      0.00      0.00
                                0.00      0.00      0.00

     XDM     stress (kbar)      0.00      0.00      0.00
                                0.00      0.00      0.00
                                0.00      0.00      0.00

     dft-nl  stress (kbar)      0.00      0.00      0.00
                                0.00      0.00      0.00
                                0.00      0.00      0.00

     TS-vdW  stress (kbar)      0.00      0.00      0.00
                                0.00      0.00      0.00
                                0.00      0.00      0.00

[...]

                                0.00      0.00      0.00

     Writing all to output data dir new_calculations/myprefix.save/

     General routines

     Parallel routines

     PAW routines

   This run was terminated on:   3:59:16  21May2023

   JOB DONE.