     Program PWSCF v.7.0 starts on 21May2023 at  2:21:44

     Reading input from espresso_13830.pwi
Warning: card &CELL ignored
Warning: card / ignored

     Current dimensions of program PWSCF are:
     Max number of different atomic species (ntypx) = 10
     Max number of k-points (npk) =  40000
     Max angular momentum in pseudopotentials (lmaxx) =  4

     gamma-point specific algorithms are used
     Message from routine setup:
     using ibrav=0 with symmetry is DISCOURAGED, use correct ibrav instead

     Subspace diagonalization in iterative solution of the eigenvalue problem:
     a serial algorithm will be used

     Using Slab Decomposition

     bravais-lattice index     =            0
     lattice parameter (alat)  =       7.8705  a.u.
     unit-cell volume          =     488.8915 (a.u.)^3
     number of atoms/cell      =            4
     number of atomic types    =            3
     number of electrons       =        64.00
     number of Kohn-Sham states=           38
     kinetic-energy cutoff     =      30.0000  Ry
     charge density cutoff     =     240.0000  Ry
     scf convergence threshold =      1.0E-06
     mixing beta               =       0.7000
     number of iterations used =            8  plain     mixing
     Exchange-correlation=  SLA  PW   PBX  PBC
                           (   1   4   3   4   0   0   0)

     celldm(1)=   7.870539  celldm(2)=   0.000000  celldm(3)=   0.000000
     celldm(4)=   0.000000  celldm(5)=   0.000000  celldm(6)=   0.000000

     crystal axes: (cart. coord. in units of alat)
               a(1) = (   1.000000   0.000000   0.000000 )
               a(2) = (   0.000000   1.000000   0.000000 )
               a(3) = (   0.000000   0.000000   1.002765 )

     reciprocal axes: (cart. coord. in units 2 pi/alat)
               b(1) = (  1.000000  0.000000  0.000000 )
               b(2) = (  0.000000  1.000000  0.000000 )
               b(3) = (  0.000000  0.000000  0.997243 )

     PseudoPot. # 1 for Ce read from file:
     /home/pragov/projects/rrg-bengioy-ad/pragov/crystal_structure_design/SSSP/Ce.GGA-PBE-paw-v1.0.UPF
     MD5 check sum: f2b950f613061344c13339c8d844425d
     Pseudo is Projector augmented-wave + core cor, Zval = 12.0
     Generated using ATOMPAW code
     Shape of augmentation charge: BESSEL
     Using radial grid of 1102 points,  8 beta functions with:
                l(1) =   0
                l(2) =   0
                l(3) =   1
                l(4) =   1
                l(5) =   2
                l(6) =   2
                l(7) =   3
                l(8) =   3
     Q(r) pseudized with 0 coefficients

     PseudoPot. # 2 for Pd read from file:
     /home/pragov/projects/rrg-bengioy-ad/pragov/crystal_structure_design/SSSP/Pd_ONCV_PBE-1.0.oncvpsp.upf
     MD5 check sum: eb77f42b51d86fb18e25f68156a31cf1
     Pseudo is Norm-conserving, Zval = 18.0
     Generated using ONCVPSP code by D. R. Hamann
     Using radial grid of 1410 points,  6 beta functions with:
                l(1) =   0
                l(2) =   0
                l(3) =   1
                l(4) =   1
                l(5) =   2
                l(6) =   2

     PseudoPot. # 3 for Pt read from file:
     /home/pragov/projects/rrg-bengioy-ad/pragov/crystal_structure_design/SSSP/pt_pbe_v1.4.uspp.F.UPF
     MD5 check sum: f09d6de1a584b5a045c4fc126da2d0c4
     Pseudo is Ultrasoft + core correction, Zval = 16.0
     Generated by new atomic code, or converted to UPF format
     Using radial grid of  985 points,  6 beta functions with:
                l(1) =   0
                l(2) =   0
                l(3) =   1
                l(4) =   1
                l(5) =   2
                l(6) =   2
     Q(r) pseudized with  8 coefficients,  rinner =    1.300   1.300   1.300
                                                       1.300   1.300

     atomic species   valence    mass     pseudopotential
        Ce            12.00   140.11600     Ce( 1.00)
        Pd            18.00   106.42000     Pd( 1.00)
        Pt            16.00   195.08400     Pt( 1.00)

     16 Sym. Ops., with inversion, found

                                    s                        frac. trans.

      isym =  1     identity

 cryst.   s( 1) = (     1          0          0      )
                  (     0          1          0      )
                  (     0          0          1      )

 cart.    s( 1) = (  1.0000000  0.0000000  0.0000000 )
                  (  0.0000000  1.0000000  0.0000000 )
                  (  0.0000000  0.0000000  1.0000000 )

      isym =  2     180 deg rotation - cart. axis [0,0,1]

[...]

      isym =  8      90 deg rotation - cart. axis [0,0,1]

[...]

      isym =  9     inversion

 cryst.   s( 9) = (    -1          0          0      )
                  (     0         -1          0      )
                  (     0          0         -1      )

 cart.    s( 9) = ( -1.0000000  0.0000000  0.0000000 )
                  (  0.0000000 -1.0000000  0.0000000 )
                  (  0.0000000  0.0000000 -1.0000000 )

      isym = 10     inv. 180 deg rotation - cart. axis [0,0,1]

 cryst.   s(10) = (     1          0          0      )
                  (     0          1          0      )
                  (     0          0         -1      )

 cart.    s(10) = (  1.0000000  0.0000000  0.0000000 )
                  (  0.0000000  1.0000000  0.0000000 )
                  (  0.0000000  0.0000000 -1.0000000 )

[...]

      isym = 16     inv.  90 deg rotation - cart. axis [0,0,1]

 cryst.   s(16) = (     0         -1          0      )
                  (     1          0          0      )
                  (     0          0         -1      )

 cart.    s(16) = (  0.0000000  1.0000000  0.0000000 )
                  ( -1.0000000  0.0000000  0.0000000 )
                  (  0.0000000  0.0000000 -1.0000000 )

   Cartesian axes

     site n.     atom                  positions (alat units)
         1           Ce  tau(   1) = (   0.0000000   0.0000000   0.0000000  )
         2           Pd  tau(   2) = (   0.5000000   0.0000000   0.5013824  )
         3           Pd  tau(   3) = (   0.0000000   0.5000000   0.5013824  )
         4           Pt  tau(   4) = (   0.5000000   0.5000000   0.0000000  )

   Crystallographic axes

     site n.     atom                  positions (cryst. coord.)
         1           Ce  tau(   1) = (  0.0000000  0.0000000  0.0000000  )
         2           Pd  tau(   2) = (  0.5000000  0.0000000  0.5000000  )
         3           Pd  tau(   3) = (  0.0000000  0.5000000  0.5000000  )
         4           Pt  tau(   4) = (  0.5000000  0.5000000  0.0000000  )

     number of k points=     1  Methfessel-Paxton smearing, width (Ry)=  0.0010
                       cart. coord. in units 2pi/alat
        k(    1) = (   0.0000000   0.0000000   0.0000000), wk =   2.0000000

                       cryst. coord.
        k(    1) = (   0.0000000   0.0000000   0.0000000), wk =   2.0000000

     Initial potential from superposition of free atoms

     starting charge      63.4923, renormalised to      64.0000

     negative rho (up, down):  1.805E-01 0.000E+00
     Starting wfcs are   64 randomized atomic wfcs
     Checking if some PAW data can be deallocated...

     Self-consistent Calculation

     iteration #  1     ecut=    30.00 Ry     beta= 0.70
     Davidson diagonalization with overlap

     ethr =  1.00E-02,  avg # of iterations =  2.0

     negative rho (up, down):  1.557E-01 0.000E+00

     total energy              =   -1180.32673365 Ry
     estimated scf accuracy    <      20.31341383 Ry

[...]

     total energy              =   -1198.95343046 Ry
     estimated scf accuracy    <       0.00004838 Ry

     iteration # 48     ecut=    30.00 Ry     beta= 0.70
     Davidson diagonalization with overlap

     ethr =  4.45E-09,  avg # of iterations =  2.0

[...]

     End of self-consistent calculation

          k = 0.0000 0.0000 0.0000 (   679 PWs)   bands (ev):

   -65.8496 -65.8356 -33.1564 -33.1563 -32.6986 -31.5471 -31.5469 -31.4284
   -31.4105 -31.0461 -31.0460 -14.2564   2.6772   2.6773   2.7545  11.9558
    13.4522  13.6218  14.1713  14.1714  14.1725  14.3071  16.2866  16.3116
    16.3117  17.6565  17.7485  18.1902  18.5645  18.9240  18.9240  20.9264
    20.9297  20.9297  21.1858  21.2523  21.2524  21.2628

     occupation numbers
     1.0000   1.0000   1.0000   1.0000   1.0000   1.0000   1.0000   1.0000
     1.0000   1.0000   1.0000   1.0000   1.0000   1.0000   1.0000   1.0000
     1.0000   1.0000   1.0000   1.0000   1.0000   1.0000   1.0000   1.0000
     1.0000   1.0000   1.0000   1.0000   1.0000   1.0000   1.0000   0.4650
     0.2683   0.2667  -0.0000  -0.0000  -0.0000  -0.0000

     the Fermi energy is    20.9258 ev

!    total energy              =   -1198.95343026 Ry
     estimated scf accuracy    <       0.00000083 Ry
     smearing contrib. (-TS)   =      -0.00071421 Ry
     internal energy E=F+TS    =   -1198.95271605 Ry

     The total energy is F=E-TS. E is the sum of the following terms:
     one-electron contribution =    -229.90647216 Ry
     hartree contribution      =     159.73328527 Ry
     xc contribution           =    -117.47710093 Ry
     ewald contribution        =    -602.82802169 Ry
     one-center paw contrib.   =    -408.47440653 Ry
      -> PAW hartree energy AE =      45.87022005 Ry
      -> PAW hartree energy PS =     -45.56383738 Ry
      -> PAW xc energy AE      =    -417.53950521 Ry
      -> PAW xc energy PS      =       8.75871601 Ry
      -> total E_H with PAW    =     160.03966794 Ry
      -> total E_XC with PAW   =    -526.25789013 Ry

     convergence has been achieved in  48 iterations

     negative rho (up, down):  1.737E-01 0.000E+00

     Forces acting on atoms (cartesian axes, Ry/au):

     atom    1 type  1   force =     0.00000000    0.00000000    0.00000000
     atom    2 type  2   force =     0.00000000    0.00000000    0.00000000
     atom    3 type  2   force =     0.00000000    0.00000000    0.00000000
     atom    4 type  3   force =     0.00000000    0.00000000    0.00000000
     The non-local contrib.  to forces
     atom    1 type  1   force =     0.00000000    0.00000000    0.00000000
     atom    2 type  2   force =     0.00000000    0.00000000    0.00000000
     atom    3 type  2   force =     0.00000000    0.00000000    0.00000000
     atom    4 type  3   force =     0.00000000    0.00000000    0.00000000
     The ionic contribution  to forces
     atom    1 type  1   force =    -0.00000000   -0.00000000   -0.00000000
     atom    2 type  2   force =     0.00000000   -0.00000000   -0.00000000
     atom    3 type  2   force =    -0.00000000    0.00000000   -0.00000000
     atom    4 type  3   force =     0.00000000    0.00000000   -0.00000000
     The local contribution  to forces
     atom    1 type  1   force =     0.00002073    0.00001530   -0.00002751
     atom    2 type  2   force =     0.00000213    0.00003645    0.00005565
     atom    3 type  2   force =     0.00002507   -0.00003392    0.00005979
     atom    4 type  3   force =    -0.00003384   -0.00003350   -0.00004637
     The core correction contribution to forces
     atom    1 type  1   force =     0.00000001    0.00000001   -0.00000001
     atom    2 type  2   force =     0.00000000    0.00000000    0.00000000
     atom    3 type  2   force =     0.00000000    0.00000000    0.00000000
     atom    4 type  3   force =    -0.00000056   -0.00000012   -0.00000031
     The Hubbard contrib.    to forces
     atom    1 type  1   force =     0.00000000    0.00000000    0.00000000
     atom    2 type  2   force =     0.00000000    0.00000000    0.00000000
     atom    3 type  2   force =     0.00000000    0.00000000    0.00000000
     atom    4 type  3   force =     0.00000000    0.00000000    0.00000000
     The SCF correction term to forces
     atom    1 type  1   force =    -0.00001159   -0.00001411    0.00001486
     atom    2 type  2   force =     0.00000270   -0.00003845   -0.00006164
     atom    3 type  2   force =    -0.00002621    0.00003483   -0.00006162
     atom    4 type  3   force =     0.00004014    0.00003672    0.00004625

     Total force =     0.000000     Total SCF correction =     0.000129

     Computing stress (Cartesian axis) and pressure

     negative rho (up, down):  1.737E-01 0.000E+00
          total   stress  (Ry/bohr**3)                   (kbar)     P=     -632.45
  -0.00459913   0.00000000   0.00000000         -676.56        0.00        0.00
   0.00000000  -0.00459913   0.00000000            0.00     -676.56        0.00
   0.00000000   0.00000000  -0.00369969            0.00        0.00     -544.24

     kinetic stress (kbar)  50021.23      0.00      0.00
                                0.00  50021.23      0.00
                                0.00      0.00  50285.86

     local   stress (kbar)  -7471.98      0.23     -0.19
                                0.23  -7474.89      0.17
                               -0.19      0.17  -4589.35

     nonloc. stress (kbar)   9155.07      0.00      0.00
                                0.00   9155.07      0.00
                                0.00      0.00   9132.88

     hartree stress (kbar)  16564.31     -0.09      0.08
                               -0.09  16564.84     -0.08
                                0.08     -0.08  14933.82

     exc-cor stress (kbar)   2695.73     -0.00      0.00
                               -0.00   2695.74     -0.00
                                0.00     -0.00   2696.93

     corecor stress (kbar) -11621.37     -0.00     -0.00
                               -0.00 -11621.38      0.00
                               -0.00      0.00 -11653.09

     ewald   stress (kbar) -60018.35      0.00     -0.00
                                0.00 -60018.35     -0.00
                               -0.00     -0.00 -61351.30

     hubbard stress (kbar)      0.00      0.00      0.00
                                0.00      0.00      0.00
                                0.00      0.00      0.00

     DFT-D   stress (kbar)      0.00      0.00      0.00
                                0.00      0.00      0.00
                                0.00      0.00      0.00

     XDM     stress (kbar)      0.00      0.00      0.00
                                0.00      0.00      0.00
                                0.00      0.00      0.00

     dft-nl  stress (kbar)      0.00      0.00      0.00
                                0.00      0.00      0.00
                                0.00      0.00      0.00

     TS-vdW  stress (kbar)      0.00      0.00      0.00
                                0.00      0.00      0.00
                                0.00      0.00      0.00

[...]

                                0.00      0.00      0.00

     Writing all to output data dir new_calculations/myprefix.save/

     General routines

     Parallel routines

     PAW routines

   This run was terminated on:   2:22:59  21May2023

   JOB DONE.