     Program PWSCF v.7.0 starts on 21May2023 at 12:14:32

     Reading input from espresso_25562.pwi
Warning: card &CELL ignored
Warning: card / ignored

     Current dimensions of program PWSCF are:
     Max number of different atomic species (ntypx) = 10
     Max number of k-points (npk) =  40000
     Max angular momentum in pseudopotentials (lmaxx) =  4
     file Mg.pbe-n-kjpaw_psl.0.3.0.UPF: wavefunction(s)  3S renormalized

     gamma-point specific algorithms are used
     Message from routine setup:
     using ibrav=0 with symmetry is DISCOURAGED, use correct ibrav instead

     Subspace diagonalization in iterative solution of the eigenvalue problem:
     a serial algorithm will be used

     Using Slab Decomposition

     bravais-lattice index     =            0
     lattice parameter (alat)  =       9.8211  a.u.
     unit-cell volume          =     669.8333 (a.u.)^3
     number of atoms/cell      =            4
     number of atomic types    =            3
     number of electrons       =        72.00
     number of Kohn-Sham states=           43
     kinetic-energy cutoff     =      30.0000  Ry
     charge density cutoff     =     240.0000  Ry
     scf convergence threshold =      1.0E-06
     mixing beta               =       0.7000
     number of iterations used =            8  plain     mixing
     Exchange-correlation= PBE
                           (   1   4   3   4   0   0   0)

     celldm(1)=   9.821110  celldm(2)=   0.000000  celldm(3)=   0.000000
     celldm(4)=   0.000000  celldm(5)=   0.000000  celldm(6)=   0.000000

     crystal axes: (cart. coord. in units of alat)
               a(1) = (   1.000000   0.000000   0.000000 )
               a(2) = (   0.500000   0.866025   0.000000 )
               a(3) = (   0.500000   0.288675   0.816497 )

     reciprocal axes: (cart. coord. in units 2 pi/alat)
               b(1) = (  1.000000 -0.577350 -0.408248 )
               b(2) = (  0.000000  1.154701 -0.408248 )
               b(3) = (  0.000000  0.000000  1.224745 )

     PseudoPot. # 1 for Lu read from file:
     /home/pragov/projects/rrg-bengioy-ad/pragov/crystal_structure_design/SSSP/Lu.GGA-PBE-paw-v1.0.UPF
     MD5 check sum: 9ceca61ee0c17e9380a83635bfffa61d
     Pseudo is Projector augmented-wave + core cor, Zval = 25.0
     Generated using ATOMPAW code
     Shape of augmentation charge: BESSEL
     Using radial grid of 1118 points,  8 beta functions with:
                l(1) =   0
                l(2) =   0
                l(3) =   1
                l(4) =   1
                l(5) =   2
                l(6) =   2
                l(7) =   3
                l(8) =   3
     Q(r) pseudized with 0 coefficients

     PseudoPot. # 2 for Mg read from file:
     /home/pragov/projects/rrg-bengioy-ad/pragov/crystal_structure_design/SSSP/Mg.pbe-n-kjpaw_psl.0.3.0.UPF
     MD5 check sum: 24ecedc7f3e3cbe212e682f4413594e4
     Pseudo is Projector augmented-wave + core cor, Zval =  2.0
     Generated using "atomic" code by A. Dal Corso  v.5.0.99 svn rev. 10869
     Shape of augmentation charge: PSQ
     Using radial grid of 1129 points,  4 beta functions with:
                l(1) =   0
                l(2) =   0
                l(3) =   1
                l(4) =   1
     Q(r) pseudized with 0 coefficients

     PseudoPot. # 3 for Hg read from file:
     /home/pragov/projects/rrg-bengioy-ad/pragov/crystal_structure_design/SSSP/Hg_ONCV_PBE-1.0.oncvpsp.upf
     MD5 check sum: dd5a8773074bfcf4280086d4d95875c4
     Pseudo is Norm-conserving, Zval = 20.0
     Generated using ONCVPSP code by D. R. Hamann
     Using radial grid of 1262 points,  8 beta functions with:
                l(1) =   0
                l(2) =   0
                l(3) =   1
                l(4) =   1
                l(5) =   2
                l(6) =   2
                l(7) =   3
                l(8) =   3

     atomic species   valence    mass     pseudopotential
        Lu            25.00   174.96680     Lu( 1.00)
        Mg             2.00    24.30500     Mg( 1.00)
        Hg            20.00   200.59200     Hg( 1.00)

     12 Sym. Ops., with inversion, found

                                    s                        frac. trans.

      isym =  1     identity

 cryst.   s( 1) = (     1          0          0      )
                  (     0          1          0      )
                  (     0          0          1      )

 cart.    s( 1) = (  1.0000000  0.0000000  0.0000000 )
                  (  0.0000000  1.0000000  0.0000000 )
                  (  0.0000000  0.0000000  1.0000000 )

      isym =  2     180 deg rotation - cart. axis [1,0,0]

[...]

      isym =  3     120 deg rotation - cryst. axis [0,0,1]

[...]

      isym =  6     180 deg rotation - cryst. axis [1,1,0]

[...]

      isym =  7     inversion

[...]

      isym =  8     inv. 180 deg rotation - cart. axis [1,0,0]

[...]

      isym =  9     inv. 120 deg rotation - cryst. axis [0,0,1]

 cryst.   s( 9) = (     1         -1          0      )
                  (     1          0          0      )
                  (     1          0         -1      )

 cart.    s( 9) = (  0.5000000  0.8660254  0.0000000 )
                  ( -0.8660254  0.5000000  0.0000000 )
                  (  0.0000000  0.0000000 -1.0000000 )

[...]

 cryst.   s(10) = (     0          1          0      )
                  (    -1          1          0      )
                  (     0          1         -1      )

 cart.    s(10) = (  0.5000000 -0.8660254  0.0000000 )
                  (  0.8660254  0.5000000  0.0000000 )
                  (  0.0000000  0.0000000 -1.0000000 )

[...]

      isym = 12     inv. 180 deg rotation - cryst. axis [1,1,0]

 cryst.   s(12) = (     1         -1          0      )
                  (     0         -1          0      )
                  (     0         -1          1      )

 cart.    s(12) = (  0.5000000 -0.8660254  0.0000000 )
                  ( -0.8660254 -0.5000000 -0.0000000 )
                  (  0.0000000  0.0000000  1.0000000 )

   Cartesian axes

     site n.     atom                  positions (alat units)
         1           Lu  tau(   1) = (   1.5000000   0.8660254   0.6123724  )
         2           Lu  tau(   2) = (   0.5000000   0.2886751   0.2041241  )
         3           Mg  tau(   3) = (   1.0000000   0.5773503   0.4082483  )
         4           Hg  tau(   4) = (   0.0000000   0.0000000   0.0000000  )

   Crystallographic axes

     site n.     atom                  positions (cryst. coord.)
         1           Lu  tau(   1) = (  0.7500000  0.7500000  0.7500000  )
         2           Lu  tau(   2) = (  0.2500000  0.2500000  0.2500000  )
         3           Mg  tau(   3) = (  0.5000000  0.5000000  0.5000000  )
         4           Hg  tau(   4) = (  0.0000000  0.0000000  0.0000000  )

     number of k points=     1  Methfessel-Paxton smearing, width (Ry)=  0.0010
                       cart. coord. in units 2pi/alat
        k(    1) = (   0.0000000   0.0000000   0.0000000), wk =   2.0000000

                       cryst. coord.
        k(    1) = (   0.0000000   0.0000000   0.0000000), wk =   2.0000000

     Initial potential from superposition of free atoms

     starting charge      71.9915, renormalised to      72.0000
     Starting wfcs are   78 randomized atomic wfcs
     Checking if some PAW data can be deallocated...

     Self-consistent Calculation

     iteration #  1     ecut=    30.00 Ry     beta= 0.70
     Davidson diagonalization with overlap

     ethr =  1.00E-02,  avg # of iterations =  2.0

     Threshold (ethr) on eigenvalues was too large:
     Diagonalizing with lowered threshold

     Davidson diagonalization with overlap

[...]

     total energy              =   -2503.66401637 Ry
     estimated scf accuracy    <       0.23278566 Ry

[...]

     total energy              =   -2503.77371716 Ry
     estimated scf accuracy    <       0.00000233 Ry

     iteration # 19     ecut=    30.00 Ry     beta= 0.70
     Davidson diagonalization with overlap

     ethr =  3.24E-09,  avg # of iterations =  1.0

     End of self-consistent calculation

          k = 0.0000 0.0000 0.0000 (   919 PWs)   bands (ev):

  -103.4699 -51.2794 -51.2794 -51.2793 -43.4913 -43.4792 -14.1987 -14.1986
   -14.1986 -14.0863 -14.0863 -14.0863   5.5054   5.9607   5.9607   5.9607
     6.0462   6.0463   7.8344   7.8344   7.8344   7.8411   7.8411   7.8411
     7.8416   7.8496   7.8496   7.8496   7.8737   7.8737   7.8737   7.8896
    11.5547  11.5548  11.5548  13.4273  13.4391  13.4391  16.7460  16.7460
    16.7463  17.8458  17.8458

     occupation numbers
     1.0000   1.0000   1.0000   1.0000   1.0000   1.0000   1.0000   1.0000
     1.0000   1.0000   1.0000   1.0000   1.0000   1.0000   1.0000   1.0000
     1.0000   1.0000   1.0000   1.0000   1.0000   1.0000   1.0000   1.0000
     1.0000   1.0000   1.0000   1.0000   1.0000   1.0000   1.0000   1.0000
     1.0000   1.0000   1.0000   0.7688   0.1158   0.1154  -0.0000  -0.0000
    -0.0000  -0.0000  -0.0000

     the Fermi energy is    13.4319 ev

!    total energy              =   -2503.77371716 Ry
     estimated scf accuracy    <       0.00000005 Ry
     smearing contrib. (-TS)   =      -0.00038441 Ry
     internal energy E=F+TS    =   -2503.77333274 Ry

     The total energy is F=E-TS. E is the sum of the following terms:
     one-electron contribution =   -1099.30630223 Ry
     hartree contribution      =     497.57257863 Ry
     xc contribution           =    -111.74041794 Ry
     ewald contribution        =    -777.36709472 Ry
     one-center paw contrib.   =   -1012.93209649 Ry
      -> PAW hartree energy AE =     986.46229016 Ry
      -> PAW hartree energy PS =    -849.40533986 Ry
      -> PAW xc energy AE      =   -1231.64878063 Ry
      -> PAW xc energy PS      =      81.65973384 Ry
      -> total E_H with PAW    =     634.62952893 Ry
      -> total E_XC with PAW   =   -1261.72946472 Ry

     convergence has been achieved in  19 iterations

     Forces acting on atoms (cartesian axes, Ry/au):

     atom    1 type  1   force =     0.00000000    0.00000000    0.00000561
     atom    2 type  1   force =     0.00000000    0.00000000   -0.00000561
     atom    3 type  2   force =     0.00000000    0.00000000   -0.00000000
     atom    4 type  3   force =    -0.00000000    0.00000000   -0.00000000
     The non-local contrib.  to forces
     atom    1 type  1   force =     0.00000000    0.00000000    0.00005830
     atom    2 type  1   force =     0.00000000   -0.00000000   -0.00005830
     atom    3 type  2   force =     0.00000000    0.00000000    0.00000000
     atom    4 type  3   force =     0.00000000    0.00000000   -0.00000000
     The ionic contribution  to forces
     atom    1 type  1   force =    -0.00000000   -0.00000000    0.00000000
     atom    2 type  1   force =    -0.00000000    0.00000000   -0.00000000
     atom    3 type  2   force =    -0.00000000   -0.00000000    0.00000000
     atom    4 type  3   force =    -0.00000000    0.00000000    0.00000000
     The local contribution  to forces
     atom    1 type  1   force =     0.00002507    0.00000283   -0.00004005
     atom    2 type  1   force =    -0.00000909   -0.00001312    0.00005763
     atom    3 type  2   force =    -0.00000006   -0.00000139    0.00000018
     atom    4 type  3   force =     0.00001055    0.00001567   -0.00001688
     The core correction contribution to forces
     atom    1 type  1   force =     0.00000000    0.00000000   -0.00000000
     atom    2 type  1   force =    -0.00000000   -0.00000000    0.00000000
     atom    3 type  2   force =    -0.00000002   -0.00000012   -0.00000001
     atom    4 type  3   force =     0.00000000    0.00000000    0.00000000
     The Hubbard contrib.    to forces
     atom    1 type  1   force =     0.00000000    0.00000000    0.00000000
     atom    2 type  1   force =     0.00000000    0.00000000    0.00000000
     atom    3 type  2   force =     0.00000000    0.00000000    0.00000000
     atom    4 type  3   force =     0.00000000    0.00000000    0.00000000
     The SCF correction term to forces
     atom    1 type  1   force =    -0.00003973   -0.00000790   -0.00000920
     atom    2 type  1   force =     0.00002346    0.00001855   -0.00000150
     atom    3 type  2   force =    -0.00000018    0.00000016   -0.00000013
     atom    4 type  3   force =    -0.00002016   -0.00001800    0.00000197

     Total force =     0.000008     Total SCF correction =     0.000058
     SCF correction compared to forces is large: reduce conv_thr to get better values

     Computing stress (Cartesian axis) and pressure

          total   stress  (Ry/bohr**3)                   (kbar)     P=     -364.27
  -0.00247628   0.00000000   0.00000000         -364.27        0.00        0.00
   0.00000000  -0.00247628   0.00000000            0.00     -364.27        0.00
   0.00000000  -0.00000000  -0.00247625            0.00       -0.00     -364.27

     kinetic stress (kbar)  21360.01     -0.00     -0.00
                                0.00  21360.01     -0.00
                               -0.00     -0.00  21360.02

     local   stress (kbar)  -9123.64     -0.27      0.40
                               -0.27  -9123.29      0.26
                                0.40      0.26  -9123.46

     nonloc. stress (kbar)  15623.67      0.00      0.00
                                0.00  15623.67     -0.00
                                0.00      0.00  15623.67

     hartree stress (kbar)  36424.82      0.17     -0.25
                                0.17  36424.61     -0.16
                               -0.25     -0.16  36424.71

     exc-cor stress (kbar)  -7575.77      0.00     -0.00
                                0.00  -7575.77     -0.00
                               -0.00     -0.00  -7575.77

     corecor stress (kbar)   -166.41     -0.00     -0.00
                               -0.00   -166.41     -0.00
                               -0.00     -0.00   -166.41

     ewald   stress (kbar) -56907.02     -0.00     -0.00
                               -0.00 -56907.02      0.00
                               -0.00      0.00 -56907.02

     hubbard stress (kbar)      0.00      0.00      0.00
                                0.00      0.00      0.00
                                0.00      0.00      0.00

     DFT-D   stress (kbar)      0.00      0.00      0.00
                                0.00      0.00      0.00
                                0.00      0.00      0.00

     XDM     stress (kbar)      0.00      0.00      0.00
                                0.00      0.00      0.00
                                0.00      0.00      0.00

     dft-nl  stress (kbar)      0.00      0.00      0.00
                                0.00      0.00      0.00
                                0.00      0.00      0.00

     TS-vdW  stress (kbar)      0.00      0.00      0.00
                                0.00      0.00      0.00
                                0.00      0.00      0.00

[...]

                                0.00      0.00      0.00

     Writing all to output data dir new_calculations/myprefix.save/

     General routines

     Parallel routines

     PAW routines

   This run was terminated on:  12:15:18  21May2023

   JOB DONE.