     Program PWSCF v.7.0 starts on 20May2023 at  4:59: 8

     Reading input from espresso_11076.pwi
Warning: card &CELL ignored
Warning: card / ignored

     Current dimensions of program PWSCF are:
     Max number of different atomic species (ntypx) = 10
     Max number of k-points (npk) =  40000
     Max angular momentum in pseudopotentials (lmaxx) =  4
     file O.pbe-n-kjpaw_psl.0.1.UPF: wavefunction(s)  2P renormalized

     gamma-point specific algorithms are used
     Message from routine setup:
     using ibrav=0 with symmetry is DISCOURAGED, use correct ibrav instead

     Subspace diagonalization in iterative solution of the eigenvalue problem:
     a serial algorithm will be used

     Using Slab Decomposition

     bravais-lattice index     =            0
     lattice parameter (alat)  =      11.4829  a.u.
     unit-cell volume          =    1712.3665 (a.u.)^3
     number of atoms/cell      =           14
     number of atomic types    =            4
     number of electrons       =       125.00
     number of Kohn-Sham states=           76
     kinetic-energy cutoff     =      30.0000  Ry
     charge density cutoff     =     240.0000  Ry
     scf convergence threshold =      1.0E-06
     mixing beta               =       0.7000
     number of iterations used =            8  plain     mixing
     Exchange-correlation= SLA  PW   PBX  PBC
                           (   1   4   3   4   0   0   0)

     celldm(1)=  11.482940  celldm(2)=   0.000000  celldm(3)=   0.000000
     celldm(4)=   0.000000  celldm(5)=   0.000000  celldm(6)=   0.000000

     crystal axes: (cart. coord. in units of alat)
               a(1) = (   1.000000   0.000000   0.000000 )
               a(2) = (  -0.500000   0.866025   0.000000 )
               a(3) = (   0.000000   0.000000   1.305891 )

     reciprocal axes: (cart. coord. in units 2 pi/alat)
               b(1) = (  1.000000  0.577350  0.000000 )
               b(2) = (  0.000000  1.154701  0.000000 )
               b(3) = (  0.000000  0.000000  0.765761 )

     PseudoPot. # 1 for Rb read from file:
     /home/pragov/projects/rrg-bengioy-ad/pragov/crystal_structure_design/SSSP/Rb_ONCV_PBE-1.0.oncvpsp.upf
     MD5 check sum: 55a5172d6bfbce6759a58e35d43f6aa9
     Pseudo is Norm-conserving, Zval =  9.0
     Generated using ONCVPSP code by D. R. Hamann
     Using radial grid of 2308 points,  6 beta functions with:
                l(1) =   0
                l(2) =   0
                l(3) =   1
                l(4) =   1
                l(5) =   2
                l(6) =   2

     PseudoPot. # 2 for Yb read from file:
     /home/pragov/projects/rrg-bengioy-ad/pragov/crystal_structure_design/SSSP/Yb.GGA-PBE-paw-v1.0.UPF
     MD5 check sum: 43b6465ad8021f06e3edb42ae292e187
     Pseudo is Projector augmented-wave + core cor, Zval = 24.0
     Generated using ATOMPAW code
     Shape of augmentation charge: BESSEL
     Using radial grid of 1117 points,  8 beta functions with:
                l(1) =   0
                l(2) =   0
                l(3) =   1
                l(4) =   1
                l(5) =   2
                l(6) =   2
                l(7) =   3
                l(8) =   3
     Q(r) pseudized with 0 coefficients

     PseudoPot. # 3 for V  read from file:
     /home/pragov/projects/rrg-bengioy-ad/pragov/crystal_structure_design/SSSP/v_pbe_v1.4.uspp.F.UPF
     MD5 check sum: 22b79981416ebb76fdaf5b1b8640f6fb
     Pseudo is Ultrasoft + core correction, Zval = 13.0
     Generated by new atomic code, or converted to UPF format
     Using radial grid of  853 points,  6 beta functions with:
                l(1) =   0
                l(2) =   0
                l(3) =   1
                l(4) =   1
                l(5) =   2
                l(6) =   2
     Q(r) pseudized with  8 coefficients,  rinner =    1.100   1.100   1.100
                                                       1.100   1.100

     PseudoPot. # 4 for O  read from file:
     /home/pragov/projects/rrg-bengioy-ad/pragov/crystal_structure_design/SSSP/O.pbe-n-kjpaw_psl.0.1.UPF
     MD5 check sum: 0234752ac141de4415c5fc33072bef88
     Pseudo is Projector augmented-wave + core cor, Zval =  6.0
     Generated using "atomic" code by A. Dal Corso  v.5.0.99 svn rev. 10869
     Shape of augmentation charge: BESSEL
     Using radial grid of 1095 points,  4 beta functions with:
                l(1) =   0
                l(2) =   0
                l(3) =   1
                l(4) =   1
     Q(r) pseudized with 0 coefficients

     atomic species   valence    mass     pseudopotential
        Rb             9.00    85.46780     Rb( 1.00)
        Yb            24.00   173.05400     Yb( 1.00)
        V             13.00    50.94150     V ( 1.00)
        O              6.00    15.99900     O ( 1.00)

     12 Sym. Ops., with inversion, found

                                    s                        frac. trans.

      isym =  1     identity

 cryst.   s( 1) = (     1          0          0      )
                  (     0          1          0      )
                  (     0          0          1      )

 cart.    s( 1) = (  1.0000000  0.0000000  0.0000000 )
                  (  0.0000000  1.0000000  0.0000000 )
                  (  0.0000000  0.0000000  1.0000000 )

      isym =  2     180 deg rotation - cart. axis [1,0,0]

[...]

      isym =  3     120 deg rotation - cryst. axis [0,0,1]

[...]

      isym =  6     180 deg rotation - cryst. axis [1,1,0]

[...]

      isym =  7     inversion

[...]

      isym =  8     inv. 180 deg rotation - cart. axis [1,0,0]

[...]

      isym =  9     inv. 120 deg rotation - cryst. axis [0,0,1]

 cryst.   s( 9) = (     0         -1          0      )
                  (     1          1          0      )
                  (     0          0         -1      )

 cart.    s( 9) = (  0.5000000  0.8660254  0.0000000 )
                  ( -0.8660254  0.5000000  0.0000000 )
                  (  0.0000000  0.0000000 -1.0000000 )

[...]

 cryst.   s(10) = (     1          1          0      )
                  (    -1          0          0      )
                  (     0          0         -1      )

 cart.    s(10) = (  0.5000000 -0.8660254  0.0000000 )
                  (  0.8660254  0.5000000  0.0000000 )
                  (  0.0000000  0.0000000 -1.0000000 )

[...]

      isym = 12     inv. 180 deg rotation - cryst. axis [1,1,0]

 cryst.   s(12) = (     0         -1          0      )
                  (    -1          0          0      )
                  (     0          0          1      )

 cart.    s(12) = (  0.5000000 -0.8660254  0.0000000 )
                  ( -0.8660254 -0.5000000  0.0000000 )
                  (  0.0000000  0.0000000  1.0000000 )

   Cartesian axes

     site n.     atom                  positions (alat units)
         1           Rb  tau(   1) = (   0.5000005   0.2886748   0.4166275  )
         2           Rb  tau(   2) = (  -0.0000005   0.5773506   0.8892633  )
         3           Rb  tau(   3) = (   0.0000000   0.0000000   0.0000000  )
         4           Yb  tau(   4) = (   0.0000000   0.0000000   0.6529454  )
         5           V   tau(   5) = (   0.5000005   0.2886748   0.9872900  )
         6           V   tau(   6) = (  -0.0000005   0.5773506   0.3186008  )
         7           O   tau(   7) = (   0.5000005   0.2886748   1.2701354  )
         8           O   tau(   8) = (  -0.0000005   0.5773506   0.0357553  )
         9           O   tau(   9) = (   0.5000005   0.5602292   0.8863276  )
        10           O   tau(  10) = (  -0.0000005   0.3057962   0.4195631  )
        11           O   tau(  11) = (   0.7351735   0.1528977   0.8863276  )
        12           O   tau(  12) = (  -0.2351735   0.7131278   0.4195631  )
        13           O   tau(  13) = (   0.2648275   0.1528977   0.8863276  )
        14           O   tau(  14) = (   0.2351725   0.7131278   0.4195631  )

   Crystallographic axes

     site n.     atom                  positions (cryst. coord.)
         1           Rb  tau(   1) = (  0.6666670  0.3333330  0.3190370  )
         2           Rb  tau(   2) = (  0.3333330  0.6666670  0.6809630  )
         3           Rb  tau(   3) = (  0.0000000  0.0000000  0.0000000  )
         4           Yb  tau(   4) = (  0.0000000  0.0000000  0.5000000  )
         5           V   tau(   5) = (  0.6666670  0.3333330  0.7560280  )
         6           V   tau(   6) = (  0.3333330  0.6666670  0.2439720  )
         7           O   tau(   7) = (  0.6666670  0.3333330  0.9726200  )
         8           O   tau(   8) = (  0.3333330  0.6666670  0.0273800  )
         9           O   tau(   9) = (  0.8234490  0.6468970  0.6787150  )
        10           O   tau(  10) = (  0.1765510  0.3531030  0.3212850  )
        11           O   tau(  11) = (  0.8234490  0.1765510  0.6787150  )
        12           O   tau(  12) = (  0.1765510  0.8234490  0.3212850  )
        13           O   tau(  13) = (  0.3531030  0.1765510  0.6787150  )
        14           O   tau(  14) = (  0.6468970  0.8234490  0.3212850  )

     number of k points=     1  Methfessel-Paxton smearing, width (Ry)=  0.0010
                       cart. coord. in units 2pi/alat
        k(    1) = (   0.0000000   0.0000000   0.0000000), wk =   2.0000000

                       cryst. coord.
        k(    1) = (   0.0000000   0.0000000   0.0000000), wk =   2.0000000

     Check: negative core charge=   -0.000012

     Initial potential from superposition of free atoms

     starting charge     124.9192, renormalised to     125.0000

     negative rho (up, down):  2.081E-03 0.000E+00
     Starting wfcs are   99 randomized atomic wfcs
     Checking if some PAW data can be deallocated...

     Self-consistent Calculation

     iteration #  1     ecut=    30.00 Ry     beta= 0.70
     Davidson diagonalization with overlap

     ethr =  1.00E-02,  avg # of iterations =  2.0
     Minimization algorithm failed to find Fermi energy: reverting to bisection
     Possible cause: smearing is larger than the electronic band-gap.

     negative rho (up, down):  5.306E-03 0.000E+00

     total energy              =   -1778.65446787 Ry
     estimated scf accuracy    <       5.62071915 Ry

[...]

     ethr =  4.50E-03,  avg # of iterations =  3.0

[...]

     ethr =  3.47E-06,  avg # of iterations =  1.0

[...]

     total energy              =   -1782.04617066 Ry
     estimated scf accuracy    <       0.00000141 Ry

     iteration # 31     ecut=    30.00 Ry     beta= 0.70
     Davidson diagonalization with overlap

     ethr =  1.13E-09,  avg # of iterations =  1.0
     Minimization algorithm failed to find Fermi energy: reverting to bisection
     Possible cause: smearing is larger than the electronic band-gap.

[...]

     End of self-consistent calculation

          k = 0.0000 0.0000 0.0000 (  2381 PWs)   bands (ev):

   -58.6596 -58.6595 -45.9232 -32.5828 -32.5828 -32.5827 -32.5827 -32.5671
   -32.5667 -19.6319 -19.6071 -19.6043 -18.0426 -18.0425 -17.9927 -11.5111
   -11.2399 -11.0729 -11.0728 -10.9022 -10.9022 -10.6032 -10.4961  -3.9434
    -3.9434  -3.8763  -3.8763  -3.8610  -3.7727  -3.7029  -3.6900  -3.6899
     1.5002   1.8540   1.8541   2.2962   2.2962   2.3342   2.3342   2.3601
     2.4261   2.5962   2.5962   2.7953   3.3060   3.3060   3.3748   3.4944
     3.5904   3.5904   4.2740   4.6085   4.6085   4.6176   4.6177   4.6361
     4.7963   4.8945   4.8950   4.8950   4.9898   4.9907   4.9908   8.1164
     8.1164   8.6398   8.6398   9.4905   9.7608   9.8133   9.8133   9.9212
     9.9212   9.9399  11.6513  11.9091

     occupation numbers
     1.0000   1.0000   1.0000   1.0000   1.0000   1.0000   1.0000   1.0000
     1.0000   1.0000   1.0000   1.0000   1.0000   1.0000   1.0000   1.0000
     1.0000   1.0000   1.0000   1.0000   1.0000   1.0000   1.0000   1.0000
     1.0000   1.0000   1.0000   1.0000   1.0000   1.0000   1.0000   1.0000
     1.0000   1.0000   1.0000   1.0000   1.0000   1.0000   1.0000   1.0000
     1.0000   1.0000   1.0000   1.0000   1.0000   1.0000   1.0000   1.0000
     1.0000   1.0000   1.0000   1.0000   1.0000   1.0000   1.0000   1.0000
     1.0000   1.0000   1.0000   1.0000   0.8598   0.8210   0.8192  -0.0000
    -0.0000  -0.0000  -0.0000  -0.0000  -0.0000  -0.0000  -0.0000  -0.0000
    -0.0000  -0.0000  -0.0000  -0.0000

     the Fermi energy is     4.9964 ev

!    total energy              =   -1782.04616873 Ry
     estimated scf accuracy    <       0.00000070 Ry
     smearing contrib. (-TS)   =      -0.00043098 Ry
     internal energy E=F+TS    =   -1782.04573775 Ry

     The total energy is F=E-TS. E is the sum of the following terms:
     one-electron contribution =    -894.64229140 Ry
     hartree contribution      =     462.71926557 Ry
     xc contribution           =    -159.00604873 Ry
     ewald contribution        =    -630.03250331 Ry
     one-center paw contrib.   =    -561.08415987 Ry
      -> PAW hartree energy AE =     677.28039381 Ry
      -> PAW hartree energy PS =    -613.83018477 Ry
      -> PAW xc energy AE      =    -721.29743041 Ry
      -> PAW xc energy PS      =      96.76306150 Ry
      -> total E_H with PAW    =     526.16947461 Ry
      -> total E_XC with PAW   =    -783.54041765 Ry

     convergence has been achieved in  31 iterations

     negative rho (up, down):  3.598E-03 0.000E+00

     Forces acting on atoms (cartesian axes, Ry/au):

     atom    1 type  1   force =     0.00000000    0.00000000   -0.00832815
     atom    2 type  1   force =     0.00000000    0.00000000    0.00832815
     atom    3 type  1   force =     0.00000000    0.00000000    0.00000000
     atom    4 type  2   force =     0.00000000   -0.00000000    0.00000000
     atom    5 type  3   force =    -0.00000000    0.00000000    0.01943650
     atom    6 type  3   force =     0.00000000   -0.00000000   -0.01943650
     atom    7 type  4   force =    -0.00000000   -0.00000000   -0.06524244
     atom    8 type  4   force =     0.00000000    0.00000000    0.06524244
     atom    9 type  4   force =     0.00000000   -0.01695917    0.00453478
     atom   10 type  4   force =     0.00000000    0.01695917   -0.00453478
     atom   11 type  4   force =    -0.01468707    0.00847958    0.00453478
     atom   12 type  4   force =     0.01468707   -0.00847958   -0.00453478
     atom   13 type  4   force =     0.01468707    0.00847958    0.00453478
     atom   14 type  4   force =    -0.01468707   -0.00847958   -0.00453478
     The non-local contrib.  to forces
     atom    1 type  1   force =     0.00000000    0.00000000    0.03737524
     atom    2 type  1   force =    -0.00000000   -0.00000000   -0.03737524
     atom    3 type  1   force =     0.00000000   -0.00000000    0.00000000
     atom    4 type  2   force =     0.00000000    0.00000000    0.00000000
     atom    5 type  3   force =     0.00000000    0.00000000    0.03069672
     atom    6 type  3   force =     0.00000000    0.00000000   -0.03069672
     atom    7 type  4   force =     0.00000000   -0.00000000   -0.90837684
     atom    8 type  4   force =     0.00000000    0.00000000    0.90837684
     atom    9 type  4   force =    -0.00000000   -0.48177346   -0.00903687
     atom   10 type  4   force =    -0.00000000    0.48177346    0.00903687
     atom   11 type  4   force =    -0.41722806    0.24088673   -0.00903687
     atom   12 type  4   force =     0.41722806   -0.24088673    0.00903687
     atom   13 type  4   force =     0.41722806    0.24088673   -0.00903687
     atom   14 type  4   force =    -0.41722806   -0.24088673    0.00903687
     The ionic contribution  to forces
     atom    1 type  1   force =    -0.00006940    0.00004007   -7.73413039
     atom    2 type  1   force =     0.00006940   -0.00004007    7.73413039
     atom    3 type  1   force =     0.00000000    0.00000000    0.00000000
     atom    4 type  2   force =     0.00000000    0.00000000   -0.00000000
     atom    5 type  3   force =    -0.00004598    0.00002655   11.25467708
     atom    6 type  3   force =     0.00004598   -0.00002655  -11.25467708
     atom    7 type  4   force =    -0.00002313    0.00001336   13.08739963
     atom    8 type  4   force =     0.00002313   -0.00001336  -13.08739963
     atom    9 type  4   force =    -0.00002158    3.95549750    5.19077471
     atom   10 type  4   force =     0.00002158   -3.95549750   -5.19077471
     atom   11 type  4   force =     3.42553801   -1.97773530    5.19081795
     atom   12 type  4   force =    -3.42553801    1.97773530   -5.19081795
     atom   13 type  4   force =    -3.42557212   -1.97773005    5.19077471
     atom   14 type  4   force =     3.42557212    1.97773005   -5.19077471
     The local contribution  to forces
     atom    1 type  1   force =     0.00003692   -0.00004591    7.68881938
     atom    2 type  1   force =    -0.00004869    0.00005871   -7.68889011
     atom    3 type  1   force =     0.00001801   -0.00002102    0.00000808
     atom    4 type  2   force =     0.00018951   -0.00021710   -0.00004029
     atom    5 type  3   force =    -0.00034251   -0.00001956  -11.25955508
     atom    6 type  3   force =     0.00011744    0.00029931   11.25983028
     atom    7 type  4   force =    -0.00001809   -0.00001558  -12.25158161
     atom    8 type  4   force =    -0.00000278    0.00004175   12.25168434
     atom    9 type  4   force =     0.00005741   -3.49392539   -5.17844500
     atom   10 type  4   force =    -0.00005736    3.49401903    5.17843779
     atom   11 type  4   force =    -3.02585497    1.74700380   -5.17849189
     atom   12 type  4   force =     3.02585039   -1.74700048    5.17850575
     atom   13 type  4   force =     3.02573198    1.74686467   -5.17833735
     atom   14 type  4   force =    -3.02578114   -1.74689688    5.17833837
     The core correction contribution to forces
     atom    1 type  1   force =     0.00000000    0.00000000    0.00000000
     atom    2 type  1   force =     0.00000000    0.00000000    0.00000000
     atom    3 type  1   force =     0.00000000    0.00000000    0.00000000
     atom    4 type  2   force =     0.00000000   -0.00000000   -0.00000000
     atom    5 type  3   force =    -0.00000041    0.00000187   -0.00735357
     atom    6 type  3   force =    -0.00000230    0.00000170    0.00735615
     atom    7 type  4   force =    -0.00000002    0.00000003    0.00735444
     atom    8 type  4   force =    -0.00000000    0.00000002   -0.00735461
     atom    9 type  4   force =     0.00000062    0.00336015    0.00079227
     atom   10 type  4   force =    -0.00000066   -0.00336021   -0.00079203
     atom   11 type  4   force =     0.00291016   -0.00167961    0.00079188
     atom   12 type  4   force =    -0.00291007    0.00167960   -0.00079197
     atom   13 type  4   force =    -0.00291099   -0.00168081    0.00079345
     atom   14 type  4   force =     0.00291086    0.00168081   -0.00079340
     The Hubbard contrib.    to forces
     atom    1 type  1   force =     0.00000000    0.00000000    0.00000000
     atom    2 type  1   force =     0.00000000    0.00000000    0.00000000
     atom    3 type  1   force =     0.00000000    0.00000000    0.00000000
     atom    4 type  2   force =     0.00000000    0.00000000    0.00000000
     atom    5 type  3   force =     0.00000000    0.00000000    0.00000000
     atom    6 type  3   force =     0.00000000    0.00000000    0.00000000
     atom    7 type  4   force =     0.00000000    0.00000000    0.00000000
     atom    8 type  4   force =     0.00000000    0.00000000    0.00000000
     atom    9 type  4   force =     0.00000000    0.00000000    0.00000000
     atom   10 type  4   force =     0.00000000    0.00000000    0.00000000
     atom   11 type  4   force =     0.00000000    0.00000000    0.00000000
     atom   12 type  4   force =     0.00000000    0.00000000    0.00000000
     atom   13 type  4   force =     0.00000000    0.00000000    0.00000000
     atom   14 type  4   force =     0.00000000    0.00000000    0.00000000
     The SCF correction term to forces
     atom    1 type  1   force =     0.00003265    0.00000372   -0.00039304
     atom    2 type  1   force =    -0.00001915   -0.00001967    0.00046244
     atom    3 type  1   force =    -0.00001948    0.00002383   -0.00000933
     atom    4 type  2   force =    -0.00020440    0.00024390    0.00004841
     atom    5 type  3   force =     0.00037099   -0.00001298    0.00098216
     atom    6 type  3   force =    -0.00014559   -0.00027064   -0.00123832
     atom    7 type  4   force =     0.00003503    0.00000064   -0.00003575
     atom    8 type  4   force =    -0.00001460   -0.00002679   -0.00006218
     atom    9 type  4   force =     0.00000854   -0.00013670    0.00043025
     atom   10 type  4   force =    -0.00001121    0.00004948   -0.00040960
     atom   11 type  4   force =    -0.00006866    0.00005503    0.00041308
     atom   12 type  4   force =     0.00006385   -0.00004980   -0.00042527
     atom   13 type  4   force =     0.00016404    0.00010143    0.00041066
     atom   14 type  4   force =    -0.00012256   -0.00006853   -0.00040742

     Total force =     0.106097     Total SCF correction =     0.002084

     Computing stress (Cartesian axis) and pressure

     negative rho (up, down):  3.598E-03 0.000E+00
          total   stress  (Ry/bohr**3)                   (kbar)     P=     -246.55
  -0.00153829   0.00000000   0.00000000         -226.29        0.00        0.00
   0.00000000  -0.00153829   0.00000000            0.00     -226.29        0.00
   0.00000000   0.00000000  -0.00195138            0.00        0.00     -287.06

     kinetic stress (kbar)  15609.41     -0.00      0.00
                               -0.00  15609.41      0.00
                                0.00      0.00  15621.50

     local   stress (kbar) -14324.05     -0.57     -0.30
                               -0.57 -14323.53     -0.13
                               -0.30     -0.13  -1463.96

     nonloc. stress (kbar)   3257.04     -0.00      0.00
                               -0.00   3257.04      0.00
                                0.00      0.00   3236.63

     hartree stress (kbar)  15344.34      0.27      0.19
                                0.27  15344.09      0.08
                                0.19      0.08   9062.62

     exc-cor stress (kbar)  -3549.04      0.00      0.00
                                0.00  -3549.04      0.00
                                0.00      0.00  -3544.05

     corecor stress (kbar)   -734.49     -0.00      0.00
                               -0.00   -734.49      0.00
                                0.00      0.00   -734.54

     ewald   stress (kbar) -15829.61     -0.02     -0.01
                               -0.02 -15829.63      0.00
                               -0.01      0.00 -22465.26

     hubbard stress (kbar)      0.00      0.00      0.00
                                0.00      0.00      0.00
                                0.00      0.00      0.00

     DFT-D   stress (kbar)      0.00      0.00      0.00
                                0.00      0.00      0.00
                                0.00      0.00      0.00

     XDM     stress (kbar)      0.00      0.00      0.00
                                0.00      0.00      0.00
                                0.00      0.00      0.00

     dft-nl  stress (kbar)      0.00      0.00      0.00
                                0.00      0.00      0.00
                                0.00      0.00      0.00

     TS-vdW  stress (kbar)      0.00      0.00      0.00
                                0.00      0.00      0.00
                                0.00      0.00      0.00

[...]

                                0.00      0.00      0.00

     Writing all to output data dir new_calculations/myprefix.save/

     General routines

     Parallel routines

     PAW routines

   This run was terminated on:   5: 0:26  20May2023

   JOB DONE.