     Program PWSCF v.7.0 starts on 21May2023 at  2:43: 0

     Reading input from espresso_25263.pwi
Warning: card &CELL ignored
Warning: card / ignored

     Current dimensions of program PWSCF are:
     Max number of different atomic species (ntypx) = 10
     Max number of k-points (npk) =  40000
     Max angular momentum in pseudopotentials (lmaxx) =  4

     gamma-point specific algorithms are used
     Message from routine setup:
     using ibrav=0 with symmetry is DISCOURAGED, use correct ibrav instead

     Subspace diagonalization in iterative solution of the eigenvalue problem:
     a serial algorithm will be used

     Using Slab Decomposition

     bravais-lattice index     =            0
     lattice parameter (alat)  =       8.4043  a.u.
     unit-cell volume          =    1326.0572 (a.u.)^3
     number of atoms/cell      =            8
     number of atomic types    =            3
     number of electrons       =       118.00
     number of Kohn-Sham states=           71
     kinetic-energy cutoff     =      30.0000  Ry
     charge density cutoff     =     240.0000  Ry
     scf convergence threshold =      1.0E-06
     mixing beta               =       0.7000
     number of iterations used =            8  plain     mixing
     Exchange-correlation=  SLA  PW   PBX  PBC
                           (   1   4   3   4   0   0   0)

     celldm(1)=   8.404256  celldm(2)=   0.000000  celldm(3)=   0.000000
     celldm(4)=   0.000000  celldm(5)=   0.000000  celldm(6)=   0.000000

     crystal axes: (cart. coord. in units of alat)
               a(1) = (   1.000000   0.000000   0.000000 )
               a(2) = (   0.000000   1.000000   0.000000 )
               a(3) = (   0.000000   0.000000   2.233903 )

     reciprocal axes: (cart. coord. in units 2 pi/alat)
               b(1) = (  1.000000  0.000000  0.000000 )
               b(2) = (  0.000000  1.000000  0.000000 )
               b(3) = (  0.000000  0.000000  0.447647 )

     PseudoPot. # 1 for La read from file:
     /home/pragov/projects/rrg-bengioy-ad/pragov/crystal_structure_design/SSSP/La.GGA-PBE-paw-v1.0.UPF
     MD5 check sum: 436541e95c1ad8901025bd0b0ed42ae2
     Pseudo is Projector augmented-wave + core cor, Zval = 11.0
     Generated using ATOMPAW code
     Shape of augmentation charge: BESSEL
     Using radial grid of 1101 points,  8 beta functions with:
                l(1) =   0
                l(2) =   0
                l(3) =   1
                l(4) =   1
                l(5) =   2
                l(6) =   2
                l(7) =   3
                l(8) =   3
     Q(r) pseudized with 0 coefficients

     PseudoPot. # 2 for Ni read from file:
     /home/pragov/projects/rrg-bengioy-ad/pragov/crystal_structure_design/SSSP/ni_pbe_v1.4.uspp.F.UPF
     MD5 check sum: 1ee80287db30b12d2bc1f57a5b5d6409
     Pseudo is Ultrasoft + core correction, Zval = 18.0
     Generated by new atomic code, or converted to UPF format
     Using radial grid of  865 points,  6 beta functions with:
                l(1) =   0
                l(2) =   0
                l(3) =   1
                l(4) =   1
                l(5) =   2
                l(6) =   2
     Q(r) pseudized with 10 coefficients,  rinner =    0.980   0.980   0.980
                                                       0.980   0.980

     PseudoPot. # 3 for Sb read from file:
     /home/pragov/projects/rrg-bengioy-ad/pragov/crystal_structure_design/SSSP/sb_pbe_v1.4.uspp.F.UPF
     MD5 check sum: 9bc50dfb53373b713f5709b9110fe27f
     Pseudo is Ultrasoft + core correction, Zval = 15.0
     Generated by new atomic code, or converted to UPF format
     Using radial grid of  891 points,  6 beta functions with:
                l(1) =   0
                l(2) =   0
                l(3) =   1
                l(4) =   1
                l(5) =   2
                l(6) =   2
     Q(r) pseudized with  8 coefficients,  rinner =    1.350   1.350   1.350
                                                       1.350   1.350

     atomic species   valence    mass     pseudopotential
        La            11.00   138.90547     La( 1.00)
        Ni            18.00    58.69340     Ni( 1.00)
        Sb            15.00   121.76000     Sb( 1.00)

     16 Sym. Ops., with inversion, found ( 8 have fractional translation)

                                    s                        frac. trans.

      isym =  1     identity

 cryst.   s( 1) = (     1          0          0      )
                  (     0          1          0      )
                  (     0          0          1      )

 cart.    s( 1) = (  1.0000000  0.0000000  0.0000000 )
                  (  0.0000000  1.0000000  0.0000000 )
                  (  0.0000000  0.0000000  1.0000000 )

      isym =  2     180 deg rotation - cart. axis [0,0,1]

[...]

 cryst.   s( 3) = (    -1          0          0      )    f =(  0.5000000 )
                  (     0          1          0      )       (  0.5000000 )
                  (     0          0         -1      )       (  0.0000000 )

 cart.    s( 3) = ( -1.0000000  0.0000000  0.0000000 )    f =(  0.5000000 )
                  (  0.0000000  1.0000000  0.0000000 )       (  0.5000000 )
                  (  0.0000000  0.0000000 -1.0000000 )       (  0.0000000 )

[...]

 cryst.   s( 6) = (     0         -1          0      )
                  (    -1          0          0      )
                  (     0          0         -1      )

 cart.    s( 6) = (  0.0000000 -1.0000000  0.0000000 )
                  ( -1.0000000  0.0000000  0.0000000 )
                  (  0.0000000  0.0000000 -1.0000000 )

[...]

      isym =  8      90 deg rotation - cart. axis [0,0,1]

[...]

      isym =  9     inversion

 cryst.   s( 9) = (    -1          0          0      )    f =(  0.5000000 )
                  (     0         -1          0      )       (  0.5000000 )
                  (     0          0         -1      )       (  0.0000000 )

 cart.    s( 9) = ( -1.0000000  0.0000000  0.0000000 )    f =(  0.5000000 )
                  (  0.0000000 -1.0000000  0.0000000 )       (  0.5000000 )
                  (  0.0000000  0.0000000 -1.0000000 )       (  0.0000000 )

      isym = 10     inv. 180 deg rotation - cart. axis [0,0,1]

 cryst.   s(10) = (     1          0          0      )    f =( -0.5000000 )
                  (     0          1          0      )       (  0.5000000 )
                  (     0          0         -1      )       (  0.0000000 )

 cart.    s(10) = (  1.0000000  0.0000000  0.0000000 )    f =( -0.5000000 )
                  (  0.0000000  1.0000000  0.0000000 )       (  0.5000000 )
                  (  0.0000000  0.0000000 -1.0000000 )       (  0.0000000 )

[...]

 cryst.   s(11) = (     1          0          0      )
                  (     0         -1          0      )
                  (     0          0          1      )

 cart.    s(11) = (  1.0000000  0.0000000  0.0000000 )
                  (  0.0000000 -1.0000000  0.0000000 )
                  (  0.0000000  0.0000000  1.0000000 )

[...]

 cryst.   s(14) = (     0          1          0      )    f =( -0.5000000 )
                  (     1          0          0      )       (  0.5000000 )
                  (     0          0          1      )       (  0.0000000 )

 cart.    s(14) = (  0.0000000  1.0000000  0.0000000 )    f =( -0.5000000 )
                  (  1.0000000  0.0000000  0.0000000 )       (  0.5000000 )
                  (  0.0000000  0.0000000  1.0000000 )       (  0.0000000 )

[...]

      isym = 16     inv.  90 deg rotation - cart. axis [0,0,1]

 cryst.   s(16) = (     0         -1          0      )
                  (     1          0          0      )
                  (     0          0         -1      )

 cart.    s(16) = (  0.0000000  1.0000000  0.0000000 )
                  ( -1.0000000  0.0000000  0.0000000 )
                  (  0.0000000  0.0000000 -1.0000000 )

   Cartesian axes

     site n.     atom                  positions (alat units)
         1           La  tau(   1) = (   0.0000000   0.5000000   1.6542032  )
         2           La  tau(   2) = (   0.5000000   0.0000000   0.5797002  )
         3           Ni  tau(   3) = (   0.5000000   0.5000000   1.1169517  )
         4           Ni  tau(   4) = (   0.0000000   0.0000000   1.1169517  )
         5           Sb  tau(   5) = (   0.5000000   0.5000000   0.0000000  )
         6           Sb  tau(   6) = (   0.0000000   0.0000000   0.0000000  )
         7           Sb  tau(   7) = (   0.0000000   0.5000000   0.8323680  )
         8           Sb  tau(   8) = (   0.5000000   0.0000000   1.4015353  )

   Crystallographic axes

     site n.     atom                  positions (cryst. coord.)
         1           La  tau(   1) = (  0.0000000  0.5000000  0.7404990  )
         2           La  tau(   2) = (  0.5000000  0.0000000  0.2595010  )
         3           Ni  tau(   3) = (  0.5000000  0.5000000  0.5000000  )
         4           Ni  tau(   4) = (  0.0000000  0.0000000  0.5000000  )
         5           Sb  tau(   5) = (  0.5000000  0.5000000  0.0000000  )
         6           Sb  tau(   6) = (  0.0000000  0.0000000  0.0000000  )
         7           Sb  tau(   7) = (  0.0000000  0.5000000  0.3726070  )
         8           Sb  tau(   8) = (  0.5000000  0.0000000  0.6273930  )

     number of k points=     1  Methfessel-Paxton smearing, width (Ry)=  0.0010
                       cart. coord. in units 2pi/alat
        k(    1) = (   0.0000000   0.0000000   0.0000000), wk =   2.0000000

                       cryst. coord.
        k(    1) = (   0.0000000   0.0000000   0.0000000), wk =   2.0000000

     Check: negative core charge=   -0.000005

     Initial potential from superposition of free atoms

     starting charge     109.9829, renormalised to     118.0000
     Starting wfcs are  126 randomized atomic wfcs
     Checking if some PAW data can be deallocated...

     Self-consistent Calculation

     iteration #  1     ecut=    30.00 Ry     beta= 0.70
     Davidson diagonalization with overlap

     ethr =  1.00E-02,  avg # of iterations =  6.0

     total energy              =   -2268.60832503 Ry
     estimated scf accuracy    <      99.79980692 Ry

[...]

     negative rho (up, down):  1.810E-05 0.000E+00

[...]

     c_bands:  1 eigenvalues not converged
     ethr =  1.85E-05,  avg # of iterations = 20.0

[...]

     total energy              =   -2342.35332846 Ry
     estimated scf accuracy    <       0.00000121 Ry

     iteration # 21     ecut=    30.00 Ry     beta= 0.70
     Davidson diagonalization with overlap

     ethr =  1.02E-09,  avg # of iterations =  4.0

     End of self-consistent calculation

          k = 0.0000 0.0000 0.0000 (  1841 PWs)   bands (ev):

   -91.1449 -91.1439 -51.5113 -51.5086 -51.4677 -51.4677 -51.4593 -51.4593
   -19.6921 -19.6910 -16.8909 -16.8908 -16.8856 -16.8843 -16.8656 -16.8656
   -16.8430 -16.8377 -16.8376 -16.8241 -16.4754 -16.4275 -16.3514 -16.3500
   -16.3499 -16.3495 -16.3070 -16.3070 -16.2742 -16.2730  -3.7261  -3.5591
    -3.4100  -3.4099  -3.3998  -3.3997   1.1436   2.0120   2.7993   6.1943
     8.1067   8.2630   9.2169   9.2169   9.3339   9.3339   9.5976   9.5976
     9.8895  10.3040  10.3520  10.8104  10.9375  10.9375  11.1222  11.2664
    11.3293  12.6150  13.0190  13.3692  13.3692  14.0297  14.5765  14.5765
    14.6485  14.7996  14.8314  14.8314  14.9518  14.9915  15.0268

     occupation numbers
     1.0000   1.0000   1.0000   1.0000   1.0000   1.0000   1.0000   1.0000
     1.0000   1.0000   1.0000   1.0000   1.0000   1.0000   1.0000   1.0000
     1.0000   1.0000   1.0000   1.0000   1.0000   1.0000   1.0000   1.0000
     1.0000   1.0000   1.0000   1.0000   1.0000   1.0000   1.0000   1.0000
     1.0000   1.0000   1.0000   1.0000   1.0000   1.0000   1.0000   1.0000
     1.0000   1.0000   1.0000   1.0000   1.0000   1.0000   1.0000   1.0000
     1.0000   1.0000   1.0000   1.0000   1.0000   1.0000   1.0000   1.0000
     1.0000   1.0000   1.0000  -0.0000  -0.0000  -0.0000  -0.0000  -0.0000
    -0.0000  -0.0000  -0.0000  -0.0000  -0.0000  -0.0000  -0.0000

     the Fermi energy is    13.0839 ev

!    total energy              =   -2342.35332844 Ry
     estimated scf accuracy    <       0.00000030 Ry
     smearing contrib. (-TS)   =       0.00000000 Ry
     internal energy E=F+TS    =   -2342.35332844 Ry

     The total energy is F=E-TS. E is the sum of the following terms:
     one-electron contribution =   -1131.47776700 Ry
     hartree contribution      =     633.55031544 Ry
     xc contribution           =    -265.03097703 Ry
     ewald contribution        =    -783.29021786 Ry
     one-center paw contrib.   =    -796.10468199 Ry
      -> PAW hartree energy AE =      71.00347936 Ry
      -> PAW hartree energy PS =     -71.06195624 Ry
      -> PAW xc energy AE      =    -810.79287484 Ry
      -> PAW xc energy PS      =      14.74666974 Ry
      -> total E_H with PAW    =     633.49183856 Ry
      -> total E_XC with PAW   =   -1061.07718214 Ry

     convergence has been achieved in  21 iterations

     Forces acting on atoms (cartesian axes, Ry/au):

     atom    1 type  1   force =     0.00000000    0.00000000    0.02900788
     atom    2 type  1   force =     0.00000000    0.00000000   -0.02900788
     atom    3 type  2   force =     0.00000000    0.00000000    0.00000000
     atom    4 type  2   force =     0.00000000    0.00000000    0.00000000
     atom    5 type  3   force =     0.00000000    0.00000000    0.00000000
     atom    6 type  3   force =     0.00000000    0.00000000    0.00000000
     atom    7 type  3   force =     0.00000000    0.00000000    0.02652745
     atom    8 type  3   force =     0.00000000    0.00000000   -0.02652745
     The non-local contrib.  to forces
     atom    1 type  1   force =     0.00000000    0.00000000   -0.16386130
     atom    2 type  1   force =     0.00000000    0.00000000    0.16386130
     atom    3 type  2   force =     0.00000000    0.00000000    0.00000000
     atom    4 type  2   force =     0.00000000    0.00000000    0.00000000
     atom    5 type  3   force =     0.00000000    0.00000000    0.00000000
     atom    6 type  3   force =     0.00000000    0.00000000    0.00000000
     atom    7 type  3   force =     0.00000000    0.00000000   -0.01397393
     atom    8 type  3   force =     0.00000000    0.00000000    0.01397393
     The ionic contribution  to forces
     atom    1 type  1   force =    -0.00000000    0.00000000   27.29128235
     atom    2 type  1   force =     0.00000000   -0.00000000  -27.29128235
     atom    3 type  2   force =     0.00000000    0.00000000    0.00000000
     atom    4 type  2   force =    -0.00000000   -0.00000000    0.00000000
     atom    5 type  3   force =    -0.00000000   -0.00000000   -0.00000000
     atom    6 type  3   force =    -0.00000000   -0.00000000   -0.00000000
     atom    7 type  3   force =    -0.00000000   -0.00000000  -45.68507813
     atom    8 type  3   force =     0.00000000   -0.00000000   45.68507813
     The local contribution  to forces
     atom    1 type  1   force =    -0.00001356   -0.00002307  -27.09896272
     atom    2 type  1   force =    -0.00003770    0.00004732   27.09869695
     atom    3 type  2   force =     0.00001316    0.00000692   -0.00033944
     atom    4 type  2   force =    -0.00003256   -0.00001983   -0.00071620
     atom    5 type  3   force =    -0.00002636   -0.00003498    0.00022705
     atom    6 type  3   force =     0.00002820    0.00001828    0.00036007
     atom    7 type  3   force =    -0.00001522    0.00001113   45.72339254
     atom    8 type  3   force =     0.00000885   -0.00003196  -45.72376062
     The core correction contribution to forces
     atom    1 type  1   force =    -0.00000001   -0.00000002    0.00012641
     atom    2 type  1   force =    -0.00000003    0.00000003   -0.00012657
     atom    3 type  2   force =    -0.00000013    0.00000037   -0.00000156
     atom    4 type  2   force =     0.00000006   -0.00000019   -0.00000111
     atom    5 type  3   force =    -0.00000031   -0.00000090    0.00000143
     atom    6 type  3   force =     0.00000069   -0.00000022    0.00000430
     atom    7 type  3   force =    -0.00000035    0.00000127    0.00237191
     atom    8 type  3   force =     0.00000000   -0.00000142   -0.00237706
     The Hubbard contrib.    to forces
     atom    1 type  1   force =     0.00000000    0.00000000    0.00000000
     atom    2 type  1   force =     0.00000000    0.00000000    0.00000000
     atom    3 type  2   force =     0.00000000    0.00000000    0.00000000
     atom    4 type  2   force =     0.00000000    0.00000000    0.00000000
     atom    5 type  3   force =     0.00000000    0.00000000    0.00000000
     atom    6 type  3   force =     0.00000000    0.00000000    0.00000000
     atom    7 type  3   force =     0.00000000    0.00000000    0.00000000
     atom    8 type  3   force =     0.00000000    0.00000000    0.00000000
     The SCF correction term to forces
     atom    1 type  1   force =    -0.00000422    0.00001508    0.00036678
     atom    2 type  1   force =     0.00001210   -0.00001612   -0.00021355
     atom    3 type  2   force =    -0.00001462    0.00001245    0.00017760
     atom    4 type  2   force =     0.00002691    0.00002025    0.00068422
     atom    5 type  3   force =     0.00001251    0.00005620   -0.00026679
     atom    6 type  3   force =    -0.00001385   -0.00003420   -0.00037234
     atom    7 type  3   force =     0.00000631   -0.00003432   -0.00017676
     atom    8 type  3   force =    -0.00000401   -0.00000839    0.00056634

     Total force =     0.055591     Total SCF correction =     0.001118

     Computing stress (Cartesian axis) and pressure

          total   stress  (Ry/bohr**3)                   (kbar)     P=     -349.32
  -0.00233294   0.00000000   0.00000000         -343.19        0.00        0.00
   0.00000000  -0.00233294   0.00000000            0.00     -343.19        0.00
   0.00000000   0.00000000  -0.00245795            0.00        0.00     -361.58

     kinetic stress (kbar)  20317.36      0.00      0.00
                                0.00  20317.36      0.00
                                0.00      0.00  20367.41

     local   stress (kbar) -43265.12      0.01      0.00
                                0.01 -43265.11      0.00
                                0.00      0.00  45508.23

     nonloc. stress (kbar)   5390.32      0.00      0.00
                                0.00   5390.32      0.00
                                0.00      0.00   5322.29

     hartree stress (kbar)  37625.61     -0.01     -0.00
                               -0.01  37625.62      0.00
                               -0.00      0.00  -4968.83

     exc-cor stress (kbar)   3771.78     -0.00      0.00
                               -0.00   3771.78      0.00
                                0.00      0.00   3769.00

     corecor stress (kbar) -10610.88      0.00      0.00
                                0.00 -10610.88     -0.00
                                0.00     -0.00 -10610.54

     ewald   stress (kbar) -13572.26      0.00      0.00
                                0.00 -13572.26      0.00
                                0.00      0.00 -59749.14

     hubbard stress (kbar)      0.00      0.00      0.00
                                0.00      0.00      0.00
                                0.00      0.00      0.00

     DFT-D   stress (kbar)      0.00      0.00      0.00
                                0.00      0.00      0.00
                                0.00      0.00      0.00

     XDM     stress (kbar)      0.00      0.00      0.00
                                0.00      0.00      0.00
                                0.00      0.00      0.00

     dft-nl  stress (kbar)      0.00      0.00      0.00
                                0.00      0.00      0.00
                                0.00      0.00      0.00

     TS-vdW  stress (kbar)      0.00      0.00      0.00
                                0.00      0.00      0.00
                                0.00      0.00      0.00

[...]

                                0.00      0.00      0.00

     Writing all to output data dir new_calculations/myprefix.save/

     General routines

     Parallel routines

     PAW routines

   This run was terminated on:   2:44:20  21May2023

   JOB DONE.