     Program PWSCF v.7.0 starts on 21May2023 at 21:12:58

     Reading input from espresso_15675.pwi
Warning: card &CELL ignored
Warning: card / ignored

     Current dimensions of program PWSCF are:
     Max number of different atomic species (ntypx) = 10
     Max number of k-points (npk) =  40000
     Max angular momentum in pseudopotentials (lmaxx) =  4

     gamma-point specific algorithms are used
     Message from routine setup:
     using ibrav=0 with symmetry is DISCOURAGED, use correct ibrav instead

     Subspace diagonalization in iterative solution of the eigenvalue problem:
     a serial algorithm will be used

     Using Slab Decomposition

     bravais-lattice index     =            0
     lattice parameter (alat)  =       7.5312  a.u.
     unit-cell volume          =    1262.5269 (a.u.)^3
     number of atoms/cell      =           12
     number of atomic types    =            3
     number of electrons       =       164.00
     number of Kohn-Sham states=           98
     kinetic-energy cutoff     =      30.0000  Ry
     charge density cutoff     =     240.0000  Ry
     scf convergence threshold =      1.0E-06
     mixing beta               =       0.7000
     number of iterations used =            8  plain     mixing
     Exchange-correlation= SLA  PW   PBE  PBE
                           (   1   4   3   4   0   0   0)

     celldm(1)=   7.531175  celldm(2)=   0.000000  celldm(3)=   0.000000
     celldm(4)=   0.000000  celldm(5)=   0.000000  celldm(6)=   0.000000

     crystal axes: (cart. coord. in units of alat)
               a(1) = (   1.000000   0.000000   0.000000 )
               a(2) = (   0.000000   1.585173   0.000000 )
               a(3) = (   0.000000   0.000000   1.864558 )

     reciprocal axes: (cart. coord. in units 2 pi/alat)
               b(1) = (  1.000000  0.000000  0.000000 )
               b(2) = (  0.000000  0.630846  0.000000 )
               b(3) = (  0.000000  0.000000  0.536320 )

     PseudoPot. # 1 for Ti read from file:
     /home/pragov/projects/rrg-bengioy-ad/pragov/crystal_structure_design/SSSP/ti_pbe_v1.4.uspp.F.UPF
     MD5 check sum: 88a00a6731bd790ddea75d31a80cb452
     Pseudo is Ultrasoft + core correction, Zval = 12.0
     Generated by new atomic code, or converted to UPF format
     Using radial grid of  851 points,  6 beta functions with:
                l(1) =   0
                l(2) =   0
                l(3) =   1
                l(4) =   1
                l(5) =   2
                l(6) =   2
     Q(r) pseudized with  6 coefficients,  rinner =    1.000   1.000   1.000
                                                       1.000   1.000

     PseudoPot. # 2 for Ge read from file:
     /home/pragov/projects/rrg-bengioy-ad/pragov/crystal_structure_design/SSSP/ge_pbe_v1.4.uspp.F.UPF
     MD5 check sum: 9c9eaa91e581c3f09632fb3098b2c6b2
     Pseudo is Ultrasoft + core correction, Zval = 14.0
     Generated by new atomic code, or converted to UPF format
     Using radial grid of  873 points,  6 beta functions with:
                l(1) =   0
                l(2) =   0
                l(3) =   1
                l(4) =   1
                l(5) =   2
                l(6) =   2
     Q(r) pseudized with  8 coefficients,  rinner =    1.400   1.400   1.400
                                                       1.400   1.400

     PseudoPot. # 3 for Ir read from file:
     /home/pragov/projects/rrg-bengioy-ad/pragov/crystal_structure_design/SSSP/Ir_pbe_v1.2.uspp.F.UPF
     MD5 check sum: 8836f839c3459d2b385c504ce6d91f2c
     Pseudo is Ultrasoft + core correction, Zval = 15.0
     Generated by new atomic code, or converted to UPF format
     Using radial grid of  983 points,  7 beta functions with:
                l(1) =   0
                l(2) =   0
                l(3) =   1
                l(4) =   1
                l(5) =   1
                l(6) =   2
                l(7) =   2
     Q(r) pseudized with  8 coefficients,  rinner =    1.400   1.400   1.400
                                                       1.400   1.400

     atomic species   valence    mass     pseudopotential
        Ti            12.00    47.86700     Ti( 1.00)
        Ge            14.00    72.63000     Ge( 1.00)
        Ir            15.00   192.21700     Ir( 1.00)

      8 Sym. Ops., with inversion, found ( 6 have fractional translation)

                                    s                        frac. trans.

      isym =  1     identity

 cryst.   s( 1) = (     1          0          0      )
                  (     0          1          0      )
                  (     0          0          1      )

 cart.    s( 1) = (  1.0000000  0.0000000  0.0000000 )
                  (  0.0000000  1.0000000  0.0000000 )
                  (  0.0000000  0.0000000  1.0000000 )

      isym =  2     180 deg rotation - cart. axis [0,0,1]

 cryst.   s( 2) = (    -1          0          0      )    f =(  0.0000000 )
                  (     0         -1          0      )       ( -0.5000000 )
                  (     0          0          1      )       (  0.5000000 )

 cart.    s( 2) = ( -1.0000000  0.0000000  0.0000000 )    f =(  0.0000000 )
                  (  0.0000000 -1.0000000  0.0000000 )       ( -0.7925865 )
                  (  0.0000000  0.0000000  1.0000000 )       (  0.9322788 )

[...]

      isym =  4     180 deg rotation - cart. axis [1,0,0]

[...]

      isym =  5     inversion

 cryst.   s( 5) = (    -1          0          0      )
                  (     0         -1          0      )
                  (     0          0         -1      )

 cart.    s( 5) = ( -1.0000000  0.0000000  0.0000000 )
                  (  0.0000000 -1.0000000  0.0000000 )
                  (  0.0000000  0.0000000 -1.0000000 )

      isym =  6     inv. 180 deg rotation - cart. axis [0,0,1]

[...]

      isym =  8     inv. 180 deg rotation - cart. axis [1,0,0]

 cryst.   s( 8) = (    -1          0          0      )    f =(  0.5000000 )
                  (     0          1          0      )       (  0.0000000 )
                  (     0          0          1      )       (  0.0000000 )

 cart.    s( 8) = ( -1.0000000  0.0000000  0.0000000 )    f =(  0.5000000 )
                  (  0.0000000  1.0000000  0.0000000 )       (  0.0000000 )
                  (  0.0000000  0.0000000  1.0000000 )       (  0.0000000 )

   Cartesian axes

     site n.     atom                  positions (alat units)
         1           Ti  tau(   1) = (   0.2500000   0.0430359   0.5869161  )
         2           Ti  tau(   2) = (   0.2500000   0.8356223   0.3453627  )
         3           Ti  tau(   3) = (   0.7500000   1.5421371   1.2776415  )
         4           Ti  tau(   4) = (   0.7500000   0.7495506   1.5191949  )
         5           Ge  tau(   5) = (   0.2500000   0.4138062   1.1625778  )
         6           Ge  tau(   6) = (   0.2500000   1.2063927   1.6342587  )
         7           Ge  tau(   7) = (   0.7500000   1.1713667   0.7019798  )
         8           Ge  tau(   8) = (   0.7500000   0.3787802   0.2302990  )
         9           Ir  tau(   9) = (   0.2500000   0.2471063   1.7535549  )
        10           Ir  tau(  10) = (   0.2500000   1.0396928   1.0432815  )
        11           Ir  tau(  11) = (   0.7500000   1.3380667   0.1110027  )
        12           Ir  tau(  12) = (   0.7500000   0.5454802   0.8212761  )

   Crystallographic axes

     site n.     atom                  positions (cryst. coord.)
         1           Ti  tau(   1) = (  0.2500000  0.0271490  0.3147750  )
         2           Ti  tau(   2) = (  0.2500000  0.5271490  0.1852250  )
         3           Ti  tau(   3) = (  0.7500000  0.9728510  0.6852250  )
         4           Ti  tau(   4) = (  0.7500000  0.4728510  0.8147750  )
         5           Ge  tau(   5) = (  0.2500000  0.2610480  0.6235140  )
         6           Ge  tau(   6) = (  0.2500000  0.7610480  0.8764860  )
         7           Ge  tau(   7) = (  0.7500000  0.7389520  0.3764860  )
         8           Ge  tau(   8) = (  0.7500000  0.2389520  0.1235140  )
         9           Ir  tau(   9) = (  0.2500000  0.1558860  0.9404670  )
        10           Ir  tau(  10) = (  0.2500000  0.6558860  0.5595330  )
        11           Ir  tau(  11) = (  0.7500000  0.8441140  0.0595330  )
        12           Ir  tau(  12) = (  0.7500000  0.3441140  0.4404670  )

     number of k points=     1  Methfessel-Paxton smearing, width (Ry)=  0.0010
                       cart. coord. in units 2pi/alat
        k(    1) = (   0.0000000   0.0000000   0.0000000), wk =   2.0000000

                       cryst. coord.
        k(    1) = (   0.0000000   0.0000000   0.0000000), wk =   2.0000000

     Check: negative core charge=   -0.000004

     Initial potential from superposition of free atoms

     starting charge     157.9962, renormalised to     164.0000

     negative rho (up, down):  1.512E+00 0.000E+00
     Starting wfcs are  124 randomized atomic wfcs

     Self-consistent Calculation

     iteration #  1     ecut=    30.00 Ry     beta= 0.70
     Davidson diagonalization with overlap

     ethr =  1.00E-02,  avg # of iterations =  2.0

     negative rho (up, down):  9.612E-01 0.000E+00

     total energy              =   -2000.12271486 Ry
     estimated scf accuracy    <      76.56147461 Ry

[...]

     total energy              =   -2059.10066100 Ry
     estimated scf accuracy    <       0.00000719 Ry

     iteration # 21     ecut=    30.00 Ry     beta= 0.70
     Davidson diagonalization with overlap

     ethr =  4.38E-09,  avg # of iterations =  2.0

[...]

     End of self-consistent calculation

          k = 0.0000 0.0000 0.0000 (  1761 PWs)   bands (ev):

   -40.0806 -40.0754 -40.0719 -40.0662 -32.3874 -32.3865 -32.3117 -32.3108
   -32.0654 -32.0633 -32.0481 -32.0463 -31.8558 -31.8549 -31.7629 -31.7615
   -16.4883 -16.4777 -16.3894 -16.3827 -16.3453 -16.3358 -16.3257 -16.3146
   -16.2746 -16.2664 -16.2228 -16.2200  -7.6205  -7.6203  -7.6183  -7.6181
    -7.6150  -7.6133  -7.6093  -7.6079  -7.5957  -7.5926  -7.5894  -7.5851
    -7.5840  -7.5836  -7.5814  -7.5804  -7.5767  -7.5764  -7.5761  -7.5747
     5.1765   7.0220   7.1379   7.1652  10.7558  10.8894  11.6395  11.6701
    11.7197  11.8921  12.0856  12.1298  12.6604  12.8852  12.9273  13.2110
    13.4361  13.8278  13.8463  14.2710  14.2918  14.3780  14.3978  15.0287
    15.1886  15.2814  15.4239  15.4671  15.9266  16.1245  16.3567  16.6526
    16.7783  17.0273  17.3225  17.3386  17.8193  17.8408  17.9641  18.2429
    18.3159  18.4149  18.6688  18.7596  18.8400  18.9461  19.0625  19.2780
    19.6405  19.9901

     occupation numbers
     1.0000   1.0000   1.0000   1.0000   1.0000   1.0000   1.0000   1.0000
     1.0000   1.0000   1.0000   1.0000   1.0000   1.0000   1.0000   1.0000
     1.0000   1.0000   1.0000   1.0000   1.0000   1.0000   1.0000   1.0000
     1.0000   1.0000   1.0000   1.0000   1.0000   1.0000   1.0000   1.0000
     1.0000   1.0000   1.0000   1.0000   1.0000   1.0000   1.0000   1.0000
     1.0000   1.0000   1.0000   1.0000   1.0000   1.0000   1.0000   1.0000
     1.0000   1.0000   1.0000   1.0000   1.0000   1.0000   1.0000   1.0000
     1.0000   1.0000   1.0000   1.0000   1.0000   1.0000   1.0000   1.0000
     1.0000   1.0000   1.0000   1.0000   1.0000   1.0000   1.0000   1.0000
     1.0000   1.0000   1.0000   1.0000   1.0000   1.0000   1.0000   1.0000
     1.0000   1.0000  -0.0000  -0.0000  -0.0000  -0.0000  -0.0000  -0.0000
    -0.0000  -0.0000  -0.0000  -0.0000  -0.0000  -0.0000  -0.0000  -0.0000
    -0.0000  -0.0000

     the Fermi energy is    17.1797 ev

!    total energy              =   -2059.10066104 Ry
     estimated scf accuracy    <       0.00000073 Ry
     smearing contrib. (-TS)   =       0.00000000 Ry
     internal energy E=F+TS    =   -2059.10066104 Ry

     The total energy is F=E-TS. E is the sum of the following terms:
     one-electron contribution =    -656.80516010 Ry
     hartree contribution      =     460.37488329 Ry
     xc contribution           =    -507.82199653 Ry
     ewald contribution        =   -1354.84838771 Ry

     convergence has been achieved in  21 iterations

     negative rho (up, down):  1.272E+00 0.000E+00

     Forces acting on atoms (cartesian axes, Ry/au):

     atom    1 type  1   force =     0.00000000   -0.02762445   -0.02011690
     atom    2 type  1   force =     0.00000000   -0.02762445    0.02011690
     atom    3 type  1   force =     0.00000000    0.02762445    0.02011690
     atom    4 type  1   force =     0.00000000    0.02762445   -0.02011690
     atom    5 type  2   force =     0.00000000    0.01252325    0.01911314
     atom    6 type  2   force =     0.00000000    0.01252325   -0.01911314
     atom    7 type  2   force =     0.00000000   -0.01252325   -0.01911314
     atom    8 type  2   force =    -0.00000000   -0.01252325    0.01911314
     atom    9 type  3   force =     0.00000000    0.01486374    0.01178947
     atom   10 type  3   force =     0.00000000    0.01486374   -0.01178947
     atom   11 type  3   force =    -0.00000000   -0.01486374   -0.01178947
     atom   12 type  3   force =    -0.00000000   -0.01486374    0.01178947
     The non-local contrib.  to forces
     atom    1 type  1   force =     0.00000000    0.00223954   -0.10647950
     atom    2 type  1   force =     0.00000000    0.00223954    0.10647950
     atom    3 type  1   force =    -0.00000000   -0.00223954    0.10647950
     atom    4 type  1   force =    -0.00000000   -0.00223954   -0.10647950
     atom    5 type  2   force =     0.00000000    0.11781395   -0.09422356
     atom    6 type  2   force =     0.00000000    0.11781395    0.09422356
     atom    7 type  2   force =    -0.00000000   -0.11781395    0.09422356
     atom    8 type  2   force =    -0.00000000   -0.11781395   -0.09422356
     atom    9 type  3   force =     0.00000000   -0.01534808    0.07272699
     atom   10 type  3   force =     0.00000000   -0.01534808   -0.07272699
     atom   11 type  3   force =     0.00000000    0.01534808   -0.07272699
     atom   12 type  3   force =     0.00000000    0.01534808    0.07272699
     The ionic contribution  to forces
     atom    1 type  1   force =    -0.00000000   -0.43968571    3.26334150
     atom    2 type  1   force =    -0.00000000   -0.43968571   -3.26334150
     atom    3 type  1   force =    -0.00000000    0.43968571   -3.26334150
     atom    4 type  1   force =     0.00000000    0.43968571    3.26334150
     atom    5 type  2   force =     0.00000000   -6.09268712    0.86772997
     atom    6 type  2   force =     0.00000000   -6.09268712   -0.86772997
     atom    7 type  2   force =     0.00000000    6.09268712   -0.86772997
     atom    8 type  2   force =    -0.00000000    6.09268712    0.86772997
     atom    9 type  3   force =    -0.00000000    5.14167476   -1.68064514
     atom   10 type  3   force =     0.00000000    5.14167476    1.68064514
     atom   11 type  3   force =    -0.00000000   -5.14167476    1.68064514
     atom   12 type  3   force =     0.00000000   -5.14167476   -1.68064514
     The local contribution  to forces
     atom    1 type  1   force =    -0.00000068    0.41316469   -3.18266401
     atom    2 type  1   force =     0.00000070    0.41265661    3.18417605
     atom    3 type  1   force =     0.00000029   -0.41259372    3.18284151
     atom    4 type  1   force =     0.00000010   -0.41288199   -3.18452183
     atom    5 type  2   force =    -0.00000004    5.98828436   -0.75404556
     atom    6 type  2   force =    -0.00000004    5.98665955    0.75265732
     atom    7 type  2   force =     0.00000072   -5.98801249    0.75413144
     atom    8 type  2   force =    -0.00000114   -5.98702771   -0.75267618
     atom    9 type  3   force =    -0.00000110   -5.08841004    1.63863449
     atom   10 type  3   force =     0.00000058   -5.09016262   -1.63934691
     atom   11 type  3   force =     0.00000026    5.08859085   -1.63908436
     atom   12 type  3   force =    -0.00000033    5.08937981    1.64023791
     The core correction contribution to forces
     atom    1 type  1   force =    -0.00000006   -0.00300819    0.00665354
     atom    2 type  1   force =     0.00000002   -0.00301128   -0.00665055
     atom    3 type  1   force =     0.00000001    0.00301215   -0.00665207
     atom    4 type  1   force =     0.00000001    0.00300981    0.00664853
     atom    5 type  2   force =     0.00000003   -0.00021647   -0.00101342
     atom    6 type  2   force =    -0.00000003   -0.00021742    0.00101923
     atom    7 type  2   force =     0.00000001    0.00021567    0.00101504
     atom    8 type  2   force =    -0.00000004    0.00021666   -0.00101808
     atom    9 type  3   force =    -0.00000001   -0.02217931   -0.01969257
     atom   10 type  3   force =     0.00000004   -0.02218348    0.01969642
     atom   11 type  3   force =    -0.00000003    0.02216667    0.01970117
     atom   12 type  3   force =    -0.00000012    0.02218238   -0.01969331
     The Hubbard contrib.    to forces
     atom    1 type  1   force =     0.00000000    0.00000000    0.00000000
     atom    2 type  1   force =     0.00000000    0.00000000    0.00000000
     atom    3 type  1   force =     0.00000000    0.00000000    0.00000000
     atom    4 type  1   force =     0.00000000    0.00000000    0.00000000
     atom    5 type  2   force =     0.00000000    0.00000000    0.00000000
     atom    6 type  2   force =     0.00000000    0.00000000    0.00000000
     atom    7 type  2   force =     0.00000000    0.00000000    0.00000000
     atom    8 type  2   force =     0.00000000    0.00000000    0.00000000
     atom    9 type  3   force =     0.00000000    0.00000000    0.00000000
     atom   10 type  3   force =     0.00000000    0.00000000    0.00000000
     atom   11 type  3   force =     0.00000000    0.00000000    0.00000000
     atom   12 type  3   force =     0.00000000    0.00000000    0.00000000
     The SCF correction term to forces
     atom    1 type  1   force =     0.00000073   -0.00031332   -0.00092962
     atom    2 type  1   force =    -0.00000073    0.00015201   -0.00049042
     atom    3 type  1   force =    -0.00000053   -0.00023870    0.00074116
     atom    4 type  1   force =    -0.00000037    0.00004608    0.00086347
     atom    5 type  2   force =    -0.00000109   -0.00074433    0.00060785
     atom    6 type  2   force =     0.00000093    0.00102711    0.00079542
     atom    7 type  2   force =    -0.00000104    0.00050191   -0.00083873
     atom    8 type  2   force =     0.00000218   -0.00068689   -0.00064799
     atom    9 type  3   force =     0.00000236   -0.00091936    0.00087544
     atom   10 type  3   force =     0.00000020    0.00093844   -0.00012227
     atom   11 type  3   force =    -0.00000012    0.00072618   -0.00024064
     atom   12 type  3   force =     0.00000060   -0.00011049   -0.00092806

     Total force =     0.090551     Total SCF correction =     0.003317

     Computing stress (Cartesian axis) and pressure

     negative rho (up, down):  1.272E+00 0.000E+00
          total   stress  (Ry/bohr**3)                   (kbar)     P=     -101.59
  -0.00070985   0.00000000   0.00000000         -104.42        0.00        0.00
   0.00000000  -0.00048926   0.00000000            0.00      -71.97        0.00
   0.00000000   0.00000000  -0.00087278            0.00        0.00     -128.39

     kinetic stress (kbar)  26978.90      0.00      0.00
                                0.00  27488.96      0.00
                                0.00      0.00  27290.84

     local   stress (kbar)  10549.48     -0.00     -0.00
                               -0.00  18456.98     -0.00
                               -0.00     -0.00  11096.31

     nonloc. stress (kbar)   5723.30      0.00      0.00
                                0.00   5961.81      0.00
                                0.00      0.00   5910.78

     hartree stress (kbar)  19085.99      0.00      0.00
                                0.00  15992.58     -0.00
                                0.00     -0.00  18562.65

     exc-cor stress (kbar)  20093.92      0.00     -0.00
                                0.00  20097.95      0.00
                               -0.00      0.00  20102.92

     corecor stress (kbar) -31934.86      0.00     -0.00
                                0.00 -31950.64     -0.00
                               -0.00     -0.00 -31950.61

     ewald   stress (kbar) -50601.15      0.00      0.00
                                0.00 -56119.61     -0.00
                                0.00     -0.00 -51141.29

     hubbard stress (kbar)      0.00      0.00      0.00
                                0.00      0.00      0.00
                                0.00      0.00      0.00

     DFT-D   stress (kbar)      0.00      0.00      0.00
                                0.00      0.00      0.00
                                0.00      0.00      0.00

     XDM     stress (kbar)      0.00      0.00      0.00
                                0.00      0.00      0.00
                                0.00      0.00      0.00

     dft-nl  stress (kbar)      0.00      0.00      0.00
                                0.00      0.00      0.00
                                0.00      0.00      0.00

     TS-vdW  stress (kbar)      0.00      0.00      0.00
                                0.00      0.00      0.00
                                0.00      0.00      0.00

[...]

                                0.00      0.00      0.00

     Writing all to output data dir new_calculations/myprefix.save/

     General routines

     Parallel routines

   This run was terminated on:  21:14: 4  21May2023

   JOB DONE.