     Program PWSCF v.7.0 starts on 21May2023 at  2:34:20

     Reading input from espresso_3969.pwi
Warning: card &CELL ignored
Warning: card / ignored

     Current dimensions of program PWSCF are:
     Max number of different atomic species (ntypx) = 10
     Max number of k-points (npk) =  40000
     Max angular momentum in pseudopotentials (lmaxx) =  4

     gamma-point specific algorithms are used
     Message from routine setup:
     using ibrav=0 with symmetry is DISCOURAGED, use correct ibrav instead

     Subspace diagonalization in iterative solution of the eigenvalue problem:
     a serial algorithm will be used

     Using Slab Decomposition

     bravais-lattice index     =            0
     lattice parameter (alat)  =       7.8375  a.u.
     unit-cell volume          =     755.5544 (a.u.)^3
     number of atoms/cell      =            6
     number of atomic types    =            3
     number of electrons       =        68.00
     number of Kohn-Sham states=           41
     kinetic-energy cutoff     =      30.0000  Ry
     charge density cutoff     =     240.0000  Ry
     scf convergence threshold =      1.0E-06
     mixing beta               =       0.7000
     number of iterations used =            8  plain     mixing
     Exchange-correlation= PBE
                           (   1   4   3   4   0   0   0)

     celldm(1)=   7.837488  celldm(2)=   0.000000  celldm(3)=   0.000000
     celldm(4)=   0.000000  celldm(5)=   0.000000  celldm(6)=   0.000000

     crystal axes: (cart. coord. in units of alat)
               a(1) = (   1.000000   0.000000   0.000000 )
               a(2) = (  -0.500000   0.866025   0.000000 )
               a(3) = (   0.000000   0.000000   1.812193 )

     reciprocal axes: (cart. coord. in units 2 pi/alat)
               b(1) = (  1.000000  0.577350  0.000000 )
               b(2) = (  0.000000  1.154701  0.000000 )
               b(3) = (  0.000000  0.000000  0.551818 )

     PseudoPot. # 1 for Y  read from file:
     /home/pragov/projects/rrg-bengioy-ad/pragov/crystal_structure_design/SSSP/Y_pbe_v1.uspp.F.UPF
     MD5 check sum: 2cf71db95cafeb975fc457bd7f14888e
     Pseudo is Ultrasoft + core correction, Zval = 11.0
     Generated by new atomic code, or converted to UPF format
     Using radial grid of  885 points,  6 beta functions with:
                l(1) =   0
                l(2) =   0
                l(3) =   1
                l(4) =   1
                l(5) =   2
                l(6) =   2
     Q(r) pseudized with  6 coefficients,  rinner =    1.200   1.200   1.200
                                                       1.200   1.200

     PseudoPot. # 2 for Cu read from file:
     /home/pragov/projects/rrg-bengioy-ad/pragov/crystal_structure_design/SSSP/Cu_pbe_v1.2.uspp.F.UPF
     MD5 check sum: 6e991ff952a84172a2a52a1c1e996048
     Pseudo is Ultrasoft + core correction, Zval = 19.0
     Generated by new atomic code, or converted to UPF format
     Using radial grid of  867 points,  6 beta functions with:
                l(1) =   0
                l(2) =   0
                l(3) =   1
                l(4) =   1
                l(5) =   2
                l(6) =   2
     Q(r) pseudized with  8 coefficients,  rinner =    1.150   1.150   1.150
                                                       1.150   1.150

     PseudoPot. # 3 for Si read from file:
     /home/pragov/projects/rrg-bengioy-ad/pragov/crystal_structure_design/SSSP/Si.pbe-n-rrkjus_psl.1.0.0.UPF
     MD5 check sum: 0b0bb1205258b0d07b9f9672cf965d36
     Pseudo is Ultrasoft + core correction, Zval =  4.0
     Generated using "atomic" code by A. Dal Corso  v.5.1
     Using radial grid of 1141 points,  6 beta functions with:
                l(1) =   0
                l(2) =   0
                l(3) =   1
                l(4) =   1
                l(5) =   2
                l(6) =   2
     Q(r) pseudized with 0 coefficients

     atomic species   valence    mass     pseudopotential
        Y             11.00    88.90584     Y ( 1.00)
        Cu            19.00    63.54600     Cu( 1.00)
        Si             4.00    28.08500     Si( 1.00)

     24 Sym. Ops., with inversion, found (12 have fractional translation)

                                    s                        frac. trans.

      isym =  1     identity

 cryst.   s( 1) = (     1          0          0      )
                  (     0          1          0      )
                  (     0          0          1      )

 cart.    s( 1) = (  1.0000000  0.0000000  0.0000000 )
                  (  0.0000000  1.0000000  0.0000000 )
                  (  0.0000000  0.0000000  1.0000000 )

      isym =  2     180 deg rotation - cart. axis [0,0,1]

 cryst.   s( 2) = (    -1          0          0      )    f =(  0.0000000 )
                  (     0         -1          0      )       (  0.0000000 )
                  (     0          0          1      )       (  0.5000000 )

 cart.    s( 2) = ( -1.0000000 -0.0000000  0.0000000 )    f =(  0.0000000 )
                  (  0.0000000 -1.0000000  0.0000000 )       (  0.0000000 )
                  (  0.0000000  0.0000000  1.0000000 )       (  0.9060966 )

[...]

      isym =  4     180 deg rotation - cart. axis [1,0,0]

[...]

      isym =  5      60 deg rotation - cryst. axis [0,0,1]

[...]

 cryst.   s( 8) = (    -1         -1          0      )
                  (     1          0          0      )
                  (     0          0          1      )

 cart.    s( 8) = ( -0.5000000  0.8660254  0.0000000 )
                  ( -0.8660254 -0.5000000  0.0000000 )
                  (  0.0000000  0.0000000  1.0000000 )

[...]

 cryst.   s( 9) = (     0         -1          0      )    f =(  0.0000000 )
                  (    -1          0          0      )       (  0.0000000 )
                  (     0          0         -1      )       (  0.5000000 )

 cart.    s( 9) = (  0.5000000 -0.8660254  0.0000000 )    f =(  0.0000000 )
                  ( -0.8660254 -0.5000000  0.0000000 )       (  0.0000000 )
                  (  0.0000000  0.0000000 -1.0000000 )       (  0.9060966 )

[...]

 cryst.   s(10) = (     1          1          0      )    f =(  0.0000000 )
                  (     0         -1          0      )       (  0.0000000 )
                  (     0          0         -1      )       (  0.5000000 )

 cart.    s(10) = (  0.5000000  0.8660254  0.0000000 )    f =(  0.0000000 )
                  (  0.8660254 -0.5000000  0.0000000 )       (  0.0000000 )
                  (  0.0000000  0.0000000 -1.0000000 )       (  0.9060966 )

[...]

 cryst.   s(11) = (    -1         -1          0      )
                  (     0          1          0      )
                  (     0          0         -1      )

 cart.    s(11) = ( -0.5000000 -0.8660254  0.0000000 )
                  ( -0.8660254  0.5000000  0.0000000 )
                  (  0.0000000  0.0000000 -1.0000000 )

      isym = 12     180 deg rotation - cryst. axis [1,1,0]

[...]

      isym = 13     inversion

[...]

      isym = 14     inv. 180 deg rotation - cart. axis [0,0,1]

[...]

      isym = 16     inv. 180 deg rotation - cart. axis [1,0,0]

[...]

      isym = 17     inv.  60 deg rotation - cryst. axis [0,0,1]

[...]

 cryst.   s(22) = (    -1         -1          0      )    f =(  0.0000000 )
                  (     0          1          0      )       (  0.0000000 )
                  (     0          0          1      )       (  0.5000000 )

 cart.    s(22) = ( -0.5000000 -0.8660254  0.0000000 )    f =(  0.0000000 )
                  ( -0.8660254  0.5000000  0.0000000 )       (  0.0000000 )
                  (  0.0000000  0.0000000  1.0000000 )       (  0.9060966 )

[...]

      isym = 24     inv. 180 deg rotation - cryst. axis [1,1,0]

 cryst.   s(24) = (     0         -1          0      )
                  (    -1          0          0      )
                  (     0          0          1      )

 cart.    s(24) = (  0.5000000 -0.8660254  0.0000000 )
                  ( -0.8660254 -0.5000000  0.0000000 )
                  (  0.0000000  0.0000000  1.0000000 )

   Cartesian axes

     site n.     atom                  positions (alat units)
         1           Y   tau(   1) = (   0.0000000   0.0000000   0.9060966  )
         2           Y   tau(   2) = (   0.0000000   0.0000000   0.0000000  )
         3           Cu  tau(   3) = (  -0.0000005   0.5773506   0.4530483  )
         4           Cu  tau(   4) = (   0.5000005   0.2886748   1.3591449  )
         5           Si  tau(   5) = (   0.5000005   0.2886748   0.4530483  )
         6           Si  tau(   6) = (  -0.0000005   0.5773506   1.3591449  )

   Crystallographic axes

     site n.     atom                  positions (cryst. coord.)
         1           Y   tau(   1) = (  0.0000000  0.0000000  0.5000000  )
         2           Y   tau(   2) = (  0.0000000  0.0000000  0.0000000  )
         3           Cu  tau(   3) = (  0.3333330  0.6666670  0.2500000  )
         4           Cu  tau(   4) = (  0.6666670  0.3333330  0.7500000  )
         5           Si  tau(   5) = (  0.6666670  0.3333330  0.2500000  )
         6           Si  tau(   6) = (  0.3333330  0.6666670  0.7500000  )

     number of k points=     1  Methfessel-Paxton smearing, width (Ry)=  0.0010
                       cart. coord. in units 2pi/alat
        k(    1) = (   0.0000000   0.0000000   0.0000000), wk =   2.0000000

                       cryst. coord.
        k(    1) = (   0.0000000   0.0000000   0.0000000), wk =   2.0000000

     Check: negative core charge=   -0.000004

     Initial potential from superposition of free atoms

     starting charge      65.9899, renormalised to      68.0000

     negative rho (up, down):  8.732E-02 0.000E+00
     Starting wfcs are   60 randomized atomic wfcs

     Self-consistent Calculation

     iteration #  1     ecut=    30.00 Ry     beta= 0.70
     Davidson diagonalization with overlap

     ethr =  1.00E-02,  avg # of iterations =  2.0

     negative rho (up, down):  8.128E-02 0.000E+00

     total energy              =   -1002.92660428 Ry
     estimated scf accuracy    <       2.42649717 Ry

[...]

     total energy              =   -1004.54828837 Ry
     estimated scf accuracy    <       0.00000387 Ry

     iteration # 51     ecut=    30.00 Ry     beta= 0.70
     Davidson diagonalization with overlap

     ethr =  1.48E-09,  avg # of iterations =  1.0

[...]

     End of self-consistent calculation

          k = 0.0000 0.0000 0.0000 (  1045 PWs)   bands (ev):

  -102.5663-102.5649 -60.0511 -60.0511 -60.0479 -60.0479 -59.6803 -59.6789
   -30.0329 -30.0181 -10.3213 -10.0607 -10.0607 -10.0432 -10.0333 -10.0332
     1.7280   3.0492   6.5417   6.5417   6.7375   6.7375   7.3286   7.4029
     7.4029   7.4070   7.5898   7.5898   7.9441  10.8035  10.8035  11.9192
    12.0536  12.5649  12.5649  12.5697  12.5697  13.7212  13.7212  13.7858
    15.1021

     occupation numbers
     1.0000   1.0000   1.0000   1.0000   1.0000   1.0000   1.0000   1.0000
     1.0000   1.0000   1.0000   1.0000   1.0000   1.0000   1.0000   1.0000
     1.0000   1.0000   1.0000   1.0000   1.0000   1.0000   1.0000   1.0000
     1.0000   1.0000   1.0000   1.0000   1.0000   1.0000   1.0000   1.0000
     1.0000   0.3728   0.3726   0.1277   0.1270  -0.0000  -0.0000  -0.0000
    -0.0000

     the Fermi energy is    12.5629 ev

!    total energy              =   -1004.54828830 Ry
     estimated scf accuracy    <       0.00000019 Ry
     smearing contrib. (-TS)   =      -0.00074013 Ry
     internal energy E=F+TS    =   -1004.54754817 Ry

     The total energy is F=E-TS. E is the sum of the following terms:
     one-electron contribution =    -776.22728778 Ry
     hartree contribution      =     416.10327183 Ry
     xc contribution           =    -133.94423805 Ry
     ewald contribution        =    -510.47929417 Ry

     convergence has been achieved in  51 iterations

     negative rho (up, down):  8.144E-02 0.000E+00

     Forces acting on atoms (cartesian axes, Ry/au):

     atom    1 type  1   force =     0.00000000    0.00000000    0.00000000
     atom    2 type  1   force =     0.00000000   -0.00000000    0.00000000
     atom    3 type  2   force =     0.00000000   -0.00000000    0.00000000
     atom    4 type  2   force =     0.00000000    0.00000000    0.00000000
     atom    5 type  3   force =     0.00000000   -0.00000000    0.00000000
     atom    6 type  3   force =     0.00000000    0.00000000    0.00000000
     The non-local contrib.  to forces
     atom    1 type  1   force =     0.00000000   -0.00000000    0.00000000
     atom    2 type  1   force =    -0.00000000   -0.00000000    0.00000000
     atom    3 type  2   force =    -0.00000000    0.00000000    0.00000000
     atom    4 type  2   force =     0.00000000   -0.00000000    0.00000000
     atom    5 type  3   force =     0.00000000    0.00000000   -0.00000000
     atom    6 type  3   force =    -0.00000000   -0.00000000    0.00000000
     The ionic contribution  to forces
     atom    1 type  1   force =     0.00000000   -0.00000000    0.00000000
     atom    2 type  1   force =     0.00000000   -0.00000000   -0.00000000
     atom    3 type  2   force =     0.00004686   -0.00002705   -0.00000000
     atom    4 type  2   force =    -0.00004686    0.00002705    0.00000000
     atom    5 type  3   force =    -0.00003185    0.00001839   -0.00000000
     atom    6 type  3   force =     0.00003185   -0.00001839   -0.00000000
     The local contribution  to forces
     atom    1 type  1   force =     0.00009389    0.00018967    0.00030182
     atom    2 type  1   force =     0.00009405    0.00018712   -0.00030329
     atom    3 type  2   force =     0.00041528    0.00060925    0.00006225
     atom    4 type  2   force =    -0.00054802   -0.00085421   -0.00006849
     atom    5 type  3   force =    -0.00011305   -0.00026464    0.00001638
     atom    6 type  3   force =    -0.00000284    0.00002238   -0.00001420
     The core correction contribution to forces
     atom    1 type  1   force =     0.00000030    0.00000028   -0.00000166
     atom    2 type  1   force =     0.00000023    0.00000021    0.00000159
     atom    3 type  2   force =     0.00000055    0.00000070   -0.00000001
     atom    4 type  2   force =    -0.00000068   -0.00000099   -0.00000000
     atom    5 type  3   force =    -0.00000547   -0.00000890    0.00000015
     atom    6 type  3   force =     0.00000052   -0.00000054   -0.00000005
     The Hubbard contrib.    to forces
     atom    1 type  1   force =     0.00000000    0.00000000    0.00000000
     atom    2 type  1   force =     0.00000000    0.00000000    0.00000000
     atom    3 type  2   force =     0.00000000    0.00000000    0.00000000
     atom    4 type  2   force =     0.00000000    0.00000000    0.00000000
     atom    5 type  3   force =     0.00000000    0.00000000    0.00000000
     atom    6 type  3   force =     0.00000000    0.00000000    0.00000000
     The SCF correction term to forces
     atom    1 type  1   force =    -0.00005893   -0.00012191   -0.00031041
     atom    2 type  1   force =    -0.00005924   -0.00012103    0.00031162
     atom    3 type  2   force =    -0.00041963   -0.00047111   -0.00006460
     atom    4 type  2   force =     0.00053610    0.00065522    0.00007515
     atom    5 type  3   force =     0.00004349    0.00007037   -0.00001348
     atom    6 type  3   force =    -0.00001301   -0.00000489    0.00001276

     Total force =     0.000000     Total SCF correction =     0.001167

     Computing stress (Cartesian axis) and pressure

     negative rho (up, down):  8.144E-02 0.000E+00
          total   stress  (Ry/bohr**3)                   (kbar)     P=     -202.06
  -0.00132626   0.00000000  -0.00000000         -195.10        0.00       -0.00
   0.00000000  -0.00132626  -0.00000000            0.00     -195.10       -0.00
   0.00000000   0.00000000  -0.00146822            0.00        0.00     -215.98

     kinetic stress (kbar)  17354.65     -0.00      0.00
                               -0.00  17354.65      0.00
                                0.00      0.00  17791.01

     local   stress (kbar) -21048.60     -0.01      0.00
                               -0.01 -21048.27      0.00
                                0.00      0.00 -13201.78

     nonloc. stress (kbar)  13787.34     -0.00      0.00
                               -0.00  13787.34      0.00
                                0.00      0.00  14044.28

     hartree stress (kbar)  27830.63     -0.03     -0.00
                               -0.03  27830.59     -0.00
                               -0.00     -0.00  25353.34

     exc-cor stress (kbar)   -687.22      0.00      0.00
                                0.00   -687.23     -0.00
                                0.00     -0.00   -688.03

     corecor stress (kbar)  -6327.28      0.00     -0.00
                                0.00  -6327.28     -0.00
                               -0.00     -0.00  -6334.92

     ewald   stress (kbar) -31104.77      0.01     -0.00
                                0.01 -31104.75     -0.00
                               -0.00     -0.00 -37179.87

     hubbard stress (kbar)      0.00      0.00      0.00
                                0.00      0.00      0.00
                                0.00      0.00      0.00

     DFT-D   stress (kbar)      0.00      0.00      0.00
                                0.00      0.00      0.00
                                0.00      0.00      0.00

     XDM     stress (kbar)      0.00      0.00      0.00
                                0.00      0.00      0.00
                                0.00      0.00      0.00

     dft-nl  stress (kbar)      0.00      0.00      0.00
                                0.00      0.00      0.00
                                0.00      0.00      0.00

     TS-vdW  stress (kbar)      0.00      0.00      0.00
                                0.00      0.00      0.00
                                0.00      0.00      0.00

[...]

                                0.00      0.00      0.00

     Writing all to output data dir new_calculations/myprefix.save/

     General routines

     Parallel routines

   This run was terminated on:   2:34:39  21May2023

   JOB DONE.