     Program PWSCF v.7.0 starts on 21May2023 at  3:41:28

     Reading input from espresso_9960.pwi
Warning: card &CELL ignored
Warning: card / ignored

     Current dimensions of program PWSCF are:
     Max number of different atomic species (ntypx) = 10
     Max number of k-points (npk) =  40000
     Max angular momentum in pseudopotentials (lmaxx) =  4
     file In.pbe-dn-rrkjus_psl.0.2.2.UPF: wavefunction(s)  5S renormalized

     gamma-point specific algorithms are used
     Message from routine setup:
     using ibrav=0 with symmetry is DISCOURAGED, use correct ibrav instead

     Subspace diagonalization in iterative solution of the eigenvalue problem:
     a serial algorithm will be used

     Using Slab Decomposition

     bravais-lattice index     =            0
     lattice parameter (alat)  =       6.1881  a.u.
     unit-cell volume          =     465.3835 (a.u.)^3
     number of atoms/cell      =            4
     number of atomic types    =            3
     number of electrons       =        61.00
     number of Kohn-Sham states=           37
     kinetic-energy cutoff     =      30.0000  Ry
     charge density cutoff     =     240.0000  Ry
     scf convergence threshold =      1.0E-06
     mixing beta               =       0.7000
     number of iterations used =            8  plain     mixing
     Exchange-correlation= PBE
                           (   1   4   3   4   0   0   0)

     celldm(1)=   6.188131  celldm(2)=   0.000000  celldm(3)=   0.000000
     celldm(4)=   0.000000  celldm(5)=   0.000000  celldm(6)=   0.000000

     crystal axes: (cart. coord. in units of alat)
               a(1) = (   1.000000   0.000000   0.000000 )
               a(2) = (   0.000000   1.000000   0.000000 )
               a(3) = (   0.000000   0.000000   1.963959 )

     reciprocal axes: (cart. coord. in units 2 pi/alat)
               b(1) = (  1.000000  0.000000  0.000000 )
               b(2) = (  0.000000  1.000000  0.000000 )
               b(3) = (  0.000000  0.000000  0.509176 )

     PseudoPot. # 1 for Ti read from file:
     /home/pragov/projects/rrg-bengioy-ad/pragov/crystal_structure_design/SSSP/ti_pbe_v1.4.uspp.F.UPF
     MD5 check sum: 88a00a6731bd790ddea75d31a80cb452
     Pseudo is Ultrasoft + core correction, Zval = 12.0
     Generated by new atomic code, or converted to UPF format
     Using radial grid of  851 points,  6 beta functions with:
                l(1) =   0
                l(2) =   0
                l(3) =   1
                l(4) =   1
                l(5) =   2
                l(6) =   2
     Q(r) pseudized with  6 coefficients,  rinner =    1.000   1.000   1.000
                                                       1.000   1.000

     PseudoPot. # 2 for In read from file:
     /home/pragov/projects/rrg-bengioy-ad/pragov/crystal_structure_design/SSSP/In.pbe-dn-rrkjus_psl.0.2.2.UPF
     MD5 check sum: 25e7c42c3b55b68f4bf926be2e7201a4
     Pseudo is Ultrasoft + core correction, Zval = 13.0
     Generated using "atomic" code by A. Dal Corso  v.5.0.99 svn rev. 10869
     Using radial grid of 1241 points,  6 beta functions with:
                l(1) =   0
                l(2) =   0
                l(3) =   1
                l(4) =   1
                l(5) =   2
                l(6) =   2
     Q(r) pseudized with 0 coefficients

     PseudoPot. # 3 for Pd read from file:
     /home/pragov/projects/rrg-bengioy-ad/pragov/crystal_structure_design/SSSP/Pd_ONCV_PBE-1.0.oncvpsp.upf
     MD5 check sum: eb77f42b51d86fb18e25f68156a31cf1
     Pseudo is Norm-conserving, Zval = 18.0
     Generated using ONCVPSP code by D. R. Hamann
     Using radial grid of 1410 points,  6 beta functions with:
                l(1) =   0
                l(2) =   0
                l(3) =   1
                l(4) =   1
                l(5) =   2
                l(6) =   2

     atomic species   valence    mass     pseudopotential
        Ti            12.00    47.86700     Ti( 1.00)
        In            13.00   114.81800     In( 1.00)
        Pd            18.00   106.42000     Pd( 1.00)

     16 Sym. Ops., with inversion, found

                                    s                        frac. trans.

      isym =  1     identity

 cryst.   s( 1) = (     1          0          0      )
                  (     0          1          0      )
                  (     0          0          1      )

 cart.    s( 1) = (  1.0000000  0.0000000  0.0000000 )
                  (  0.0000000  1.0000000  0.0000000 )
                  (  0.0000000  0.0000000  1.0000000 )

      isym =  2     180 deg rotation - cart. axis [0,0,1]

[...]

      isym =  8      90 deg rotation - cart. axis [0,0,1]

[...]

      isym =  9     inversion

 cryst.   s( 9) = (    -1          0          0      )
                  (     0         -1          0      )
                  (     0          0         -1      )

 cart.    s( 9) = ( -1.0000000  0.0000000  0.0000000 )
                  (  0.0000000 -1.0000000  0.0000000 )
                  (  0.0000000  0.0000000 -1.0000000 )

      isym = 10     inv. 180 deg rotation - cart. axis [0,0,1]

 cryst.   s(10) = (     1          0          0      )
                  (     0          1          0      )
                  (     0          0         -1      )

 cart.    s(10) = (  1.0000000  0.0000000  0.0000000 )
                  (  0.0000000  1.0000000  0.0000000 )
                  (  0.0000000  0.0000000 -1.0000000 )

[...]

      isym = 16     inv.  90 deg rotation - cart. axis [0,0,1]

 cryst.   s(16) = (     0         -1          0      )
                  (     1          0          0      )
                  (     0          0         -1      )

 cart.    s(16) = (  0.0000000  1.0000000  0.0000000 )
                  ( -1.0000000  0.0000000  0.0000000 )
                  (  0.0000000  0.0000000 -1.0000000 )

   Cartesian axes

     site n.     atom                  positions (alat units)
         1           Ti  tau(   1) = (   0.0000000   0.0000000   0.9819796  )
         2           In  tau(   2) = (   0.0000000   0.0000000   0.0000000  )
         3           Pd  tau(   3) = (   0.5000000   0.5000000   0.5494274  )
         4           Pd  tau(   4) = (   0.5000000   0.5000000   1.4145318  )

   Crystallographic axes

     site n.     atom                  positions (cryst. coord.)
         1           Ti  tau(   1) = (  0.0000000  0.0000000  0.5000000  )
         2           In  tau(   2) = (  0.0000000  0.0000000  0.0000000  )
         3           Pd  tau(   3) = (  0.5000000  0.5000000  0.2797550  )
         4           Pd  tau(   4) = (  0.5000000  0.5000000  0.7202450  )

     number of k points=     1  Methfessel-Paxton smearing, width (Ry)=  0.0010
                       cart. coord. in units 2pi/alat
        k(    1) = (   0.0000000   0.0000000   0.0000000), wk =   2.0000000

                       cryst. coord.
        k(    1) = (   0.0000000   0.0000000   0.0000000), wk =   2.0000000

     Check: negative core charge=   -0.000004

     Initial potential from superposition of free atoms

     starting charge      59.9955, renormalised to      61.0000

     negative rho (up, down):  1.724E-03 0.000E+00
     Starting wfcs are   39 randomized atomic wfcs

     Self-consistent Calculation

     iteration #  1     ecut=    30.00 Ry     beta= 0.70
     Davidson diagonalization with overlap

     ethr =  1.00E-02,  avg # of iterations =  5.0

     total energy              =    -757.59207874 Ry
     estimated scf accuracy    <      16.47785420 Ry

[...]

     negative rho (up, down):  4.720E-05 0.000E+00

[...]

     total energy              =    -770.74320890 Ry
     estimated scf accuracy    <       0.00009273 Ry

     iteration # 16     ecut=    30.00 Ry     beta= 0.70
     Davidson diagonalization with overlap

     ethr =  6.82E-08,  avg # of iterations =  2.0

[...]

     End of self-consistent calculation

          k = 0.0000 0.0000 0.0000 (   635 PWs)   bands (ev):

   -68.5189 -68.5128 -41.2370 -33.9436 -33.9436 -33.9340 -33.9340 -33.9200
   -33.8409 -17.9445 -17.1543 -17.1543   0.5208   0.8205   0.9232   0.9838
     0.9838   7.0805  11.3218  12.2594  12.2898  12.5272  13.1499  13.8293
    13.8293  14.1994  14.6699  14.6699  14.7142  15.8253  17.1177  17.3503
    17.3503  17.5264  18.6999  21.5995  21.5995

     occupation numbers
     1.0000   1.0000   1.0000   1.0000   1.0000   1.0000   1.0000   1.0000
     1.0000   1.0000   1.0000   1.0000   1.0000   1.0000   1.0000   1.0000
     1.0000   1.0000   1.0000   1.0000   1.0000   1.0000   1.0000   1.0000
     1.0000   1.0000   1.0000   1.0000   1.0000   1.0000   0.5000  -0.0000
    -0.0000  -0.0000  -0.0000  -0.0000  -0.0000

     the Fermi energy is    17.1177 ev

!    total energy              =    -770.74321757 Ry
     estimated scf accuracy    <       0.00000035 Ry
     smearing contrib. (-TS)   =      -0.00028209 Ry
     internal energy E=F+TS    =    -770.74293548 Ry

     The total energy is F=E-TS. E is the sum of the following terms:
     one-electron contribution =    -271.89048346 Ry
     hartree contribution      =     172.51933785 Ry
     xc contribution           =    -115.45164614 Ry
     ewald contribution        =    -555.92014372 Ry

     convergence has been achieved in  16 iterations

     negative rho (up, down):  1.387E-03 0.000E+00

     Forces acting on atoms (cartesian axes, Ry/au):

     atom    1 type  1   force =     0.00000000    0.00000000    0.00000000
     atom    2 type  2   force =     0.00000000    0.00000000    0.00000000
     atom    3 type  3   force =     0.00000000    0.00000000    0.03881565
     atom    4 type  3   force =     0.00000000    0.00000000   -0.03881565
     The non-local contrib.  to forces
     atom    1 type  1   force =     0.00000000    0.00000000    0.00000000
     atom    2 type  2   force =     0.00000000    0.00000000    0.00000000
     atom    3 type  3   force =     0.00000000    0.00000000   -0.19518980
     atom    4 type  3   force =     0.00000000    0.00000000    0.19518980
     The ionic contribution  to forces
     atom    1 type  1   force =    -0.00000000   -0.00000000    0.00000000
     atom    2 type  2   force =    -0.00000000   -0.00000000   -0.00000000
     atom    3 type  3   force =     0.00000000    0.00000000  -14.83860801
     atom    4 type  3   force =    -0.00000000   -0.00000000   14.83860801
     The local contribution  to forces
     atom    1 type  1   force =    -0.00005860   -0.00005488   -0.00048832
     atom    2 type  2   force =     0.00000529   -0.00000960    0.00042223
     atom    3 type  3   force =     0.00015778   -0.00002001   15.07274690
     atom    4 type  3   force =    -0.00001739    0.00013744  -15.07301846
     The core correction contribution to forces
     atom    1 type  1   force =    -0.00000031   -0.00000144   -0.00000717
     atom    2 type  2   force =    -0.00000045    0.00000025    0.00001097
     atom    3 type  3   force =     0.00000000    0.00000000    0.00000000
     atom    4 type  3   force =     0.00000000    0.00000000    0.00000000
     The Hubbard contrib.    to forces
     atom    1 type  1   force =     0.00000000    0.00000000    0.00000000
     atom    2 type  2   force =     0.00000000    0.00000000    0.00000000
     atom    3 type  3   force =     0.00000000    0.00000000    0.00000000
     atom    4 type  3   force =     0.00000000    0.00000000    0.00000000
     The SCF correction term to forces
     atom    1 type  1   force =     0.00005834    0.00005528    0.00050237
     atom    2 type  2   force =    -0.00002161    0.00000717   -0.00046298
     atom    3 type  3   force =    -0.00030013    0.00007531   -0.00015225
     atom    4 type  3   force =     0.00017126   -0.00020933    0.00038619

     Total force =     0.054894     Total SCF correction =     0.000903

     Computing stress (Cartesian axis) and pressure

     negative rho (up, down):  1.387E-03 0.000E+00
          total   stress  (Ry/bohr**3)                   (kbar)     P=     -937.73
  -0.00846758   0.00000000   0.00000000        -1245.62        0.00        0.00
   0.00000000  -0.00846758   0.00000000            0.00    -1245.62        0.00
   0.00000000   0.00000000  -0.00218846            0.00        0.00     -321.93

     kinetic stress (kbar)  46733.75      0.00      0.00
                                0.00  46733.75      0.00
                                0.00      0.00  47270.70

     local   stress (kbar)  -8883.44     -0.00     -0.54
                               -0.00  -8883.44      0.05
                               -0.54      0.05  -4268.28

     nonloc. stress (kbar)   8942.76      0.00      0.00
                                0.00   8942.76      0.00
                                0.00      0.00   9040.05

     hartree stress (kbar)  18979.00     -0.00      0.19
                               -0.00  18979.01     -0.02
                                0.19     -0.02  16574.37

     exc-cor stress (kbar)   1322.84     -0.00      0.01
                               -0.00   1322.84     -0.00
                                0.01     -0.00   1316.45

     corecor stress (kbar) -10402.51      0.00     -0.01
                                0.00 -10402.51      0.00
                               -0.01      0.00 -10408.09

     ewald   stress (kbar) -57938.03      0.00      0.00
                                0.00 -57938.03      0.00
                                0.00      0.00 -59847.13

     hubbard stress (kbar)      0.00      0.00      0.00
                                0.00      0.00      0.00
                                0.00      0.00      0.00

     DFT-D   stress (kbar)      0.00      0.00      0.00
                                0.00      0.00      0.00
                                0.00      0.00      0.00

     XDM     stress (kbar)      0.00      0.00      0.00
                                0.00      0.00      0.00
                                0.00      0.00      0.00

     dft-nl  stress (kbar)      0.00      0.00      0.00
                                0.00      0.00      0.00
                                0.00      0.00      0.00

     TS-vdW  stress (kbar)      0.00      0.00      0.00
                                0.00      0.00      0.00
                                0.00      0.00      0.00

[...]

                                0.00      0.00      0.00

     Writing all to output data dir new_calculations/myprefix.save/

     General routines

     Parallel routines

   This run was terminated on:   3:41:40  21May2023

   JOB DONE.