     Program PWSCF v.7.0 starts on 20May2023 at 18:37:58

     Reading input from espresso_22135.pwi
Warning: card &CELL ignored
Warning: card / ignored

     Current dimensions of program PWSCF are:
     Max number of different atomic species (ntypx) = 10
     Max number of k-points (npk) =  40000
     Max angular momentum in pseudopotentials (lmaxx) =  4
     file Ga.pbe-dn-kjpaw_psl.1.0.0.UPF: wavefunction(s)  4S renormalized

     gamma-point specific algorithms are used
     Message from routine setup:
     using ibrav=0 with symmetry is DISCOURAGED, use correct ibrav instead

     Subspace diagonalization in iterative solution of the eigenvalue problem:
     a serial algorithm will be used

     Using Slab Decomposition

     bravais-lattice index     =            0
     lattice parameter (alat)  =       9.2628  a.u.
     unit-cell volume          =     407.4572 (a.u.)^3
     number of atoms/cell      =            4
     number of atomic types    =            2
     number of electrons       =        54.00
     number of Kohn-Sham states=           32
     kinetic-energy cutoff     =      30.0000  Ry
     charge density cutoff     =     240.0000  Ry
     scf convergence threshold =      1.0E-06
     mixing beta               =       0.7000
     number of iterations used =            8  plain     mixing
     Exchange-correlation= PBE
                           (   1   4   3   4   0   0   0)

     celldm(1)=   9.262801  celldm(2)=   0.000000  celldm(3)=   0.000000
     celldm(4)=   0.000000  celldm(5)=   0.000000  celldm(6)=   0.000000

     crystal axes: (cart. coord. in units of alat)
               a(1) = (   1.000000   0.000000   0.000000 )
               a(2) = (   0.383596   0.923501   0.000000 )
               a(3) = (  -0.691798  -0.461750   0.555159 )

     reciprocal axes: (cart. coord. in units 2 pi/alat)
               b(1) = (  1.000000 -0.415372  0.900642 )
               b(2) = (  0.000000  1.082836  0.900642 )
               b(3) = (  0.000000  0.000000  1.801285 )

     PseudoPot. # 1 for Ga read from file:
     /home/pragov/projects/rrg-bengioy-ad/pragov/crystal_structure_design/SSSP/Ga.pbe-dn-kjpaw_psl.1.0.0.UPF
     MD5 check sum: a27b4342b1af7e5f338de752e9ed7044
     Pseudo is Projector augmented-wave + core cor, Zval = 13.0
     Generated using "atomic" code by A. Dal Corso  v.5.1
     Shape of augmentation charge: PSQ
     Using radial grid of 1205 points,  6 beta functions with:
                l(1) =   0
                l(2) =   0
                l(3) =   1
                l(4) =   1
                l(5) =   2
                l(6) =   2
     Q(r) pseudized with 0 coefficients

     PseudoPot. # 2 for Tc read from file:
     /home/pragov/projects/rrg-bengioy-ad/pragov/crystal_structure_design/SSSP/Tc_ONCV_PBE-1.0.oncvpsp.upf
     MD5 check sum: 1c2b1e6c8b361b656073c0c20ed4f60a
     Pseudo is Norm-conserving, Zval = 15.0
     Generated using ONCVPSP code by D. R. Hamann
     Using radial grid of 1492 points,  6 beta functions with:
                l(1) =   0
                l(2) =   0
                l(3) =   1
                l(4) =   1
                l(5) =   2
                l(6) =   2

     atomic species   valence    mass     pseudopotential
        Ga            13.00    69.72300     Ga( 1.00)
        Tc            15.00    97.90721     Tc( 1.00)

      4 Sym. Ops., with inversion, found

                                    s                        frac. trans.

      isym =  1     identity

 cryst.   s( 1) = (     1          0          0      )
                  (     0          1          0      )
                  (     0          0          1      )

 cart.    s( 1) = (  1.0000000  0.0000000  0.0000000 )
                  (  0.0000000  1.0000000 -0.0000000 )
                  (  0.0000000  0.0000000  1.0000000 )

      isym =  2     180 deg rotation - cart. axis [0,0,1]

[...]

      isym =  3     inversion

[...]

      isym =  4     inv. 180 deg rotation - cart. axis [0,0,1]

 cryst.   s( 4) = (     1          0          0      )
                  (     0          1          0      )
                  (    -1         -1         -1      )

 cart.    s( 4) = (  1.0000000  0.0000000 -0.0000000 )
                  (  0.0000000  1.0000000 -0.0000000 )
                  (  0.0000000  0.0000000 -1.0000000 )

   Cartesian axes

     site n.     atom                  positions (alat units)
         1           Ga  tau(   1) = (   0.5000000   0.0000000   0.2775797  )
         2           Ga  tau(   2) = (   0.1917981   0.4617505   0.2775797  )
         3           Ga  tau(   3) = (   0.6917981   0.4617505   0.0000000  )
         4           Tc  tau(   4) = (   0.0000000   0.0000000   0.0000000  )

   Crystallographic axes

     site n.     atom                  positions (cryst. coord.)
         1           Ga  tau(   1) = (  0.7500000  0.2500000  0.5000000  )
         2           Ga  tau(   2) = (  0.2500000  0.7500000  0.5000000  )
         3           Ga  tau(   3) = (  0.5000000  0.5000000  0.0000000  )
         4           Tc  tau(   4) = (  0.0000000  0.0000000  0.0000000  )

     number of k points=     1  Methfessel-Paxton smearing, width (Ry)=  0.0010
                       cart. coord. in units 2pi/alat
        k(    1) = (   0.0000000   0.0000000   0.0000000), wk =   2.0000000

                       cryst. coord.
        k(    1) = (   0.0000000   0.0000000   0.0000000), wk =   2.0000000

     Check: negative core charge=   -0.000002

     Initial potential from superposition of free atoms

     starting charge      53.9904, renormalised to      54.0000
     Starting wfcs are   37 randomized atomic wfcs
     Checking if some PAW data can be deallocated...

     Self-consistent Calculation

     iteration #  1     ecut=    30.00 Ry     beta= 0.70
     Davidson diagonalization with overlap

     ethr =  1.00E-02,  avg # of iterations =  2.0

     total energy              =    -994.00004331 Ry
     estimated scf accuracy    <       0.60062948 Ry

[...]

     total energy              =    -994.34201117 Ry
     estimated scf accuracy    <       0.00000168 Ry

     iteration #  9     ecut=    30.00 Ry     beta= 0.70
     Davidson diagonalization with overlap

     ethr =  3.12E-09,  avg # of iterations =  4.0

     End of self-consistent calculation

          k = 0.0000 0.0000 0.0000 (   565 PWs)   bands (ev):

   -51.1306 -23.8296 -22.8093 -22.8092  -1.3922  -1.3830  -1.2623  -1.2623
    -1.2498   1.0270   1.0869   1.3713   1.3955   1.3955   1.5329   1.6072
     1.6073   1.7006   1.7063   3.2908  10.9781  12.3419  12.5556  12.5556
    12.7878  15.1485  15.6617  16.7798  16.7799  17.4792  18.7317  18.7317

     occupation numbers
     1.0000   1.0000   1.0000   1.0000   1.0000   1.0000   1.0000   1.0000
     1.0000   1.0000   1.0000   1.0000   1.0000   1.0000   1.0000   1.0000
     1.0000   1.0000   1.0000   1.0000   1.0000   1.0000   1.0000   1.0000
     1.0000   1.0000   1.0000  -0.0000  -0.0000  -0.0000  -0.0000  -0.0000

     the Fermi energy is    16.6761 ev

!    total energy              =    -994.34201143 Ry
     estimated scf accuracy    <       0.00000012 Ry
     smearing contrib. (-TS)   =       0.00000000 Ry
     internal energy E=F+TS    =    -994.34201143 Ry

     The total energy is F=E-TS. E is the sum of the following terms:
     one-electron contribution =    -266.85660098 Ry
     hartree contribution      =     189.48916297 Ry
     xc contribution           =    -132.37934001 Ry
     ewald contribution        =    -451.73443375 Ry
     one-center paw contrib.   =    -332.86079966 Ry
      -> PAW hartree energy AE =     430.22371942 Ry
      -> PAW hartree energy PS =    -423.61803972 Ry
      -> PAW xc energy AE      =    -452.94558625 Ry
      -> PAW xc energy PS      =     113.47910689 Ry
      -> total E_H with PAW    =     196.09484268 Ry
      -> total E_XC with PAW   =    -471.84581937 Ry

     convergence has been achieved in   9 iterations

     Forces acting on atoms (cartesian axes, Ry/au):

     atom    1 type  1   force =     0.00000000    0.00000000   -0.00029379
     atom    2 type  1   force =     0.00000000    0.00000000    0.00029379
     atom    3 type  1   force =     0.00000000    0.00000000    0.00000000
     atom    4 type  2   force =     0.00000000    0.00000000   -0.00000000
     The non-local contrib.  to forces
     atom    1 type  1   force =     0.00000000    0.00000000   -0.00001862
     atom    2 type  1   force =     0.00000000    0.00000000    0.00001862
     atom    3 type  1   force =     0.00000000    0.00000000    0.00000000
     atom    4 type  2   force =     0.00000000    0.00000000    0.00000000
     The ionic contribution  to forces
     atom    1 type  1   force =     0.00000000    0.00000000    0.00000000
     atom    2 type  1   force =     0.00000000    0.00000000    0.00000000
     atom    3 type  1   force =    -0.00000000   -0.00000000   -0.00000000
     atom    4 type  2   force =    -0.00000000   -0.00000000   -0.00000000
     The local contribution  to forces
     atom    1 type  1   force =     0.00013164    0.00013588    0.00024396
     atom    2 type  1   force =    -0.00029103    0.00008358    0.00020332
     atom    3 type  1   force =     0.00027380    0.00001349    0.00022858
     atom    4 type  2   force =     0.00041042    0.00036398    0.00038246
     The core correction contribution to forces
     atom    1 type  1   force =     0.00000839    0.00000600    0.00000743
     atom    2 type  1   force =    -0.00000754    0.00000436    0.00000610
     atom    3 type  1   force =     0.00000545    0.00000024    0.00000922
     atom    4 type  2   force =     0.00000000    0.00000000    0.00000000
     The Hubbard contrib.    to forces
     atom    1 type  1   force =     0.00000000    0.00000000    0.00000000
     atom    2 type  1   force =     0.00000000    0.00000000    0.00000000
     atom    3 type  1   force =     0.00000000    0.00000000    0.00000000
     atom    4 type  2   force =     0.00000000    0.00000000    0.00000000
     The SCF correction term to forces
     atom    1 type  1   force =    -0.00034117   -0.00029401   -0.00062365
     atom    2 type  1   force =     0.00040744   -0.00016879   -0.00003135
     atom    3 type  1   force =    -0.00047712   -0.00004689   -0.00038493
     atom    4 type  2   force =    -0.00040097   -0.00034583   -0.00039467

     Total force =     0.000415     Total SCF correction =     0.001265
     SCF correction compared to forces is large: reduce conv_thr to get better values

     Computing stress (Cartesian axis) and pressure

          total   stress  (Ry/bohr**3)                   (kbar)     P=      253.16
   0.00181578   0.00012213  -0.00000000          267.11       17.97       -0.00
   0.00012213   0.00171429  -0.00000000           17.97      252.18       -0.00
  -0.00000000  -0.00000000   0.00163277           -0.00       -0.00      240.19

     kinetic stress (kbar)  22829.58   -431.95     -0.00
                             -431.95  23188.43     -0.00
                               -0.00     -0.00  23476.73

     local   stress (kbar)  13205.31    576.80     -0.05
                              576.80  12726.10      0.04
                               -0.05      0.04  12341.12

     nonloc. stress (kbar)   6565.44    192.16     -0.00
                              192.16   6405.83     -0.00
                               -0.00     -0.00   6277.57

     hartree stress (kbar)  22828.51     31.73      0.02
                               31.73  22802.16     -0.02
                                0.02     -0.02  22780.97

     exc-cor stress (kbar)   5208.82      3.38      0.00
                                3.38   5206.02     -0.00
                                0.00     -0.00   5203.76

     corecor stress (kbar) -15736.52     -5.69      0.00
                               -5.69 -15731.79     -0.00
                                0.00     -0.00 -15727.99

     ewald   stress (kbar) -54634.03   -348.46     -0.00
                             -348.46 -54344.55     -0.00
                               -0.00     -0.00 -54111.97

     hubbard stress (kbar)      0.00      0.00      0.00
                                0.00      0.00      0.00
                                0.00      0.00      0.00

     DFT-D   stress (kbar)      0.00      0.00      0.00
                                0.00      0.00      0.00
                                0.00      0.00      0.00

     XDM     stress (kbar)      0.00      0.00      0.00
                                0.00      0.00      0.00
                                0.00      0.00      0.00

     dft-nl  stress (kbar)      0.00      0.00      0.00
                                0.00      0.00      0.00
                                0.00      0.00      0.00

     TS-vdW  stress (kbar)      0.00      0.00      0.00
                                0.00      0.00      0.00
                                0.00      0.00      0.00

[...]

                                0.00      0.00      0.00

     Writing all to output data dir new_calculations/myprefix.save/

     General routines

     Parallel routines

     PAW routines

   This run was terminated on:  18:38: 8  20May2023

   JOB DONE.