     Program PWSCF v.7.0 starts on 21May2023 at 18:35:46

     Reading input from espresso_19928.pwi
Warning: card &CELL ignored
Warning: card / ignored

     Current dimensions of program PWSCF are:
     Max number of different atomic species (ntypx) = 10
     Max number of k-points (npk) =  40000
     Max angular momentum in pseudopotentials (lmaxx) =  4
     file Al.pbe-n-kjpaw_psl.1.0.0.UPF: wavefunction(s)  3S 3P renormalized

     gamma-point specific algorithms are used
     Message from routine setup:
     using ibrav=0 with symmetry is DISCOURAGED, use correct ibrav instead

     Subspace diagonalization in iterative solution of the eigenvalue problem:
     a serial algorithm will be used

     Using Slab Decomposition

     bravais-lattice index     =            0
     lattice parameter (alat)  =       8.1771  a.u.
     unit-cell volume          =    1388.5078 (a.u.)^3
     number of atoms/cell      =           10
     number of atomic types    =            3
     number of electrons       =        62.00
     number of Kohn-Sham states=           37
     kinetic-energy cutoff     =      30.0000  Ry
     charge density cutoff     =     240.0000  Ry
     scf convergence threshold =      1.0E-06
     mixing beta               =       0.7000
     number of iterations used =            8  plain     mixing
     Exchange-correlation= SLA  PW   PBE  PBE
                           (   1   4   3   4   0   0   0)

     celldm(1)=   8.177089  celldm(2)=   0.000000  celldm(3)=   0.000000
     celldm(4)=   0.000000  celldm(5)=   0.000000  celldm(6)=   0.000000

     crystal axes: (cart. coord. in units of alat)
               a(1) = (   1.000000   0.000000   0.000000 )
               a(2) = (   0.000000   1.000000   0.000000 )
               a(3) = (   0.000000   0.000000   2.539523 )

     reciprocal axes: (cart. coord. in units 2 pi/alat)
               b(1) = (  1.000000  0.000000  0.000000 )
               b(2) = (  0.000000  1.000000  0.000000 )
               b(3) = (  0.000000  0.000000  0.393775 )

     PseudoPot. # 1 for La read from file:
     /home/pragov/projects/rrg-bengioy-ad/pragov/crystal_structure_design/SSSP/La.GGA-PBE-paw-v1.0.UPF
     MD5 check sum: 436541e95c1ad8901025bd0b0ed42ae2
     Pseudo is Projector augmented-wave + core cor, Zval = 11.0
     Generated using ATOMPAW code
     Shape of augmentation charge: BESSEL
     Using radial grid of 1101 points,  8 beta functions with:
                l(1) =   0
                l(2) =   0
                l(3) =   1
                l(4) =   1
                l(5) =   2
                l(6) =   2
                l(7) =   3
                l(8) =   3
     Q(r) pseudized with 0 coefficients

     PseudoPot. # 2 for Al read from file:
     /home/pragov/projects/rrg-bengioy-ad/pragov/crystal_structure_design/SSSP/Al.pbe-n-kjpaw_psl.1.0.0.UPF
     MD5 check sum: cfc449ca30b5f3223ec38ddd88ac046d
     Pseudo is Projector augmented-wave + core cor, Zval =  3.0
     Generated using "atomic" code by A. Dal Corso  v.5.1
     Shape of augmentation charge: PSQ
     Using radial grid of 1135 points,  6 beta functions with:
                l(1) =   0
                l(2) =   0
                l(3) =   1
                l(4) =   1
                l(5) =   2
                l(6) =   2
     Q(r) pseudized with 0 coefficients

     PseudoPot. # 3 for Cu read from file:
     /home/pragov/projects/rrg-bengioy-ad/pragov/crystal_structure_design/SSSP/Cu_pbe_v1.2.uspp.F.UPF
     MD5 check sum: 6e991ff952a84172a2a52a1c1e996048
     Pseudo is Ultrasoft + core correction, Zval = 19.0
     Generated by new atomic code, or converted to UPF format
     Using radial grid of  867 points,  6 beta functions with:
                l(1) =   0
                l(2) =   0
                l(3) =   1
                l(4) =   1
                l(5) =   2
                l(6) =   2
     Q(r) pseudized with  8 coefficients,  rinner =    1.150   1.150   1.150
                                                       1.150   1.150

     atomic species   valence    mass     pseudopotential
        La            11.00   138.90547     La( 1.00)
        Al             3.00    26.98154     Al( 1.00)
        Cu            19.00    63.54600     Cu( 1.00)

      8 Sym. Ops. (no inversion) found

                                    s                        frac. trans.

      isym =  1     identity

 cryst.   s( 1) = (     1          0          0      )
                  (     0          1          0      )
                  (     0          0          1      )

 cart.    s( 1) = (  1.0000000  0.0000000  0.0000000 )
                  (  0.0000000  1.0000000  0.0000000 )
                  (  0.0000000  0.0000000  1.0000000 )

      isym =  2     180 deg rotation - cart. axis [0,0,1]

[...]

      isym =  4      90 deg rotation - cart. axis [0,0,1]

[...]

      isym =  5     inv. 180 deg rotation - cart. axis [0,1,0]

[...]

      isym =  8     inv. 180 deg rotation - cart. axis [1,-1,0]

 cryst.   s( 8) = (     0          1          0      )
                  (     1          0          0      )
                  (     0          0          1      )

 cart.    s( 8) = (  0.0000000  1.0000000  0.0000000 )
                  (  1.0000000  0.0000000  0.0000000 )
                  (  0.0000000  0.0000000  1.0000000 )

   Cartesian axes

     site n.     atom                  positions (alat units)
         1           La  tau(   1) = (   0.0000000   0.0000000   2.5368111  )
         2           La  tau(   2) = (   0.5000000   0.5000000   1.2647232  )
         3           Al  tau(   3) = (   0.0000000   0.5000000   0.6081295  )
         4           Al  tau(   4) = (   0.5000000   0.0000000   1.9137086  )
         5           Al  tau(   5) = (   0.5000000   0.0000000   0.6081295  )
         6           Al  tau(   6) = (   0.0000000   0.5000000   1.9137086  )
         7           Al  tau(   7) = (   0.0000000   0.0000000   1.5618272  )
         8           Al  tau(   8) = (   0.0000000   0.0000000   0.9709106  )
         9           Al  tau(   9) = (   0.5000000   0.5000000   2.2825693  )
        10           Cu  tau(  10) = (   0.5000000   0.5000000   0.3068582  )

   Crystallographic axes

     site n.     atom                  positions (cryst. coord.)
         1           La  tau(   1) = (  0.0000000  0.0000000  0.9989320  )
         2           La  tau(   2) = (  0.5000000  0.5000000  0.4980160  )
         3           Al  tau(   3) = (  0.0000000  0.5000000  0.2394660  )
         4           Al  tau(   4) = (  0.5000000  0.0000000  0.7535700  )
         5           Al  tau(   5) = (  0.5000000  0.0000000  0.2394660  )
         6           Al  tau(   6) = (  0.0000000  0.5000000  0.7535700  )
         7           Al  tau(   7) = (  0.0000000  0.0000000  0.6150080  )
         8           Al  tau(   8) = (  0.0000000  0.0000000  0.3823200  )
         9           Al  tau(   9) = (  0.5000000  0.5000000  0.8988180  )
        10           Cu  tau(  10) = (  0.5000000  0.5000000  0.1208330  )

     number of k points=     1  Methfessel-Paxton smearing, width (Ry)=  0.0010
                       cart. coord. in units 2pi/alat
        k(    1) = (   0.0000000   0.0000000   0.0000000), wk =   2.0000000

                       cryst. coord.
        k(    1) = (   0.0000000   0.0000000   0.0000000), wk =   2.0000000

     Initial potential from superposition of free atoms

     starting charge      60.9669, renormalised to      62.0000
     Starting wfcs are  105 randomized atomic wfcs
     Checking if some PAW data can be deallocated...

     Self-consistent Calculation

     iteration #  1     ecut=    30.00 Ry     beta= 0.70
     Davidson diagonalization with overlap

     ethr =  1.00E-02,  avg # of iterations =  2.0

     total energy              =   -1581.29962362 Ry
     estimated scf accuracy    <      18.10294334 Ry

[...]

     negative rho (up, down):  3.546E-05 0.000E+00

[...]

     negative rho (up, down):  5.478E-06 0.000E+00

[...]

     WARNING: integrated charge=    61.99950563, expected=    62.00000000

[...]

     ethr =  1.62E-05,  avg # of iterations =  2.0
     Minimization algorithm failed to find Fermi energy: reverting to bisection
     Possible cause: smearing is larger than the electronic band-gap.

[...]

     ethr =  1.02E-06,  avg # of iterations =  1.0
     Minimization algorithm failed to find Fermi energy: reverting to bisection
     Possible cause: smearing is larger than the electronic band-gap.

[...]

     WARNING: integrated charge=    61.99998536, expected=    62.00000000

[...]

     total energy              =   -1596.13911833 Ry
     estimated scf accuracy    <       0.00000323 Ry

     iteration # 68     ecut=    30.00 Ry     beta= 0.70
     Davidson diagonalization with overlap

     ethr =  3.04E-09,  avg # of iterations =  1.0

     End of self-consistent calculation

          k = 0.0000 0.0000 0.0000 (  1915 PWs)   bands (ev):

  -104.2818 -61.6576 -61.6576 -61.6357 -23.3744 -23.2356  -7.2115  -7.1226
    -7.0832  -7.0831  -6.9081  -6.9080  -0.0330   0.9385   2.0207   4.3825
     4.9373   5.0427   5.3735   5.3735   5.5779   5.6162   7.1018   7.1018
     7.2312   7.6679   7.6679   8.0514   8.6105   8.8591   9.4801   9.4949
     9.4949  10.0185  10.0185  10.4268  10.6923

     occupation numbers
     1.0000   1.0000   1.0000   1.0000   1.0000   1.0000   1.0000   1.0000
     1.0000   1.0000   1.0000   1.0000   1.0000   1.0000   1.0000   1.0000
     1.0000   1.0000   1.0000   1.0000   1.0000   1.0000   1.0000   1.0000
     1.0000   1.0000   1.0000   1.0000   1.0000   1.0000   0.8531   0.0743
     0.0726  -0.0000  -0.0000  -0.0000  -0.0000

     the Fermi energy is     9.4865 ev

!    total energy              =   -1596.13911840 Ry
     estimated scf accuracy    <       0.00000017 Ry
     smearing contrib. (-TS)   =      -0.00022066 Ry
     internal energy E=F+TS    =   -1596.13889774 Ry

     The total energy is F=E-TS. E is the sum of the following terms:
     one-electron contribution =    -526.70481478 Ry
     hartree contribution      =     292.05227439 Ry
     xc contribution           =     -74.33902190 Ry
     ewald contribution        =    -248.16653783 Ry
     one-center paw contrib.   =   -1038.98079762 Ry
      -> PAW hartree energy AE =      80.73572665 Ry
      -> PAW hartree energy PS =     -80.76792306 Ry
      -> PAW xc energy AE      =   -1067.08316522 Ry
      -> PAW xc energy PS      =      28.13456401 Ry
      -> total E_H with PAW    =     292.02007798 Ry
      -> total E_XC with PAW   =   -1113.28762311 Ry

     convergence has been achieved in  68 iterations

     Forces acting on atoms (cartesian axes, Ry/au):

     atom    1 type  1   force =     0.00000000    0.00000000   -0.00671653
     atom    2 type  1   force =     0.00000000    0.00000000   -0.00502046
     atom    3 type  2   force =     0.00000000    0.00000000    0.05002420
     atom    4 type  2   force =     0.00000000    0.00000000   -0.00445460
     atom    5 type  2   force =     0.00000000    0.00000000    0.05002420
     atom    6 type  2   force =     0.00000000    0.00000000   -0.00445460
     atom    7 type  2   force =     0.00000000    0.00000000    0.07930850
     atom    8 type  2   force =     0.00000000    0.00000000   -0.08059398
     atom    9 type  2   force =     0.00000000    0.00000000   -0.05065554
     atom   10 type  3   force =     0.00000000    0.00000000   -0.02746118
     The non-local contrib.  to forces
     atom    1 type  1   force =     0.00000000    0.00000000   -0.00255291
     atom    2 type  1   force =     0.00000000    0.00000000   -0.03632874
     atom    3 type  2   force =     0.00000000    0.00000000   -0.01708455
     atom    4 type  2   force =     0.00000000    0.00000000    0.00657267
     atom    5 type  2   force =     0.00000000    0.00000000   -0.01708455
     atom    6 type  2   force =     0.00000000    0.00000000    0.00657267
     atom    7 type  2   force =     0.00000000    0.00000000   -0.04591941
     atom    8 type  2   force =     0.00000000    0.00000000    0.06175329
     atom    9 type  2   force =     0.00000000    0.00000000    0.01085938
     atom   10 type  3   force =     0.00000000    0.00000000   -0.23895166
     The ionic contribution  to forces
     atom    1 type  1   force =     0.00000000    0.00000000  -14.78132269
     atom    2 type  1   force =    -0.00000000    0.00000000    8.74250330
     atom    3 type  2   force =     0.00000000   -0.00000000    5.59772609
     atom    4 type  2   force =     0.00000000    0.00000000   -2.60726780
     atom    5 type  2   force =    -0.00000000    0.00000000    5.59772609
     atom    6 type  2   force =     0.00000000    0.00000000   -2.60726780
     atom    7 type  2   force =     0.00000000    0.00000000    0.52424038
     atom    8 type  2   force =     0.00000000    0.00000000    3.55153823
     atom    9 type  2   force =     0.00000000    0.00000000   -7.11757285
     atom   10 type  3   force =    -0.00000000    0.00000000    3.09969706
     The local contribution  to forces
     atom    1 type  1   force =     0.00003970   -0.00020996   14.77733705
     atom    2 type  1   force =    -0.00002017    0.00020774   -8.71149738
     atom    3 type  2   force =    -0.00000826   -0.00001393   -5.53255370
     atom    4 type  2   force =     0.00000778    0.00009057    2.59670869
     atom    5 type  2   force =    -0.00000323    0.00005673   -5.53258364
     atom    6 type  2   force =    -0.00000475   -0.00006381    2.59691759
     atom    7 type  2   force =    -0.00000769    0.00008366   -0.40477549
     atom    8 type  2   force =    -0.00000300    0.00000093   -3.68690097
     atom    9 type  2   force =    -0.00000006   -0.00007266    7.05774846
     atom   10 type  3   force =    -0.00000650   -0.00013204   -2.88732659
     The core correction contribution to forces
     atom    1 type  1   force =     0.00000003   -0.00000003    0.00002044
     atom    2 type  1   force =    -0.00000002    0.00000004    0.00001131
     atom    3 type  2   force =    -0.00000103    0.00000101    0.00196464
     atom    4 type  2   force =     0.00000051    0.00000300   -0.00074489
     atom    5 type  2   force =    -0.00000046    0.00000236    0.00196237
     atom    6 type  2   force =    -0.00000005   -0.00000133   -0.00074017
     atom    7 type  2   force =    -0.00000004    0.00001245    0.00559154
     atom    8 type  2   force =     0.00000015    0.00000194   -0.00707233
     atom    9 type  2   force =    -0.00000034   -0.00000965   -0.00178218
     atom   10 type  3   force =    -0.00000002    0.00000018    0.00009344
     The Hubbard contrib.    to forces
     atom    1 type  1   force =     0.00000000    0.00000000    0.00000000
     atom    2 type  1   force =     0.00000000    0.00000000    0.00000000
     atom    3 type  2   force =     0.00000000    0.00000000    0.00000000
     atom    4 type  2   force =     0.00000000    0.00000000    0.00000000
     atom    5 type  2   force =     0.00000000    0.00000000    0.00000000
     atom    6 type  2   force =     0.00000000    0.00000000    0.00000000
     atom    7 type  2   force =     0.00000000    0.00000000    0.00000000
     atom    8 type  2   force =     0.00000000    0.00000000    0.00000000
     atom    9 type  2   force =     0.00000000    0.00000000    0.00000000
     atom   10 type  3   force =     0.00000000    0.00000000    0.00000000
     The SCF correction term to forces
     atom    1 type  1   force =    -0.00000804    0.00010582   -0.00027765
     atom    2 type  1   force =    -0.00000806   -0.00010950    0.00021183
     atom    3 type  2   force =     0.00000198    0.00001217   -0.00009262
     atom    4 type  2   force =    -0.00000304   -0.00002914    0.00012754
     atom    5 type  2   force =    -0.00000050   -0.00001700   -0.00009018
     atom    6 type  2   force =     0.00000061    0.00002543    0.00005385
     atom    7 type  2   force =     0.00000336   -0.00000755    0.00009226
     atom    8 type  2   force =     0.00000211    0.00000188    0.00000857
     atom    9 type  2   force =     0.00000031    0.00001069    0.00001243
     atom   10 type  3   force =     0.00001367    0.00017298   -0.00105266

     Total force =     0.145671     Total SCF correction =     0.001153

     Computing stress (Cartesian axis) and pressure

          total   stress  (Ry/bohr**3)                   (kbar)     P=      -22.37
   0.00016349   0.00000000   0.00000000           24.05        0.00        0.00
   0.00000000   0.00016349   0.00000000            0.00       24.05        0.00
   0.00000000   0.00000000  -0.00078324            0.00        0.00     -115.22

     kinetic stress (kbar)   6430.75      0.00      0.00
                                0.00   6430.75      0.00
                                0.00      0.00   6260.19

     local   stress (kbar) -19533.40      0.10     -0.00
                                0.10 -19533.12     -0.04
                               -0.00     -0.04   6912.85

     nonloc. stress (kbar)   5075.80      0.00      0.00
                                0.00   5075.80      0.00
                                0.00      0.00   5126.46

     hartree stress (kbar)  14657.08     -0.03      0.00
                               -0.03  14657.08     -0.04
                                0.00     -0.04   1627.23

     exc-cor stress (kbar)  -1544.17     -0.00      0.00
                               -0.00  -1544.17      0.00
                                0.00      0.00  -1542.50

     corecor stress (kbar)   -775.41      0.00     -0.00
                                0.00   -775.41     -0.00
                               -0.00     -0.00   -781.00

     ewald   stress (kbar)  -4286.74      0.00      0.00
                                0.00  -4286.74      0.00
                                0.00      0.00 -17718.45

     hubbard stress (kbar)      0.00      0.00      0.00
                                0.00      0.00      0.00
                                0.00      0.00      0.00

     DFT-D   stress (kbar)      0.00      0.00      0.00
                                0.00      0.00      0.00
                                0.00      0.00      0.00

     XDM     stress (kbar)      0.00      0.00      0.00
                                0.00      0.00      0.00
                                0.00      0.00      0.00

     dft-nl  stress (kbar)      0.00      0.00      0.00
                                0.00      0.00      0.00
                                0.00      0.00      0.00

     TS-vdW  stress (kbar)      0.00      0.00      0.00
                                0.00      0.00      0.00
                                0.00      0.00      0.00

[...]

                                0.00      0.00      0.00

     Writing all to output data dir new_calculations/myprefix.save/

     General routines

     Parallel routines

     PAW routines

   This run was terminated on:  18:37:59  21May2023

   JOB DONE.