     Program PWSCF v.7.0 starts on 20May2023 at 18:12:15

     Reading input from espresso_8701.pwi
Warning: card &CELL ignored
Warning: card / ignored

     Current dimensions of program PWSCF are:
     Max number of different atomic species (ntypx) = 10
     Max number of k-points (npk) =  40000
     Max angular momentum in pseudopotentials (lmaxx) =  4
     file Mg.pbe-n-kjpaw_psl.0.3.0.UPF: wavefunction(s)  3S renormalized

     gamma-point specific algorithms are used
     Message from routine setup:
     using ibrav=0 with symmetry is DISCOURAGED, use correct ibrav instead

     Subspace diagonalization in iterative solution of the eigenvalue problem:
     a serial algorithm will be used

     Using Slab Decomposition

     bravais-lattice index     =            0
     lattice parameter (alat)  =       9.8522  a.u.
     unit-cell volume          =     706.3822 (a.u.)^3
     number of atoms/cell      =            4
     number of atomic types    =            2
     number of electrons       =        16.00
     number of Kohn-Sham states=           12
     kinetic-energy cutoff     =      30.0000  Ry
     charge density cutoff     =     240.0000  Ry
     scf convergence threshold =      1.0E-06
     mixing beta               =       0.7000
     number of iterations used =            8  plain     mixing
     Exchange-correlation= SLA  PW   PBX  PBC
                           (   1   4   3   4   0   0   0)

     celldm(1)=   9.852161  celldm(2)=   0.000000  celldm(3)=   0.000000
     celldm(4)=   0.000000  celldm(5)=   0.000000  celldm(6)=   0.000000

     crystal axes: (cart. coord. in units of alat)
               a(1) = (   1.000000   0.000000   0.000000 )
               a(2) = (  -0.102925   0.994689   0.000000 )
               a(3) = (  -0.448538  -0.497345   0.742605 )

     reciprocal axes: (cart. coord. in units 2 pi/alat)
               b(1) = (  1.000000  0.103474  0.673305 )
               b(2) = (  0.000000  1.005339  0.673305 )
               b(3) = (  0.000000  0.000000  1.346611 )

     PseudoPot. # 1 for Ca read from file:
     /home/pragov/projects/rrg-bengioy-ad/pragov/crystal_structure_design/SSSP/Ca_pbe_v1.uspp.F.UPF
     MD5 check sum: 403a4c14b9e4d4dfdc3024c9a3812218
     Pseudo is Ultrasoft + core correction, Zval = 10.0
     Generated by new atomic code, or converted to UPF format
     Using radial grid of  845 points,  6 beta functions with:
                l(1) =   0
                l(2) =   0
                l(3) =   1
                l(4) =   1
                l(5) =   2
                l(6) =   2
     Q(r) pseudized with  8 coefficients,  rinner =    1.500   1.500   1.500
                                                       1.500   1.500

     PseudoPot. # 2 for Mg read from file:
     /home/pragov/projects/rrg-bengioy-ad/pragov/crystal_structure_design/SSSP/Mg.pbe-n-kjpaw_psl.0.3.0.UPF
     MD5 check sum: 24ecedc7f3e3cbe212e682f4413594e4
     Pseudo is Projector augmented-wave + core cor, Zval =  2.0
     Generated using "atomic" code by A. Dal Corso  v.5.0.99 svn rev. 10869
     Shape of augmentation charge: PSQ
     Using radial grid of 1129 points,  4 beta functions with:
                l(1) =   0
                l(2) =   0
                l(3) =   1
                l(4) =   1
     Q(r) pseudized with 0 coefficients

     atomic species   valence    mass     pseudopotential
        Ca            10.00    40.07800     Ca( 1.00)
        Mg             2.00    24.30500     Mg( 1.00)

      4 Sym. Ops., with inversion, found

                                    s                        frac. trans.

      isym =  1     identity

 cryst.   s( 1) = (     1          0          0      )
                  (     0          1          0      )
                  (     0          0          1      )

 cart.    s( 1) = (  1.0000000  0.0000000  0.0000000 )
                  (  0.0000000  1.0000000  0.0000000 )
                  (  0.0000000  0.0000000  1.0000000 )

      isym =  2     180 deg rotation - cart. axis [0,0,1]

[...]

      isym =  3     inversion

[...]

      isym =  4     inv. 180 deg rotation - cart. axis [0,0,1]

 cryst.   s( 4) = (     1          0          0      )
                  (     0          1          0      )
                  (    -1         -1         -1      )

 cart.    s( 4) = (  1.0000000  0.0000000 -0.0000000 )
                  (  0.0000000  1.0000000 -0.0000000 )
                  (  0.0000000  0.0000000 -1.0000000 )

   Cartesian axes

     site n.     atom                  positions (alat units)
         1           Ca  tau(   1) = (   0.0000000   0.0000000   0.0000000  )
         2           Mg  tau(   2) = (   0.4485377   0.4973446   0.0000000  )
         3           Mg  tau(   3) = (  -0.0514623   0.4973446   0.3713026  )
         4           Mg  tau(   4) = (   0.5000000   0.0000000   0.3713026  )

   Crystallographic axes

     site n.     atom                  positions (cryst. coord.)
         1           Ca  tau(   1) = (  0.0000000  0.0000000  0.0000000  )
         2           Mg  tau(   2) = (  0.5000000  0.5000000  0.0000000  )
         3           Mg  tau(   3) = (  0.2500000  0.7500000  0.5000000  )
         4           Mg  tau(   4) = (  0.7500000  0.2500000  0.5000000  )

     number of k points=     1  Methfessel-Paxton smearing, width (Ry)=  0.0010
                       cart. coord. in units 2pi/alat
        k(    1) = (   0.0000000   0.0000000   0.0000000), wk =   2.0000000

                       cryst. coord.
        k(    1) = (   0.0000000   0.0000000   0.0000000), wk =   2.0000000

     Initial potential from superposition of free atoms

     starting charge      15.9918, renormalised to      16.0000
     Starting wfcs are   22 randomized atomic wfcs
     Checking if some PAW data can be deallocated...

     Self-consistent Calculation

     iteration #  1     ecut=    30.00 Ry     beta= 0.70
     Davidson diagonalization with overlap

     ethr =  1.00E-02,  avg # of iterations =  3.0

     total energy              =    -174.77776896 Ry
     estimated scf accuracy    <       0.74415629 Ry

[...]

     total energy              =    -175.18084875 Ry
     estimated scf accuracy    <       0.00000279 Ry

     iteration # 12     ecut=    30.00 Ry     beta= 0.70
     Davidson diagonalization with overlap

     ethr =  1.74E-08,  avg # of iterations =  2.0

     End of self-consistent calculation

          k = 0.0000 0.0000 0.0000 (   986 PWs)   bands (ev):

   -34.7945 -15.9659 -15.9430 -15.9236  -1.7930   4.8348   4.9075   4.9100
     5.6383   5.6391   5.8687   6.6831

     occupation numbers
     1.0000   1.0000   1.0000   1.0000   1.0000   1.0000   1.0000   1.0000
    -0.0000  -0.0000  -0.0000  -0.0000

     the Fermi energy is     5.5145 ev

!    total energy              =    -175.18084913 Ry
     estimated scf accuracy    <       0.00000006 Ry
     smearing contrib. (-TS)   =       0.00000000 Ry
     internal energy E=F+TS    =    -175.18084913 Ry

     The total energy is F=E-TS. E is the sum of the following terms:
     one-electron contribution =     -45.67656239 Ry
     hartree contribution      =      26.53078433 Ry
     xc contribution           =     -16.73973129 Ry
     ewald contribution        =     -45.45887194 Ry
     one-center paw contrib.   =     -93.83646784 Ry
      -> PAW hartree energy AE =       2.14726932 Ry
      -> PAW hartree energy PS =      -2.14141741 Ry
      -> PAW xc energy AE      =     -97.55332108 Ry
      -> PAW xc energy PS      =       3.71100133 Ry
      -> total E_H with PAW    =      26.53663625 Ry
      -> total E_XC with PAW   =    -110.58205104 Ry

     convergence has been achieved in  12 iterations

     Forces acting on atoms (cartesian axes, Ry/au):

     atom    1 type  1   force =     0.00000000    0.00000000    0.00000000
     atom    2 type  2   force =     0.00000000    0.00000000    0.00000000
     atom    3 type  2   force =     0.00000000    0.00000000   -0.00001147
     atom    4 type  2   force =     0.00000000    0.00000000    0.00001147
     The non-local contrib.  to forces
     atom    1 type  1   force =     0.00000000    0.00000000    0.00000000
     atom    2 type  2   force =     0.00000000    0.00000000    0.00000000
     atom    3 type  2   force =     0.00000000    0.00000000   -0.00003468
     atom    4 type  2   force =     0.00000000    0.00000000    0.00003468
     The ionic contribution  to forces
     atom    1 type  1   force =     0.00000000   -0.00000000    0.00000000
     atom    2 type  2   force =    -0.00000000    0.00000000    0.00000000
     atom    3 type  2   force =     0.00000000   -0.00000000   -0.00000000
     atom    4 type  2   force =    -0.00000000    0.00000000   -0.00000000
     The local contribution  to forces
     atom    1 type  1   force =     0.00004870    0.00017949    0.00009388
     atom    2 type  2   force =    -0.00000001   -0.00003735    0.00000634
     atom    3 type  2   force =     0.00001058    0.00007820    0.00002961
     atom    4 type  2   force =    -0.00004004   -0.00003694   -0.00002382
     The core correction contribution to forces
     atom    1 type  1   force =    -0.00000174    0.00000329    0.00000216
     atom    2 type  2   force =     0.00000012   -0.00000219    0.00000052
     atom    3 type  2   force =    -0.00000152    0.00000795   -0.00000034
     atom    4 type  2   force =    -0.00000087   -0.00000466    0.00000169
     The Hubbard contrib.    to forces
     atom    1 type  1   force =     0.00000000    0.00000000    0.00000000
     atom    2 type  2   force =     0.00000000    0.00000000    0.00000000
     atom    3 type  2   force =     0.00000000    0.00000000    0.00000000
     atom    4 type  2   force =     0.00000000    0.00000000    0.00000000
     The SCF correction term to forces
     atom    1 type  1   force =    -0.00003728   -0.00007034   -0.00007349
     atom    2 type  2   force =     0.00000045    0.00001017   -0.00000061
     atom    3 type  2   force =    -0.00000974   -0.00001907   -0.00000087
     atom    4 type  2   force =     0.00001375    0.00001281    0.00000412

     Total force =     0.000016     Total SCF correction =     0.000113
     SCF correction compared to forces is large: reduce conv_thr to get better values

     Computing stress (Cartesian axis) and pressure

          total   stress  (Ry/bohr**3)                   (kbar)     P=      -18.98
  -0.00006991   0.00030901  -0.00000000          -10.28       45.46       -0.00
   0.00030901   0.00001055  -0.00000000           45.46        1.55       -0.00
  -0.00000000  -0.00000000  -0.00032781           -0.00       -0.00      -48.22

     kinetic stress (kbar)   3278.23     52.27     -0.00
                               52.27   3291.19     -0.00
                               -0.00     -0.00   3236.07

     local   stress (kbar)  -2188.39    -32.32     -0.21
                              -32.32  -2193.34     -0.64
                               -0.21     -0.64  -2158.15

     nonloc. stress (kbar)   1172.76      3.88     -0.00
                                3.88   1172.50     -0.00
                               -0.00     -0.00   1167.02

     hartree stress (kbar)   1840.07     -8.38      0.10
                               -8.38   1837.99      0.10
                                0.10      0.10   1847.01

     exc-cor stress (kbar)   -162.49      0.32      0.00
                                0.32   -162.43     -0.00
                                0.00     -0.00   -162.82

     corecor stress (kbar)   -801.94     -0.92      0.01
                               -0.92   -802.16      0.00
                                0.01      0.00   -801.20

     ewald   stress (kbar)  -3148.53     30.61     -0.00
                               30.61  -3142.20     -0.00
                               -0.00     -0.00  -3176.14

     hubbard stress (kbar)      0.00      0.00      0.00
                                0.00      0.00      0.00
                                0.00      0.00      0.00

     DFT-D   stress (kbar)      0.00      0.00      0.00
                                0.00      0.00      0.00
                                0.00      0.00      0.00

     XDM     stress (kbar)      0.00      0.00      0.00
                                0.00      0.00      0.00
                                0.00      0.00      0.00

     dft-nl  stress (kbar)      0.00      0.00      0.00
                                0.00      0.00      0.00
                                0.00      0.00      0.00

     TS-vdW  stress (kbar)      0.00      0.00      0.00
                                0.00      0.00      0.00
                                0.00      0.00      0.00

[...]

                                0.00      0.00      0.00

     Writing all to output data dir new_calculations/myprefix.save/

     General routines

     Parallel routines

     PAW routines

   This run was terminated on:  18:12:20  20May2023

   JOB DONE.