     Program PWSCF v.7.0 starts on 20May2023 at  6:36:39

     Reading input from espresso_16121.pwi
Warning: card &CELL ignored
Warning: card / ignored

     Current dimensions of program PWSCF are:
     Max number of different atomic species (ntypx) = 10
     Max number of k-points (npk) =  40000
     Max angular momentum in pseudopotentials (lmaxx) =  4

     gamma-point specific algorithms are used
     Message from routine setup:
     using ibrav=0 with symmetry is DISCOURAGED, use correct ibrav instead

     Subspace diagonalization in iterative solution of the eigenvalue problem:
     a serial algorithm will be used

     Using Slab Decomposition

     bravais-lattice index     =            0
     lattice parameter (alat)  =      10.9048  a.u.
     unit-cell volume          =     570.5269 (a.u.)^3
     number of atoms/cell      =            5
     number of atomic types    =            3
     number of electrons       =        69.00
     number of Kohn-Sham states=           42
     kinetic-energy cutoff     =      30.0000  Ry
     charge density cutoff     =     240.0000  Ry
     scf convergence threshold =      1.0E-06
     mixing beta               =       0.7000
     number of iterations used =            8  plain     mixing
     Exchange-correlation= PBE
                           (   1   4   3   4   0   0   0)

     celldm(1)=  10.904777  celldm(2)=   0.000000  celldm(3)=   0.000000
     celldm(4)=   0.000000  celldm(5)=   0.000000  celldm(6)=   0.000000

     crystal axes: (cart. coord. in units of alat)
               a(1) = (   1.000000   0.000000   0.000000 )
               a(2) = (   0.490315   0.871545   0.000000 )
               a(3) = (  -0.745158  -0.435773   0.504819 )

     reciprocal axes: (cart. coord. in units 2 pi/alat)
               b(1) = (  1.000000 -0.562582  0.990454 )
               b(2) = (  0.000000  1.147387  0.990454 )
               b(3) = (  0.000000  0.000000  1.980907 )

     PseudoPot. # 1 for Lu read from file:
     /home/pragov/projects/rrg-bengioy-ad/pragov/crystal_structure_design/SSSP/Lu.GGA-PBE-paw-v1.0.UPF
     MD5 check sum: 9ceca61ee0c17e9380a83635bfffa61d
     Pseudo is Projector augmented-wave + core cor, Zval = 25.0
     Generated using ATOMPAW code
     Shape of augmentation charge: BESSEL
     Using radial grid of 1118 points,  8 beta functions with:
                l(1) =   0
                l(2) =   0
                l(3) =   1
                l(4) =   1
                l(5) =   2
                l(6) =   2
                l(7) =   3
                l(8) =   3
     Q(r) pseudized with 0 coefficients

     PseudoPot. # 2 for Si read from file:
     /home/pragov/projects/rrg-bengioy-ad/pragov/crystal_structure_design/SSSP/Si.pbe-n-rrkjus_psl.1.0.0.UPF
     MD5 check sum: 0b0bb1205258b0d07b9f9672cf965d36
     Pseudo is Ultrasoft + core correction, Zval =  4.0
     Generated using "atomic" code by A. Dal Corso  v.5.1
     Using radial grid of 1141 points,  6 beta functions with:
                l(1) =   0
                l(2) =   0
                l(3) =   1
                l(4) =   1
                l(5) =   2
                l(6) =   2
     Q(r) pseudized with 0 coefficients

     PseudoPot. # 3 for Pd read from file:
     /home/pragov/projects/rrg-bengioy-ad/pragov/crystal_structure_design/SSSP/Pd_ONCV_PBE-1.0.oncvpsp.upf
     MD5 check sum: eb77f42b51d86fb18e25f68156a31cf1
     Pseudo is Norm-conserving, Zval = 18.0
     Generated using ONCVPSP code by D. R. Hamann
     Using radial grid of 1410 points,  6 beta functions with:
                l(1) =   0
                l(2) =   0
                l(3) =   1
                l(4) =   1
                l(5) =   2
                l(6) =   2

     atomic species   valence    mass     pseudopotential
        Lu            25.00   174.96680     Lu( 1.00)
        Si             4.00    28.08500     Si( 1.00)
        Pd            18.00   106.42000     Pd( 1.00)

      4 Sym. Ops., with inversion, found

                                    s                        frac. trans.

      isym =  1     identity

 cryst.   s( 1) = (     1          0          0      )
                  (     0          1          0      )
                  (     0          0          1      )

 cart.    s( 1) = (  1.0000000  0.0000000  0.0000000 )
                  (  0.0000000  1.0000000  0.0000000 )
                  (  0.0000000  0.0000000  1.0000000 )

      isym =  2     180 deg rotation - cart. axis [0,0,1]

[...]

      isym =  3     inversion

[...]

      isym =  4     inv. 180 deg rotation - cart. axis [0,0,1]

 cryst.   s( 4) = (     1          0          0      )
                  (     0          1          0      )
                  (    -1         -1         -1      )

 cart.    s( 4) = (  1.0000000  0.0000000 -0.0000000 )
                  (  0.0000000  1.0000000 -0.0000000 )
                  (  0.0000000  0.0000000 -1.0000000 )

   Cartesian axes

     site n.     atom                  positions (alat units)
         1           Lu  tau(   1) = (   0.0000000   0.0000000   0.0000000  )
         2           Si  tau(   2) = (   0.9164530   0.5359471   0.0000000  )
         3           Si  tau(   3) = (   0.5738623   0.3355981   0.0000000  )
         4           Pd  tau(   4) = (   0.2451576   0.4357726   0.2524096  )
         5           Pd  tau(   5) = (   0.5000000   0.0000000   0.2524096  )

   Crystallographic axes

     site n.     atom                  positions (cryst. coord.)
         1           Lu  tau(   1) = (  0.0000000  0.0000000  0.0000000  )
         2           Si  tau(   2) = (  0.6149390  0.6149390  0.0000000  )
         3           Si  tau(   3) = (  0.3850610  0.3850610  0.0000000  )
         4           Pd  tau(   4) = (  0.2500000  0.7500000  0.5000000  )
         5           Pd  tau(   5) = (  0.7500000  0.2500000  0.5000000  )

     number of k points=     1  Methfessel-Paxton smearing, width (Ry)=  0.0010
                       cart. coord. in units 2pi/alat
        k(    1) = (   0.0000000   0.0000000   0.0000000), wk =   2.0000000

                       cryst. coord.
        k(    1) = (   0.0000000   0.0000000   0.0000000), wk =   2.0000000

     Initial potential from superposition of free atoms

     starting charge      68.9944, renormalised to      69.0000
     Starting wfcs are   60 randomized atomic wfcs
     Checking if some PAW data can be deallocated...

     Self-consistent Calculation

     iteration #  1     ecut=    30.00 Ry     beta= 0.70
     Davidson diagonalization with overlap

     ethr =  1.00E-02,  avg # of iterations =  3.0

     Threshold (ethr) on eigenvalues was too large:
     Diagonalizing with lowered threshold

     Davidson diagonalization with overlap

[...]

     total energy              =   -1608.80751510 Ry
     estimated scf accuracy    <       0.46457544 Ry

[...]

     total energy              =   -1609.05726648 Ry
     estimated scf accuracy    <       0.00000100 Ry

     iteration # 12     ecut=    30.00 Ry     beta= 0.70
     Davidson diagonalization with overlap

     ethr =  1.46E-09,  avg # of iterations =  4.0

     End of self-consistent calculation

          k = 0.0000 0.0000 0.0000 (   811 PWs)   bands (ev):

   -70.9888 -70.0434 -40.0681 -35.9643 -35.8353 -35.6892 -35.6571 -35.4195
   -35.4022 -11.0218 -10.8613 -10.5908   4.5453   8.3076   9.3208  10.6746
    10.9147  11.0394  11.0587  11.0655  11.1542  11.1909  11.2406  11.2752
    11.2869  12.6580  12.6788  12.7240  13.0354  13.2279  13.6768  14.9517
    14.9646  15.1836  15.3196  16.7523  16.7794  18.4752  18.6490  19.9643
    20.2152  21.8677

     occupation numbers
     1.0000   1.0000   1.0000   1.0000   1.0000   1.0000   1.0000   1.0000
     1.0000   1.0000   1.0000   1.0000   1.0000   1.0000   1.0000   1.0000
     1.0000   1.0000   1.0000   1.0000   1.0000   1.0000   1.0000   1.0000
     1.0000   1.0000   1.0000   1.0000   1.0000   1.0000   1.0000   1.0000
     1.0000   1.0000   0.5000  -0.0000  -0.0000  -0.0000  -0.0000  -0.0000
    -0.0000  -0.0000

     the Fermi energy is    15.3196 ev

!    total energy              =   -1609.05726665 Ry
     estimated scf accuracy    <       0.00000004 Ry
     smearing contrib. (-TS)   =      -0.00028209 Ry
     internal energy E=F+TS    =   -1609.05698455 Ry

     The total energy is F=E-TS. E is the sum of the following terms:
     one-electron contribution =    -667.25562589 Ry
     hartree contribution      =     330.95707362 Ry
     xc contribution           =    -103.47122758 Ry
     ewald contribution        =    -678.34107762 Ry
     one-center paw contrib.   =    -490.94612709 Ry
      -> PAW hartree energy AE =     492.12778497 Ry
      -> PAW hartree energy PS =    -423.78539221 Ry
      -> PAW xc energy AE      =    -599.32536002 Ry
      -> PAW xc energy PS      =      40.03684017 Ry
      -> total E_H with PAW    =     399.29946638 Ry
      -> total E_XC with PAW   =    -662.75974743 Ry

     convergence has been achieved in  12 iterations

     Forces acting on atoms (cartesian axes, Ry/au):

     atom    1 type  1   force =     0.00000000    0.00000000    0.00000000
     atom    2 type  2   force =     0.18174411    0.10913733   -0.00000000
     atom    3 type  2   force =    -0.18174411   -0.10913733    0.00000000
     atom    4 type  3   force =     0.00000000    0.00000000    0.01679186
     atom    5 type  3   force =     0.00000000    0.00000000   -0.01679186
     The non-local contrib.  to forces
     atom    1 type  1   force =     0.00000000    0.00000000    0.00000000
     atom    2 type  2   force =     0.09982975    0.05985049   -0.00000000
     atom    3 type  2   force =    -0.09982975   -0.05985049    0.00000000
     atom    4 type  3   force =     0.00000000    0.00000000   -0.01106158
     atom    5 type  3   force =     0.00000000    0.00000000    0.01106158
     The ionic contribution  to forces
     atom    1 type  1   force =    -0.00000000   -0.00000000   -0.00000000
     atom    2 type  2   force =    -4.32014857   -2.52644843    0.00000000
     atom    3 type  2   force =     4.32014857    2.52644843   -0.00000000
     atom    4 type  3   force =     0.00000000   -0.00000000    0.00000000
     atom    5 type  3   force =    -0.00000000    0.00000000   -0.00000000
     The local contribution  to forces
     atom    1 type  1   force =     0.00000050   -0.00032368    0.00011408
     atom    2 type  2   force =     4.41312118    2.58189032   -0.00115914
     atom    3 type  2   force =    -4.41315327   -2.58186140    0.00115481
     atom    4 type  3   force =    -0.03049870   -0.01982193    0.02794303
     atom    5 type  3   force =     0.03057664    0.01981076   -0.02794135
     The core correction contribution to forces
     atom    1 type  1   force =    -0.00000000   -0.00000000    0.00000000
     atom    2 type  2   force =    -0.01104481   -0.00612001    0.00042709
     atom    3 type  2   force =     0.01104379    0.00612135   -0.00042736
     atom    4 type  3   force =     0.00000000    0.00000000    0.00000000
     atom    5 type  3   force =     0.00000000    0.00000000    0.00000000
     The Hubbard contrib.    to forces
     atom    1 type  1   force =     0.00000000    0.00000000    0.00000000
     atom    2 type  2   force =     0.00000000    0.00000000    0.00000000
     atom    3 type  2   force =     0.00000000    0.00000000    0.00000000
     atom    4 type  3   force =     0.00000000    0.00000000    0.00000000
     atom    5 type  3   force =     0.00000000    0.00000000    0.00000000
     The SCF correction term to forces
     atom    1 type  1   force =     0.00000574    0.00037301   -0.00014819
     atom    2 type  2   force =    -0.00001962   -0.00002722    0.00000536
     atom    3 type  2   force =     0.00004036    0.00001260   -0.00000266
     atom    4 type  3   force =    -0.00002301    0.00009647   -0.00008807
     atom    5 type  3   force =    -0.00003664   -0.00007417    0.00008943

     Total force =     0.300745     Total SCF correction =     0.000443

     Computing stress (Cartesian axis) and pressure

          total   stress  (Ry/bohr**3)                   (kbar)     P=     -469.25
  -0.00298201   0.00017950   0.00000000         -438.67       26.41        0.00
   0.00017950  -0.00320814   0.00000000           26.41     -471.93        0.00
   0.00000000   0.00000000  -0.00337957            0.00        0.00     -497.15

     kinetic stress (kbar)  34725.90    -92.49     -0.00
                              -92.49  34636.89     -0.00
                               -0.00     -0.00  34792.48

     local   stress (kbar)  -9920.45    907.22     37.56
                              907.22 -10657.00    -47.11
                               37.56    -47.11 -11355.64

     nonloc. stress (kbar)  13215.76    -16.83     -0.00
                              -16.83  13215.65     -0.00
                               -0.00     -0.00  13244.02

     hartree stress (kbar)  28474.88     -7.89    -24.44
                               -7.89  28407.98     31.42
                              -24.44     31.42  28451.36

     exc-cor stress (kbar)  -6039.93      1.93     -0.71
                                1.93  -6042.14      0.99
                               -0.71      0.99  -6043.21

     corecor stress (kbar)  -1870.22     -0.17     -0.11
                               -0.17  -1869.85     -0.00
                               -0.11     -0.00  -1870.28

     ewald   stress (kbar) -59024.62   -765.36     -0.00
                             -765.36 -58163.47     -0.00
                               -0.00     -0.00 -57715.88

     hubbard stress (kbar)      0.00      0.00      0.00
                                0.00      0.00      0.00
                                0.00      0.00      0.00

     DFT-D   stress (kbar)      0.00      0.00      0.00
                                0.00      0.00      0.00
                                0.00      0.00      0.00

     XDM     stress (kbar)      0.00      0.00      0.00
                                0.00      0.00      0.00
                                0.00      0.00      0.00

     dft-nl  stress (kbar)      0.00      0.00      0.00
                                0.00      0.00      0.00
                                0.00      0.00      0.00

     TS-vdW  stress (kbar)      0.00      0.00      0.00
                                0.00      0.00      0.00
                                0.00      0.00      0.00

[...]

                                0.00      0.00      0.00

     Writing all to output data dir new_calculations/myprefix.save/

     General routines

     Parallel routines

     PAW routines

   This run was terminated on:   6:37: 6  20May2023

   JOB DONE.