     Program PWSCF v.7.0 starts on 20May2023 at 15:18:13

     Reading input from espresso_20037.pwi
Warning: card &CELL ignored
Warning: card / ignored

     Current dimensions of program PWSCF are:
     Max number of different atomic species (ntypx) = 10
     Max number of k-points (npk) =  40000
     Max angular momentum in pseudopotentials (lmaxx) =  4
     file O.pbe-n-kjpaw_psl.0.1.UPF: wavefunction(s)  2P renormalized

     gamma-point specific algorithms are used

     Subspace diagonalization in iterative solution of the eigenvalue problem:
     a serial algorithm will be used

     Using Slab Decomposition

     bravais-lattice index     =            0
     lattice parameter (alat)  =      10.1189  a.u.
     unit-cell volume          =    1520.6430 (a.u.)^3
     number of atoms/cell      =           20
     number of atomic types    =            4
     number of electrons       =       174.00
     number of Kohn-Sham states=          104
     kinetic-energy cutoff     =      30.0000  Ry
     charge density cutoff     =     240.0000  Ry
     scf convergence threshold =      1.0E-06
     mixing beta               =       0.7000
     number of iterations used =            8  plain     mixing
     Exchange-correlation= SLA  PW   PBX  PBC
                           (   1   4   3   4   0   0   0)

     celldm(1)=  10.118898  celldm(2)=   0.000000  celldm(3)=   0.000000
     celldm(4)=   0.000000  celldm(5)=   0.000000  celldm(6)=   0.000000

     crystal axes: (cart. coord. in units of alat)
               a(1) = (   1.000000   0.000000   0.000000 )
               a(2) = (   0.000406   1.037169   0.000000 )
               a(3) = (  -0.000001   0.000005   1.415070 )

     reciprocal axes: (cart. coord. in units 2 pi/alat)
               b(1) = (  1.000000 -0.000391  0.000001 )
               b(2) = (  0.000000  0.964163 -0.000004 )
               b(3) = (  0.000000  0.000000  0.706679 )

     PseudoPot. # 1 for Ca read from file:
     /home/pragov/projects/rrg-bengioy-ad/pragov/crystal_structure_design/SSSP/Ca_pbe_v1.uspp.F.UPF
     MD5 check sum: 403a4c14b9e4d4dfdc3024c9a3812218
     Pseudo is Ultrasoft + core correction, Zval = 10.0
     Generated by new atomic code, or converted to UPF format
     Using radial grid of  845 points,  6 beta functions with:
                l(1) =   0
                l(2) =   0
                l(3) =   1
                l(4) =   1
                l(5) =   2
                l(6) =   2
     Q(r) pseudized with  8 coefficients,  rinner =    1.500   1.500   1.500
                                                       1.500   1.500

     PseudoPot. # 2 for Y  read from file:
     /home/pragov/projects/rrg-bengioy-ad/pragov/crystal_structure_design/SSSP/Y_pbe_v1.uspp.F.UPF
     MD5 check sum: 2cf71db95cafeb975fc457bd7f14888e
     Pseudo is Ultrasoft + core correction, Zval = 11.0
     Generated by new atomic code, or converted to UPF format
     Using radial grid of  885 points,  6 beta functions with:
                l(1) =   0
                l(2) =   0
                l(3) =   1
                l(4) =   1
                l(5) =   2
                l(6) =   2
     Q(r) pseudized with  6 coefficients,  rinner =    1.200   1.200   1.200
                                                       1.200   1.200

     PseudoPot. # 3 for Mn read from file:
     /home/pragov/projects/rrg-bengioy-ad/pragov/crystal_structure_design/SSSP/mn_pbe_v1.5.uspp.F.UPF
     MD5 check sum: 82ef2b46521d7a7d9e736dc3972e4928
     Pseudo is Ultrasoft + core correction, Zval = 15.0
     Generated by new atomic code, or converted to UPF format
     Using radial grid of  859 points,  6 beta functions with:
                l(1) =   0
                l(2) =   0
                l(3) =   1
                l(4) =   1
                l(5) =   2
                l(6) =   2
     Q(r) pseudized with  8 coefficients,  rinner =    0.950   0.950   0.950
                                                       0.950   0.950

     PseudoPot. # 4 for O  read from file:
     /home/pragov/projects/rrg-bengioy-ad/pragov/crystal_structure_design/SSSP/O.pbe-n-kjpaw_psl.0.1.UPF
     MD5 check sum: 0234752ac141de4415c5fc33072bef88
     Pseudo is Projector augmented-wave + core cor, Zval =  6.0
     Generated using "atomic" code by A. Dal Corso  v.5.0.99 svn rev. 10869
     Shape of augmentation charge: BESSEL
     Using radial grid of 1095 points,  4 beta functions with:
                l(1) =   0
                l(2) =   0
                l(3) =   1
                l(4) =   1
     Q(r) pseudized with 0 coefficients

     atomic species   valence    mass     pseudopotential
        Ca            10.00    40.07800     Ca( 1.00)
        Y             11.00    88.90584     Y ( 1.00)
        Mn            15.00    54.93804     Mn( 1.00)
        O              6.00    15.99900     O ( 1.00)

     No symmetry found

                                    s                        frac. trans.

      isym =  1     identity

 cryst.   s( 1) = (     1          0          0      )
                  (     0          1          0      )
                  (     0          0          1      )

 cart.    s( 1) = (  1.0000000  0.0000000  0.0000000 )
                  (  0.0000000  1.0000000  0.0000000 )
                  (  0.0000000  0.0000000  1.0000000 )

   Cartesian axes

     site n.     atom                  positions (alat units)
         1           Ca  tau(   1) = (   0.5114912   0.5736275   0.3537704  )
         2           Ca  tau(   2) = (   0.0116775   0.9821846   1.0613027  )
         3           Y   tau(   3) = (   0.9837435   0.0658554   0.3537647  )
         4           Y   tau(   4) = (   0.4838983   0.4526817   1.0613070  )
         5           Mn  tau(   5) = (   0.9996504   0.5225051   0.0001953  )
         6           Mn  tau(   6) = (   0.4998707   1.0332452   0.7076597  )
         7           Mn  tau(   7) = (   0.9996529   0.5225213   0.7073300  )
         8           Mn  tau(   8) = (   0.4998672   1.0332603   1.4149486  )
         9           O   tau(   9) = (   0.8030785   0.8319707   0.0704464  )
        10           O   tau(  10) = (   0.7080376   0.3018467   0.6415589  )
        11           O   tau(  11) = (   0.2078552   0.2168014   0.7735383  )
        12           O   tau(  12) = (   0.3029191   0.7237449   1.3446592  )
        13           O   tau(  13) = (   0.2078738   0.2167746   1.3490714  )
        14           O   tau(  14) = (   0.3029206   0.7237531   0.7779590  )
        15           O   tau(  15) = (   0.8030950   0.8319459   0.6370901  )
        16           O   tau(  16) = (   0.7080371   0.3018559   0.0659621  )
        17           O   tau(  17) = (   0.3996809   1.0099034   0.3537902  )
        18           O   tau(  18) = (   0.0858628   0.4857959   0.3537563  )
        19           O   tau(  19) = (   0.5856820   0.0328066   1.0612858  )
        20           O   tau(  20) = (   0.8995597   0.5458351   1.0613098  )

   Crystallographic axes

     site n.     atom                  positions (cryst. coord.)
         1           Ca  tau(   1) = (  0.5112670  0.5530690  0.2500020  )
         2           Ca  tau(   2) = (  0.0112940  0.9469820  0.7500000  )
         3           Y   tau(   3) = (  0.9837180  0.0634940  0.2499980  )
         4           Y   tau(   4) = (  0.4837220  0.4364550  0.7500030  )
         5           Mn  tau(   5) = (  0.9994460  0.5037800  0.0001380  )
         6           Mn  tau(   6) = (  0.4994670  0.9962140  0.5000880  )
         7           Mn  tau(   7) = (  0.9994490  0.5037930  0.4998550  )
         8           Mn  tau(   8) = (  0.4994640  0.9962260  0.9999140  )
         9           O   tau(   9) = (  0.8027530  0.8021550  0.0497830  )
        10           O   tau(  10) = (  0.7079200  0.2910270  0.4533760  )
        11           O   tau(  11) = (  0.2077710  0.2090290  0.5466430  )
        12           O   tau(  12) = (  0.3026370  0.6978030  0.9502420  )
        13           O   tau(  13) = (  0.2077900  0.2090010  0.9533600  )
        14           O   tau(  14) = (  0.3026380  0.6978130  0.5497670  )
        15           O   tau(  15) = (  0.8027700  0.8021290  0.4502180  )
        16           O   tau(  16) = (  0.7079190  0.2910380  0.0466140  )
        17           O   tau(  17) = (  0.3992860  0.9737100  0.2500160  )
        18           O   tau(  18) = (  0.0856730  0.4683850  0.2499920  )
        19           O   tau(  19) = (  0.5856700  0.0316270  0.7499880  )
        20           O   tau(  20) = (  0.8993470  0.5262700  0.7500050  )

     number of k points=     1  Methfessel-Paxton smearing, width (Ry)=  0.0010
                       cart. coord. in units 2pi/alat
        k(    1) = (   0.0000000   0.0000000   0.0000000), wk =   2.0000000

                       cryst. coord.
        k(    1) = (   0.0000000   0.0000000   0.0000000), wk =   2.0000000

     Check: negative core charge=   -0.000025

     Initial potential from superposition of free atoms

     starting charge     171.9798, renormalised to     174.0000

     negative rho (up, down):  8.769E-02 0.000E+00
     Starting wfcs are  146 randomized atomic wfcs
     Checking if some PAW data can be deallocated...

     Self-consistent Calculation

     iteration #  1     ecut=    30.00 Ry     beta= 0.70
     Davidson diagonalization with overlap

     ethr =  1.00E-02,  avg # of iterations =  2.0

     negative rho (up, down):  8.777E-02 0.000E+00

     total energy              =   -1664.85379441 Ry
     estimated scf accuracy    <       8.81530729 Ry

[...]

     total energy              =   -1670.38213310 Ry
     estimated scf accuracy    <       0.00000559 Ry

     iteration # 25     ecut=    30.00 Ry     beta= 0.70
     Davidson diagonalization with overlap

     ethr =  3.21E-09,  avg # of iterations =  1.0

[...]

     End of self-consistent calculation

          k = 0.0000 0.0000 0.0000 (  2126 PWs)   bands (ev):

   -68.9556 -68.9553 -68.9540 -68.9536 -37.7976 -37.7923 -37.7915 -37.7868
   -37.7240 -37.7237 -37.7221 -37.7206 -37.4429 -37.4425 -37.4401 -37.4384
   -30.7064 -30.7047 -28.1298 -28.1286 -11.0373 -11.0255 -11.0122 -10.9659
   -10.9243 -10.8548  -9.3656  -9.3545  -9.3445  -9.3101  -9.3026  -9.2814
    -7.9427  -7.0273  -6.9027  -6.7524  -6.7073  -6.6434  -6.5727  -6.4478
    -6.4248  -6.3991  -6.2701  -6.1925   4.6907   4.9794   5.1137   5.2664
     5.7246   5.7898   5.9517   5.9697   5.9841   6.0687   6.0835   6.4700
     6.4841   6.4866   6.6204   7.0938   7.1785   7.2165   7.2202   7.2825
     7.2927   7.4335   7.9360   8.0402   8.2922   8.4538   8.4731   8.5936
     8.7718   8.8003   8.9240   9.0684   9.1111   9.2907   9.3387   9.3431
    10.0595  10.1266  10.1911  10.2011  10.8327  10.9576  11.0343  11.0419
    11.2323  11.2793  11.3887  11.4785  11.9562  11.9853  12.1958  12.5528
    13.2473  14.4542  14.4756  14.5570  15.5091  15.7411  15.8041  16.0021

     occupation numbers
     1.0000   1.0000   1.0000   1.0000   1.0000   1.0000   1.0000   1.0000
     1.0000   1.0000   1.0000   1.0000   1.0000   1.0000   1.0000   1.0000
     1.0000   1.0000   1.0000   1.0000   1.0000   1.0000   1.0000   1.0000
     1.0000   1.0000   1.0000   1.0000   1.0000   1.0000   1.0000   1.0000
     1.0000   1.0000   1.0000   1.0000   1.0000   1.0000   1.0000   1.0000
     1.0000   1.0000   1.0000   1.0000   1.0000   1.0000   1.0000   1.0000
     1.0000   1.0000   1.0000   1.0000   1.0000   1.0000   1.0000   1.0000
     1.0000   1.0000   1.0000   1.0000   1.0000   1.0000   1.0000   1.0000
     1.0000   1.0000   1.0000   1.0000   1.0000   1.0000   1.0000   1.0000
     1.0000   1.0000   1.0000   1.0000   1.0000   1.0000   1.0000   1.0000
     1.0000   1.0000   1.0000   1.0000   1.0000   1.0000   0.7246   0.2754
    -0.0000  -0.0000  -0.0000  -0.0000  -0.0000  -0.0000  -0.0000  -0.0000
    -0.0000  -0.0000  -0.0000  -0.0000  -0.0000  -0.0000  -0.0000  -0.0000

     the Fermi energy is    11.0381 ev

!    total energy              =   -1670.38213276 Ry
     estimated scf accuracy    <       0.00000054 Ry
     smearing contrib. (-TS)   =      -0.00044247 Ry
     internal energy E=F+TS    =   -1670.38169029 Ry

     The total energy is F=E-TS. E is the sum of the following terms:
     one-electron contribution =    -640.06648599 Ry
     hartree contribution      =     413.37416534 Ry
     xc contribution           =    -262.56711817 Ry
     ewald contribution        =   -1066.87264787 Ry
     one-center paw contrib.   =    -114.24960360 Ry
      -> PAW hartree energy AE =     349.82540516 Ry
      -> PAW hartree energy PS =    -348.56535797 Ry
      -> PAW xc energy AE      =    -205.14062654 Ry
      -> PAW xc energy PS      =      89.63097575 Ry
      -> total E_H with PAW    =     414.63421253 Ry
      -> total E_XC with PAW   =    -378.07676897 Ry

     convergence has been achieved in  25 iterations

     negative rho (up, down):  8.988E-02 0.000E+00

     Forces acting on atoms (cartesian axes, Ry/au):

     atom    1 type  1   force =     0.01079834    0.00949086    0.00006166
     atom    2 type  1   force =     0.01084107   -0.00964929   -0.00007867
     atom    3 type  2   force =    -0.01248463    0.02292507    0.00008398
     atom    4 type  2   force =    -0.01239203   -0.02273127   -0.00007111
     atom    5 type  3   force =     0.00114286   -0.01193133    0.00154839
     atom    6 type  3   force =     0.00101890    0.01196393    0.00195266
     atom    7 type  3   force =     0.00115667   -0.01198708   -0.00152488
     atom    8 type  3   force =     0.00102774    0.01191642   -0.00193982
     atom    9 type  4   force =     0.00272905   -0.01678378    0.01994785
     atom   10 type  4   force =    -0.01017548    0.00089447   -0.01992967
     atom   11 type  4   force =    -0.00967308   -0.00105346    0.01971423
     atom   12 type  4   force =     0.00320648    0.01690334   -0.01994972
     atom   13 type  4   force =    -0.00971834   -0.00099383   -0.01968250
     atom   14 type  4   force =     0.00319902    0.01687318    0.01995530
     atom   15 type  4   force =     0.00269646   -0.01671902   -0.01997604
     atom   16 type  4   force =    -0.01018333    0.00086112    0.01989840
     atom   17 type  4   force =    -0.00719542   -0.01917100   -0.00007314
     atom   18 type  4   force =     0.02077538    0.00213398   -0.00000405
     atom   19 type  4   force =     0.02071111   -0.00231075    0.00006479
     atom   20 type  4   force =    -0.00748075    0.01936847    0.00000234
     The non-local contrib.  to forces
     atom    1 type  1   force =     0.01339897    0.00315475    0.00005744
     atom    2 type  1   force =     0.01333641   -0.00317220   -0.00006383
     atom    3 type  2   force =    -0.01079599    0.00576992    0.00005901
     atom    4 type  2   force =    -0.01087666   -0.00567645   -0.00005610
     atom    5 type  3   force =    -0.02501214    0.01805118    0.00176079
     atom    6 type  3   force =    -0.02483808   -0.01802377    0.00128669
     atom    7 type  3   force =    -0.02502609    0.01806956   -0.00179372
     atom    8 type  3   force =    -0.02482942   -0.01801363   -0.00127503
     atom    9 type  4   force =    -0.14312668   -0.08454948   -0.13777144
     atom   10 type  4   force =     0.21090772   -0.14508132    0.19178491
     atom   11 type  4   force =     0.21181096    0.14583345   -0.19293675
     atom   12 type  4   force =    -0.14221004    0.08386359    0.13800383
     atom   13 type  4   force =     0.21186016    0.14576321    0.19288735
     atom   14 type  4   force =    -0.14214156    0.08389206   -0.13817509
     atom   15 type  4   force =    -0.14303778   -0.08467064    0.13784843
     atom   16 type  4   force =     0.21091745   -0.14512743   -0.19175862
     atom   17 type  4   force =     0.26473452    0.11038574    0.00001966
     atom   18 type  4   force =    -0.40306767   -0.00112444   -0.00002981
     atom   19 type  4   force =    -0.40269502    0.00173106   -0.00002617
     atom   20 type  4   force =     0.26429098   -0.11044987    0.00010597
     The ionic contribution  to forces
     atom    1 type  1   force =    -0.79534340   -2.14081947   -0.00028934
     atom    2 type  1   force =    -0.79084043    2.13511065    0.00016811
     atom    3 type  2   force =     1.16298175   -3.23134402    0.00029006
     atom    4 type  2   force =     1.17185117    3.23574054   -0.00064073
     atom    5 type  3   force =    -0.26705313    0.88335304   -0.38552394
     atom    6 type  3   force =    -0.26743586   -0.87976901   -0.36612990
     atom    7 type  3   force =    -0.26719676    0.88136768    0.38556899
     atom    8 type  3   force =    -0.26734734   -0.88207510    0.36684343
     atom    9 type  4   force =     1.91944994    0.88219512    1.41185894
     atom   10 type  4   force =    -2.06169167    1.18678901   -1.42472638
     atom   11 type  4   force =    -2.04645895   -1.20464629    1.43606278
     atom   12 type  4   force =     1.93064323   -0.86490817   -1.41435233
     atom   13 type  4   force =    -2.04952599   -1.20207227   -1.43606097
     atom   14 type  4   force =     1.92991236   -0.86614772    1.41523162
     atom   15 type  4   force =     1.91683074    0.88557548   -1.41239902
     atom   16 type  4   force =    -2.06249861    1.18641990    1.42518586
     atom   17 type  4   force =    -3.01319382   -0.04983169   -0.00288654
     atom   18 type  4   force =     3.44111238    0.71640935    0.00091708
     atom   19 type  4   force =     3.43248529   -0.72422275    0.00240978
     atom   20 type  4   force =    -3.01668089    0.05287573   -0.00152751
     The local contribution  to forces
     atom    1 type  1   force =     0.79288992    2.14691612    0.00071741
     atom    2 type  1   force =     0.78854701   -2.14154802   -0.00064241
     atom    3 type  2   force =    -1.16583006    3.24963315    0.00024091
     atom    4 type  2   force =    -1.17463542   -3.25362891    0.00017423
     atom    5 type  3   force =     0.29190010   -0.91185700    0.38583503
     atom    6 type  3   force =     0.29189979    0.90817912    0.36700184
     atom    7 type  3   force =     0.29201619   -0.90986985   -0.38581988
     atom    8 type  3   force =     0.29172670    0.91048825   -0.36773208
     atom    9 type  4   force =    -1.77514221   -0.81618783   -1.25613002
     atom   10 type  4   force =     1.84330512   -1.04246758    1.21574370
     atom   11 type  4   force =     1.82718058    1.05993585   -1.22621667
     atom   12 type  4   force =    -1.78727244    0.79908252    1.25849529
     atom   13 type  4   force =     1.83011213    1.05750006    1.22611169
     atom   14 type  4   force =    -1.78667645    0.80037147   -1.25939987
     atom   15 type  4   force =    -1.77271288   -0.81940035    1.25677503
     atom   16 type  4   force =     1.84405705   -1.04200355   -1.21607740
     atom   17 type  4   force =     2.74492137   -0.07818719    0.00326741
     atom   18 type  4   force =    -3.02227514   -0.71237356   -0.00045406
     atom   19 type  4   force =    -3.01393930    0.71945374   -0.00279114
     atom   20 type  4   force =     2.74879120    0.07541819    0.00098242
     The core correction contribution to forces
     atom    1 type  1   force =    -0.00026145    0.00019029   -0.00000025
     atom    2 type  1   force =    -0.00025928   -0.00018775   -0.00000020
     atom    3 type  2   force =     0.00126805   -0.00096972    0.00000044
     atom    4 type  2   force =     0.00127515    0.00096327    0.00000040
     atom    5 type  3   force =     0.00144305   -0.00141649   -0.00018507
     atom    6 type  3   force =     0.00143564    0.00141591   -0.00016526
     atom    7 type  3   force =     0.00144408   -0.00141682    0.00018714
     atom    8 type  3   force =     0.00143441    0.00141602    0.00016554
     atom    9 type  4   force =     0.00182858    0.00144296    0.00212123
     atom   10 type  4   force =    -0.00239629    0.00187782   -0.00265286
     atom   11 type  4   force =    -0.00241245   -0.00188241    0.00266558
     atom   12 type  4   force =     0.00181647   -0.00143696   -0.00212341
     atom   13 type  4   force =    -0.00241200   -0.00188228   -0.00266455
     atom   14 type  4   force =     0.00181583   -0.00143709    0.00212578
     atom   15 type  4   force =     0.00182838    0.00144342   -0.00212228
     atom   16 type  4   force =    -0.00239605    0.00187843    0.00265186
     atom   17 type  4   force =    -0.00379694   -0.00158279    0.00000042
     atom   18 type  4   force =     0.00495191   -0.00073079   -0.00000028
     atom   19 type  4   force =     0.00495005    0.00072546   -0.00000022
     atom   20 type  4   force =    -0.00378759    0.00158314   -0.00000044
     The Hubbard contrib.    to forces
     atom    1 type  1   force =     0.00000000    0.00000000    0.00000000
     atom    2 type  1   force =     0.00000000    0.00000000    0.00000000
     atom    3 type  2   force =     0.00000000    0.00000000    0.00000000
     atom    4 type  2   force =     0.00000000    0.00000000    0.00000000
     atom    5 type  3   force =     0.00000000    0.00000000    0.00000000
     atom    6 type  3   force =     0.00000000    0.00000000    0.00000000
     atom    7 type  3   force =     0.00000000    0.00000000    0.00000000
     atom    8 type  3   force =     0.00000000    0.00000000    0.00000000
     atom    9 type  4   force =     0.00000000    0.00000000    0.00000000
     atom   10 type  4   force =     0.00000000    0.00000000    0.00000000
     atom   11 type  4   force =     0.00000000    0.00000000    0.00000000
     atom   12 type  4   force =     0.00000000    0.00000000    0.00000000
     atom   13 type  4   force =     0.00000000    0.00000000    0.00000000
     atom   14 type  4   force =     0.00000000    0.00000000    0.00000000
     atom   15 type  4   force =     0.00000000    0.00000000    0.00000000
     atom   16 type  4   force =     0.00000000    0.00000000    0.00000000
     atom   17 type  4   force =     0.00000000    0.00000000    0.00000000
     atom   18 type  4   force =     0.00000000    0.00000000    0.00000000
     atom   19 type  4   force =     0.00000000    0.00000000    0.00000000
     atom   20 type  4   force =     0.00000000    0.00000000    0.00000000
     The SCF correction term to forces
     atom    1 type  1   force =     0.00011678    0.00004932   -0.00042360
     atom    2 type  1   force =     0.00005983    0.00014818    0.00045965
     atom    3 type  2   force =    -0.00010590   -0.00016412   -0.00050644
     atom    4 type  2   force =    -0.00000380   -0.00012958    0.00045108
     atom    5 type  3   force =    -0.00013254   -0.00006191   -0.00033844
     atom    6 type  3   force =    -0.00004014    0.00016184   -0.00004073
     atom    7 type  3   force =    -0.00007828   -0.00013751    0.00033258
     atom    8 type  3   force =     0.00004587    0.00010102    0.00005831
     atom    9 type  4   force =    -0.00027811    0.00031560   -0.00013087
     atom   10 type  4   force =    -0.00029789   -0.00022331   -0.00007905
     atom   11 type  4   force =     0.00020925   -0.00029390    0.00013929
     atom   12 type  4   force =     0.00023172    0.00030251    0.00002688
     atom   13 type  4   force =     0.00024982   -0.00030241    0.00004397
     atom   14 type  4   force =     0.00029131    0.00019461    0.00017285
     atom   15 type  4   force =    -0.00020953    0.00033323   -0.00007821
     atom   16 type  4   force =    -0.00026071   -0.00030609   -0.00010331
     atom   17 type  4   force =     0.00014192    0.00004509   -0.00047411
     atom   18 type  4   force =     0.00005637   -0.00004642   -0.00043699
     atom   19 type  4   force =    -0.00008744    0.00000188    0.00047253
     atom   20 type  4   force =    -0.00009198   -0.00005858    0.00044190

     Total force =     0.093842     Total SCF correction =     0.001850

     Computing stress (Cartesian axis) and pressure

     negative rho (up, down):  8.988E-02 0.000E+00
          total   stress  (Ry/bohr**3)                   (kbar)     P=     -549.62
  -0.00355871  -0.00000446   0.00000006         -523.50       -0.66        0.01
  -0.00000446  -0.00364820  -0.00000018           -0.66     -536.67       -0.03
   0.00000006  -0.00000018  -0.00400175            0.01       -0.03     -588.68

     kinetic stress (kbar)  29716.35     -0.64     -0.02
                               -0.64  29609.90     -0.04
                               -0.02     -0.04  29454.87

     local   stress (kbar) -13016.13     14.41     -1.72
                               14.41 -12762.02      0.63
                               -1.72      0.63 -14776.60

     nonloc. stress (kbar)  11984.07     -0.26     -0.03
                               -0.26  11893.09     -0.04
                               -0.03     -0.04  11940.22

     hartree stress (kbar)  13049.15     -5.53      0.60
                               -5.53  13028.26     -0.19
                                0.60     -0.19  13911.89

     exc-cor stress (kbar)  -2904.51     -0.02      0.00
                               -0.02  -2905.20     -0.00
                                0.00     -0.00  -2904.49

     corecor stress (kbar)  -4588.27      0.00      0.00
                                0.00  -4585.53      0.00
                                0.00      0.00  -4586.00

     ewald   stress (kbar) -34764.17     -8.63      1.17
                               -8.63 -34815.17     -0.38
                                1.17     -0.38 -33628.57

     hubbard stress (kbar)      0.00      0.00      0.00
                                0.00      0.00      0.00
                                0.00      0.00      0.00

     DFT-D   stress (kbar)      0.00      0.00      0.00
                                0.00      0.00      0.00
                                0.00      0.00      0.00

     XDM     stress (kbar)      0.00      0.00      0.00
                                0.00      0.00      0.00
                                0.00      0.00      0.00

     dft-nl  stress (kbar)      0.00      0.00      0.00
                                0.00      0.00      0.00
                                0.00      0.00      0.00

     TS-vdW  stress (kbar)      0.00      0.00      0.00
                                0.00      0.00      0.00
                                0.00      0.00      0.00

[...]

                                0.00      0.00      0.00

     Writing all to output data dir new_calculations/myprefix.save/

     General routines

     Parallel routines

     PAW routines

   This run was terminated on:  15:19: 2  20May2023

   JOB DONE.