     Program PWSCF v.7.0 starts on 20May2023 at 22:50:39

     Reading input from espresso_16658.pwi
Warning: card &CELL ignored
Warning: card / ignored

     Current dimensions of program PWSCF are:
     Max number of different atomic species (ntypx) = 10
     Max number of k-points (npk) =  40000
     Max angular momentum in pseudopotentials (lmaxx) =  4

     gamma-point specific algorithms are used
     Message from routine setup:
     using ibrav=0 with symmetry is DISCOURAGED, use correct ibrav instead

     Subspace diagonalization in iterative solution of the eigenvalue problem:
     a serial algorithm will be used

     Using Slab Decomposition

     bravais-lattice index     =            0
     lattice parameter (alat)  =      10.8305  a.u.
     unit-cell volume          =     883.1416 (a.u.)^3
     number of atoms/cell      =            8
     number of atomic types    =            3
     number of electrons       =        71.00
     number of Kohn-Sham states=           43
     kinetic-energy cutoff     =      30.0000  Ry
     charge density cutoff     =     240.0000  Ry
     scf convergence threshold =      1.0E-06
     mixing beta               =       0.7000
     number of iterations used =            8  plain     mixing
     Exchange-correlation=  SLA  PW   PBX  PBC
                           (   1   4   3   4   0   0   0)

     celldm(1)=  10.830545  celldm(2)=   0.000000  celldm(3)=   0.000000
     celldm(4)=   0.000000  celldm(5)=   0.000000  celldm(6)=   0.000000

     crystal axes: (cart. coord. in units of alat)
               a(1) = (   1.000000   0.000000   0.000000 )
               a(2) = (   0.511178   0.859475   0.000000 )
               a(3) = (   0.511178   0.290730   0.808810 )

     reciprocal axes: (cart. coord. in units 2 pi/alat)
               b(1) = (  1.000000 -0.594757 -0.418225 )
               b(2) = (  0.000000  1.163501 -0.418225 )
               b(3) = (  0.000000  0.000000  1.236385 )

     PseudoPot. # 1 for Zr read from file:
     /home/pragov/projects/rrg-bengioy-ad/pragov/crystal_structure_design/SSSP/Zr_pbe_v1.uspp.F.UPF
     MD5 check sum: 5db81b1e868ab7776c4564c113de050b
     Pseudo is Ultrasoft + core correction, Zval = 12.0
     Generated by new atomic code, or converted to UPF format
     Using radial grid of  887 points,  6 beta functions with:
                l(1) =   0
                l(2) =   0
                l(3) =   1
                l(4) =   1
                l(5) =   2
                l(6) =   2
     Q(r) pseudized with  6 coefficients,  rinner =    1.200   1.200   1.200
                                                       1.200   1.200

     PseudoPot. # 2 for Co read from file:
     /home/pragov/projects/rrg-bengioy-ad/pragov/crystal_structure_design/SSSP/Co_pbe_v1.2.uspp.F.UPF
     MD5 check sum: 5f91765df6ddd3222702df6e7b74a16d
     Pseudo is Ultrasoft + core correction, Zval = 17.0
     Generated by new atomic code, or converted to UPF format
     Using radial grid of  863 points,  6 beta functions with:
                l(1) =   0
                l(2) =   0
                l(3) =   1
                l(4) =   1
                l(5) =   2
                l(6) =   2
     Q(r) pseudized with  8 coefficients,  rinner =    1.200   1.200   1.200
                                                       1.200   1.200

     PseudoPot. # 3 for F  read from file:
     /home/pragov/projects/rrg-bengioy-ad/pragov/crystal_structure_design/SSSP/f_pbe_v1.4.uspp.F.UPF
     MD5 check sum: 4c38b6a325caf53ec0e86aed9459de46
     Pseudo is Ultrasoft, Zval =  7.0
     Generated by new atomic code, or converted to UPF format
     Using radial grid of  799 points,  4 beta functions with:
                l(1) =   0
                l(2) =   0
                l(3) =   1
                l(4) =   1
     Q(r) pseudized with  8 coefficients,  rinner =    0.950   0.950   0.950

     atomic species   valence    mass     pseudopotential
        Zr            12.00    91.22400     Zr( 1.00)
        Co            17.00    58.93319     Co( 1.00)
        F              7.00    18.99840     F ( 1.00)

      2 Sym. Ops., with inversion, found

                                    s                        frac. trans.

      isym =  1     identity

 cryst.   s( 1) = (     1          0          0      )
                  (     0          1          0      )
                  (     0          0          1      )

 cart.    s( 1) = (  1.0000000  0.0000000 -0.0000000 )
                  (  0.0000000  1.0000000 -0.0000000 )
                  (  0.0000000  0.0000000  1.0000000 )

      isym =  2     inversion

 cryst.   s( 2) = (    -1          0          0      )
                  (     0         -1          0      )
                  (     0          0         -1      )

 cart.    s( 2) = ( -1.0000000 -0.0000000  0.0000000 )
                  (  0.0000000 -1.0000000  0.0000000 )
                  (  0.0000000  0.0000000 -1.0000000 )

   Cartesian axes

     site n.     atom                  positions (alat units)
         1           Zr  tau(   1) = (   1.0111782   0.5751023   0.4044048  )
         2           Co  tau(   2) = (   0.0000000   0.0000000   0.0000000  )
         3           F   tau(   3) = (   1.0173594   0.8285476   0.6549489  )
         4           F   tau(   4) = (   1.2906645   0.4160678   0.5581594  )
         5           F   tau(   5) = (   0.7901887   0.3813546   0.6060741  )
         6           F   tau(   6) = (   0.7316919   0.7341369   0.2506501  )
         7           F   tau(   7) = (   1.0049971   0.3216571   0.1538606  )
         8           F   tau(   8) = (   1.2321677   0.7688501   0.2027354  )

   Crystallographic axes

     site n.     atom                  positions (cryst. coord.)
         1           Zr  tau(   1) = (  0.5000000  0.5000000  0.5000000  )
         2           Co  tau(   2) = (  0.0000000  0.0000000  0.0000000  )
         3           F   tau(   3) = (  0.2506590  0.6901000  0.8097690  )
         4           F   tau(   4) = (  0.8097690  0.2506590  0.6901000  )
         5           F   tau(   5) = (  0.3099000  0.1902310  0.7493410  )
         6           F   tau(   6) = (  0.1902310  0.7493410  0.3099000  )
         7           F   tau(   7) = (  0.7493410  0.3099000  0.1902310  )
         8           F   tau(   8) = (  0.6901000  0.8097690  0.2506590  )

     number of k points=     1  Methfessel-Paxton smearing, width (Ry)=  0.0010
                       cart. coord. in units 2pi/alat
        k(    1) = (   0.0000000   0.0000000   0.0000000), wk =   2.0000000

                       cryst. coord.
        k(    1) = (   0.0000000   0.0000000   0.0000000), wk =   2.0000000

     Check: negative core charge=   -0.000007

     Initial potential from superposition of free atoms

     starting charge      69.9978, renormalised to      71.0000

     negative rho (up, down):  6.279E-02 0.000E+00
     Starting wfcs are   50 randomized atomic wfcs

     Self-consistent Calculation

     iteration #  1     ecut=    30.00 Ry     beta= 0.70
     Davidson diagonalization with overlap

     ethr =  1.00E-02,  avg # of iterations =  2.0

     negative rho (up, down):  6.468E-02 0.000E+00

     total energy              =    -689.30682709 Ry
     estimated scf accuracy    <       1.14236459 Ry

[...]

     total energy              =    -689.84766924 Ry
     estimated scf accuracy    <       0.00001025 Ry

     iteration # 24     ecut=    30.00 Ry     beta= 0.70
     Davidson diagonalization with overlap

     ethr =  4.52E-09,  avg # of iterations =  1.0

[...]

     End of self-consistent calculation

          k = 0.0000 0.0000 0.0000 (  1223 PWs)   bands (ev):

   -91.8187 -55.0653 -55.0652 -55.0544 -46.2955 -24.7290 -24.7290 -24.7243
   -19.9883 -19.7247 -19.7247 -19.0377 -19.0376 -19.0328  -3.4074  -3.1265
    -3.1264  -2.1460  -2.1460  -2.1349  -1.8296  -1.8296  -1.7784  -0.5196
    -0.4657  -0.4657  -0.4352  -0.4134  -0.4134  -0.0736   0.0182   0.0182
     2.4795   2.4795   2.4862   3.3420   3.3420   6.8801   6.8850   6.8850
     7.5129  10.5710  10.5710

     occupation numbers
     1.0000   1.0000   1.0000   1.0000   1.0000   1.0000   1.0000   1.0000
     1.0000   1.0000   1.0000   1.0000   1.0000   1.0000   1.0000   1.0000
     1.0000   1.0000   1.0000   1.0000   1.0000   1.0000   1.0000   1.0000
     1.0000   1.0000   1.0000   1.0000   1.0000   1.0000   1.0000   1.0000
     1.0000   1.0000   1.0000   0.2500   0.2500  -0.0000  -0.0000  -0.0000
    -0.0000  -0.0000  -0.0000

     the Fermi energy is     3.3378 ev

!    total energy              =    -689.84766985 Ry
     estimated scf accuracy    <          8.7E-10 Ry
     smearing contrib. (-TS)   =      -0.00041261 Ry
     internal energy E=F+TS    =    -689.84725723 Ry

     The total energy is F=E-TS. E is the sum of the following terms:
     one-electron contribution =    -547.18531987 Ry
     hartree contribution      =     300.73674781 Ry
     xc contribution           =    -106.37834108 Ry
     ewald contribution        =    -337.02034410 Ry

     convergence has been achieved in  24 iterations

     negative rho (up, down):  6.685E-02 0.000E+00

     Forces acting on atoms (cartesian axes, Ry/au):

     atom    1 type  1   force =     0.00000000    0.00000000    0.00000000
     atom    2 type  2   force =     0.00000000    0.00000000    0.00000000
     atom    3 type  3   force =     0.00006965    0.01191201    0.00778392
     atom    4 type  3   force =     0.00979037   -0.00574186    0.00857160
     atom    5 type  3   force =    -0.01026643   -0.00528327    0.00830102
     atom    6 type  3   force =    -0.00979037    0.00574186   -0.00857160
     atom    7 type  3   force =    -0.00006965   -0.01191201   -0.00778392
     atom    8 type  3   force =     0.01026643    0.00528327   -0.00830102
     The non-local contrib.  to forces
     atom    1 type  1   force =     0.00000000    0.00000000    0.00000000
     atom    2 type  2   force =     0.00000000    0.00000000    0.00000000
     atom    3 type  3   force =    -0.01460854   -0.04544532   -0.43373213
     atom    4 type  3   force =    -0.37149482    0.20394936    0.10394113
     atom    5 type  3   force =     0.04654321    0.40455624   -0.15677418
     atom    6 type  3   force =     0.37149482   -0.20394936   -0.10394113
     atom    7 type  3   force =     0.01460854    0.04544532    0.43373213
     atom    8 type  3   force =    -0.04654321   -0.40455624    0.15677418
     The ionic contribution  to forces
     atom    1 type  1   force =    -0.00000000   -0.00000000   -0.00000000
     atom    2 type  2   force =    -0.00000000   -0.00000000   -0.00000000
     atom    3 type  3   force =    -0.07799222   -5.04059210    1.06039592
     atom    4 type  3   force =    -0.64766111    0.29445744   -5.10214926
     atom    5 type  3   force =     4.37212896   -1.84679794   -2.00297525
     atom    6 type  3   force =     0.64766111   -0.29445744    5.10214926
     atom    7 type  3   force =     0.07799222    5.04059210   -1.06039592
     atom    8 type  3   force =    -4.37212896    1.84679794    2.00297525
     The local contribution  to forces
     atom    1 type  1   force =    -0.00000044    0.00000037   -0.00000027
     atom    2 type  2   force =     0.00000070   -0.00000027    0.00000083
     atom    3 type  3   force =     0.09266992    5.09794025   -0.61888527
     atom    4 type  3   force =     1.02894638   -0.50414745    5.00677997
     atom    5 type  3   force =    -4.42894368    1.43695679    2.16805429
     atom    6 type  3   force =    -1.02894617    0.50414752   -5.00677963
     atom    7 type  3   force =    -0.09266995   -5.09794037    0.61888518
     atom    8 type  3   force =     4.42894352   -1.43695682   -2.16805428
     The core correction contribution to forces
     atom    1 type  1   force =    -0.00000000    0.00000001   -0.00000001
     atom    2 type  2   force =     0.00000001   -0.00000001    0.00000001
     atom    3 type  3   force =     0.00000000    0.00000000    0.00000000
     atom    4 type  3   force =     0.00000000    0.00000000    0.00000000
     atom    5 type  3   force =     0.00000000    0.00000000    0.00000000
     atom    6 type  3   force =     0.00000000    0.00000000    0.00000000
     atom    7 type  3   force =     0.00000000    0.00000000    0.00000000
     atom    8 type  3   force =     0.00000000    0.00000000    0.00000000
     The Hubbard contrib.    to forces
     atom    1 type  1   force =     0.00000000    0.00000000    0.00000000
     atom    2 type  2   force =     0.00000000    0.00000000    0.00000000
     atom    3 type  3   force =     0.00000000    0.00000000    0.00000000
     atom    4 type  3   force =     0.00000000    0.00000000    0.00000000
     atom    5 type  3   force =     0.00000000    0.00000000    0.00000000
     atom    6 type  3   force =     0.00000000    0.00000000    0.00000000
     atom    7 type  3   force =     0.00000000    0.00000000    0.00000000
     atom    8 type  3   force =     0.00000000    0.00000000    0.00000000
     The SCF correction term to forces
     atom    1 type  1   force =     0.00000044   -0.00000031    0.00000027
     atom    2 type  2   force =    -0.00000041   -0.00000040   -0.00000029
     atom    3 type  3   force =     0.00000055    0.00000924    0.00000546
     atom    4 type  3   force =    -0.00000018   -0.00000116   -0.00000048
     atom    5 type  3   force =     0.00000517    0.00000162   -0.00000387
     atom    6 type  3   force =    -0.00000024    0.00000119   -0.00000033
     atom    7 type  3   force =    -0.00000040   -0.00000902   -0.00000525
     atom    8 type  3   force =    -0.00000480   -0.00000164    0.00000380

     Total force =     0.034843     Total SCF correction =     0.000018

     Computing stress (Cartesian axis) and pressure

     negative rho (up, down):  6.685E-02 0.000E+00
          total   stress  (Ry/bohr**3)                   (kbar)     P=     -206.73
  -0.00138617   0.00002153   0.00001518         -203.91        3.17        2.23
   0.00002153  -0.00141175   0.00000865            3.17     -207.68        1.27
   0.00001518   0.00000865  -0.00141797            2.23        1.27     -208.59

     kinetic stress (kbar)  19672.01      6.28      4.40
                                6.28  19664.51      2.50
                                4.40      2.50  19662.73

     local   stress (kbar) -18358.42   -103.29    -72.57
                             -103.29 -18235.44    -41.24
                              -72.57    -41.24 -18205.84

     nonloc. stress (kbar)   5901.50      2.20      1.53
                                2.20   5898.85      0.86
                                1.53      0.86   5898.24

     hartree stress (kbar)  16740.55     47.93     33.68
                               47.93  16683.49     19.14
                               33.68     19.14  16669.75

     exc-cor stress (kbar)  -4065.56     -0.04     -0.03
                               -0.04  -4065.51     -0.02
                               -0.03     -0.02  -4065.50

     corecor stress (kbar)  -1426.00     -0.00     -0.00
                               -0.00  -1425.99     -0.00
                               -0.00     -0.00  -1425.99

     ewald   stress (kbar) -18667.99     50.09     35.23
                               50.09 -18727.58     20.03
                               35.23     20.03 -18741.98

     hubbard stress (kbar)      0.00      0.00      0.00
                                0.00      0.00      0.00
                                0.00      0.00      0.00

     DFT-D   stress (kbar)      0.00      0.00      0.00
                                0.00      0.00      0.00
                                0.00      0.00      0.00

     XDM     stress (kbar)      0.00      0.00      0.00
                                0.00      0.00      0.00
                                0.00      0.00      0.00

     dft-nl  stress (kbar)      0.00      0.00      0.00
                                0.00      0.00      0.00
                                0.00      0.00      0.00

     TS-vdW  stress (kbar)      0.00      0.00      0.00
                                0.00      0.00      0.00
                                0.00      0.00      0.00

[...]

                                0.00      0.00      0.00

     Writing all to output data dir new_calculations/myprefix.save/

     General routines

     Parallel routines

   This run was terminated on:  22:51:22  20May2023

   JOB DONE.