     Program PWSCF v.7.0 starts on 21May2023 at 20:13:46

     Reading input from espresso_23896.pwi
Warning: card &CELL ignored
Warning: card / ignored

     Current dimensions of program PWSCF are:
     Max number of different atomic species (ntypx) = 10
     Max number of k-points (npk) =  40000
     Max angular momentum in pseudopotentials (lmaxx) =  4

     gamma-point specific algorithms are used
     Message from routine setup:
     using ibrav=0 with symmetry is DISCOURAGED, use correct ibrav instead

     Subspace diagonalization in iterative solution of the eigenvalue problem:
     a serial algorithm will be used

     Using Slab Decomposition

     bravais-lattice index     =            0
     lattice parameter (alat)  =       8.7410  a.u.
     unit-cell volume          =    1420.6238 (a.u.)^3
     number of atoms/cell      =            7
     number of atomic types    =            3
     number of electrons       =       104.00
     number of Kohn-Sham states=           62
     kinetic-energy cutoff     =      30.0000  Ry
     charge density cutoff     =     240.0000  Ry
     scf convergence threshold =      1.0E-06
     mixing beta               =       0.7000
     number of iterations used =            8  plain     mixing
     Exchange-correlation= SLA  PW   PBE  PBE
                           (   1   4   3   4   0   0   0)

     celldm(1)=   8.741009  celldm(2)=   0.000000  celldm(3)=   0.000000
     celldm(4)=   0.000000  celldm(5)=   0.000000  celldm(6)=   0.000000

     crystal axes: (cart. coord. in units of alat)
               a(1) = (   1.000000   0.000000   0.000000 )
               a(2) = (   0.000000   1.000000   0.000000 )
               a(3) = (   0.000000   0.000000   2.127131 )

     reciprocal axes: (cart. coord. in units 2 pi/alat)
               b(1) = (  1.000000  0.000000  0.000000 )
               b(2) = (  0.000000  1.000000  0.000000 )
               b(3) = (  0.000000  0.000000  0.470117 )

     PseudoPot. # 1 for Ce read from file:
     /home/pragov/projects/rrg-bengioy-ad/pragov/crystal_structure_design/SSSP/Ce.GGA-PBE-paw-v1.0.UPF
     MD5 check sum: f2b950f613061344c13339c8d844425d
     Pseudo is Projector augmented-wave + core cor, Zval = 12.0
     Generated using ATOMPAW code
     Shape of augmentation charge: BESSEL
     Using radial grid of 1102 points,  8 beta functions with:
                l(1) =   0
                l(2) =   0
                l(3) =   1
                l(4) =   1
                l(5) =   2
                l(6) =   2
                l(7) =   3
                l(8) =   3
     Q(r) pseudized with 0 coefficients

     PseudoPot. # 2 for Zn read from file:
     /home/pragov/projects/rrg-bengioy-ad/pragov/crystal_structure_design/SSSP/Zn_pbe_v1.uspp.F.UPF
     MD5 check sum: df62231357ef9e81f77b2b3087fa5675
     Pseudo is Ultrasoft, Zval = 20.0
     Generated by new atomic code, or converted to UPF format
     Using radial grid of  943 points,  6 beta functions with:
                l(1) =   0
                l(2) =   0
                l(3) =   1
                l(4) =   1
                l(5) =   2
                l(6) =   2
     Q(r) pseudized with  8 coefficients,  rinner =    1.100   1.100   1.100
                                                       1.100   1.100

     PseudoPot. # 3 for Bi read from file:
     /home/pragov/projects/rrg-bengioy-ad/pragov/crystal_structure_design/SSSP/Bi_pbe_v1.uspp.F.UPF
     MD5 check sum: cceb9f28ec65b6d7ff33140f5b0b1758
     Pseudo is Ultrasoft + core correction, Zval = 15.0
     Generated by new atomic code, or converted to UPF format
     Using radial grid of  899 points,  6 beta functions with:
                l(1) =   0
                l(2) =   0
                l(3) =   1
                l(4) =   1
                l(5) =   2
                l(6) =   2
     Q(r) pseudized with  6 coefficients,  rinner =    1.000   1.000   1.000
                                                       1.000   1.000

     atomic species   valence    mass     pseudopotential
        Ce            12.00   140.11600     Ce( 1.00)
        Zn            20.00    65.38000     Zn( 1.00)
        Bi            15.00   208.98040     Bi( 1.00)

      8 Sym. Ops. (no inversion) found

                                    s                        frac. trans.

      isym =  1     identity

 cryst.   s( 1) = (     1          0          0      )
                  (     0          1          0      )
                  (     0          0          1      )

 cart.    s( 1) = (  1.0000000  0.0000000  0.0000000 )
                  (  0.0000000  1.0000000  0.0000000 )
                  (  0.0000000  0.0000000  1.0000000 )

      isym =  2     180 deg rotation - cart. axis [0,0,1]

[...]

      isym =  4     180 deg rotation - cart. axis [1,-1,0]

[...]

      isym =  5     inv. 180 deg rotation - cart. axis [0,1,0]

[...]

      isym =  8     inv.  90 deg rotation - cart. axis [0,0,1]

 cryst.   s( 8) = (     0         -1          0      )
                  (     1          0          0      )
                  (     0          0         -1      )

 cart.    s( 8) = (  0.0000000  1.0000000  0.0000000 )
                  ( -1.0000000  0.0000000  0.0000000 )
                  (  0.0000000  0.0000000 -1.0000000 )

   Cartesian axes

     site n.     atom                  positions (alat units)
         1           Ce  tau(   1) = (   0.5000000   0.0000000   1.5706611  )
         2           Ce  tau(   2) = (   0.0000000   0.5000000   0.5564704  )
         3           Zn  tau(   3) = (   0.5000000   0.5000000   1.0635657  )
         4           Bi  tau(   4) = (   0.5000000   0.0000000   0.7122359  )
         5           Bi  tau(   5) = (   0.0000000   0.5000000   1.4148955  )
         6           Bi  tau(   6) = (   0.5000000   0.5000000   0.0000000  )
         7           Bi  tau(   7) = (   0.0000000   0.0000000   0.0000000  )

   Crystallographic axes

     site n.     atom                  positions (cryst. coord.)
         1           Ce  tau(   1) = (  0.5000000  0.0000000  0.7383940  )
         2           Ce  tau(   2) = (  0.0000000  0.5000000  0.2616060  )
         3           Zn  tau(   3) = (  0.5000000  0.5000000  0.5000000  )
         4           Bi  tau(   4) = (  0.5000000  0.0000000  0.3348340  )
         5           Bi  tau(   5) = (  0.0000000  0.5000000  0.6651660  )
         6           Bi  tau(   6) = (  0.5000000  0.5000000  0.0000000  )
         7           Bi  tau(   7) = (  0.0000000  0.0000000  0.0000000  )

     number of k points=     1  Methfessel-Paxton smearing, width (Ry)=  0.0010
                       cart. coord. in units 2pi/alat
        k(    1) = (   0.0000000   0.0000000   0.0000000), wk =   2.0000000

                       cryst. coord.
        k(    1) = (   0.0000000   0.0000000   0.0000000), wk =   2.0000000

     Check: negative core charge=   -0.000004

     Initial potential from superposition of free atoms

     starting charge      99.9857, renormalised to     104.0000

     negative rho (up, down):  1.759E-01 0.000E+00
     Starting wfcs are  113 randomized atomic wfcs
     Checking if some PAW data can be deallocated...

     Self-consistent Calculation

     iteration #  1     ecut=    30.00 Ry     beta= 0.70
     Davidson diagonalization with overlap

     ethr =  1.00E-02,  avg # of iterations =  5.0

     negative rho (up, down):  1.740E-01 0.000E+00

     total energy              =   -2034.44611313 Ry
     estimated scf accuracy    <     158.64754826 Ry

[...]

     total energy              =   -2166.36866155 Ry
     estimated scf accuracy    <       0.00000136 Ry

     iteration # 39     ecut=    30.00 Ry     beta= 0.70
     Davidson diagonalization with overlap

     ethr =  1.31E-09,  avg # of iterations =  6.0

[...]

     End of self-consistent calculation

          k = 0.0000 0.0000 0.0000 (  1981 PWs)   bands (ev):

  -114.4699 -68.5652 -68.5652 -68.5462 -22.8796 -22.8789 -11.5192 -11.4278
   -11.3058 -11.3033 -11.3033 -11.2382 -11.2005 -11.2005 -11.1388 -11.0952
   -10.4443 -10.4408 -10.3800 -10.3792 -10.3734 -10.3725 -10.2488 -10.2452
   -10.2258 -10.2222  -6.0267  -5.9344  -5.7336  -5.7334  -5.4714  -5.4711
    -0.9407   0.9588   1.2383   2.7286   4.6579   4.6580   4.7031   4.7119
     4.7531   7.9168   8.2409   8.4549   8.4549  10.3161  10.3164  10.3820
    11.5264  11.5267  11.5601  11.9046  12.1041  12.1699  12.1858  12.1859
    12.3930  12.3931  12.4038  12.4151  12.5104  12.5683

     occupation numbers
     1.0000   1.0000   1.0000   1.0000   1.0000   1.0000   1.0000   1.0000
     1.0000   1.0000   1.0000   1.0000   1.0000   1.0000   1.0000   1.0000
     1.0000   1.0000   1.0000   1.0000   1.0000   1.0000   1.0000   1.0000
     1.0000   1.0000   1.0000   1.0000   1.0000   1.0000   1.0000   1.0000
     1.0000   1.0000   1.0000   1.0000   1.0000   1.0000   1.0000   1.0000
     1.0000   1.0000   1.0000   1.0000   1.0000   1.0000   1.0000   1.0000
     1.0000   1.0000   1.0000   1.0000  -0.0000  -0.0000  -0.0000  -0.0000
    -0.0000  -0.0000  -0.0000  -0.0000  -0.0000  -0.0000

     the Fermi energy is    12.0205 ev

!    total energy              =   -2166.36866145 Ry
     estimated scf accuracy    <       0.00000045 Ry
     smearing contrib. (-TS)   =       0.00000000 Ry
     internal energy E=F+TS    =   -2166.36866145 Ry

     The total energy is F=E-TS. E is the sum of the following terms:
     one-electron contribution =    -692.92530289 Ry
     hartree contribution      =     408.52538264 Ry
     xc contribution           =    -321.44988573 Ry
     ewald contribution        =    -743.76643885 Ry
     one-center paw contrib.   =    -816.75241662 Ry
      -> PAW hartree energy AE =      88.87423155 Ry
      -> PAW hartree energy PS =     -88.28190190 Ry
      -> PAW xc energy AE      =    -834.57136918 Ry
      -> PAW xc energy PS      =      17.22662290 Ry
      -> total E_H with PAW    =     409.11771230 Ry
      -> total E_XC with PAW   =   -1138.79463201 Ry

     convergence has been achieved in  39 iterations

     negative rho (up, down):  1.803E-01 0.000E+00

     Forces acting on atoms (cartesian axes, Ry/au):

     atom    1 type  1   force =     0.00000000    0.00000000    0.02039134
     atom    2 type  1   force =     0.00000000    0.00000000   -0.02039134
     atom    3 type  2   force =     0.00000000    0.00000000    0.00000000
     atom    4 type  3   force =     0.00000000    0.00000000    0.01444321
     atom    5 type  3   force =     0.00000000    0.00000000   -0.01444321
     atom    6 type  3   force =     0.00000000    0.00000000    0.00000000
     atom    7 type  3   force =     0.00000000    0.00000000    0.00000000
     The non-local contrib.  to forces
     atom    1 type  1   force =     0.00000000    0.00000000   -0.57226454
     atom    2 type  1   force =     0.00000000    0.00000000    0.57226454
     atom    3 type  2   force =     0.00000000    0.00000000    0.00000000
     atom    4 type  3   force =     0.00000000    0.00000000    0.06036927
     atom    5 type  3   force =     0.00000000    0.00000000   -0.06036927
     atom    6 type  3   force =     0.00000000    0.00000000    0.00000000
     atom    7 type  3   force =     0.00000000    0.00000000    0.00000000
     The ionic contribution  to forces
     atom    1 type  1   force =    -0.00000000    0.00000000    6.90703676
     atom    2 type  1   force =     0.00000000   -0.00000000   -6.90703676
     atom    3 type  2   force =    -0.00000000   -0.00000000   -0.00000000
     atom    4 type  3   force =    -0.00000000    0.00000000  -12.97294007
     atom    5 type  3   force =     0.00000000   -0.00000000   12.97294007
     atom    6 type  3   force =     0.00000000    0.00000000   -0.00000000
     atom    7 type  3   force =    -0.00000000   -0.00000000   -0.00000000
     The local contribution  to forces
     atom    1 type  1   force =     0.00003146   -0.00019727   -6.31408888
     atom    2 type  1   force =     0.00001026    0.00016773    6.31365649
     atom    3 type  2   force =     0.00005388    0.00011213    0.00169085
     atom    4 type  3   force =     0.00000321   -0.00009175   12.92516853
     atom    5 type  3   force =    -0.00005726    0.00009554  -12.92519184
     atom    6 type  3   force =     0.00003915   -0.00002632   -0.00028181
     atom    7 type  3   force =    -0.00005201    0.00003808   -0.00039846
     The core correction contribution to forces
     atom    1 type  1   force =     0.00000001   -0.00000011    0.00046877
     atom    2 type  1   force =     0.00000000    0.00000011   -0.00046899
     atom    3 type  2   force =     0.00000000    0.00000000    0.00000000
     atom    4 type  3   force =     0.00000116   -0.00000101    0.00082438
     atom    5 type  3   force =    -0.00000062    0.00000172   -0.00083309
     atom    6 type  3   force =     0.00000135   -0.00000115    0.00000345
     atom    7 type  3   force =    -0.00000150    0.00000101    0.00000237
     The Hubbard contrib.    to forces
     atom    1 type  1   force =     0.00000000    0.00000000    0.00000000
     atom    2 type  1   force =     0.00000000    0.00000000    0.00000000
     atom    3 type  2   force =     0.00000000    0.00000000    0.00000000
     atom    4 type  3   force =     0.00000000    0.00000000    0.00000000
     atom    5 type  3   force =     0.00000000    0.00000000    0.00000000
     atom    6 type  3   force =     0.00000000    0.00000000    0.00000000
     atom    7 type  3   force =     0.00000000    0.00000000    0.00000000
     The SCF correction term to forces
     atom    1 type  1   force =    -0.00003719    0.00015698   -0.00091741
     atom    2 type  1   force =    -0.00000726   -0.00012071    0.00103675
     atom    3 type  2   force =    -0.00008041   -0.00017300   -0.00203937
     atom    4 type  3   force =    -0.00000940    0.00010925    0.00106240
     atom    5 type  3   force =     0.00006256   -0.00009596   -0.00094778
     atom    6 type  3   force =    -0.00002543    0.00002405    0.00020294
     atom    7 type  3   force =     0.00004122   -0.00003521    0.00033657

     Total force =     0.035339     Total SCF correction =     0.002892

     Computing stress (Cartesian axis) and pressure

     negative rho (up, down):  1.803E-01 0.000E+00
          total   stress  (Ry/bohr**3)                   (kbar)     P=      -27.40
   0.00005487   0.00000000   0.00000000            8.07        0.00        0.00
   0.00000000   0.00005487   0.00000000            0.00        8.07        0.00
   0.00000000   0.00000000  -0.00066861            0.00        0.00      -98.36

     kinetic stress (kbar)   9689.56      0.00      0.00
                                0.00   9689.56      0.00
                                0.00      0.00   9472.84

     local   stress (kbar)  -6505.23     -0.01     -0.02
                               -0.01  -6504.83     -0.04
                               -0.02     -0.04  -2879.48

     nonloc. stress (kbar)  13385.80     -0.00      0.00
                               -0.00  13385.80      0.00
                                0.00      0.00  13297.23

     hartree stress (kbar)  14608.38      0.00      0.01
                                0.00  14607.98      0.02
                                0.01      0.02  13086.29

     exc-cor stress (kbar)  13676.14      0.00      0.00
                                0.00  13676.14      0.00
                                0.00      0.00  13671.40

     corecor stress (kbar) -19809.15     -0.00     -0.00
                               -0.00 -19809.15     -0.00
                               -0.00     -0.00 -19804.74

     ewald   stress (kbar) -25037.42     -0.00     -0.00
                               -0.00 -25037.42      0.00
                               -0.00      0.00 -26941.90

     hubbard stress (kbar)      0.00      0.00      0.00
                                0.00      0.00      0.00
                                0.00      0.00      0.00

     DFT-D   stress (kbar)      0.00      0.00      0.00
                                0.00      0.00      0.00
                                0.00      0.00      0.00

     XDM     stress (kbar)      0.00      0.00      0.00
                                0.00      0.00      0.00
                                0.00      0.00      0.00

     dft-nl  stress (kbar)      0.00      0.00      0.00
                                0.00      0.00      0.00
                                0.00      0.00      0.00

     TS-vdW  stress (kbar)      0.00      0.00      0.00
                                0.00      0.00      0.00
                                0.00      0.00      0.00

[...]

                                0.00      0.00      0.00

     Writing all to output data dir new_calculations/myprefix.save/

     General routines

     Parallel routines

     PAW routines

   This run was terminated on:  20:15:13  21May2023

   JOB DONE.