     Program PWSCF v.7.0 starts on 20May2023 at 21:30:52

     Reading input from espresso_3768.pwi
Warning: card &CELL ignored
Warning: card / ignored

     Current dimensions of program PWSCF are:
     Max number of different atomic species (ntypx) = 10
     Max number of k-points (npk) =  40000
     Max angular momentum in pseudopotentials (lmaxx) =  4
     file Ga.pbe-dn-kjpaw_psl.1.0.0.UPF: wavefunction(s)  4S renormalized

     gamma-point specific algorithms are used
     Message from routine setup:
     using ibrav=0 with symmetry is DISCOURAGED, use correct ibrav instead

     Subspace diagonalization in iterative solution of the eigenvalue problem:
     a serial algorithm will be used

     Using Slab Decomposition

     bravais-lattice index     =            0
     lattice parameter (alat)  =       7.9086  a.u.
     unit-cell volume          =     349.7757 (a.u.)^3
     number of atoms/cell      =            4
     number of atomic types    =            3
     number of electrons       =        57.00
     number of Kohn-Sham states=           35
     kinetic-energy cutoff     =      30.0000  Ry
     charge density cutoff     =     240.0000  Ry
     scf convergence threshold =      1.0E-06
     mixing beta               =       0.7000
     number of iterations used =            8  plain     mixing
     Exchange-correlation= SLA  PW   PBE  PBE
                           (   1   4   3   4   0   0   0)

     celldm(1)=   7.908635  celldm(2)=   0.000000  celldm(3)=   0.000000
     celldm(4)=   0.000000  celldm(5)=   0.000000  celldm(6)=   0.000000

     crystal axes: (cart. coord. in units of alat)
               a(1) = (   1.000000   0.000000   0.000000 )
               a(2) = (   0.500000   0.866025   0.000000 )
               a(3) = (   0.500000   0.288675   0.816497 )

     reciprocal axes: (cart. coord. in units 2 pi/alat)
               b(1) = (  1.000000 -0.577350 -0.408248 )
               b(2) = (  0.000000  1.154701 -0.408248 )
               b(3) = (  0.000000  0.000000  1.224745 )

     PseudoPot. # 1 for Mn read from file:
     /home/pragov/projects/rrg-bengioy-ad/pragov/crystal_structure_design/SSSP/mn_pbe_v1.5.uspp.F.UPF
     MD5 check sum: 82ef2b46521d7a7d9e736dc3972e4928
     Pseudo is Ultrasoft + core correction, Zval = 15.0
     Generated by new atomic code, or converted to UPF format
     Using radial grid of  859 points,  6 beta functions with:
                l(1) =   0
                l(2) =   0
                l(3) =   1
                l(4) =   1
                l(5) =   2
                l(6) =   2
     Q(r) pseudized with  8 coefficients,  rinner =    0.950   0.950   0.950
                                                       0.950   0.950

     PseudoPot. # 2 for Ga read from file:
     /home/pragov/projects/rrg-bengioy-ad/pragov/crystal_structure_design/SSSP/Ga.pbe-dn-kjpaw_psl.1.0.0.UPF
     MD5 check sum: a27b4342b1af7e5f338de752e9ed7044
     Pseudo is Projector augmented-wave + core cor, Zval = 13.0
     Generated using "atomic" code by A. Dal Corso  v.5.1
     Shape of augmentation charge: PSQ
     Using radial grid of 1205 points,  6 beta functions with:
                l(1) =   0
                l(2) =   0
                l(3) =   1
                l(4) =   1
                l(5) =   2
                l(6) =   2
     Q(r) pseudized with 0 coefficients

     PseudoPot. # 3 for W  read from file:
     /home/pragov/projects/rrg-bengioy-ad/pragov/crystal_structure_design/SSSP/W_pbe_v1.2.uspp.F.UPF
     MD5 check sum: 9c083fa34c2a2ea0f02f1f893e16e1c8
     Pseudo is Ultrasoft + core correction, Zval = 14.0
     Generated by new atomic code, or converted to UPF format
     Using radial grid of  923 points,  8 beta functions with:
                l(1) =   0
                l(2) =   0
                l(3) =   0
                l(4) =   1
                l(5) =   1
                l(6) =   2
                l(7) =   2
                l(8) =   3
     Q(r) pseudized with  6 coefficients,  rinner =    1.350   1.350   1.350
                                                       1.350   1.350   1.350
                                                       1.350

     atomic species   valence    mass     pseudopotential
        Mn            15.00    54.93804     Mn( 1.00)
        Ga            13.00    69.72300     Ga( 1.00)
        W             14.00   183.84000     W ( 1.00)

     12 Sym. Ops., with inversion, found

                                    s                        frac. trans.

      isym =  1     identity

 cryst.   s( 1) = (     1          0          0      )
                  (     0          1          0      )
                  (     0          0          1      )

 cart.    s( 1) = (  1.0000000  0.0000000  0.0000000 )
                  (  0.0000000  1.0000000  0.0000000 )
                  (  0.0000000  0.0000000  1.0000000 )

      isym =  2     180 deg rotation - cart. axis [1,0,0]

[...]

      isym =  3     120 deg rotation - cryst. axis [0,0,1]

[...]

      isym =  6     180 deg rotation - cryst. axis [1,1,0]

[...]

      isym =  7     inversion

[...]

      isym =  8     inv. 180 deg rotation - cart. axis [1,0,0]

[...]

      isym =  9     inv. 120 deg rotation - cryst. axis [0,0,1]

 cryst.   s( 9) = (     1         -1          0      )
                  (     1          0          0      )
                  (     1          0         -1      )

 cart.    s( 9) = (  0.5000000  0.8660254  0.0000000 )
                  ( -0.8660254  0.5000000  0.0000000 )
                  (  0.0000000  0.0000000 -1.0000000 )

[...]

 cryst.   s(10) = (     0          1          0      )
                  (    -1          1          0      )
                  (     0          1         -1      )

 cart.    s(10) = (  0.5000000 -0.8660254 -0.0000000 )
                  (  0.8660254  0.5000000  0.0000000 )
                  (  0.0000000  0.0000000 -1.0000000 )

[...]

      isym = 12     inv. 180 deg rotation - cryst. axis [1,1,0]

 cryst.   s(12) = (     1         -1          0      )
                  (     0         -1          0      )
                  (     0         -1          1      )

 cart.    s(12) = (  0.5000000 -0.8660254 -0.0000000 )
                  ( -0.8660254 -0.5000000 -0.0000000 )
                  (  0.0000000  0.0000000  1.0000000 )

   Cartesian axes

     site n.     atom                  positions (alat units)
         1           Mn  tau(   1) = (   0.5000000   0.2886751   0.2041241  )
         2           Mn  tau(   2) = (   1.5000000   0.8660254   0.6123724  )
         3           Ga  tau(   3) = (   1.0000000   0.5773503   0.4082483  )
         4           W   tau(   4) = (   0.0000000   0.0000000   0.0000000  )

   Crystallographic axes

     site n.     atom                  positions (cryst. coord.)
         1           Mn  tau(   1) = (  0.2500000  0.2500000  0.2500000  )
         2           Mn  tau(   2) = (  0.7500000  0.7500000  0.7500000  )
         3           Ga  tau(   3) = (  0.5000000  0.5000000  0.5000000  )
         4           W   tau(   4) = (  0.0000000  0.0000000  0.0000000  )

     number of k points=     1  Methfessel-Paxton smearing, width (Ry)=  0.0010
                       cart. coord. in units 2pi/alat
        k(    1) = (   0.0000000   0.0000000   0.0000000), wk =   2.0000000

                       cryst. coord.
        k(    1) = (   0.0000000   0.0000000   0.0000000), wk =   2.0000000

     Check: negative core charge=   -0.000023

     Initial potential from superposition of free atoms

     starting charge      55.8965, renormalised to      57.0000

     negative rho (up, down):  6.458E-02 0.000E+00
     Starting wfcs are   48 randomized atomic wfcs
     Checking if some PAW data can be deallocated...

     Self-consistent Calculation

     iteration #  1     ecut=    30.00 Ry     beta= 0.70
     Davidson diagonalization with overlap

     ethr =  1.00E-02,  avg # of iterations =  2.0
     Minimization algorithm failed to find Fermi energy: reverting to bisection
     Possible cause: smearing is larger than the electronic band-gap.

     negative rho (up, down):  6.513E-02 0.000E+00

     total energy              =    -858.36832528 Ry
     estimated scf accuracy    <       1.33726841 Ry

[...]

     ethr =  2.35E-03,  avg # of iterations =  6.0

[...]

     ethr =  1.22E-05,  avg # of iterations =  1.0

[...]

     total energy              =    -859.05719452 Ry
     estimated scf accuracy    <       0.00002987 Ry

     iteration # 24     ecut=    30.00 Ry     beta= 0.70
     Davidson diagonalization with overlap

     ethr =  3.26E-09,  avg # of iterations =  1.0
     Minimization algorithm failed to find Fermi energy: reverting to bisection
     Possible cause: smearing is larger than the electronic band-gap.

[...]

     End of self-consistent calculation

          k = 0.0000 0.0000 0.0000 (   471 PWs)   bands (ev):

   -59.6918 -59.6739 -53.3072 -28.4855 -28.4855 -28.4855 -28.4262 -28.4261
   -28.4261 -17.6593 -17.6593 -17.6593   3.4812   3.4812   3.4812   3.4825
     3.4825   8.4153  15.9505  15.9505  16.1167  16.1167  16.1167  17.4332
    17.4332  17.4333  19.9182  19.9182  19.9182  20.0485  20.0486  21.9822
    21.9822  22.8803  23.8687

     occupation numbers
     1.0000   1.0000   1.0000   1.0000   1.0000   1.0000   1.0000   1.0000
     1.0000   1.0000   1.0000   1.0000   1.0000   1.0000   1.0000   1.0000
     1.0000   1.0000   1.0000   1.0000   1.0000   1.0000   1.0000   1.0000
     1.0000   1.0000   0.8342   0.8337   0.8321  -0.0000  -0.0000  -0.0000
    -0.0000  -0.0000  -0.0000

     the Fermi energy is    19.9241 ev

!    total energy              =    -859.05719526 Ry
     estimated scf accuracy    <       0.00000026 Ry
     smearing contrib. (-TS)   =      -0.00043272 Ry
     internal energy E=F+TS    =    -859.05676254 Ry

     The total energy is F=E-TS. E is the sum of the following terms:
     one-electron contribution =    -259.35889340 Ry
     hartree contribution      =     173.65566781 Ry
     xc contribution           =    -132.83186370 Ry
     ewald contribution        =    -529.55804390 Ry
     one-center paw contrib.   =    -110.96362934 Ry
      -> PAW hartree energy AE =     140.19335077 Ry
      -> PAW hartree energy PS =    -138.01418276 Ry
      -> PAW xc energy AE      =    -150.78816562 Ry
      -> PAW xc energy PS      =      37.64536828 Ry
      -> total E_H with PAW    =     175.83483581 Ry
      -> total E_XC with PAW   =    -245.97466105 Ry

     convergence has been achieved in  24 iterations

     negative rho (up, down):  6.402E-02 0.000E+00

     Forces acting on atoms (cartesian axes, Ry/au):

     atom    1 type  1   force =     0.00000000    0.00000000   -0.00022768
     atom    2 type  1   force =     0.00000000    0.00000000    0.00022768
     atom    3 type  2   force =    -0.00000000   -0.00000000    0.00000000
     atom    4 type  3   force =     0.00000000    0.00000000    0.00000000
     The non-local contrib.  to forces
     atom    1 type  1   force =     0.00000000    0.00000000    0.00067529
     atom    2 type  1   force =     0.00000000   -0.00000000   -0.00067529
     atom    3 type  2   force =     0.00000000    0.00000000    0.00000000
     atom    4 type  3   force =     0.00000000    0.00000000   -0.00000000
     The ionic contribution  to forces
     atom    1 type  1   force =     0.00000000    0.00000000   -0.00000000
     atom    2 type  1   force =    -0.00000000    0.00000000    0.00000000
     atom    3 type  2   force =    -0.00000000   -0.00000000   -0.00000000
     atom    4 type  3   force =    -0.00000000   -0.00000000   -0.00000000
     The local contribution  to forces
     atom    1 type  1   force =     0.00000927    0.00065139   -0.00107117
     atom    2 type  1   force =     0.00003605   -0.00059298    0.00106339
     atom    3 type  2   force =    -0.00002582   -0.00001972   -0.00000898
     atom    4 type  3   force =     0.00003421    0.00004473   -0.00000369
     The core correction contribution to forces
     atom    1 type  1   force =    -0.00000104    0.00004133   -0.00006418
     atom    2 type  1   force =     0.00000436   -0.00003663    0.00006418
     atom    3 type  2   force =    -0.00000010    0.00000018    0.00000010
     atom    4 type  3   force =    -0.00000007   -0.00000026    0.00000015
     The Hubbard contrib.    to forces
     atom    1 type  1   force =     0.00000000    0.00000000    0.00000000
     atom    2 type  1   force =     0.00000000    0.00000000    0.00000000
     atom    3 type  2   force =     0.00000000    0.00000000    0.00000000
     atom    4 type  3   force =     0.00000000    0.00000000    0.00000000
     The SCF correction term to forces
     atom    1 type  1   force =    -0.00001954   -0.00010453    0.00023512
     atom    2 type  1   force =     0.00001482    0.00010977   -0.00022187
     atom    3 type  2   force =     0.00002315    0.00001640    0.00000599
     atom    4 type  3   force =    -0.00002881   -0.00003665    0.00000177

     Total force =     0.000322     Total SCF correction =     0.000362
     SCF correction compared to forces is large: reduce conv_thr to get better values

     Computing stress (Cartesian axis) and pressure

     negative rho (up, down):  6.402E-02 0.000E+00
          total   stress  (Ry/bohr**3)                   (kbar)     P=     -245.02
  -0.00166583  -0.00000000  -0.00000000         -245.05       -0.00       -0.00
  -0.00000000  -0.00166583  -0.00000000           -0.00     -245.05       -0.00
   0.00000000  -0.00000000  -0.00166522            0.00       -0.00     -244.96

     kinetic stress (kbar)  41624.29      0.00      0.00
                                0.00  41624.29      0.00
                                0.00      0.00  41622.13

     local   stress (kbar)  13699.28     -0.17      0.03
                               -0.17  13694.12     -0.24
                                0.03     -0.24  13702.36

     nonloc. stress (kbar)   8063.07     -0.00     -0.00
                               -0.00   8063.07      0.00
                               -0.00      0.00   8061.55

     hartree stress (kbar)  24344.68      0.05     -0.00
                                0.05  24346.16     -0.12
                               -0.00     -0.12  24343.49

     exc-cor stress (kbar)   6392.06      0.00     -0.00
                                0.00   6392.08      0.00
                               -0.00      0.00   6392.05

     corecor stress (kbar) -20127.87     -0.00      0.00
                               -0.00 -20127.93     -0.01
                                0.00     -0.01 -20127.84

     ewald   stress (kbar) -74238.70      0.00     -0.00
                                0.00 -74238.70      0.00
                               -0.00      0.00 -74238.70

     hubbard stress (kbar)      0.00      0.00      0.00
                                0.00      0.00      0.00
                                0.00      0.00      0.00

     DFT-D   stress (kbar)      0.00      0.00      0.00
                                0.00      0.00      0.00
                                0.00      0.00      0.00

     XDM     stress (kbar)      0.00      0.00      0.00
                                0.00      0.00      0.00
                                0.00      0.00      0.00

     dft-nl  stress (kbar)      0.00      0.00      0.00
                                0.00      0.00      0.00
                                0.00      0.00      0.00

     TS-vdW  stress (kbar)      0.00      0.00      0.00
                                0.00      0.00      0.00
                                0.00      0.00      0.00

[...]

                                0.00      0.00      0.00

     Writing all to output data dir new_calculations/myprefix.save/

     General routines

     Parallel routines

     PAW routines

   This run was terminated on:  21:31: 6  20May2023

   JOB DONE.