     Program PWSCF v.7.0 starts on 21May2023 at 17:57:33

     Reading input from espresso_23830.pwi
Warning: card &CELL ignored
Warning: card / ignored

     Current dimensions of program PWSCF are:
     Max number of different atomic species (ntypx) = 10
     Max number of k-points (npk) =  40000
     Max angular momentum in pseudopotentials (lmaxx) =  4

     gamma-point specific algorithms are used
     Message from routine setup:
     using ibrav=0 with symmetry is DISCOURAGED, use correct ibrav instead

     Subspace diagonalization in iterative solution of the eigenvalue problem:
     a serial algorithm will be used

     Using Slab Decomposition

     bravais-lattice index     =            0
     lattice parameter (alat)  =      11.5948  a.u.
     unit-cell volume          =     418.0772 (a.u.)^3
     number of atoms/cell      =            3
     number of atomic types    =            2
     number of electrons       =        44.00
     number of Kohn-Sham states=           26
     kinetic-energy cutoff     =      30.0000  Ry
     charge density cutoff     =     240.0000  Ry
     scf convergence threshold =      1.0E-06
     mixing beta               =       0.7000
     number of iterations used =            8  plain     mixing
     Exchange-correlation= SLA  PW   PBE  PBE
                           (   1   4   3   4   0   0   0)

     celldm(1)=  11.594798  celldm(2)=   0.000000  celldm(3)=   0.000000
     celldm(4)=   0.000000  celldm(5)=   0.000000  celldm(6)=   0.000000

     crystal axes: (cart. coord. in units of alat)
               a(1) = (   1.000000   0.000000   0.000000 )
               a(2) = (   0.709937   0.704265   0.000000 )
               a(3) = (  -0.854969  -0.352132   0.380830 )

     reciprocal axes: (cart. coord. in units 2 pi/alat)
               b(1) = (  1.000000 -1.008055  1.312923 )
               b(2) = (  0.000000  1.419920  1.312923 )
               b(3) = (  0.000000  0.000000  2.625845 )

     PseudoPot. # 1 for Zr read from file:
     /home/pragov/projects/rrg-bengioy-ad/pragov/crystal_structure_design/SSSP/Zr_pbe_v1.uspp.F.UPF
     MD5 check sum: 5db81b1e868ab7776c4564c113de050b
     Pseudo is Ultrasoft + core correction, Zval = 12.0
     Generated by new atomic code, or converted to UPF format
     Using radial grid of  887 points,  6 beta functions with:
                l(1) =   0
                l(2) =   0
                l(3) =   1
                l(4) =   1
                l(5) =   2
                l(6) =   2
     Q(r) pseudized with  6 coefficients,  rinner =    1.200   1.200   1.200
                                                       1.200   1.200

     PseudoPot. # 2 for Zn read from file:
     /home/pragov/projects/rrg-bengioy-ad/pragov/crystal_structure_design/SSSP/Zn_pbe_v1.uspp.F.UPF
     MD5 check sum: df62231357ef9e81f77b2b3087fa5675
     Pseudo is Ultrasoft, Zval = 20.0
     Generated by new atomic code, or converted to UPF format
     Using radial grid of  943 points,  6 beta functions with:
                l(1) =   0
                l(2) =   0
                l(3) =   1
                l(4) =   1
                l(5) =   2
                l(6) =   2
     Q(r) pseudized with  8 coefficients,  rinner =    1.100   1.100   1.100
                                                       1.100   1.100

     atomic species   valence    mass     pseudopotential
        Zr            12.00    91.22400     Zr( 1.00)
        Zn            20.00    65.38000     Zn( 1.00)

      4 Sym. Ops., with inversion, found

                                    s                        frac. trans.

      isym =  1     identity

 cryst.   s( 1) = (     1          0          0      )
                  (     0          1          0      )
                  (     0          0          1      )

 cart.    s( 1) = (  1.0000000  0.0000000 -0.0000000 )
                  (  0.0000000  1.0000000 -0.0000000 )
                  (  0.0000000  0.0000000  1.0000000 )

      isym =  2     180 deg rotation - cart. axis [0,0,1]

[...]

      isym =  3     inversion

[...]

      isym =  4     inv. 180 deg rotation - cart. axis [0,0,1]

 cryst.   s( 4) = (     1          0          0      )
                  (     0          1          0      )
                  (    -1         -1         -1      )

 cart.    s( 4) = (  1.0000000  0.0000000 -0.0000000 )
                  (  0.0000000  1.0000000 -0.0000000 )
                  (  0.0000000  0.0000000 -1.0000000 )

   Cartesian axes

     site n.     atom                  positions (alat units)
         1           Zr  tau(   1) = (   1.1229774   0.4625161   0.0000000  )
         2           Zr  tau(   2) = (   0.5869599   0.2417488   0.0000000  )
         3           Zn  tau(   3) = (   0.0000000   0.0000000   0.0000000  )

   Crystallographic axes

     site n.     atom                  positions (cryst. coord.)
         1           Zr  tau(   1) = (  0.6567360  0.6567360  0.0000000  )
         2           Zr  tau(   2) = (  0.3432640  0.3432640  0.0000000  )
         3           Zn  tau(   3) = (  0.0000000  0.0000000  0.0000000  )

     number of k points=     1  Methfessel-Paxton smearing, width (Ry)=  0.0010
                       cart. coord. in units 2pi/alat
        k(    1) = (   0.0000000   0.0000000   0.0000000), wk =   2.0000000

                       cryst. coord.
        k(    1) = (   0.0000000   0.0000000   0.0000000), wk =   2.0000000

     Check: negative core charge=   -0.000004

     Initial potential from superposition of free atoms

     starting charge      43.9956, renormalised to      44.0000

     negative rho (up, down):  1.213E-01 0.000E+00
     Starting wfcs are   39 randomized atomic wfcs

     Self-consistent Calculation

     iteration #  1     ecut=    30.00 Ry     beta= 0.70
     Davidson diagonalization with overlap

     ethr =  1.00E-02,  avg # of iterations =  2.0

     negative rho (up, down):  1.234E-01 0.000E+00

     total energy              =    -659.78406077 Ry
     estimated scf accuracy    <       0.66004067 Ry

[...]

     total energy              =    -660.00520377 Ry
     estimated scf accuracy    <       0.00000672 Ry

     iteration #  8     ecut=    30.00 Ry     beta= 0.70
     Davidson diagonalization with overlap

     ethr =  1.53E-08,  avg # of iterations =  5.0

[...]

     End of self-consistent calculation

          k = 0.0000 0.0000 0.0000 (   592 PWs)   bands (ev):

  -113.5099 -67.6603 -67.6597 -67.5284 -34.3626 -34.2475 -13.3030 -12.7456
   -11.9602 -11.9579 -11.7402 -11.7392   5.3201   5.3646   5.6235   5.7092
     5.7101   6.2751  11.1055  12.7796  13.3116  14.8962  15.7289  15.8769
    15.9060  15.9065

     occupation numbers
     1.0000   1.0000   1.0000   1.0000   1.0000   1.0000   1.0000   1.0000
     1.0000   1.0000   1.0000   1.0000   1.0000   1.0000   1.0000   1.0000
     1.0000   1.0000   1.0000   1.0000   1.0000   1.0000  -0.0000  -0.0000
    -0.0000  -0.0000

     the Fermi energy is    15.0294 ev

!    total energy              =    -660.00520571 Ry
     estimated scf accuracy    <       0.00000039 Ry
     smearing contrib. (-TS)   =       0.00000000 Ry
     internal energy E=F+TS    =    -660.00520571 Ry

     The total energy is F=E-TS. E is the sum of the following terms:
     one-electron contribution =    -467.35975048 Ry
     hartree contribution      =     250.28281696 Ry
     xc contribution           =     -77.92542154 Ry
     ewald contribution        =    -365.00285065 Ry

     convergence has been achieved in   8 iterations

     negative rho (up, down):  1.251E-01 0.000E+00

     Forces acting on atoms (cartesian axes, Ry/au):

     atom    1 type  1   force =     0.02371426    0.00931767   -0.00000000
     atom    2 type  1   force =    -0.02371426   -0.00931767    0.00000000
     atom    3 type  2   force =     0.00000000    0.00000000   -0.00000000
     The non-local contrib.  to forces
     atom    1 type  1   force =    -0.25948571   -0.10686233    0.00000000
     atom    2 type  1   force =     0.25948571    0.10686233   -0.00000000
     atom    3 type  2   force =     0.00000000    0.00000000    0.00000000
     The ionic contribution  to forces
     atom    1 type  1   force =    11.01158711    4.53529689   -0.00000000
     atom    2 type  1   force =   -11.01158711   -4.53529689    0.00000000
     atom    3 type  2   force =    -0.00000000   -0.00000000    0.00000000
     The local contribution  to forces
     atom    1 type  1   force =   -10.74016900   -4.42372308   -0.00015816
     atom    2 type  1   force =    10.74002660    4.42384442   -0.00012263
     atom    3 type  2   force =     0.00018262   -0.00003442    0.00020814
     The core correction contribution to forces
     atom    1 type  1   force =     0.01187354    0.00473148   -0.00000940
     atom    2 type  1   force =    -0.01187733   -0.00472258   -0.00000722
     atom    3 type  2   force =     0.00000000    0.00000000    0.00000000
     The Hubbard contrib.    to forces
     atom    1 type  1   force =     0.00000000    0.00000000    0.00000000
     atom    2 type  1   force =     0.00000000    0.00000000    0.00000000
     atom    3 type  2   force =     0.00000000    0.00000000    0.00000000
     The SCF correction term to forces
     atom    1 type  1   force =    -0.00011889   -0.00005106    0.00001554
     atom    2 type  1   force =     0.00021067    0.00006929   -0.00002598
     atom    3 type  2   force =    -0.00045058    0.00049943   -0.00119571

     Total force =     0.036033     Total SCF correction =     0.001396

     Computing stress (Cartesian axis) and pressure

     negative rho (up, down):  1.251E-01 0.000E+00
          total   stress  (Ry/bohr**3)                   (kbar)     P=     -125.96
   0.00147323   0.00154766  -0.00000000          216.72      227.67       -0.00
   0.00154766  -0.00170739  -0.00000000          227.67     -251.17       -0.00
  -0.00000000  -0.00000000  -0.00233470           -0.00       -0.00     -343.45

     kinetic stress (kbar)  21918.61   -456.79     -0.00
                             -456.79  22845.71     -0.00
                               -0.00     -0.00  23032.79

     local   stress (kbar)   2920.79   8653.79      0.02
                             8653.79 -14532.11     -0.00
                                0.02     -0.00 -18096.42

     nonloc. stress (kbar)   9167.07    159.20     -0.00
                              159.20   8830.87     -0.00
                               -0.00     -0.00   8767.21

     hartree stress (kbar)  23342.44  -4056.15     -0.01
                            -4056.15  31525.54      0.01
                               -0.01      0.01  33196.80

     exc-cor stress (kbar)  -3863.74    -10.36     -0.00
                              -10.36  -3842.68     -0.00
                               -0.00     -0.00  -3838.39

     corecor stress (kbar)  -4449.40     -5.64      0.00
                               -5.64  -4437.54     -0.00
                                0.00     -0.00  -4435.14

     ewald   stress (kbar) -48819.04  -4056.37     -0.00
                            -4056.37 -40640.96     -0.00
                               -0.00     -0.00 -38970.28

     hubbard stress (kbar)      0.00      0.00      0.00
                                0.00      0.00      0.00
                                0.00      0.00      0.00

     DFT-D   stress (kbar)      0.00      0.00      0.00
                                0.00      0.00      0.00
                                0.00      0.00      0.00

     XDM     stress (kbar)      0.00      0.00      0.00
                                0.00      0.00      0.00
                                0.00      0.00      0.00

     dft-nl  stress (kbar)      0.00      0.00      0.00
                                0.00      0.00      0.00
                                0.00      0.00      0.00

     TS-vdW  stress (kbar)      0.00      0.00      0.00
                                0.00      0.00      0.00
                                0.00      0.00      0.00

[...]

                                0.00      0.00      0.00

     Writing all to output data dir new_calculations/myprefix.save/

     General routines

     Parallel routines

   This run was terminated on:  17:57:49  21May2023

   JOB DONE.