     Program PWSCF v.7.0 starts on 20May2023 at 13:12:30

     Reading input from espresso_518.pwi
Warning: card &CELL ignored
Warning: card / ignored

     Current dimensions of program PWSCF are:
     Max number of different atomic species (ntypx) = 10
     Max number of k-points (npk) =  40000
     Max angular momentum in pseudopotentials (lmaxx) =  4
     file Mg.pbe-n-kjpaw_psl.0.3.0.UPF: wavefunction(s)  3S renormalized

     gamma-point specific algorithms are used
     Message from routine setup:
     using ibrav=0 with symmetry is DISCOURAGED, use correct ibrav instead

     Subspace diagonalization in iterative solution of the eigenvalue problem:
     a serial algorithm will be used

     Using Slab Decomposition

     bravais-lattice index     =            0
     lattice parameter (alat)  =       8.8246  a.u.
     unit-cell volume          =     536.6069 (a.u.)^3
     number of atoms/cell      =            6
     number of atomic types    =            3
     number of electrons       =        62.00
     number of Kohn-Sham states=           37
     kinetic-energy cutoff     =      30.0000  Ry
     charge density cutoff     =     240.0000  Ry
     scf convergence threshold =      1.0E-06
     mixing beta               =       0.7000
     number of iterations used =            8  plain     mixing
     Exchange-correlation=  SLA  PW   PBX  PBC
                           (   1   4   3   4   0   0   0)

     celldm(1)=   8.824588  celldm(2)=   0.000000  celldm(3)=   0.000000
     celldm(4)=   0.000000  celldm(5)=   0.000000  celldm(6)=   0.000000

     crystal axes: (cart. coord. in units of alat)
               a(1) = (   1.000000   0.000000   0.000000 )
               a(2) = (   0.426305   0.904579   0.000000 )
               a(3) = (   0.426305   0.270368   0.863230 )

     reciprocal axes: (cart. coord. in units 2 pi/alat)
               b(1) = (  1.000000 -0.471275 -0.346244 )
               b(2) = (  0.000000  1.105486 -0.346244 )
               b(3) = (  0.000000  0.000000  1.158440 )

     PseudoPot. # 1 for Mg read from file:
     /home/pragov/projects/rrg-bengioy-ad/pragov/crystal_structure_design/SSSP/Mg.pbe-n-kjpaw_psl.0.3.0.UPF
     MD5 check sum: 24ecedc7f3e3cbe212e682f4413594e4
     Pseudo is Projector augmented-wave + core cor, Zval =  2.0
     Generated using "atomic" code by A. Dal Corso  v.5.0.99 svn rev. 10869
     Shape of augmentation charge: PSQ
     Using radial grid of 1129 points,  4 beta functions with:
                l(1) =   0
                l(2) =   0
                l(3) =   1
                l(4) =   1
     Q(r) pseudized with 0 coefficients

     PseudoPot. # 2 for Si read from file:
     /home/pragov/projects/rrg-bengioy-ad/pragov/crystal_structure_design/SSSP/Si.pbe-n-rrkjus_psl.1.0.0.UPF
     MD5 check sum: 0b0bb1205258b0d07b9f9672cf965d36
     Pseudo is Ultrasoft + core correction, Zval =  4.0
     Generated using "atomic" code by A. Dal Corso  v.5.1
     Using radial grid of 1141 points,  6 beta functions with:
                l(1) =   0
                l(2) =   0
                l(3) =   1
                l(4) =   1
                l(5) =   2
                l(6) =   2
     Q(r) pseudized with 0 coefficients

     PseudoPot. # 3 for Ni read from file:
     /home/pragov/projects/rrg-bengioy-ad/pragov/crystal_structure_design/SSSP/ni_pbe_v1.4.uspp.F.UPF
     MD5 check sum: 1ee80287db30b12d2bc1f57a5b5d6409
     Pseudo is Ultrasoft + core correction, Zval = 18.0
     Generated by new atomic code, or converted to UPF format
     Using radial grid of  865 points,  6 beta functions with:
                l(1) =   0
                l(2) =   0
                l(3) =   1
                l(4) =   1
                l(5) =   2
                l(6) =   2
     Q(r) pseudized with 10 coefficients,  rinner =    0.980   0.980   0.980
                                                       0.980   0.980

     atomic species   valence    mass     pseudopotential
        Mg             2.00    24.30500     Mg( 1.00)
        Si             4.00    28.08500     Si( 1.00)
        Ni            18.00    58.69340     Ni( 1.00)

      2 Sym. Ops., with inversion, found

                                    s                        frac. trans.

      isym =  1     identity

 cryst.   s( 1) = (     1          0          0      )
                  (     0          1          0      )
                  (     0          0          1      )

 cart.    s( 1) = (  1.0000000  0.0000000  0.0000000 )
                  (  0.0000000  1.0000000  0.0000000 )
                  (  0.0000000  0.0000000  1.0000000 )

      isym =  2     inversion

 cryst.   s( 2) = (    -1          0          0      )
                  (     0         -1          0      )
                  (     0          0         -1      )

 cart.    s( 2) = ( -1.0000000 -0.0000000 -0.0000000 )
                  (  0.0000000 -1.0000000 -0.0000000 )
                  (  0.0000000  0.0000000 -1.0000000 )

   Cartesian axes

     site n.     atom                  positions (alat units)
         1           Mg  tau(   1) = (   0.2321062   0.1472044   0.1081506  )
         2           Mg  tau(   2) = (   1.6205045   1.0277428   0.7550790  )
         3           Si  tau(   3) = (   0.9263054   0.5874736   0.4316148  )
         4           Ni  tau(   4) = (   0.7131526   0.4522897   0.0000000  )
         5           Ni  tau(   5) = (   0.4263054   0.5874736   0.4316148  )
         6           Ni  tau(   6) = (   0.7131527   0.1351839   0.4316148  )

   Crystallographic axes

     site n.     atom                  positions (cryst. coord.)
         1           Mg  tau(   1) = (  0.1252860  0.1252860  0.1252860  )
         2           Mg  tau(   2) = (  0.8747140  0.8747140  0.8747140  )
         3           Si  tau(   3) = (  0.5000000  0.5000000  0.5000000  )
         4           Ni  tau(   4) = (  0.5000000  0.5000000  0.0000000  )
         5           Ni  tau(   5) = (  0.0000000  0.5000000  0.5000000  )
         6           Ni  tau(   6) = (  0.5000000 -0.0000000  0.5000000  )

     number of k points=     1  Methfessel-Paxton smearing, width (Ry)=  0.0010
                       cart. coord. in units 2pi/alat
        k(    1) = (   0.0000000   0.0000000   0.0000000), wk =   2.0000000

                       cryst. coord.
        k(    1) = (   0.0000000   0.0000000   0.0000000), wk =   2.0000000

     Check: negative core charge=   -0.000005

     Initial potential from superposition of free atoms

     starting charge      55.9976, renormalised to      62.0000
     Starting wfcs are   51 randomized atomic wfcs
     Checking if some PAW data can be deallocated...

     Self-consistent Calculation

     iteration #  1     ecut=    30.00 Ry     beta= 0.70
     Davidson diagonalization with overlap

     ethr =  1.00E-02,  avg # of iterations =  6.0

     total energy              =    -987.37103186 Ry
     estimated scf accuracy    <     179.76957242 Ry

[...]

     total energy              =   -1107.59948188 Ry
     estimated scf accuracy    <       0.00000148 Ry

     iteration # 26     ecut=    30.00 Ry     beta= 0.70
     Davidson diagonalization with overlap

     ethr =  2.38E-09,  avg # of iterations =  2.0

     End of self-consistent calculation

          k = 0.0000 0.0000 0.0000 (   739 PWs)   bands (ev):

   -91.6574 -91.6429 -91.6427 -52.2376 -52.1937 -52.1935 -51.9402 -51.9309
   -51.9308 -51.8720 -51.7947 -51.7946   1.5087   6.8599   8.0163   8.5137
     8.5412   8.5413   8.9564   8.9565   9.9245   9.9245  10.0174  10.0176
    10.2665  10.5625  10.6103  10.6105  10.8250  10.8252  11.6741  11.9260
    13.8774  13.9433  13.9434  14.3218  14.3219

     occupation numbers
     1.0000   1.0000   1.0000   1.0000   1.0000   1.0000   1.0000   1.0000
     1.0000   1.0000   1.0000   1.0000   1.0000   1.0000   1.0000   1.0000
     1.0000   1.0000   1.0000   1.0000   1.0000   1.0000   1.0000   1.0000
     1.0000   1.0000   1.0000   1.0000   1.0000   1.0000   1.0000  -0.0000
    -0.0000  -0.0000  -0.0000  -0.0000  -0.0000

     the Fermi energy is    11.7601 ev

!    total energy              =   -1107.59948191 Ry
     estimated scf accuracy    <       0.00000012 Ry
     smearing contrib. (-TS)   =       0.00000000 Ry
     internal energy E=F+TS    =   -1107.59948191 Ry

     The total energy is F=E-TS. E is the sum of the following terms:
     one-electron contribution =    -907.21793176 Ry
     hartree contribution      =     482.00589654 Ry
     xc contribution           =    -116.45699283 Ry
     ewald contribution        =    -503.33733318 Ry
     one-center paw contrib.   =     -62.59312069 Ry
      -> PAW hartree energy AE =       1.75230288 Ry
      -> PAW hartree energy PS =      -1.74827294 Ry
      -> PAW xc energy AE      =     -65.30727298 Ry
      -> PAW xc energy PS      =       2.71012236 Ry
      -> total E_H with PAW    =     482.00992647 Ry
      -> total E_XC with PAW   =    -179.05414345 Ry

     convergence has been achieved in  26 iterations

     Forces acting on atoms (cartesian axes, Ry/au):

     atom    1 type  1   force =     0.00788166    0.00499866    0.00367459
     atom    2 type  1   force =    -0.00788166   -0.00499866   -0.00367459
     atom    3 type  2   force =     0.00000000    0.00000000    0.00000000
     atom    4 type  3   force =     0.00000000    0.00000000    0.00000000
     atom    5 type  3   force =     0.00000000    0.00000000    0.00000000
     atom    6 type  3   force =     0.00000000    0.00000000    0.00000000
     The non-local contrib.  to forces
     atom    1 type  1   force =     0.01451035    0.00919917    0.00676405
     atom    2 type  1   force =    -0.01451035   -0.00919917   -0.00676405
     atom    3 type  2   force =     0.00000000    0.00000000    0.00000000
     atom    4 type  3   force =     0.00000000    0.00000000    0.00000000
     atom    5 type  3   force =     0.00000000    0.00000000    0.00000000
     atom    6 type  3   force =     0.00000000    0.00000000    0.00000000
     The ionic contribution  to forces
     atom    1 type  1   force =    -0.33101660   -0.20993457   -0.15423903
     atom    2 type  1   force =     0.33101660    0.20993457    0.15423903
     atom    3 type  2   force =     0.00000000   -0.00000000    0.00000000
     atom    4 type  3   force =     0.00000000   -0.00000000   -0.00000000
     atom    5 type  3   force =    -0.00000000   -0.00000000    0.00000000
     atom    6 type  3   force =    -0.00000000    0.00000000   -0.00000000
     The local contribution  to forces
     atom    1 type  1   force =     0.32523545    0.20626443    0.15155593
     atom    2 type  1   force =    -0.32522340   -0.20625963   -0.15154551
     atom    3 type  2   force =     0.00002990    0.00003176   -0.00000749
     atom    4 type  3   force =    -0.00006022   -0.00003800   -0.00003424
     atom    5 type  3   force =    -0.00012916   -0.00004266   -0.00005783
     atom    6 type  3   force =    -0.00016310   -0.00014062   -0.00007729
     The core correction contribution to forces
     atom    1 type  1   force =    -0.00083834   -0.00053131   -0.00039080
     atom    2 type  1   force =     0.00083900    0.00053169    0.00039118
     atom    3 type  2   force =     0.00000152    0.00000144    0.00000002
     atom    4 type  3   force =    -0.00000004   -0.00000006   -0.00000041
     atom    5 type  3   force =    -0.00000009    0.00000041    0.00000024
     atom    6 type  3   force =     0.00000028   -0.00000017    0.00000022
     The Hubbard contrib.    to forces
     atom    1 type  1   force =     0.00000000    0.00000000    0.00000000
     atom    2 type  1   force =     0.00000000    0.00000000    0.00000000
     atom    3 type  2   force =     0.00000000    0.00000000    0.00000000
     atom    4 type  3   force =     0.00000000    0.00000000    0.00000000
     atom    5 type  3   force =     0.00000000    0.00000000    0.00000000
     atom    6 type  3   force =     0.00000000    0.00000000    0.00000000
     The SCF correction term to forces
     atom    1 type  1   force =    -0.00000502    0.00000302   -0.00001264
     atom    2 type  1   force =     0.00000068   -0.00000403    0.00000768
     atom    3 type  2   force =    -0.00001666   -0.00001779    0.00000468
     atom    4 type  3   force =     0.00007574    0.00006007    0.00004504
     atom    5 type  3   force =     0.00017167    0.00005388    0.00006983
     atom    6 type  3   force =     0.00023802    0.00019037    0.00011516

     Total force =     0.014185     Total SCF correction =     0.000395

     Computing stress (Cartesian axis) and pressure

          total   stress  (Ry/bohr**3)                   (kbar)     P=     -820.70
  -0.00637622  -0.00109864  -0.00080719         -937.97     -161.62     -118.74
  -0.00109864  -0.00534110  -0.00051180         -161.62     -785.70      -75.29
  -0.00080719  -0.00051180  -0.00501973         -118.74      -75.29     -738.43

     kinetic stress (kbar)  26972.54   -230.35   -169.22
                             -230.35  27189.64   -107.32
                             -169.22   -107.32  27256.91

     local   stress (kbar)  -7712.73  27789.87  20416.95
                            27789.87 -33906.34  12948.83
                            20416.95  12948.83 -42016.93

     nonloc. stress (kbar)  11485.48   -148.72   -109.28
                             -148.72  11625.68    -69.29
                             -109.28    -69.29  11669.06

     hartree stress (kbar)  34499.13 -13155.63  -9665.24
                           -13155.63  46899.19  -6129.97
                            -9665.24  -6129.97  50738.47

     exc-cor stress (kbar)  -6850.05      2.25      1.65
                                2.25  -6852.17      1.05
                                1.65      1.05  -6852.82

     corecor stress (kbar)  -2873.87      0.45      0.33
                                0.45  -2874.29      0.21
                                0.33      0.21  -2874.43

     ewald   stress (kbar) -56458.48 -14419.48 -10593.93
                           -14419.48 -42867.41  -6718.79
                           -10593.93  -6718.79 -38658.69

     hubbard stress (kbar)      0.00      0.00      0.00
                                0.00      0.00      0.00
                                0.00      0.00      0.00

     DFT-D   stress (kbar)      0.00      0.00      0.00
                                0.00      0.00      0.00
                                0.00      0.00      0.00

     XDM     stress (kbar)      0.00      0.00      0.00
                                0.00      0.00      0.00
                                0.00      0.00      0.00

     dft-nl  stress (kbar)      0.00      0.00      0.00
                                0.00      0.00      0.00
                                0.00      0.00      0.00

     TS-vdW  stress (kbar)      0.00      0.00      0.00
                                0.00      0.00      0.00
                                0.00      0.00      0.00

[...]

                                0.00      0.00      0.00

     Writing all to output data dir new_calculations/myprefix.save/

     General routines

     Parallel routines

     PAW routines

   This run was terminated on:  13:12:44  20May2023

   JOB DONE.