     Program PWSCF v.7.0 starts on 20May2023 at 13:15:46

     Reading input from espresso_7399.pwi
Warning: card &CELL ignored
Warning: card / ignored

     Current dimensions of program PWSCF are:
     Max number of different atomic species (ntypx) = 10
     Max number of k-points (npk) =  40000
     Max angular momentum in pseudopotentials (lmaxx) =  4

     gamma-point specific algorithms are used
     Message from routine setup:
     using ibrav=0 with symmetry is DISCOURAGED, use correct ibrav instead

     Subspace diagonalization in iterative solution of the eigenvalue problem:
     a serial algorithm will be used

     Using Slab Decomposition

     bravais-lattice index     =            0
     lattice parameter (alat)  =      14.1587  a.u.
     unit-cell volume          =    2040.0940 (a.u.)^3
     number of atoms/cell      =           10
     number of atomic types    =            3
     number of electrons       =        94.00
     number of Kohn-Sham states=           56
     kinetic-energy cutoff     =      30.0000  Ry
     charge density cutoff     =     240.0000  Ry
     scf convergence threshold =      1.0E-06
     mixing beta               =       0.7000
     number of iterations used =            8  plain     mixing
     Exchange-correlation=  SLA  PW   PBX  PBC
                           (   1   4   3   4   0   0   0)

     celldm(1)=  14.158706  celldm(2)=   0.000000  celldm(3)=   0.000000
     celldm(4)=   0.000000  celldm(5)=   0.000000  celldm(6)=   0.000000

     crystal axes: (cart. coord. in units of alat)
               a(1) = (   1.000000   0.000000   0.000000 )
               a(2) = (  -0.500000   0.866025   0.000000 )
               a(3) = (   0.000000   0.000000   0.829944 )

     reciprocal axes: (cart. coord. in units 2 pi/alat)
               b(1) = (  1.000000  0.577350  0.000000 )
               b(2) = (  0.000000  1.154701  0.000000 )
               b(3) = (  0.000000  0.000000  1.204900 )

     PseudoPot. # 1 for Rb read from file:
     /home/pragov/projects/rrg-bengioy-ad/pragov/crystal_structure_design/SSSP/Rb_ONCV_PBE-1.0.oncvpsp.upf
     MD5 check sum: 55a5172d6bfbce6759a58e35d43f6aa9
     Pseudo is Norm-conserving, Zval =  9.0
     Generated using ONCVPSP code by D. R. Hamann
     Using radial grid of 2308 points,  6 beta functions with:
                l(1) =   0
                l(2) =   0
                l(3) =   1
                l(4) =   1
                l(5) =   2
                l(6) =   2

     PseudoPot. # 2 for Co read from file:
     /home/pragov/projects/rrg-bengioy-ad/pragov/crystal_structure_design/SSSP/Co_pbe_v1.2.uspp.F.UPF
     MD5 check sum: 5f91765df6ddd3222702df6e7b74a16d
     Pseudo is Ultrasoft + core correction, Zval = 17.0
     Generated by new atomic code, or converted to UPF format
     Using radial grid of  863 points,  6 beta functions with:
                l(1) =   0
                l(2) =   0
                l(3) =   1
                l(4) =   1
                l(5) =   2
                l(6) =   2
     Q(r) pseudized with  8 coefficients,  rinner =    1.200   1.200   1.200
                                                       1.200   1.200

     PseudoPot. # 3 for Br read from file:
     /home/pragov/projects/rrg-bengioy-ad/pragov/crystal_structure_design/SSSP/br_pbe_v1.4.uspp.F.UPF
     MD5 check sum: d3ffb7b29f6225aa16fe06858fb2a80b
     Pseudo is Ultrasoft + core correction, Zval =  7.0
     Generated by new atomic code, or converted to UPF format
     Using radial grid of  879 points,  6 beta functions with:
                l(1) =   0
                l(2) =   0
                l(3) =   1
                l(4) =   1
                l(5) =   2
                l(6) =   2
     Q(r) pseudized with  8 coefficients,  rinner =    1.100   1.100   1.100
                                                       1.100   1.100

     atomic species   valence    mass     pseudopotential
        Rb             9.00    85.46780     Rb( 1.00)
        Co            17.00    58.93319     Co( 1.00)
        Br             7.00    79.90400     Br( 1.00)

     24 Sym. Ops., with inversion, found (12 have fractional translation)

                                    s                        frac. trans.

      isym =  1     identity

 cryst.   s( 1) = (     1          0          0      )
                  (     0          1          0      )
                  (     0          0          1      )

 cart.    s( 1) = (  1.0000000  0.0000000  0.0000000 )
                  (  0.0000000  1.0000000  0.0000000 )
                  (  0.0000000  0.0000000  1.0000000 )

      isym =  2     180 deg rotation - cart. axis [0,0,1]

 cryst.   s( 2) = (    -1          0          0      )    f =( -0.0000000 )
                  (     0         -1          0      )       ( -0.0000000 )
                  (     0          0          1      )       (  0.5000000 )

 cart.    s( 2) = ( -1.0000000 -0.0000000  0.0000000 )    f =( -0.0000000 )
                  (  0.0000000 -1.0000000  0.0000000 )       ( -0.0000000 )
                  (  0.0000000  0.0000000  1.0000000 )       (  0.4149721 )

[...]

      isym =  4     180 deg rotation - cart. axis [1,0,0]

[...]

      isym =  5      60 deg rotation - cryst. axis [0,0,1]

[...]

 cryst.   s( 8) = (    -1         -1          0      )
                  (     1          0          0      )
                  (     0          0          1      )

 cart.    s( 8) = ( -0.4999999  0.8660255  0.0000000 )
                  ( -0.8660253 -0.5000001  0.0000000 )
                  (  0.0000000  0.0000000  1.0000000 )

[...]

 cryst.   s( 9) = (     0         -1          0      )    f =( -0.0000000 )
                  (    -1          0          0      )       ( -0.0000000 )
                  (     0          0         -1      )       (  0.5000000 )

 cart.    s( 9) = (  0.5000001 -0.8660253  0.0000000 )    f =( -0.0000000 )
                  ( -0.8660253 -0.5000001  0.0000000 )       ( -0.0000000 )
                  (  0.0000000  0.0000000 -1.0000000 )       (  0.4149721 )

[...]

 cryst.   s(10) = (     1          1          0      )    f =(  0.0000000 )
                  (     0         -1          0      )       ( -0.0000010 )
                  (     0          0         -1      )       (  0.5000000 )

 cart.    s(10) = (  0.4999999  0.8660256  0.0000000 )    f =(  0.0000005 )
                  (  0.8660253 -0.4999999  0.0000000 )       ( -0.0000009 )
                  (  0.0000000  0.0000000 -1.0000000 )       (  0.4149721 )

[...]

 cryst.   s(11) = (    -1         -1          0      )
                  (     0          1          0      )
                  (     0          0         -1      )

 cart.    s(11) = ( -0.4999999 -0.8660256  0.0000000 )
                  ( -0.8660253  0.4999999  0.0000000 )
                  (  0.0000000  0.0000000 -1.0000000 )

      isym = 12     180 deg rotation - cryst. axis [1,1,0]

[...]

      isym = 13     inversion

[...]

      isym = 14     inv. 180 deg rotation - cart. axis [0,0,1]

[...]

      isym = 16     inv. 180 deg rotation - cart. axis [1,0,0]

[...]

      isym = 17     inv.  60 deg rotation - cryst. axis [0,0,1]

[...]

 cryst.   s(22) = (    -1         -1          0      )    f =( -0.0000000 )
                  (     0          1          0      )       ( -0.0000010 )
                  (     0          0          1      )       (  0.5000000 )

 cart.    s(22) = ( -0.4999999 -0.8660256  0.0000000 )    f =(  0.0000005 )
                  ( -0.8660253  0.4999999  0.0000000 )       ( -0.0000009 )
                  (  0.0000000  0.0000000  1.0000000 )       (  0.4149721 )

[...]

      isym = 24     inv. 180 deg rotation - cryst. axis [1,1,0]

 cryst.   s(24) = (     0         -1          0      )
                  (    -1          0          0      )
                  (     0          0          1      )

 cart.    s(24) = (  0.5000001 -0.8660253  0.0000000 )
                  ( -0.8660253 -0.5000001  0.0000000 )
                  (  0.0000000  0.0000000  1.0000000 )

   Cartesian axes

     site n.     atom                  positions (alat units)
         1           Rb  tau(   1) = (  -0.0000006   0.5773505   0.6224581  )
         2           Rb  tau(   2) = (   0.5000005   0.2886748   0.2074860  )
         3           Co  tau(   3) = (   0.0000000   0.0000000   0.0000000  )
         4           Co  tau(   4) = (   0.0000000   0.0000000   0.4149721  )
         5           Br  tau(   5) = (  -0.0000005   0.2772935   0.2074860  )
         6           Br  tau(   6) = (   0.5000004   0.5887318   0.6224581  )
         7           Br  tau(   7) = (   0.2598564   0.7273790   0.2074860  )
         8           Br  tau(   8) = (   0.2401435   0.1386463   0.6224581  )
         9           Br  tau(   9) = (  -0.2598576   0.7273790   0.2074860  )
        10           Br  tau(  10) = (   0.7598575   0.1386463   0.6224581  )

   Crystallographic axes

     site n.     atom                  positions (cryst. coord.)
         1           Rb  tau(   1) = (  0.3333330  0.6666670  0.7500000  )
         2           Rb  tau(   2) = (  0.6666670  0.3333330  0.2500000  )
         3           Co  tau(   3) = (  0.0000000  0.0000000  0.0000000  )
         4           Co  tau(   4) = (  0.0000000  0.0000000  0.5000000  )
         5           Br  tau(   5) = (  0.1600950  0.3201910  0.2500000  )
         6           Br  tau(   6) = (  0.8399050  0.6798090  0.7500000  )
         7           Br  tau(   7) = (  0.6798090  0.8399050  0.2500000  )
         8           Br  tau(   8) = (  0.3201910  0.1600950  0.7500000  )
         9           Br  tau(   9) = (  0.1600950  0.8399050  0.2500000  )
        10           Br  tau(  10) = (  0.8399050  0.1600950  0.7500000  )

     number of k points=     1  Methfessel-Paxton smearing, width (Ry)=  0.0010
                       cart. coord. in units 2pi/alat
        k(    1) = (   0.0000000   0.0000000   0.0000000), wk =   2.0000000

                       cryst. coord.
        k(    1) = (   0.0000000   0.0000000   0.0000000), wk =   2.0000000

     Check: negative core charge=   -0.000004

     Initial potential from superposition of free atoms

     starting charge      91.9503, renormalised to      94.0000
     Starting wfcs are   60 randomized atomic wfcs

     Self-consistent Calculation

     iteration #  1     ecut=    30.00 Ry     beta= 0.70
     Davidson diagonalization with overlap

     ethr =  1.00E-02,  avg # of iterations =  4.0

     total energy              =    -975.61251395 Ry
     estimated scf accuracy    <       1.47771068 Ry

[...]

     total energy              =    -976.27754275 Ry
     estimated scf accuracy    <       0.00000213 Ry

     iteration # 18     ecut=    30.00 Ry     beta= 0.70
     Davidson diagonalization with overlap

     ethr =  2.26E-09,  avg # of iterations =  1.0

     End of self-consistent calculation

          k = 0.0000 0.0000 0.0000 (  2825 PWs)   bands (ev):

   -89.5413 -89.5409 -52.8656 -52.8656 -52.8652 -52.8651 -52.7477 -52.7313
   -22.1200 -22.1179 -10.5676 -10.0216  -9.9966  -9.9965  -9.8029  -9.8029
    -6.2567  -6.2230  -6.2185  -6.2185  -6.1850  -6.1850  -0.7695  -0.1138
     0.2618   0.9124   0.9124   1.2270   1.2271   1.3728   1.3728   1.7980
     1.7980   2.0152   2.0153   2.5308   2.8718   2.8718   2.9106   3.2789
     3.7424   4.2342   4.2343   4.3400   4.3401   4.7972   5.0410   5.0411
     5.6451   5.6451   7.3940   8.6629   9.2301   9.4843   9.5128   9.9467

     occupation numbers
     1.0000   1.0000   1.0000   1.0000   1.0000   1.0000   1.0000   1.0000
     1.0000   1.0000   1.0000   1.0000   1.0000   1.0000   1.0000   1.0000
     1.0000   1.0000   1.0000   1.0000   1.0000   1.0000   1.0000   1.0000
     1.0000   1.0000   1.0000   1.0000   1.0000   1.0000   1.0000   1.0000
     1.0000   1.0000   1.0000   1.0000   1.0000   1.0000   1.0000   1.0000
     1.0000   1.0000   1.0000   1.0000   1.0000   1.0000   0.5007   0.4993
    -0.0000  -0.0000  -0.0000  -0.0000  -0.0000  -0.0000  -0.0000  -0.0000

     the Fermi energy is     5.0411 ev

!    total energy              =    -976.27754274 Ry
     estimated scf accuracy    <       0.00000012 Ry
     smearing contrib. (-TS)   =      -0.00056419 Ry
     internal energy E=F+TS    =    -976.27697855 Ry

     The total energy is F=E-TS. E is the sum of the following terms:
     one-electron contribution =    -775.54607798 Ry
     hartree contribution      =     418.47003408 Ry
     xc contribution           =    -237.10897171 Ry
     ewald contribution        =    -382.09196294 Ry

     convergence has been achieved in  18 iterations

     Forces acting on atoms (cartesian axes, Ry/au):

     atom    1 type  1   force =    -0.00000000    0.00000000    0.00000000
     atom    2 type  1   force =     0.00000000    0.00000000    0.00000000
     atom    3 type  2   force =     0.00000000    0.00000000    0.00000000
     atom    4 type  2   force =     0.00000000   -0.00000000   -0.00000000
     atom    5 type  3   force =     0.00000000   -0.03744681    0.00000000
     atom    6 type  3   force =     0.00000000    0.03744681    0.00000000
     atom    7 type  3   force =     0.03242989    0.01872341   -0.00000000
     atom    8 type  3   force =    -0.03242989   -0.01872341    0.00000000
     atom    9 type  3   force =    -0.03242989    0.01872340    0.00000000
     atom   10 type  3   force =     0.03242989   -0.01872340    0.00000000
     The non-local contrib.  to forces
     atom    1 type  1   force =     0.00000000    0.00000000    0.00000000
     atom    2 type  1   force =    -0.00000000   -0.00000000    0.00000000
     atom    3 type  2   force =    -0.00000000   -0.00000000    0.00000000
     atom    4 type  2   force =     0.00000000    0.00000000   -0.00000000
     atom    5 type  3   force =     0.00000000    0.06086901    0.00000000
     atom    6 type  3   force =     0.00000000   -0.06086901   -0.00000000
     atom    7 type  3   force =    -0.05271411   -0.03043451   -0.00000000
     atom    8 type  3   force =     0.05271411    0.03043451    0.00000000
     atom    9 type  3   force =     0.05271411   -0.03043450   -0.00000000
     atom   10 type  3   force =    -0.05271411    0.03043450    0.00000000
     The ionic contribution  to forces
     atom    1 type  1   force =     0.00004083   -0.00002357   -0.00000000
     atom    2 type  1   force =    -0.00004083    0.00002357    0.00000000
     atom    3 type  2   force =     0.00000000    0.00000000   -0.00000000
     atom    4 type  2   force =     0.00000000    0.00000000    0.00000000
     atom    5 type  3   force =     0.00000016   13.56099437    0.00000000
     atom    6 type  3   force =    -0.00000016  -13.56099437   -0.00000000
     atom    7 type  3   force =   -11.74416479   -6.78049864    0.00000000
     atom    8 type  3   force =    11.74416479    6.78049864   -0.00000000
     atom    9 type  3   force =    11.74420432   -6.78051865    0.00000000
     atom   10 type  3   force =   -11.74420432    6.78051865   -0.00000000
     The local contribution  to forces
     atom    1 type  1   force =    -0.00001790   -0.00002826   -0.00001954
     atom    2 type  1   force =     0.00001922    0.00002967    0.00001952
     atom    3 type  2   force =     0.00000002   -0.00000402    0.00000240
     atom    4 type  2   force =    -0.00000198   -0.00000540   -0.00000090
     atom    5 type  3   force =     0.00001301  -13.68661401    0.00007572
     atom    6 type  3   force =    -0.00001403   13.68661596   -0.00007550
     atom    7 type  3   force =    11.85298048    6.84329802    0.00007706
     atom    8 type  3   force =   -11.85298066   -6.84329901   -0.00007704
     atom    9 type  3   force =   -11.85302619    6.84333688    0.00007632
     atom   10 type  3   force =    11.85302627   -6.84333881   -0.00007605
     The core correction contribution to forces
     atom    1 type  1   force =     0.00000000    0.00000000    0.00000000
     atom    2 type  1   force =     0.00000000    0.00000000    0.00000000
     atom    3 type  2   force =     0.00000000   -0.00000003   -0.00000002
     atom    4 type  2   force =     0.00000001    0.00000000   -0.00000005
     atom    5 type  3   force =    -0.00000042    0.02738581    0.00000042
     atom    6 type  3   force =     0.00000047   -0.02738586   -0.00000048
     atom    7 type  3   force =    -0.02371394   -0.01369040   -0.00000003
     atom    8 type  3   force =     0.02371396    0.01369028    0.00000008
     atom    9 type  3   force =     0.02371249   -0.01368993    0.00000015
     atom   10 type  3   force =    -0.02371261    0.01368993   -0.00000021
     The Hubbard contrib.    to forces
     atom    1 type  1   force =     0.00000000    0.00000000    0.00000000
     atom    2 type  1   force =     0.00000000    0.00000000    0.00000000
     atom    3 type  2   force =     0.00000000    0.00000000    0.00000000
     atom    4 type  2   force =     0.00000000    0.00000000    0.00000000
     atom    5 type  3   force =     0.00000000    0.00000000    0.00000000
     atom    6 type  3   force =     0.00000000    0.00000000    0.00000000
     atom    7 type  3   force =     0.00000000    0.00000000    0.00000000
     atom    8 type  3   force =     0.00000000    0.00000000    0.00000000
     atom    9 type  3   force =     0.00000000    0.00000000    0.00000000
     atom   10 type  3   force =     0.00000000    0.00000000    0.00000000
     The SCF correction term to forces
     atom    1 type  1   force =    -0.00002664    0.00005786    0.00002424
     atom    2 type  1   force =     0.00002488   -0.00005950   -0.00002415
     atom    3 type  2   force =     0.00000210    0.00000517   -0.00000521
     atom    4 type  2   force =     0.00000218    0.00000817    0.00000167
     atom    5 type  3   force =    -0.00001581   -0.00007385   -0.00008245
     atom    6 type  3   force =     0.00001681    0.00007184    0.00008303
     atom    7 type  3   force =     0.00003852    0.00005796   -0.00007968
     atom    8 type  3   force =    -0.00003842   -0.00005622    0.00007960
     atom    9 type  3   force =    -0.00003747    0.00003869   -0.00008080
     atom   10 type  3   force =     0.00003788   -0.00003630    0.00008095

     Total force =     0.091726     Total SCF correction =     0.000274

     Computing stress (Cartesian axis) and pressure

          total   stress  (Ry/bohr**3)                   (kbar)     P=      -65.15
  -0.00031716  -0.00000000   0.00000000          -46.66       -0.00        0.00
  -0.00000000  -0.00031716   0.00000000           -0.00      -46.66        0.00
   0.00000000   0.00000000  -0.00069441            0.00        0.00     -102.15

     kinetic stress (kbar)   8020.48      0.00     -0.00
                                0.00   8020.48     -0.00
                               -0.00     -0.00   7972.16

     local   stress (kbar)   1428.27     -0.05     -0.00
                               -0.05   1427.89      0.02
                               -0.00      0.02 -22726.43

     nonloc. stress (kbar)    580.72      0.00      0.00
                                0.00    580.72      0.00
                                0.00      0.00    607.19

     hartree stress (kbar)   6300.78      0.04      0.00
                                0.04   6301.02     -0.01
                                0.00     -0.01  17572.83

     exc-cor stress (kbar)   6302.80      0.00      0.00
                                0.00   6302.80     -0.00
                                0.00     -0.00   6305.45

     corecor stress (kbar)  -9214.16     -0.00     -0.00
                               -0.00  -9214.16      0.00
                               -0.00      0.00  -9212.79

     ewald   stress (kbar) -13465.45     -0.04      0.00
                               -0.04 -13465.50      0.00
                                0.00      0.00   -620.56

     hubbard stress (kbar)      0.00      0.00      0.00
                                0.00      0.00      0.00
                                0.00      0.00      0.00

     DFT-D   stress (kbar)      0.00      0.00      0.00
                                0.00      0.00      0.00
                                0.00      0.00      0.00

     XDM     stress (kbar)      0.00      0.00      0.00
                                0.00      0.00      0.00
                                0.00      0.00      0.00

     dft-nl  stress (kbar)      0.00      0.00      0.00
                                0.00      0.00      0.00
                                0.00      0.00      0.00

     TS-vdW  stress (kbar)      0.00      0.00      0.00
                                0.00      0.00      0.00
                                0.00      0.00      0.00

[...]

                                0.00      0.00      0.00

     Writing all to output data dir new_calculations/myprefix.save/

     General routines

     Parallel routines

   This run was terminated on:  13:16:11  20May2023

   JOB DONE.