     Program PWSCF v.7.0 starts on 20May2023 at  6: 0:14

     Reading input from espresso_10171.pwi
Warning: card &CELL ignored
Warning: card / ignored

     Current dimensions of program PWSCF are:
     Max number of different atomic species (ntypx) = 10
     Max number of k-points (npk) =  40000
     Max angular momentum in pseudopotentials (lmaxx) =  4
     file O.pbe-n-kjpaw_psl.0.1.UPF: wavefunction(s)  2P renormalized

     gamma-point specific algorithms are used
     Message from routine setup:
     using ibrav=0 with symmetry is DISCOURAGED, use correct ibrav instead

     Subspace diagonalization in iterative solution of the eigenvalue problem:
     a serial algorithm will be used

     Using Slab Decomposition

     bravais-lattice index     =            0
     lattice parameter (alat)  =       7.6865  a.u.
     unit-cell volume          =     886.4699 (a.u.)^3
     number of atoms/cell      =            8
     number of atomic types    =            3
     number of electrons       =       102.00
     number of Kohn-Sham states=           61
     kinetic-energy cutoff     =      30.0000  Ry
     charge density cutoff     =     240.0000  Ry
     scf convergence threshold =      1.0E-06
     mixing beta               =       0.7000
     number of iterations used =            8  plain     mixing
     Exchange-correlation= SLA  PW   PBX  PBC
                           (   1   4   3   4   0   0   0)

     celldm(1)=   7.686461  celldm(2)=   0.000000  celldm(3)=   0.000000
     celldm(4)=   0.000000  celldm(5)=   0.000000  celldm(6)=   0.000000

     crystal axes: (cart. coord. in units of alat)
               a(1) = (   1.000000   0.000000   0.000000 )
               a(2) = (  -0.012373   1.342138   0.000000 )
               a(3) = (  -0.130219  -0.055095   1.454412 )

     reciprocal axes: (cart. coord. in units 2 pi/alat)
               b(1) = (  1.000000  0.009219  0.089883 )
               b(2) = (  0.000000  0.745080  0.028225 )
               b(3) = (  0.000000  0.000000  0.687563 )

     PseudoPot. # 1 for Ag read from file:
     /home/pragov/projects/rrg-bengioy-ad/pragov/crystal_structure_design/SSSP/Ag_ONCV_PBE-1.0.oncvpsp.upf
     MD5 check sum: 94f47bd0669c641108e45594df92fabc
     Pseudo is Norm-conserving, Zval = 19.0
     Generated using ONCVPSP code by D. R. Hamann
     Using radial grid of 1398 points,  6 beta functions with:
                l(1) =   0
                l(2) =   0
                l(3) =   1
                l(4) =   1
                l(5) =   2
                l(6) =   2

     PseudoPot. # 2 for Hg read from file:
     /home/pragov/projects/rrg-bengioy-ad/pragov/crystal_structure_design/SSSP/Hg_ONCV_PBE-1.0.oncvpsp.upf
     MD5 check sum: dd5a8773074bfcf4280086d4d95875c4
     Pseudo is Norm-conserving, Zval = 20.0
     Generated using ONCVPSP code by D. R. Hamann
     Using radial grid of 1262 points,  8 beta functions with:
                l(1) =   0
                l(2) =   0
                l(3) =   1
                l(4) =   1
                l(5) =   2
                l(6) =   2
                l(7) =   3
                l(8) =   3

     PseudoPot. # 3 for O  read from file:
     /home/pragov/projects/rrg-bengioy-ad/pragov/crystal_structure_design/SSSP/O.pbe-n-kjpaw_psl.0.1.UPF
     MD5 check sum: 0234752ac141de4415c5fc33072bef88
     Pseudo is Projector augmented-wave + core cor, Zval =  6.0
     Generated using "atomic" code by A. Dal Corso  v.5.0.99 svn rev. 10869
     Shape of augmentation charge: BESSEL
     Using radial grid of 1095 points,  4 beta functions with:
                l(1) =   0
                l(2) =   0
                l(3) =   1
                l(4) =   1
     Q(r) pseudized with 0 coefficients

     atomic species   valence    mass     pseudopotential
        Ag            19.00   107.86820     Ag( 1.00)
        Hg            20.00   200.59200     Hg( 1.00)
        O              6.00    15.99900     O ( 1.00)

      2 Sym. Ops., with inversion, found

                                    s                        frac. trans.

      isym =  1     identity

 cryst.   s( 1) = (     1          0          0      )
                  (     0          1          0      )
                  (     0          0          1      )

 cart.    s( 1) = (  1.0000000 -0.0000000 -0.0000000 )
                  (  0.0000000  1.0000000  0.0000000 )
                  (  0.0000000  0.0000000  1.0000000 )

      isym =  2     inversion

 cryst.   s( 2) = (    -1          0          0      )
                  (     0         -1          0      )
                  (     0          0         -1      )

 cart.    s( 2) = ( -1.0000000  0.0000000  0.0000000 )
                  (  0.0000000 -1.0000000 -0.0000000 )
                  (  0.0000000  0.0000000 -1.0000000 )

   Cartesian axes

     site n.     atom                  positions (alat units)
         1           Ag  tau(   1) = (   0.5000000   0.0000000   0.0000000  )
         2           Ag  tau(   2) = (   0.4287042   0.6435216   0.7272059  )
         3           Hg  tau(   3) = (  -0.0651093  -0.0275476   0.7272059  )
         4           Hg  tau(   4) = (  -0.0061865   0.6710692   0.0000000  )
         5           O   tau(   5) = (   0.5899320   0.9179129   1.1501198  )
         6           O   tau(   6) = (   0.6129035   1.0415839   0.4268262  )
         7           O   tau(   7) = (   0.2674765   0.3691303   0.3042920  )
         8           O   tau(   8) = (   0.2445050   0.2454592   1.0275856  )

   Crystallographic axes

     site n.     atom                  positions (cryst. coord.)
         1           Ag  tau(   1) = (  0.5000000  0.0000000  0.0000000  )
         2           Ag  tau(   2) = (  0.5000000  0.5000000  0.5000000  )
         3           Hg  tau(   3) = (  0.0000000  0.0000000  0.5000000  )
         4           Hg  tau(   4) = ( -0.0000000  0.5000000  0.0000000  )
         5           O   tau(   5) = (  0.7017700  0.7163800  0.7907800  )
         6           O   tau(   6) = (  0.6608700  0.7881100  0.2934700  )
         7           O   tau(   7) = (  0.2982300  0.2836200  0.2092200  )
         8           O   tau(   8) = (  0.3391300  0.2118900  0.7065300  )

     number of k points=     1  Methfessel-Paxton smearing, width (Ry)=  0.0010
                       cart. coord. in units 2pi/alat
        k(    1) = (   0.0000000   0.0000000   0.0000000), wk =   2.0000000

                       cryst. coord.
        k(    1) = (   0.0000000   0.0000000   0.0000000), wk =   2.0000000

     Check: negative core charge=   -0.000012

     Initial potential from superposition of free atoms

     starting charge     101.9993, renormalised to     102.0000
     Starting wfcs are   56 randomized atomic wfcs +    5 random wfcs
     Checking if some PAW data can be deallocated...

     Self-consistent Calculation

     iteration #  1     ecut=    30.00 Ry     beta= 0.70
     Davidson diagonalization with overlap

     ethr =  1.00E-02,  avg # of iterations =  9.0

     total energy              =   -1358.89108447 Ry
     estimated scf accuracy    <       1.94730057 Ry

[...]

     total energy              =   -1359.95165434 Ry
     estimated scf accuracy    <       0.00005028 Ry

     iteration # 10     ecut=    30.00 Ry     beta= 0.70
     Davidson diagonalization with overlap

     ethr =  4.93E-08,  avg # of iterations =  2.0

     End of self-consistent calculation

          k = 0.0000 0.0000 0.0000 (  1233 PWs)   bands (ev):

  -105.4784-105.4396 -82.4297 -82.3515 -53.5280 -53.4928 -53.2545 -53.2352
   -53.1819 -53.1340 -45.5756 -45.5042 -45.4874 -45.4238 -45.2707 -45.2045
    -7.9703  -7.4436  -7.2261  -7.0906   2.5840   2.7797   3.0103   3.4034
     3.4756   3.5370   4.0756   4.1581   4.1920   4.3271   4.8728   5.1251
     5.5369   5.7522   6.1808   6.4900   6.5655   6.5798   6.6643   6.7650
     6.8589   7.1510   7.4841   7.6666   7.7665   8.1612   8.2291   8.2809
     8.4922   9.5592  10.2055  10.7052  11.7472  13.2365  14.3949  14.5438
    16.2318  16.5386  16.9526  18.3690  19.9749

     occupation numbers
     1.0000   1.0000   1.0000   1.0000   1.0000   1.0000   1.0000   1.0000
     1.0000   1.0000   1.0000   1.0000   1.0000   1.0000   1.0000   1.0000
     1.0000   1.0000   1.0000   1.0000   1.0000   1.0000   1.0000   1.0000
     1.0000   1.0000   1.0000   1.0000   1.0000   1.0000   1.0000   1.0000
     1.0000   1.0000   1.0000   1.0000   1.0000   1.0000   1.0000   1.0000
     1.0000   1.0000   1.0000   1.0000   1.0000   1.0000   1.0000   1.0000
     1.0000   1.0000   1.0000  -0.0000  -0.0000  -0.0000  -0.0000  -0.0000
    -0.0000  -0.0000  -0.0000  -0.0000  -0.0000

     the Fermi energy is    10.2886 ev

!    total energy              =   -1359.95166305 Ry
     estimated scf accuracy    <       0.00000064 Ry
     smearing contrib. (-TS)   =       0.00000000 Ry
     internal energy E=F+TS    =   -1359.95166305 Ry

     The total energy is F=E-TS. E is the sum of the following terms:
     one-electron contribution =    -677.59924921 Ry
     hartree contribution      =     368.71452302 Ry
     xc contribution           =    -138.08706668 Ry
     ewald contribution        =    -874.82728179 Ry
     one-center paw contrib.   =     -38.15258839 Ry
      -> PAW hartree energy AE =     111.44497312 Ry
      -> PAW hartree energy PS =    -111.07748878 Ry
      -> PAW xc energy AE      =     -67.61846844 Ry
      -> PAW xc energy PS      =      29.09839571 Ry
      -> total E_H with PAW    =     369.08200736 Ry
      -> total E_XC with PAW   =    -176.60713941 Ry

     convergence has been achieved in  10 iterations

     Forces acting on atoms (cartesian axes, Ry/au):

     atom    1 type  1   force =     0.00000000    0.00000000    0.00000000
     atom    2 type  1   force =     0.00000000    0.00000000    0.00000000
     atom    3 type  2   force =     0.00000000    0.00000000    0.00000000
     atom    4 type  2   force =     0.00000000    0.00000000    0.00000000
     atom    5 type  3   force =     0.00007799   -0.01138646   -0.00505330
     atom    6 type  3   force =     0.00666970    0.01409614   -0.00099675
     atom    7 type  3   force =    -0.00007799    0.01138646    0.00505330
     atom    8 type  3   force =    -0.00666970   -0.01409614    0.00099675
     The non-local contrib.  to forces
     atom    1 type  1   force =     0.00000000    0.00000000    0.00000000
     atom    2 type  1   force =     0.00000000    0.00000000    0.00000000
     atom    3 type  2   force =     0.00000000    0.00000000    0.00000000
     atom    4 type  2   force =     0.00000000    0.00000000    0.00000000
     atom    5 type  3   force =     0.07072860   -0.78274280    0.68381668
     atom    6 type  3   force =     0.49717100    0.58191881    0.63908991
     atom    7 type  3   force =    -0.07072860    0.78274280   -0.68381668
     atom    8 type  3   force =    -0.49717100   -0.58191881   -0.63908991
     The ionic contribution  to forces
     atom    1 type  1   force =     0.00000000   -0.00000000   -0.00000000
     atom    2 type  1   force =     0.00000000    0.00000000    0.00000000
     atom    3 type  2   force =    -0.00000000   -0.00000000    0.00000000
     atom    4 type  2   force =    -0.00000000    0.00000000   -0.00000000
     atom    5 type  3   force =     0.14277655    2.38197045   -1.81635831
     atom    6 type  3   force =    -1.20002974   -1.91718635   -2.29337038
     atom    7 type  3   force =    -0.14277655   -2.38197045    1.81635831
     atom    8 type  3   force =     1.20002974    1.91718635    2.29337038
     The local contribution  to forces
     atom    1 type  1   force =     0.00018558   -0.00013551   -0.00082070
     atom    2 type  1   force =     0.00017442    0.00058021    0.00034922
     atom    3 type  2   force =    -0.00010027   -0.00060272    0.00021261
     atom    4 type  2   force =    -0.00015261    0.00063863   -0.00032318
     atom    5 type  3   force =    -0.21256569   -1.61987991    1.13601773
     atom    6 type  3   force =     0.71549052    1.35650269    1.66088186
     atom    7 type  3   force =     0.21261821    1.61982434   -1.13596146
     atom    8 type  3   force =    -0.71545501   -1.35656551   -1.66080694
     The core correction contribution to forces
     atom    1 type  1   force =     0.00000000    0.00000000    0.00000000
     atom    2 type  1   force =     0.00000000    0.00000000    0.00000000
     atom    3 type  2   force =     0.00000000    0.00000000    0.00000000
     atom    4 type  2   force =     0.00000000    0.00000000    0.00000000
     atom    5 type  3   force =    -0.00072946    0.00968024   -0.00857581
     atom    6 type  3   force =    -0.00613526   -0.00717647   -0.00787508
     atom    7 type  3   force =     0.00073002   -0.00968314    0.00857800
     atom    8 type  3   force =     0.00613475    0.00717811    0.00787410
     The Hubbard contrib.    to forces
     atom    1 type  1   force =     0.00000000    0.00000000    0.00000000
     atom    2 type  1   force =     0.00000000    0.00000000    0.00000000
     atom    3 type  2   force =     0.00000000    0.00000000    0.00000000
     atom    4 type  2   force =     0.00000000    0.00000000    0.00000000
     atom    5 type  3   force =     0.00000000    0.00000000    0.00000000
     atom    6 type  3   force =     0.00000000    0.00000000    0.00000000
     atom    7 type  3   force =     0.00000000    0.00000000    0.00000000
     atom    8 type  3   force =     0.00000000    0.00000000    0.00000000
     The SCF correction term to forces
     atom    1 type  1   force =    -0.00013736    0.00003521    0.00095183
     atom    2 type  1   force =    -0.00022222   -0.00077619   -0.00025779
     atom    3 type  2   force =     0.00016618    0.00063036   -0.00016380
     atom    4 type  2   force =     0.00015057   -0.00074105    0.00038143
     atom    5 type  3   force =    -0.00014707   -0.00047565    0.00011333
     atom    6 type  3   force =     0.00011269    0.00006505    0.00031887
     atom    7 type  3   force =     0.00006387    0.00041171   -0.00003795
     atom    8 type  3   force =    -0.00026868    0.00005132   -0.00030895

     Total force =     0.028262     Total SCF correction =     0.001881

     Computing stress (Cartesian axis) and pressure

          total   stress  (Ry/bohr**3)                   (kbar)     P=    -1082.70
  -0.00757278  -0.00028019  -0.00032407        -1113.99      -41.22      -47.67
  -0.00028019  -0.00756278  -0.00016652          -41.22    -1112.52      -24.50
  -0.00032407  -0.00016652  -0.00694452          -47.67      -24.50    -1021.57

     kinetic stress (kbar)  49802.00    -66.08   -554.92
                              -66.08  49069.61     35.97
                             -554.92     35.97  48942.89

     local   stress (kbar)  -4904.20   -195.67  -9341.59
                             -195.67 -23011.32   1322.70
                            -9341.59   1322.70 -26224.40

     nonloc. stress (kbar)   2843.88    -17.51     33.22
                              -17.51   2907.25     -8.79
                               33.22     -8.79   2986.88

     hartree stress (kbar)  14994.99     82.97   3531.27
                               82.97  22394.16   -531.81
                             3531.27   -531.81  23797.11

     exc-cor stress (kbar)  -6953.02     -0.13      6.75
                               -0.13  -6943.33     -1.51
                                6.75     -1.51  -6939.61

     corecor stress (kbar)   -281.76      0.27      1.10
                                0.27   -278.20     -0.16
                                1.10     -0.16   -277.96

     ewald   stress (kbar) -56615.88    154.94   6276.50
                              154.94 -45250.70   -840.91
                             6276.50   -840.91 -43306.48

     hubbard stress (kbar)      0.00      0.00      0.00
                                0.00      0.00      0.00
                                0.00      0.00      0.00

     DFT-D   stress (kbar)      0.00      0.00      0.00
                                0.00      0.00      0.00
                                0.00      0.00      0.00

     XDM     stress (kbar)      0.00      0.00      0.00
                                0.00      0.00      0.00
                                0.00      0.00      0.00

     dft-nl  stress (kbar)      0.00      0.00      0.00
                                0.00      0.00      0.00
                                0.00      0.00      0.00

     TS-vdW  stress (kbar)      0.00      0.00      0.00
                                0.00      0.00      0.00
                                0.00      0.00      0.00

[...]

                                0.00      0.00      0.00

     Writing all to output data dir new_calculations/myprefix.save/

     General routines

     Parallel routines

     PAW routines

   This run was terminated on:   6: 0:28  20May2023

   JOB DONE.