     Program PWSCF v.7.0 starts on 21May2023 at 18: 3:37

     Reading input from espresso_26948.pwi
Warning: card &CELL ignored
Warning: card / ignored

     Current dimensions of program PWSCF are:
     Max number of different atomic species (ntypx) = 10
     Max number of k-points (npk) =  40000
     Max angular momentum in pseudopotentials (lmaxx) =  4

     gamma-point specific algorithms are used
     Message from routine setup:
     using ibrav=0 with symmetry is DISCOURAGED, use correct ibrav instead

     Subspace diagonalization in iterative solution of the eigenvalue problem:
     a serial algorithm will be used

     Using Slab Decomposition

     bravais-lattice index     =            0
     lattice parameter (alat)  =       7.3637  a.u.
     unit-cell volume          =     579.2237 (a.u.)^3
     number of atoms/cell      =            5
     number of atomic types    =            4
     number of electrons       =        68.00
     number of Kohn-Sham states=           41
     kinetic-energy cutoff     =      30.0000  Ry
     charge density cutoff     =     240.0000  Ry
     scf convergence threshold =      1.0E-06
     mixing beta               =       0.7000
     number of iterations used =            8  plain     mixing
     Exchange-correlation= PBE
                           (   1   4   3   4   0   0   0)

     celldm(1)=   7.363691  celldm(2)=   0.000000  celldm(3)=   0.000000
     celldm(4)=   0.000000  celldm(5)=   0.000000  celldm(6)=   0.000000

     crystal axes: (cart. coord. in units of alat)
               a(1) = (   1.000000   0.000000   0.000000 )
               a(2) = (  -0.500000   0.866025   0.000000 )
               a(3) = (   0.000000   0.000000   1.675055 )

     reciprocal axes: (cart. coord. in units 2 pi/alat)
               b(1) = (  1.000000  0.577350  0.000000 )
               b(2) = (  0.000000  1.154700  0.000000 )
               b(3) = (  0.000000  0.000000  0.596995 )

     PseudoPot. # 1 for Yb read from file:
     /home/pragov/projects/rrg-bengioy-ad/pragov/crystal_structure_design/SSSP/Yb.GGA-PBE-paw-v1.0.UPF
     MD5 check sum: 43b6465ad8021f06e3edb42ae292e187
     Pseudo is Projector augmented-wave + core cor, Zval = 24.0
     Generated using ATOMPAW code
     Shape of augmentation charge: BESSEL
     Using radial grid of 1117 points,  8 beta functions with:
                l(1) =   0
                l(2) =   0
                l(3) =   1
                l(4) =   1
                l(5) =   2
                l(6) =   2
                l(7) =   3
                l(8) =   3
     Q(r) pseudized with 0 coefficients

     PseudoPot. # 2 for Mn read from file:
     /home/pragov/projects/rrg-bengioy-ad/pragov/crystal_structure_design/SSSP/mn_pbe_v1.5.uspp.F.UPF
     MD5 check sum: 82ef2b46521d7a7d9e736dc3972e4928
     Pseudo is Ultrasoft + core correction, Zval = 15.0
     Generated by new atomic code, or converted to UPF format
     Using radial grid of  859 points,  6 beta functions with:
                l(1) =   0
                l(2) =   0
                l(3) =   1
                l(4) =   1
                l(5) =   2
                l(6) =   2
     Q(r) pseudized with  8 coefficients,  rinner =    0.950   0.950   0.950
                                                       0.950   0.950

     PseudoPot. # 3 for Cu read from file:
     /home/pragov/projects/rrg-bengioy-ad/pragov/crystal_structure_design/SSSP/Cu_pbe_v1.2.uspp.F.UPF
     MD5 check sum: 6e991ff952a84172a2a52a1c1e996048
     Pseudo is Ultrasoft + core correction, Zval = 19.0
     Generated by new atomic code, or converted to UPF format
     Using radial grid of  867 points,  6 beta functions with:
                l(1) =   0
                l(2) =   0
                l(3) =   1
                l(4) =   1
                l(5) =   2
                l(6) =   2
     Q(r) pseudized with  8 coefficients,  rinner =    1.150   1.150   1.150
                                                       1.150   1.150

     PseudoPot. # 4 for P  read from file:
     /home/pragov/projects/rrg-bengioy-ad/pragov/crystal_structure_design/SSSP/P.pbe-n-rrkjus_psl.1.0.0.UPF
     MD5 check sum: 8b930f418f0a4573dca56cd030ffe088
     Pseudo is Ultrasoft + core correction, Zval =  5.0
     Generated using "atomic" code by A. Dal Corso  v.5.1
     Using radial grid of 1147 points,  6 beta functions with:
                l(1) =   0
                l(2) =   0
                l(3) =   1
                l(4) =   1
                l(5) =   2
                l(6) =   2
     Q(r) pseudized with 0 coefficients

     atomic species   valence    mass     pseudopotential
        Yb            24.00   173.05400     Yb( 1.00)
        Mn            15.00    54.93804     Mn( 1.00)
        Cu            19.00    63.54600     Cu( 1.00)
        P              5.00    30.97376     P ( 1.00)

      6 Sym. Ops. (no inversion) found

                                    s                        frac. trans.

      isym =  1     identity

 cryst.   s( 1) = (     1          0          0      )
                  (     0          1          0      )
                  (     0          0          1      )

 cart.    s( 1) = (  1.0000000 -0.0000000  0.0000000 )
                  (  0.0000000  1.0000000  0.0000000 )
                  (  0.0000000  0.0000000  1.0000000 )

      isym =  2     120 deg rotation - cryst. axis [0,0,1]

[...]

      isym =  3     120 deg rotation - cryst. axis [0,0,-1]

[...]

      isym =  4     inv. 180 deg rotation - cart. axis [1,0,0]

[...]

      isym =  5     inv. 180 deg rotation - cryst. axis [0,1,0]

[...]

      isym =  6     inv. 180 deg rotation - cryst. axis [1,1,0]

 cryst.   s( 6) = (     0         -1          0      )
                  (    -1          0          0      )
                  (     0          0          1      )

 cart.    s( 6) = (  0.4999999 -0.8660255  0.0000000 )
                  ( -0.8660255 -0.4999999  0.0000000 )
                  (  0.0000000  0.0000000  1.0000000 )

   Cartesian axes

     site n.     atom                  positions (alat units)
         1           Yb  tau(   1) = (  -0.0000004   0.5773506   1.6582420  )
         2           Mn  tau(   2) = (   0.0000000   0.0000000   0.6327234  )
         3           Cu  tau(   3) = (   0.5000005   0.2886749   1.0610147  )
         4           P   tau(   4) = (   0.5000005   0.2886749   0.4598494  )
         5           P   tau(   5) = (   0.0000000   0.0000000   1.2133325  )

   Crystallographic axes

     site n.     atom                  positions (cryst. coord.)
         1           Yb  tau(   1) = (  0.3333330  0.6666670  0.9899630  )
         2           Mn  tau(   2) = (  0.0000000  0.0000000  0.3777330  )
         3           Cu  tau(   3) = (  0.6666670  0.3333330  0.6334210  )
         4           P   tau(   4) = (  0.6666670  0.3333330  0.2745280  )
         5           P   tau(   5) = (  0.0000000  0.0000000  0.7243540  )

     number of k points=     1  Methfessel-Paxton smearing, width (Ry)=  0.0010
                       cart. coord. in units 2pi/alat
        k(    1) = (   0.0000000   0.0000000   0.0000000), wk =   2.0000000

                       cryst. coord.
        k(    1) = (   0.0000000   0.0000000   0.0000000), wk =   2.0000000

     Check: negative core charge=   -0.000011

     Initial potential from superposition of free atoms

     starting charge      66.4956, renormalised to      68.0000
     Starting wfcs are   66 randomized atomic wfcs
     Checking if some PAW data can be deallocated...

     Self-consistent Calculation

     iteration #  1     ecut=    30.00 Ry     beta= 0.70
     Davidson diagonalization with overlap

     ethr =  1.00E-02,  avg # of iterations =  3.0

     total energy              =   -1477.87090155 Ry
     estimated scf accuracy    <     143.22891263 Ry

[...]

     c_bands:  2 eigenvalues not converged
     ethr =  1.00E-02,  avg # of iterations = 20.0

[...]

     negative rho (up, down):  3.345E-06 0.000E+00

[...]

     negative rho (up, down):  2.464E-05 0.000E+00

[...]

     total energy              =   -1653.76267302 Ry
     estimated scf accuracy    <       0.00000548 Ry

     iteration # 68     ecut=    30.00 Ry     beta= 0.70
     Davidson diagonalization with overlap

     ethr =  8.06E-09,  avg # of iterations =  2.0

     End of self-consistent calculation

          k = 0.0000 0.0000 0.0000 (   815 PWs)   bands (ev):

   -99.9496 -64.7912 -57.4806 -57.2991 -57.2990 -38.0547 -33.7036 -33.7036
   -33.4021 -10.6772 -10.1718 -10.1716   0.6654   2.3775   7.3575   8.6635
     8.6636   9.0658   9.2141   9.2141  10.2289  10.2289  11.6746  12.6117
    12.6117  13.0687  13.2075  13.2076  13.2854  13.3631  13.3921  13.3921
    13.6880  13.6880  14.9546  15.4833  15.7416  15.7416  16.2015  16.3089
    16.3090

     occupation numbers
     1.0000   1.0000   1.0000   1.0000   1.0000   1.0000   1.0000   1.0000
     1.0000   1.0000   1.0000   1.0000   1.0000   1.0000   1.0000   1.0000
     1.0000   1.0000   1.0000   1.0000   1.0000   1.0000   1.0000   1.0000
     1.0000   1.0000   1.0000   1.0000   1.0000   1.0000   1.0000   1.0000
     1.0000   1.0000  -0.0000  -0.0000  -0.0000  -0.0000  -0.0000  -0.0000
    -0.0000

     the Fermi energy is    14.6242 ev

!    total energy              =   -1653.76267331 Ry
     estimated scf accuracy    <       0.00000015 Ry
     smearing contrib. (-TS)   =       0.00000000 Ry
     internal energy E=F+TS    =   -1653.76267331 Ry

     The total energy is F=E-TS. E is the sum of the following terms:
     one-electron contribution =    -848.33869589 Ry
     hartree contribution      =     425.34507477 Ry
     xc contribution           =    -112.72533913 Ry
     ewald contribution        =    -633.47384289 Ry
     one-center paw contrib.   =    -484.56987016 Ry
      -> PAW hartree energy AE =     452.24924730 Ry
      -> PAW hartree energy PS =    -389.24359177 Ry
      -> PAW xc energy AE      =    -584.86665276 Ry
      -> PAW xc energy PS      =      37.29112708 Ry
      -> total E_H with PAW    =     488.35073029 Ry
      -> total E_XC with PAW   =    -660.30086482 Ry

     convergence has been achieved in  68 iterations

     Forces acting on atoms (cartesian axes, Ry/au):

     atom    1 type  1   force =     0.00000000   -0.00000000   -0.04683726
     atom    2 type  2   force =     0.00000000   -0.00000000   -0.01680307
     atom    3 type  3   force =     0.00000000    0.00000000   -0.00742280
     atom    4 type  4   force =     0.00000000    0.00000000   -0.00746642
     atom    5 type  4   force =     0.00000000    0.00000000    0.07852955
     The non-local contrib.  to forces
     atom    1 type  1   force =     0.00000000   -0.00000000   -0.09903653
     atom    2 type  2   force =     0.00000000    0.00000000   -0.38316190
     atom    3 type  3   force =     0.00000000    0.00000000    0.23460090
     atom    4 type  4   force =     0.00000000    0.00000000    0.00415772
     atom    5 type  4   force =     0.00000000    0.00000000    0.05942014
     The ionic contribution  to forces
     atom    1 type  1   force =     0.00003432   -0.00001981   11.94779341
     atom    2 type  2   force =     0.00002425   -0.00001400  -11.32602825
     atom    3 type  3   force =    -0.00004894    0.00002826    0.21945236
     atom    4 type  4   force =    -0.00002204    0.00001272   -4.56221949
     atom    5 type  4   force =     0.00001241   -0.00000716    3.72100197
     The local contribution  to forces
     atom    1 type  1   force =     0.00035282   -0.00079747  -11.89667437
     atom    2 type  2   force =    -0.00003295    0.00005121   11.67749705
     atom    3 type  3   force =    -0.00000588    0.00009396   -0.46129286
     atom    4 type  4   force =     0.00006064    0.00000066    4.54981993
     atom    5 type  4   force =    -0.00002745    0.00004356   -3.69693608
     The core correction contribution to forces
     atom    1 type  1   force =     0.00000000   -0.00000000   -0.00000017
     atom    2 type  2   force =     0.00000194   -0.00000098    0.01632900
     atom    3 type  3   force =    -0.00000007    0.00000002   -0.00019511
     atom    4 type  4   force =     0.00000103    0.00000042    0.00133065
     atom    5 type  4   force =    -0.00000050    0.00000089   -0.00521871
     The Hubbard contrib.    to forces
     atom    1 type  1   force =     0.00000000    0.00000000    0.00000000
     atom    2 type  2   force =     0.00000000    0.00000000    0.00000000
     atom    3 type  3   force =     0.00000000    0.00000000    0.00000000
     atom    4 type  4   force =     0.00000000    0.00000000    0.00000000
     atom    5 type  4   force =     0.00000000    0.00000000    0.00000000
     The SCF correction term to forces
     atom    1 type  1   force =    -0.00048865    0.00093761    0.00123197
     atom    2 type  2   force =     0.00002904   -0.00006664   -0.00128743
     atom    3 type  3   force =     0.00016432   -0.00027777    0.00016345
     atom    4 type  4   force =    -0.00002237   -0.00000364   -0.00040369
     atom    5 type  4   force =     0.00001073   -0.00002143    0.00041379

     Total force =     0.093562     Total SCF correction =     0.002183

     Computing stress (Cartesian axis) and pressure

          total   stress  (Ry/bohr**3)                   (kbar)     P=     -187.24
  -0.00070544   0.00000000   0.00000000         -103.77        0.00        0.00
   0.00000000  -0.00070544   0.00000000            0.00     -103.77        0.00
   0.00000000   0.00000000  -0.00240759            0.00        0.00     -354.17

     kinetic stress (kbar)  19959.88     -0.00      0.00
                               -0.00  19959.88      0.00
                                0.00      0.00  19638.38

     local   stress (kbar)  -7906.05      0.01     -0.01
                                0.01  -7906.02     -0.01
                               -0.01     -0.01 -12414.44

     nonloc. stress (kbar)  16034.53     -0.00     -0.00
                               -0.00  16034.53     -0.00
                                0.00      0.00  15796.47

     hartree stress (kbar)  35493.90     -0.00     -0.00
                               -0.00  35493.89      0.01
                               -0.00      0.01  37036.82

     exc-cor stress (kbar)  -7446.59      0.00      0.00
                                0.00  -7446.59      0.00
                                0.00      0.00  -7443.52

     corecor stress (kbar)  -1523.17     -0.00     -0.00
                               -0.00  -1523.17      0.00
                               -0.00      0.00  -1517.52

     ewald   stress (kbar) -54716.27     -0.03      0.00
                               -0.03 -54716.30     -0.00
                                0.00     -0.00 -51450.38

     hubbard stress (kbar)      0.00      0.00      0.00
                                0.00      0.00      0.00
                                0.00      0.00      0.00

     DFT-D   stress (kbar)      0.00      0.00      0.00
                                0.00      0.00      0.00
                                0.00      0.00      0.00

     XDM     stress (kbar)      0.00      0.00      0.00
                                0.00      0.00      0.00
                                0.00      0.00      0.00

     dft-nl  stress (kbar)      0.00      0.00      0.00
                                0.00      0.00      0.00
                                0.00      0.00      0.00

     TS-vdW  stress (kbar)      0.00      0.00      0.00
                                0.00      0.00      0.00
                                0.00      0.00      0.00

[...]

                                0.00      0.00      0.00

     Writing all to output data dir new_calculations/myprefix.save/

     General routines

     Parallel routines

     PAW routines

   This run was terminated on:  18: 4:30  21May2023

   JOB DONE.