     Program PWSCF v.7.0 starts on 21May2023 at  5: 1:46

     Reading input from espresso_13947.pwi
Warning: card &CELL ignored
Warning: card / ignored

     Current dimensions of program PWSCF are:
     Max number of different atomic species (ntypx) = 10
     Max number of k-points (npk) =  40000
     Max angular momentum in pseudopotentials (lmaxx) =  4

     gamma-point specific algorithms are used
     Message from routine setup:
     using ibrav=0 with symmetry is DISCOURAGED, use correct ibrav instead

     Subspace diagonalization in iterative solution of the eigenvalue problem:
     a serial algorithm will be used

     Using Slab Decomposition

     bravais-lattice index     =            0
     lattice parameter (alat)  =      13.0990  a.u.
     unit-cell volume          =    1558.1451 (a.u.)^3
     number of atoms/cell      =            8
     number of atomic types    =            2
     number of electrons       =        88.00
     number of Kohn-Sham states=           53
     kinetic-energy cutoff     =      30.0000  Ry
     charge density cutoff     =     240.0000  Ry
     scf convergence threshold =      1.0E-06
     mixing beta               =       0.7000
     number of iterations used =            8  plain     mixing
     Exchange-correlation= PBE
                           (   1   4   3   4   0   0   0)

     celldm(1)=  13.099001  celldm(2)=   0.000000  celldm(3)=   0.000000
     celldm(4)=   0.000000  celldm(5)=   0.000000  celldm(6)=   0.000000

     crystal axes: (cart. coord. in units of alat)
               a(1) = (   1.000000   0.000000   0.000000 )
               a(2) = (  -0.500000   0.866025   0.000000 )
               a(3) = (   0.000000   0.000000   0.800502 )

     reciprocal axes: (cart. coord. in units 2 pi/alat)
               b(1) = (  1.000000  0.577350  0.000000 )
               b(2) = (  0.000000  1.154700  0.000000 )
               b(3) = (  0.000000  0.000000  1.249215 )

     PseudoPot. # 1 for Tl read from file:
     /home/pragov/projects/rrg-bengioy-ad/pragov/crystal_structure_design/SSSP/Tl_pbe_v1.2.uspp.F.UPF
     MD5 check sum: b76cf1f7e72655a2b2c53cf6385d7059
     Pseudo is Ultrasoft + core correction, Zval = 13.0
     Generated by new atomic code, or converted to UPF format
     Using radial grid of  899 points,  6 beta functions with:
                l(1) =   0
                l(2) =   0
                l(3) =   1
                l(4) =   1
                l(5) =   2
                l(6) =   2
     Q(r) pseudized with  6 coefficients,  rinner =    1.100   1.100   1.100
                                                       1.100   1.100

     PseudoPot. # 2 for As read from file:
     /home/pragov/projects/rrg-bengioy-ad/pragov/crystal_structure_design/SSSP/As.pbe-n-rrkjus_psl.0.2.UPF
     MD5 check sum: 767315de957beeeb34f87d97bf945c8f
     Pseudo is Ultrasoft + core correction, Zval =  5.0
     Generated using "atomic" code by A. Dal Corso  v.5.0.99 svn rev. 10869
     Using radial grid of 1209 points,  4 beta functions with:
                l(1) =   0
                l(2) =   0
                l(3) =   1
                l(4) =   1
     Q(r) pseudized with 0 coefficients

     atomic species   valence    mass     pseudopotential
        Tl            13.00   204.38000     Tl( 1.00)
        As             5.00    74.92159     As( 1.00)

     24 Sym. Ops., with inversion, found (12 have fractional translation)

                                    s                        frac. trans.

      isym =  1     identity

 cryst.   s( 1) = (     1          0          0      )
                  (     0          1          0      )
                  (     0          0          1      )

 cart.    s( 1) = (  1.0000000 -0.0000000  0.0000000 )
                  (  0.0000000  1.0000000  0.0000000 )
                  (  0.0000000  0.0000000  1.0000000 )

      isym =  2     180 deg rotation - cart. axis [0,0,1]

 cryst.   s( 2) = (    -1          0          0      )    f =( -0.0000000 )
                  (     0         -1          0      )       ( -0.0000000 )
                  (     0          0          1      )       ( -0.5000000 )

 cart.    s( 2) = ( -1.0000000  0.0000000  0.0000000 )    f =( -0.0000000 )
                  (  0.0000000 -1.0000000  0.0000000 )       ( -0.0000000 )
                  (  0.0000000  0.0000000  1.0000000 )       ( -0.4002512 )

[...]

      isym =  4     180 deg rotation - cart. axis [1,0,0]

[...]

      isym =  5      60 deg rotation - cryst. axis [0,0,1]

[...]

 cryst.   s( 8) = (    -1         -1          0      )
                  (     1          0          0      )
                  (     0          0          1      )

 cart.    s( 8) = ( -0.5000001  0.8660253  0.0000000 )
                  ( -0.8660255 -0.4999999  0.0000000 )
                  (  0.0000000  0.0000000  1.0000000 )

[...]

 cryst.   s( 9) = (     0         -1          0      )    f =(  0.0000000 )
                  (    -1          0          0      )       ( -0.0000000 )
                  (     0          0         -1      )       ( -0.5000000 )

 cart.    s( 9) = (  0.4999999 -0.8660255  0.0000000 )    f =(  0.0000000 )
                  ( -0.8660255 -0.4999999  0.0000000 )       ( -0.0000000 )
                  (  0.0000000  0.0000000 -1.0000000 )       ( -0.4002512 )

[...]

 cryst.   s(10) = (     1          1          0      )    f =( -0.0000000 )
                  (     0         -1          0      )       ( -0.0000010 )
                  (     0          0         -1      )       ( -0.5000000 )

 cart.    s(10) = (  0.5000001  0.8660252  0.0000000 )    f =(  0.0000005 )
                  (  0.8660255 -0.5000001  0.0000000 )       ( -0.0000009 )
                  (  0.0000000  0.0000000 -1.0000000 )       ( -0.4002512 )

[...]

 cryst.   s(11) = (    -1         -1          0      )
                  (     0          1          0      )
                  (     0          0         -1      )

 cart.    s(11) = ( -0.5000001 -0.8660252  0.0000000 )
                  ( -0.8660255  0.5000001  0.0000000 )
                  (  0.0000000  0.0000000 -1.0000000 )

      isym = 12     180 deg rotation - cryst. axis [1,1,0]

[...]

      isym = 13     inversion

[...]

      isym = 14     inv. 180 deg rotation - cart. axis [0,0,1]

[...]

      isym = 16     inv. 180 deg rotation - cart. axis [1,0,0]

[...]

      isym = 17     inv.  60 deg rotation - cryst. axis [0,0,1]

[...]

 cryst.   s(22) = (    -1         -1          0      )    f =( -0.0000000 )
                  (     0          1          0      )       ( -0.0000010 )
                  (     0          0          1      )       ( -0.5000000 )

 cart.    s(22) = ( -0.5000001 -0.8660252  0.0000000 )    f =(  0.0000005 )
                  ( -0.8660255  0.5000001  0.0000000 )       ( -0.0000009 )
                  (  0.0000000  0.0000000  1.0000000 )       ( -0.4002512 )

[...]

      isym = 24     inv. 180 deg rotation - cryst. axis [1,1,0]

 cryst.   s(24) = (     0         -1          0      )
                  (    -1          0          0      )
                  (     0          0          1      )

 cart.    s(24) = (  0.4999999 -0.8660255  0.0000000 )
                  ( -0.8660255 -0.4999999  0.0000000 )
                  (  0.0000000  0.0000000  1.0000000 )

   Cartesian axes

     site n.     atom                  positions (alat units)
         1           Tl  tau(   1) = (  -0.0000005   0.3007836   0.2001256  )
         2           Tl  tau(   2) = (   0.2395136   0.7156341   0.2001256  )
         3           Tl  tau(   3) = (  -0.2395144   0.7156341   0.2001256  )
         4           Tl  tau(   4) = (   0.5000006   0.5652418   0.6003768  )
         5           Tl  tau(   5) = (   0.2604865   0.1503914   0.6003768  )
         6           Tl  tau(   6) = (   0.7395145   0.1503914   0.6003768  )
         7           As  tau(   7) = (  -0.0000004   0.5773506   0.6003768  )
         8           As  tau(   8) = (   0.5000005   0.2886749   0.2001256  )

   Crystallographic axes

     site n.     atom                  positions (cryst. coord.)
         1           Tl  tau(   1) = (  0.1736570  0.3473150  0.2500000  )
         2           Tl  tau(   2) = (  0.6526850  0.8263430  0.2500000  )
         3           Tl  tau(   3) = (  0.1736570  0.8263430  0.2500000  )
         4           Tl  tau(   4) = (  0.8263430  0.6526850  0.7500000  )
         5           Tl  tau(   5) = (  0.3473150  0.1736570  0.7500000  )
         6           Tl  tau(   6) = (  0.8263430  0.1736570  0.7500000  )
         7           As  tau(   7) = (  0.3333330  0.6666670  0.7500000  )
         8           As  tau(   8) = (  0.6666670  0.3333330  0.2500000  )

     number of k points=     1  Methfessel-Paxton smearing, width (Ry)=  0.0010
                       cart. coord. in units 2pi/alat
        k(    1) = (   0.0000000   0.0000000   0.0000000), wk =   2.0000000

                       cryst. coord.
        k(    1) = (   0.0000000   0.0000000   0.0000000), wk =   2.0000000

     Check: negative core charge=   -0.000004

     Initial potential from superposition of free atoms

     starting charge      87.9703, renormalised to      88.0000

     negative rho (up, down):  3.021E-01 0.000E+00
     Starting wfcs are   62 randomized atomic wfcs

     Self-consistent Calculation

     iteration #  1     ecut=    30.00 Ry     beta= 0.70
     Davidson diagonalization with overlap

     ethr =  1.00E-02,  avg # of iterations =  2.0

     Threshold (ethr) on eigenvalues was too large:
     Diagonalizing with lowered threshold

     Davidson diagonalization with overlap

[...]

     negative rho (up, down):  2.997E-01 0.000E+00

     total energy              =    -906.06535486 Ry
     estimated scf accuracy    <       0.10472125 Ry

[...]

     total energy              =    -906.11555419 Ry
     estimated scf accuracy    <       0.00000140 Ry

     iteration # 14     ecut=    30.00 Ry     beta= 0.70
     Davidson diagonalization with overlap

     ethr =  1.59E-09,  avg # of iterations =  6.0

[...]

     End of self-consistent calculation

          k = 0.0000 0.0000 0.0000 (  2182 PWs)   bands (ev):

    -2.6907  -2.6111  -2.5672  -2.5431  -2.5431  -2.4863  -2.4308  -2.4308
    -2.4137  -2.3791  -2.3791  -2.3265  -2.3264  -2.2348  -2.2314  -2.2105
    -2.2104  -2.1063  -2.1062  -2.0627  -2.0626  -2.0420  -2.0420  -2.0277
    -2.0226  -2.0226  -1.9204  -1.9180  -1.9179  -1.8538  -1.8054  -0.4642
     1.9114   3.3626   3.3627   3.5162   4.1644   4.1645   5.6969   7.2053
     7.6847   7.6848   7.9170   7.9859   7.9860   9.4068  10.4647  10.4648
    11.1142  11.8115  11.8115  12.3304  12.3304

     occupation numbers
     1.0000   1.0000   1.0000   1.0000   1.0000   1.0000   1.0000   1.0000
     1.0000   1.0000   1.0000   1.0000   1.0000   1.0000   1.0000   1.0000
     1.0000   1.0000   1.0000   1.0000   1.0000   1.0000   1.0000   1.0000
     1.0000   1.0000   1.0000   1.0000   1.0000   1.0000   1.0000   1.0000
     1.0000   1.0000   1.0000   1.0000   1.0000   1.0000   1.0000   1.0000
     1.0000   1.0000   1.0000   0.5017   0.4983  -0.0000  -0.0000  -0.0000
    -0.0000  -0.0000  -0.0000  -0.0000  -0.0000

     the Fermi energy is     7.9859 ev

!    total energy              =    -906.11555487 Ry
     estimated scf accuracy    <       0.00000066 Ry
     smearing contrib. (-TS)   =      -0.00056418 Ry
     internal energy E=F+TS    =    -906.11499069 Ry

     The total energy is F=E-TS. E is the sum of the following terms:
     one-electron contribution =    -154.41779082 Ry
     hartree contribution      =     146.22060838 Ry
     xc contribution           =    -390.83688187 Ry
     ewald contribution        =    -507.08092638 Ry

     convergence has been achieved in  14 iterations

     negative rho (up, down):  2.992E-01 0.000E+00

     Forces acting on atoms (cartesian axes, Ry/au):

     atom    1 type  1   force =    -0.00000000    0.02704464   -0.00000000
     atom    2 type  1   force =    -0.02342135   -0.01352232    0.00000000
     atom    3 type  1   force =     0.02342135   -0.01352232    0.00000000
     atom    4 type  1   force =    -0.00000000   -0.02704464    0.00000000
     atom    5 type  1   force =     0.02342135    0.01352232    0.00000000
     atom    6 type  1   force =    -0.02342135    0.01352232    0.00000000
     atom    7 type  2   force =     0.00000000    0.00000000   -0.00000000
     atom    8 type  2   force =     0.00000000   -0.00000000    0.00000000
     The non-local contrib.  to forces
     atom    1 type  1   force =    -0.00000000    0.00481249   -0.00000000
     atom    2 type  1   force =    -0.00416774   -0.00240624   -0.00000000
     atom    3 type  1   force =     0.00416774   -0.00240625    0.00000000
     atom    4 type  1   force =     0.00000000   -0.00481249    0.00000000
     atom    5 type  1   force =     0.00416774    0.00240624    0.00000000
     atom    6 type  1   force =    -0.00416774    0.00240625   -0.00000000
     atom    7 type  2   force =     0.00000000   -0.00000000    0.00000000
     atom    8 type  2   force =    -0.00000000    0.00000000    0.00000000
     The ionic contribution  to forces
     atom    1 type  1   force =     0.00005571    0.42955071    0.00000000
     atom    2 type  1   force =    -0.37197401   -0.21482355    0.00000000
     atom    3 type  1   force =     0.37198319   -0.21476463    0.00000000
     atom    4 type  1   force =    -0.00005571   -0.42955071    0.00000000
     atom    5 type  1   force =     0.37197401    0.21482355    0.00000000
     atom    6 type  1   force =    -0.37198319    0.21476463    0.00000000
     atom    7 type  2   force =     0.00003204   -0.00001850    0.00000000
     atom    8 type  2   force =    -0.00003204    0.00001850    0.00000000
     The local contribution  to forces
     atom    1 type  1   force =    -0.00101160   -0.41438806    0.00001237
     atom    2 type  1   force =     0.35838823    0.20842538    0.00001333
     atom    3 type  1   force =    -0.35853516    0.20729229    0.00002275
     atom    4 type  1   force =     0.00048186    0.41460961   -0.00002565
     atom    5 type  1   force =    -0.35819842   -0.20829884    0.00003552
     atom    6 type  1   force =     0.35857264   -0.20790907   -0.00012465
     atom    7 type  2   force =    -0.00019968    0.00038167    0.00002130
     atom    8 type  2   force =     0.00028707   -0.00024882   -0.00004735
     The core correction contribution to forces
     atom    1 type  1   force =    -0.00002698    0.00638990   -0.00000279
     atom    2 type  1   force =    -0.00554768   -0.00315521    0.00000101
     atom    3 type  1   force =     0.00554387   -0.00318878   -0.00000112
     atom    4 type  1   force =     0.00001165   -0.00638551    0.00000071
     atom    5 type  1   force =     0.00554816    0.00316522    0.00000015
     atom    6 type  1   force =    -0.00553937    0.00317510   -0.00000428
     atom    7 type  2   force =    -0.00000843    0.00000809    0.00000258
     atom    8 type  2   force =     0.00000651   -0.00000316   -0.00000577
     The Hubbard contrib.    to forces
     atom    1 type  1   force =     0.00000000    0.00000000    0.00000000
     atom    2 type  1   force =     0.00000000    0.00000000    0.00000000
     atom    3 type  1   force =     0.00000000    0.00000000    0.00000000
     atom    4 type  1   force =     0.00000000    0.00000000    0.00000000
     atom    5 type  1   force =     0.00000000    0.00000000    0.00000000
     atom    6 type  1   force =     0.00000000    0.00000000    0.00000000
     atom    7 type  2   force =     0.00000000    0.00000000    0.00000000
     atom    8 type  2   force =     0.00000000    0.00000000    0.00000000
     The SCF correction term to forces
     atom    1 type  1   force =     0.00082980    0.00068387   -0.00000634
     atom    2 type  1   force =    -0.00024651   -0.00126794   -0.00001243
     atom    3 type  1   force =     0.00036114   -0.00028111   -0.00002509
     atom    4 type  1   force =    -0.00033064   -0.00085734    0.00003752
     atom    5 type  1   force =     0.00011422    0.00117746   -0.00004608
     atom    6 type  1   force =    -0.00045411    0.00091967    0.00016095
     atom    7 type  2   force =     0.00010303   -0.00025222   -0.00001333
     atom    8 type  2   force =    -0.00020212    0.00013300    0.00001890

     Total force =     0.066246     Total SCF correction =     0.002548

     Computing stress (Cartesian axis) and pressure

     negative rho (up, down):  2.992E-01 0.000E+00
          total   stress  (Ry/bohr**3)                   (kbar)     P=       39.63
  -0.00023930   0.00000000   0.00000000          -35.20        0.00        0.00
   0.00000000  -0.00023930   0.00000000            0.00      -35.20        0.00
   0.00000000   0.00000000   0.00128681            0.00        0.00      189.30

     kinetic stress (kbar)   5379.56     -0.00      0.00
                               -0.00   5379.56      0.00
                                0.00      0.00   5559.45

     local   stress (kbar)   2441.71     -0.10     -0.01
                               -0.10   2441.22     -0.01
                               -0.01     -0.01   3269.95

     nonloc. stress (kbar)   8332.38     -0.00     -0.00
                               -0.00   8332.37      0.00
                               -0.00      0.00   8264.21

     hartree stress (kbar)   4735.20     -0.01     -0.00
                               -0.01   4735.20     -0.00
                               -0.00     -0.00   4334.34

     exc-cor stress (kbar)  23478.91      0.00      0.00
                                0.00  23478.93      0.00
                                0.00      0.00  23475.91

     corecor stress (kbar) -28548.56     -0.01     -0.00
                               -0.01 -28548.60     -0.00
                               -0.00     -0.00 -28549.14

     ewald   stress (kbar) -15854.15      0.00      0.00
                                0.00 -15854.14     -0.00
                                0.00     -0.00 -16165.41

     hubbard stress (kbar)      0.00      0.00      0.00
                                0.00      0.00      0.00
                                0.00      0.00      0.00

     DFT-D   stress (kbar)      0.00      0.00      0.00
                                0.00      0.00      0.00
                                0.00      0.00      0.00

     XDM     stress (kbar)      0.00      0.00      0.00
                                0.00      0.00      0.00
                                0.00      0.00      0.00

     dft-nl  stress (kbar)      0.00      0.00      0.00
                                0.00      0.00      0.00
                                0.00      0.00      0.00

     TS-vdW  stress (kbar)      0.00      0.00      0.00
                                0.00      0.00      0.00
                                0.00      0.00      0.00

[...]

                                0.00      0.00      0.00

     Writing all to output data dir new_calculations/myprefix.save/

     General routines

     Parallel routines

   This run was terminated on:   5: 2: 2  21May2023

   JOB DONE.