     Program PWSCF v.7.0 starts on 20May2023 at 16:16: 0

     Reading input from espresso_18434.pwi
Warning: card &CELL ignored
Warning: card / ignored

     Current dimensions of program PWSCF are:
     Max number of different atomic species (ntypx) = 10
     Max number of k-points (npk) =  40000
     Max angular momentum in pseudopotentials (lmaxx) =  4
     file Mg.pbe-n-kjpaw_psl.0.3.0.UPF: wavefunction(s)  3S renormalized

     gamma-point specific algorithms are used
     Message from routine setup:
     using ibrav=0 with symmetry is DISCOURAGED, use correct ibrav instead

     Subspace diagonalization in iterative solution of the eigenvalue problem:
     a serial algorithm will be used

     Using Slab Decomposition

     bravais-lattice index     =            0
     lattice parameter (alat)  =      12.4032  a.u.
     unit-cell volume          =    1340.2597 (a.u.)^3
     number of atoms/cell      =            8
     number of atomic types    =            2
     number of electrons       =        42.00
     number of Kohn-Sham states=           25
     kinetic-energy cutoff     =      30.0000  Ry
     charge density cutoff     =     240.0000  Ry
     scf convergence threshold =      1.0E-06
     mixing beta               =       0.7000
     number of iterations used =            8  plain     mixing
     Exchange-correlation= SLA  PW   PBE  PBE
                           (   1   4   3   4   0   0   0)

     celldm(1)=  12.403164  celldm(2)=   0.000000  celldm(3)=   0.000000
     celldm(4)=   0.000000  celldm(5)=   0.000000  celldm(6)=   0.000000

     crystal axes: (cart. coord. in units of alat)
               a(1) = (   1.000000   0.000000   0.000000 )
               a(2) = (  -0.500000   0.866025   0.000000 )
               a(3) = (   0.000000   0.000000   0.811075 )

     reciprocal axes: (cart. coord. in units 2 pi/alat)
               b(1) = (  1.000000  0.577350  0.000000 )
               b(2) = (  0.000000  1.154700  0.000000 )
               b(3) = (  0.000000  0.000000  1.232932 )

     PseudoPot. # 1 for Mg read from file:
     /home/pragov/projects/rrg-bengioy-ad/pragov/crystal_structure_design/SSSP/Mg.pbe-n-kjpaw_psl.0.3.0.UPF
     MD5 check sum: 24ecedc7f3e3cbe212e682f4413594e4
     Pseudo is Projector augmented-wave + core cor, Zval =  2.0
     Generated using "atomic" code by A. Dal Corso  v.5.0.99 svn rev. 10869
     Shape of augmentation charge: PSQ
     Using radial grid of 1129 points,  4 beta functions with:
                l(1) =   0
                l(2) =   0
                l(3) =   1
                l(4) =   1
     Q(r) pseudized with 0 coefficients

     PseudoPot. # 2 for Bi read from file:
     /home/pragov/projects/rrg-bengioy-ad/pragov/crystal_structure_design/SSSP/Bi_pbe_v1.uspp.F.UPF
     MD5 check sum: cceb9f28ec65b6d7ff33140f5b0b1758
     Pseudo is Ultrasoft + core correction, Zval = 15.0
     Generated by new atomic code, or converted to UPF format
     Using radial grid of  899 points,  6 beta functions with:
                l(1) =   0
                l(2) =   0
                l(3) =   1
                l(4) =   1
                l(5) =   2
                l(6) =   2
     Q(r) pseudized with  6 coefficients,  rinner =    1.000   1.000   1.000
                                                       1.000   1.000

     atomic species   valence    mass     pseudopotential
        Mg             2.00    24.30500     Mg( 1.00)
        Bi            15.00   208.98040     Bi( 1.00)

     24 Sym. Ops., with inversion, found (12 have fractional translation)

                                    s                        frac. trans.

      isym =  1     identity

 cryst.   s( 1) = (     1          0          0      )
                  (     0          1          0      )
                  (     0          0          1      )

 cart.    s( 1) = (  1.0000000  0.0000000  0.0000000 )
                  (  0.0000000  1.0000000  0.0000000 )
                  (  0.0000000  0.0000000  1.0000000 )

      isym =  2     180 deg rotation - cart. axis [0,0,1]

 cryst.   s( 2) = (    -1          0          0      )    f =( -0.0000000 )
                  (     0         -1          0      )       ( -0.0000000 )
                  (     0          0          1      )       (  0.5000000 )

 cart.    s( 2) = ( -1.0000000 -0.0000000  0.0000000 )    f =(  0.0000000 )
                  (  0.0000000 -1.0000000  0.0000000 )       ( -0.0000000 )
                  (  0.0000000  0.0000000  1.0000000 )       (  0.4055374 )

[...]

      isym =  4     180 deg rotation - cart. axis [1,0,0]

[...]

      isym =  5      60 deg rotation - cryst. axis [0,0,1]

[...]

 cryst.   s( 8) = (    -1         -1          0      )
                  (     1          0          0      )
                  (     0          0          1      )

 cart.    s( 8) = ( -0.5000001  0.8660254  0.0000000 )
                  ( -0.8660254 -0.4999999  0.0000000 )
                  (  0.0000000  0.0000000  1.0000000 )

[...]

 cryst.   s( 9) = (     0         -1          0      )    f =(  0.0000000 )
                  (    -1          0          0      )       ( -0.0000000 )
                  (     0          0         -1      )       (  0.5000000 )

 cart.    s( 9) = (  0.4999999 -0.8660254  0.0000000 )    f =(  0.0000000 )
                  ( -0.8660254 -0.4999999  0.0000000 )       ( -0.0000000 )
                  (  0.0000000  0.0000000 -1.0000000 )       (  0.4055374 )

[...]

 cryst.   s(10) = (     1          1          0      )    f =(  0.0000000 )
                  (     0         -1          0      )       ( -0.0000010 )
                  (     0          0         -1      )       (  0.5000000 )

 cart.    s(10) = (  0.5000001  0.8660253  0.0000000 )    f =(  0.0000005 )
                  (  0.8660254 -0.5000001  0.0000000 )       ( -0.0000009 )
                  (  0.0000000  0.0000000 -1.0000000 )       (  0.4055374 )

[...]

 cryst.   s(11) = (    -1         -1          0      )
                  (     0          1          0      )
                  (     0          0         -1      )

 cart.    s(11) = ( -0.5000001 -0.8660253  0.0000000 )
                  ( -0.8660254  0.5000001  0.0000000 )
                  (  0.0000000  0.0000000 -1.0000000 )

      isym = 12     180 deg rotation - cryst. axis [1,1,0]

[...]

      isym = 13     inversion

[...]

      isym = 14     inv. 180 deg rotation - cart. axis [0,0,1]

[...]

      isym = 16     inv. 180 deg rotation - cart. axis [1,0,0]

[...]

      isym = 17     inv.  60 deg rotation - cryst. axis [0,0,1]

[...]

 cryst.   s(22) = (    -1         -1          0      )    f =( -0.0000000 )
                  (     0          1          0      )       ( -0.0000010 )
                  (     0          0          1      )       (  0.5000000 )

 cart.    s(22) = ( -0.5000001 -0.8660253  0.0000000 )    f =(  0.0000005 )
                  ( -0.8660254  0.5000001  0.0000000 )       ( -0.0000009 )
                  (  0.0000000  0.0000000  1.0000000 )       (  0.4055374 )

[...]

      isym = 24     inv. 180 deg rotation - cryst. axis [1,1,0]

 cryst.   s(24) = (     0         -1          0      )
                  (    -1          0          0      )
                  (     0          0          1      )

 cart.    s(24) = (  0.4999999 -0.8660254  0.0000000 )
                  ( -0.8660254 -0.4999999  0.0000000 )
                  (  0.0000000  0.0000000  1.0000000 )

   Cartesian axes

     site n.     atom                  positions (alat units)
         1           Mg  tau(   1) = (   0.2588336   0.7267885   0.6083061  )
         2           Mg  tau(   2) = (  -0.0000005   0.2784748   0.6083061  )
         3           Mg  tau(   3) = (  -0.2588344   0.7267885   0.6083061  )
         4           Mg  tau(   4) = (   0.5000005   0.5875506   0.2027687  )
         5           Mg  tau(   5) = (   0.7588345   0.1392370   0.2027687  )
         6           Mg  tau(   6) = (   0.2411665   0.1392370   0.2027687  )
         7           Bi  tau(   7) = (   0.5000005   0.2886749   0.6083061  )
         8           Bi  tau(   8) = (  -0.0000005   0.5773506   0.2027687  )

   Crystallographic axes

     site n.     atom                  positions (cryst. coord.)
         1           Mg  tau(   1) = (  0.6784450  0.8392230  0.7500000  )
         2           Mg  tau(   2) = (  0.1607770  0.3215550  0.7500000  )
         3           Mg  tau(   3) = (  0.1607770  0.8392230  0.7500000  )
         4           Mg  tau(   4) = (  0.8392230  0.6784450  0.2500000  )
         5           Mg  tau(   5) = (  0.8392230  0.1607770  0.2500000  )
         6           Mg  tau(   6) = (  0.3215550  0.1607770  0.2500000  )
         7           Bi  tau(   7) = (  0.6666670  0.3333330  0.7500000  )
         8           Bi  tau(   8) = (  0.3333330  0.6666670  0.2500000  )

     number of k points=     1  Methfessel-Paxton smearing, width (Ry)=  0.0010
                       cart. coord. in units 2pi/alat
        k(    1) = (   0.0000000   0.0000000   0.0000000), wk =   2.0000000

                       cryst. coord.
        k(    1) = (   0.0000000   0.0000000   0.0000000), wk =   2.0000000

     Initial potential from superposition of free atoms

     starting charge      39.9944, renormalised to      42.0000

     negative rho (up, down):  8.484E-02 0.000E+00
     Starting wfcs are   42 randomized atomic wfcs
     Checking if some PAW data can be deallocated...

     Self-consistent Calculation

     iteration #  1     ecut=    30.00 Ry     beta= 0.70
     Davidson diagonalization with overlap

     ethr =  1.00E-02,  avg # of iterations =  2.0

     negative rho (up, down):  7.826E-02 0.000E+00

     total energy              =    -571.87715485 Ry
     estimated scf accuracy    <       0.92571079 Ry

[...]

     total energy              =    -572.20237132 Ry
     estimated scf accuracy    <       0.00000531 Ry

     iteration #  8     ecut=    30.00 Ry     beta= 0.70
     Davidson diagonalization with overlap

     ethr =  1.26E-08,  avg # of iterations =  2.0

[...]

     End of self-consistent calculation

          k = 0.0000 0.0000 0.0000 (  1857 PWs)   bands (ev):

   -16.2187 -16.2187 -16.2158 -16.2158 -15.9630 -15.9629 -15.9554 -15.9554
   -15.8769 -15.8715  -4.9509  -4.0100   1.5896   2.5909   2.5910   2.9541
     2.9542   3.2476   5.0614   6.0426   6.6324   7.3915   7.3916   7.5829
     7.7849

     occupation numbers
     1.0000   1.0000   1.0000   1.0000   1.0000   1.0000   1.0000   1.0000
     1.0000   1.0000   1.0000   1.0000   1.0000   1.0000   1.0000   1.0000
     1.0000   1.0000   1.0000   1.0000   1.0000  -0.0000  -0.0000  -0.0000
    -0.0000

     the Fermi energy is     7.1624 ev

!    total energy              =    -572.20237200 Ry
     estimated scf accuracy    <       0.00000093 Ry
     smearing contrib. (-TS)   =       0.00000000 Ry
     internal energy E=F+TS    =    -572.20237200 Ry

     The total energy is F=E-TS. E is the sum of the following terms:
     one-electron contribution =    -170.84944724 Ry
     hartree contribution      =     105.54223568 Ry
     xc contribution           =    -138.94142476 Ry
     ewald contribution        =    -180.19290961 Ry
     one-center paw contrib.   =    -187.76082607 Ry
      -> PAW hartree energy AE =       4.39598406 Ry
      -> PAW hartree energy PS =      -4.38496166 Ry
      -> PAW xc energy AE      =    -195.46866614 Ry
      -> PAW xc energy PS      =       7.69681767 Ry
      -> total E_H with PAW    =     105.55325808 Ry
      -> total E_XC with PAW   =    -326.71327323 Ry

     convergence has been achieved in   8 iterations

     negative rho (up, down):  8.401E-02 0.000E+00

     Forces acting on atoms (cartesian axes, Ry/au):

     atom    1 type  1   force =    -0.04946734   -0.02855998    0.00000000
     atom    2 type  1   force =     0.00000000    0.05711997    0.00000000
     atom    3 type  1   force =     0.04946734   -0.02855999   -0.00000000
     atom    4 type  1   force =     0.00000000   -0.05711997    0.00000000
     atom    5 type  1   force =    -0.04946734    0.02855999   -0.00000000
     atom    6 type  1   force =     0.04946734    0.02855998    0.00000000
     atom    7 type  2   force =    -0.00000000    0.00000000   -0.00000000
     atom    8 type  2   force =     0.00000000   -0.00000000    0.00000000
     The non-local contrib.  to forces
     atom    1 type  1   force =     0.01496062    0.00863752   -0.00000000
     atom    2 type  1   force =    -0.00000000   -0.01727503    0.00000000
     atom    3 type  1   force =    -0.01496062    0.00863752    0.00000000
     atom    4 type  1   force =    -0.00000000    0.01727503   -0.00000000
     atom    5 type  1   force =     0.01496062   -0.00863752    0.00000000
     atom    6 type  1   force =    -0.01496062   -0.00863752    0.00000000
     atom    7 type  2   force =     0.00000000    0.00000000    0.00000000
     atom    8 type  2   force =    -0.00000000   -0.00000000    0.00000000
     The ionic contribution  to forces
     atom    1 type  1   force =     0.71466559    0.41259663   -0.00000000
     atom    2 type  1   force =     0.00001357   -0.82521687   -0.00000000
     atom    3 type  1   force =    -0.71466342    0.41261115   -0.00000000
     atom    4 type  1   force =    -0.00001357    0.82521687   -0.00000000
     atom    5 type  1   force =     0.71466342   -0.41261115    0.00000000
     atom    6 type  1   force =    -0.71466559   -0.41259663    0.00000000
     atom    7 type  2   force =    -0.00003260    0.00001882   -0.00000000
     atom    8 type  2   force =     0.00003260   -0.00001882   -0.00000000
     The local contribution  to forces
     atom    1 type  1   force =    -0.77743954   -0.44881274    0.00004544
     atom    2 type  1   force =     0.00000151    0.89771411    0.00004842
     atom    3 type  1   force =     0.77743434   -0.44880916    0.00005911
     atom    4 type  1   force =    -0.00001385   -0.89787413   -0.00006474
     atom    5 type  1   force =    -0.77760957    0.44896079   -0.00005254
     atom    6 type  1   force =     0.77760690    0.44897561   -0.00003939
     atom    7 type  2   force =    -0.00010334   -0.00064939    0.00018426
     atom    8 type  2   force =     0.00022386   -0.00059465   -0.00010533
     The core correction contribution to forces
     atom    1 type  1   force =    -0.00156621   -0.00090428    0.00000185
     atom    2 type  1   force =     0.00000073    0.00181217    0.00000207
     atom    3 type  1   force =     0.00156619   -0.00090349    0.00000286
     atom    4 type  1   force =    -0.00000112   -0.00181066   -0.00000353
     atom    5 type  1   force =    -0.00157233    0.00090640   -0.00000249
     atom    6 type  1   force =     0.00157213    0.00090754   -0.00000069
     atom    7 type  2   force =    -0.00000050   -0.00001352    0.00000171
     atom    8 type  2   force =     0.00000206   -0.00002213    0.00000429
     The Hubbard contrib.    to forces
     atom    1 type  1   force =     0.00000000    0.00000000    0.00000000
     atom    2 type  1   force =     0.00000000    0.00000000    0.00000000
     atom    3 type  1   force =     0.00000000    0.00000000    0.00000000
     atom    4 type  1   force =     0.00000000    0.00000000    0.00000000
     atom    5 type  1   force =     0.00000000    0.00000000    0.00000000
     atom    6 type  1   force =     0.00000000    0.00000000    0.00000000
     atom    7 type  2   force =     0.00000000    0.00000000    0.00000000
     atom    8 type  2   force =     0.00000000    0.00000000    0.00000000
     The SCF correction term to forces
     atom    1 type  1   force =    -0.00005426   -0.00006064   -0.00002136
     atom    2 type  1   force =    -0.00001140    0.00008900   -0.00002275
     atom    3 type  1   force =     0.00005609   -0.00007474   -0.00002680
     atom    4 type  1   force =     0.00001864    0.00007785    0.00002580
     atom    5 type  1   force =     0.00005067   -0.00004789    0.00002304
     atom    6 type  1   force =    -0.00005069   -0.00006986    0.00002667
     atom    7 type  2   force =     0.00018263    0.00060383   -0.00019471
     atom    8 type  2   force =    -0.00027778    0.00047409    0.00004334

     Total force =     0.139915     Total SCF correction =     0.000886

     Computing stress (Cartesian axis) and pressure

     negative rho (up, down):  8.401E-02 0.000E+00
          total   stress  (Ry/bohr**3)                   (kbar)     P=       28.61
   0.00001388  -0.00000000   0.00000000            2.04       -0.00        0.00
  -0.00000000   0.00001388   0.00000000           -0.00        2.04        0.00
   0.00000000   0.00000000   0.00055579            0.00        0.00       81.76

     kinetic stress (kbar)   2338.89     -0.00      0.00
                               -0.00   2338.89      0.00
                                0.00      0.00   2474.83

     local   stress (kbar)  -2597.07      0.01     -0.01
                                0.01  -2597.12     -0.00
                               -0.01     -0.00  -4882.00

     nonloc. stress (kbar)   6066.59     -0.00      0.00
                               -0.00   6066.59      0.00
                                0.00      0.00   6196.04

     hartree stress (kbar)   3457.64     -0.01      0.01
                               -0.01   3457.66      0.00
                                0.01      0.00   4668.86

     exc-cor stress (kbar)   8593.15     -0.00      0.00
                               -0.00   8593.15     -0.00
                                0.00     -0.00   8595.63

     corecor stress (kbar) -10968.39      0.00     -0.00
                                0.00 -10968.39      0.00
                               -0.00      0.00 -10971.40

     ewald   stress (kbar)  -6888.77      0.01     -0.00
                                0.01  -6888.75      0.00
                               -0.00      0.00  -6000.21

     hubbard stress (kbar)      0.00      0.00      0.00
                                0.00      0.00      0.00
                                0.00      0.00      0.00

     DFT-D   stress (kbar)      0.00      0.00      0.00
                                0.00      0.00      0.00
                                0.00      0.00      0.00

     XDM     stress (kbar)      0.00      0.00      0.00
                                0.00      0.00      0.00
                                0.00      0.00      0.00

     dft-nl  stress (kbar)      0.00      0.00      0.00
                                0.00      0.00      0.00
                                0.00      0.00      0.00

     TS-vdW  stress (kbar)      0.00      0.00      0.00
                                0.00      0.00      0.00
                                0.00      0.00      0.00

[...]

                                0.00      0.00      0.00

     Writing all to output data dir new_calculations/myprefix.save/

     General routines

     Parallel routines

     PAW routines

   This run was terminated on:  16:16:12  20May2023

   JOB DONE.