     Program PWSCF v.7.0 starts on 20May2023 at 11:24:46

     Reading input from espresso_19251.pwi
Warning: card &CELL ignored
Warning: card / ignored

     Current dimensions of program PWSCF are:
     Max number of different atomic species (ntypx) = 10
     Max number of k-points (npk) =  40000
     Max angular momentum in pseudopotentials (lmaxx) =  4

     gamma-point specific algorithms are used
     Message from routine setup:
     using ibrav=0 with symmetry is DISCOURAGED, use correct ibrav instead

     Subspace diagonalization in iterative solution of the eigenvalue problem:
     a serial algorithm will be used

     Using Slab Decomposition

     bravais-lattice index     =            0
     lattice parameter (alat)  =      10.4576  a.u.
     unit-cell volume          =     939.6341 (a.u.)^3
     number of atoms/cell      =           12
     number of atomic types    =            3
     number of electrons       =       140.00
     number of Kohn-Sham states=           84
     kinetic-energy cutoff     =      30.0000  Ry
     charge density cutoff     =     240.0000  Ry
     scf convergence threshold =      1.0E-06
     mixing beta               =       0.7000
     number of iterations used =            8  plain     mixing
     Exchange-correlation= PBE
                           (   1   4   3   4   0   0   0)

     celldm(1)=  10.457592  celldm(2)=   0.000000  celldm(3)=   0.000000
     celldm(4)=   0.000000  celldm(5)=   0.000000  celldm(6)=   0.000000

     crystal axes: (cart. coord. in units of alat)
               a(1) = (   1.000000   0.000000   0.000000 )
               a(2) = (  -0.497744   0.867324   0.000000 )
               a(3) = (   0.000000   0.000000   0.947289 )

     reciprocal axes: (cart. coord. in units 2 pi/alat)
               b(1) = (  1.000000  0.573885  0.000000 )
               b(2) = (  0.000000  1.152972  0.000000 )
               b(3) = (  0.000000  0.000000  1.055644 )

     PseudoPot. # 1 for Mn read from file:
     /home/pragov/projects/rrg-bengioy-ad/pragov/crystal_structure_design/SSSP/mn_pbe_v1.5.uspp.F.UPF
     MD5 check sum: 82ef2b46521d7a7d9e736dc3972e4928
     Pseudo is Ultrasoft + core correction, Zval = 15.0
     Generated by new atomic code, or converted to UPF format
     Using radial grid of  859 points,  6 beta functions with:
                l(1) =   0
                l(2) =   0
                l(3) =   1
                l(4) =   1
                l(5) =   2
                l(6) =   2
     Q(r) pseudized with  8 coefficients,  rinner =    0.950   0.950   0.950
                                                       0.950   0.950

     PseudoPot. # 2 for Zn read from file:
     /home/pragov/projects/rrg-bengioy-ad/pragov/crystal_structure_design/SSSP/Zn_pbe_v1.uspp.F.UPF
     MD5 check sum: df62231357ef9e81f77b2b3087fa5675
     Pseudo is Ultrasoft, Zval = 20.0
     Generated by new atomic code, or converted to UPF format
     Using radial grid of  943 points,  6 beta functions with:
                l(1) =   0
                l(2) =   0
                l(3) =   1
                l(4) =   1
                l(5) =   2
                l(6) =   2
     Q(r) pseudized with  8 coefficients,  rinner =    1.100   1.100   1.100
                                                       1.100   1.100

     PseudoPot. # 3 for N  read from file:
     /home/pragov/projects/rrg-bengioy-ad/pragov/crystal_structure_design/SSSP/N.pbe-n-radius_5.UPF
     MD5 check sum: 16739722b17309cd8fe442a2ace49922
     Pseudo is Ultrasoft + core correction, Zval =  5.0
     Generated using "atomic" code by A. Dal Corso  v.5.1
     Using radial grid of 1085 points,  4 beta functions with:
                l(1) =   0
                l(2) =   0
                l(3) =   1
                l(4) =   1
     Q(r) pseudized with 0 coefficients

     atomic species   valence    mass     pseudopotential
        Mn            15.00    54.93804     Mn( 1.00)
        Zn            20.00    65.38000     Zn( 1.00)
        N              5.00    14.00700     N ( 1.00)

      2 Sym. Ops. (no inversion) found ( 1 have fractional translation)

                                    s                        frac. trans.

      isym =  1     identity

 cryst.   s( 1) = (     1          0          0      )
                  (     0          1          0      )
                  (     0          0          1      )

 cart.    s( 1) = (  1.0000000  0.0000000  0.0000000 )
                  (  0.0000000  1.0000000  0.0000000 )
                  (  0.0000000  0.0000000  1.0000000 )

      isym =  2     180 deg rotation - cart. axis [0,0,1]

 cryst.   s( 2) = (    -1          0          0      )    f =(  0.0000000 )
                  (     0         -1          0      )       ( -0.0000000 )
                  (     0          0          1      )       (  0.5000000 )

 cart.    s( 2) = ( -1.0000000 -0.0000000  0.0000000 )    f =(  0.0000000 )
                  (  0.0000000 -1.0000000  0.0000000 )       ( -0.0000000 )
                  (  0.0000000  0.0000000  1.0000000 )       (  0.4736444 )

   Cartesian axes

     site n.     atom                  positions (alat units)
         1           Mn  tau(   1) = (   0.4196457   0.7246681   0.9105539  )
         2           Mn  tau(   2) = (   0.0826100   0.1426557   0.4369095  )
         3           Zn  tau(   3) = (   0.5817891   0.4356862   0.4483253  )
         4           Zn  tau(   4) = (   0.0882988   0.7214599   0.4483253  )
         5           Zn  tau(   5) = (  -0.0795334   0.4316376   0.9219697  )
         6           Zn  tau(   6) = (   0.4139569   0.1458639   0.9219697  )
         7           N   tau(   7) = (   0.5705321   0.4605012   0.8158999  )
         8           N   tau(   8) = (   0.1154245   0.7240480   0.8158999  )
         9           N   tau(   9) = (  -0.0682765   0.4068226   0.3422555  )
        10           N   tau(  10) = (   0.3868311   0.1432758   0.3422555  )
        11           N   tau(  11) = (   0.4327746   0.7473400   0.2974620  )
        12           N   tau(  12) = (   0.0694810   0.1199838   0.7711064  )

   Crystallographic axes

     site n.     atom                  positions (cryst. coord.)
         1           Mn  tau(   1) = (  0.8355220  0.8355220  0.9612210  )
         2           Mn  tau(   2) = (  0.1644780  0.1644780  0.4612210  )
         3           Zn  tau(   3) = (  0.8318230  0.5023340  0.4732720  )
         4           Zn  tau(   4) = (  0.5023340  0.8318230  0.4732720  )
         5           Zn  tau(   5) = (  0.1681770  0.4976660  0.9732720  )
         6           Zn  tau(   6) = (  0.4976660  0.1681770  0.9732720  )
         7           N   tau(   7) = (  0.8348070  0.5309450  0.8613000  )
         8           N   tau(   8) = (  0.5309450  0.8348070  0.8613000  )
         9           N   tau(   9) = (  0.1651930  0.4690550  0.3613000  )
        10           N   tau(  10) = (  0.4690550  0.1651930  0.3613000  )
        11           N   tau(  11) = (  0.8616620  0.8616620  0.3140140  )
        12           N   tau(  12) = (  0.1383380  0.1383380  0.8140140  )

     number of k points=     1  Methfessel-Paxton smearing, width (Ry)=  0.0010
                       cart. coord. in units 2pi/alat
        k(    1) = (   0.0000000   0.0000000   0.0000000), wk =   2.0000000

                       cryst. coord.
        k(    1) = (   0.0000000   0.0000000   0.0000000), wk =   2.0000000

     Check: negative core charge=   -0.000015

     Initial potential from superposition of free atoms

     starting charge     138.9992, renormalised to     140.0000
     Starting wfcs are  102 randomized atomic wfcs

     Self-consistent Calculation

     iteration #  1     ecut=    30.00 Ry     beta= 0.70
     Davidson diagonalization with overlap

     ethr =  1.00E-02,  avg # of iterations =  2.0

     total energy              =   -2385.09862928 Ry
     estimated scf accuracy    <       7.15437622 Ry

[...]

     total energy              =   -2389.66646841 Ry
     estimated scf accuracy    <       0.00000613 Ry

     iteration # 30     ecut=    30.00 Ry     beta= 0.70
     Davidson diagonalization with overlap

     ethr =  3.99E-09,  avg # of iterations =  1.0

     End of self-consistent calculation

          k = 0.0000 0.0000 0.0000 (  1310 PWs)   bands (ev):

  -114.5901-114.5894-114.5890-114.5856 -69.1021 -69.1005 -68.7143 -68.7134
   -68.7109 -68.7107 -68.7027 -68.7010 -68.6991 -68.6896 -68.6879 -68.6878
   -68.6847 -68.6775 -38.2676 -38.2654 -37.7271 -37.7158 -37.5666 -37.5603
    -4.9319  -3.6471  -3.3523  -3.3433  -3.3423  -3.3389   3.7849   3.8471
     3.9215   3.9751   4.0775   4.0832   4.1067   4.2013   4.2445   4.2823
     4.3660   4.4761   4.4907   4.5196   4.5543   4.6188   4.6219   4.6590
     4.7517   4.7762   5.0108   5.8186   5.8620   6.0843   6.2119   6.2711
     6.5064   6.7485   6.8181   6.9158   7.4215   7.5785   7.8811   7.9951
     7.9983   8.5742   8.7898   8.8674  10.9271  10.9395  10.9401  11.5693
    11.8711  12.5733  12.6093  13.0641  13.6929  13.8151  13.8826  16.0479
    17.3481  17.6541  17.8952  18.2243

     occupation numbers
     1.0000   1.0000   1.0000   1.0000   1.0000   1.0000   1.0000   1.0000
     1.0000   1.0000   1.0000   1.0000   1.0000   1.0000   1.0000   1.0000
     1.0000   1.0000   1.0000   1.0000   1.0000   1.0000   1.0000   1.0000
     1.0000   1.0000   1.0000   1.0000   1.0000   1.0000   1.0000   1.0000
     1.0000   1.0000   1.0000   1.0000   1.0000   1.0000   1.0000   1.0000
     1.0000   1.0000   1.0000   1.0000   1.0000   1.0000   1.0000   1.0000
     1.0000   1.0000   1.0000   1.0000   1.0000   1.0000   1.0000   1.0000
     1.0000   1.0000   1.0000   1.0000   1.0000   1.0000   1.0000   1.0000
     1.0000   1.0000   1.0000   1.0000   1.0158   0.5112   0.4729  -0.0000
    -0.0000  -0.0000  -0.0000  -0.0000  -0.0000  -0.0000  -0.0000  -0.0000
    -0.0000  -0.0000  -0.0000  -0.0000

     the Fermi energy is    10.9397 ev

!    total energy              =   -2389.66646861 Ry
     estimated scf accuracy    <       0.00000018 Ry
     smearing contrib. (-TS)   =      -0.00047731 Ry
     internal energy E=F+TS    =   -2389.66599131 Ry

     The total energy is F=E-TS. E is the sum of the following terms:
     one-electron contribution =   -1832.41638041 Ry
     hartree contribution      =     971.56712270 Ry
     xc contribution           =    -253.75055124 Ry
     ewald contribution        =   -1275.06618234 Ry

     convergence has been achieved in  30 iterations

     Forces acting on atoms (cartesian axes, Ry/au):

     atom    1 type  1   force =     0.00743539    0.01277704   -0.04439878
     atom    2 type  1   force =    -0.00743539   -0.01277704   -0.04439878
     atom    3 type  2   force =    -0.01312401    0.01024120   -0.02954471
     atom    4 type  2   force =     0.01541221   -0.00645466   -0.02962353
     atom    5 type  2   force =     0.01312401   -0.01024120   -0.02954471
     atom    6 type  2   force =    -0.01541221    0.00645466   -0.02962353
     atom    7 type  3   force =    -0.01610625    0.02348862    0.02364200
     atom    8 type  3   force =     0.02836602   -0.00228085    0.02362791
     atom    9 type  3   force =     0.01610625   -0.02348862    0.02364200
     atom   10 type  3   force =    -0.02836602    0.00228085    0.02362791
     atom   11 type  3   force =     0.00363959    0.00628400    0.05629710
     atom   12 type  3   force =    -0.00363959   -0.00628400    0.05629710
     The non-local contrib.  to forces
     atom    1 type  1   force =     0.03019638    0.05210900   -0.07570282
     atom    2 type  1   force =    -0.03019638   -0.05210900   -0.07570282
     atom    3 type  2   force =     0.06469379    0.01922842    0.08340174
     atom    4 type  2   force =    -0.01552719    0.06552642    0.08330246
     atom    5 type  2   force =    -0.06469379   -0.01922842    0.08340174
     atom    6 type  2   force =     0.01552719   -0.06552642    0.08330246
     atom    7 type  3   force =     0.00426232    0.07357610   -0.12711275
     atom    8 type  3   force =     0.06168898    0.04030992   -0.12710428
     atom    9 type  3   force =    -0.00426232   -0.07357610   -0.12711275
     atom   10 type  3   force =    -0.06168898   -0.04030992   -0.12710428
     atom   11 type  3   force =     0.01966399    0.03397441   -0.01008499
     atom   12 type  3   force =    -0.01966399   -0.03397441   -0.01008499
     The ionic contribution  to forces
     atom    1 type  1   force =     1.08955557    1.88150687    1.77024815
     atom    2 type  1   force =    -1.08955557   -1.88150688    1.77024816
     atom    3 type  2   force =    -0.35565301    1.35512394   -0.42823421
     atom    4 type  2   force =     1.35235551    0.36603895   -0.42823421
     atom    5 type  2   force =     0.35565301   -1.35512394   -0.42823421
     atom    6 type  2   force =    -1.35235551   -0.36603895   -0.42823421
     atom    7 type  3   force =     0.26331464   -0.17865677   -0.08606376
     atom    8 type  3   force =    -0.28601665    0.13945366   -0.08606376
     atom    9 type  3   force =    -0.26331465    0.17865677   -0.08606376
     atom   10 type  3   force =     0.28601665   -0.13945366   -0.08606376
     atom   11 type  3   force =     0.14803739    0.25563944   -0.74165223
     atom   12 type  3   force =    -0.14803739   -0.25563944   -0.74165223
     The local contribution  to forces
     atom    1 type  1   force =    -1.11058442   -1.91719854   -1.74363006
     atom    2 type  1   force =     1.11040780    1.91771747   -1.74348369
     atom    3 type  2   force =     0.27774417   -1.36382646    0.31494984
     atom    4 type  2   force =    -1.32116143   -0.43825287    0.31540577
     atom    5 type  2   force =    -0.27711906    1.36397410    0.31524137
     atom    6 type  2   force =     1.32089962    0.43762931    0.31513987
     atom    7 type  3   force =    -0.28328966    0.12860381    0.23541076
     atom    8 type  3   force =     0.25248337   -0.18170556    0.23519779
     atom    9 type  3   force =     0.28337035   -0.12863026    0.23529382
     atom   10 type  3   force =    -0.25264127    0.18166956    0.23543262
     atom   11 type  3   force =    -0.16398496   -0.28317599    0.80817097
     atom   12 type  3   force =     0.16404392    0.28332200    0.80801057
     The core correction contribution to forces
     atom    1 type  1   force =    -0.00182335   -0.00313817    0.00470133
     atom    2 type  1   force =     0.00181705    0.00314711    0.00470178
     atom    3 type  2   force =     0.00000000    0.00000000    0.00000000
     atom    4 type  2   force =     0.00000000    0.00000000    0.00000000
     atom    5 type  2   force =     0.00000000    0.00000000    0.00000000
     atom    6 type  2   force =     0.00000000    0.00000000    0.00000000
     atom    7 type  3   force =    -0.00042604   -0.00001719    0.00149126
     atom    8 type  3   force =     0.00019743   -0.00037764    0.00148944
     atom    9 type  3   force =     0.00042596    0.00001684    0.00148956
     atom   10 type  3   force =    -0.00019701    0.00037803    0.00149108
     atom   11 type  3   force =    -0.00002935   -0.00005049   -0.00001772
     atom   12 type  3   force =     0.00002913    0.00005085   -0.00001764
     The Hubbard contrib.    to forces
     atom    1 type  1   force =     0.00000000    0.00000000    0.00000000
     atom    2 type  1   force =     0.00000000    0.00000000    0.00000000
     atom    3 type  2   force =     0.00000000    0.00000000    0.00000000
     atom    4 type  2   force =     0.00000000    0.00000000    0.00000000
     atom    5 type  2   force =     0.00000000    0.00000000    0.00000000
     atom    6 type  2   force =     0.00000000    0.00000000    0.00000000
     atom    7 type  3   force =     0.00000000    0.00000000    0.00000000
     atom    8 type  3   force =     0.00000000    0.00000000    0.00000000
     atom    9 type  3   force =     0.00000000    0.00000000    0.00000000
     atom   10 type  3   force =     0.00000000    0.00000000    0.00000000
     atom   11 type  3   force =     0.00000000    0.00000000    0.00000000
     atom   12 type  3   force =     0.00000000    0.00000000    0.00000000
     The SCF correction term to forces
     atom    1 type  1   force =     0.00004322   -0.00044777    0.00002053
     atom    2 type  1   force =     0.00004373    0.00002861   -0.00014483
     atom    3 type  2   force =     0.00009708   -0.00026344    0.00034893
     atom    4 type  2   force =    -0.00023118    0.00021829   -0.00005332
     atom    5 type  2   force =    -0.00071011    0.00015832    0.00008867
     atom    6 type  2   force =     0.00054000    0.00037619    0.00017743
     atom    7 type  3   force =     0.00001622   -0.00002126    0.00002677
     atom    8 type  3   force =     0.00001658    0.00005902    0.00005360
     atom    9 type  3   force =    -0.00012936    0.00004019   -0.00002185
     atom   10 type  3   force =     0.00014830    0.00001709   -0.00001933
     atom   11 type  3   force =    -0.00004902   -0.00009160   -0.00009435
     atom   12 type  3   force =    -0.00001280   -0.00003123    0.00007012

     Total force =     0.144616     Total SCF correction =     0.001268

     Computing stress (Cartesian axis) and pressure

          total   stress  (Ry/bohr**3)                   (kbar)     P=     -502.01
  -0.00364738   0.00005843   0.00000000         -536.55        8.60        0.00
   0.00005843  -0.00358032   0.00000000            8.60     -526.68        0.00
   0.00000000   0.00000000  -0.00301017            0.00        0.00     -442.81

     kinetic stress (kbar)  32577.78    121.15      0.00
                              121.15  32716.77      0.00
                                0.00      0.00  32969.13

     local   stress (kbar)  -9578.42    231.19      0.40
                              231.19  -9312.90     -0.25
                                0.40     -0.25 -11828.03

     nonloc. stress (kbar)   5286.95    125.99      0.00
                              125.99   5431.51      0.00
                                0.00      0.00   5528.30

     hartree stress (kbar)  50360.99    -77.39     -0.10
                              -77.39  50272.12      0.06
                               -0.10      0.06  51471.26

     exc-cor stress (kbar) -11121.22      0.23     -0.00
                                0.23 -11120.95      0.00
                               -0.00      0.00 -11119.17

     corecor stress (kbar)  -1470.31     -3.39      0.00
                               -3.39  -1474.20     -0.00
                                0.00     -0.00  -1476.77

     ewald   stress (kbar) -66592.32   -389.20      0.00
                             -389.20 -67039.03     -0.00
                                0.00     -0.00 -65987.54

     hubbard stress (kbar)      0.00      0.00      0.00
                                0.00      0.00      0.00
                                0.00      0.00      0.00

     DFT-D   stress (kbar)      0.00      0.00      0.00
                                0.00      0.00      0.00
                                0.00      0.00      0.00

     XDM     stress (kbar)      0.00      0.00      0.00
                                0.00      0.00      0.00
                                0.00      0.00      0.00

     dft-nl  stress (kbar)      0.00      0.00      0.00
                                0.00      0.00      0.00
                                0.00      0.00      0.00

     TS-vdW  stress (kbar)      0.00      0.00      0.00
                                0.00      0.00      0.00
                                0.00      0.00      0.00

[...]

                                0.00      0.00      0.00

     Writing all to output data dir new_calculations/myprefix.save/

     General routines

     Parallel routines

   This run was terminated on:  11:26:17  20May2023

   JOB DONE.