     Program PWSCF v.7.0 starts on 21May2023 at  7: 1:10

     Reading input from espresso_9141.pwi
Warning: card &CELL ignored
Warning: card / ignored

     Current dimensions of program PWSCF are:
     Max number of different atomic species (ntypx) = 10
     Max number of k-points (npk) =  40000
     Max angular momentum in pseudopotentials (lmaxx) =  4
     file Cd.pbe-dn-rrkjus_psl.0.3.1.UPF: wavefunction(s)  4D renormalized

     gamma-point specific algorithms are used
     Message from routine setup:
     using ibrav=0 with symmetry is DISCOURAGED, use correct ibrav instead

     Subspace diagonalization in iterative solution of the eigenvalue problem:
     a serial algorithm will be used

     Using Slab Decomposition

     bravais-lattice index     =            0
     lattice parameter (alat)  =      10.1076  a.u.
     unit-cell volume          =     511.0216 (a.u.)^3
     number of atoms/cell      =            3
     number of atomic types    =            2
     number of electrons       =        52.00
     number of Kohn-Sham states=           31
     kinetic-energy cutoff     =      30.0000  Ry
     charge density cutoff     =     240.0000  Ry
     scf convergence threshold =      1.0E-06
     mixing beta               =       0.7000
     number of iterations used =            8  plain     mixing
     Exchange-correlation= PBE
                           (   1   4   3   4   0   0   0)

     celldm(1)=  10.107585  celldm(2)=   0.000000  celldm(3)=   0.000000
     celldm(4)=   0.000000  celldm(5)=   0.000000  celldm(6)=   0.000000

     crystal axes: (cart. coord. in units of alat)
               a(1) = (   1.000000   0.000000   0.000000 )
               a(2) = (   0.410772   0.911738   0.000000 )
               a(3) = (  -0.705386  -0.455869   0.542784 )

     reciprocal axes: (cart. coord. in units 2 pi/alat)
               b(1) = (  1.000000 -0.450537  0.921177 )
               b(2) = (  0.000000  1.096806  0.921177 )
               b(3) = (  0.000000  0.000000  1.842354 )

     PseudoPot. # 1 for Cd read from file:
     /home/pragov/projects/rrg-bengioy-ad/pragov/crystal_structure_design/SSSP/Cd.pbe-dn-rrkjus_psl.0.3.1.UPF
     MD5 check sum: 558e9f355611b531a870a69ef6ace9e2
     Pseudo is Ultrasoft + core correction, Zval = 12.0
     Generated using "atomic" code by A. Dal Corso  v.5.0.99 svn rev. 10869
     Using radial grid of 1239 points,  6 beta functions with:
                l(1) =   0
                l(2) =   0
                l(3) =   1
                l(4) =   1
                l(5) =   2
                l(6) =   2
     Q(r) pseudized with 0 coefficients

     PseudoPot. # 2 for Hg read from file:
     /home/pragov/projects/rrg-bengioy-ad/pragov/crystal_structure_design/SSSP/Hg_ONCV_PBE-1.0.oncvpsp.upf
     MD5 check sum: dd5a8773074bfcf4280086d4d95875c4
     Pseudo is Norm-conserving, Zval = 20.0
     Generated using ONCVPSP code by D. R. Hamann
     Using radial grid of 1262 points,  8 beta functions with:
                l(1) =   0
                l(2) =   0
                l(3) =   1
                l(4) =   1
                l(5) =   2
                l(6) =   2
                l(7) =   3
                l(8) =   3

     atomic species   valence    mass     pseudopotential
        Cd            12.00   112.41400     Cd( 1.00)
        Hg            20.00   200.59200     Hg( 1.00)

      4 Sym. Ops., with inversion, found

                                    s                        frac. trans.

      isym =  1     identity

 cryst.   s( 1) = (     1          0          0      )
                  (     0          1          0      )
                  (     0          0          1      )

 cart.    s( 1) = (  1.0000000 -0.0000000  0.0000000 )
                  (  0.0000000  1.0000000 -0.0000000 )
                  (  0.0000000  0.0000000  1.0000000 )

      isym =  2     180 deg rotation - cart. axis [0,0,1]

[...]

      isym =  3     inversion

[...]

      isym =  4     inv. 180 deg rotation - cart. axis [0,0,1]

 cryst.   s( 4) = (     1          0          0      )
                  (     0          1          0      )
                  (    -1         -1         -1      )

 cart.    s( 4) = (  1.0000000 -0.0000000  0.0000000 )
                  (  0.0000000  1.0000000  0.0000000 )
                  (  0.0000000  0.0000000 -1.0000000 )

   Cartesian axes

     site n.     atom                  positions (alat units)
         1           Cd  tau(   1) = (   0.0000000   0.0000000   0.0000000  )
         2           Hg  tau(   2) = (   0.4701834   0.3038651   0.0000000  )
         3           Hg  tau(   3) = (   0.9405882   0.6078732   0.0000000  )

   Crystallographic axes

     site n.     atom                  positions (cryst. coord.)
         1           Cd  tau(   1) = (  0.0000000  0.0000000  0.0000000  )
         2           Hg  tau(   2) = (  0.3332810  0.3332810  0.0000000  )
         3           Hg  tau(   3) = (  0.6667190  0.6667190  0.0000000  )

     number of k points=     1  Methfessel-Paxton smearing, width (Ry)=  0.0010
                       cart. coord. in units 2pi/alat
        k(    1) = (   0.0000000   0.0000000   0.0000000), wk =   2.0000000

                       cryst. coord.
        k(    1) = (   0.0000000   0.0000000   0.0000000), wk =   2.0000000

     Check: negative core charge=   -0.000002

     Initial potential from superposition of free atoms

     starting charge      51.9950, renormalised to      52.0000
     Starting wfcs are   29 randomized atomic wfcs +    2 random wfcs

     Self-consistent Calculation

     iteration #  1     ecut=    30.00 Ry     beta= 0.70
     Davidson diagonalization with overlap

     ethr =  1.00E-02,  avg # of iterations =  5.0

     Threshold (ethr) on eigenvalues was too large:
     Diagonalizing with lowered threshold

     Davidson diagonalization with overlap

[...]

     total energy              =    -741.55228415 Ry
     estimated scf accuracy    <       0.19846582 Ry

[...]

     total energy              =    -741.65184894 Ry
     estimated scf accuracy    <       0.00000110 Ry

     iteration #  7     ecut=    30.00 Ry     beta= 0.70
     Davidson diagonalization with overlap

     ethr =  2.12E-09,  avg # of iterations = 12.0

     End of self-consistent calculation

          k = 0.0000 0.0000 0.0000 (   698 PWs)   bands (ev):

  -103.9817-103.9788 -52.0620 -52.0042 -51.8941 -51.8834 -51.8109 -51.7671
     3.2282   3.4881   3.4950   3.5252   3.5618   3.7479   4.9060   5.0762
     5.1625   5.2386   5.3112   5.3342   5.5209   5.5528   5.6863   5.9159
    12.4177  13.0962  15.4539  15.6344  16.5222  16.5762  16.7488

     occupation numbers
     1.0000   1.0000   1.0000   1.0000   1.0000   1.0000   1.0000   1.0000
     1.0000   1.0000   1.0000   1.0000   1.0000   1.0000   1.0000   1.0000
     1.0000   1.0000   1.0000   1.0000   1.0000   1.0000   1.0000   1.0000
     1.0000   1.0000  -0.0000  -0.0000  -0.0000  -0.0000  -0.0000

     the Fermi energy is    14.9942 ev

!    total energy              =    -741.65184941 Ry
     estimated scf accuracy    <       0.00000026 Ry
     smearing contrib. (-TS)   =       0.00000000 Ry
     internal energy E=F+TS    =    -741.65184941 Ry

     The total energy is F=E-TS. E is the sum of the following terms:
     one-electron contribution =    -363.83208276 Ry
     hartree contribution      =     198.50364428 Ry
     xc contribution           =     -97.65449944 Ry
     ewald contribution        =    -478.66891149 Ry

     convergence has been achieved in   7 iterations

     Forces acting on atoms (cartesian axes, Ry/au):

     atom    1 type  1   force =     0.00000000    0.00000000    0.00000000
     atom    2 type  2   force =     0.02909529    0.01809971    0.00000000
     atom    3 type  2   force =    -0.02909529   -0.01809971   -0.00000000
     The non-local contrib.  to forces
     atom    1 type  1   force =     0.00000000    0.00000000    0.00000000
     atom    2 type  2   force =     0.07774988    0.05107124    0.00000000
     atom    3 type  2   force =    -0.07774988   -0.05107124   -0.00000000
     The ionic contribution  to forces
     atom    1 type  1   force =    -0.00000000   -0.00000000   -0.00000000
     atom    2 type  2   force =     1.06637094    0.68916276    0.00000000
     atom    3 type  2   force =    -1.06637094   -0.68916276   -0.00000000
     The local contribution  to forces
     atom    1 type  1   force =     0.00012024    0.00009407    0.00015228
     atom    2 type  2   force =    -1.11607500   -0.72304950   -0.00135095
     atom    3 type  2   force =     1.11568585    0.72203753    0.00036333
     The core correction contribution to forces
     atom    1 type  1   force =     0.00000000   -0.00000145    0.00000228
     atom    2 type  2   force =     0.00000000    0.00000000    0.00000000
     atom    3 type  2   force =     0.00000000    0.00000000    0.00000000
     The Hubbard contrib.    to forces
     atom    1 type  1   force =     0.00000000    0.00000000    0.00000000
     atom    2 type  2   force =     0.00000000    0.00000000    0.00000000
     atom    3 type  2   force =     0.00000000    0.00000000    0.00000000
     The SCF correction term to forces
     atom    1 type  1   force =    -0.00014012   -0.00008212   -0.00015770
     atom    2 type  2   force =     0.00111621    0.00095332    0.00148897
     atom    3 type  2   force =    -0.00059356    0.00013488   -0.00043082

     Total force =     0.048459     Total SCF correction =     0.002231

     Computing stress (Cartesian axis) and pressure

          total   stress  (Ry/bohr**3)                   (kbar)     P=     -701.53
  -0.00127046   0.00424212   0.00000000         -186.89      624.04        0.00
   0.00424212  -0.00508896   0.00000000          624.04     -748.61        0.00
   0.00000000   0.00000000  -0.00794732            0.00        0.00    -1169.09

     kinetic stress (kbar)  44120.90    686.54      0.00
                              686.54  43463.21      0.00
                                0.00      0.00  43077.56

     local   stress (kbar) -19057.24  -6681.49      1.99
                            -6681.49 -13081.48     11.65
                                1.99     11.65  -8697.89

     nonloc. stress (kbar)   3093.30    -17.62      0.00
                              -17.62   3186.55      0.00
                                0.00      0.00   3070.45

     hartree stress (kbar)  21034.03   2433.70      0.27
                             2433.70  18847.16     -2.69
                                0.27     -2.69  17261.01

     exc-cor stress (kbar)    535.80      2.22      0.03
                                2.22    533.50      0.04
                                0.03      0.04    532.31

     corecor stress (kbar)  -7412.67     -1.55     -0.08
                               -1.55  -7410.00     -0.05
                               -0.08     -0.05  -7409.21

     ewald   stress (kbar) -42501.02   4202.24      0.00
                             4202.24 -46287.54      0.00
                                0.00      0.00 -49003.32

     hubbard stress (kbar)      0.00      0.00      0.00
                                0.00      0.00      0.00
                                0.00      0.00      0.00

     DFT-D   stress (kbar)      0.00      0.00      0.00
                                0.00      0.00      0.00
                                0.00      0.00      0.00

     XDM     stress (kbar)      0.00      0.00      0.00
                                0.00      0.00      0.00
                                0.00      0.00      0.00

     dft-nl  stress (kbar)      0.00      0.00      0.00
                                0.00      0.00      0.00
                                0.00      0.00      0.00

     TS-vdW  stress (kbar)      0.00      0.00      0.00
                                0.00      0.00      0.00
                                0.00      0.00      0.00

[...]

                                0.00      0.00      0.00

     Writing all to output data dir new_calculations/myprefix.save/

     General routines

     Parallel routines

   This run was terminated on:   7: 1:16  21May2023

   JOB DONE.