     Program PWSCF v.7.0 starts on 20May2023 at 14:28:40

     Reading input from espresso_577.pwi
Warning: card &CELL ignored
Warning: card / ignored

     Current dimensions of program PWSCF are:
     Max number of different atomic species (ntypx) = 10
     Max number of k-points (npk) =  40000
     Max angular momentum in pseudopotentials (lmaxx) =  4
     file Nb.pbe-spn-kjpaw_psl.0.3.0.UPF: wavefunction(s)  4S 4P renormalized

     gamma-point specific algorithms are used
     Message from routine setup:
     using ibrav=0 with symmetry is DISCOURAGED, use correct ibrav instead

     Subspace diagonalization in iterative solution of the eigenvalue problem:
     a serial algorithm will be used

     Using Slab Decomposition

     bravais-lattice index     =            0
     lattice parameter (alat)  =       5.7074  a.u.
     unit-cell volume          =    1388.5890 (a.u.)^3
     number of atoms/cell      =           20
     number of atomic types    =            2
     number of electrons       =       164.00
     number of Kohn-Sham states=           98
     kinetic-energy cutoff     =      30.0000  Ry
     charge density cutoff     =     240.0000  Ry
     scf convergence threshold =      1.0E-06
     mixing beta               =       0.7000
     number of iterations used =            8  plain     mixing
     Exchange-correlation= PBE
                           (   1   4   3   4   0   0   0)

     celldm(1)=   5.707443  celldm(2)=   0.000000  celldm(3)=   0.000000
     celldm(4)=   0.000000  celldm(5)=   0.000000  celldm(6)=   0.000000

     crystal axes: (cart. coord. in units of alat)
               a(1) = (   1.000000   0.000000   0.000000 )
               a(2) = (   0.000000   2.711248   0.000000 )
               a(3) = (   0.000000   0.000000   2.754734 )

     reciprocal axes: (cart. coord. in units 2 pi/alat)
               b(1) = (  1.000000  0.000000  0.000000 )
               b(2) = (  0.000000  0.368834  0.000000 )
               b(3) = (  0.000000  0.000000  0.363011 )

     PseudoPot. # 1 for Nb read from file:
     /home/pragov/projects/rrg-bengioy-ad/pragov/crystal_structure_design/SSSP/Nb.pbe-spn-kjpaw_psl.0.3.0.UPF
     MD5 check sum: 411d72ad547312f8017e2943ceca08cc
     Pseudo is Projector augmented-wave + core cor, Zval = 13.0
     Generated using "atomic" code by A. Dal Corso  v.5.0.99 svn rev. 10869
     Shape of augmentation charge: PSQ
     Using radial grid of 1227 points,  6 beta functions with:
                l(1) =   0
                l(2) =   0
                l(3) =   1
                l(4) =   1
                l(5) =   2
                l(6) =   2
     Q(r) pseudized with 0 coefficients

     PseudoPot. # 2 for N  read from file:
     /home/pragov/projects/rrg-bengioy-ad/pragov/crystal_structure_design/SSSP/N.pbe-n-radius_5.UPF
     MD5 check sum: 16739722b17309cd8fe442a2ace49922
     Pseudo is Ultrasoft + core correction, Zval =  5.0
     Generated using "atomic" code by A. Dal Corso  v.5.1
     Using radial grid of 1085 points,  4 beta functions with:
                l(1) =   0
                l(2) =   0
                l(3) =   1
                l(4) =   1
     Q(r) pseudized with 0 coefficients

     atomic species   valence    mass     pseudopotential
        Nb            13.00    92.90637     Nb( 1.00)
        N              5.00    14.00700     N ( 1.00)

      8 Sym. Ops., with inversion, found ( 6 have fractional translation)

                                    s                        frac. trans.

      isym =  1     identity

 cryst.   s( 1) = (     1          0          0      )
                  (     0          1          0      )
                  (     0          0          1      )

 cart.    s( 1) = (  1.0000000  0.0000000  0.0000000 )
                  (  0.0000000  1.0000000  0.0000000 )
                  (  0.0000000  0.0000000  1.0000000 )

      isym =  2     180 deg rotation - cart. axis [0,0,1]

 cryst.   s( 2) = (    -1          0          0      )    f =(  0.5000000 )
                  (     0         -1          0      )       (  0.5000000 )
                  (     0          0          1      )       (  0.5000000 )

 cart.    s( 2) = ( -1.0000000  0.0000000  0.0000000 )    f =(  0.5000000 )
                  (  0.0000000 -1.0000000  0.0000000 )       (  1.3556238 )
                  (  0.0000000  0.0000000  1.0000000 )       (  1.3773671 )

[...]

      isym =  4     180 deg rotation - cart. axis [1,0,0]

[...]

      isym =  5     inversion

 cryst.   s( 5) = (    -1          0          0      )
                  (     0         -1          0      )
                  (     0          0         -1      )

 cart.    s( 5) = ( -1.0000000  0.0000000  0.0000000 )
                  (  0.0000000 -1.0000000  0.0000000 )
                  (  0.0000000  0.0000000 -1.0000000 )

      isym =  6     inv. 180 deg rotation - cart. axis [0,0,1]

[...]

      isym =  8     inv. 180 deg rotation - cart. axis [1,0,0]

 cryst.   s( 8) = (    -1          0          0      )    f =(  0.5000000 )
                  (     0          1          0      )       (  0.0000000 )
                  (     0          0          1      )       (  0.0000000 )

 cart.    s( 8) = ( -1.0000000  0.0000000  0.0000000 )    f =(  0.5000000 )
                  (  0.0000000  1.0000000  0.0000000 )       (  0.0000000 )
                  (  0.0000000  0.0000000  1.0000000 )       (  0.0000000 )

   Cartesian axes

     site n.     atom                  positions (alat units)
         1           Nb  tau(   1) = (   0.2500000   0.5075645   1.3165756  )
         2           Nb  tau(   2) = (   0.2500000   0.8480593   2.6939427  )
         3           Nb  tau(   3) = (   0.7500000   2.2036831   1.4381585  )
         4           Nb  tau(   4) = (   0.7500000   1.8631884   0.0607915  )
         5           Nb  tau(   5) = (   0.2500000   2.6996706   2.2177979  )
         6           Nb  tau(   6) = (   0.2500000   1.3672009   0.8404308  )
         7           Nb  tau(   7) = (   0.7500000   0.0115770   0.5369362  )
         8           Nb  tau(   8) = (   0.7500000   1.3440468   1.9143033  )
         9           N   tau(   9) = (   0.2500000   1.6965524   1.5029113  )
        10           N   tau(  10) = (   0.2500000   2.3703191   0.1255443  )
        11           N   tau(  11) = (   0.7500000   1.0146953   1.2518228  )
        12           N   tau(  12) = (   0.7500000   0.3409285   2.6291899  )
        13           N   tau(  13) = (   0.2500000   2.5811945   1.0432702  )
        14           N   tau(  14) = (   0.2500000   1.4856770   2.4206372  )
        15           N   tau(  15) = (   0.7500000   0.1300531   1.7114640  )
        16           N   tau(  16) = (   0.7500000   1.2255707   0.3340969  )
        17           N   tau(  17) = (   0.2500000   0.8063359   1.9874966  )
        18           N   tau(  18) = (   0.2500000   0.5492879   0.6101295  )
        19           N   tau(  19) = (   0.7500000   1.9049118   0.7672375  )
        20           N   tau(  20) = (   0.7500000   2.1619597   2.1446046  )

   Crystallographic axes

     site n.     atom                  positions (cryst. coord.)
         1           Nb  tau(   1) = (  0.2500000  0.1872070  0.4779320  )
         2           Nb  tau(   2) = (  0.2500000  0.3127930  0.9779320  )
         3           Nb  tau(   3) = (  0.7500000  0.8127930  0.5220680  )
         4           Nb  tau(   4) = (  0.7500000  0.6872070  0.0220680  )
         5           Nb  tau(   5) = (  0.2500000  0.9957300  0.8050860  )
         6           Nb  tau(   6) = (  0.2500000  0.5042700  0.3050860  )
         7           Nb  tau(   7) = (  0.7500000  0.0042700  0.1949140  )
         8           Nb  tau(   8) = (  0.7500000  0.4957300  0.6949140  )
         9           N   tau(   9) = (  0.2500000  0.6257460  0.5455740  )
        10           N   tau(  10) = (  0.2500000  0.8742540  0.0455740  )
        11           N   tau(  11) = (  0.7500000  0.3742540  0.4544260  )
        12           N   tau(  12) = (  0.7500000  0.1257460  0.9544260  )
        13           N   tau(  13) = (  0.2500000  0.9520320  0.3787190  )
        14           N   tau(  14) = (  0.2500000  0.5479680  0.8787190  )
        15           N   tau(  15) = (  0.7500000  0.0479680  0.6212810  )
        16           N   tau(  16) = (  0.7500000  0.4520320  0.1212810  )
        17           N   tau(  17) = (  0.2500000  0.2974040  0.7214840  )
        18           N   tau(  18) = (  0.2500000  0.2025960  0.2214840  )
        19           N   tau(  19) = (  0.7500000  0.7025960  0.2785160  )
        20           N   tau(  20) = (  0.7500000  0.7974040  0.7785160  )

     number of k points=     1  Methfessel-Paxton smearing, width (Ry)=  0.0010
                       cart. coord. in units 2pi/alat
        k(    1) = (   0.0000000   0.0000000   0.0000000), wk =   2.0000000

                       cryst. coord.
        k(    1) = (   0.0000000   0.0000000   0.0000000), wk =   2.0000000

     Check: negative core charge=   -0.000020

     Initial potential from superposition of free atoms

     starting charge     163.9829, renormalised to     164.0000
     Starting wfcs are  128 randomized atomic wfcs
     Checking if some PAW data can be deallocated...

     Self-consistent Calculation

     iteration #  1     ecut=    30.00 Ry     beta= 0.70
     Davidson diagonalization with overlap

     ethr =  1.00E-02,  avg # of iterations =  2.0

     total energy              =   -2908.60663885 Ry
     estimated scf accuracy    <      14.36449953 Ry

[...]

     total energy              =   -2916.52782301 Ry
     estimated scf accuracy    <       0.00000823 Ry

     iteration # 20     ecut=    30.00 Ry     beta= 0.70
     Davidson diagonalization with overlap

     ethr =  5.02E-09,  avg # of iterations =  2.0

     End of self-consistent calculation

          k = 0.0000 0.0000 0.0000 (  1909 PWs)   bands (ev):

   -38.5440 -38.5151 -38.5123 -38.5071 -38.4485 -38.4345 -38.4292 -38.4210
   -15.1330 -15.0373 -15.0199 -14.9868 -14.8959 -14.8592 -14.8238 -14.7678
   -14.7602 -14.7050 -14.6236 -14.5727 -14.4644 -14.4299 -14.3840 -14.3408
   -14.1252 -14.0658 -14.0509 -14.0376 -14.0142 -14.0002 -13.9872 -13.9573
     0.7446   2.1391   2.3237   2.4482   2.6600   2.8538   3.2375   3.3180
     3.4892   3.5412   3.5635   3.7753  10.3609  10.4782  10.6392  10.8601
    11.6101  11.8229  11.8930  11.9612  12.0484  12.0902  12.1417  12.6040
    12.6327  12.6583  13.1512  13.1730  13.2322  13.3052  13.5314  13.6059
    13.6995  13.7285  13.8372  14.2818  14.6289  14.6866  14.7783  14.9071
    15.1834  15.2451  15.3800  15.4995  15.6307  15.6432  15.9334  16.6645
    16.6730  16.6735  17.3835  17.5272  18.4318  18.6262  18.9118  19.0986
    19.1313  19.3515  19.4675  19.5416  19.5992  19.6333  19.6420  19.9205
    19.9482  20.0025

     occupation numbers
     1.0000   1.0000   1.0000   1.0000   1.0000   1.0000   1.0000   1.0000
     1.0000   1.0000   1.0000   1.0000   1.0000   1.0000   1.0000   1.0000
     1.0000   1.0000   1.0000   1.0000   1.0000   1.0000   1.0000   1.0000
     1.0000   1.0000   1.0000   1.0000   1.0000   1.0000   1.0000   1.0000
     1.0000   1.0000   1.0000   1.0000   1.0000   1.0000   1.0000   1.0000
     1.0000   1.0000   1.0000   1.0000   1.0000   1.0000   1.0000   1.0000
     1.0000   1.0000   1.0000   1.0000   1.0000   1.0000   1.0000   1.0000
     1.0000   1.0000   1.0000   1.0000   1.0000   1.0000   1.0000   1.0000
     1.0000   1.0000   1.0000   1.0000   1.0000   1.0000   1.0000   1.0000
     1.0000   1.0000   1.0000   1.0000   1.0000   1.0000   1.0000   1.0000
     1.0000   1.0000  -0.0000  -0.0000  -0.0000  -0.0000  -0.0000  -0.0000
    -0.0000  -0.0000  -0.0000  -0.0000  -0.0000  -0.0000  -0.0000  -0.0000
    -0.0000  -0.0000

     the Fermi energy is    16.9219 ev

!    total energy              =   -2916.52782303 Ry
     estimated scf accuracy    <       0.00000089 Ry
     smearing contrib. (-TS)   =       0.00000000 Ry
     internal energy E=F+TS    =   -2916.52782303 Ry

     The total energy is F=E-TS. E is the sum of the following terms:
     one-electron contribution =     -55.09669720 Ry
     hartree contribution      =     146.12851567 Ry
     xc contribution           =    -296.98710946 Ry
     ewald contribution        =   -1042.70227543 Ry
     one-center paw contrib.   =   -1667.87025661 Ry
      -> PAW hartree energy AE =     537.68275274 Ry
      -> PAW hartree energy PS =    -534.75192541 Ry
      -> PAW xc energy AE      =   -1885.78298155 Ry
      -> PAW xc energy PS      =     214.98189761 Ry
      -> total E_H with PAW    =     149.05934300 Ry
      -> total E_XC with PAW   =   -1967.78819340 Ry

     convergence has been achieved in  20 iterations

     Forces acting on atoms (cartesian axes, Ry/au):

     atom    1 type  1   force =    -0.00000000    0.11493947   -0.05358815
     atom    2 type  1   force =     0.00000000   -0.11493947   -0.05358815
     atom    3 type  1   force =     0.00000000   -0.11493947    0.05358815
     atom    4 type  1   force =    -0.00000000    0.11493947    0.05358815
     atom    5 type  1   force =    -0.00000000   -0.05591193   -0.01518222
     atom    6 type  1   force =     0.00000000    0.05591193   -0.01518222
     atom    7 type  1   force =     0.00000000    0.05591193    0.01518222
     atom    8 type  1   force =     0.00000000   -0.05591193    0.01518222
     atom    9 type  2   force =    -0.00000000    0.08950740    0.02389518
     atom   10 type  2   force =     0.00000000   -0.08950740    0.02389518
     atom   11 type  2   force =     0.00000000   -0.08950740   -0.02389518
     atom   12 type  2   force =     0.00000000    0.08950740   -0.02389518
     atom   13 type  2   force =     0.00000000    0.04184266   -0.00979567
     atom   14 type  2   force =     0.00000000   -0.04184266   -0.00979567
     atom   15 type  2   force =     0.00000000   -0.04184266    0.00979567
     atom   16 type  2   force =     0.00000000    0.04184266    0.00979567
     atom   17 type  2   force =    -0.00000000    0.11894596    0.02561249
     atom   18 type  2   force =     0.00000000   -0.11894596    0.02561249
     atom   19 type  2   force =     0.00000000   -0.11894596   -0.02561249
     atom   20 type  2   force =    -0.00000000    0.11894596   -0.02561249
     The non-local contrib.  to forces
     atom    1 type  1   force =    -0.00000000    0.00312773   -0.02387773
     atom    2 type  1   force =     0.00000000   -0.00312773   -0.02387773
     atom    3 type  1   force =     0.00000000   -0.00312773    0.02387773
     atom    4 type  1   force =     0.00000000    0.00312773    0.02387773
     atom    5 type  1   force =    -0.00000000   -0.07375489   -0.10643026
     atom    6 type  1   force =     0.00000000    0.07375489   -0.10643026
     atom    7 type  1   force =    -0.00000000    0.07375489    0.10643026
     atom    8 type  1   force =     0.00000000   -0.07375489    0.10643026
     atom    9 type  2   force =    -0.00000000   -0.04998222   -0.09015238
     atom   10 type  2   force =     0.00000000    0.04998222   -0.09015238
     atom   11 type  2   force =    -0.00000000    0.04998222    0.09015238
     atom   12 type  2   force =     0.00000000   -0.04998222    0.09015238
     atom   13 type  2   force =    -0.00000000    0.37937023    0.20349039
     atom   14 type  2   force =     0.00000000   -0.37937023    0.20349039
     atom   15 type  2   force =     0.00000000   -0.37937023   -0.20349039
     atom   16 type  2   force =     0.00000000    0.37937023   -0.20349039
     atom   17 type  2   force =    -0.00000000    0.05987015    0.24340575
     atom   18 type  2   force =     0.00000000   -0.05987015    0.24340575
     atom   19 type  2   force =     0.00000000   -0.05987015   -0.24340575
     atom   20 type  2   force =     0.00000000    0.05987015   -0.24340575
     The ionic contribution  to forces
     atom    1 type  1   force =    -0.00000000    1.45569885    0.82698412
     atom    2 type  1   force =    -0.00000000   -1.45569885    0.82698412
     atom    3 type  1   force =     0.00000000   -1.45569885   -0.82698412
     atom    4 type  1   force =     0.00000000    1.45569885   -0.82698412
     atom    5 type  1   force =     0.00000000   -0.19390637    0.39407065
     atom    6 type  1   force =    -0.00000000    0.19390637    0.39407065
     atom    7 type  1   force =     0.00000000    0.19390637   -0.39407065
     atom    8 type  1   force =     0.00000000   -0.19390637   -0.39407065
     atom    9 type  2   force =     0.00000000   -0.22846028    0.12438123
     atom   10 type  2   force =    -0.00000000    0.22846028    0.12438123
     atom   11 type  2   force =     0.00000000    0.22846028   -0.12438123
     atom   12 type  2   force =     0.00000000   -0.22846028   -0.12438123
     atom   13 type  2   force =    -0.00000000   -2.31620276   -0.50651941
     atom   14 type  2   force =    -0.00000000    2.31620276   -0.50651941
     atom   15 type  2   force =     0.00000000    2.31620276    0.50651941
     atom   16 type  2   force =     0.00000000   -2.31620276    0.50651941
     atom   17 type  2   force =    -0.00000000   -2.18866226   -0.60372367
     atom   18 type  2   force =    -0.00000000    2.18866226   -0.60372367
     atom   19 type  2   force =     0.00000000    2.18866226    0.60372367
     atom   20 type  2   force =     0.00000000   -2.18866226    0.60372367
     The local contribution  to forces
     atom    1 type  1   force =    -0.00000004   -1.34424616   -0.86076197
     atom    2 type  1   force =     0.00000028    1.34353125   -0.86108729
     atom    3 type  1   force =    -0.00000050    1.34414784    0.86008171
     atom    4 type  1   force =     0.00000028   -1.34291287    0.86132687
     atom    5 type  1   force =     0.00000026    0.20534526   -0.30890976
     atom    6 type  1   force =     0.00000042   -0.20488077   -0.30907658
     atom    7 type  1   force =    -0.00000074   -0.20648158    0.30928111
     atom    8 type  1   force =     0.00000036    0.20543481    0.30912003
     atom    9 type  2   force =    -0.00000043    0.36750042   -0.01134393
     atom   10 type  2   force =     0.00000018   -0.36710697   -0.01081375
     atom   11 type  2   force =     0.00000009   -0.36738477    0.01092431
     atom   12 type  2   force =     0.00000009    0.36688687    0.01110003
     atom   13 type  2   force =     0.00000049    1.98159958    0.29490070
     atom   14 type  2   force =     0.00000007   -1.98150391    0.29541769
     atom   15 type  2   force =     0.00000011   -1.98170489   -0.29539669
     atom   16 type  2   force =    -0.00000008    1.98206728   -0.29511770
     atom   17 type  2   force =    -0.00000049    2.24766944    0.38809002
     atom   18 type  2   force =     0.00000150   -2.24839880    0.38831556
     atom   19 type  2   force =     0.00000094   -2.24767016   -0.38822866
     atom   20 type  2   force =     0.00000002    2.24811038   -0.38800534
     The core correction contribution to forces
     atom    1 type  1   force =     0.00000000    0.00035877    0.00397498
     atom    2 type  1   force =     0.00000001   -0.00035329    0.00395405
     atom    3 type  1   force =    -0.00000002   -0.00035762   -0.00396471
     atom    4 type  1   force =     0.00000001    0.00035309   -0.00396879
     atom    5 type  1   force =    -0.00000000    0.00627987    0.00679285
     atom    6 type  1   force =     0.00000003   -0.00627321    0.00678880
     atom    7 type  1   force =    -0.00000001   -0.00628002   -0.00679088
     atom    8 type  1   force =     0.00000001    0.00627388   -0.00678563
     atom    9 type  2   force =    -0.00000001    0.00073856    0.00068450
     atom   10 type  2   force =     0.00000000   -0.00073707    0.00068398
     atom   11 type  2   force =     0.00000000   -0.00073802   -0.00068384
     atom   12 type  2   force =     0.00000001    0.00073851   -0.00068470
     atom   13 type  2   force =    -0.00000000   -0.00301739   -0.00197223
     atom   14 type  2   force =    -0.00000000    0.00301532   -0.00197177
     atom   15 type  2   force =    -0.00000000    0.00301605    0.00197117
     atom   16 type  2   force =    -0.00000000   -0.00301596    0.00197078
     atom   17 type  2   force =    -0.00000000   -0.00014335   -0.00223056
     atom   18 type  2   force =     0.00000001    0.00014328   -0.00223126
     atom   19 type  2   force =     0.00000001    0.00014328    0.00223160
     atom   20 type  2   force =     0.00000000   -0.00014383    0.00223073
     The Hubbard contrib.    to forces
     atom    1 type  1   force =     0.00000000    0.00000000    0.00000000
     atom    2 type  1   force =     0.00000000    0.00000000    0.00000000
     atom    3 type  1   force =     0.00000000    0.00000000    0.00000000
     atom    4 type  1   force =     0.00000000    0.00000000    0.00000000
     atom    5 type  1   force =     0.00000000    0.00000000    0.00000000
     atom    6 type  1   force =     0.00000000    0.00000000    0.00000000
     atom    7 type  1   force =     0.00000000    0.00000000    0.00000000
     atom    8 type  1   force =     0.00000000    0.00000000    0.00000000
     atom    9 type  2   force =     0.00000000    0.00000000    0.00000000
     atom   10 type  2   force =     0.00000000    0.00000000    0.00000000
     atom   11 type  2   force =     0.00000000    0.00000000    0.00000000
     atom   12 type  2   force =     0.00000000    0.00000000    0.00000000
     atom   13 type  2   force =     0.00000000    0.00000000    0.00000000
     atom   14 type  2   force =     0.00000000    0.00000000    0.00000000
     atom   15 type  2   force =     0.00000000    0.00000000    0.00000000
     atom   16 type  2   force =     0.00000000    0.00000000    0.00000000
     atom   17 type  2   force =     0.00000000    0.00000000    0.00000000
     atom   18 type  2   force =     0.00000000    0.00000000    0.00000000
     atom   19 type  2   force =     0.00000000    0.00000000    0.00000000
     atom   20 type  2   force =     0.00000000    0.00000000    0.00000000
     The SCF correction term to forces
     atom    1 type  1   force =     0.00000004    0.00005463    0.00024719
     atom    2 type  1   force =    -0.00000008    0.00073431    0.00025701
     atom    3 type  1   force =     0.00000041    0.00003168    0.00064994
     atom    4 type  1   force =     0.00000013   -0.00142172   -0.00076292
     atom    5 type  1   force =    -0.00000021    0.00018044   -0.00067105
     atom    6 type  1   force =    -0.00000017   -0.00055379   -0.00054136
     atom    7 type  1   force =     0.00000081    0.00099815    0.00031191
     atom    8 type  1   force =    -0.00000023    0.00001187    0.00053677
     atom    9 type  2   force =    -0.00000007   -0.00024342    0.00035623
     atom   10 type  2   force =    -0.00000027   -0.00000624   -0.00026117
     atom   11 type  2   force =     0.00000014    0.00016326    0.00012087
     atom   12 type  2   force =     0.00000008    0.00036888   -0.00013613
     atom   13 type  2   force =    -0.00000033    0.00000995    0.00026380
     atom   14 type  2   force =    -0.00000001   -0.00023739   -0.00023189
     atom   15 type  2   force =    -0.00000016    0.00001543    0.00019565
     atom   16 type  2   force =    -0.00000026   -0.00034211   -0.00015032
     atom   17 type  2   force =     0.00000019    0.00022005    0.00012461
     atom   18 type  2   force =    -0.00000046    0.00050620   -0.00018775
     atom   19 type  2   force =    -0.00000059   -0.00023277    0.00011239
     atom   20 type  2   force =     0.00000013   -0.00026939   -0.00018176

     Total force =     0.422719     Total SCF correction =     0.002738

     Computing stress (Cartesian axis) and pressure

          total   stress  (Ry/bohr**3)                   (kbar)     P=      -97.49
   0.00313649   0.00000000   0.00000000          461.39        0.00        0.00
   0.00000000  -0.00327835   0.00000000            0.00     -482.26        0.00
   0.00000000   0.00000000  -0.00184628            0.00        0.00     -271.60

     kinetic stress (kbar)  35570.06      0.00      0.00
                                0.00  33483.63      0.00
                                0.00      0.00  33397.56

     local   stress (kbar)  -9310.21     -0.00      0.00
                               -0.00  -7124.45     -0.04
                                0.00     -0.04  -7829.05

     nonloc. stress (kbar)  12555.06      0.00      0.00
                                0.00  12843.65      0.00
                                0.00      0.00  12837.92

     hartree stress (kbar)   5511.06     -0.00      0.00
                               -0.00   4870.02      0.02
                                0.00      0.02   5099.57

     exc-cor stress (kbar)   6122.07      0.00     -0.00
                                0.00   6118.96      0.00
                               -0.00      0.00   6116.48

     corecor stress (kbar) -13359.16     -0.00      0.00
                               -0.00 -13368.77      0.00
                                0.00      0.00 -13364.52

     ewald   stress (kbar) -36627.48     -0.00     -0.00
                               -0.00 -37305.30     -0.00
                               -0.00     -0.00 -36529.57

     hubbard stress (kbar)      0.00      0.00      0.00
                                0.00      0.00      0.00
                                0.00      0.00      0.00

     DFT-D   stress (kbar)      0.00      0.00      0.00
                                0.00      0.00      0.00
                                0.00      0.00      0.00

     XDM     stress (kbar)      0.00      0.00      0.00
                                0.00      0.00      0.00
                                0.00      0.00      0.00

     dft-nl  stress (kbar)      0.00      0.00      0.00
                                0.00      0.00      0.00
                                0.00      0.00      0.00

     TS-vdW  stress (kbar)      0.00      0.00      0.00
                                0.00      0.00      0.00
                                0.00      0.00      0.00

[...]

                                0.00      0.00      0.00

     Writing all to output data dir new_calculations/myprefix.save/

     General routines

     Parallel routines

     PAW routines

   This run was terminated on:  14:29:28  20May2023

   JOB DONE.