     Program PWSCF v.7.0 starts on 21May2023 at 21:10:48

     Reading input from espresso_27124.pwi
Warning: card &CELL ignored
Warning: card / ignored

     Current dimensions of program PWSCF are:
     Max number of different atomic species (ntypx) = 10
     Max number of k-points (npk) =  40000
     Max angular momentum in pseudopotentials (lmaxx) =  4

     gamma-point specific algorithms are used
     Message from routine setup:
     using ibrav=0 with symmetry is DISCOURAGED, use correct ibrav instead

     Subspace diagonalization in iterative solution of the eigenvalue problem:
     a serial algorithm will be used

     Using Slab Decomposition

     bravais-lattice index     =            0
     lattice parameter (alat)  =      13.3510  a.u.
     unit-cell volume          =    1682.7589 (a.u.)^3
     number of atoms/cell      =           14
     number of atomic types    =            2
     number of electrons       =       156.00
     number of Kohn-Sham states=           94
     kinetic-energy cutoff     =      30.0000  Ry
     charge density cutoff     =     240.0000  Ry
     scf convergence threshold =      1.0E-06
     mixing beta               =       0.7000
     number of iterations used =            8  plain     mixing
     Exchange-correlation= SLA  PW   PBE  PBE
                           (   1   4   3   4   0   0   0)

     celldm(1)=  13.350954  celldm(2)=   0.000000  celldm(3)=   0.000000
     celldm(4)=   0.000000  celldm(5)=   0.000000  celldm(6)=   0.000000

     crystal axes: (cart. coord. in units of alat)
               a(1) = (   1.000000   0.000000   0.000000 )
               a(2) = (   0.500000   0.866025   0.000000 )
               a(3) = (   0.500000   0.288675   0.816497 )

     reciprocal axes: (cart. coord. in units 2 pi/alat)
               b(1) = (  1.000000 -0.577350 -0.408248 )
               b(2) = (  0.000000  1.154701 -0.408248 )
               b(3) = (  0.000000  0.000000  1.224745 )

     PseudoPot. # 1 for Ni read from file:
     /home/pragov/projects/rrg-bengioy-ad/pragov/crystal_structure_design/SSSP/ni_pbe_v1.4.uspp.F.UPF
     MD5 check sum: 1ee80287db30b12d2bc1f57a5b5d6409
     Pseudo is Ultrasoft + core correction, Zval = 18.0
     Generated by new atomic code, or converted to UPF format
     Using radial grid of  865 points,  6 beta functions with:
                l(1) =   0
                l(2) =   0
                l(3) =   1
                l(4) =   1
                l(5) =   2
                l(6) =   2
     Q(r) pseudized with 10 coefficients,  rinner =    0.980   0.980   0.980
                                                       0.980   0.980

     PseudoPot. # 2 for Se read from file:
     /home/pragov/projects/rrg-bengioy-ad/pragov/crystal_structure_design/SSSP/Se_pbe_v1.uspp.F.UPF
     MD5 check sum: 1b3568f3a8ae88f9a2a0ad0698632c85
     Pseudo is Ultrasoft + core correction, Zval =  6.0
     Generated by new atomic code, or converted to UPF format
     Using radial grid of  877 points,  6 beta functions with:
                l(1) =   0
                l(2) =   0
                l(3) =   1
                l(4) =   1
                l(5) =   2
                l(6) =   2
     Q(r) pseudized with  8 coefficients,  rinner =    1.300   1.300   1.300
                                                       1.300   1.300

     atomic species   valence    mass     pseudopotential
        Ni            18.00    58.69340     Ni( 1.00)
        Se             6.00    78.97100     Se( 1.00)

     12 Sym. Ops., with inversion, found ( 6 have fractional translation)

                                    s                        frac. trans.

      isym =  1     identity

 cryst.   s( 1) = (     1          0          0      )
                  (     0          1          0      )
                  (     0          0          1      )

 cart.    s( 1) = (  1.0000000  0.0000000  0.0000000 )
                  (  0.0000000  1.0000000  0.0000000 )
                  (  0.0000000  0.0000000  1.0000000 )

      isym =  2     180 deg rotation - cart. axis [1,0,0]

 cryst.   s( 2) = (     1          0          0      )    f =( -0.2500000 )
                  (     1         -1          0      )       ( -0.2500000 )
                  (     1          0         -1      )       ( -0.2500000 )

 cart.    s( 2) = (  1.0000000  0.0000000  0.0000000 )    f =( -0.5000000 )
                  (  0.0000000 -1.0000000 -0.0000000 )       ( -0.2886751 )
                  (  0.0000000  0.0000000 -1.0000000 )       ( -0.2041241 )

      isym =  3     120 deg rotation - cryst. axis [0,0,1]

[...]

      isym =  6     180 deg rotation - cryst. axis [1,1,0]

[...]

      isym =  7     inversion

[...]

      isym =  8     inv. 180 deg rotation - cart. axis [1,0,0]

 cryst.   s( 8) = (    -1          0          0      )
                  (    -1          1          0      )
                  (    -1          0          1      )

 cart.    s( 8) = ( -1.0000000  0.0000000 -0.0000000 )
                  (  0.0000000  1.0000000  0.0000000 )
                  (  0.0000000  0.0000000  1.0000000 )

      isym =  9     inv. 120 deg rotation - cryst. axis [0,0,1]

 cryst.   s( 9) = (     1         -1          0      )    f =( -0.2500000 )
                  (     1          0          0      )       ( -0.2500000 )
                  (     1          0         -1      )       ( -0.2500000 )

 cart.    s( 9) = (  0.5000000  0.8660254  0.0000000 )    f =( -0.5000000 )
                  ( -0.8660254  0.5000000 -0.0000000 )       ( -0.2886751 )
                  (  0.0000000  0.0000000 -1.0000000 )       ( -0.2041241 )

[...]

 cryst.   s(10) = (     0          1          0      )    f =( -0.2500000 )
                  (    -1          1          0      )       ( -0.2500000 )
                  (     0          1         -1      )       ( -0.2500000 )

 cart.    s(10) = (  0.5000000 -0.8660254  0.0000000 )    f =( -0.5000000 )
                  (  0.8660254  0.5000000  0.0000000 )       ( -0.2886751 )
                  (  0.0000000  0.0000000 -1.0000000 )       ( -0.2041241 )

[...]

 cryst.   s(11) = (     0          1          0      )
                  (     1          0          0      )
                  (     0          0          1      )

 cart.    s(11) = (  0.5000000  0.8660254  0.0000000 )
                  (  0.8660254 -0.5000000  0.0000000 )
                  (  0.0000000  0.0000000  1.0000000 )

      isym = 12     inv. 180 deg rotation - cryst. axis [1,1,0]

 cryst.   s(12) = (     1         -1          0      )
                  (     0         -1          0      )
                  (     0         -1          1      )

 cart.    s(12) = (  0.5000000 -0.8660254  0.0000000 )
                  ( -0.8660254 -0.5000000 -0.0000000 )
                  (  0.0000000  0.0000000  1.0000000 )

   Cartesian axes

     site n.     atom                  positions (alat units)
         1           Ni  tau(   1) = (   1.0000000   0.5773503   0.4082483  )
         2           Ni  tau(   2) = (   0.5000000   0.2886751   0.5103104  )
         3           Ni  tau(   3) = (   0.2500000   0.1443376   0.1020621  )
         4           Ni  tau(   4) = (   0.5000000   0.5773503   0.1020621  )
         5           Ni  tau(   5) = (   1.5000000   0.8660254   0.6123724  )
         6           Ni  tau(   6) = (   0.7500000   0.1443376   0.1020621  )
         7           Se  tau(   7) = (   1.7680280   1.0207714   0.7217944  )
         8           Se  tau(   8) = (   1.5000005   0.8660257   0.2841073  )
         9           Se  tau(   9) = (   0.7319720   0.4226042   0.2988263  )
        10           Se  tau(  10) = (   0.9999995   0.5773500   0.7365134  )
        11           Se  tau(  11) = (   1.5000005   0.5565342   0.7217944  )
        12           Se  tau(  12) = (   0.9999995   0.8868415   0.2988263  )
        13           Se  tau(  13) = (   1.2680270   0.4226042   0.2988263  )
        14           Se  tau(  14) = (   1.2319730   1.0207714   0.7217944  )

   Crystallographic axes

     site n.     atom                  positions (cryst. coord.)
         1           Ni  tau(   1) = (  0.5000000  0.5000000  0.5000000  )
         2           Ni  tau(   2) = (  0.1250000  0.1250000  0.6250000  )
         3           Ni  tau(   3) = (  0.1250000  0.1250000  0.1250000  )
         4           Ni  tau(   4) = (  0.1250000  0.6250000  0.1250000  )
         5           Ni  tau(   5) = (  0.7500000  0.7500000  0.7500000  )
         6           Ni  tau(   6) = (  0.6250000  0.1250000  0.1250000  )
         7           Se  tau(   7) = (  0.8840140  0.8840140  0.8840140  )
         8           Se  tau(   8) = (  0.8840140  0.8840140  0.3479590  )
         9           Se  tau(   9) = (  0.3659860  0.3659860  0.3659860  )
        10           Se  tau(  10) = (  0.3659860  0.3659860  0.9020410  )
        11           Se  tau(  11) = (  0.8840140  0.3479590  0.8840140  )
        12           Se  tau(  12) = (  0.3659860  0.9020410  0.3659860  )
        13           Se  tau(  13) = (  0.9020410  0.3659860  0.3659860  )
        14           Se  tau(  14) = (  0.3479590  0.8840140  0.8840140  )

     number of k points=     1  Methfessel-Paxton smearing, width (Ry)=  0.0010
                       cart. coord. in units 2pi/alat
        k(    1) = (   0.0000000   0.0000000   0.0000000), wk =   2.0000000

                       cryst. coord.
        k(    1) = (   0.0000000   0.0000000   0.0000000), wk =   2.0000000

     Check: negative core charge=   -0.000003

     Initial potential from superposition of free atoms

     starting charge     143.9994, renormalised to     156.0000
     Starting wfcs are  110 randomized atomic wfcs

     Self-consistent Calculation

     iteration #  1     ecut=    30.00 Ry     beta= 0.70
     Davidson diagonalization with overlap

     ethr =  1.00E-02,  avg # of iterations =  5.0

     total energy              =   -2186.92677717 Ry
     estimated scf accuracy    <     308.54174518 Ry

[...]

     total energy              =   -2407.43743117 Ry
     estimated scf accuracy    <       0.00000158 Ry

     iteration # 73     ecut=    30.00 Ry     beta= 0.70
     Davidson diagonalization with overlap

     ethr =  7.91E-10,  avg # of iterations =  2.0

     End of self-consistent calculation

          k = 0.0000 0.0000 0.0000 (  2323 PWs)   bands (ev):

   -94.3940 -94.3940 -94.3936 -94.3910 -92.8565 -92.8554 -54.7673 -54.7672
   -54.7669 -54.7626 -54.6917 -54.6916 -54.6915 -54.6906 -54.6906 -54.6788
   -54.6786 -54.6786 -53.2234 -53.2234 -53.2234 -53.2206 -53.2206 -53.2206
    -5.2926  -3.7086  -3.3938  -3.3938  -3.3938  -3.0962  -3.0962  -3.0962
     2.7590   3.2904   3.2904   3.2904   3.6624   4.2946   4.2946   5.7909
     5.7909   6.0824   6.0824   6.0824   6.1866   6.1867   6.1867   6.6215
     6.6215   6.6215   7.2032   7.2032   7.4253   7.5422   7.5422   7.5424
     7.6008   7.6008   7.6008   7.7115   7.7116   7.7117   7.8794   7.8795
     7.8795   8.2566   8.2566   8.2566   8.5343   8.5343   8.5865   8.5865
     8.5865   8.9574   8.9574  10.7870  10.7870  10.7870  11.0644  11.0644
    11.0644  11.2193  11.2193  11.2193  11.4128  11.4128  13.2717  13.2717
    13.2718  13.9887  14.1806  14.9997  14.9997  14.9997

     occupation numbers
     1.0000   1.0000   1.0000   1.0000   1.0000   1.0000   1.0000   1.0000
     1.0000   1.0000   1.0000   1.0000   1.0000   1.0000   1.0000   1.0000
     1.0000   1.0000   1.0000   1.0000   1.0000   1.0000   1.0000   1.0000
     1.0000   1.0000   1.0000   1.0000   1.0000   1.0000   1.0000   1.0000
     1.0000   1.0000   1.0000   1.0000   1.0000   1.0000   1.0000   1.0000
     1.0000   1.0000   1.0000   1.0000   1.0000   1.0000   1.0000   1.0000
     1.0000   1.0000   1.0000   1.0000   1.0000   1.0000   1.0000   1.0000
     1.0000   1.0000   1.0000   1.0000   1.0000   1.0000   1.0000   1.0000
     1.0000   1.0000   1.0000   1.0000   1.0000   1.0000   1.0000   1.0000
     1.0000   1.0000   1.0000   1.0000   1.0000   1.0000  -0.0000  -0.0000
    -0.0000  -0.0000  -0.0000  -0.0000  -0.0000  -0.0000  -0.0000  -0.0000
    -0.0000  -0.0000  -0.0000  -0.0000  -0.0000  -0.0000

     the Fermi energy is    10.8534 ev

!    total energy              =   -2407.43743102 Ry
     estimated scf accuracy    <       0.00000028 Ry
     smearing contrib. (-TS)   =       0.00000000 Ry
     internal energy E=F+TS    =   -2407.43743102 Ry

     The total energy is F=E-TS. E is the sum of the following terms:
     one-electron contribution =   -1813.62292541 Ry
     hartree contribution      =     974.39694671 Ry
     xc contribution           =    -451.22233373 Ry
     ewald contribution        =   -1116.98911860 Ry

     convergence has been achieved in  73 iterations

     Forces acting on atoms (cartesian axes, Ry/au):

     atom    1 type  1   force =     0.00000000    0.00000000   -0.00001369
     atom    2 type  1   force =     0.00000000    0.00000000   -0.00000000
     atom    3 type  1   force =     0.00000000    0.00000000   -0.00000000
     atom    4 type  1   force =     0.00000000    0.00000000    0.00000000
     atom    5 type  1   force =     0.00000000    0.00000000    0.00001369
     atom    6 type  1   force =     0.00000000    0.00000000    0.00000000
     atom    7 type  2   force =     0.01164727    0.00672456    0.00475568
     atom    8 type  2   force =     0.00000000    0.00000000   -0.01426783
     atom    9 type  2   force =    -0.01164727   -0.00672456   -0.00475568
     atom   10 type  2   force =     0.00000000    0.00000000    0.01426783
     atom   11 type  2   force =     0.00000000   -0.01344911    0.00475568
     atom   12 type  2   force =     0.00000000    0.01344911   -0.00475568
     atom   13 type  2   force =     0.01164727   -0.00672456   -0.00475568
     atom   14 type  2   force =    -0.01164727    0.00672456    0.00475568
     The non-local contrib.  to forces
     atom    1 type  1   force =     0.00000000   -0.00000000   -0.00001610
     atom    2 type  1   force =     0.00000000    0.00000000   -0.00000000
     atom    3 type  1   force =     0.00000000   -0.00000000    0.00000000
     atom    4 type  1   force =     0.00000000   -0.00000000   -0.00000000
     atom    5 type  1   force =     0.00000000   -0.00000000    0.00001610
     atom    6 type  1   force =    -0.00000000    0.00000000    0.00000000
     atom    7 type  2   force =     0.04351812    0.02512520    0.01776428
     atom    8 type  2   force =    -0.00000000   -0.00000000   -0.05329659
     atom    9 type  2   force =    -0.04351812   -0.02512520   -0.01776428
     atom   10 type  2   force =     0.00000000    0.00000000    0.05329659
     atom   11 type  2   force =     0.00000000   -0.05025040    0.01776428
     atom   12 type  2   force =     0.00000000    0.05025040   -0.01776428
     atom   13 type  2   force =     0.04351812   -0.02512520   -0.01776428
     atom   14 type  2   force =    -0.04351812    0.02512520    0.01776428
     The ionic contribution  to forces
     atom    1 type  1   force =     0.00000000   -0.00000000    0.00000000
     atom    2 type  1   force =    -0.00000000    0.00000000   -0.00000000
     atom    3 type  1   force =     0.00000000    0.00000000   -0.00000000
     atom    4 type  1   force =    -0.00000000   -0.00000000   -0.00000000
     atom    5 type  1   force =    -0.00000000    0.00000000    0.00000000
     atom    6 type  1   force =    -0.00000000    0.00000000   -0.00000000
     atom    7 type  2   force =    -4.05792107   -2.34284182   -1.65663934
     atom    8 type  2   force =    -0.00002783   -0.00001607    4.96985651
     atom    9 type  2   force =     4.05792107    2.34284182    1.65663934
     atom   10 type  2   force =     0.00002783    0.00001607   -4.96985651
     atom   11 type  2   force =    -0.00002783    4.68562030   -1.65663398
     atom   12 type  2   force =     0.00002783   -4.68562030    1.65663399
     atom   13 type  2   force =    -4.05785230    2.34283425    1.65663399
     atom   14 type  2   force =     4.05785230   -2.34283425   -1.65663399
     The local contribution  to forces
     atom    1 type  1   force =    -0.00017605    0.00046295   -0.00029017
     atom    2 type  1   force =     0.00026248   -0.00078934    0.00027541
     atom    3 type  1   force =    -0.00018189   -0.00106598    0.00031290
     atom    4 type  1   force =     0.00026854    0.00104628   -0.00016041
     atom    5 type  1   force =    -0.00016035    0.00056410   -0.00034185
     atom    6 type  1   force =     0.00016838   -0.00073741    0.00053441
     atom    7 type  2   force =     4.03102858    2.32737644    1.64562160
     atom    8 type  2   force =     0.00004115    0.00008349   -4.93694181
     atom    9 type  2   force =    -4.03105637   -2.32744437   -1.64561179
     atom   10 type  2   force =    -0.00002610   -0.00012915    4.93697239
     atom   11 type  2   force =     0.00004027   -4.65461849    1.64566184
     atom   12 type  2   force =    -0.00002840    4.65470316   -1.64568280
     atom   13 type  2   force =     4.03098572   -2.32743412   -1.64560272
     atom   14 type  2   force =    -4.03096382    2.32738515    1.64562903
     The core correction contribution to forces
     atom    1 type  1   force =    -0.00000050    0.00000085   -0.00000055
     atom    2 type  1   force =     0.00000038   -0.00000111    0.00000009
     atom    3 type  1   force =    -0.00000017   -0.00000136    0.00000041
     atom    4 type  1   force =     0.00000039    0.00000165   -0.00000032
     atom    5 type  1   force =    -0.00000044    0.00000185   -0.00000107
     atom    6 type  1   force =     0.00000002   -0.00000090    0.00000080
     atom    7 type  2   force =    -0.00508661   -0.00293857   -0.00207587
     atom    8 type  2   force =     0.00000089   -0.00000135    0.00622753
     atom    9 type  2   force =     0.00509746    0.00294083    0.00208197
     atom   10 type  2   force =     0.00000015   -0.00000224   -0.00624528
     atom   11 type  2   force =     0.00000098    0.00587960   -0.00207810
     atom   12 type  2   force =     0.00000008   -0.00588045    0.00207930
     atom   13 type  2   force =    -0.00509951    0.00294213    0.00208294
     atom   14 type  2   force =     0.00508502   -0.00293675   -0.00207462
     The Hubbard contrib.    to forces
     atom    1 type  1   force =     0.00000000    0.00000000    0.00000000
     atom    2 type  1   force =     0.00000000    0.00000000    0.00000000
     atom    3 type  1   force =     0.00000000    0.00000000    0.00000000
     atom    4 type  1   force =     0.00000000    0.00000000    0.00000000
     atom    5 type  1   force =     0.00000000    0.00000000    0.00000000
     atom    6 type  1   force =     0.00000000    0.00000000    0.00000000
     atom    7 type  2   force =     0.00000000    0.00000000    0.00000000
     atom    8 type  2   force =     0.00000000    0.00000000    0.00000000
     atom    9 type  2   force =     0.00000000    0.00000000    0.00000000
     atom   10 type  2   force =     0.00000000    0.00000000    0.00000000
     atom   11 type  2   force =     0.00000000    0.00000000    0.00000000
     atom   12 type  2   force =     0.00000000    0.00000000    0.00000000
     atom   13 type  2   force =     0.00000000    0.00000000    0.00000000
     atom   14 type  2   force =     0.00000000    0.00000000    0.00000000
     The SCF correction term to forces
     atom    1 type  1   force =     0.00016486   -0.00044445    0.00027685
     atom    2 type  1   force =    -0.00025072    0.00075558   -0.00022892
     atom    3 type  1   force =     0.00014730    0.00100671   -0.00031160
     atom    4 type  1   force =    -0.00026026   -0.00097279    0.00014248
     atom    5 type  1   force =     0.00015283   -0.00053119    0.00032423
     atom    6 type  1   force =    -0.00013367    0.00069082   -0.00052721
     atom    7 type  2   force =     0.00015132    0.00001580    0.00010618
     atom    8 type  2   force =    -0.00000960   -0.00007635   -0.00018338
     atom    9 type  2   force =    -0.00005176    0.00007790   -0.00008005
     atom   10 type  2   force =    -0.00000131    0.00010749    0.00003073
     atom   11 type  2   force =    -0.00000894   -0.00008240    0.00004363
     atom   12 type  2   force =    -0.00000030   -0.00001210   -0.00001673
     atom   13 type  2   force =     0.00004126    0.00008245   -0.00007776
     atom   14 type  2   force =    -0.00016099    0.00001094    0.00010170

     Total force =     0.040350     Total SCF correction =     0.002121

     Computing stress (Cartesian axis) and pressure

          total   stress  (Ry/bohr**3)                   (kbar)     P=     -541.98
  -0.00368427   0.00000000   0.00000000         -541.98        0.00        0.00
   0.00000000  -0.00368427  -0.00000000            0.00     -541.98       -0.00
   0.00000000  -0.00000000  -0.00368430            0.00       -0.00     -541.98

     kinetic stress (kbar)  19615.38      0.00      0.00
                                0.00  19615.38     -0.00
                                0.00     -0.00  19615.38

     local   stress (kbar) -19574.28      0.01      0.00
                                0.01 -19574.20     -0.03
                                0.00     -0.03 -19574.29

     nonloc. stress (kbar)  10936.25      0.00      0.00
                                0.00  10936.25      0.00
                                0.00      0.00  10936.25

     hartree stress (kbar)  28393.62      0.00      0.00
                                0.00  28393.54      0.03
                                0.00      0.03  28393.63

     exc-cor stress (kbar)  11137.50     -0.00     -0.00
                               -0.00  11137.50     -0.00
                               -0.00     -0.00  11137.50

     corecor stress (kbar) -18501.76      0.00      0.00
                                0.00 -18501.76      0.00
                                0.00      0.00 -18501.76

     ewald   stress (kbar) -32548.69     -0.01     -0.01
                               -0.01 -32548.68     -0.00
                               -0.01     -0.00 -32548.68

     hubbard stress (kbar)      0.00      0.00      0.00
                                0.00      0.00      0.00
                                0.00      0.00      0.00

     DFT-D   stress (kbar)      0.00      0.00      0.00
                                0.00      0.00      0.00
                                0.00      0.00      0.00

     XDM     stress (kbar)      0.00      0.00      0.00
                                0.00      0.00      0.00
                                0.00      0.00      0.00

     dft-nl  stress (kbar)      0.00      0.00      0.00
                                0.00      0.00      0.00
                                0.00      0.00      0.00

     TS-vdW  stress (kbar)      0.00      0.00      0.00
                                0.00      0.00      0.00
                                0.00      0.00      0.00

[...]

                                0.00      0.00      0.00

     Writing all to output data dir new_calculations/myprefix.save/

     General routines

     Parallel routines

   This run was terminated on:  21:12:42  21May2023

   JOB DONE.