     Program PWSCF v.7.0 starts on 21May2023 at  5:26:50

     Reading input from espresso_22513.pwi
Warning: card &CELL ignored
Warning: card / ignored

     Current dimensions of program PWSCF are:
     Max number of different atomic species (ntypx) = 10
     Max number of k-points (npk) =  40000
     Max angular momentum in pseudopotentials (lmaxx) =  4
     file Ga.pbe-dn-kjpaw_psl.1.0.0.UPF: wavefunction(s)  4S renormalized

     gamma-point specific algorithms are used
     Message from routine setup:
     using ibrav=0 with symmetry is DISCOURAGED, use correct ibrav instead

     Subspace diagonalization in iterative solution of the eigenvalue problem:
     a serial algorithm will be used

     Using Slab Decomposition

     bravais-lattice index     =            0
     lattice parameter (alat)  =       7.6637  a.u.
     unit-cell volume          =    1415.1671 (a.u.)^3
     number of atoms/cell      =            8
     number of atomic types    =            3
     number of electrons       =        69.00
     number of Kohn-Sham states=           42
     kinetic-energy cutoff     =      30.0000  Ry
     charge density cutoff     =     240.0000  Ry
     scf convergence threshold =      1.0E-06
     mixing beta               =       0.7000
     number of iterations used =            8  plain     mixing
     Exchange-correlation= PBE
                           (   1   4   3   4   0   0   0)

     celldm(1)=   7.663684  celldm(2)=   0.000000  celldm(3)=   0.000000
     celldm(4)=   0.000000  celldm(5)=   0.000000  celldm(6)=   0.000000

     crystal axes: (cart. coord. in units of alat)
               a(1) = (   1.000000   0.000000   0.000000 )
               a(2) = (   0.000000   1.117473   0.000000 )
               a(3) = (   0.000000   0.000000   2.813571 )

     reciprocal axes: (cart. coord. in units 2 pi/alat)
               b(1) = (  1.000000  0.000000  0.000000 )
               b(2) = (  0.000000  0.894876  0.000000 )
               b(3) = (  0.000000  0.000000  0.355420 )

     PseudoPot. # 1 for La read from file:
     /home/pragov/projects/rrg-bengioy-ad/pragov/crystal_structure_design/SSSP/La.GGA-PBE-paw-v1.0.UPF
     MD5 check sum: 436541e95c1ad8901025bd0b0ed42ae2
     Pseudo is Projector augmented-wave + core cor, Zval = 11.0
     Generated using ATOMPAW code
     Shape of augmentation charge: BESSEL
     Using radial grid of 1101 points,  8 beta functions with:
                l(1) =   0
                l(2) =   0
                l(3) =   1
                l(4) =   1
                l(5) =   2
                l(6) =   2
                l(7) =   3
                l(8) =   3
     Q(r) pseudized with 0 coefficients

     PseudoPot. # 2 for Ga read from file:
     /home/pragov/projects/rrg-bengioy-ad/pragov/crystal_structure_design/SSSP/Ga.pbe-dn-kjpaw_psl.1.0.0.UPF
     MD5 check sum: a27b4342b1af7e5f338de752e9ed7044
     Pseudo is Projector augmented-wave + core cor, Zval = 13.0
     Generated using "atomic" code by A. Dal Corso  v.5.1
     Shape of augmentation charge: PSQ
     Using radial grid of 1205 points,  6 beta functions with:
                l(1) =   0
                l(2) =   0
                l(3) =   1
                l(4) =   1
                l(5) =   2
                l(6) =   2
     Q(r) pseudized with 0 coefficients

     PseudoPot. # 3 for Si read from file:
     /home/pragov/projects/rrg-bengioy-ad/pragov/crystal_structure_design/SSSP/Si.pbe-n-rrkjus_psl.1.0.0.UPF
     MD5 check sum: 0b0bb1205258b0d07b9f9672cf965d36
     Pseudo is Ultrasoft + core correction, Zval =  4.0
     Generated using "atomic" code by A. Dal Corso  v.5.1
     Using radial grid of 1141 points,  6 beta functions with:
                l(1) =   0
                l(2) =   0
                l(3) =   1
                l(4) =   1
                l(5) =   2
                l(6) =   2
     Q(r) pseudized with 0 coefficients

     atomic species   valence    mass     pseudopotential
        La            11.00   138.90547     La( 1.00)
        Ga            13.00    69.72300     Ga( 1.00)
        Si             4.00    28.08500     Si( 1.00)

      4 Sym. Ops. (no inversion) found

                                    s                        frac. trans.

      isym =  1     identity

 cryst.   s( 1) = (     1          0          0      )
                  (     0          1          0      )
                  (     0          0          1      )

 cart.    s( 1) = (  1.0000000  0.0000000  0.0000000 )
                  (  0.0000000  1.0000000  0.0000000 )
                  (  0.0000000  0.0000000  1.0000000 )

      isym =  2     180 deg rotation - cart. axis [0,0,1]

[...]

      isym =  3     inv. 180 deg rotation - cart. axis [0,1,0]

[...]

      isym =  4     inv. 180 deg rotation - cart. axis [1,0,0]

 cryst.   s( 4) = (    -1          0          0      )
                  (     0          1          0      )
                  (     0          0          1      )

 cart.    s( 4) = ( -1.0000000  0.0000000  0.0000000 )
                  (  0.0000000  1.0000000  0.0000000 )
                  (  0.0000000  0.0000000  1.0000000 )

   Cartesian axes

     site n.     atom                  positions (alat units)
         1           La  tau(   1) = (   0.0000000   0.0000000   1.0179780  )
         2           La  tau(   2) = (   0.0000000   0.5587366   2.4093929  )
         3           La  tau(   3) = (   0.5000000   0.5587366   0.4038009  )
         4           La  tau(   4) = (   0.5000000   0.0000000   1.7989071  )
         5           Ga  tau(   5) = (   0.0000000   0.0000000   0.1899948  )
         6           Si  tau(   6) = (   0.0000000   0.5587366   1.5976805  )
         7           Si  tau(   7) = (   0.5000000   0.5587366   1.2203751  )
         8           Si  tau(   8) = (   0.5000000   0.0000000   2.6161509  )

   Crystallographic axes

     site n.     atom                  positions (cryst. coord.)
         1           La  tau(   1) = (  0.0000000  0.0000000  0.3618100  )
         2           La  tau(   2) = (  0.0000000  0.5000000  0.8563470  )
         3           La  tau(   3) = (  0.5000000  0.5000000  0.1435190  )
         4           La  tau(   4) = (  0.5000000  0.0000000  0.6393680  )
         5           Ga  tau(   5) = (  0.0000000  0.0000000  0.0675280  )
         6           Si  tau(   6) = (  0.0000000  0.5000000  0.5678480  )
         7           Si  tau(   7) = (  0.5000000  0.5000000  0.4337460  )
         8           Si  tau(   8) = (  0.5000000  0.0000000  0.9298330  )

     number of k points=     1  Methfessel-Paxton smearing, width (Ry)=  0.0010
                       cart. coord. in units 2pi/alat
        k(    1) = (   0.0000000   0.0000000   0.0000000), wk =   2.0000000

                       cryst. coord.
        k(    1) = (   0.0000000   0.0000000   0.0000000), wk =   2.0000000

     Initial potential from superposition of free atoms

     starting charge      68.9613, renormalised to      69.0000
     Starting wfcs are  149 randomized atomic wfcs
     Checking if some PAW data can be deallocated...

     Self-consistent Calculation

     iteration #  1     ecut=    30.00 Ry     beta= 0.70
     Davidson diagonalization with overlap

     ethr =  1.00E-02,  avg # of iterations =  2.0

     Threshold (ethr) on eigenvalues was too large:
     Diagonalizing with lowered threshold

     Davidson diagonalization with overlap

[...]

     total energy              =   -2144.91959904 Ry
     estimated scf accuracy    <       0.35820499 Ry

[...]

     c_bands:  1 eigenvalues not converged
     ethr =  1.98E-05,  avg # of iterations = 20.0

[...]

     total energy              =   -2145.08933756 Ry
     estimated scf accuracy    <       0.00000600 Ry

     iteration # 59     ecut=    30.00 Ry     beta= 0.70
     Davidson diagonalization with overlap

     ethr =  1.65E-09,  avg # of iterations =  2.0

     End of self-consistent calculation

          k = 0.0000 0.0000 0.0000 (  1964 PWs)   bands (ev):

   -21.7941 -21.6473 -21.6122 -21.5432  -6.0126  -5.7433  -5.6149  -5.5506
    -5.4681  -5.3877  -5.3037  -5.2164  -5.1917  -5.1742  -5.1328  -4.9784
    -4.1894  -4.1604  -4.1376  -4.1006  -4.0926   1.4573   2.1005   4.7548
     5.2637   8.6329   8.8037   9.0193   9.0348   9.2651   9.5303   9.8549
     9.8744  10.2016  11.3940  11.4087  11.7365  12.1474  12.1485  12.3592
    12.4194  12.4866

     occupation numbers
     1.0000   1.0000   1.0000   1.0000   1.0000   1.0000   1.0000   1.0000
     1.0000   1.0000   1.0000   1.0000   1.0000   1.0000   1.0000   1.0000
     1.0000   1.0000   1.0000   1.0000   1.0000   1.0000   1.0000   1.0000
     1.0000   1.0000   1.0000   1.0000   1.0000   1.0000   1.0000   1.0000
     1.0000   1.0000   0.5291  -0.0291  -0.0000  -0.0000  -0.0000  -0.0000
    -0.0000  -0.0000

     the Fermi energy is    11.3945 ev

!    total energy              =   -2145.08933707 Ry
     estimated scf accuracy    <       0.00000076 Ry
     smearing contrib. (-TS)   =      -0.00016912 Ry
     internal energy E=F+TS    =   -2145.08916795 Ry

     The total energy is F=E-TS. E is the sum of the following terms:
     one-electron contribution =    -146.57318008 Ry
     hartree contribution      =     118.03248717 Ry
     xc contribution           =     -91.60964217 Ry
     ewald contribution        =    -321.67327908 Ry
     one-center paw contrib.   =   -1703.26555379 Ry
      -> PAW hartree energy AE =     283.24368014 Ry
      -> PAW hartree energy PS =    -281.12107731 Ry
      -> PAW xc energy AE      =   -1772.52471827 Ry
      -> PAW xc energy PS      =      67.13656165 Ry
      -> total E_H with PAW    =     120.15509000 Ry
      -> total E_XC with PAW   =   -1796.99779879 Ry

     convergence has been achieved in  59 iterations

     Forces acting on atoms (cartesian axes, Ry/au):

     atom    1 type  1   force =     0.00000000    0.00000000    0.03507722
     atom    2 type  1   force =     0.00000000    0.00000000   -0.01003975
     atom    3 type  1   force =     0.00000000    0.00000000   -0.00816069
     atom    4 type  1   force =     0.00000000    0.00000000   -0.03773026
     atom    5 type  2   force =     0.00000000    0.00000000   -0.11100939
     atom    6 type  3   force =     0.00000000    0.00000000   -0.14649575
     atom    7 type  3   force =     0.00000000    0.00000000    0.14834301
     atom    8 type  3   force =     0.00000000    0.00000000    0.13001561
     The non-local contrib.  to forces
     atom    1 type  1   force =     0.00000000    0.00000000    0.10361281
     atom    2 type  1   force =     0.00000000    0.00000000    0.18758154
     atom    3 type  1   force =     0.00000000    0.00000000   -0.14756335
     atom    4 type  1   force =     0.00000000    0.00000000   -0.10245768
     atom    5 type  2   force =     0.00000000    0.00000000    0.46890369
     atom    6 type  3   force =     0.00000000    0.00000000    0.03618203
     atom    7 type  3   force =     0.00000000    0.00000000   -0.03454272
     atom    8 type  3   force =     0.00000000    0.00000000   -0.03517501
     The ionic contribution  to forces
     atom    1 type  1   force =    -0.00000000    0.00000000    6.59208289
     atom    2 type  1   force =    -0.00000000   -0.00000000  -10.67547710
     atom    3 type  1   force =    -0.00000000   -0.00000000    7.12924617
     atom    4 type  1   force =     0.00000000    0.00000000   -1.13030459
     atom    5 type  2   force =     0.00000000    0.00000000    1.15263242
     atom    6 type  3   force =    -0.00000000    0.00000000    0.44198171
     atom    7 type  3   force =    -0.00000000   -0.00000000    1.23068171
     atom    8 type  3   force =    -0.00000000    0.00000000   -4.74084321
     The local contribution  to forces
     atom    1 type  1   force =    -0.00004657   -0.00008555   -6.65929485
     atom    2 type  1   force =    -0.00000752   -0.00009014   10.47643682
     atom    3 type  1   force =     0.00000617    0.00009867   -6.98832561
     atom    4 type  1   force =     0.00000687    0.00006767    1.19362137
     atom    5 type  2   force =    -0.00004260   -0.00008008   -1.72909414
     atom    6 type  3   force =    -0.00000519   -0.00001622   -0.62024768
     atom    7 type  3   force =     0.00000858    0.00002591   -1.05217009
     atom    8 type  3   force =     0.00000298   -0.00001340    4.90107184
     The core correction contribution to forces
     atom    1 type  1   force =    -0.00000003   -0.00000005   -0.00014250
     atom    2 type  1   force =    -0.00000000   -0.00000006   -0.00019609
     atom    3 type  1   force =    -0.00000000    0.00000006    0.00015990
     atom    4 type  1   force =     0.00000000    0.00000005    0.00013438
     atom    5 type  2   force =    -0.00000093   -0.00000106   -0.00294028
     atom    6 type  3   force =    -0.00000078   -0.00000082   -0.00465378
     atom    7 type  3   force =     0.00000104    0.00000042    0.00448642
     atom    8 type  3   force =     0.00000025   -0.00000029    0.00466439
     The Hubbard contrib.    to forces
     atom    1 type  1   force =     0.00000000    0.00000000    0.00000000
     atom    2 type  1   force =     0.00000000    0.00000000    0.00000000
     atom    3 type  1   force =     0.00000000    0.00000000    0.00000000
     atom    4 type  1   force =     0.00000000    0.00000000    0.00000000
     atom    5 type  2   force =     0.00000000    0.00000000    0.00000000
     atom    6 type  3   force =     0.00000000    0.00000000    0.00000000
     atom    7 type  3   force =     0.00000000    0.00000000    0.00000000
     atom    8 type  3   force =     0.00000000    0.00000000    0.00000000
     The SCF correction term to forces
     atom    1 type  1   force =     0.00001957    0.00004394   -0.00120528
     atom    2 type  1   force =     0.00000219    0.00001858    0.00159093
     atom    3 type  1   force =    -0.00003734   -0.00004673   -0.00170195
     atom    4 type  1   force =    -0.00001474   -0.00002062    0.00125211
     atom    5 type  2   force =     0.00008283    0.00013053   -0.00053523
     atom    6 type  3   force =     0.00000233    0.00000102    0.00021781
     atom    7 type  3   force =    -0.00000451   -0.00001181   -0.00013647
     atom    8 type  3   force =    -0.00000279    0.00000820    0.00027345

     Total force =     0.274800     Total SCF correction =     0.002984

     Computing stress (Cartesian axis) and pressure

          total   stress  (Ry/bohr**3)                   (kbar)     P=      -11.61
   0.00062513   0.00000000   0.00000000           91.96        0.00        0.00
   0.00000000  -0.00019830   0.00000000            0.00      -29.17        0.00
   0.00000000   0.00000000  -0.00066356            0.00        0.00      -97.61

     kinetic stress (kbar)   6902.67      0.00      0.00
                                0.00   6690.45      0.00
                                0.00      0.00   6481.31

     local   stress (kbar)  -5376.47      0.00      0.00
                                0.00  -5285.32      0.01
                                0.00      0.01   2442.02

     nonloc. stress (kbar)   5296.74      0.00      0.00
                                0.00   5336.60      0.00
                                0.00      0.00   5318.74

     hartree stress (kbar)   5358.21      0.00     -0.00
                                0.00   5316.36     -0.00
                               -0.00     -0.00   1594.78

     exc-cor stress (kbar)    441.01     -0.00     -0.00
                               -0.00    438.91      0.00
                               -0.00      0.00    436.93

     corecor stress (kbar)  -2665.12      0.00      0.00
                                0.00  -2663.17     -0.00
                                0.00     -0.00  -2661.90

     ewald   stress (kbar)  -9865.08      0.00     -0.00
                                0.00  -9863.00      0.00
                               -0.00      0.00 -13709.50

     hubbard stress (kbar)      0.00      0.00      0.00
                                0.00      0.00      0.00
                                0.00      0.00      0.00

     DFT-D   stress (kbar)      0.00      0.00      0.00
                                0.00      0.00      0.00
                                0.00      0.00      0.00

     XDM     stress (kbar)      0.00      0.00      0.00
                                0.00      0.00      0.00
                                0.00      0.00      0.00

     dft-nl  stress (kbar)      0.00      0.00      0.00
                                0.00      0.00      0.00
                                0.00      0.00      0.00

     TS-vdW  stress (kbar)      0.00      0.00      0.00
                                0.00      0.00      0.00
                                0.00      0.00      0.00

[...]

                                0.00      0.00      0.00

     Writing all to output data dir new_calculations/myprefix.save/

     General routines

     Parallel routines

     PAW routines

   This run was terminated on:   5:28:50  21May2023

   JOB DONE.