     Program PWSCF v.7.0 starts on 21May2023 at  3: 6:29

     Reading input from espresso_15453.pwi
Warning: card &CELL ignored
Warning: card / ignored

     Current dimensions of program PWSCF are:
     Max number of different atomic species (ntypx) = 10
     Max number of k-points (npk) =  40000
     Max angular momentum in pseudopotentials (lmaxx) =  4

     gamma-point specific algorithms are used
     Message from routine setup:
     using ibrav=0 with symmetry is DISCOURAGED, use correct ibrav instead

     Subspace diagonalization in iterative solution of the eigenvalue problem:
     a serial algorithm will be used

     Using Slab Decomposition

     bravais-lattice index     =            0
     lattice parameter (alat)  =       8.6857  a.u.
     unit-cell volume          =     888.3040 (a.u.)^3
     number of atoms/cell      =            6
     number of atomic types    =            3
     number of electrons       =        88.00
     number of Kohn-Sham states=           53
     kinetic-energy cutoff     =      30.0000  Ry
     charge density cutoff     =     240.0000  Ry
     scf convergence threshold =      1.0E-06
     mixing beta               =       0.7000
     number of iterations used =            8  plain     mixing
     Exchange-correlation= PBE
                           (   1   4   3   4   0   0   0)

     celldm(1)=   8.685723  celldm(2)=   0.000000  celldm(3)=   0.000000
     celldm(4)=   0.000000  celldm(5)=   0.000000  celldm(6)=   0.000000

     crystal axes: (cart. coord. in units of alat)
               a(1) = (   1.000000   0.000000   0.000000 )
               a(2) = (  -0.500000   0.866025   0.000000 )
               a(3) = (   0.000000   0.000000   1.565356 )

     reciprocal axes: (cart. coord. in units 2 pi/alat)
               b(1) = (  1.000000  0.577350  0.000000 )
               b(2) = (  0.000000  1.154701  0.000000 )
               b(3) = (  0.000000  0.000000  0.638832 )

     PseudoPot. # 1 for Sc read from file:
     /home/pragov/projects/rrg-bengioy-ad/pragov/crystal_structure_design/SSSP/Sc_ONCV_PBE-1.0.oncvpsp.upf
     MD5 check sum: e21af8023abb52e52cb7cd3133e4a229
     Pseudo is Norm-conserving, Zval = 11.0
     Generated using ONCVPSP code by D. R. Hamann
     Using radial grid of 1662 points,  6 beta functions with:
                l(1) =   0
                l(2) =   0
                l(3) =   1
                l(4) =   1
                l(5) =   2
                l(6) =   2

     PseudoPot. # 2 for Sn read from file:
     /home/pragov/projects/rrg-bengioy-ad/pragov/crystal_structure_design/SSSP/Sn_pbe_v1.uspp.F.UPF
     MD5 check sum: 4cf58ce39ec5d5d420df3dd08604eb00
     Pseudo is Ultrasoft + core correction, Zval = 14.0
     Generated by new atomic code, or converted to UPF format
     Using radial grid of  891 points,  6 beta functions with:
                l(1) =   0
                l(2) =   0
                l(3) =   1
                l(4) =   1
                l(5) =   2
                l(6) =   2
     Q(r) pseudized with  6 coefficients,  rinner =    1.200   1.200   1.200
                                                       1.200   1.200

     PseudoPot. # 3 for Au read from file:
     /home/pragov/projects/rrg-bengioy-ad/pragov/crystal_structure_design/SSSP/Au_ONCV_PBE-1.0.oncvpsp.upf
     MD5 check sum: d14007822ba0e19f0206237467fc06c2
     Pseudo is Norm-conserving, Zval = 19.0
     Generated using ONCVPSP code by D. R. Hamann
     Using radial grid of 1278 points,  8 beta functions with:
                l(1) =   0
                l(2) =   0
                l(3) =   1
                l(4) =   1
                l(5) =   2
                l(6) =   2
                l(7) =   3
                l(8) =   3

     atomic species   valence    mass     pseudopotential
        Sc            11.00    44.95591     Sc( 1.00)
        Sn            14.00   118.71000     Sn( 1.00)
        Au            19.00   196.96657     Au( 1.00)

     12 Sym. Ops. (no inversion) found ( 6 have fractional translation)

                                    s                        frac. trans.

      isym =  1     identity

 cryst.   s( 1) = (     1          0          0      )
                  (     0          1          0      )
                  (     0          0          1      )

 cart.    s( 1) = (  1.0000000  0.0000000  0.0000000 )
                  (  0.0000000  1.0000000  0.0000000 )
                  (  0.0000000  0.0000000  1.0000000 )

      isym =  2     180 deg rotation - cart. axis [0,0,1]

 cryst.   s( 2) = (    -1          0          0      )    f =(  0.0000000 )
                  (     0         -1          0      )       (  0.0000000 )
                  (     0          0          1      )       (  0.5000000 )

 cart.    s( 2) = ( -1.0000000 -0.0000000  0.0000000 )    f =(  0.0000000 )
                  (  0.0000000 -1.0000000  0.0000000 )       (  0.0000000 )
                  (  0.0000000  0.0000000  1.0000000 )       (  0.7826780 )

      isym =  3      60 deg rotation - cryst. axis [0,0,1]

[...]

      isym =  6     120 deg rotation - cryst. axis [0,0,-1]

[...]

      isym =  7     inv. 180 deg rotation - cart. axis [0,1,0]

[...]

      isym =  8     inv. 180 deg rotation - cart. axis [1,0,0]

 cryst.   s( 8) = (    -1          0          0      )
                  (     1          1          0      )
                  (     0          0          1      )

 cart.    s( 8) = ( -1.0000000 -0.0000002  0.0000000 )
                  (  0.0000000  1.0000000  0.0000000 )
                  (  0.0000000  0.0000000  1.0000000 )

      isym =  9     inv. 180 deg rotation - cryst. axis [1,-1,0]

 cryst.   s( 9) = (     0          1          0      )    f =(  0.0000000 )
                  (     1          0          0      )       (  0.0000000 )
                  (     0          0          1      )       (  0.5000000 )

 cart.    s( 9) = ( -0.5000001  0.8660253  0.0000000 )    f =(  0.0000000 )
                  (  0.8660253  0.5000001  0.0000000 )       (  0.0000000 )
                  (  0.0000000  0.0000000  1.0000000 )       (  0.7826780 )

[...]

 cryst.   s(10) = (    -1         -1          0      )    f =(  0.0000000 )
                  (     0          1          0      )       (  0.0000000 )
                  (     0          0          1      )       (  0.5000000 )

 cart.    s(10) = ( -0.4999999 -0.8660256  0.0000000 )    f =(  0.0000000 )
                  ( -0.8660253  0.4999999  0.0000000 )       (  0.0000000 )
                  (  0.0000000  0.0000000  1.0000000 )       (  0.7826780 )

[...]

 cryst.   s(11) = (     1          1          0      )
                  (     0         -1          0      )
                  (     0          0          1      )

 cart.    s(11) = (  0.4999999  0.8660256  0.0000000 )
                  (  0.8660253 -0.4999999  0.0000000 )
                  (  0.0000000  0.0000000  1.0000000 )

      isym = 12     inv. 180 deg rotation - cryst. axis [1,1,0]

 cryst.   s(12) = (     0         -1          0      )
                  (    -1          0          0      )
                  (     0          0          1      )

 cart.    s(12) = (  0.5000001 -0.8660253  0.0000000 )
                  ( -0.8660253 -0.5000001  0.0000000 )
                  (  0.0000000  0.0000000  1.0000000 )

   Cartesian axes

     site n.     atom                  positions (alat units)
         1           Sc  tau(   1) = (   0.0000000   0.0000000   1.5155151  )
         2           Sc  tau(   2) = (   0.0000000   0.0000000   0.7328371  )
         3           Sn  tau(   3) = (   0.5000005   0.2886748   0.3118502  )
         4           Sn  tau(   4) = (  -0.0000006   0.5773505   1.0945283  )
         5           Au  tau(   5) = (   0.5000005   0.2886748   1.2640548  )
         6           Au  tau(   6) = (  -0.0000006   0.5773505   0.4813767  )

   Crystallographic axes

     site n.     atom                  positions (cryst. coord.)
         1           Sc  tau(   1) = (  0.0000000  0.0000000  0.9681600  )
         2           Sc  tau(   2) = (  0.0000000  0.0000000  0.4681600  )
         3           Sn  tau(   3) = (  0.6666670  0.3333330  0.1992200  )
         4           Sn  tau(   4) = (  0.3333330  0.6666670  0.6992200  )
         5           Au  tau(   5) = (  0.6666670  0.3333330  0.8075190  )
         6           Au  tau(   6) = (  0.3333330  0.6666670  0.3075190  )

     number of k points=     1  Methfessel-Paxton smearing, width (Ry)=  0.0010
                       cart. coord. in units 2pi/alat
        k(    1) = (   0.0000000   0.0000000   0.0000000), wk =   2.0000000

                       cryst. coord.
        k(    1) = (   0.0000000   0.0000000   0.0000000), wk =   2.0000000

     Check: negative core charge=   -0.000001

     Initial potential from superposition of free atoms

     starting charge      85.9944, renormalised to      88.0000
     Starting wfcs are   58 randomized atomic wfcs

     Self-consistent Calculation

     iteration #  1     ecut=    30.00 Ry     beta= 0.70
     Davidson diagonalization with overlap

     ethr =  1.00E-02,  avg # of iterations =  2.0

     total energy              =   -1056.40946679 Ry
     estimated scf accuracy    <       3.24523645 Ry

[...]

     total energy              =   -1058.51239915 Ry
     estimated scf accuracy    <       0.00002066 Ry

     iteration # 58     ecut=    30.00 Ry     beta= 0.70
     Davidson diagonalization with overlap

     ethr =  1.66E-08,  avg # of iterations =  1.0

     End of self-consistent calculation

          k = 0.0000 0.0000 0.0000 (  1215 PWs)   bands (ev):

   -94.1337 -94.1337 -45.1886 -45.1885 -45.1853 -45.1853 -45.0101 -45.0094
   -34.6401 -34.6337 -13.4062 -13.4062 -13.3958 -13.3958 -13.1706 -13.0751
    -8.3555  -8.3555  -8.3524  -8.3524  -8.3078  -8.3077  -8.2968  -8.2968
    -8.2920  -8.2907   3.3428   4.7790   7.6105   7.6106   7.6369   7.6369
     7.9614   8.2356   8.2964   8.2965   8.5058   8.5058   9.1729  12.7754
    12.7754  14.4675  14.7141  15.3061  15.3061  15.3356  15.3356  15.4486
    15.7409  15.7409  15.8547  17.3557  17.3557

     occupation numbers
     1.0000   1.0000   1.0000   1.0000   1.0000   1.0000   1.0000   1.0000
     1.0000   1.0000   1.0000   1.0000   1.0000   1.0000   1.0000   1.0000
     1.0000   1.0000   1.0000   1.0000   1.0000   1.0000   1.0000   1.0000
     1.0000   1.0000   1.0000   1.0000   1.0000   1.0000   1.0000   1.0000
     1.0000   1.0000   1.0000   1.0000   1.0000   1.0000   1.0000   1.0000
     1.0000   1.0000   1.0000   0.5054   0.5036  -0.0045  -0.0045  -0.0000
    -0.0000  -0.0000  -0.0000  -0.0000  -0.0000

     the Fermi energy is    15.3062 ev

!    total energy              =   -1058.51239969 Ry
     estimated scf accuracy    <       0.00000029 Ry
     smearing contrib. (-TS)   =      -0.00052078 Ry
     internal energy E=F+TS    =   -1058.51187890 Ry

     The total energy is F=E-TS. E is the sum of the following terms:
     one-electron contribution =    -435.22916754 Ry
     hartree contribution      =     254.65401029 Ry
     xc contribution           =    -169.95411667 Ry
     ewald contribution        =    -707.98260498 Ry

     convergence has been achieved in  58 iterations

     Forces acting on atoms (cartesian axes, Ry/au):

     atom    1 type  1   force =     0.00000000   -0.00000000   -0.03502705
     atom    2 type  1   force =    -0.00000000    0.00000000   -0.03502705
     atom    3 type  2   force =    -0.00000000   -0.00000000    0.00010500
     atom    4 type  2   force =     0.00000000    0.00000000    0.00010500
     atom    5 type  3   force =    -0.00000000   -0.00000000    0.03492205
     atom    6 type  3   force =     0.00000000    0.00000000    0.03492205
     The non-local contrib.  to forces
     atom    1 type  1   force =     0.00000000    0.00000000   -0.04082978
     atom    2 type  1   force =    -0.00000000   -0.00000000   -0.04082978
     atom    3 type  2   force =     0.00000000   -0.00000000   -0.16826851
     atom    4 type  2   force =    -0.00000000    0.00000000   -0.16826851
     atom    5 type  3   force =    -0.00000000   -0.00000000   -0.06638590
     atom    6 type  3   force =     0.00000000    0.00000000   -0.06638590
     The ionic contribution  to forces
     atom    1 type  1   force =     0.00001441   -0.00000832    2.73341088
     atom    2 type  1   force =    -0.00001441    0.00000832    2.73341088
     atom    3 type  2   force =    -0.00008109    0.00004682    0.89303934
     atom    4 type  2   force =     0.00008109   -0.00004682    0.89303934
     atom    5 type  3   force =    -0.00009112    0.00005261   -3.62645021
     atom    6 type  3   force =     0.00009112   -0.00005261   -3.62645021
     The local contribution  to forces
     atom    1 type  1   force =    -0.00020116   -0.00032030   -2.72782813
     atom    2 type  1   force =    -0.00021472   -0.00033918   -2.72776573
     atom    3 type  2   force =     0.00102012    0.00027335   -0.73099798
     atom    4 type  2   force =    -0.00039847    0.00067351   -0.73271283
     atom    5 type  3   force =     0.00068045   -0.00013118    3.72690798
     atom    6 type  3   force =    -0.00037148    0.00080690    3.72872729
     The core correction contribution to forces
     atom    1 type  1   force =     0.00000000    0.00000000    0.00000000
     atom    2 type  1   force =     0.00000000    0.00000000    0.00000000
     atom    3 type  2   force =     0.00002323    0.00000816    0.00733398
     atom    4 type  2   force =    -0.00000884    0.00001209    0.00732951
     atom    5 type  3   force =     0.00000000    0.00000000    0.00000000
     atom    6 type  3   force =     0.00000000    0.00000000    0.00000000
     The Hubbard contrib.    to forces
     atom    1 type  1   force =     0.00000000    0.00000000    0.00000000
     atom    2 type  1   force =     0.00000000    0.00000000    0.00000000
     atom    3 type  2   force =     0.00000000    0.00000000    0.00000000
     atom    4 type  2   force =     0.00000000    0.00000000    0.00000000
     atom    5 type  3   force =     0.00000000    0.00000000    0.00000000
     atom    6 type  3   force =     0.00000000    0.00000000    0.00000000
     The SCF correction term to forces
     atom    1 type  1   force =     0.00014107    0.00026820    0.00018768
     atom    2 type  1   force =     0.00022375    0.00028059    0.00011040
     atom    3 type  2   force =    -0.00077105   -0.00027339   -0.00097071
     atom    4 type  2   force =     0.00025338   -0.00045666    0.00060689
     atom    5 type  3   force =    -0.00036843   -0.00000533    0.00092215
     atom    6 type  3   force =     0.00010945   -0.00056419   -0.00112059

     Total force =     0.069949     Total SCF correction =     0.002257

     Computing stress (Cartesian axis) and pressure

          total   stress  (Ry/bohr**3)                   (kbar)     P=     -225.18
  -0.00049738  -0.00000000  -0.00000000          -73.17       -0.00       -0.00
  -0.00000000  -0.00049738   0.00000000           -0.00      -73.17        0.00
   0.00000000  -0.00000000  -0.00359754            0.00       -0.00     -529.22

     kinetic stress (kbar)  30262.89      0.00      0.00
                                0.00  30262.89      0.00
                               -0.00      0.00  30392.47

     local   stress (kbar)  -4575.40      0.19     -0.20
                                0.19  -4575.69     -0.34
                               -0.20     -0.34   5144.76

     nonloc. stress (kbar)   2577.04      0.00      0.00
                                0.00   2577.04      0.00
                                0.00     -0.00   2437.24

     hartree stress (kbar)  15263.17     -0.02      0.09
                               -0.02  15263.34      0.15
                                0.09      0.15  11644.74

     exc-cor stress (kbar)   2833.06     -0.00      0.00
                               -0.00   2833.07      0.00
                                0.00      0.00   2831.54

     corecor stress (kbar)  -9534.88     -0.00     -0.00
                               -0.00  -9534.88     -0.00
                               -0.00     -0.00  -9534.48

     ewald   stress (kbar) -36899.01      0.04      0.00
                                0.04 -36898.96     -0.00
                                0.00     -0.00 -43445.48

     hubbard stress (kbar)      0.00      0.00      0.00
                                0.00      0.00      0.00
                                0.00      0.00      0.00

     DFT-D   stress (kbar)      0.00      0.00      0.00
                                0.00      0.00      0.00
                                0.00      0.00      0.00

     XDM     stress (kbar)      0.00      0.00      0.00
                                0.00      0.00      0.00
                                0.00      0.00      0.00

     dft-nl  stress (kbar)      0.00      0.00      0.00
                                0.00      0.00      0.00
                                0.00      0.00      0.00

     TS-vdW  stress (kbar)      0.00      0.00      0.00
                                0.00      0.00      0.00
                                0.00      0.00      0.00

[...]

                                0.00      0.00      0.00

     Writing all to output data dir new_calculations/myprefix.save/

     General routines

     Parallel routines

   This run was terminated on:   3: 6:52  21May2023

   JOB DONE.