     Program PWSCF v.7.0 starts on 20May2023 at 18:19:34

     Reading input from espresso_19419.pwi
Warning: card &CELL ignored
Warning: card / ignored

     Current dimensions of program PWSCF are:
     Max number of different atomic species (ntypx) = 10
     Max number of k-points (npk) =  40000
     Max angular momentum in pseudopotentials (lmaxx) =  4
     file C.pbe-n-kjpaw_psl.1.0.0.UPF: wavefunction(s)  2S 2P renormalized
     file O.pbe-n-kjpaw_psl.0.1.UPF: wavefunction(s)  2P renormalized

     gamma-point specific algorithms are used
     Message from routine setup:
     using ibrav=0 with symmetry is DISCOURAGED, use correct ibrav instead

     Subspace diagonalization in iterative solution of the eigenvalue problem:
     a serial algorithm will be used

     Using Slab Decomposition

     bravais-lattice index     =            0
     lattice parameter (alat)  =       8.8998  a.u.
     unit-cell volume          =     652.4656 (a.u.)^3
     number of atoms/cell      =           10
     number of atomic types    =            3
     number of electrons       =        78.00
     number of Kohn-Sham states=           47
     kinetic-energy cutoff     =      30.0000  Ry
     charge density cutoff     =     240.0000  Ry
     scf convergence threshold =      1.0E-06
     mixing beta               =       0.7000
     number of iterations used =            8  plain     mixing
     Exchange-correlation= SLA  PW   PBX  PBC
                           (   1   4   3   4   0   0   0)

     celldm(1)=   8.899763  celldm(2)=   0.000000  celldm(3)=   0.000000
     celldm(4)=   0.000000  celldm(5)=   0.000000  celldm(6)=   0.000000

     crystal axes: (cart. coord. in units of alat)
               a(1) = (   1.000000   0.000000   0.000000 )
               a(2) = (  -0.000112   1.214784   0.000000 )
               a(3) = (  -0.499931  -0.411680   0.761944 )

     reciprocal axes: (cart. coord. in units 2 pi/alat)
               b(1) = (  1.000000  0.000092  0.656175 )
               b(2) = (  0.000000  0.823192  0.444772 )
               b(3) = (  0.000000  0.000000  1.312432 )

     PseudoPot. # 1 for Co read from file:
     /home/pragov/projects/rrg-bengioy-ad/pragov/crystal_structure_design/SSSP/Co_pbe_v1.2.uspp.F.UPF
     MD5 check sum: 5f91765df6ddd3222702df6e7b74a16d
     Pseudo is Ultrasoft + core correction, Zval = 17.0
     Generated by new atomic code, or converted to UPF format
     Using radial grid of  863 points,  6 beta functions with:
                l(1) =   0
                l(2) =   0
                l(3) =   1
                l(4) =   1
                l(5) =   2
                l(6) =   2
     Q(r) pseudized with  8 coefficients,  rinner =    1.200   1.200   1.200
                                                       1.200   1.200

     PseudoPot. # 2 for C  read from file:
     /home/pragov/projects/rrg-bengioy-ad/pragov/crystal_structure_design/SSSP/C.pbe-n-kjpaw_psl.1.0.0.UPF
     MD5 check sum: 5d2aebdfa2cae82b50a7e79e9516da0f
     Pseudo is Projector augmented-wave + core cor, Zval =  4.0
     Generated using "atomic" code by A. Dal Corso  v.5.1
     Shape of augmentation charge: PSQ
     Using radial grid of 1073 points,  4 beta functions with:
                l(1) =   0
                l(2) =   0
                l(3) =   1
                l(4) =   1
     Q(r) pseudized with 0 coefficients

     PseudoPot. # 3 for O  read from file:
     /home/pragov/projects/rrg-bengioy-ad/pragov/crystal_structure_design/SSSP/O.pbe-n-kjpaw_psl.0.1.UPF
     MD5 check sum: 0234752ac141de4415c5fc33072bef88
     Pseudo is Projector augmented-wave + core cor, Zval =  6.0
     Generated using "atomic" code by A. Dal Corso  v.5.0.99 svn rev. 10869
     Shape of augmentation charge: BESSEL
     Using radial grid of 1095 points,  4 beta functions with:
                l(1) =   0
                l(2) =   0
                l(3) =   1
                l(4) =   1
     Q(r) pseudized with 0 coefficients

     atomic species   valence    mass     pseudopotential
        Co            17.00    58.93319     Co( 1.00)
        C              4.00    12.01100     C ( 1.00)
        O              6.00    15.99900     O ( 1.00)

      2 Sym. Ops., with inversion, found

                                    s                        frac. trans.

      isym =  1     identity

 cryst.   s( 1) = (     1          0          0      )
                  (     0          1          0      )
                  (     0          0          1      )

 cart.    s( 1) = (  1.0000000  0.0000000 -0.0000000 )
                  (  0.0000000  1.0000000 -0.0000000 )
                  (  0.0000000  0.0000000  1.0000000 )

      isym =  2     inversion

 cryst.   s( 2) = (    -1          0          0      )
                  (     0         -1          0      )
                  (     0          0         -1      )

 cart.    s( 2) = ( -1.0000000 -0.0000000  0.0000000 )
                  (  0.0000000 -1.0000000  0.0000000 )
                  (  0.0000000  0.0000000 -1.0000000 )

   Cartesian axes

     site n.     atom                  positions (alat units)
         1           Co  tau(   1) = (   0.0000000   0.0000000   0.0000000  )
         2           Co  tau(   2) = (   0.4999442   0.6073918   0.0000000  )
         3           C   tau(   3) = (   0.5000122   0.0978146   0.3809456  )
         4           C   tau(   4) = (  -0.0000547   0.7052893   0.3809989  )
         5           O   tau(   5) = (   0.2243587   0.0978422   0.3809326  )
         6           O   tau(   6) = (   0.2755988   0.7052617   0.3810118  )
         7           O   tau(   7) = (   0.6378341   0.2112814   0.1709278  )
         8           O   tau(   8) = (  -0.3621638  -0.0156515   0.5909755  )
         9           O   tau(   9) = (  -0.1378766   0.5918225   0.5910167  )
        10           O   tau(  10) = (   0.8621213   0.8187554   0.1709689  )

   Crystallographic axes

     site n.     atom                  positions (cryst. coord.)
         1           Co  tau(   1) = (  0.0000000  0.0000000  0.0000000  )
         2           Co  tau(   2) = (  0.5000000  0.5000000  0.0000000  )
         3           C   tau(   3) = (  0.7499880  0.2499540  0.4999650  )
         4           C   tau(   4) = (  0.2500120  0.7500460  0.5000350  )
         5           O   tau(   5) = (  0.4743260  0.2499710  0.4999480  )
         6           O   tau(   6) = (  0.5256740  0.7500290  0.5000520  )
         7           O   tau(   7) = (  0.7500120  0.2499490  0.2243310  )
         8           O   tau(   8) = (  0.0256180  0.2499650  0.7756150  )
         9           O   tau(   9) = (  0.2499880  0.7500510  0.7756690  )
        10           O   tau(  10) = (  0.9743820  0.7500350  0.2243850  )

     number of k points=     1  Methfessel-Paxton smearing, width (Ry)=  0.0010
                       cart. coord. in units 2pi/alat
        k(    1) = (   0.0000000   0.0000000   0.0000000), wk =   2.0000000

                       cryst. coord.
        k(    1) = (   0.0000000   0.0000000   0.0000000), wk =   2.0000000

     Check: negative core charge=   -0.000029

     Initial potential from superposition of free atoms

     starting charge      75.9999, renormalised to      78.0000
     Starting wfcs are   58 randomized atomic wfcs
     Checking if some PAW data can be deallocated...

     Self-consistent Calculation

     iteration #  1     ecut=    30.00 Ry     beta= 0.70
     Davidson diagonalization with overlap

     ethr =  1.00E-02,  avg # of iterations =  2.0

     total energy              =    -877.42061028 Ry
     estimated scf accuracy    <       7.67384552 Ry

[...]

     total energy              =    -883.11438162 Ry
     estimated scf accuracy    <       0.00000168 Ry

     iteration # 21     ecut=    30.00 Ry     beta= 0.70
     Davidson diagonalization with overlap

     ethr =  2.15E-09,  avg # of iterations =  1.0

     End of self-consistent calculation

          k = 0.0000 0.0000 0.0000 (   918 PWs)   bands (ev):

   -86.1612 -86.1599 -49.5090 -49.5089 -49.5051 -49.5048 -49.3148 -49.3125
   -15.7939 -15.3020 -12.4720 -12.4719 -12.2899 -12.2898  -2.1674  -1.9433
    -0.6183  -0.1048  -0.1046  -0.0279  -0.0277   1.8432   3.4934   3.4935
     4.3066   4.3113   4.3115   4.4652   4.4656   5.3667   5.7365   5.7368
     7.7184   7.7186   7.7767   7.8354   7.8356   8.0630   8.6839   8.6839
     9.4419   9.4420  11.6577  12.0026  12.1170  16.7707  18.2081

     occupation numbers
     1.0000   1.0000   1.0000   1.0000   1.0000   1.0000   1.0000   1.0000
     1.0000   1.0000   1.0000   1.0000   1.0000   1.0000   1.0000   1.0000
     1.0000   1.0000   1.0000   1.0000   1.0000   1.0000   1.0000   1.0000
     1.0000   1.0000   1.0000   1.0000   1.0000   1.0000   1.0000   1.0000
     1.0000   1.0000   1.0000   1.0000   1.0000   1.0000   0.5001   0.4999
    -0.0000  -0.0000  -0.0000  -0.0000  -0.0000  -0.0000  -0.0000

     the Fermi energy is     8.6839 ev

!    total energy              =    -883.11438165 Ry
     estimated scf accuracy    <          2.7E-09 Ry
     smearing contrib. (-TS)   =      -0.00056419 Ry
     internal energy E=F+TS    =    -883.11381746 Ry

     The total energy is F=E-TS. E is the sum of the following terms:
     one-electron contribution =    -504.63163264 Ry
     hartree contribution      =     292.16092060 Ry
     xc contribution           =    -118.89281090 Ry
     ewald contribution        =    -482.34742133 Ry
     one-center paw contrib.   =     -69.40287319 Ry
      -> PAW hartree energy AE =     202.38456314 Ry
      -> PAW hartree energy PS =    -201.69052624 Ry
      -> PAW xc energy AE      =    -125.10859876 Ry
      -> PAW xc energy PS      =      55.01168866 Ry
      -> total E_H with PAW    =     292.85495750 Ry
      -> total E_XC with PAW   =    -188.98972100 Ry

     convergence has been achieved in  21 iterations

     Forces acting on atoms (cartesian axes, Ry/au):

     atom    1 type  1   force =     0.00000000    0.00000000    0.00000000
     atom    2 type  1   force =     0.00000000    0.00000000    0.00000000
     atom    3 type  2   force =    -0.00002010    0.00008203    0.00008907
     atom    4 type  2   force =     0.00002010   -0.00008203   -0.00008907
     atom    5 type  3   force =    -0.01983092   -0.00001974    0.00005469
     atom    6 type  3   force =     0.01983092    0.00001974   -0.00005469
     atom    7 type  3   force =     0.00995751    0.00820100   -0.01518399
     atom    8 type  3   force =     0.00989942   -0.00815512    0.01514445
     atom    9 type  3   force =    -0.00995751   -0.00820100    0.01518399
     atom   10 type  3   force =    -0.00989942    0.00815512   -0.01514445
     The non-local contrib.  to forces
     atom    1 type  1   force =     0.00000000    0.00000000    0.00000000
     atom    2 type  1   force =     0.00000000    0.00000000    0.00000000
     atom    3 type  2   force =    -0.00007898    0.00003987    0.00009321
     atom    4 type  2   force =     0.00007898   -0.00003987   -0.00009321
     atom    5 type  3   force =     1.83840824   -0.00045067   -0.00002747
     atom    6 type  3   force =    -1.83840824    0.00045067    0.00002747
     atom    7 type  3   force =    -0.91900962   -0.75724196    1.40104368
     atom    8 type  3   force =    -0.91938889    0.75671498   -1.40082847
     atom    9 type  3   force =     0.91900962    0.75724196   -1.40104368
     atom   10 type  3   force =     0.91938889   -0.75671498    1.40082847
     The ionic contribution  to forces
     atom    1 type  1   force =     0.00000000   -0.00000000    0.00000000
     atom    2 type  1   force =    -0.00000000    0.00000000    0.00000000
     atom    3 type  2   force =    -0.00075429    0.00100109    0.00184634
     atom    4 type  2   force =     0.00075429   -0.00100109   -0.00184634
     atom    5 type  3   force =    -2.39880176    0.00361060    0.00450623
     atom    6 type  3   force =     2.39880176   -0.00361060   -0.00450623
     atom    7 type  3   force =     1.19770143    0.99603213   -1.82889445
     atom    8 type  3   force =     1.20004096   -0.98414368    1.83020735
     atom    9 type  3   force =    -1.19770143   -0.99603213    1.82889445
     atom   10 type  3   force =    -1.20004095    0.98414368   -1.83020735
     The local contribution  to forces
     atom    1 type  1   force =     0.00000408   -0.00000269   -0.00001023
     atom    2 type  1   force =    -0.00000661    0.00000599    0.00000250
     atom    3 type  2   force =     0.00079380   -0.00105766   -0.00193847
     atom    4 type  2   force =    -0.00078956    0.00105610    0.00194234
     atom    5 type  3   force =     0.55704449   -0.00317963   -0.00440606
     atom    6 type  3   force =    -0.55704462    0.00317999    0.00440708
     atom    7 type  3   force =    -0.27698282   -0.23736078    0.42522794
     atom    8 type  3   force =    -0.27899523    0.22607925   -0.42679426
     atom    9 type  3   force =     0.27698088    0.23736019   -0.42522383
     atom   10 type  3   force =     0.27899620   -0.22608146    0.42679581
     The core correction contribution to forces
     atom    1 type  1   force =     0.00000001   -0.00000002    0.00000001
     atom    2 type  1   force =     0.00000004    0.00000002   -0.00000001
     atom    3 type  2   force =     0.00000972    0.00010692    0.00008302
     atom    4 type  2   force =    -0.00000974   -0.00010691   -0.00008304
     atom    5 type  3   force =    -0.01647235    0.00000505   -0.00000024
     atom    6 type  3   force =     0.01647236   -0.00000505    0.00000023
     atom    7 type  3   force =     0.00823385    0.00678460   -0.01255276
     atom    8 type  3   force =     0.00823710   -0.00677967    0.01255083
     atom    9 type  3   force =    -0.00823384   -0.00678459    0.01255278
     atom   10 type  3   force =    -0.00823711    0.00677968   -0.01255086
     The Hubbard contrib.    to forces
     atom    1 type  1   force =     0.00000000    0.00000000    0.00000000
     atom    2 type  1   force =     0.00000000    0.00000000    0.00000000
     atom    3 type  2   force =     0.00000000    0.00000000    0.00000000
     atom    4 type  2   force =     0.00000000    0.00000000    0.00000000
     atom    5 type  3   force =     0.00000000    0.00000000    0.00000000
     atom    6 type  3   force =     0.00000000    0.00000000    0.00000000
     atom    7 type  3   force =     0.00000000    0.00000000    0.00000000
     atom    8 type  3   force =     0.00000000    0.00000000    0.00000000
     atom    9 type  3   force =     0.00000000    0.00000000    0.00000000
     atom   10 type  3   force =     0.00000000    0.00000000    0.00000000
     The SCF correction term to forces
     atom    1 type  1   force =    -0.00000527    0.00000406    0.00001197
     atom    2 type  1   force =     0.00000704   -0.00000620   -0.00000173
     atom    3 type  2   force =     0.00000989   -0.00000780    0.00000458
     atom    4 type  2   force =    -0.00001364    0.00001013   -0.00000922
     atom    5 type  3   force =    -0.00000943   -0.00000521   -0.00001749
     atom    6 type  3   force =     0.00000978    0.00000463    0.00001703
     atom    7 type  3   force =     0.00001529   -0.00001224   -0.00000823
     atom    8 type  3   force =     0.00000521   -0.00002608    0.00000859
     atom    9 type  3   force =    -0.00001213    0.00001431    0.00000444
     atom   10 type  3   force =    -0.00000671    0.00002814   -0.00001093

     Total force =     0.048664     Total SCF correction =     0.000065

     Computing stress (Cartesian axis) and pressure

          total   stress  (Ry/bohr**3)                   (kbar)     P=     -651.88
  -0.00422663   0.00000165  -0.00000101         -621.76        0.24       -0.15
   0.00000165  -0.00470317  -0.00025631            0.24     -691.86      -37.70
  -0.00000101  -0.00025631  -0.00436443           -0.15      -37.70     -642.03

     kinetic stress (kbar)  30035.47      0.15     -0.19
                                0.15  30809.24    417.77
                               -0.19    417.77  30261.36

     local   stress (kbar) -24436.41     -0.50     -0.20
                               -0.50 -10498.44   7519.47
                               -0.20   7519.47 -20371.86

     nonloc. stress (kbar)   9938.78      0.06     -0.05
                                0.06  10031.34     50.00
                               -0.05     50.00   9965.86

     hartree stress (kbar)  23674.50      0.37      0.06
                                0.37  19684.75  -2151.31
                                0.06  -2151.31  22511.43

     exc-cor stress (kbar)  -6165.31     -0.00     -0.00
                               -0.00  -6206.42    -22.21
                               -0.00    -22.21  -6177.31

     corecor stress (kbar)  -2089.81      0.00     -0.00
                                0.00  -2084.41      2.93
                               -0.00      2.93  -2088.20

     ewald   stress (kbar) -31578.97      0.17      0.24
                                0.17 -42427.92  -5854.35
                                0.24  -5854.35 -34743.30

     hubbard stress (kbar)      0.00      0.00      0.00
                                0.00      0.00      0.00
                                0.00      0.00      0.00

     DFT-D   stress (kbar)      0.00      0.00      0.00
                                0.00      0.00      0.00
                                0.00      0.00      0.00

     XDM     stress (kbar)      0.00      0.00      0.00
                                0.00      0.00      0.00
                                0.00      0.00      0.00

     dft-nl  stress (kbar)      0.00      0.00      0.00
                                0.00      0.00      0.00
                                0.00      0.00      0.00

     TS-vdW  stress (kbar)      0.00      0.00      0.00
                                0.00      0.00      0.00
                                0.00      0.00      0.00

[...]

                                0.00      0.00      0.00

     Writing all to output data dir new_calculations/myprefix.save/

     General routines

     Parallel routines

     PAW routines

   This run was terminated on:  18:19:53  20May2023

   JOB DONE.