     Program PWSCF v.7.0 starts on 21May2023 at  1:54:24

     Reading input from espresso_18755.pwi
Warning: card &CELL ignored
Warning: card / ignored

     Current dimensions of program PWSCF are:
     Max number of different atomic species (ntypx) = 10
     Max number of k-points (npk) =  40000
     Max angular momentum in pseudopotentials (lmaxx) =  4

     gamma-point specific algorithms are used
     Message from routine setup:
     using ibrav=0 with symmetry is DISCOURAGED, use correct ibrav instead

     Subspace diagonalization in iterative solution of the eigenvalue problem:
     a serial algorithm will be used

     Using Slab Decomposition

     bravais-lattice index     =            0
     lattice parameter (alat)  =       5.4257  a.u.
     unit-cell volume          =     552.2861 (a.u.)^3
     number of atoms/cell      =            8
     number of atomic types    =            2
     number of electrons       =        76.00
     number of Kohn-Sham states=           46
     kinetic-energy cutoff     =      30.0000  Ry
     charge density cutoff     =     240.0000  Ry
     scf convergence threshold =      1.0E-06
     mixing beta               =       0.7000
     number of iterations used =            8  plain     mixing
     Exchange-correlation= PBE
                           (   1   4   3   4   0   0   0)

     celldm(1)=   5.425679  celldm(2)=   0.000000  celldm(3)=   0.000000
     celldm(4)=   0.000000  celldm(5)=   0.000000  celldm(6)=   0.000000

     crystal axes: (cart. coord. in units of alat)
               a(1) = (   1.000000   0.000000   0.000000 )
               a(2) = (  -0.500000   0.866025   0.000000 )
               a(3) = (   0.000000   0.000000   3.992741 )

     reciprocal axes: (cart. coord. in units 2 pi/alat)
               b(1) = (  1.000000  0.577350  0.000000 )
               b(2) = (  0.000000  1.154700  0.000000 )
               b(3) = (  0.000000  0.000000  0.250454 )

     PseudoPot. # 1 for Mo read from file:
     /home/pragov/projects/rrg-bengioy-ad/pragov/crystal_structure_design/SSSP/Mo_ONCV_PBE-1.0.oncvpsp.upf
     MD5 check sum: 1b5d28e075c9ccadda658a603575cd1f
     Pseudo is Norm-conserving, Zval = 14.0
     Generated using ONCVPSP code by D. R. Hamann
     Using radial grid of 1526 points,  6 beta functions with:
                l(1) =   0
                l(2) =   0
                l(3) =   1
                l(4) =   1
                l(5) =   2
                l(6) =   2

     PseudoPot. # 2 for N  read from file:
     /home/pragov/projects/rrg-bengioy-ad/pragov/crystal_structure_design/SSSP/N.pbe-n-radius_5.UPF
     MD5 check sum: 16739722b17309cd8fe442a2ace49922
     Pseudo is Ultrasoft + core correction, Zval =  5.0
     Generated using "atomic" code by A. Dal Corso  v.5.1
     Using radial grid of 1085 points,  4 beta functions with:
                l(1) =   0
                l(2) =   0
                l(3) =   1
                l(4) =   1
     Q(r) pseudized with 0 coefficients

     atomic species   valence    mass     pseudopotential
        Mo            14.00    95.95000     Mo( 1.00)
        N              5.00    14.00700     N ( 1.00)

     24 Sym. Ops., with inversion, found (12 have fractional translation)

                                    s                        frac. trans.

      isym =  1     identity

 cryst.   s( 1) = (     1          0          0      )
                  (     0          1          0      )
                  (     0          0          1      )

 cart.    s( 1) = (  1.0000000  0.0000000  0.0000000 )
                  (  0.0000000  1.0000000  0.0000000 )
                  (  0.0000000  0.0000000  1.0000000 )

      isym =  2     180 deg rotation - cart. axis [0,0,1]

 cryst.   s( 2) = (    -1          0          0      )    f =(  0.0000000 )
                  (     0         -1          0      )       (  0.0000000 )
                  (     0          0          1      )       ( -0.5000000 )

 cart.    s( 2) = ( -1.0000000 -0.0000000  0.0000000 )    f =(  0.0000000 )
                  (  0.0000000 -1.0000000  0.0000000 )       (  0.0000000 )
                  (  0.0000000  0.0000000  1.0000000 )       ( -1.9963707 )

[...]

      isym =  4     180 deg rotation - cart. axis [1,0,0]

[...]

      isym =  5      60 deg rotation - cryst. axis [0,0,1]

[...]

 cryst.   s( 8) = (    -1         -1          0      )
                  (     1          0          0      )
                  (     0          0          1      )

 cart.    s( 8) = ( -0.5000001  0.8660253  0.0000000 )
                  ( -0.8660255 -0.4999999  0.0000000 )
                  (  0.0000000  0.0000000  1.0000000 )

[...]

 cryst.   s( 9) = (     0         -1          0      )    f =(  0.0000000 )
                  (    -1          0          0      )       (  0.0000000 )
                  (     0          0         -1      )       (  0.5000000 )

 cart.    s( 9) = (  0.4999999 -0.8660255  0.0000000 )    f =(  0.0000000 )
                  ( -0.8660255 -0.4999999  0.0000000 )       (  0.0000000 )
                  (  0.0000000  0.0000000 -1.0000000 )       (  1.9963707 )

[...]

 cryst.   s(10) = (     1          1          0      )    f =(  0.0000000 )
                  (     0         -1          0      )       (  0.0000000 )
                  (     0          0         -1      )       (  0.5000000 )

 cart.    s(10) = (  0.5000001  0.8660252  0.0000000 )    f =(  0.0000000 )
                  (  0.8660255 -0.5000001  0.0000000 )       (  0.0000000 )
                  (  0.0000000  0.0000000 -1.0000000 )       (  1.9963707 )

[...]

 cryst.   s(11) = (    -1         -1          0      )
                  (     0          1          0      )
                  (     0          0         -1      )

 cart.    s(11) = ( -0.5000001 -0.8660252  0.0000000 )
                  ( -0.8660255  0.5000001  0.0000000 )
                  (  0.0000000  0.0000000 -1.0000000 )

      isym = 12     180 deg rotation - cryst. axis [1,1,0]

[...]

      isym = 13     inversion

[...]

      isym = 14     inv. 180 deg rotation - cart. axis [0,0,1]

[...]

      isym = 16     inv. 180 deg rotation - cart. axis [1,0,0]

[...]

      isym = 17     inv.  60 deg rotation - cryst. axis [0,0,1]

[...]

 cryst.   s(22) = (    -1         -1          0      )    f =(  0.0000000 )
                  (     0          1          0      )       (  0.0000000 )
                  (     0          0          1      )       ( -0.5000000 )

 cart.    s(22) = ( -0.5000001 -0.8660252  0.0000000 )    f =(  0.0000000 )
                  ( -0.8660255  0.5000001  0.0000000 )       (  0.0000000 )
                  (  0.0000000  0.0000000  1.0000000 )       ( -1.9963707 )

[...]

      isym = 24     inv. 180 deg rotation - cryst. axis [1,1,0]

 cryst.   s(24) = (     0         -1          0      )
                  (    -1          0          0      )
                  (     0          0          1      )

 cart.    s(24) = (  0.4999999 -0.8660255  0.0000000 )
                  ( -0.8660255 -0.4999999  0.0000000 )
                  (  0.0000000  0.0000000  1.0000000 )

   Cartesian axes

     site n.     atom                  positions (alat units)
         1           Mo  tau(   1) = (   0.0000000   0.0000000   0.9981853  )
         2           Mo  tau(   2) = (   0.0000000   0.0000000   2.9945560  )
         3           Mo  tau(   3) = (   0.0000000   0.0000000   1.9963707  )
         4           Mo  tau(   4) = (   0.0000000   0.0000000   0.0000000  )
         5           N   tau(   5) = (  -0.0000004   0.5773506   1.4799495  )
         6           N   tau(   6) = (   0.5000005   0.2886749   2.5127918  )
         7           N   tau(   7) = (   0.5000005   0.2886749   3.4763202  )
         8           N   tau(   8) = (  -0.0000004   0.5773506   0.5164212  )

   Crystallographic axes

     site n.     atom                  positions (cryst. coord.)
         1           Mo  tau(   1) = (  0.0000000  0.0000000  0.2500000  )
         2           Mo  tau(   2) = (  0.0000000  0.0000000  0.7500000  )
         3           Mo  tau(   3) = (  0.0000000  0.0000000  0.5000000  )
         4           Mo  tau(   4) = (  0.0000000  0.0000000  0.0000000  )
         5           N   tau(   5) = (  0.3333330  0.6666670  0.3706600  )
         6           N   tau(   6) = (  0.6666670  0.3333330  0.6293400  )
         7           N   tau(   7) = (  0.6666670  0.3333330  0.8706600  )
         8           N   tau(   8) = (  0.3333330  0.6666670  0.1293400  )

     number of k points=     1  Methfessel-Paxton smearing, width (Ry)=  0.0010
                       cart. coord. in units 2pi/alat
        k(    1) = (   0.0000000   0.0000000   0.0000000), wk =   2.0000000

                       cryst. coord.
        k(    1) = (   0.0000000   0.0000000   0.0000000), wk =   2.0000000

     Check: negative core charge=   -0.000004

     Initial potential from superposition of free atoms

     starting charge      75.9960, renormalised to      76.0000
     Starting wfcs are   56 randomized atomic wfcs

     Self-consistent Calculation

     iteration #  1     ecut=    30.00 Ry     beta= 0.70
     Davidson diagonalization with overlap

     ethr =  1.00E-02,  avg # of iterations =  2.0

     total energy              =    -627.22497475 Ry
     estimated scf accuracy    <       1.91358004 Ry

[...]

     total energy              =    -628.06780637 Ry
     estimated scf accuracy    <       0.00000533 Ry

     iteration # 27     ecut=    30.00 Ry     beta= 0.70
     Davidson diagonalization with overlap

     ethr =  7.02E-09,  avg # of iterations =  2.0

     End of self-consistent calculation

          k = 0.0000 0.0000 0.0000 (   775 PWs)   bands (ev):

   -40.5796 -40.5731 -40.2962 -40.2913 -15.5900 -15.3573 -14.8965 -14.6402
   -14.0282 -14.0282 -14.0188 -14.0188 -13.8810 -13.8809 -13.8726 -13.8726
     3.3986   4.2500   4.5052   5.5407  12.6503  14.2081  14.6638  15.8569
    15.8569  16.0707  16.1725  16.1725  16.7414  16.7414  17.5586  17.5586
    18.1823  19.4536  19.8036  19.8036  19.8436  19.9478  19.9478  20.7621
    20.7622  22.1579  22.3859  22.3859  22.5063  22.5063

     occupation numbers
     1.0000   1.0000   1.0000   1.0000   1.0000   1.0000   1.0000   1.0000
     1.0000   1.0000   1.0000   1.0000   1.0000   1.0000   1.0000   1.0000
     1.0000   1.0000   1.0000   1.0000   1.0000   1.0000   1.0000   1.0000
     1.0000   1.0000   1.0000   1.0000   1.0000   1.0000   1.0000   1.0000
     1.0000   1.0000   1.0000   1.0000   1.0000   0.5009   0.4991  -0.0000
    -0.0000  -0.0000  -0.0000  -0.0000  -0.0000  -0.0000

     the Fermi energy is    19.9478 ev

!    total energy              =    -628.06780641 Ry
     estimated scf accuracy    <       0.00000037 Ry
     smearing contrib. (-TS)   =      -0.00056419 Ry
     internal energy E=F+TS    =    -628.06724222 Ry

     The total energy is F=E-TS. E is the sum of the following terms:
     one-electron contribution =     -61.69668659 Ry
     hartree contribution      =      85.07975238 Ry
     xc contribution           =     -85.36896684 Ry
     ewald contribution        =    -566.08134117 Ry

     convergence has been achieved in  27 iterations

     Forces acting on atoms (cartesian axes, Ry/au):

     atom    1 type  1   force =    -0.00000000   -0.00000000    0.00000000
     atom    2 type  1   force =     0.00000000    0.00000000    0.00000000
     atom    3 type  1   force =     0.00000000    0.00000000    0.00000000
     atom    4 type  1   force =     0.00000000   -0.00000000    0.00000000
     atom    5 type  2   force =     0.00000000    0.00000000   -0.09551398
     atom    6 type  2   force =     0.00000000   -0.00000000    0.09551398
     atom    7 type  2   force =     0.00000000   -0.00000000   -0.09551398
     atom    8 type  2   force =    -0.00000000    0.00000000    0.09551398
     The non-local contrib.  to forces
     atom    1 type  1   force =     0.00000000   -0.00000000    0.00000000
     atom    2 type  1   force =    -0.00000000   -0.00000000   -0.00000000
     atom    3 type  1   force =     0.00000000    0.00000000   -0.00000000
     atom    4 type  1   force =    -0.00000000   -0.00000000    0.00000000
     atom    5 type  2   force =     0.00000000   -0.00000000    0.18054576
     atom    6 type  2   force =     0.00000000   -0.00000000   -0.18054576
     atom    7 type  2   force =     0.00000000    0.00000000    0.18054576
     atom    8 type  2   force =    -0.00000000    0.00000000   -0.18054576
     The ionic contribution  to forces
     atom    1 type  1   force =    -0.00001066    0.00000616   -0.00000000
     atom    2 type  1   force =     0.00001066   -0.00000616    0.00000000
     atom    3 type  1   force =     0.00000000    0.00000000   -0.00000000
     atom    4 type  1   force =     0.00000000    0.00000000   -0.00000000
     atom    5 type  2   force =     0.00000972   -0.00000561    1.14362478
     atom    6 type  2   force =    -0.00000972    0.00000561   -1.14362478
     atom    7 type  2   force =    -0.00000972    0.00000561    1.14362478
     atom    8 type  2   force =     0.00000972   -0.00000561   -1.14362478
     The local contribution  to forces
     atom    1 type  1   force =     0.00000143    0.00001045   -0.00128160
     atom    2 type  1   force =     0.00000145    0.00002959    0.00078626
     atom    3 type  1   force =     0.00000510    0.00000066   -0.00033659
     atom    4 type  1   force =     0.00000838    0.00000686    0.00110121
     atom    5 type  2   force =    -0.00001683   -0.00002437   -1.41785736
     atom    6 type  2   force =     0.00001684    0.00001000    1.41736146
     atom    7 type  2   force =     0.00000252   -0.00000052   -1.41648467
     atom    8 type  2   force =     0.00000318   -0.00000315    1.41706435
     The core correction contribution to forces
     atom    1 type  1   force =     0.00000000    0.00000000    0.00000000
     atom    2 type  1   force =     0.00000000    0.00000000    0.00000000
     atom    3 type  1   force =     0.00000000    0.00000000    0.00000000
     atom    4 type  1   force =     0.00000000    0.00000000    0.00000000
     atom    5 type  2   force =    -0.00000010   -0.00000008   -0.00211271
     atom    6 type  2   force =     0.00000008   -0.00000004    0.00211365
     atom    7 type  2   force =    -0.00000001    0.00000014   -0.00211268
     atom    8 type  2   force =     0.00000004   -0.00000003    0.00211246
     The Hubbard contrib.    to forces
     atom    1 type  1   force =     0.00000000    0.00000000    0.00000000
     atom    2 type  1   force =     0.00000000    0.00000000    0.00000000
     atom    3 type  1   force =     0.00000000    0.00000000    0.00000000
     atom    4 type  1   force =     0.00000000    0.00000000    0.00000000
     atom    5 type  2   force =     0.00000000    0.00000000    0.00000000
     atom    6 type  2   force =     0.00000000    0.00000000    0.00000000
     atom    7 type  2   force =     0.00000000    0.00000000    0.00000000
     atom    8 type  2   force =     0.00000000    0.00000000    0.00000000
     The SCF correction term to forces
     atom    1 type  1   force =     0.00000998   -0.00000644    0.00140597
     atom    2 type  1   force =    -0.00000351   -0.00002340   -0.00090493
     atom    3 type  1   force =    -0.00000149    0.00000123    0.00026934
     atom    4 type  1   force =    -0.00000408   -0.00000345   -0.00096713
     atom    5 type  2   force =     0.00000357    0.00000700    0.00032416
     atom    6 type  2   force =    -0.00000624    0.00000284    0.00029923
     atom    7 type  2   force =    -0.00000083    0.00002429   -0.00105918
     atom    8 type  2   force =    -0.00000569   -0.00001816    0.00048450

     Total force =     0.191028     Total SCF correction =     0.002314

     Computing stress (Cartesian axis) and pressure

          total   stress  (Ry/bohr**3)                   (kbar)     P=      409.47
   0.00645593  -0.00000000   0.00000000          949.70       -0.00        0.00
  -0.00000000   0.00645593  -0.00000000           -0.00      949.70       -0.00
   0.00000000   0.00000000  -0.00456134            0.00        0.00     -671.00

     kinetic stress (kbar)  40218.31     -0.01      0.00
                               -0.01  40218.31      0.00
                                0.00     -0.00  37019.11

     local   stress (kbar)  -2663.12      0.02      0.05
                                0.02  -2663.69      0.17
                                0.05      0.17  -6330.20

     nonloc. stress (kbar)  14823.16     -0.00      0.00
                               -0.00  14823.16     -0.00
                                0.00     -0.00  15218.22

     hartree stress (kbar)   7265.14     -0.02     -0.01
                               -0.02   7265.05     -0.04
                               -0.01     -0.04   8131.36

     exc-cor stress (kbar)  -6707.80     -0.00     -0.00
                               -0.00  -6707.80     -0.00
                               -0.00     -0.00  -6701.56

     corecor stress (kbar)   -399.09      0.00     -0.00
                                0.00   -399.09      0.00
                               -0.00      0.00   -401.55

     ewald   stress (kbar) -51586.56     -0.03     -0.00
                               -0.03 -51586.59     -0.00
                               -0.00     -0.00 -47606.38

     hubbard stress (kbar)      0.00      0.00      0.00
                                0.00      0.00      0.00
                                0.00      0.00      0.00

     DFT-D   stress (kbar)      0.00      0.00      0.00
                                0.00      0.00      0.00
                                0.00      0.00      0.00

     XDM     stress (kbar)      0.00      0.00      0.00
                                0.00      0.00      0.00
                                0.00      0.00      0.00

     dft-nl  stress (kbar)      0.00      0.00      0.00
                                0.00      0.00      0.00
                                0.00      0.00      0.00

     TS-vdW  stress (kbar)      0.00      0.00      0.00
                                0.00      0.00      0.00
                                0.00      0.00      0.00

[...]

                                0.00      0.00      0.00

     Writing all to output data dir new_calculations/myprefix.save/

     General routines

     Parallel routines

   This run was terminated on:   1:54:35  21May2023

   JOB DONE.