     Program PWSCF v.7.0 starts on 21May2023 at 19:53:52

     Reading input from espresso_20847.pwi
Warning: card &CELL ignored
Warning: card / ignored

     Current dimensions of program PWSCF are:
     Max number of different atomic species (ntypx) = 10
     Max number of k-points (npk) =  40000
     Max angular momentum in pseudopotentials (lmaxx) =  4

     gamma-point specific algorithms are used
     Message from routine setup:
     using ibrav=0 with symmetry is DISCOURAGED, use correct ibrav instead

     Subspace diagonalization in iterative solution of the eigenvalue problem:
     a serial algorithm will be used

     Using Slab Decomposition

     bravais-lattice index     =            0
     lattice parameter (alat)  =       8.0667  a.u.
     unit-cell volume          =    1468.0402 (a.u.)^3
     number of atoms/cell      =           12
     number of atomic types    =            3
     number of electrons       =       224.00
     number of Kohn-Sham states=          134
     kinetic-energy cutoff     =      30.0000  Ry
     charge density cutoff     =     240.0000  Ry
     scf convergence threshold =      1.0E-06
     mixing beta               =       0.7000
     number of iterations used =            8  plain     mixing
     Exchange-correlation= PBE
                           (   1   4   3   4   0   0   0)

     celldm(1)=   8.066721  celldm(2)=   0.000000  celldm(3)=   0.000000
     celldm(4)=   0.000000  celldm(5)=   0.000000  celldm(6)=   0.000000

     crystal axes: (cart. coord. in units of alat)
               a(1) = (   1.000000   0.000000   0.000000 )
               a(2) = (   0.000000   1.586484   0.000000 )
               a(3) = (   0.000000   0.000000   1.762832 )

     reciprocal axes: (cart. coord. in units 2 pi/alat)
               b(1) = (  1.000000  0.000000  0.000000 )
               b(2) = (  0.000000  0.630325  0.000000 )
               b(3) = (  0.000000  0.000000  0.567269 )

     PseudoPot. # 1 for Lu read from file:
     /home/pragov/projects/rrg-bengioy-ad/pragov/crystal_structure_design/SSSP/Lu.GGA-PBE-paw-v1.0.UPF
     MD5 check sum: 9ceca61ee0c17e9380a83635bfffa61d
     Pseudo is Projector augmented-wave + core cor, Zval = 25.0
     Generated using ATOMPAW code
     Shape of augmentation charge: BESSEL
     Using radial grid of 1118 points,  8 beta functions with:
                l(1) =   0
                l(2) =   0
                l(3) =   1
                l(4) =   1
                l(5) =   2
                l(6) =   2
                l(7) =   3
                l(8) =   3
     Q(r) pseudized with 0 coefficients

     PseudoPot. # 2 for Ge read from file:
     /home/pragov/projects/rrg-bengioy-ad/pragov/crystal_structure_design/SSSP/ge_pbe_v1.4.uspp.F.UPF
     MD5 check sum: 9c9eaa91e581c3f09632fb3098b2c6b2
     Pseudo is Ultrasoft + core correction, Zval = 14.0
     Generated by new atomic code, or converted to UPF format
     Using radial grid of  873 points,  6 beta functions with:
                l(1) =   0
                l(2) =   0
                l(3) =   1
                l(4) =   1
                l(5) =   2
                l(6) =   2
     Q(r) pseudized with  8 coefficients,  rinner =    1.400   1.400   1.400
                                                       1.400   1.400

     PseudoPot. # 3 for Rh read from file:
     /home/pragov/projects/rrg-bengioy-ad/pragov/crystal_structure_design/SSSP/Rh_ONCV_PBE-1.0.oncvpsp.upf
     MD5 check sum: ba07c69523b14cacd10683cd4c4284c1
     Pseudo is Norm-conserving, Zval = 17.0
     Generated using ONCVPSP code by D. R. Hamann
     Using radial grid of 1442 points,  6 beta functions with:
                l(1) =   0
                l(2) =   0
                l(3) =   1
                l(4) =   1
                l(5) =   2
                l(6) =   2

     atomic species   valence    mass     pseudopotential
        Lu            25.00   174.96680     Lu( 1.00)
        Ge            14.00    72.63000     Ge( 1.00)
        Rh            17.00   102.90550     Rh( 1.00)

      8 Sym. Ops., with inversion, found ( 6 have fractional translation)

                                    s                        frac. trans.

      isym =  1     identity

 cryst.   s( 1) = (     1          0          0      )
                  (     0          1          0      )
                  (     0          0          1      )

 cart.    s( 1) = (  1.0000000  0.0000000  0.0000000 )
                  (  0.0000000  1.0000000  0.0000000 )
                  (  0.0000000  0.0000000  1.0000000 )

      isym =  2     180 deg rotation - cart. axis [0,0,1]

 cryst.   s( 2) = (    -1          0          0      )    f =(  0.0000000 )
                  (     0         -1          0      )       (  0.5000000 )
                  (     0          0          1      )       ( -0.5000000 )

 cart.    s( 2) = ( -1.0000000  0.0000000  0.0000000 )    f =(  0.0000000 )
                  (  0.0000000 -1.0000000  0.0000000 )       (  0.7932421 )
                  (  0.0000000  0.0000000  1.0000000 )       ( -0.8814162 )

[...]

      isym =  4     180 deg rotation - cart. axis [1,0,0]

[...]

      isym =  5     inversion

 cryst.   s( 5) = (    -1          0          0      )
                  (     0         -1          0      )
                  (     0          0         -1      )

 cart.    s( 5) = ( -1.0000000  0.0000000  0.0000000 )
                  (  0.0000000 -1.0000000  0.0000000 )
                  (  0.0000000  0.0000000 -1.0000000 )

      isym =  6     inv. 180 deg rotation - cart. axis [0,0,1]

[...]

      isym =  8     inv. 180 deg rotation - cart. axis [1,0,0]

 cryst.   s( 8) = (    -1          0          0      )    f =(  0.5000000 )
                  (     0          1          0      )       (  0.0000000 )
                  (     0          0          1      )       (  0.0000000 )

 cart.    s( 8) = ( -1.0000000  0.0000000  0.0000000 )    f =(  0.5000000 )
                  (  0.0000000  1.0000000  0.0000000 )       (  0.0000000 )
                  (  0.0000000  0.0000000  1.0000000 )       (  0.0000000 )

   Cartesian axes

     site n.     atom                  positions (alat units)
         1           Lu  tau(   1) = (   0.7500000   1.5776713   0.3472639  )
         2           Lu  tau(   2) = (   0.2500000   0.0088129   1.4155686  )
         3           Lu  tau(   3) = (   0.7500000   0.7844292   0.5341523  )
         4           Lu  tau(   4) = (   0.2500000   0.8020550   1.2286801  )
         5           Ge  tau(   5) = (   0.2500000   1.2437307   0.6893768  )
         6           Ge  tau(   6) = (   0.7500000   1.1359957   1.5707930  )
         7           Ge  tau(   7) = (   0.7500000   0.3427536   1.0734557  )
         8           Ge  tau(   8) = (   0.2500000   0.4504886   0.1920394  )
         9           Rh  tau(   9) = (   0.2500000   0.2501917   0.7685579  )
        10           Rh  tau(  10) = (   0.2500000   1.0434339   0.1128583  )
        11           Rh  tau(  11) = (   0.7500000   0.5430504   1.6499742  )
        12           Rh  tau(  12) = (   0.7500000   1.3362925   0.9942745  )

   Crystallographic axes

     site n.     atom                  positions (cryst. coord.)
         1           Lu  tau(   1) = (  0.7500000  0.9944450  0.1969920  )
         2           Lu  tau(   2) = (  0.2500000  0.0055550  0.8030080  )
         3           Lu  tau(   3) = (  0.7500000  0.4944450  0.3030080  )
         4           Lu  tau(   4) = (  0.2500000  0.5055550  0.6969920  )
         5           Ge  tau(   5) = (  0.2500000  0.7839540  0.3910620  )
         6           Ge  tau(   6) = (  0.7500000  0.7160460  0.8910620  )
         7           Ge  tau(   7) = (  0.7500000  0.2160460  0.6089380  )
         8           Ge  tau(   8) = (  0.2500000  0.2839540  0.1089380  )
         9           Rh  tau(   9) = (  0.2500000  0.1577020  0.4359790  )
        10           Rh  tau(  10) = (  0.2500000  0.6577020  0.0640210  )
        11           Rh  tau(  11) = (  0.7500000  0.3422980  0.9359790  )
        12           Rh  tau(  12) = (  0.7500000  0.8422980  0.5640210  )

     number of k points=     1  Methfessel-Paxton smearing, width (Ry)=  0.0010
                       cart. coord. in units 2pi/alat
        k(    1) = (   0.0000000   0.0000000   0.0000000), wk =   2.0000000

                       cryst. coord.
        k(    1) = (   0.0000000   0.0000000   0.0000000), wk =   2.0000000

     Check: negative core charge=   -0.000001

     Initial potential from superposition of free atoms

     starting charge     223.9797, renormalised to     224.0000
     Starting wfcs are  204 randomized atomic wfcs
     Checking if some PAW data can be deallocated...

     Self-consistent Calculation

     iteration #  1     ecut=    30.00 Ry     beta= 0.70
     Davidson diagonalization with overlap

     ethr =  1.00E-02,  avg # of iterations =  3.0

     total energy              =   -6041.83847230 Ry
     estimated scf accuracy    <       2.61786091 Ry

[...]

     total energy              =   -6043.56157647 Ry
     estimated scf accuracy    <       0.00000728 Ry

     iteration # 17     ecut=    30.00 Ry     beta= 0.70
     Davidson diagonalization with overlap

     ethr =  3.25E-09,  avg # of iterations =  2.0

     End of self-consistent calculation

          k = 0.0000 0.0000 0.0000 (  2031 PWs)   bands (ev):

   -60.9084 -60.9077 -60.9042 -60.9035 -38.5472 -38.5430 -38.5379 -38.5334
   -29.0069 -29.0063 -28.9780 -28.9772 -28.8463 -28.8451 -28.8403 -28.8395
   -28.5486 -28.5478 -28.5128 -28.5120  -9.5263  -9.5041  -9.3070  -9.3020
    -9.2760  -9.2369  -9.2009  -9.1807  -9.1081  -9.0880  -9.0690  -9.0417
    -7.0367  -7.0361  -7.0296  -7.0289  -7.0251  -7.0238  -7.0216  -7.0179
    -7.0163  -7.0160  -7.0136  -7.0081  -6.9780  -6.9771  -6.9744  -6.9702
    -6.9692  -6.9681  -6.9596  -6.9507   6.7895   8.3025   8.4191   8.5250
    12.0728  12.4106  12.6583  12.7200  12.7312  12.7333  12.7383  12.7567
    12.7590  12.7664  12.7704  12.7704  12.7758  12.7861  12.7920  12.7950
    12.7984  12.8193  12.8237  12.8250  12.8444  12.8451  12.8616  12.8624
    12.8645  12.8743  12.8789  12.8790  12.8833  12.9027  13.1668  13.1946
    13.2039  13.2804  13.4265  13.5888  13.7405  14.2316  14.2859  14.4256
    14.6399  14.7654  14.8853  15.2098  15.2714  15.3207  15.4905  15.6414
    15.7243  15.9631  16.0971  16.3594  16.7757  17.2002  17.2417  17.6030
    17.6032  18.1926  18.3639  18.5527  19.5244  19.7851  20.0016  20.2068
    20.2823  20.3886  20.6864  20.7247  21.0938  21.2484  21.9203  21.9244
    21.9695  21.9815  22.1536  22.3984  22.5053  22.8455

     occupation numbers
     1.0000   1.0000   1.0000   1.0000   1.0000   1.0000   1.0000   1.0000
     1.0000   1.0000   1.0000   1.0000   1.0000   1.0000   1.0000   1.0000
     1.0000   1.0000   1.0000   1.0000   1.0000   1.0000   1.0000   1.0000
     1.0000   1.0000   1.0000   1.0000   1.0000   1.0000   1.0000   1.0000
     1.0000   1.0000   1.0000   1.0000   1.0000   1.0000   1.0000   1.0000
     1.0000   1.0000   1.0000   1.0000   1.0000   1.0000   1.0000   1.0000
     1.0000   1.0000   1.0000   1.0000   1.0000   1.0000   1.0000   1.0000
     1.0000   1.0000   1.0000   1.0000   1.0000   1.0000   1.0000   1.0000
     1.0000   1.0000   1.0000   1.0000   1.0000   1.0000   1.0000   1.0000
     1.0000   1.0000   1.0000   1.0000   1.0000   1.0000   1.0000   1.0000
     1.0000   1.0000   1.0000   1.0000   1.0000   1.0000   1.0000   1.0000
     1.0000   1.0000   1.0000   1.0000   1.0000   1.0000   1.0000   1.0000
     1.0000   1.0000   1.0000   1.0000   1.0000   1.0000   1.0000   1.0000
     1.0000   1.0000   1.0000   1.0000   1.0000   1.0000   1.0000   0.5066
     0.4934  -0.0000  -0.0000  -0.0000  -0.0000  -0.0000  -0.0000  -0.0000
    -0.0000  -0.0000  -0.0000  -0.0000  -0.0000  -0.0000  -0.0000  -0.0000
    -0.0000  -0.0000  -0.0000  -0.0000  -0.0000  -0.0000

     the Fermi energy is    17.6031 ev

!    total energy              =   -6043.56157678 Ry
     estimated scf accuracy    <       0.00000041 Ry
     smearing contrib. (-TS)   =      -0.00056409 Ry
     internal energy E=F+TS    =   -6043.56101269 Ry

     The total energy is F=E-TS. E is the sum of the following terms:
     one-electron contribution =   -2206.95026768 Ry
     hartree contribution      =    1115.76004663 Ry
     xc contribution           =    -487.49532877 Ry
     ewald contribution        =   -2501.05339596 Ry
     one-center paw contrib.   =   -1963.82206691 Ry
      -> PAW hartree energy AE =    1967.01030948 Ry
      -> PAW hartree energy PS =   -1693.60384729 Ry
      -> PAW xc energy AE      =   -2397.39024644 Ry
      -> PAW xc energy PS      =     160.16171735 Ry
      -> total E_H with PAW    =    1389.16650881 Ry
      -> total E_XC with PAW   =   -2724.72385787 Ry

     convergence has been achieved in  17 iterations

     Forces acting on atoms (cartesian axes, Ry/au):

     atom    1 type  1   force =    -0.00000000    0.03768068    0.00963096
     atom    2 type  1   force =     0.00000000   -0.03768068   -0.00963096
     atom    3 type  1   force =     0.00000000    0.03768068   -0.00963096
     atom    4 type  1   force =     0.00000000   -0.03768068    0.00963096
     atom    5 type  2   force =     0.00000000    0.01389029   -0.00871493
     atom    6 type  2   force =     0.00000000   -0.01389029   -0.00871493
     atom    7 type  2   force =     0.00000000   -0.01389029    0.00871493
     atom    8 type  2   force =    -0.00000000    0.01389029    0.00871493
     atom    9 type  3   force =    -0.00000000    0.04619953    0.01455057
     atom   10 type  3   force =     0.00000000    0.04619953   -0.01455057
     atom   11 type  3   force =     0.00000000   -0.04619953    0.01455057
     atom   12 type  3   force =     0.00000000   -0.04619953   -0.01455057
     The non-local contrib.  to forces
     atom    1 type  1   force =     0.00000000    0.03396683    0.12069015
     atom    2 type  1   force =     0.00000000   -0.03396683   -0.12069015
     atom    3 type  1   force =     0.00000000    0.03396683   -0.12069015
     atom    4 type  1   force =    -0.00000000   -0.03396683    0.12069015
     atom    5 type  2   force =     0.00000000   -0.02464441    0.19426307
     atom    6 type  2   force =    -0.00000000    0.02464441    0.19426307
     atom    7 type  2   force =     0.00000000    0.02464441   -0.19426307
     atom    8 type  2   force =     0.00000000   -0.02464441   -0.19426307
     atom    9 type  3   force =     0.00000000    0.06127136    0.06003087
     atom   10 type  3   force =     0.00000000    0.06127136   -0.06003087
     atom   11 type  3   force =    -0.00000000   -0.06127136    0.06003087
     atom   12 type  3   force =     0.00000000   -0.06127136   -0.06003087
     The ionic contribution  to forces
     atom    1 type  1   force =    -0.00000000   -0.80127615  -10.79763313
     atom    2 type  1   force =    -0.00000000    0.80127615   10.79763313
     atom    3 type  1   force =     0.00000000   -0.80127615   10.79763313
     atom    4 type  1   force =    -0.00000000    0.80127615  -10.79763313
     atom    5 type  2   force =    -0.00000000   -5.71537141   -0.89338031
     atom    6 type  2   force =    -0.00000000    5.71537141   -0.89338031
     atom    7 type  2   force =    -0.00000000    5.71537141    0.89338031
     atom    8 type  2   force =     0.00000000   -5.71537141    0.89338031
     atom    9 type  3   force =    -0.00000000    6.75870464   -3.46749606
     atom   10 type  3   force =    -0.00000000    6.75870464    3.46749606
     atom   11 type  3   force =    -0.00000000   -6.75870464   -3.46749606
     atom   12 type  3   force =     0.00000000   -6.75870464    3.46749606
     The local contribution  to forces
     atom    1 type  1   force =     0.00000039    0.80620128   10.68497939
     atom    2 type  1   force =     0.00000881   -0.80391146  -10.68420184
     atom    3 type  1   force =     0.00000037    0.80378789  -10.68780131
     atom    4 type  1   force =     0.00000219   -0.80654677   10.68724769
     atom    5 type  2   force =     0.00000477    5.75195423    0.69013229
     atom    6 type  2   force =    -0.00000219   -5.75134394    0.69246181
     atom    7 type  2   force =    -0.00000607   -5.75147009   -0.69137467
     atom    8 type  2   force =     0.00000271    5.75098191   -0.69111520
     atom    9 type  3   force =     0.00000381   -6.77332136    3.42105575
     atom   10 type  3   force =    -0.00000063   -6.77335596   -3.42185450
     atom   11 type  3   force =    -0.00000991    6.77261687    3.42312074
     atom   12 type  3   force =    -0.00000873    6.77429958   -3.42257487
     The core correction contribution to forces
     atom    1 type  1   force =     0.00000000    0.00000067    0.00000401
     atom    2 type  1   force =     0.00000000   -0.00000066   -0.00000401
     atom    3 type  1   force =     0.00000000    0.00000066   -0.00000402
     atom    4 type  1   force =     0.00000000   -0.00000067    0.00000402
     atom    5 type  2   force =     0.00000009    0.00235512   -0.00118328
     atom    6 type  2   force =     0.00000001   -0.00235342   -0.00118272
     atom    7 type  2   force =    -0.00000011   -0.00235350    0.00118359
     atom    8 type  2   force =     0.00000002    0.00235074    0.00118605
     atom    9 type  3   force =     0.00000000    0.00000000    0.00000000
     atom   10 type  3   force =     0.00000000    0.00000000    0.00000000
     atom   11 type  3   force =     0.00000000    0.00000000    0.00000000
     atom   12 type  3   force =     0.00000000    0.00000000    0.00000000
     The Hubbard contrib.    to forces
     atom    1 type  1   force =     0.00000000    0.00000000    0.00000000
     atom    2 type  1   force =     0.00000000    0.00000000    0.00000000
     atom    3 type  1   force =     0.00000000    0.00000000    0.00000000
     atom    4 type  1   force =     0.00000000    0.00000000    0.00000000
     atom    5 type  2   force =     0.00000000    0.00000000    0.00000000
     atom    6 type  2   force =     0.00000000    0.00000000    0.00000000
     atom    7 type  2   force =     0.00000000    0.00000000    0.00000000
     atom    8 type  2   force =     0.00000000    0.00000000    0.00000000
     atom    9 type  3   force =     0.00000000    0.00000000    0.00000000
     atom   10 type  3   force =     0.00000000    0.00000000    0.00000000
     atom   11 type  3   force =     0.00000000    0.00000000    0.00000000
     atom   12 type  3   force =     0.00000000    0.00000000    0.00000000
     The SCF correction term to forces
     atom    1 type  1   force =     0.00000220   -0.00123131    0.00171847
     atom    2 type  1   force =    -0.00001447   -0.00112666   -0.00245086
     atom    3 type  1   force =     0.00000222    0.00126563    0.00134467
     atom    4 type  1   force =    -0.00000116    0.00165102   -0.00077517
     atom    5 type  2   force =    -0.00000626   -0.00049142    0.00157120
     atom    6 type  2   force =     0.00000453   -0.00025263   -0.00101869
     atom    7 type  2   force =     0.00000776   -0.00003971   -0.00024643
     atom    8 type  2   force =    -0.00000272    0.00066056   -0.00046197
     atom    9 type  3   force =    -0.00000366   -0.00034123    0.00096182
     atom   10 type  3   force =    -0.00000011   -0.00056417   -0.00007006
     atom   11 type  3   force =     0.00001075    0.00121290   -0.00107781
     atom   12 type  3   force =     0.00000849   -0.00060618    0.00049691

     Total force =     0.128493     Total SCF correction =     0.005255

     Computing stress (Cartesian axis) and pressure

          total   stress  (Ry/bohr**3)                   (kbar)     P=     -109.07
  -0.00046717   0.00000000   0.00000000          -68.72        0.00        0.00
   0.00000000  -0.00053029   0.00000000            0.00      -78.01        0.00
   0.00000000   0.00000000  -0.00122692            0.00        0.00     -180.49

     kinetic stress (kbar)  29657.74      0.00      0.00
                                0.00  30130.37      0.00
                                0.00      0.00  29715.28

     local   stress (kbar)  10525.22      0.00     -0.00
                                0.00  14717.74     -0.00
                               -0.00     -0.00  11827.39

     nonloc. stress (kbar)  16323.18      0.00      0.00
                                0.00  16024.82      0.00
                                0.00      0.00  16075.12

     hartree stress (kbar)  38060.04     -0.00      0.00
                               -0.00  36372.16     -0.00
                                0.00     -0.00  37372.62

     exc-cor stress (kbar)    150.63     -0.00      0.00
                               -0.00    146.08     -0.00
                                0.00     -0.00    147.34

     corecor stress (kbar) -12319.89      0.00      0.00
                                0.00 -12318.22     -0.00
                                0.00     -0.00 -12316.59

     ewald   stress (kbar) -82465.64     -0.00      0.00
                               -0.00 -85150.96     -0.00
                                0.00     -0.00 -83001.65

     hubbard stress (kbar)      0.00      0.00      0.00
                                0.00      0.00      0.00
                                0.00      0.00      0.00

     DFT-D   stress (kbar)      0.00      0.00      0.00
                                0.00      0.00      0.00
                                0.00      0.00      0.00

     XDM     stress (kbar)      0.00      0.00      0.00
                                0.00      0.00      0.00
                                0.00      0.00      0.00

     dft-nl  stress (kbar)      0.00      0.00      0.00
                                0.00      0.00      0.00
                                0.00      0.00      0.00

     TS-vdW  stress (kbar)      0.00      0.00      0.00
                                0.00      0.00      0.00
                                0.00      0.00      0.00

[...]

                                0.00      0.00      0.00

     Writing all to output data dir new_calculations/myprefix.save/

     General routines

     Parallel routines

     PAW routines

   This run was terminated on:  19:54:50  21May2023

   JOB DONE.