     Program PWSCF v.7.0 starts on 20May2023 at 21:58:27

     Reading input from espresso_14789.pwi
Warning: card &CELL ignored
Warning: card / ignored

     Current dimensions of program PWSCF are:
     Max number of different atomic species (ntypx) = 10
     Max number of k-points (npk) =  40000
     Max angular momentum in pseudopotentials (lmaxx) =  4
     file Pb.pbe-dn-kjpaw_psl.0.2.2.UPF: wavefunction(s)  6S renormalized

     gamma-point specific algorithms are used
     Message from routine setup:
     using ibrav=0 with symmetry is DISCOURAGED, use correct ibrav instead

     Subspace diagonalization in iterative solution of the eigenvalue problem:
     a serial algorithm will be used

     Using Slab Decomposition

     bravais-lattice index     =            0
     lattice parameter (alat)  =      16.0331  a.u.
     unit-cell volume          =    3172.7323 (a.u.)^3
     number of atoms/cell      =           19
     number of atomic types    =            3
     number of electrons       =       254.00
     number of Kohn-Sham states=          152
     kinetic-energy cutoff     =      30.0000  Ry
     charge density cutoff     =     240.0000  Ry
     scf convergence threshold =      1.0E-06
     mixing beta               =       0.7000
     number of iterations used =            8  plain     mixing
     Exchange-correlation= SLA  PW   PBX  PBC
                           (   1   4   3   4   0   0   0)

     celldm(1)=  16.033135  celldm(2)=   0.000000  celldm(3)=   0.000000
     celldm(4)=   0.000000  celldm(5)=   0.000000  celldm(6)=   0.000000

     crystal axes: (cart. coord. in units of alat)
               a(1) = (   1.000000   0.000000   0.000000 )
               a(2) = (  -0.333333   0.942809   0.000000 )
               a(3) = (  -0.333333  -0.471405   0.816497 )

     reciprocal axes: (cart. coord. in units 2 pi/alat)
               b(1) = (  1.000000  0.353553  0.612372 )
               b(2) = (  0.000000  1.060660  0.612372 )
               b(3) = (  0.000000  0.000000  1.224745 )

     PseudoPot. # 1 for Y  read from file:
     /home/pragov/projects/rrg-bengioy-ad/pragov/crystal_structure_design/SSSP/Y_pbe_v1.uspp.F.UPF
     MD5 check sum: 2cf71db95cafeb975fc457bd7f14888e
     Pseudo is Ultrasoft + core correction, Zval = 11.0
     Generated by new atomic code, or converted to UPF format
     Using radial grid of  885 points,  6 beta functions with:
                l(1) =   0
                l(2) =   0
                l(3) =   1
                l(4) =   1
                l(5) =   2
                l(6) =   2
     Q(r) pseudized with  6 coefficients,  rinner =    1.200   1.200   1.200
                                                       1.200   1.200

     PseudoPot. # 2 for Ni read from file:
     /home/pragov/projects/rrg-bengioy-ad/pragov/crystal_structure_design/SSSP/ni_pbe_v1.4.uspp.F.UPF
     MD5 check sum: 1ee80287db30b12d2bc1f57a5b5d6409
     Pseudo is Ultrasoft + core correction, Zval = 18.0
     Generated by new atomic code, or converted to UPF format
     Using radial grid of  865 points,  6 beta functions with:
                l(1) =   0
                l(2) =   0
                l(3) =   1
                l(4) =   1
                l(5) =   2
                l(6) =   2
     Q(r) pseudized with 10 coefficients,  rinner =    0.980   0.980   0.980
                                                       0.980   0.980

     PseudoPot. # 3 for Pb read from file:
     /home/pragov/projects/rrg-bengioy-ad/pragov/crystal_structure_design/SSSP/Pb.pbe-dn-kjpaw_psl.0.2.2.UPF
     MD5 check sum: 9d431e6316058b74ade52399a6cf67da
     Pseudo is Projector augmented-wave + core cor, Zval = 14.0
     Generated using "atomic" code by A. Dal Corso  v.5.0.99 svn rev. 10869
     Shape of augmentation charge: PSQ
     Using radial grid of 1281 points,  6 beta functions with:
                l(1) =   0
                l(2) =   0
                l(3) =   1
                l(4) =   1
                l(5) =   2
                l(6) =   2
     Q(r) pseudized with 0 coefficients

     atomic species   valence    mass     pseudopotential
        Y             11.00    88.90584     Y ( 1.00)
        Ni            18.00    58.69340     Ni( 1.00)
        Pb            14.00   207.20000     Pb( 1.00)

      2 Sym. Ops., with inversion, found

                                    s                        frac. trans.

      isym =  1     identity

 cryst.   s( 1) = (     1          0          0      )
                  (     0          1          0      )
                  (     0          0          1      )

 cart.    s( 1) = (  1.0000000  0.0000000 -0.0000000 )
                  (  0.0000000  1.0000000  0.0000000 )
                  (  0.0000000  0.0000000  1.0000000 )

      isym =  2     inversion

 cryst.   s( 2) = (    -1          0          0      )
                  (     0         -1          0      )
                  (     0          0         -1      )

 cart.    s( 2) = ( -1.0000000 -0.0000000  0.0000000 )
                  (  0.0000000 -1.0000000 -0.0000000 )
                  (  0.0000000  0.0000000 -1.0000000 )

   Cartesian axes

     site n.     atom                  positions (alat units)
         1           Y   tau(   1) = (   0.4092110   0.1502361   0.5691169  )
         2           Y   tau(   2) = (   0.3385747  -0.2394084   0.7235662  )
         3           Y   tau(   3) = (  -0.3385747   0.5069225   0.5691169  )
         4           Y   tau(   4) = (   0.0758770  -0.0536538   0.4018298  )
         5           Y   tau(   5) = (   0.2574563   0.5250584   0.4146668  )
         6           Y   tau(   6) = (   0.3280930   0.1964781   0.1544493  )
         7           Y   tau(   7) = (   0.6719080  -0.0355180   0.2473797  )
         8           Y   tau(   8) = (   0.5907893   0.5679882   0.1544493  )
         9           Y   tau(   9) = (  -0.2574560  -0.0965837   0.6620473  )
        10           Y   tau(  10) = (  -0.0052413   0.7108130   0.0929304  )
        11           Y   tau(  11) = (   0.0052403   0.2749264   0.6620473  )
        12           Y   tau(  12) = (  -0.0758777   0.3211684   0.2473797  )
        13           Ni  tau(  13) = (   0.4146747  -0.1206682   0.4082483  )
        14           Ni  tau(  14) = (   0.2519920   0.5289215   0.0996224  )
        15           Ni  tau(  15) = (   0.0813413  -0.0575170   0.7168742  )
        16           Ni  tau(  16) = (  -0.0813413   0.5920728   0.4082483  )
        17           Ni  tau(  17) = (  -0.2519920   0.1781853   0.5078707  )
        18           Ni  tau(  18) = (   0.5853253   0.2932193   0.3086259  )
        19           Pb  tau(  19) = (   0.0000000   0.0000000   0.0000000  )

   Crystallographic axes

     site n.     atom                  positions (cryst. coord.)
         1           Y   tau(   1) = (  0.8108390  0.5078610  0.6970230  )
         2           Y   tau(   2) = (  0.6970230  0.1891610  0.8861840  )
         3           Y   tau(   3) = (  0.1891610  0.8861840  0.6970230  )
         4           Y   tau(   4) = (  0.3029770  0.1891610  0.4921390  )
         5           Y   tau(   5) = (  0.6970230  0.8108390  0.5078610  )
         6           Y   tau(   6) = (  0.4921390  0.3029770  0.1891610  )
         7           Y   tau(   7) = (  0.8108390  0.1138160  0.3029770  )
         8           Y   tau(   8) = (  0.8861840  0.6970230  0.1891610  )
         9           Y   tau(   9) = (  0.1138160  0.3029770  0.8108390  )
        10           Y   tau(  10) = (  0.3029770  0.8108390  0.1138160  )
        11           Y   tau(  11) = (  0.5078610  0.6970230  0.8108390  )
        12           Y   tau(  12) = (  0.1891610  0.4921390  0.3029770  )
        13           Ni  tau(  13) = (  0.6220120  0.1220120  0.5000000  )
        14           Ni  tau(  14) = (  0.5000000  0.6220120  0.1220120  )
        15           Ni  tau(  15) = (  0.5000000  0.3779880  0.8779880  )
        16           Ni  tau(  16) = (  0.3779880  0.8779880  0.5000000  )
        17           Ni  tau(  17) = (  0.1220120  0.5000000  0.6220120  )
        18           Ni  tau(  18) = (  0.8779880  0.5000000  0.3779880  )
        19           Pb  tau(  19) = (  0.0000000  0.0000000  0.0000000  )

     number of k points=     1  Methfessel-Paxton smearing, width (Ry)=  0.0010
                       cart. coord. in units 2pi/alat
        k(    1) = (   0.0000000   0.0000000   0.0000000), wk =   2.0000000

                       cryst. coord.
        k(    1) = (   0.0000000   0.0000000   0.0000000), wk =   2.0000000

     Check: negative core charge=   -0.000008

     Initial potential from superposition of free atoms

     starting charge     241.9440, renormalised to     254.0000

     negative rho (up, down):  5.493E-01 0.000E+00
     Starting wfcs are  243 randomized atomic wfcs
     Checking if some PAW data can be deallocated...

     Self-consistent Calculation

     iteration #  1     ecut=    30.00 Ry     beta= 0.70
     Davidson diagonalization with overlap

     ethr =  1.00E-02,  avg # of iterations =  8.0

     negative rho (up, down):  2.668E-02 0.000E+00

     total energy              =   -3861.65147958 Ry
     estimated scf accuracy    <     191.40937870 Ry

[...]

     total energy              =   -4000.93816278 Ry
     estimated scf accuracy    <       0.00000100 Ry

     iteration # 35     ecut=    30.00 Ry     beta= 0.70
     Davidson diagonalization with overlap

     ethr =  3.95E-10,  avg # of iterations =  1.0

[...]

     End of self-consistent calculation

          k = 0.0000 0.0000 0.0000 (  4391 PWs)   bands (ev):

   -95.1348 -94.6628 -94.3178 -94.1301 -94.0222 -93.7146 -54.4864 -54.2591
   -54.2464 -53.9324 -53.9061 -53.7106 -53.4361 -53.4020 -53.2554 -53.1839
   -52.8036 -52.6402 -52.6343 -52.3808 -52.3676 -52.1147 -52.0872 -51.7400
   -40.7003 -38.2474 -36.8838 -36.7268 -34.4068 -33.7327 -33.1524 -32.8566
   -31.9701 -31.9111 -31.5809 -30.7428 -14.6530 -13.6471 -13.4374 -12.9211
   -12.8705 -12.7114 -12.4355 -12.2689 -12.0210 -11.8383 -11.7384 -11.6726
   -11.5486 -11.4682 -11.3525 -11.1995 -10.9680 -10.9240 -10.7950 -10.6326
   -10.5715 -10.5100 -10.3590 -10.3404 -10.2465 -10.1626 -10.0938 -10.0315
    -9.8397  -9.8167  -9.7128  -9.6956  -9.6591  -9.4192  -9.3953  -8.9909
    -6.4242  -5.3073  -5.0129  -4.6469  -4.4182   2.5700   3.9426   4.7114
     4.7752   5.4526   6.0355   6.1796   6.6326   6.8324   6.9039   7.0549
     7.1152   7.2826   7.3308   7.5601   7.5839   7.6336   7.7120   7.8465
     7.9057   7.9934   8.0476   8.2581   8.2905   8.3235   8.4591   8.5888
     8.6051   8.7389   8.8117   8.8974   8.9007   9.0410   9.0600   9.1500
     9.3103   9.3843   9.4128   9.4189   9.5335   9.5877   9.6336   9.7342
    10.0793  10.3022  10.3707  10.4065  10.5137  10.6244  10.8755  10.8845
    10.9295  10.9678  11.0447  11.2448  11.8254  11.8268  11.9401  12.0104
    12.0802  12.2132  12.3056  12.3262  12.4154  12.4380  12.5561  12.6155
    12.6749  12.7619  12.7647  12.8773  13.1254  13.3156  13.4484  13.5964

     occupation numbers
     1.0000   1.0000   1.0000   1.0000   1.0000   1.0000   1.0000   1.0000
     1.0000   1.0000   1.0000   1.0000   1.0000   1.0000   1.0000   1.0000
     1.0000   1.0000   1.0000   1.0000   1.0000   1.0000   1.0000   1.0000
     1.0000   1.0000   1.0000   1.0000   1.0000   1.0000   1.0000   1.0000
     1.0000   1.0000   1.0000   1.0000   1.0000   1.0000   1.0000   1.0000
     1.0000   1.0000   1.0000   1.0000   1.0000   1.0000   1.0000   1.0000
     1.0000   1.0000   1.0000   1.0000   1.0000   1.0000   1.0000   1.0000
     1.0000   1.0000   1.0000   1.0000   1.0000   1.0000   1.0000   1.0000
     1.0000   1.0000   1.0000   1.0000   1.0000   1.0000   1.0000   1.0000
     1.0000   1.0000   1.0000   1.0000   1.0000   1.0000   1.0000   1.0000
     1.0000   1.0000   1.0000   1.0000   1.0000   1.0000   1.0000   1.0000
     1.0000   1.0000   1.0000   1.0000   1.0000   1.0000   1.0000   1.0000
     1.0000   1.0000   1.0000   1.0000   1.0000   1.0000   1.0000   1.0000
     1.0000   1.0000   1.0000   1.0000   1.0000   1.0000   1.0000   1.0000
     1.0000   1.0000   1.0000   1.0000   1.0000   1.0000   1.0000   1.0000
     1.0000   1.0000   1.0000   1.0000   1.0000   1.0000   0.7641   0.2359
    -0.0000  -0.0000  -0.0000  -0.0000  -0.0000  -0.0000  -0.0000  -0.0000
    -0.0000  -0.0000  -0.0000  -0.0000  -0.0000  -0.0000  -0.0000  -0.0000
    -0.0000  -0.0000  -0.0000  -0.0000  -0.0000  -0.0000  -0.0000  -0.0000

     the Fermi energy is    10.8800 ev

!    total energy              =   -4000.93816214 Ry
     estimated scf accuracy    <       0.00000082 Ry
     smearing contrib. (-TS)   =      -0.00039450 Ry
     internal energy E=F+TS    =   -4000.93776764 Ry

     The total energy is F=E-TS. E is the sum of the following terms:
     one-electron contribution =   -2319.32272784 Ry
     hartree contribution      =    1251.10643157 Ry
     xc contribution           =    -530.14787753 Ry
     ewald contribution        =   -1674.60971383 Ry
     one-center paw contrib.   =    -727.96388002 Ry
      -> PAW hartree energy AE =     116.43443174 Ry
      -> PAW hartree energy PS =    -115.82469280 Ry
      -> PAW xc energy AE      =    -772.87917200 Ry
      -> PAW xc energy PS      =      44.30555304 Ry
      -> total E_H with PAW    =    1251.71617052 Ry
      -> total E_XC with PAW   =   -1258.72149650 Ry

     convergence has been achieved in  35 iterations

     negative rho (up, down):  7.935E-03 0.000E+00

     Forces acting on atoms (cartesian axes, Ry/au):

     atom    1 type  1   force =    -0.05827040   -0.38214039   -0.32948029
     atom    2 type  1   force =     0.06568375    0.16133937   -0.02861725
     atom    3 type  1   force =     0.04410723    0.08761771   -0.02254619
     atom    4 type  1   force =    -0.09198606    0.24408949   -0.11657079
     atom    5 type  1   force =     0.09198606   -0.24408949    0.11657079
     atom    6 type  1   force =     0.09404385   -0.49071662    0.20865602
     atom    7 type  1   force =    -0.04410723   -0.08761771    0.02254619
     atom    8 type  1   force =     0.10685615   -0.64258682   -0.01200373
     atom    9 type  1   force =    -0.10685615    0.64258682    0.01200373
     atom   10 type  1   force =    -0.06568375   -0.16133937    0.02861725
     atom   11 type  1   force =    -0.09404385    0.49071662   -0.20865602
     atom   12 type  1   force =     0.05827040    0.38214039    0.32948029
     atom   13 type  2   force =    -0.04233314    0.03859992   -0.03671614
     atom   14 type  2   force =     0.04956293    0.00962863    0.01124776
     atom   15 type  2   force =    -0.04956293   -0.00962863   -0.01124776
     atom   16 type  2   force =     0.04233314   -0.03859992    0.03671614
     atom   17 type  2   force =     0.01800867   -0.03449085   -0.03394103
     atom   18 type  2   force =    -0.01800867    0.03449085    0.03394103
     atom   19 type  3   force =     0.00000000    0.00000000    0.00000000
     The non-local contrib.  to forces
     atom    1 type  1   force =    -0.02537137   -0.26749631   -0.24414526
     atom    2 type  1   force =     0.03290888    0.14037925   -0.09057883
     atom    3 type  1   force =     0.04914735   -0.08815556   -0.06490428
     atom    4 type  1   force =    -0.01723398    0.24682488   -0.05567883
     atom    5 type  1   force =     0.01723398   -0.24682488    0.05567883
     atom    6 type  1   force =     0.14184403   -0.28962745    0.20434320
     atom    7 type  1   force =    -0.04914735    0.08815556    0.06490428
     atom    8 type  1   force =     0.10526663   -0.50230374   -0.00657041
     atom    9 type  1   force =    -0.10526663    0.50230374    0.00657041
     atom   10 type  1   force =    -0.03290888   -0.14037925    0.09057883
     atom   11 type  1   force =    -0.14184403    0.28962745   -0.20434320
     atom   12 type  1   force =     0.02537137    0.26749631    0.24414526
     atom   13 type  2   force =     0.18814773    0.21234004    0.09823388
     atom   14 type  2   force =    -0.22909222    0.07406942    0.29373953
     atom   15 type  2   force =     0.22909222   -0.07406942   -0.29373953
     atom   16 type  2   force =    -0.18814773   -0.21234004   -0.09823388
     atom   17 type  2   force =     0.29133662    0.07302319    0.25888837
     atom   18 type  2   force =    -0.29133662   -0.07302319   -0.25888837
     atom   19 type  3   force =     0.00000000    0.00000000    0.00000000
     The ionic contribution  to forces
     atom    1 type  1   force =    -7.92969854    7.93844393   11.05776028
     atom    2 type  1   force =    10.12757730   -7.16128550    9.71179081
     atom    3 type  1   force =   -10.12758382    4.83001942   11.05774259
     atom    4 type  1   force =    -7.92963796    5.60716503  -12.40377425
     atom    5 type  1   force =     7.92963796   -5.60716503   12.40377425
     atom    6 type  1   force =   -10.12766956  -11.99132307   -1.34593976
     atom    7 type  1   force =    10.12758382   -4.83001942  -11.05774259
     atom    8 type  1   force =     7.92964725   13.54547155   -1.34595976
     atom    9 type  1   force =    -7.92964725  -13.54547155    1.34595977
     atom   10 type  1   force =   -10.12757730    7.16128550   -9.71179081
     atom   11 type  1   force =    10.12766956   11.99132307    1.34593976
     atom   12 type  1   force =     7.92969854   -7.93844393  -11.05776028
     atom   13 type  2   force =     8.64582105   12.22709894   -0.00004642
     atom   14 type  2   force =    -8.64588797    6.11349503   10.58895508
     atom   15 type  2   force =     8.64588797   -6.11349503  -10.58895509
     atom   16 type  2   force =    -8.64582105  -12.22709894    0.00004643
     atom   17 type  2   force =     8.64587909   -6.11356915   10.58891954
     atom   18 type  2   force =    -8.64587908    6.11356915  -10.58891954
     atom   19 type  3   force =     0.00000000    0.00000000    0.00000000
     The local contribution  to forces
     atom    1 type  1   force =     7.90243014   -8.02079845  -11.10693883
     atom    2 type  1   force =   -10.10024452    7.17934406   -9.64746167
     atom    3 type  1   force =    10.11635383   -4.67076743  -11.01763251
     atom    4 type  1   force =     7.86190781   -5.66185947   12.36843812
     atom    5 type  1   force =    -7.86215894    5.66200060  -12.36826522
     atom    6 type  1   force =    10.06648397   11.85609208    1.32308133
     atom    7 type  1   force =   -10.11616904    4.67102938   11.01778880
     atom    8 type  1   force =    -7.94214423  -13.63057996    1.34082215
     atom    9 type  1   force =     7.94222394   13.63065544   -1.34095925
     atom   10 type  1   force =    10.10022682   -7.17941737    9.64734806
     atom   11 type  1   force =   -10.06655204  -11.85620063   -1.32332002
     atom   12 type  1   force =    -7.90239592    8.02054111   11.10706052
     atom   13 type  2   force =    -8.87383906  -12.39888329   -0.13132496
     atom   14 type  2   force =     8.92374837   -6.18040112  -10.86956561
     atom   15 type  2   force =    -8.92399443    6.18020409   10.86904795
     atom   16 type  2   force =     8.87408308   12.39884647    0.13192724
     atom   17 type  2   force =    -8.91385470    6.00729297  -10.87810815
     atom   18 type  2   force =     8.91457417   -6.00813662   10.87767135
     atom   19 type  3   force =    -0.00003388    0.00011347    0.00004691
     The core correction contribution to forces
     atom    1 type  1   force =    -0.00521227   -0.03224645   -0.03630194
     atom    2 type  1   force =     0.00571598    0.00298618   -0.00195575
     atom    3 type  1   force =     0.00624817    0.01575838    0.00230526
     atom    4 type  1   force =    -0.00728341    0.05273359   -0.02562059
     atom    5 type  1   force =     0.00728516   -0.05273569    0.02562128
     atom    6 type  1   force =     0.01375316   -0.06569940    0.02753217
     atom    7 type  1   force =    -0.00624775   -0.01575949   -0.00230464
     atom    8 type  1   force =     0.01431924   -0.05581395   -0.00046891
     atom    9 type  1   force =    -0.01431603    0.05581432    0.00046836
     atom   10 type  1   force =    -0.00571811   -0.00298696    0.00195515
     atom   11 type  1   force =    -0.01375419    0.06569897   -0.02753179
     atom   12 type  1   force =     0.00521126    0.03224792    0.03630300
     atom   13 type  2   force =    -0.00305679   -0.00075371   -0.00251107
     atom   14 type  2   force =     0.00127418    0.00134548   -0.00300942
     atom   15 type  2   force =    -0.00127291   -0.00134500    0.00300927
     atom   16 type  2   force =     0.00305866    0.00075199    0.00251270
     atom   17 type  2   force =    -0.00432747   -0.00138515   -0.00337070
     atom   18 type  2   force =     0.00432970    0.00138326    0.00336759
     atom   19 type  3   force =     0.00000043    0.00000027   -0.00000078
     The Hubbard contrib.    to forces
     atom    1 type  1   force =     0.00000000    0.00000000    0.00000000
     atom    2 type  1   force =     0.00000000    0.00000000    0.00000000
     atom    3 type  1   force =     0.00000000    0.00000000    0.00000000
     atom    4 type  1   force =     0.00000000    0.00000000    0.00000000
     atom    5 type  1   force =     0.00000000    0.00000000    0.00000000
     atom    6 type  1   force =     0.00000000    0.00000000    0.00000000
     atom    7 type  1   force =     0.00000000    0.00000000    0.00000000
     atom    8 type  1   force =     0.00000000    0.00000000    0.00000000
     atom    9 type  1   force =     0.00000000    0.00000000    0.00000000
     atom   10 type  1   force =     0.00000000    0.00000000    0.00000000
     atom   11 type  1   force =     0.00000000    0.00000000    0.00000000
     atom   12 type  1   force =     0.00000000    0.00000000    0.00000000
     atom   13 type  2   force =     0.00000000    0.00000000    0.00000000
     atom   14 type  2   force =     0.00000000    0.00000000    0.00000000
     atom   15 type  2   force =     0.00000000    0.00000000    0.00000000
     atom   16 type  2   force =     0.00000000    0.00000000    0.00000000
     atom   17 type  2   force =     0.00000000    0.00000000    0.00000000
     atom   18 type  2   force =     0.00000000    0.00000000    0.00000000
     atom   19 type  3   force =     0.00000000    0.00000000    0.00000000
     The SCF correction term to forces
     atom    1 type  1   force =    -0.00042495   -0.00003666    0.00015306
     atom    2 type  1   force =    -0.00028729   -0.00009101   -0.00041932
     atom    3 type  1   force =    -0.00005873    0.00076456   -0.00006034
     atom    4 type  1   force =     0.00026351   -0.00078034    0.00006863
     atom    5 type  1   force =    -0.00001006    0.00062972   -0.00023450
     atom    6 type  1   force =    -0.00036762   -0.00015750   -0.00036231
     atom    7 type  1   force =    -0.00012734   -0.00102208   -0.00010275
     atom    8 type  1   force =    -0.00022365    0.00063634    0.00016693
     atom    9 type  1   force =     0.00015892   -0.00071807   -0.00004182
     atom   10 type  1   force =     0.00028032    0.00015233    0.00051851
     atom   11 type  1   force =     0.00043698    0.00026905    0.00059784
     atom   12 type  1   force =     0.00037857    0.00030542   -0.00026060
     atom   13 type  2   force =     0.00060106   -0.00122422   -0.00104444
     atom   14 type  2   force =    -0.00046982    0.00112286    0.00112320
     atom   15 type  2   force =     0.00073384   -0.00092025   -0.00061535
     atom   16 type  2   force =    -0.00083271    0.00121843    0.00048676
     atom   17 type  2   force =    -0.00099140    0.00013655   -0.00029802
     atom   18 type  2   force =     0.00033665    0.00068752    0.00068207
     atom   19 type  3   force =     0.00003757   -0.00012310   -0.00006150

     Total force =     1.488989     Total SCF correction =     0.004233

     Computing stress (Cartesian axis) and pressure

     negative rho (up, down):  7.935E-03 0.000E+00
          total   stress  (Ry/bohr**3)                   (kbar)     P=      578.28
   0.00309394  -0.00058381   0.00115234          455.13      -85.88      169.52
  -0.00058381   0.00617733  -0.00221350          -85.88      908.72     -325.62
   0.00115234  -0.00221350   0.00252197          169.52     -325.62      370.99

     kinetic stress (kbar)  19881.34    -94.62     95.90
                              -94.62  20295.26   -313.41
                               95.90   -313.41  19831.37

     local   stress (kbar) -15759.20     -9.27     92.70
                               -9.27 -15821.06   -147.26
                               92.70   -147.26 -15902.91

     nonloc. stress (kbar)   9080.80     12.38     -6.20
                               12.38   9113.07    133.89
                               -6.20    133.89   9216.06

     hartree stress (kbar)  19321.04      6.88    -15.68
                                6.88  19382.47     11.74
                              -15.68     11.74  19304.57

     exc-cor stress (kbar)   2624.74      0.02     -0.75
                                0.02   2625.18      0.28
                               -0.75      0.28   2625.13

     corecor stress (kbar)  -8812.23     -1.28      3.51
                               -1.28  -8804.86    -10.90
                                3.51    -10.90  -8821.94

     ewald   stress (kbar) -25881.35      0.01      0.02
                                0.01 -25881.34      0.03
                                0.02      0.03 -25881.30

     hubbard stress (kbar)      0.00      0.00      0.00
                                0.00      0.00      0.00
                                0.00      0.00      0.00

     DFT-D   stress (kbar)      0.00      0.00      0.00
                                0.00      0.00      0.00
                                0.00      0.00      0.00

     XDM     stress (kbar)      0.00      0.00      0.00
                                0.00      0.00      0.00
                                0.00      0.00      0.00

     dft-nl  stress (kbar)      0.00      0.00      0.00
                                0.00      0.00      0.00
                                0.00      0.00      0.00

     TS-vdW  stress (kbar)      0.00      0.00      0.00
                                0.00      0.00      0.00
                                0.00      0.00      0.00

[...]

                                0.00      0.00      0.00

     Writing all to output data dir new_calculations/myprefix.save/

     General routines

     Parallel routines

     PAW routines

   This run was terminated on:  22: 0:50  20May2023

   JOB DONE.