     Program PWSCF v.7.0 starts on 21May2023 at 17:51:32

     Reading input from espresso_11969.pwi
Warning: card &CELL ignored
Warning: card / ignored

     Current dimensions of program PWSCF are:
     Max number of different atomic species (ntypx) = 10
     Max number of k-points (npk) =  40000
     Max angular momentum in pseudopotentials (lmaxx) =  4
     file Nb.pbe-spn-kjpaw_psl.0.3.0.UPF: wavefunction(s)  4S 4P renormalized

     gamma-point specific algorithms are used
     Message from routine setup:
     using ibrav=0 with symmetry is DISCOURAGED, use correct ibrav instead

     Subspace diagonalization in iterative solution of the eigenvalue problem:
     a serial algorithm will be used

     Using Slab Decomposition

     bravais-lattice index     =            0
     lattice parameter (alat)  =      10.6206  a.u.
     unit-cell volume          =    1733.0554 (a.u.)^3
     number of atoms/cell      =           16
     number of atomic types    =            2
     number of electrons       =       244.00
     number of Kohn-Sham states=          146
     kinetic-energy cutoff     =      30.0000  Ry
     charge density cutoff     =     240.0000  Ry
     scf convergence threshold =      1.0E-06
     mixing beta               =       0.7000
     number of iterations used =            8  plain     mixing
     Exchange-correlation=  SLA  PW   PBX  PBC
                           (   1   4   3   4   0   0   0)

     celldm(1)=  10.620618  celldm(2)=   0.000000  celldm(3)=   0.000000
     celldm(4)=   0.000000  celldm(5)=   0.000000  celldm(6)=   0.000000

     crystal axes: (cart. coord. in units of alat)
               a(1) = (   1.000000   0.000000   0.000000 )
               a(2) = (   0.000000   0.878526   0.000000 )
               a(3) = (   0.000000   0.307758   1.646677 )

     reciprocal axes: (cart. coord. in units 2 pi/alat)
               b(1) = (  1.000000  0.000000  0.000000 )
               b(2) = (  0.000000  1.138270 -0.212739 )
               b(3) = (  0.000000  0.000000  0.607284 )

     PseudoPot. # 1 for Nb read from file:
     /home/pragov/projects/rrg-bengioy-ad/pragov/crystal_structure_design/SSSP/Nb.pbe-spn-kjpaw_psl.0.3.0.UPF
     MD5 check sum: 411d72ad547312f8017e2943ceca08cc
     Pseudo is Projector augmented-wave + core cor, Zval = 13.0
     Generated using "atomic" code by A. Dal Corso  v.5.0.99 svn rev. 10869
     Shape of augmentation charge: PSQ
     Using radial grid of 1227 points,  6 beta functions with:
                l(1) =   0
                l(2) =   0
                l(3) =   1
                l(4) =   1
                l(5) =   2
                l(6) =   2
     Q(r) pseudized with 0 coefficients

     PseudoPot. # 2 for Pt read from file:
     /home/pragov/projects/rrg-bengioy-ad/pragov/crystal_structure_design/SSSP/pt_pbe_v1.4.uspp.F.UPF
     MD5 check sum: f09d6de1a584b5a045c4fc126da2d0c4
     Pseudo is Ultrasoft + core correction, Zval = 16.0
     Generated by new atomic code, or converted to UPF format
     Using radial grid of  985 points,  6 beta functions with:
                l(1) =   0
                l(2) =   0
                l(3) =   1
                l(4) =   1
                l(5) =   2
                l(6) =   2
     Q(r) pseudized with  8 coefficients,  rinner =    1.300   1.300   1.300
                                                       1.300   1.300

     atomic species   valence    mass     pseudopotential
        Nb            13.00    92.90637     Nb( 1.00)
        Pt            16.00   195.08400     Pt( 1.00)

      4 Sym. Ops., with inversion, found ( 2 have fractional translation)

                                    s                        frac. trans.

      isym =  1     identity

 cryst.   s( 1) = (     1          0          0      )
                  (     0          1          0      )
                  (     0          0          1      )

 cart.    s( 1) = (  1.0000000  0.0000000  0.0000000 )
                  (  0.0000000  1.0000000  0.0000000 )
                  (  0.0000000  0.0000000  1.0000000 )

      isym =  2     180 deg rotation - cart. axis [1,0,0]

 cryst.   s( 2) = (     1          0          0      )    f =(  0.5000000 )
                  (     0         -1          0      )       (  0.0000000 )
                  (     0          0         -1      )       (  0.0000000 )

 cart.    s( 2) = (  1.0000000  0.0000000  0.0000000 )    f =(  0.5000000 )
                  (  0.0000000 -1.0000000 -0.0000000 )       (  0.0000000 )
                  (  0.0000000  0.0000000 -1.0000000 )       (  0.0000000 )

      isym =  3     inversion

 cryst.   s( 3) = (    -1          0          0      )
                  (     0         -1          0      )
                  (     0          0         -1      )

 cart.    s( 3) = ( -1.0000000  0.0000000  0.0000000 )
                  (  0.0000000 -1.0000000 -0.0000000 )
                  (  0.0000000  0.0000000 -1.0000000 )

      isym =  4     inv. 180 deg rotation - cart. axis [1,0,0]

 cryst.   s( 4) = (    -1          0          0      )    f =(  0.5000000 )
                  (     0          1          0      )       (  0.0000000 )
                  (     0          0          1      )       (  0.0000000 )

 cart.    s( 4) = ( -1.0000000  0.0000000  0.0000000 )    f =(  0.5000000 )
                  (  0.0000000  1.0000000  0.0000000 )       (  0.0000000 )
                  (  0.0000000  0.0000000  1.0000000 )       (  0.0000000 )

   Cartesian axes

     site n.     atom                  positions (alat units)
         1           Nb  tau(   1) = (   0.7500000   0.4494467   0.6220158  )
         2           Nb  tau(   2) = (   0.2500000   0.7368374   1.0246613  )
         3           Nb  tau(   3) = (   0.7500000   0.4558444   1.4368526  )
         4           Nb  tau(   4) = (   0.2500000   0.7304397   0.2098245  )
         5           Pt  tau(   5) = (   0.7500000   0.7353687   0.2110398  )
         6           Pt  tau(   6) = (   0.2500000   0.4509154   1.4356374  )
         7           Pt  tau(   7) = (   0.7500000   0.7272215   1.0281375  )
         8           Pt  tau(   8) = (   0.2500000   0.4590626   0.6185397  )
         9           Pt  tau(   9) = (   0.9990670   0.8886222   0.6160104  )
        10           Pt  tau(  10) = (   0.4990670   0.2976619   1.0306668  )
        11           Pt  tau(  11) = (   0.0009330   0.2976619   1.0306668  )
        12           Pt  tau(  12) = (   0.5009330   0.8886222   0.6160104  )
        13           Pt  tau(  13) = (   0.9985520   0.2938708   0.2022169  )
        14           Pt  tau(  14) = (   0.4985520   0.8924134   1.4444603  )
        15           Pt  tau(  15) = (   0.0014480   0.8924134   1.4444603  )
        16           Pt  tau(  16) = (   0.5014480   0.2938708   0.2022169  )

   Crystallographic axes

     site n.     atom                  positions (cryst. coord.)
         1           Nb  tau(   1) = (  0.7500000  0.3792650  0.3777400  )
         2           Nb  tau(   2) = (  0.2500000  0.6207350  0.6222600  )
         3           Nb  tau(   3) = (  0.7500000  0.2132000  0.8725770  )
         4           Nb  tau(   4) = (  0.2500000  0.7868000  0.1274230  )
         5           Pt  tau(   5) = (  0.7500000  0.7921520  0.1281610  )
         6           Pt  tau(   6) = (  0.2500000  0.2078480  0.8718390  )
         7           Pt  tau(   7) = (  0.7500000  0.6090500  0.6243710  )
         8           Pt  tau(   8) = (  0.2500000  0.3909500  0.3756290  )
         9           Pt  tau(   9) = (  0.9990670  0.8804430  0.3740930  )
        10           Pt  tau(  10) = (  0.4990670  0.1195570  0.6259070  )
        11           Pt  tau(  11) = (  0.0009330  0.1195570  0.6259070  )
        12           Pt  tau(  12) = (  0.5009330  0.8804430  0.3740930  )
        13           Pt  tau(  13) = (  0.9985520  0.2914850  0.1228030  )
        14           Pt  tau(  14) = (  0.4985520  0.7085150  0.8771970  )
        15           Pt  tau(  15) = (  0.0014480  0.7085150  0.8771970  )
        16           Pt  tau(  16) = (  0.5014480  0.2914850  0.1228030  )

     number of k points=     1  Methfessel-Paxton smearing, width (Ry)=  0.0010
                       cart. coord. in units 2pi/alat
        k(    1) = (   0.0000000   0.0000000   0.0000000), wk =   2.0000000

                       cryst. coord.
        k(    1) = (   0.0000000   0.0000000   0.0000000), wk =   2.0000000

     Check: negative core charge=   -0.000006

     Initial potential from superposition of free atoms

     starting charge     237.9914, renormalised to     244.0000

     negative rho (up, down):  2.245E+00 0.000E+00
     Starting wfcs are  184 randomized atomic wfcs
     Checking if some PAW data can be deallocated...

     Self-consistent Calculation

     iteration #  1     ecut=    30.00 Ry     beta= 0.70
     Davidson diagonalization with overlap

     ethr =  1.00E-02,  avg # of iterations =  2.0

     negative rho (up, down):  2.023E+00 0.000E+00

     total energy              =   -3858.77405048 Ry
     estimated scf accuracy    <      14.51801474 Ry

[...]

     total energy              =   -3865.85850725 Ry
     estimated scf accuracy    <       0.00000390 Ry

     iteration # 19     ecut=    30.00 Ry     beta= 0.70
     Davidson diagonalization with overlap

     ethr =  9.00E-10,  avg # of iterations =  2.0

[...]

     End of self-consistent calculation

          k = 0.0000 0.0000 0.0000 (  2410 PWs)   bands (ev):

   -34.4018 -34.4014 -34.3182 -34.3172 -32.3156 -32.3151 -32.1712 -32.1701
   -32.1643 -32.1599 -32.0379 -32.0361 -31.9876 -31.9767 -31.9617 -31.9579
   -31.9456 -31.9395 -31.8047 -31.7998 -31.7490 -31.7427 -31.7218 -31.7145
   -31.6439 -31.6434 -31.6320 -31.6316 -31.6262 -31.6156 -31.5998 -31.5958
   -31.5500 -31.5310 -31.4901 -31.4796 -31.4717 -31.4539 -31.3845 -31.3719
   -10.6150 -10.5964 -10.5957 -10.5833 -10.4509 -10.4412 -10.3302 -10.3268
   -10.2460 -10.2449 -10.1358 -10.1294  11.7900  13.6039  13.6072  14.2127
    14.5955  14.6782  14.8048  14.9406  15.4257  15.4578  15.5041  15.5170
    15.5987  15.7151  15.7464  15.8526  16.0648  16.0740  16.2544  16.2603
    16.3483  16.3938  16.4261  16.5520  16.6082  16.7053  16.7293  17.1456
    17.1531  17.1905  17.4151  17.4190  17.4201  17.4363  17.5887  17.5911
    17.6518  17.7906  17.7973  17.8081  17.9133  17.9891  18.1974  18.2284
    18.2402  18.5637  18.6419  18.6666  18.7024  18.7208  18.9246  19.0628
    19.1369  19.1625  19.2807  19.2856  19.3403  19.3763  19.6206  19.7028
    19.7354  19.9401  20.3600  20.3705  20.4933  20.5232  20.9548  21.0311
    21.1245  21.6134  22.0458  22.0897  22.1773  22.3881  22.4060  22.5493
    22.6785  22.6980  22.7591  22.8152  22.8171  23.0802  23.1058  23.1454
    23.8536  24.0151  24.4247  24.5349  24.9134  24.9323  24.9333  25.3932
    25.7805  25.8108

     occupation numbers
     1.0000   1.0000   1.0000   1.0000   1.0000   1.0000   1.0000   1.0000
     1.0000   1.0000   1.0000   1.0000   1.0000   1.0000   1.0000   1.0000
     1.0000   1.0000   1.0000   1.0000   1.0000   1.0000   1.0000   1.0000
     1.0000   1.0000   1.0000   1.0000   1.0000   1.0000   1.0000   1.0000
     1.0000   1.0000   1.0000   1.0000   1.0000   1.0000   1.0000   1.0000
     1.0000   1.0000   1.0000   1.0000   1.0000   1.0000   1.0000   1.0000
     1.0000   1.0000   1.0000   1.0000   1.0000   1.0000   1.0000   1.0000
     1.0000   1.0000   1.0000   1.0000   1.0000   1.0000   1.0000   1.0000
     1.0000   1.0000   1.0000   1.0000   1.0000   1.0000   1.0000   1.0000
     1.0000   1.0000   1.0000   1.0000   1.0000   1.0000   1.0000   1.0000
     1.0000   1.0000   1.0000   1.0000   1.0000   1.0000   1.0000   1.0000
     1.0000   1.0000   1.0000   1.0000   1.0000   1.0000   1.0000   1.0000
     1.0000   1.0000   1.0000   1.0000   1.0000   1.0000   1.0000   1.0000
     1.0000   1.0000   1.0000   1.0000   1.0000   1.0000   1.0000   1.0000
     1.0000   1.0000   1.0000   1.0000   1.0000   1.0000   1.0000   1.0000
     1.0000   1.0000  -0.0000  -0.0000  -0.0000  -0.0000  -0.0000  -0.0000
    -0.0000  -0.0000  -0.0000  -0.0000  -0.0000  -0.0000  -0.0000  -0.0000
    -0.0000  -0.0000  -0.0000  -0.0000  -0.0000  -0.0000  -0.0000  -0.0000
    -0.0000  -0.0000

     the Fermi energy is    21.6940 ev

!    total energy              =   -3865.85850717 Ry
     estimated scf accuracy    <       0.00000045 Ry
     smearing contrib. (-TS)   =       0.00000000 Ry
     internal energy E=F+TS    =   -3865.85850717 Ry

     The total energy is F=E-TS. E is the sum of the following terms:
     one-electron contribution =    -343.63732159 Ry
     hartree contribution      =     372.64615033 Ry
     xc contribution           =    -798.36316591 Ry
     ewald contribution        =   -2262.57137070 Ry
     one-center paw contrib.   =    -833.93279930 Ry
      -> PAW hartree energy AE =     268.36417496 Ry
      -> PAW hartree energy PS =    -266.89427807 Ry
      -> PAW xc energy AE      =    -942.86569093 Ry
      -> PAW xc energy PS      =     107.46299475 Ry
      -> total E_H with PAW    =     374.11604722 Ry
      -> total E_XC with PAW   =   -1633.76586210 Ry

     convergence has been achieved in  19 iterations

     negative rho (up, down):  2.098E+00 0.000E+00

     Forces acting on atoms (cartesian axes, Ry/au):

     atom    1 type  1   force =     0.00000000   -0.02620996   -0.02160985
     atom    2 type  1   force =     0.00000000    0.02620996    0.02160985
     atom    3 type  1   force =     0.00000000    0.00460922   -0.01078340
     atom    4 type  1   force =     0.00000000   -0.00460922    0.01078340
     atom    5 type  2   force =     0.00000000   -0.01364970   -0.02366589
     atom    6 type  2   force =     0.00000000    0.01364970    0.02366589
     atom    7 type  2   force =     0.00000000    0.00283536   -0.00397393
     atom    8 type  2   force =     0.00000000   -0.00283536    0.00397393
     atom    9 type  2   force =     0.06149569    0.02094936    0.00114425
     atom   10 type  2   force =     0.06149569   -0.02094936   -0.00114425
     atom   11 type  2   force =    -0.06149569   -0.02094936   -0.00114425
     atom   12 type  2   force =    -0.06149569    0.02094936    0.00114425
     atom   13 type  2   force =    -0.05156372    0.00557307   -0.01219645
     atom   14 type  2   force =    -0.05156372   -0.00557307    0.01219645
     atom   15 type  2   force =     0.05156372   -0.00557307    0.01219645
     atom   16 type  2   force =     0.05156372    0.00557307   -0.01219645
     The non-local contrib.  to forces
     atom    1 type  1   force =     0.00000000    0.02279943   -0.01804185
     atom    2 type  1   force =     0.00000000   -0.02279943    0.01804185
     atom    3 type  1   force =     0.00000000    0.01116253    0.05554049
     atom    4 type  1   force =     0.00000000   -0.01116253   -0.05554049
     atom    5 type  2   force =     0.00000000   -0.00326234   -0.00942027
     atom    6 type  2   force =     0.00000000    0.00326234    0.00942027
     atom    7 type  2   force =     0.00000000    0.09563441   -0.02927675
     atom    8 type  2   force =     0.00000000   -0.09563441    0.02927675
     atom    9 type  2   force =     0.08286130    0.02997073   -0.00397101
     atom   10 type  2   force =     0.08286130   -0.02997073    0.00397101
     atom   11 type  2   force =    -0.08286130   -0.02997073    0.00397101
     atom   12 type  2   force =    -0.08286130    0.02997073   -0.00397101
     atom   13 type  2   force =    -0.06309130    0.00458706   -0.00319065
     atom   14 type  2   force =    -0.06309130   -0.00458706    0.00319065
     atom   15 type  2   force =     0.06309130   -0.00458706    0.00319065
     atom   16 type  2   force =     0.06309130    0.00458706   -0.00319065
     The ionic contribution  to forces
     atom    1 type  1   force =    -0.00000000   -0.47918288   -0.83568212
     atom    2 type  1   force =    -0.00000000    0.47918288    0.83568212
     atom    3 type  1   force =    -0.00000000   -0.64839366    0.67659323
     atom    4 type  1   force =    -0.00000000    0.64839366   -0.67659323
     atom    5 type  2   force =     0.00000000   -0.25710551   -0.97395855
     atom    6 type  2   force =     0.00000000    0.25710551    0.97395855
     atom    7 type  2   force =    -0.00000000    0.68433346    0.64858440
     atom    8 type  2   force =    -0.00000000   -0.68433346   -0.64858440
     atom    9 type  2   force =     0.23474239    0.47540775    0.24014299
     atom   10 type  2   force =     0.23474239   -0.47540776   -0.24014298
     atom   11 type  2   force =    -0.23474239   -0.47540776   -0.24014298
     atom   12 type  2   force =    -0.23474239    0.47540775    0.24014299
     atom   13 type  2   force =     0.58094745   -0.17406968    0.41455333
     atom   14 type  2   force =     0.58094745    0.17406968   -0.41455334
     atom   15 type  2   force =    -0.58094745    0.17406968   -0.41455334
     atom   16 type  2   force =    -0.58094745   -0.17406968    0.41455333
     The local contribution  to forces
     atom    1 type  1   force =     0.00000291    0.43243627    0.83174079
     atom    2 type  1   force =    -0.00000442   -0.43230689   -0.83104289
     atom    3 type  1   force =    -0.00000296    0.64228201   -0.73964384
     atom    4 type  1   force =     0.00000495   -0.64233769    0.73891952
     atom    5 type  2   force =    -0.00000694    0.25540103    0.95310951
     atom    6 type  2   force =     0.00000337   -0.25543980   -0.95405066
     atom    7 type  2   force =     0.00000497   -0.77800914   -0.62225135
     atom    8 type  2   force =    -0.00000458    0.77813030    0.62324607
     atom    9 type  2   force =    -0.25207761   -0.48959319   -0.22905564
     atom   10 type  2   force =    -0.25202018    0.48946066    0.22997979
     atom   11 type  2   force =     0.25202030    0.48946385    0.22997451
     atom   12 type  2   force =     0.25207894   -0.48959552   -0.22906375
     atom   13 type  2   force =    -0.57814788    0.17770017   -0.41592510
     atom   14 type  2   force =    -0.57790013   -0.17765109    0.41501457
     atom   15 type  2   force =     0.57790023   -0.17764840    0.41500675
     atom   16 type  2   force =     0.57814842    0.17770228   -0.41593088
     The core correction contribution to forces
     atom    1 type  1   force =     0.00000002   -0.00229763    0.00104085
     atom    2 type  1   force =    -0.00000001    0.00229838   -0.00104039
     atom    3 type  1   force =     0.00000001   -0.00085061   -0.00400019
     atom    4 type  1   force =     0.00000002    0.00085046    0.00399938
     atom    5 type  2   force =    -0.00000004   -0.00837897    0.00684370
     atom    6 type  2   force =     0.00000003    0.00837912   -0.00684154
     atom    7 type  2   force =     0.00000003    0.00117287   -0.00120387
     atom    8 type  2   force =    -0.00000004   -0.00117348    0.00119987
     atom    9 type  2   force =    -0.00427797    0.00534154   -0.00522366
     atom   10 type  2   force =    -0.00427884   -0.00534224    0.00521752
     atom   11 type  2   force =     0.00427891   -0.00534228    0.00521753
     atom   12 type  2   force =     0.00427800    0.00534154   -0.00522367
     atom   13 type  2   force =     0.00860549   -0.00304619   -0.00760657
     atom   14 type  2   force =     0.00860626    0.00304457    0.00761326
     atom   15 type  2   force =    -0.00860630    0.00304459    0.00761325
     atom   16 type  2   force =    -0.00860550   -0.00304619   -0.00760665
     The Hubbard contrib.    to forces
     atom    1 type  1   force =     0.00000000    0.00000000    0.00000000
     atom    2 type  1   force =     0.00000000    0.00000000    0.00000000
     atom    3 type  1   force =     0.00000000    0.00000000    0.00000000
     atom    4 type  1   force =     0.00000000    0.00000000    0.00000000
     atom    5 type  2   force =     0.00000000    0.00000000    0.00000000
     atom    6 type  2   force =     0.00000000    0.00000000    0.00000000
     atom    7 type  2   force =     0.00000000    0.00000000    0.00000000
     atom    8 type  2   force =     0.00000000    0.00000000    0.00000000
     atom    9 type  2   force =     0.00000000    0.00000000    0.00000000
     atom   10 type  2   force =     0.00000000    0.00000000    0.00000000
     atom   11 type  2   force =     0.00000000    0.00000000    0.00000000
     atom   12 type  2   force =     0.00000000    0.00000000    0.00000000
     atom   13 type  2   force =     0.00000000    0.00000000    0.00000000
     atom   14 type  2   force =     0.00000000    0.00000000    0.00000000
     atom   15 type  2   force =     0.00000000    0.00000000    0.00000000
     atom   16 type  2   force =     0.00000000    0.00000000    0.00000000
     The SCF correction term to forces
     atom    1 type  1   force =    -0.00000288    0.00003886   -0.00068856
     atom    2 type  1   force =     0.00000413   -0.00016097   -0.00005187
     atom    3 type  1   force =     0.00000264    0.00040539    0.00073476
     atom    4 type  1   force =    -0.00000486   -0.00035671    0.00000607
     atom    5 type  2   force =     0.00000693   -0.00030407   -0.00021807
     atom    6 type  2   force =    -0.00000331    0.00034237    0.00120148
     atom    7 type  2   force =    -0.00000510   -0.00029402    0.00016360
     atom    8 type  2   force =     0.00000454    0.00017790   -0.00117437
     atom    9 type  2   force =     0.00024854   -0.00017711   -0.00076386
     atom   10 type  2   force =     0.00018984    0.00031133   -0.00018531
     atom   11 type  2   force =    -0.00019034    0.00030773   -0.00017947
     atom   12 type  2   force =    -0.00025001   -0.00017469   -0.00075573
     atom   13 type  2   force =     0.00012204    0.00040273   -0.00000921
     atom   14 type  2   force =    -0.00012543   -0.00044838    0.00094940
     atom   15 type  2   force =     0.00012544   -0.00045116    0.00095732
     atom   16 type  2   force =    -0.00012247    0.00040005   -0.00000358

     Total force =     0.179904     Total SCF correction =     0.002973

     Computing stress (Cartesian axis) and pressure

     negative rho (up, down):  2.098E+00 0.000E+00
          total   stress  (Ry/bohr**3)                   (kbar)     P=      -79.48
  -0.00182952   0.00000000   0.00000000         -269.13        0.00        0.00
   0.00000000  -0.00076524  -0.00019571            0.00     -112.57      -28.79
   0.00000000  -0.00019571   0.00097388            0.00      -28.79      143.26

     kinetic stress (kbar)  47572.72      0.00      0.00
                                0.00  48702.48   -181.79
                                0.00   -181.79  49131.82

     local   stress (kbar)  15460.91     -0.00     -0.00
                               -0.00  13774.98    342.73
                               -0.00    342.73  13404.78

     nonloc. stress (kbar)   3289.19      0.00      0.00
                                0.00   3609.92     37.24
                                0.00     37.24   3733.52

     hartree stress (kbar)  10135.42      0.00      0.00
                                0.00  10690.33   -126.57
                                0.00   -126.57  10805.18

     exc-cor stress (kbar)  31561.95      0.00      0.00
                                0.00  31580.03     -1.46
                                0.00     -1.46  31583.65

     corecor stress (kbar) -44398.06     -0.00     -0.00
                               -0.00 -44404.85      4.39
                               -0.00      4.39 -44420.99

     ewald   stress (kbar) -63891.26     -0.00     -0.00
                               -0.00 -64065.46   -103.32
                               -0.00   -103.32 -64094.70

     hubbard stress (kbar)      0.00      0.00      0.00
                                0.00      0.00      0.00
                                0.00      0.00      0.00

     DFT-D   stress (kbar)      0.00      0.00      0.00
                                0.00      0.00      0.00
                                0.00      0.00      0.00

     XDM     stress (kbar)      0.00      0.00      0.00
                                0.00      0.00      0.00
                                0.00      0.00      0.00

     dft-nl  stress (kbar)      0.00      0.00      0.00
                                0.00      0.00      0.00
                                0.00      0.00      0.00

     TS-vdW  stress (kbar)      0.00      0.00      0.00
                                0.00      0.00      0.00
                                0.00      0.00      0.00

[...]

                                0.00      0.00      0.00

     Writing all to output data dir new_calculations/myprefix.save/

     General routines

     Parallel routines

     PAW routines

   This run was terminated on:  17:52:17  21May2023

   JOB DONE.