     Program PWSCF v.7.0 starts on 20May2023 at 15:20:56

     Reading input from espresso_14489.pwi
Warning: card &CELL ignored
Warning: card / ignored

     Current dimensions of program PWSCF are:
     Max number of different atomic species (ntypx) = 10
     Max number of k-points (npk) =  40000
     Max angular momentum in pseudopotentials (lmaxx) =  4
     file C.pbe-n-kjpaw_psl.1.0.0.UPF: wavefunction(s)  2S 2P renormalized

     gamma-point specific algorithms are used
     Message from routine setup:
     using ibrav=0 with symmetry is DISCOURAGED, use correct ibrav instead

     Subspace diagonalization in iterative solution of the eigenvalue problem:
     a serial algorithm will be used

     Using Slab Decomposition

     bravais-lattice index     =            0
     lattice parameter (alat)  =      12.5195  a.u.
     unit-cell volume          =    1244.7370 (a.u.)^3
     number of atoms/cell      =           14
     number of atomic types    =            3
     number of electrons       =       106.00
     number of Kohn-Sham states=           64
     kinetic-energy cutoff     =      30.0000  Ry
     charge density cutoff     =     240.0000  Ry
     scf convergence threshold =      1.0E-06
     mixing beta               =       0.7000
     number of iterations used =            8  plain     mixing
     Exchange-correlation= SLA  PW   PBX  PBC
                           (   1   4   3   4   0   0   0)

     celldm(1)=  12.519510  celldm(2)=   0.000000  celldm(3)=   0.000000
     celldm(4)=   0.000000  celldm(5)=   0.000000  celldm(6)=   0.000000

     crystal axes: (cart. coord. in units of alat)
               a(1) = (   1.000000   0.000000   0.000000 )
               a(2) = (   0.053426   0.998572   0.000000 )
               a(3) = (  -0.345009  -0.690971   0.635238 )

     reciprocal axes: (cart. coord. in units 2 pi/alat)
               b(1) = (  1.000000 -0.053503  0.484921 )
               b(2) = (  0.000000  1.001430  1.089292 )
               b(3) = (  0.000000  0.000000  1.574214 )

     PseudoPot. # 1 for Y  read from file:
     /home/pragov/projects/rrg-bengioy-ad/pragov/crystal_structure_design/SSSP/Y_pbe_v1.uspp.F.UPF
     MD5 check sum: 2cf71db95cafeb975fc457bd7f14888e
     Pseudo is Ultrasoft + core correction, Zval = 11.0
     Generated by new atomic code, or converted to UPF format
     Using radial grid of  885 points,  6 beta functions with:
                l(1) =   0
                l(2) =   0
                l(3) =   1
                l(4) =   1
                l(5) =   2
                l(6) =   2
     Q(r) pseudized with  6 coefficients,  rinner =    1.200   1.200   1.200
                                                       1.200   1.200

     PseudoPot. # 2 for Mn read from file:
     /home/pragov/projects/rrg-bengioy-ad/pragov/crystal_structure_design/SSSP/mn_pbe_v1.5.uspp.F.UPF
     MD5 check sum: 82ef2b46521d7a7d9e736dc3972e4928
     Pseudo is Ultrasoft + core correction, Zval = 15.0
     Generated by new atomic code, or converted to UPF format
     Using radial grid of  859 points,  6 beta functions with:
                l(1) =   0
                l(2) =   0
                l(3) =   1
                l(4) =   1
                l(5) =   2
                l(6) =   2
     Q(r) pseudized with  8 coefficients,  rinner =    0.950   0.950   0.950
                                                       0.950   0.950

     PseudoPot. # 3 for C  read from file:
     /home/pragov/projects/rrg-bengioy-ad/pragov/crystal_structure_design/SSSP/C.pbe-n-kjpaw_psl.1.0.0.UPF
     MD5 check sum: 5d2aebdfa2cae82b50a7e79e9516da0f
     Pseudo is Projector augmented-wave + core cor, Zval =  4.0
     Generated using "atomic" code by A. Dal Corso  v.5.1
     Shape of augmentation charge: PSQ
     Using radial grid of 1073 points,  4 beta functions with:
                l(1) =   0
                l(2) =   0
                l(3) =   1
                l(4) =   1
     Q(r) pseudized with 0 coefficients

     atomic species   valence    mass     pseudopotential
        Y             11.00    88.90584     Y ( 1.00)
        Mn            15.00    54.93804     Mn( 1.00)
        C              4.00    12.01100     C ( 1.00)

      2 Sym. Ops., with inversion, found

                                    s                        frac. trans.

      isym =  1     identity

 cryst.   s( 1) = (     1          0          0      )
                  (     0          1          0      )
                  (     0          0          1      )

 cart.    s( 1) = (  1.0000000 -0.0000000 -0.0000000 )
                  (  0.0000000  1.0000000 -0.0000000 )
                  (  0.0000000  0.0000000  1.0000000 )

      isym =  2     inversion

 cryst.   s( 2) = (    -1          0          0      )
                  (     0         -1          0      )
                  (     0          0         -1      )

 cart.    s( 2) = ( -1.0000000  0.0000000  0.0000000 )
                  (  0.0000000 -1.0000000  0.0000000 )
                  (  0.0000000  0.0000000 -1.0000000 )

   Cartesian axes

     site n.     atom                  positions (alat units)
         1           Y   tau(   1) = (   0.4746166   0.2462904   0.0985946  )
         2           Y   tau(   2) = (   0.2338006   0.0613100   0.5366432  )
         3           Y   tau(   3) = (   0.1255043   0.6145805   0.2190243  )
         4           Y   tau(   4) = (   0.5829129  -0.3069801   0.4162135  )
         5           Mn  tau(   5) = (  -0.0728957   0.0769001   0.1588095  )
         6           Mn  tau(   6) = (  -0.2186871   0.2307003   0.4764284  )
         7           C   tau(   7) = (   0.1947808  -0.0398994   0.1087279  )
         8           C   tau(   8) = (   0.5136364   0.3474998   0.5265099  )
         9           C   tau(   9) = (   0.8247726   0.3504355   0.2088910  )
        10           C   tau(  10) = (  -0.1163555  -0.0428351   0.4263469  )
        11           C   tau(  11) = (   0.3590363  -0.1071003   0.2166631  )
        12           C   tau(  12) = (   0.3493809   0.4147007   0.4185747  )
        13           C   tau(  13) = (   0.7664433   0.5180447   0.1009558  )
        14           C   tau(  14) = (  -0.0580261  -0.2104443   0.5342820  )

   Crystallographic axes

     site n.     atom                  positions (cryst. coord.)
         1           Y   tau(   1) = (  0.5092500  0.3540410  0.1552090  )
         2           Y   tau(   2) = (  0.4907500  0.6459590  0.8447910  )
         3           Y   tau(   3) = (  0.1988320  0.8540410  0.3447910  )
         4           Y   tau(   4) = (  0.8011680  0.1459590  0.6552090  )
         5           Mn  tau(   5) = (  0.0000000  0.2500000  0.2500000  )
         6           Mn  tau(   6) = ( -0.0000000  0.7500000  0.7500000  )
         7           C   tau(   7) = (  0.2496400  0.0784800  0.1711610  )
         8           C   tau(   8) = (  0.7503600  0.9215200  0.8288390  )
         9           C   tau(   9) = (  0.9073190  0.5784800  0.3288390  )
        10           C   tau(  10) = (  0.0926810  0.4215200  0.6711610  )
        11           C   tau(  11) = (  0.4698310  0.1287560  0.3410740  )
        12           C   tau(  12) = (  0.5301690  0.8712440  0.6589260  )
        13           C   tau(  13) = (  0.7876820  0.6287560  0.1589260  )
        14           C   tau(  14) = (  0.2123180  0.3712440  0.8410740  )

     number of k points=     1  Methfessel-Paxton smearing, width (Ry)=  0.0010
                       cart. coord. in units 2pi/alat
        k(    1) = (   0.0000000   0.0000000   0.0000000), wk =   2.0000000

                       cryst. coord.
        k(    1) = (   0.0000000   0.0000000   0.0000000), wk =   2.0000000

     Check: negative core charge=   -0.000027

     Initial potential from superposition of free atoms

     starting charge     104.9816, renormalised to     106.0000

     negative rho (up, down):  1.745E-01 0.000E+00
     Starting wfcs are  110 randomized atomic wfcs
     Checking if some PAW data can be deallocated...

     Self-consistent Calculation

     iteration #  1     ecut=    30.00 Ry     beta= 0.70
     Davidson diagonalization with overlap

     ethr =  1.00E-02,  avg # of iterations =  3.0

     negative rho (up, down):  1.684E-01 0.000E+00

     total energy              =    -918.12721440 Ry
     estimated scf accuracy    <       4.06815285 Ry

[...]

     total energy              =    -920.17988586 Ry
     estimated scf accuracy    <       0.00000103 Ry

     iteration # 16     ecut=    30.00 Ry     beta= 0.70
     Davidson diagonalization with overlap

     ethr =  9.75E-10,  avg # of iterations =  2.0

[...]

     End of self-consistent calculation

          k = 0.0000 0.0000 0.0000 (  1702 PWs)   bands (ev):

   -66.8051 -66.7584 -36.2568 -35.5702 -35.1825 -35.1702 -35.1671 -35.1134
   -30.3278 -30.1052 -30.0590 -30.0401 -11.3030 -10.9430 -10.5788 -10.4199
   -10.4100 -10.3841 -10.2870 -10.2632 -10.1962 -10.1226 -10.0238 -10.0072
    -2.6111  -2.0079  -1.8528  -1.6095   3.4996   4.4149   5.0475   5.3879
     6.6784   6.7367   7.1777   7.5862   7.6294   7.8576   7.9482   8.4331
     8.5514   8.6735   8.6893   8.9250  10.2758  10.3486  10.6426  11.4220
    11.5767  11.6476  12.1792  12.2698  12.3681  12.5862  12.7874  12.8544
    13.0419  13.3696  13.6135  14.6367  14.7634  14.7978  15.0989  15.7407

     occupation numbers
     1.0000   1.0000   1.0000   1.0000   1.0000   1.0000   1.0000   1.0000
     1.0000   1.0000   1.0000   1.0000   1.0000   1.0000   1.0000   1.0000
     1.0000   1.0000   1.0000   1.0000   1.0000   1.0000   1.0000   1.0000
     1.0000   1.0000   1.0000   1.0000   1.0000   1.0000   1.0000   1.0000
     1.0000   1.0000   1.0000   1.0000   1.0000   1.0000   1.0000   1.0000
     1.0000   1.0000   1.0000   1.0000   1.0000   1.0000   1.0000   1.0000
     1.0000   1.0000   1.0000   1.0000   1.0000  -0.0000  -0.0000  -0.0000
    -0.0000  -0.0000  -0.0000  -0.0000  -0.0000  -0.0000  -0.0000  -0.0000

     the Fermi energy is    12.4800 ev

!    total energy              =    -920.17988531 Ry
     estimated scf accuracy    <       0.00000087 Ry
     smearing contrib. (-TS)   =       0.00000000 Ry
     internal energy E=F+TS    =    -920.17988531 Ry

     The total energy is F=E-TS. E is the sum of the following terms:
     one-electron contribution =    -365.41934910 Ry
     hartree contribution      =     233.06310583 Ry
     xc contribution           =    -178.13935969 Ry
     ewald contribution        =    -560.30216679 Ry
     one-center paw contrib.   =     -49.38211557 Ry
      -> PAW hartree energy AE =      64.53095147 Ry
      -> PAW hartree energy PS =     -64.46015048 Ry
      -> PAW xc energy AE      =     -82.68184291 Ry
      -> PAW xc energy PS      =      33.22892635 Ry
      -> total E_H with PAW    =     233.13390682 Ry
      -> total E_XC with PAW   =    -227.59227625 Ry

     convergence has been achieved in  16 iterations

     negative rho (up, down):  1.658E-01 0.000E+00

     Forces acting on atoms (cartesian axes, Ry/au):

     atom    1 type  1   force =    -0.02451340    0.03146821   -0.04078409
     atom    2 type  1   force =     0.02451340   -0.03146821    0.04078409
     atom    3 type  1   force =    -0.00626028   -0.01248930   -0.00944708
     atom    4 type  1   force =     0.00626028    0.01248930    0.00944708
     atom    5 type  2   force =    -0.00546111    0.00454544   -0.02071004
     atom    6 type  2   force =     0.00546111   -0.00454544    0.02071004
     atom    7 type  3   force =     0.00678145   -0.04157602    0.03937475
     atom    8 type  3   force =    -0.00678145    0.04157602   -0.03937475
     atom    9 type  3   force =    -0.05673344    0.02717455   -0.02264749
     atom   10 type  3   force =     0.05673344   -0.02717455    0.02264749
     atom   11 type  3   force =    -0.03949391   -0.02611305   -0.02473705
     atom   12 type  3   force =     0.03949391    0.02611305    0.02473705
     atom   13 type  3   force =    -0.00985043   -0.05914519   -0.00215459
     atom   14 type  3   force =     0.00985043    0.05914519    0.00215459
     The non-local contrib.  to forces
     atom    1 type  1   force =     0.04798488    0.00686800    0.01468376
     atom    2 type  1   force =    -0.04798488   -0.00686800   -0.01468376
     atom    3 type  1   force =     0.01203104    0.04346487   -0.03050841
     atom    4 type  1   force =    -0.01203104   -0.04346487    0.03050841
     atom    5 type  2   force =     0.00255447   -0.01176876    0.00367580
     atom    6 type  2   force =    -0.00255447    0.01176876   -0.00367580
     atom    7 type  3   force =     0.23419297   -0.04524473    0.12602735
     atom    8 type  3   force =    -0.23419297    0.04524473   -0.12602735
     atom    9 type  3   force =    -0.03970243    0.23390326   -0.12772179
     atom   10 type  3   force =     0.03970243   -0.23390326    0.12772179
     atom   11 type  3   force =    -0.25964733    0.12225683   -0.14433692
     atom   12 type  3   force =     0.25964733   -0.12225683    0.14433692
     atom   13 type  3   force =     0.08134220   -0.25103271    0.20903440
     atom   14 type  3   force =    -0.08134220    0.25103271   -0.20903440
     The ionic contribution  to forces
     atom    1 type  1   force =    -4.12203820    1.53045713   -2.63315201
     atom    2 type  1   force =     4.12203820   -1.53045713    2.63315201
     atom    3 type  1   force =     1.30805870   -4.19790323    2.63315855
     atom    4 type  1   force =    -1.30805870    4.19790323   -2.63315855
     atom    5 type  2   force =    -0.00004475    0.00002857    0.00003607
     atom    6 type  2   force =     0.00004475   -0.00002857   -0.00003607
     atom    7 type  3   force =     5.27001791    0.40067404    2.22499019
     atom    8 type  3   force =    -5.27001791   -0.40067404   -2.22499019
     atom    9 type  3   force =     0.68170360    5.24098095   -2.22492359
     atom   10 type  3   force =    -0.68170360   -5.24098095    2.22492359
     atom   11 type  3   force =     4.02508829   -1.48885824    2.56851434
     atom   12 type  3   force =    -4.02508829    1.48885824   -2.56851434
     atom   13 type  3   force =    -1.27172327    4.09896108   -2.56857378
     atom   14 type  3   force =     1.27172327   -4.09896108    2.56857378
     The local contribution  to forces
     atom    1 type  1   force =     4.05447454   -1.51708660    2.57688919
     atom    2 type  1   force =    -4.05453684    1.51732953   -2.57692656
     atom    3 type  1   force =    -1.32488374    4.13760834   -2.61760370
     atom    4 type  1   force =     1.32510204   -4.13820492    2.61787219
     atom    5 type  2   force =    -0.00783314    0.01611080   -0.02405743
     atom    6 type  2   force =     0.00780196   -0.01562560    0.02383010
     atom    7 type  3   force =    -5.49584170   -0.39741825   -2.31282697
     atom    8 type  3   force =     5.49607439    0.39727252    2.31212160
     atom    9 type  3   force =    -0.69776524   -5.44793329    2.32913311
     atom   10 type  3   force =     0.69744062    5.44823809   -2.32853718
     atom   11 type  3   force =    -3.80565891    1.34321391   -2.44703043
     atom   12 type  3   force =     3.80563664   -1.34314346    2.44686545
     atom   13 type  3   force =     1.18018961   -3.90554186    2.36099602
     atom   14 type  3   force =    -1.18024585    3.90538869   -2.36080496
     The core correction contribution to forces
     atom    1 type  1   force =    -0.00497389    0.01115169    0.00085610
     atom    2 type  1   force =     0.00497569   -0.01115221   -0.00085763
     atom    3 type  1   force =    -0.00169611    0.00403629    0.00550448
     atom    4 type  1   force =     0.00169964   -0.00404166   -0.00549785
     atom    5 type  2   force =    -0.00017534    0.00045541   -0.00039572
     atom    6 type  2   force =     0.00017844   -0.00045497    0.00039665
     atom    7 type  3   force =    -0.00171962    0.00042743    0.00067487
     atom    8 type  3   force =     0.00171926   -0.00042748   -0.00067311
     atom    9 type  3   force =    -0.00102036    0.00016039    0.00131889
     atom   10 type  3   force =     0.00102116   -0.00016050   -0.00131985
     atom   11 type  3   force =     0.00071945   -0.00261259   -0.00200248
     atom   12 type  3   force =    -0.00071945    0.00261281    0.00200203
     atom   13 type  3   force =     0.00043398   -0.00160893   -0.00345256
     atom   14 type  3   force =    -0.00043423    0.00160941    0.00345342
     The Hubbard contrib.    to forces
     atom    1 type  1   force =     0.00000000    0.00000000    0.00000000
     atom    2 type  1   force =     0.00000000    0.00000000    0.00000000
     atom    3 type  1   force =     0.00000000    0.00000000    0.00000000
     atom    4 type  1   force =     0.00000000    0.00000000    0.00000000
     atom    5 type  2   force =     0.00000000    0.00000000    0.00000000
     atom    6 type  2   force =     0.00000000    0.00000000    0.00000000
     atom    7 type  3   force =     0.00000000    0.00000000    0.00000000
     atom    8 type  3   force =     0.00000000    0.00000000    0.00000000
     atom    9 type  3   force =     0.00000000    0.00000000    0.00000000
     atom   10 type  3   force =     0.00000000    0.00000000    0.00000000
     atom   11 type  3   force =     0.00000000    0.00000000    0.00000000
     atom   12 type  3   force =     0.00000000    0.00000000    0.00000000
     atom   13 type  3   force =     0.00000000    0.00000000    0.00000000
     atom   14 type  3   force =     0.00000000    0.00000000    0.00000000
     The SCF correction term to forces
     atom    1 type  1   force =     0.00004437    0.00006725   -0.00006928
     atom    2 type  1   force =     0.00002635   -0.00033113    0.00009188
     atom    3 type  1   force =     0.00026056    0.00028012    0.00004098
     atom    4 type  1   force =    -0.00042092    0.00027320   -0.00023812
     atom    5 type  2   force =     0.00007027   -0.00029782    0.00004863
     atom    6 type  2   force =     0.00002304   -0.00022231    0.00021257
     atom    7 type  3   force =     0.00014197   -0.00001988    0.00052376
     atom    8 type  3   force =    -0.00035414    0.00015492    0.00020875
     atom    9 type  3   force =     0.00004905    0.00006675   -0.00046177
     atom   10 type  3   force =     0.00027091   -0.00036442   -0.00014853
     atom   11 type  3   force =     0.00000005   -0.00010279    0.00009573
     atom   12 type  3   force =     0.00001314    0.00005244    0.00002426
     atom   13 type  3   force =    -0.00010558    0.00008509   -0.00014441
     atom   14 type  3   force =     0.00013681    0.00008332   -0.00001901

     Total force =     0.191137     Total SCF correction =     0.001343

     Computing stress (Cartesian axis) and pressure

     negative rho (up, down):  1.658E-01 0.000E+00
          total   stress  (Ry/bohr**3)                   (kbar)     P=       21.69
  -0.00024254  -0.00042149  -0.00089907          -35.68      -62.00     -132.26
  -0.00042149  -0.00024647   0.00077721          -62.00      -36.26      114.33
  -0.00089907   0.00077721   0.00093141         -132.26      114.33      137.02

     kinetic stress (kbar)  18362.78    106.88     30.48
                              106.88  18368.01    -45.01
                               30.48    -45.01  18197.59

     local   stress (kbar)  -5825.32  10956.95   3290.49
                            10956.95  -7004.10  -3477.19
                             3290.49  -3477.19 -21383.40

     nonloc. stress (kbar)  11384.59     13.62     60.13
                               13.62  11370.63    -67.66
                               60.13    -67.66  11288.30

     hartree stress (kbar)   6731.30  -4399.08  -1856.84
                            -4399.08   7198.96   1958.14
                            -1856.84   1958.14  13613.53

     exc-cor stress (kbar)   2381.48     -9.27      9.37
                               -9.27   2382.52     -9.82
                                9.37     -9.82   2380.08

     corecor stress (kbar)  -7721.04      2.90     -5.92
                                2.90  -7723.41      4.75
                               -5.92      4.75  -7719.97

     ewald   stress (kbar) -25349.46  -6734.00  -1659.96
                            -6734.00 -24628.87   1751.13
                            -1659.96   1751.13 -16239.11

     hubbard stress (kbar)      0.00      0.00      0.00
                                0.00      0.00      0.00
                                0.00      0.00      0.00

     DFT-D   stress (kbar)      0.00      0.00      0.00
                                0.00      0.00      0.00
                                0.00      0.00      0.00

     XDM     stress (kbar)      0.00      0.00      0.00
                                0.00      0.00      0.00
                                0.00      0.00      0.00

     dft-nl  stress (kbar)      0.00      0.00      0.00
                                0.00      0.00      0.00
                                0.00      0.00      0.00

     TS-vdW  stress (kbar)      0.00      0.00      0.00
                                0.00      0.00      0.00
                                0.00      0.00      0.00

[...]

                                0.00      0.00      0.00

     Writing all to output data dir new_calculations/myprefix.save/

     General routines

     Parallel routines

     PAW routines

   This run was terminated on:  15:21:17  20May2023

   JOB DONE.