     Program PWSCF v.7.0 starts on 21May2023 at 18:20:54

     Reading input from espresso_24959.pwi
Warning: card &CELL ignored
Warning: card / ignored

     Current dimensions of program PWSCF are:
     Max number of different atomic species (ntypx) = 10
     Max number of k-points (npk) =  40000
     Max angular momentum in pseudopotentials (lmaxx) =  4

     gamma-point specific algorithms are used
     Message from routine setup:
     using ibrav=0 with symmetry is DISCOURAGED, use correct ibrav instead

     Subspace diagonalization in iterative solution of the eigenvalue problem:
     a serial algorithm will be used

     Using Slab Decomposition

     bravais-lattice index     =            0
     lattice parameter (alat)  =       7.7678  a.u.
     unit-cell volume          =     320.5149 (a.u.)^3
     number of atoms/cell      =            3
     number of atomic types    =            2
     number of electrons       =        36.00
     number of Kohn-Sham states=           22
     kinetic-energy cutoff     =      30.0000  Ry
     charge density cutoff     =     240.0000  Ry
     scf convergence threshold =      1.0E-06
     mixing beta               =       0.7000
     number of iterations used =            8  plain     mixing
     Exchange-correlation=  SLA  PW   PBX  PBC
                           (   1   4   3   4   0   0   0)

     celldm(1)=   7.767809  celldm(2)=   0.000000  celldm(3)=   0.000000
     celldm(4)=   0.000000  celldm(5)=   0.000000  celldm(6)=   0.000000

     crystal axes: (cart. coord. in units of alat)
               a(1) = (   1.000000   0.000000   0.000000 )
               a(2) = (   0.061216   0.998125   0.000000 )
               a(3) = (  -0.530608  -0.499062   0.685122 )

     reciprocal axes: (cart. coord. in units 2 pi/alat)
               b(1) = (  1.000000 -0.061331  0.729797 )
               b(2) = (  0.000000  1.001879  0.729797 )
               b(3) = (  0.000000  0.000000  1.459594 )

     PseudoPot. # 1 for Si read from file:
     /home/pragov/projects/rrg-bengioy-ad/pragov/crystal_structure_design/SSSP/Si.pbe-n-rrkjus_psl.1.0.0.UPF
     MD5 check sum: 0b0bb1205258b0d07b9f9672cf965d36
     Pseudo is Ultrasoft + core correction, Zval =  4.0
     Generated using "atomic" code by A. Dal Corso  v.5.1
     Using radial grid of 1141 points,  6 beta functions with:
                l(1) =   0
                l(2) =   0
                l(3) =   1
                l(4) =   1
                l(5) =   2
                l(6) =   2
     Q(r) pseudized with 0 coefficients

     PseudoPot. # 2 for Pt read from file:
     /home/pragov/projects/rrg-bengioy-ad/pragov/crystal_structure_design/SSSP/pt_pbe_v1.4.uspp.F.UPF
     MD5 check sum: f09d6de1a584b5a045c4fc126da2d0c4
     Pseudo is Ultrasoft + core correction, Zval = 16.0
     Generated by new atomic code, or converted to UPF format
     Using radial grid of  985 points,  6 beta functions with:
                l(1) =   0
                l(2) =   0
                l(3) =   1
                l(4) =   1
                l(5) =   2
                l(6) =   2
     Q(r) pseudized with  8 coefficients,  rinner =    1.300   1.300   1.300
                                                       1.300   1.300

     atomic species   valence    mass     pseudopotential
        Si             4.00    28.08500     Si( 1.00)
        Pt            16.00   195.08400     Pt( 1.00)

      4 Sym. Ops., with inversion, found

                                    s                        frac. trans.

      isym =  1     identity

 cryst.   s( 1) = (     1          0          0      )
                  (     0          1          0      )
                  (     0          0          1      )

 cart.    s( 1) = (  1.0000000  0.0000000  0.0000000 )
                  (  0.0000000  1.0000000 -0.0000000 )
                  (  0.0000000  0.0000000  1.0000000 )

      isym =  2     180 deg rotation - cart. axis [0,0,1]

[...]

      isym =  3     inversion

[...]

      isym =  4     inv. 180 deg rotation - cart. axis [0,0,1]

 cryst.   s( 4) = (     1          0          0      )
                  (     0          1          0      )
                  (    -1         -1         -1      )

 cart.    s( 4) = (  1.0000000  0.0000000  0.0000000 )
                  (  0.0000000  1.0000000  0.0000000 )
                  (  0.0000000  0.0000000 -1.0000000 )

   Cartesian axes

     site n.     atom                  positions (alat units)
         1           Si  tau(   1) = (   0.0000000   0.0000000   0.0000000  )
         2           Pt  tau(   2) = (   0.0306078   0.4990623   0.3425610  )
         3           Pt  tau(   3) = (   0.5000000  -0.0000000   0.3425610  )

   Crystallographic axes

     site n.     atom                  positions (cryst. coord.)
         1           Si  tau(   1) = (  0.0000000  0.0000000  0.0000000  )
         2           Pt  tau(   2) = (  0.2500000  0.7500000  0.5000000  )
         3           Pt  tau(   3) = (  0.7500000  0.2500000  0.5000000  )

     number of k points=     1  Methfessel-Paxton smearing, width (Ry)=  0.0010
                       cart. coord. in units 2pi/alat
        k(    1) = (   0.0000000   0.0000000   0.0000000), wk =   2.0000000

                       cryst. coord.
        k(    1) = (   0.0000000   0.0000000   0.0000000), wk =   2.0000000

     Initial potential from superposition of free atoms

     starting charge      34.9994, renormalised to      36.0000

     negative rho (up, down):  3.779E-01 0.000E+00
     Starting wfcs are   28 randomized atomic wfcs

     Self-consistent Calculation

     iteration #  1     ecut=    30.00 Ry     beta= 0.70
     Davidson diagonalization with overlap

     ethr =  1.00E-02,  avg # of iterations =  2.0

     negative rho (up, down):  3.479E-01 0.000E+00

     total energy              =    -431.21676915 Ry
     estimated scf accuracy    <       1.65589553 Ry

[...]

     total energy              =    -432.02424507 Ry
     estimated scf accuracy    <       0.00000331 Ry

     iteration #  9     ecut=    30.00 Ry     beta= 0.70
     Davidson diagonalization with overlap

     ethr =  9.19E-09,  avg # of iterations =  2.0

[...]

     End of self-consistent calculation

          k = 0.0000 0.0000 0.0000 (   451 PWs)   bands (ev):

   -34.7432 -34.7432 -34.7077 -34.6370 -34.5488 -34.5488   5.4562  10.8954
    11.2346  11.2346  11.8693  11.9858  15.9758  15.9758  16.3621  17.4727
    18.0451  20.1731  21.7447  21.8327  21.8327  22.0376

     occupation numbers
     1.0000   1.0000   1.0000   1.0000   1.0000   1.0000   1.0000   1.0000
     1.0000   1.0000   1.0000   1.0000   1.0000   1.0000   1.0000   1.0000
     1.0000   1.0000  -0.0000  -0.0000  -0.0000  -0.0000

     the Fermi energy is    20.3907 ev

!    total energy              =    -432.02424549 Ry
     estimated scf accuracy    <       0.00000014 Ry
     smearing contrib. (-TS)   =       0.00000000 Ry
     internal energy E=F+TS    =    -432.02424549 Ry

     The total energy is F=E-TS. E is the sum of the following terms:
     one-electron contribution =     -92.30043053 Ry
     hartree contribution      =      73.72855321 Ry
     xc contribution           =    -120.61741410 Ry
     ewald contribution        =    -292.83495408 Ry

     convergence has been achieved in   9 iterations

     negative rho (up, down):  3.556E-01 0.000E+00

     Forces acting on atoms (cartesian axes, Ry/au):

     atom    1 type  1   force =     0.00000000    0.00000000    0.00000000
     atom    2 type  2   force =     0.00000000    0.00000000   -0.00002808
     atom    3 type  2   force =     0.00000000    0.00000000    0.00002808
     The non-local contrib.  to forces
     atom    1 type  1   force =     0.00000000    0.00000000    0.00000000
     atom    2 type  2   force =     0.00000000    0.00000000   -0.00001637
     atom    3 type  2   force =     0.00000000    0.00000000    0.00001637
     The ionic contribution  to forces
     atom    1 type  1   force =     0.00000000    0.00000000    0.00000000
     atom    2 type  2   force =    -0.00000000   -0.00000000   -0.00000000
     atom    3 type  2   force =     0.00000000   -0.00000000   -0.00000000
     The local contribution  to forces
     atom    1 type  1   force =    -0.00004952    0.00009530   -0.00005814
     atom    2 type  2   force =     0.00006248   -0.00009367    0.00012360
     atom    3 type  2   force =    -0.00022825    0.00016959   -0.00015972
     The core correction contribution to forces
     atom    1 type  1   force =    -0.00000814    0.00001100   -0.00000616
     atom    2 type  2   force =    -0.00000623    0.00000606   -0.00000494
     atom    3 type  2   force =     0.00000399    0.00000053    0.00000095
     The Hubbard contrib.    to forces
     atom    1 type  1   force =     0.00000000    0.00000000    0.00000000
     atom    2 type  2   force =     0.00000000    0.00000000    0.00000000
     atom    3 type  2   force =     0.00000000    0.00000000    0.00000000
     The SCF correction term to forces
     atom    1 type  1   force =     0.00000314   -0.00001547    0.00001426
     atom    2 type  2   force =    -0.00007252    0.00011136   -0.00011750
     atom    3 type  2   force =     0.00024339   -0.00016876    0.00018336

     Total force =     0.000040     Total SCF correction =     0.000391
     SCF correction compared to forces is large: reduce conv_thr to get better values

     Computing stress (Cartesian axis) and pressure

     negative rho (up, down):  3.556E-01 0.000E+00
          total   stress  (Ry/bohr**3)                   (kbar)     P=      623.29
   0.00390838  -0.00083100   0.00000000          574.94     -122.25        0.00
  -0.00083100   0.00401064   0.00000000         -122.25      589.99        0.00
   0.00000000   0.00000000   0.00479218            0.00        0.00      704.95

     kinetic stress (kbar)  36754.64   -168.81      0.00
                             -168.81  36775.37      0.00
                                0.00      0.00  36934.20

     local   stress (kbar)   9138.18   4705.82      0.01
                             4705.82   8561.00     -0.00
                                0.01     -0.00   4134.88

     nonloc. stress (kbar)    388.11     97.49      0.00
                               97.49    376.14      0.00
                                0.00      0.00    284.44

     hartree stress (kbar)  10553.15  -1837.79     -0.00
                            -1837.79  10778.56      0.00
                               -0.00      0.00  12507.10

     exc-cor stress (kbar)  26799.61     -0.10     -0.00
                               -0.10  26799.62     -0.00
                               -0.00     -0.00  26799.71

     corecor stress (kbar) -37100.87      9.51      0.00
                                9.51 -37102.03     -0.00
                                0.00     -0.00 -37110.98

     ewald   stress (kbar) -45957.87  -2928.38     -0.00
                            -2928.38 -45598.67     -0.00
                               -0.00     -0.00 -42844.39

     hubbard stress (kbar)      0.00      0.00      0.00
                                0.00      0.00      0.00
                                0.00      0.00      0.00

     DFT-D   stress (kbar)      0.00      0.00      0.00
                                0.00      0.00      0.00
                                0.00      0.00      0.00

     XDM     stress (kbar)      0.00      0.00      0.00
                                0.00      0.00      0.00
                                0.00      0.00      0.00

     dft-nl  stress (kbar)      0.00      0.00      0.00
                                0.00      0.00      0.00
                                0.00      0.00      0.00

     TS-vdW  stress (kbar)      0.00      0.00      0.00
                                0.00      0.00      0.00
                                0.00      0.00      0.00

[...]

                                0.00      0.00      0.00

     Writing all to output data dir new_calculations/myprefix.save/

     General routines

     Parallel routines

   This run was terminated on:  18:21: 5  21May2023

   JOB DONE.