     Program PWSCF v.7.0 starts on 20May2023 at 21:15:14

     Reading input from espresso_26100.pwi
Warning: card &CELL ignored
Warning: card / ignored

     Current dimensions of program PWSCF are:
     Max number of different atomic species (ntypx) = 10
     Max number of k-points (npk) =  40000
     Max angular momentum in pseudopotentials (lmaxx) =  4
     file Ba.pbe-spn-kjpaw_psl.1.0.0.UPF: wavefunction(s)  5S 6S renormalized
     file O.pbe-n-kjpaw_psl.0.1.UPF: wavefunction(s)  2P renormalized

     gamma-point specific algorithms are used
     Message from routine setup:
     using ibrav=0 with symmetry is DISCOURAGED, use correct ibrav instead

     Subspace diagonalization in iterative solution of the eigenvalue problem:
     a serial algorithm will be used

     Using Slab Decomposition

     bravais-lattice index     =            0
     lattice parameter (alat)  =      11.3321  a.u.
     unit-cell volume          =    1026.3515 (a.u.)^3
     number of atoms/cell      =           10
     number of atomic types    =            4
     number of electrons       =        81.00
     number of Kohn-Sham states=           49
     kinetic-energy cutoff     =      30.0000  Ry
     charge density cutoff     =     240.0000  Ry
     scf convergence threshold =      1.0E-06
     mixing beta               =       0.7000
     number of iterations used =            8  plain     mixing
     Exchange-correlation= SLA  PW   PBX  PBC
                           (   1   4   3   4   0   0   0)

     celldm(1)=  11.332103  celldm(2)=   0.000000  celldm(3)=   0.000000
     celldm(4)=   0.000000  celldm(5)=   0.000000  celldm(6)=   0.000000

     crystal axes: (cart. coord. in units of alat)
               a(1) = (   1.000000   0.000000   0.000000 )
               a(2) = (   0.005120   0.999987   0.000000 )
               a(3) = (  -0.502560  -0.499993   0.705294 )

     reciprocal axes: (cart. coord. in units 2 pi/alat)
               b(1) = (  1.000000 -0.005121  0.708924 )
               b(2) = (  0.000000  1.000013  0.708924 )
               b(3) = (  0.000000  0.000000  1.417848 )

     PseudoPot. # 1 for Ba read from file:
     /home/pragov/projects/rrg-bengioy-ad/pragov/crystal_structure_design/SSSP/Ba.pbe-spn-kjpaw_psl.1.0.0.UPF
     MD5 check sum: c432291d3e53af55f19d5e8866385beb
     Pseudo is Projector augmented-wave + core cor, Zval = 10.0
     Generated using "atomic" code by A. Dal Corso  v.5.1
     Shape of augmentation charge: PSQ
     Using radial grid of 1251 points,  7 beta functions with:
                l(1) =   0
                l(2) =   0
                l(3) =   0
                l(4) =   1
                l(5) =   1
                l(6) =   2
                l(7) =   2
     Q(r) pseudized with 0 coefficients

     PseudoPot. # 2 for Ca read from file:
     /home/pragov/projects/rrg-bengioy-ad/pragov/crystal_structure_design/SSSP/Ca_pbe_v1.uspp.F.UPF
     MD5 check sum: 403a4c14b9e4d4dfdc3024c9a3812218
     Pseudo is Ultrasoft + core correction, Zval = 10.0
     Generated by new atomic code, or converted to UPF format
     Using radial grid of  845 points,  6 beta functions with:
                l(1) =   0
                l(2) =   0
                l(3) =   1
                l(4) =   1
                l(5) =   2
                l(6) =   2
     Q(r) pseudized with  8 coefficients,  rinner =    1.500   1.500   1.500
                                                       1.500   1.500

     PseudoPot. # 3 for Re read from file:
     /home/pragov/projects/rrg-bengioy-ad/pragov/crystal_structure_design/SSSP/Re_pbe_v1.2.uspp.F.UPF
     MD5 check sum: 85f993410f3e006da9d71c142b4ad953
     Pseudo is Ultrasoft + core correction, Zval = 15.0
     Generated by new atomic code, or converted to UPF format
     Using radial grid of  981 points,  8 beta functions with:
                l(1) =   0
                l(2) =   0
                l(3) =   1
                l(4) =   1
                l(5) =   2
                l(6) =   2
                l(7) =   3
                l(8) =   3
     Q(r) pseudized with  8 coefficients,  rinner =    1.150   1.150   1.150
                                                       1.150   1.150   1.150
                                                       1.150

     PseudoPot. # 4 for O  read from file:
     /home/pragov/projects/rrg-bengioy-ad/pragov/crystal_structure_design/SSSP/O.pbe-n-kjpaw_psl.0.1.UPF
     MD5 check sum: 0234752ac141de4415c5fc33072bef88
     Pseudo is Projector augmented-wave + core cor, Zval =  6.0
     Generated using "atomic" code by A. Dal Corso  v.5.0.99 svn rev. 10869
     Shape of augmentation charge: BESSEL
     Using radial grid of 1095 points,  4 beta functions with:
                l(1) =   0
                l(2) =   0
                l(3) =   1
                l(4) =   1
     Q(r) pseudized with 0 coefficients

     atomic species   valence    mass     pseudopotential
        Ba            10.00   137.32700     Ba( 1.00)
        Ca            10.00    40.07800     Ca( 1.00)
        Re            15.00   186.20700     Re( 1.00)
        O              6.00    15.99900     O ( 1.00)

      2 Sym. Ops., with inversion, found

                                    s                        frac. trans.

      isym =  1     identity

 cryst.   s( 1) = (     1          0          0      )
                  (     0          1          0      )
                  (     0          0          1      )

 cart.    s( 1) = (  1.0000000 -0.0000000  0.0000000 )
                  (  0.0000000  1.0000000 -0.0000000 )
                  (  0.0000000  0.0000000  1.0000000 )

      isym =  2     inversion

 cryst.   s( 2) = (    -1          0          0      )
                  (     0         -1          0      )
                  (     0          0         -1      )

 cart.    s( 2) = ( -1.0000000  0.0000000 -0.0000000 )
                  (  0.0000000 -1.0000000  0.0000000 )
                  (  0.0000000  0.0000000 -1.0000000 )

   Cartesian axes

     site n.     atom                  positions (alat units)
         1           Ba  tau(   1) = (   0.5000000  -0.0000000   0.3526470  )
         2           Ba  tau(   2) = (   0.0025602   0.4999934   0.3526470  )
         3           Ca  tau(   3) = (   0.5025602   0.4999934   0.0000000  )
         4           Re  tau(   4) = (   0.0000000   0.0000000   0.0000000  )
         5           O   tau(   5) = (   0.4807679   0.5218977   0.3828400  )
         6           O   tau(   6) = (   0.7725750   0.2285925   0.0308982  )
         7           O   tau(   7) = (  -0.2700148   0.2714009   0.6743959  )
         8           O   tau(   8) = (   0.0217923  -0.0219042   0.3224541  )
         9           O   tau(   9) = (   0.2303073   0.2291310   0.0000000  )
        10           O   tau(  10) = (   0.7748132   0.7708559   0.0000000  )

   Crystallographic axes

     site n.     atom                  positions (cryst. coord.)
         1           Ba  tau(   1) = (  0.7500000  0.2500000  0.5000000  )
         2           Ba  tau(   2) = (  0.2500000  0.7500000  0.5000000  )
         3           Ca  tau(   3) = (  0.5000000  0.5000000  0.0000000  )
         4           Re  tau(   4) = (  0.0000000  0.0000000  0.0000000  )
         5           O   tau(   5) = (  0.7495000  0.7933090  0.5428090  )
         6           O   tau(   6) = (  0.7933090  0.2505000  0.0438090  )
         7           O   tau(   7) = (  0.2066910  0.7495000  0.9561910  )
         8           O   tau(   8) = (  0.2505000  0.2066910  0.4571910  )
         9           O   tau(   9) = (  0.2291340  0.2291340  0.0000000  )
        10           O   tau(  10) = (  0.7708660  0.7708660  0.0000000  )

     number of k points=     1  Methfessel-Paxton smearing, width (Ry)=  0.0010
                       cart. coord. in units 2pi/alat
        k(    1) = (   0.0000000   0.0000000   0.0000000), wk =   2.0000000

                       cryst. coord.
        k(    1) = (   0.0000000   0.0000000   0.0000000), wk =   2.0000000

     Check: negative core charge=   -0.000009

     Initial potential from superposition of free atoms

     starting charge      80.4605, renormalised to      81.0000

     negative rho (up, down):  1.301E-01 0.000E+00
     Starting wfcs are   57 randomized atomic wfcs
     Checking if some PAW data can be deallocated...

     Self-consistent Calculation

     iteration #  1     ecut=    30.00 Ry     beta= 0.70
     Davidson diagonalization with overlap

     ethr =  1.00E-02,  avg # of iterations =  4.0

     negative rho (up, down):  1.830E-01 0.000E+00

     total energy              =   -1386.62249522 Ry
     estimated scf accuracy    <       3.19559075 Ry

[...]

     total energy              =   -1388.27481681 Ry
     estimated scf accuracy    <       0.00000370 Ry

     iteration # 25     ecut=    30.00 Ry     beta= 0.70
     Davidson diagonalization with overlap

     ethr =  2.87E-09,  avg # of iterations =  2.0

[...]

     End of self-consistent calculation

          k = 0.0000 0.0000 0.0000 (  1388 PWs)   bands (ev):

   -71.3324 -32.8690 -32.8421 -32.6835 -28.6714 -16.5696 -16.4562 -10.0737
   -10.0338  -9.9729  -8.0328  -7.6876  -6.9743  -6.8900  -6.7800  -6.4917
    -2.7352  -2.3854  -2.0502  -1.7380  -1.6126  -1.6004   5.1624   5.1948
     5.3637   5.8974   5.9749   6.1379   7.5410   7.6310   7.7643   8.6997
     8.7273   8.8247   9.2671   9.3861   9.5028   9.5858   9.6863   9.8386
    11.8006  11.8092  11.9909  13.5327  13.9074  14.6284  14.8588  14.9778
    15.0190

     occupation numbers
     1.0000   1.0000   1.0000   1.0000   1.0000   1.0000   1.0000   1.0000
     1.0000   1.0000   1.0000   1.0000   1.0000   1.0000   1.0000   1.0000
     1.0000   1.0000   1.0000   1.0000   1.0000   1.0000   1.0000   1.0000
     1.0000   1.0000   1.0000   1.0000   1.0000   1.0000   1.0000   1.0000
     1.0000   1.0000   1.0000   1.0000   1.0000   1.0000   1.0000   1.0000
     0.4532   0.0468  -0.0000  -0.0000  -0.0000  -0.0000  -0.0000  -0.0000
    -0.0000

     the Fermi energy is    11.7999 ev

!    total energy              =   -1388.27481684 Ry
     estimated scf accuracy    <       0.00000015 Ry
     smearing contrib. (-TS)   =      -0.00029213 Ry
     internal energy E=F+TS    =   -1388.27452470 Ry

     The total energy is F=E-TS. E is the sum of the following terms:
     one-electron contribution =    -168.73400740 Ry
     hartree contribution      =     132.47950974 Ry
     xc contribution           =    -150.25794924 Ry
     ewald contribution        =    -394.68050854 Ry
     one-center paw contrib.   =    -807.08156926 Ry
      -> PAW hartree energy AE =     239.78067823 Ry
      -> PAW hartree energy PS =    -238.89777635 Ry
      -> PAW xc energy AE      =    -892.11029787 Ry
      -> PAW xc energy PS      =      84.14582673 Ry
      -> total E_H with PAW    =     133.36241162 Ry
      -> total E_XC with PAW   =    -958.22242038 Ry

     convergence has been achieved in  25 iterations

     negative rho (up, down):  1.389E-01 0.000E+00

     Forces acting on atoms (cartesian axes, Ry/au):

     atom    1 type  1   force =    -0.00523007   -0.01238249    0.00486046
     atom    2 type  1   force =     0.00523007    0.01238249   -0.00486046
     atom    3 type  2   force =     0.00000000    0.00000000    0.00000000
     atom    4 type  3   force =     0.00000000    0.00000000    0.00000000
     atom    5 type  4   force =     0.01687745   -0.01865199   -0.05250573
     atom    6 type  4   force =     0.05681794   -0.06579517    0.09829065
     atom    7 type  4   force =    -0.05681794    0.06579517   -0.09829065
     atom    8 type  4   force =    -0.01687745    0.01865199    0.05250573
     atom    9 type  4   force =    -0.05616658    0.01433752   -0.00981401
     atom   10 type  4   force =     0.05616658   -0.01433752    0.00981401
     The non-local contrib.  to forces
     atom    1 type  1   force =    -0.00755468    0.00075426    0.01760057
     atom    2 type  1   force =     0.00755468   -0.00075426   -0.01760057
     atom    3 type  2   force =     0.00000000    0.00000000    0.00000000
     atom    4 type  3   force =     0.00000000    0.00000000    0.00000000
     atom    5 type  4   force =     0.03793293   -0.07148275    0.42431271
     atom    6 type  4   force =     0.36236789   -0.41095307   -0.02341082
     atom    7 type  4   force =    -0.36236789    0.41095307    0.02341082
     atom    8 type  4   force =    -0.03793293    0.07148275   -0.42431271
     atom    9 type  4   force =    -0.36726847   -0.32897286   -0.00940811
     atom   10 type  4   force =     0.36726847    0.32897286    0.00940811
     The ionic contribution  to forces
     atom    1 type  1   force =     0.00000000   -0.00000000   -0.00000000
     atom    2 type  1   force =    -0.00000000    0.00000000   -0.00000000
     atom    3 type  2   force =    -0.00000000    0.00000000   -0.00000000
     atom    4 type  3   force =    -0.00000000   -0.00000000   -0.00000000
     atom    5 type  4   force =    -0.65519441    0.65855796   -8.39697000
     atom    6 type  4   force =    -5.92233333    5.95273661    0.92896625
     atom    7 type  4   force =     5.92233333   -5.95273661   -0.92896625
     atom    8 type  4   force =     0.65519441   -0.65855796    8.39697000
     atom    9 type  4   force =     5.93285849    5.90255674    0.00000000
     atom   10 type  4   force =    -5.93285850   -5.90255674    0.00000000
     The local contribution  to forces
     atom    1 type  1   force =     0.00339134   -0.01163865   -0.01217106
     atom    2 type  1   force =    -0.00278004    0.01213727    0.01252768
     atom    3 type  2   force =     0.00002742    0.00000595   -0.00000409
     atom    4 type  3   force =    -0.00001217    0.00000910    0.00001743
     atom    5 type  4   force =     0.63408406   -0.60571444    7.92579002
     atom    6 type  4   force =     5.62048014   -5.61199903   -0.80871076
     atom    7 type  4   force =    -5.62048218    5.61201352    0.80871570
     atom    8 type  4   force =    -0.63407707    0.60572022   -7.92579021
     atom    9 type  4   force =    -5.62497349   -5.56318017   -0.00059452
     atom   10 type  4   force =     5.62496193    5.56316055    0.00060450
     The core correction contribution to forces
     atom    1 type  1   force =    -0.00075746   -0.00123184   -0.00040127
     atom    2 type  1   force =     0.00078116    0.00124474    0.00041725
     atom    3 type  2   force =     0.00000018    0.00000006    0.00000004
     atom    4 type  3   force =    -0.00000001    0.00000038    0.00000061
     atom    5 type  4   force =     0.00005300   -0.00001096   -0.00563773
     atom    6 type  4   force =    -0.00371059    0.00443099    0.00144621
     atom    7 type  4   force =     0.00371054   -0.00443099   -0.00144623
     atom    8 type  4   force =    -0.00005297    0.00001090    0.00563771
     atom    9 type  4   force =     0.00321871    0.00392122    0.00019709
     atom   10 type  4   force =    -0.00321868   -0.00392129   -0.00019708
     The Hubbard contrib.    to forces
     atom    1 type  1   force =     0.00000000    0.00000000    0.00000000
     atom    2 type  1   force =     0.00000000    0.00000000    0.00000000
     atom    3 type  2   force =     0.00000000    0.00000000    0.00000000
     atom    4 type  3   force =     0.00000000    0.00000000    0.00000000
     atom    5 type  4   force =     0.00000000    0.00000000    0.00000000
     atom    6 type  4   force =     0.00000000    0.00000000    0.00000000
     atom    7 type  4   force =     0.00000000    0.00000000    0.00000000
     atom    8 type  4   force =     0.00000000    0.00000000    0.00000000
     atom    9 type  4   force =     0.00000000    0.00000000    0.00000000
     atom   10 type  4   force =     0.00000000    0.00000000    0.00000000
     The SCF correction term to forces
     atom    1 type  1   force =    -0.00002466   -0.00003779    0.00000116
     atom    2 type  1   force =    -0.00004111   -0.00001678   -0.00003587
     atom    3 type  2   force =    -0.00002608   -0.00000614    0.00000466
     atom    4 type  3   force =     0.00001818   -0.00001296   -0.00002507
     atom    5 type  4   force =     0.00000220   -0.00000469   -0.00000041
     atom    6 type  4   force =     0.00001013   -0.00001036   -0.00000073
     atom    7 type  4   force =    -0.00001545   -0.00000352   -0.00000519
     atom    8 type  4   force =    -0.00000856   -0.00000681    0.00000125
     atom    9 type  4   force =    -0.00000054    0.00000998   -0.00000838
     atom   10 type  4   force =     0.00001464    0.00000450   -0.00000144

     Total force =     0.220312     Total SCF correction =     0.000091

     Computing stress (Cartesian axis) and pressure

     negative rho (up, down):  1.389E-01 0.000E+00
          total   stress  (Ry/bohr**3)                   (kbar)     P=     -118.05
  -0.00102302  -0.00065082  -0.00020587         -150.49      -95.74      -30.29
  -0.00065082  -0.00072106   0.00018385          -95.74     -106.07       27.04
  -0.00020587   0.00018385  -0.00066337          -30.29       27.04      -97.58

     kinetic stress (kbar)  20368.06     37.59     63.82
                               37.59  20350.89    -64.15
                               63.82    -64.15  20368.08

     local   stress (kbar)  -4466.57   -166.19   -116.72
                             -166.19  -4400.86    112.64
                             -116.72    112.64  -4423.21

     nonloc. stress (kbar)   1452.59     -2.17     -3.82
                               -2.17   1466.00     -3.07
                               -3.82     -3.07   1446.08

     hartree stress (kbar)   6323.84     16.69     29.43
                               16.69   6304.52    -22.34
                               29.43    -22.34   6359.68

     exc-cor stress (kbar)   4519.22      1.49      1.14
                                1.49   4518.16     -0.79
                                1.14     -0.79   4518.52

     corecor stress (kbar)  -9498.61     -4.59     -4.14
                               -4.59  -9495.54      4.77
                               -4.14      4.77  -9496.16

     ewald   stress (kbar) -18849.02     21.45      0.00
                               21.45 -18849.24     -0.00
                                0.00     -0.00 -18870.58

     hubbard stress (kbar)      0.00      0.00      0.00
                                0.00      0.00      0.00
                                0.00      0.00      0.00

     DFT-D   stress (kbar)      0.00      0.00      0.00
                                0.00      0.00      0.00
                                0.00      0.00      0.00

     XDM     stress (kbar)      0.00      0.00      0.00
                                0.00      0.00      0.00
                                0.00      0.00      0.00

     dft-nl  stress (kbar)      0.00      0.00      0.00
                                0.00      0.00      0.00
                                0.00      0.00      0.00

     TS-vdW  stress (kbar)      0.00      0.00      0.00
                                0.00      0.00      0.00
                                0.00      0.00      0.00

[...]

                                0.00      0.00      0.00

     Writing all to output data dir new_calculations/myprefix.save/

     General routines

     Parallel routines

     PAW routines

   This run was terminated on:  21:15:57  20May2023

   JOB DONE.