     Program PWSCF v.7.0 starts on 21May2023 at  5: 5:46

     Reading input from espresso_6827.pwi
Warning: card &CELL ignored
Warning: card / ignored

     Current dimensions of program PWSCF are:
     Max number of different atomic species (ntypx) = 10
     Max number of k-points (npk) =  40000
     Max angular momentum in pseudopotentials (lmaxx) =  4

     gamma-point specific algorithms are used
     Message from routine setup:
     using ibrav=0 with symmetry is DISCOURAGED, use correct ibrav instead

     Subspace diagonalization in iterative solution of the eigenvalue problem:
     a serial algorithm will be used

     Using Slab Decomposition

     bravais-lattice index     =            0
     lattice parameter (alat)  =      11.3574  a.u.
     unit-cell volume          =     642.7919 (a.u.)^3
     number of atoms/cell      =            5
     number of atomic types    =            4
     number of electrons       =        70.00
     number of Kohn-Sham states=           42
     kinetic-energy cutoff     =      30.0000  Ry
     charge density cutoff     =     240.0000  Ry
     scf convergence threshold =      1.0E-06
     mixing beta               =       0.7000
     number of iterations used =            8  plain     mixing
     Exchange-correlation= PBE
                           (   1   4   3   4   0   0   0)

     celldm(1)=  11.357382  celldm(2)=   0.000000  celldm(3)=   0.000000
     celldm(4)=   0.000000  celldm(5)=   0.000000  celldm(6)=   0.000000

     crystal axes: (cart. coord. in units of alat)
               a(1) = (   1.000000   0.000000   0.000000 )
               a(2) = (   0.491996   0.870597   0.000000 )
               a(3) = (  -0.745998  -0.435299   0.503986 )

     reciprocal axes: (cart. coord. in units 2 pi/alat)
               b(1) = (  1.000000 -0.565125  0.992091 )
               b(2) = (  0.000000  1.148637  0.992091 )
               b(3) = (  0.000000  0.000000  1.984182 )

     PseudoPot. # 1 for La read from file:
     /home/pragov/projects/rrg-bengioy-ad/pragov/crystal_structure_design/SSSP/La.GGA-PBE-paw-v1.0.UPF
     MD5 check sum: 436541e95c1ad8901025bd0b0ed42ae2
     Pseudo is Projector augmented-wave + core cor, Zval = 11.0
     Generated using ATOMPAW code
     Shape of augmentation charge: BESSEL
     Using radial grid of 1101 points,  8 beta functions with:
                l(1) =   0
                l(2) =   0
                l(3) =   1
                l(4) =   1
                l(5) =   2
                l(6) =   2
                l(7) =   3
                l(8) =   3
     Q(r) pseudized with 0 coefficients

     PseudoPot. # 2 for Ge read from file:
     /home/pragov/projects/rrg-bengioy-ad/pragov/crystal_structure_design/SSSP/ge_pbe_v1.4.uspp.F.UPF
     MD5 check sum: 9c9eaa91e581c3f09632fb3098b2c6b2
     Pseudo is Ultrasoft + core correction, Zval = 14.0
     Generated by new atomic code, or converted to UPF format
     Using radial grid of  873 points,  6 beta functions with:
                l(1) =   0
                l(2) =   0
                l(3) =   1
                l(4) =   1
                l(5) =   2
                l(6) =   2
     Q(r) pseudized with  8 coefficients,  rinner =    1.400   1.400   1.400
                                                       1.400   1.400

     PseudoPot. # 3 for Ir read from file:
     /home/pragov/projects/rrg-bengioy-ad/pragov/crystal_structure_design/SSSP/Ir_pbe_v1.2.uspp.F.UPF
     MD5 check sum: 8836f839c3459d2b385c504ce6d91f2c
     Pseudo is Ultrasoft + core correction, Zval = 15.0
     Generated by new atomic code, or converted to UPF format
     Using radial grid of  983 points,  7 beta functions with:
                l(1) =   0
                l(2) =   0
                l(3) =   1
                l(4) =   1
                l(5) =   1
                l(6) =   2
                l(7) =   2
     Q(r) pseudized with  8 coefficients,  rinner =    1.400   1.400   1.400
                                                       1.400   1.400

     PseudoPot. # 4 for Ru read from file:
     /home/pragov/projects/rrg-bengioy-ad/pragov/crystal_structure_design/SSSP/Ru_ONCV_PBE-1.0.oncvpsp.upf
     MD5 check sum: be037bb81c227cfb9b1461a9f099f4bd
     Pseudo is Norm-conserving, Zval = 16.0
     Generated using ONCVPSP code by D. R. Hamann
     Using radial grid of 1458 points,  6 beta functions with:
                l(1) =   0
                l(2) =   0
                l(3) =   1
                l(4) =   1
                l(5) =   2
                l(6) =   2

     atomic species   valence    mass     pseudopotential
        La            11.00   138.90547     La( 1.00)
        Ge            14.00    72.63000     Ge( 1.00)
        Ir            15.00   192.21700     Ir( 1.00)
        Ru            16.00   101.07000     Ru( 1.00)

      2 Sym. Ops. (no inversion) found

                                    s                        frac. trans.

      isym =  1     identity

 cryst.   s( 1) = (     1          0          0      )
                  (     0          1          0      )
                  (     0          0          1      )

 cart.    s( 1) = (  1.0000000  0.0000000  0.0000000 )
                  (  0.0000000  1.0000000  0.0000000 )
                  (  0.0000000  0.0000000  1.0000000 )

      isym =  2     180 deg rotation - cart. axis [0,0,1]

 cryst.   s( 2) = (    -1          0          0      )
                  (     0         -1          0      )
                  (     1          1          1      )

 cart.    s( 2) = ( -1.0000000 -0.0000000 -0.0000000 )
                  (  0.0000000 -1.0000000 -0.0000000 )
                  (  0.0000000  0.0000000  1.0000000 )

   Cartesian axes

     site n.     atom                  positions (alat units)
         1           La  tau(   1) = (   0.0000000   0.0000000   0.0000000  )
         2           Ge  tau(   2) = (   0.9404382   0.5487566   0.0000000  )
         3           Ge  tau(   3) = (   0.5515583   0.3218406   0.0000000  )
         4           Ir  tau(   4) = (   0.2459982   0.4352986   0.2519930  )
         5           Ru  tau(   5) = (   0.5000000   0.0000000   0.2519930  )

   Crystallographic axes

     site n.     atom                  positions (cryst. coord.)
         1           La  tau(   1) = (  0.0000000  0.0000000  0.0000000  )
         2           Ge  tau(   2) = (  0.6303220  0.6303220  0.0000000  )
         3           Ge  tau(   3) = (  0.3696780  0.3696780  0.0000000  )
         4           Ir  tau(   4) = (  0.2500000  0.7500000  0.5000000  )
         5           Ru  tau(   5) = (  0.7500000  0.2500000  0.5000000  )

     number of k points=     1  Methfessel-Paxton smearing, width (Ry)=  0.0010
                       cart. coord. in units 2pi/alat
        k(    1) = (   0.0000000   0.0000000   0.0000000), wk =   2.0000000

                       cryst. coord.
        k(    1) = (   0.0000000   0.0000000   0.0000000), wk =   2.0000000

     Check: negative core charge=   -0.000001

     Initial potential from superposition of free atoms

     starting charge      69.4891, renormalised to      70.0000

     negative rho (up, down):  3.678E-01 0.000E+00
     Starting wfcs are   72 randomized atomic wfcs
     Checking if some PAW data can be deallocated...

     Self-consistent Calculation

     iteration #  1     ecut=    30.00 Ry     beta= 0.70
     Davidson diagonalization with overlap

     ethr =  1.00E-02,  avg # of iterations =  2.0

     negative rho (up, down):  2.721E-01 0.000E+00

     total energy              =   -1252.52092593 Ry
     estimated scf accuracy    <       4.43941176 Ry

[...]

     total energy              =   -1255.72490683 Ry
     estimated scf accuracy    <       0.00000367 Ry

     iteration # 28     ecut=    30.00 Ry     beta= 0.70
     Davidson diagonalization with overlap

     ethr =  5.24E-09,  avg # of iterations =  1.0

[...]

     End of self-consistent calculation

          k = 0.0000 0.0000 0.0000 (   875 PWs)   bands (ev):

   -56.3038 -33.2013 -33.1965 -32.6714 -26.6338 -26.5999 -25.8341 -16.7561
    -8.6043  -8.5607  -8.5458  -8.5181  -8.4933  -8.4905  -8.4361  -8.4268
    -8.4098  -8.3849  -0.6449  -0.6435  -0.2331   4.6730   7.2422   9.7791
    11.5777  11.7752  11.7768  13.2027  13.7313  13.7433  14.1553  15.0167
    15.0326  15.1136  15.2637  15.2892  16.2931  17.2906  17.2911  18.0760
    18.1510  18.2617

     occupation numbers
     1.0000   1.0000   1.0000   1.0000   1.0000   1.0000   1.0000   1.0000
     1.0000   1.0000   1.0000   1.0000   1.0000   1.0000   1.0000   1.0000
     1.0000   1.0000   1.0000   1.0000   1.0000   1.0000   1.0000   1.0000
     1.0000   1.0000   1.0000   1.0000   1.0000   1.0000   1.0000   1.0000
     1.0000   1.0000   1.0173  -0.0173  -0.0000  -0.0000  -0.0000  -0.0000
    -0.0000  -0.0000

     the Fermi energy is    15.2764 ev

!    total energy              =   -1255.72490680 Ry
     estimated scf accuracy    <       0.00000012 Ry
     smearing contrib. (-TS)   =       0.00017714 Ry
     internal energy E=F+TS    =   -1255.72508394 Ry

     The total energy is F=E-TS. E is the sum of the following terms:
     one-electron contribution =    -374.56175311 Ry
     hartree contribution      =     245.57863291 Ry
     xc contribution           =    -196.01973762 Ry
     ewald contribution        =    -532.64525895 Ry
     one-center paw contrib.   =    -398.07696715 Ry
      -> PAW hartree energy AE =      35.48786942 Ry
      -> PAW hartree energy PS =     -35.51922930 Ry
      -> PAW xc energy AE      =    -405.41924882 Ry
      -> PAW xc energy PS      =       7.37364156 Ry
      -> total E_H with PAW    =     245.54727302 Ry
      -> total E_XC with PAW   =    -594.06534489 Ry

     convergence has been achieved in  28 iterations

     negative rho (up, down):  3.259E-01 0.000E+00

     Forces acting on atoms (cartesian axes, Ry/au):

     atom    1 type  1   force =     0.00000000    0.00000000   -0.00012399
     atom    2 type  2   force =     0.04716043    0.02690123   -0.00015982
     atom    3 type  2   force =    -0.04716043   -0.02690123   -0.00015982
     atom    4 type  3   force =     0.00000000    0.00000000   -0.00132187
     atom    5 type  4   force =     0.00000000    0.00000000    0.00176550
     The non-local contrib.  to forces
     atom    1 type  1   force =     0.00000000    0.00000000    0.00030357
     atom    2 type  2   force =     0.26536967    0.15648801   -0.00072311
     atom    3 type  2   force =    -0.26536967   -0.15648801   -0.00072311
     atom    4 type  3   force =     0.00000000    0.00000000   -0.00019125
     atom    5 type  4   force =     0.00000000    0.00000000   -0.00142634
     The ionic contribution  to forces
     atom    1 type  1   force =    -0.00000000   -0.00000000    0.00000000
     atom    2 type  2   force =   -15.18078894   -8.85816649   -0.00000000
     atom    3 type  2   force =    15.18078894    8.85816649    0.00000000
     atom    4 type  3   force =     0.00000000   -0.00000000   -0.00000000
     atom    5 type  4   force =     0.00000000    0.00000000   -0.00000000
     The local contribution  to forces
     atom    1 type  1   force =    -0.00006268   -0.00019767   -0.00037721
     atom    2 type  2   force =    14.95952741    8.72701344    0.00137875
     atom    3 type  2   force =   -14.96207370   -8.72837521   -0.00021590
     atom    4 type  3   force =     0.00096667   -0.00027357   -0.00065121
     atom    5 type  4   force =    -0.00107189    0.00008761    0.00324206
     The core correction contribution to forces
     atom    1 type  1   force =    -0.00000005   -0.00000023   -0.00000045
     atom    2 type  2   force =     0.00130110    0.00059130    0.00004644
     atom    3 type  2   force =    -0.00149603   -0.00073760    0.00001594
     atom    4 type  3   force =    -0.00007351    0.00001209   -0.00040821
     atom    5 type  4   force =     0.00000000    0.00000000    0.00000000
     The Hubbard contrib.    to forces
     atom    1 type  1   force =     0.00000000    0.00000000    0.00000000
     atom    2 type  2   force =     0.00000000    0.00000000    0.00000000
     atom    3 type  2   force =     0.00000000    0.00000000    0.00000000
     atom    4 type  3   force =     0.00000000    0.00000000    0.00000000
     atom    5 type  4   force =     0.00000000    0.00000000    0.00000000
     The SCF correction term to forces
     atom    1 type  1   force =    -0.00001603   -0.00000703    0.00000672
     atom    2 type  2   force =     0.00038579    0.00021587    0.00001106
     atom    3 type  2   force =    -0.00037537   -0.00022601    0.00000353
     atom    4 type  3   force =     0.00000173    0.00000777   -0.00001457
     atom    5 type  4   force =    -0.00002756   -0.00001088    0.00000639

     Total force =     0.076815     Total SCF correction =     0.000624

     Computing stress (Cartesian axis) and pressure

     negative rho (up, down):  3.259E-01 0.000E+00
          total   stress  (Ry/bohr**3)                   (kbar)     P=        3.75
   0.00014343   0.00016068   0.00000000           21.10       23.64        0.00
   0.00016068   0.00001673   0.00000000           23.64        2.46        0.00
   0.00000000   0.00000000  -0.00008369            0.00        0.00      -12.31

     kinetic stress (kbar)  24583.88    498.35      0.00
                              498.35  23990.24      0.00
                                0.00      0.00  23714.80

     local   stress (kbar)  14421.24  14789.02     -2.13
                            14789.02  -2275.46      1.29
                               -2.13      1.29 -10914.39

     nonloc. stress (kbar)   6372.83      5.46      0.00
                                5.46   6398.68      0.00
                                0.00      0.00   6385.61

     hartree stress (kbar)  12369.67  -6720.69      0.08
                            -6720.69  19953.81      0.44
                                0.08      0.44  23878.01

     exc-cor stress (kbar)  12911.48      3.85     -0.03
                                3.85  12906.68      0.05
                               -0.03      0.05  12904.46

     corecor stress (kbar) -21896.10      1.78     -0.01
                                1.78 -21897.90      0.09
                               -0.01      0.09 -21898.65

     ewald   stress (kbar) -48741.91  -8554.14     -0.00
                            -8554.14 -39073.59     -0.00
                               -0.00     -0.00 -34082.15

     hubbard stress (kbar)      0.00      0.00      0.00
                                0.00      0.00      0.00
                                0.00      0.00      0.00

     DFT-D   stress (kbar)      0.00      0.00      0.00
                                0.00      0.00      0.00
                                0.00      0.00      0.00

     XDM     stress (kbar)      0.00      0.00      0.00
                                0.00      0.00      0.00
                                0.00      0.00      0.00

     dft-nl  stress (kbar)      0.00      0.00      0.00
                                0.00      0.00      0.00
                                0.00      0.00      0.00

     TS-vdW  stress (kbar)      0.00      0.00      0.00
                                0.00      0.00      0.00
                                0.00      0.00      0.00

[...]

                                0.00      0.00      0.00

     Writing all to output data dir new_calculations/myprefix.save/

     General routines

     Parallel routines

     PAW routines

   This run was terminated on:   5: 6:17  21May2023

   JOB DONE.