     Program PWSCF v.7.0 starts on 20May2023 at  7:49:42

     Reading input from espresso_3266.pwi
Warning: card &CELL ignored
Warning: card / ignored

     Current dimensions of program PWSCF are:
     Max number of different atomic species (ntypx) = 10
     Max number of k-points (npk) =  40000
     Max angular momentum in pseudopotentials (lmaxx) =  4

     gamma-point specific algorithms are used
     Message from routine setup:
     using ibrav=0 with symmetry is DISCOURAGED, use correct ibrav instead

     Subspace diagonalization in iterative solution of the eigenvalue problem:
     a serial algorithm will be used

     Using Slab Decomposition

     bravais-lattice index     =            0
     lattice parameter (alat)  =      13.4577  a.u.
     unit-cell volume          =    1723.4601 (a.u.)^3
     number of atoms/cell      =            9
     number of atomic types    =            3
     number of electrons       =        82.00
     number of Kohn-Sham states=           49
     kinetic-energy cutoff     =      30.0000  Ry
     charge density cutoff     =     240.0000  Ry
     scf convergence threshold =      1.0E-06
     mixing beta               =       0.7000
     number of iterations used =            8  plain     mixing
     Exchange-correlation=  SLA  PW   PBX  PBC
                           (   1   4   3   4   0   0   0)

     celldm(1)=  13.457738  celldm(2)=   0.000000  celldm(3)=   0.000000
     celldm(4)=   0.000000  celldm(5)=   0.000000  celldm(6)=   0.000000

     crystal axes: (cart. coord. in units of alat)
               a(1) = (   1.000000   0.000000   0.000000 )
               a(2) = (   0.500000   0.866025   0.000000 )
               a(3) = (   0.500000   0.288675   0.816497 )

     reciprocal axes: (cart. coord. in units 2 pi/alat)
               b(1) = (  1.000000 -0.577350 -0.408248 )
               b(2) = (  0.000000  1.154701 -0.408248 )
               b(3) = (  0.000000  0.000000  1.224745 )

     PseudoPot. # 1 for Tl read from file:
     /home/pragov/projects/rrg-bengioy-ad/pragov/crystal_structure_design/SSSP/Tl_pbe_v1.2.uspp.F.UPF
     MD5 check sum: b76cf1f7e72655a2b2c53cf6385d7059
     Pseudo is Ultrasoft + core correction, Zval = 13.0
     Generated by new atomic code, or converted to UPF format
     Using radial grid of  899 points,  6 beta functions with:
                l(1) =   0
                l(2) =   0
                l(3) =   1
                l(4) =   1
                l(5) =   2
                l(6) =   2
     Q(r) pseudized with  6 coefficients,  rinner =    1.100   1.100   1.100
                                                       1.100   1.100

     PseudoPot. # 2 for W  read from file:
     /home/pragov/projects/rrg-bengioy-ad/pragov/crystal_structure_design/SSSP/W_pbe_v1.2.uspp.F.UPF
     MD5 check sum: 9c083fa34c2a2ea0f02f1f893e16e1c8
     Pseudo is Ultrasoft + core correction, Zval = 14.0
     Generated by new atomic code, or converted to UPF format
     Using radial grid of  923 points,  8 beta functions with:
                l(1) =   0
                l(2) =   0
                l(3) =   0
                l(4) =   1
                l(5) =   1
                l(6) =   2
                l(7) =   2
                l(8) =   3
     Q(r) pseudized with  6 coefficients,  rinner =    1.350   1.350   1.350
                                                       1.350   1.350   1.350
                                                       1.350

     PseudoPot. # 3 for Cl read from file:
     /home/pragov/projects/rrg-bengioy-ad/pragov/crystal_structure_design/SSSP/cl_pbe_v1.4.uspp.F.UPF
     MD5 check sum: fc6f6913ecf08c9257cb748ef0700058
     Pseudo is Ultrasoft + core correction, Zval =  7.0
     Generated by new atomic code, or converted to UPF format
     Using radial grid of  909 points,  6 beta functions with:
                l(1) =   0
                l(2) =   0
                l(3) =   1
                l(4) =   1
                l(5) =   2
                l(6) =   2
     Q(r) pseudized with  8 coefficients,  rinner =    1.300   1.300   1.300
                                                       1.300   1.300

     atomic species   valence    mass     pseudopotential
        Tl            13.00   204.38000     Tl( 1.00)
        W             14.00   183.84000     W ( 1.00)
        Cl             7.00    35.45000     Cl( 1.00)

     12 Sym. Ops., with inversion, found

                                    s                        frac. trans.

      isym =  1     identity

 cryst.   s( 1) = (     1          0          0      )
                  (     0          1          0      )
                  (     0          0          1      )

 cart.    s( 1) = (  1.0000000  0.0000000  0.0000000 )
                  (  0.0000000  1.0000000  0.0000000 )
                  (  0.0000000  0.0000000  1.0000000 )

      isym =  2     180 deg rotation - cart. axis [1,0,0]

[...]

      isym =  3     120 deg rotation - cryst. axis [0,0,1]

[...]

      isym =  6     180 deg rotation - cryst. axis [1,1,0]

[...]

      isym =  7     inversion

[...]

      isym =  8     inv. 180 deg rotation - cart. axis [1,0,0]

[...]

      isym =  9     inv. 120 deg rotation - cryst. axis [0,0,1]

 cryst.   s( 9) = (     1         -1          0      )
                  (     1          0          0      )
                  (     1          0         -1      )

 cart.    s( 9) = (  0.5000000  0.8660254 -0.0000000 )
                  ( -0.8660254  0.5000000 -0.0000000 )
                  (  0.0000000  0.0000000 -1.0000000 )

[...]

 cryst.   s(10) = (     0          1          0      )
                  (    -1          1          0      )
                  (     0          1         -1      )

 cart.    s(10) = (  0.5000000 -0.8660254  0.0000000 )
                  (  0.8660254  0.5000000 -0.0000000 )
                  (  0.0000000  0.0000000 -1.0000000 )

[...]

      isym = 12     inv. 180 deg rotation - cryst. axis [1,1,0]

 cryst.   s(12) = (     1         -1          0      )
                  (     0         -1          0      )
                  (     0         -1          1      )

 cart.    s(12) = (  0.5000000 -0.8660254  0.0000000 )
                  ( -0.8660254 -0.5000000  0.0000000 )
                  (  0.0000000  0.0000000  1.0000000 )

   Cartesian axes

     site n.     atom                  positions (alat units)
         1           Tl  tau(   1) = (   0.5000000   0.2886751   0.2041241  )
         2           Tl  tau(   2) = (   1.5000000   0.8660254   0.6123724  )
         3           W   tau(   3) = (   0.0000000   0.0000000   0.0000000  )
         4           Cl  tau(   4) = (   0.7375590   0.7288707   0.1939661  )
         5           Cl  tau(   5) = (   1.0000000   0.8803910   0.6225305  )
         6           Cl  tau(   6) = (   1.0000000   0.2743095   0.1939661  )
         7           Cl  tau(   7) = (   1.2624410   0.7288707   0.1939661  )
         8           Cl  tau(   8) = (   0.7375590   0.4258299   0.6225305  )
         9           Cl  tau(   9) = (   1.2624410   0.4258299   0.6225305  )

   Crystallographic axes

     site n.     atom                  positions (cryst. coord.)
         1           Tl  tau(   1) = (  0.2500000  0.2500000  0.2500000  )
         2           Tl  tau(   2) = (  0.7500000  0.7500000  0.7500000  )
         3           W   tau(   3) = (  0.0000000  0.0000000  0.0000000  )
         4           Cl  tau(   4) = (  0.2375590  0.7624410  0.2375590  )
         5           Cl  tau(   5) = (  0.2375590  0.7624410  0.7624410  )
         6           Cl  tau(   6) = (  0.7624410  0.2375590  0.2375590  )
         7           Cl  tau(   7) = (  0.7624410  0.7624410  0.2375590  )
         8           Cl  tau(   8) = (  0.2375590  0.2375590  0.7624410  )
         9           Cl  tau(   9) = (  0.7624410  0.2375590  0.7624410  )

     number of k points=     1  Methfessel-Paxton smearing, width (Ry)=  0.0010
                       cart. coord. in units 2pi/alat
        k(    1) = (   0.0000000   0.0000000   0.0000000), wk =   2.0000000

                       cryst. coord.
        k(    1) = (   0.0000000   0.0000000   0.0000000), wk =   2.0000000

     Check: negative core charge=   -0.000004

     Initial potential from superposition of free atoms

     starting charge      81.8899, renormalised to      82.0000

     negative rho (up, down):  2.565E-01 0.000E+00
     Starting wfcs are   55 randomized atomic wfcs

     Self-consistent Calculation

     iteration #  1     ecut=    30.00 Ry     beta= 0.70
     Davidson diagonalization with overlap

     ethr =  1.00E-02,  avg # of iterations =  2.0

     Threshold (ethr) on eigenvalues was too large:
     Diagonalizing with lowered threshold

     Davidson diagonalization with overlap

[...]

     negative rho (up, down):  2.578E-01 0.000E+00

     total energy              =    -649.24051803 Ry
     estimated scf accuracy    <       0.36787329 Ry

[...]

     total energy              =    -649.40291383 Ry
     estimated scf accuracy    <       0.00000181 Ry

     iteration # 18     ecut=    30.00 Ry     beta= 0.70
     Davidson diagonalization with overlap

     ethr =  2.21E-09,  avg # of iterations =  1.0

[...]

     End of self-consistent calculation

          k = 0.0000 0.0000 0.0000 (  2407 PWs)   bands (ev):

   -70.1341 -34.2949 -34.2949 -34.2948 -10.7139  -9.9527  -9.9527  -9.9288
    -9.9287  -9.9287  -5.8996  -5.8996  -5.8952  -5.8952  -5.8951  -5.8869
    -5.8869  -5.8810  -5.8810  -5.8809  -1.0010   0.1335   0.1335   0.1335
     0.2825   0.3255   0.3409   0.3409   0.6474   0.6474   0.6474   2.3133
     2.3133   2.3133   2.6122   2.6122   2.6122   3.0712   3.0712   3.0712
     5.2564   5.2564   5.2564   8.8868   8.8869   9.5922   9.5922   9.5923
     9.7904

     occupation numbers
     1.0000   1.0000   1.0000   1.0000   1.0000   1.0000   1.0000   1.0000
     1.0000   1.0000   1.0000   1.0000   1.0000   1.0000   1.0000   1.0000
     1.0000   1.0000   1.0000   1.0000   1.0000   1.0000   1.0000   1.0000
     1.0000   1.0000   1.0000   1.0000   1.0000   1.0000   1.0000   1.0000
     1.0000   1.0000   1.0000   1.0000   1.0000   1.0000   1.0000   1.0000
     0.3346   0.3332   0.3322  -0.0000  -0.0000  -0.0000  -0.0000  -0.0000
    -0.0000

     the Fermi energy is     5.2537 ev

!    total energy              =    -649.40291372 Ry
     estimated scf accuracy    <       0.00000040 Ry
     smearing contrib. (-TS)   =      -0.00074671 Ry
     internal energy E=F+TS    =    -649.40216700 Ry

     The total energy is F=E-TS. E is the sum of the following terms:
     one-electron contribution =    -201.66879658 Ry
     hartree contribution      =     138.05117662 Ry
     xc contribution           =    -221.71172783 Ry
     ewald contribution        =    -364.07281922 Ry

     convergence has been achieved in  18 iterations

     negative rho (up, down):  2.549E-01 0.000E+00

     Forces acting on atoms (cartesian axes, Ry/au):

     atom    1 type  1   force =     0.00000000    0.00000000   -0.00003813
     atom    2 type  1   force =     0.00000000    0.00000000    0.00003813
     atom    3 type  2   force =     0.00000000    0.00000000   -0.00000000
     atom    4 type  3   force =    -0.00801036    0.00462478   -0.00654718
     atom    5 type  3   force =     0.00000000    0.00924957    0.00654718
     atom    6 type  3   force =     0.00000000   -0.00924957   -0.00654718
     atom    7 type  3   force =     0.00801036    0.00462478   -0.00654718
     atom    8 type  3   force =    -0.00801036   -0.00462478    0.00654718
     atom    9 type  3   force =     0.00801036   -0.00462478    0.00654718
     The non-local contrib.  to forces
     atom    1 type  1   force =     0.00000000   -0.00000000   -0.00002304
     atom    2 type  1   force =     0.00000000    0.00000000    0.00002304
     atom    3 type  2   force =     0.00000000    0.00000000   -0.00000000
     atom    4 type  3   force =    -0.14035351    0.08103314   -0.11458927
     atom    5 type  3   force =     0.00000000    0.16206628    0.11458927
     atom    6 type  3   force =     0.00000000   -0.16206628   -0.11458927
     atom    7 type  3   force =     0.14035351    0.08103314   -0.11458927
     atom    8 type  3   force =    -0.14035351   -0.08103314    0.11458927
     atom    9 type  3   force =     0.14035351   -0.08103314    0.11458927
     The ionic contribution  to forces
     atom    1 type  1   force =     0.00000000    0.00000000   -0.00000000
     atom    2 type  1   force =    -0.00000000   -0.00000000    0.00000000
     atom    3 type  2   force =    -0.00000000   -0.00000000    0.00000000
     atom    4 type  3   force =     6.25012162   -3.60850940    5.10320293
     atom    5 type  3   force =     0.00000000   -7.21701880   -5.10320293
     atom    6 type  3   force =    -0.00000000    7.21701880    5.10320293
     atom    7 type  3   force =    -6.25012162   -3.60850940    5.10320293
     atom    8 type  3   force =     6.25012162    3.60850940   -5.10320293
     atom    9 type  3   force =    -6.25012162    3.60850940   -5.10320293
     The local contribution  to forces
     atom    1 type  1   force =     0.00001862    0.00001021    0.00004254
     atom    2 type  1   force =     0.00001040   -0.00000643   -0.00003439
     atom    3 type  2   force =    -0.00000301    0.00000052    0.00000692
     atom    4 type  3   force =    -6.12075818    3.53381466   -4.99754247
     atom    5 type  3   force =     0.00000896    7.06761301    4.99751470
     atom    6 type  3   force =    -0.00002004   -7.06761232   -4.99751326
     atom    7 type  3   force =     6.12080440    3.53386300   -4.99757704
     atom    8 type  3   force =    -6.12079858   -3.53386375    4.99756246
     atom    9 type  3   force =     6.12075024   -3.53382341    4.99754881
     The core correction contribution to forces
     atom    1 type  1   force =    -0.00000165   -0.00000065   -0.00000261
     atom    2 type  1   force =     0.00000414    0.00000061    0.00000385
     atom    3 type  2   force =    -0.00000017    0.00000068    0.00000094
     atom    4 type  3   force =     0.00282804   -0.00163352    0.00230897
     atom    5 type  3   force =    -0.00000047   -0.00326275   -0.00230612
     atom    6 type  3   force =     0.00000002    0.00326216    0.00230629
     atom    7 type  3   force =    -0.00282860   -0.00163300    0.00230923
     atom    8 type  3   force =     0.00282811    0.00163314   -0.00231016
     atom    9 type  3   force =    -0.00282794    0.00163287   -0.00230801
     The Hubbard contrib.    to forces
     atom    1 type  1   force =     0.00000000    0.00000000    0.00000000
     atom    2 type  1   force =     0.00000000    0.00000000    0.00000000
     atom    3 type  2   force =     0.00000000    0.00000000    0.00000000
     atom    4 type  3   force =     0.00000000    0.00000000    0.00000000
     atom    5 type  3   force =     0.00000000    0.00000000    0.00000000
     atom    6 type  3   force =     0.00000000    0.00000000    0.00000000
     atom    7 type  3   force =     0.00000000    0.00000000    0.00000000
     atom    8 type  3   force =     0.00000000    0.00000000    0.00000000
     atom    9 type  3   force =     0.00000000    0.00000000    0.00000000
     The SCF correction term to forces
     atom    1 type  1   force =    -0.00003209    0.00000035   -0.00005489
     atom    2 type  1   force =     0.00001525   -0.00000042    0.00004575
     atom    3 type  2   force =    -0.00000246    0.00001179   -0.00001750
     atom    4 type  3   force =     0.00018149   -0.00010467    0.00009749
     atom    5 type  3   force =    -0.00000957   -0.00009438   -0.00000909
     atom    6 type  3   force =     0.00001368    0.00009384    0.00000015
     atom    7 type  3   force =    -0.00021820   -0.00013972    0.00012407
     atom    8 type  3   force =     0.00020775    0.00014217   -0.00011920
     atom    9 type  3   force =    -0.00016695    0.00010245   -0.00009487

     Total force =     0.027758     Total SCF correction =     0.000535

     Computing stress (Cartesian axis) and pressure

     negative rho (up, down):  2.549E-01 0.000E+00
          total   stress  (Ry/bohr**3)                   (kbar)     P=      -16.10
  -0.00010924   0.00000000  -0.00000000          -16.07        0.00       -0.00
   0.00000000  -0.00010924   0.00000000            0.00      -16.07        0.00
   0.00000000   0.00000000  -0.00010978            0.00        0.00      -16.15

     kinetic stress (kbar)   7937.94      0.00      0.00
                                0.00   7937.94     -0.00
                                0.00     -0.00   7938.17

     local   stress (kbar)  -2971.27     -0.04      0.23
                               -0.04  -2970.57      0.36
                                0.23      0.36  -2971.29

     nonloc. stress (kbar)   4752.79     -0.00      0.00
                               -0.00   4752.79     -0.00
                               -0.00     -0.00   4752.72

     hartree stress (kbar)   3927.85      0.02     -0.09
                                0.02   3927.58     -0.14
                               -0.09     -0.14   3927.86

     exc-cor stress (kbar)   9109.27      0.00     -0.00
                                0.00   9109.27     -0.00
                               -0.00     -0.00   9109.27

     corecor stress (kbar) -12414.46     -0.00      0.01
                               -0.00 -12414.44      0.01
                                0.01      0.01 -12414.47

     ewald   stress (kbar) -10358.42     -0.00      0.00
                               -0.00 -10358.42     -0.00
                                0.00     -0.00 -10358.42

     hubbard stress (kbar)      0.00      0.00      0.00
                                0.00      0.00      0.00
                                0.00      0.00      0.00

     DFT-D   stress (kbar)      0.00      0.00      0.00
                                0.00      0.00      0.00
                                0.00      0.00      0.00

     XDM     stress (kbar)      0.00      0.00      0.00
                                0.00      0.00      0.00
                                0.00      0.00      0.00

     dft-nl  stress (kbar)      0.00      0.00      0.00
                                0.00      0.00      0.00
                                0.00      0.00      0.00

     TS-vdW  stress (kbar)      0.00      0.00      0.00
                                0.00      0.00      0.00
                                0.00      0.00      0.00

[...]

                                0.00      0.00      0.00

     Writing all to output data dir new_calculations/myprefix.save/

     General routines

     Parallel routines

   This run was terminated on:   7:50:19  20May2023

   JOB DONE.