     Program PWSCF v.7.0 starts on 21May2023 at 17: 4: 9

     Reading input from espresso_21106.pwi
Warning: card &CELL ignored
Warning: card / ignored

     Current dimensions of program PWSCF are:
     Max number of different atomic species (ntypx) = 10
     Max number of k-points (npk) =  40000
     Max angular momentum in pseudopotentials (lmaxx) =  4

     gamma-point specific algorithms are used
     Message from routine setup:
     using ibrav=0 with symmetry is DISCOURAGED, use correct ibrav instead

     Subspace diagonalization in iterative solution of the eigenvalue problem:
     a serial algorithm will be used

     Using Slab Decomposition

     bravais-lattice index     =            0
     lattice parameter (alat)  =      21.7433  a.u.
     unit-cell volume          =     522.1895 (a.u.)^3
     number of atoms/cell      =            5
     number of atomic types    =            2
     number of electrons       =        86.00
     number of Kohn-Sham states=           52
     kinetic-energy cutoff     =      30.0000  Ry
     charge density cutoff     =     240.0000  Ry
     scf convergence threshold =      1.0E-06
     mixing beta               =       0.7000
     number of iterations used =            8  plain     mixing
     Exchange-correlation= SLA  PW   PBE  PBE
                           (   1   4   3   4   0   0   0)

     celldm(1)=  21.743259  celldm(2)=   0.000000  celldm(3)=   0.000000
     celldm(4)=   0.000000  celldm(5)=   0.000000  celldm(6)=   0.000000

     crystal axes: (cart. coord. in units of alat)
               a(1) = (   1.000000   0.000000   0.000000 )
               a(2) = (   0.970377   0.241595   0.000000 )
               a(3) = (   0.970377   0.118981   0.210265 )

     reciprocal axes: (cart. coord. in units 2 pi/alat)
               b(1) = (  1.000000 -4.016552 -2.342201 )
               b(2) = (  0.000000  4.139166 -2.342201 )
               b(3) = (  0.000000  0.000000  4.755903 )

     PseudoPot. # 1 for Pd read from file:
     /home/pragov/projects/rrg-bengioy-ad/pragov/crystal_structure_design/SSSP/Pd_ONCV_PBE-1.0.oncvpsp.upf
     MD5 check sum: eb77f42b51d86fb18e25f68156a31cf1
     Pseudo is Norm-conserving, Zval = 18.0
     Generated using ONCVPSP code by D. R. Hamann
     Using radial grid of 1410 points,  6 beta functions with:
                l(1) =   0
                l(2) =   0
                l(3) =   1
                l(4) =   1
                l(5) =   2
                l(6) =   2

     PseudoPot. # 2 for W  read from file:
     /home/pragov/projects/rrg-bengioy-ad/pragov/crystal_structure_design/SSSP/W_pbe_v1.2.uspp.F.UPF
     MD5 check sum: 9c083fa34c2a2ea0f02f1f893e16e1c8
     Pseudo is Ultrasoft + core correction, Zval = 14.0
     Generated by new atomic code, or converted to UPF format
     Using radial grid of  923 points,  8 beta functions with:
                l(1) =   0
                l(2) =   0
                l(3) =   0
                l(4) =   1
                l(5) =   1
                l(6) =   2
                l(7) =   2
                l(8) =   3
     Q(r) pseudized with  6 coefficients,  rinner =    1.350   1.350   1.350
                                                       1.350   1.350   1.350
                                                       1.350

     atomic species   valence    mass     pseudopotential
        Pd            18.00   106.42000     Pd( 1.00)
        W             14.00   183.84000     W ( 1.00)

      2 Sym. Ops., with inversion, found

                                    s                        frac. trans.

      isym =  1     identity

 cryst.   s( 1) = (     1          0          0      )
                  (     0          1          0      )
                  (     0          0          1      )

 cart.    s( 1) = (  1.0000000 -0.0000000 -0.0000000 )
                  (  0.0000000  1.0000000 -0.0000000 )
                  (  0.0000000  0.0000000  1.0000000 )

      isym =  2     inversion

 cryst.   s( 2) = (    -1          0          0      )
                  (     0         -1          0      )
                  (     0          0         -1      )

 cart.    s( 2) = ( -1.0000000  0.0000000  0.0000000 )
                  (  0.0000000 -1.0000000  0.0000000 )
                  (  0.0000000  0.0000000 -1.0000000 )

   Cartesian axes

     site n.     atom                  positions (alat units)
         1           Pd  tau(   1) = (   1.7694461   0.2169577   0.1265160  )
         2           Pd  tau(   2) = (   0.5891566   0.0722385   0.0421249  )
         3           Pd  tau(   3) = (   2.3515979   0.2883373   0.1681401  )
         4           Pd  tau(   4) = (   1.1713084   0.1436181   0.0837490  )
         5           W   tau(   5) = (   0.0000000   0.0000000   0.0000000  )

   Crystallographic axes

     site n.     atom                  positions (cryst. coord.)
         1           Pd  tau(   1) = (  0.6016980  0.6016980  0.6016980  )
         2           Pd  tau(   2) = (  0.2003420  0.2003420  0.2003420  )
         3           Pd  tau(   3) = (  0.7996580  0.7996580  0.7996580  )
         4           Pd  tau(   4) = (  0.3983020  0.3983020  0.3983020  )
         5           W   tau(   5) = (  0.0000000  0.0000000  0.0000000  )

     number of k points=     1  Methfessel-Paxton smearing, width (Ry)=  0.0010
                       cart. coord. in units 2pi/alat
        k(    1) = (   0.0000000   0.0000000   0.0000000), wk =   2.0000000

                       cryst. coord.
        k(    1) = (   0.0000000   0.0000000   0.0000000), wk =   2.0000000

     Check: negative core charge=   -0.000003

     Initial potential from superposition of free atoms

     starting charge      85.8982, renormalised to      86.0000

     negative rho (up, down):  6.320E-02 0.000E+00
     Starting wfcs are   53 randomized atomic wfcs

     Self-consistent Calculation

     iteration #  1     ecut=    30.00 Ry     beta= 0.70
     Davidson diagonalization with overlap

     ethr =  1.00E-02,  avg # of iterations =  3.0

     negative rho (up, down):  6.031E-02 0.000E+00

     total energy              =   -1170.34446527 Ry
     estimated scf accuracy    <       2.22900591 Ry

[...]

     total energy              =   -1171.90376664 Ry
     estimated scf accuracy    <       0.00000562 Ry

     iteration # 34     ecut=    30.00 Ry     beta= 0.70
     Davidson diagonalization with overlap

     ethr =  1.22E-09,  avg # of iterations =  1.0

[...]

     End of self-consistent calculation

          k = 0.0000 0.0000 0.0000 (   718 PWs)   bands (ev):

   -65.6786 -65.6595 -65.5863 -65.5860 -55.2701 -31.6982 -31.5716 -31.4280
   -31.4069 -30.6115 -30.6115 -30.6002 -30.6002 -30.5900 -30.5900 -30.5750
   -30.5750 -19.5371 -18.9149 -18.9149  11.2960  13.6305  14.2923  14.6411
    14.9702  16.2344  16.4738  17.0935  17.0935  17.2216  17.3529  17.3529
    17.3750  17.3750  17.4912  17.4912  17.7595  17.7595  18.0725  18.0725
    18.3186  18.3186  18.9630  18.9787  18.9787  19.3368  19.3368  19.4239
    22.1538  22.1538  28.1853  29.7603

     occupation numbers
     1.0000   1.0000   1.0000   1.0000   1.0000   1.0000   1.0000   1.0000
     1.0000   1.0000   1.0000   1.0000   1.0000   1.0000   1.0000   1.0000
     1.0000   1.0000   1.0000   1.0000   1.0000   1.0000   1.0000   1.0000
     1.0000   1.0000   1.0000   1.0000   1.0000   1.0000   1.0000   1.0000
     1.0000   1.0000   1.0000   1.0000   1.0000   1.0000   1.0000   1.0000
     1.0000   1.0000   0.8767   0.0618   0.0615  -0.0000  -0.0000  -0.0000
    -0.0000  -0.0000  -0.0000  -0.0000

     the Fermi energy is    18.9700 ev

!    total energy              =   -1171.90376655 Ry
     estimated scf accuracy    <       0.00000011 Ry
     smearing contrib. (-TS)   =      -0.00016789 Ry
     internal energy E=F+TS    =   -1171.90359867 Ry

     The total energy is F=E-TS. E is the sum of the following terms:
     one-electron contribution =    -347.78618429 Ry
     hartree contribution      =     223.16906765 Ry
     xc contribution           =    -139.88684278 Ry
     ewald contribution        =    -907.39963925 Ry

     convergence has been achieved in  34 iterations

     negative rho (up, down):  6.102E-02 0.000E+00

     Forces acting on atoms (cartesian axes, Ry/au):

     atom    1 type  1   force =    -0.03659656   -0.00447885   -0.00262516
     atom    2 type  1   force =    -0.06684647   -0.00818687   -0.00478846
     atom    3 type  1   force =     0.06684647    0.00818687    0.00478846
     atom    4 type  1   force =     0.03659656    0.00447885    0.00262516
     atom    5 type  2   force =     0.00000000    0.00000000    0.00000000
     The non-local contrib.  to forces
     atom    1 type  1   force =    -0.09212366   -0.01123851   -0.00668499
     atom    2 type  1   force =    -0.10174489   -0.01243492   -0.00734515
     atom    3 type  1   force =     0.10174489    0.01243492    0.00734515
     atom    4 type  1   force =     0.09212366    0.01123851    0.00668499
     atom    5 type  2   force =     0.00000000    0.00000000    0.00000000
     The ionic contribution  to forces
     atom    1 type  1   force =    14.08777590    1.72734956    1.00728575
     atom    2 type  1   force =     5.68527634    0.69709084    0.40650119
     atom    3 type  1   force =    -5.68527634   -0.69709084   -0.40650119
     atom    4 type  1   force =   -14.08777590   -1.72734956   -1.00728575
     atom    5 type  2   force =    -0.00000000   -0.00000000   -0.00000000
     The local contribution  to forces
     atom    1 type  1   force =   -14.03340934   -1.72072123   -1.00332848
     atom    2 type  1   force =    -5.65130607   -0.69294554   -0.40402682
     atom    3 type  1   force =     5.65142453    0.69296374    0.40402770
     atom    4 type  1   force =    14.03273537    1.72063910    1.00327894
     atom    5 type  2   force =     0.00053034    0.00006486    0.00003804
     The core correction contribution to forces
     atom    1 type  1   force =     0.00000000    0.00000000    0.00000000
     atom    2 type  1   force =     0.00000000    0.00000000    0.00000000
     atom    3 type  1   force =     0.00000000    0.00000000    0.00000000
     atom    4 type  1   force =     0.00000000    0.00000000    0.00000000
     atom    5 type  2   force =     0.00000013    0.00000001    0.00000001
     The Hubbard contrib.    to forces
     atom    1 type  1   force =     0.00000000    0.00000000    0.00000000
     atom    2 type  1   force =     0.00000000    0.00000000    0.00000000
     atom    3 type  1   force =     0.00000000    0.00000000    0.00000000
     atom    4 type  1   force =     0.00000000    0.00000000    0.00000000
     atom    5 type  2   force =     0.00000000    0.00000000    0.00000000
     The SCF correction term to forces
     atom    1 type  1   force =     0.00116778    0.00013243    0.00010285
     atom    2 type  1   force =     0.00092289    0.00010317    0.00008116
     atom    3 type  1   force =    -0.00105186   -0.00012053   -0.00008438
     atom    4 type  1   force =    -0.00047936   -0.00004808   -0.00005274
     atom    5 type  2   force =    -0.00053322   -0.00006525   -0.00003816

     Total force =     0.108855     Total SCF correction =     0.001978

     Computing stress (Cartesian axis) and pressure

     negative rho (up, down):  6.102E-02 0.000E+00
          total   stress  (Ry/bohr**3)                   (kbar)     P=    -1284.09
  -0.00888843  -0.00003023  -0.00001641        -1307.53       -4.45       -2.41
  -0.00003023  -0.00865026  -0.00000275           -4.45    -1272.50       -0.40
  -0.00001641  -0.00000275  -0.00864844           -2.41       -0.40    -1272.23

     kinetic stress (kbar)  69085.49   -474.28   -277.10
                             -474.28  72897.63    -33.70
                             -277.10    -33.70  72936.27

     local   stress (kbar)   4676.63   1634.77    954.21
                             1634.77  -8459.31    116.50
                              954.21    116.50  -8592.11

     nonloc. stress (kbar)   6973.88     82.13     48.00
                               82.13   6313.72      5.85
                               48.00      5.85   6307.04

     hartree stress (kbar)  16666.88   -796.76   -464.92
                             -796.76  23068.52    -56.86
                             -464.92    -56.86  23133.17

     exc-cor stress (kbar)  -3737.62     -3.93     -2.30
                               -3.93  -3706.00     -0.28
                               -2.30     -0.28  -3705.68

     corecor stress (kbar)  -7371.83     -1.65     -0.96
                               -1.65  -7358.56     -0.12
                               -0.96     -0.12  -7358.43

     ewald   stress (kbar) -87600.97   -444.72   -259.34
                             -444.72 -84028.50    -31.80
                             -259.34    -31.80 -83992.50

     hubbard stress (kbar)      0.00      0.00      0.00
                                0.00      0.00      0.00
                                0.00      0.00      0.00

     DFT-D   stress (kbar)      0.00      0.00      0.00
                                0.00      0.00      0.00
                                0.00      0.00      0.00

     XDM     stress (kbar)      0.00      0.00      0.00
                                0.00      0.00      0.00
                                0.00      0.00      0.00

     dft-nl  stress (kbar)      0.00      0.00      0.00
                                0.00      0.00      0.00
                                0.00      0.00      0.00

     TS-vdW  stress (kbar)      0.00      0.00      0.00
                                0.00      0.00      0.00
                                0.00      0.00      0.00

[...]

                                0.00      0.00      0.00

     Writing all to output data dir new_calculations/myprefix.save/

     General routines

     Parallel routines

   This run was terminated on:  17: 5:24  21May2023

   JOB DONE.