     Program PWSCF v.7.0 starts on 20May2023 at 12:22:14

     Reading input from espresso_12283.pwi
Warning: card &CELL ignored
Warning: card / ignored

     Current dimensions of program PWSCF are:
     Max number of different atomic species (ntypx) = 10
     Max number of k-points (npk) =  40000
     Max angular momentum in pseudopotentials (lmaxx) =  4

     gamma-point specific algorithms are used
     Message from routine setup:
     using ibrav=0 with symmetry is DISCOURAGED, use correct ibrav instead

     Subspace diagonalization in iterative solution of the eigenvalue problem:
     a serial algorithm will be used

     Using Slab Decomposition

     bravais-lattice index     =            0
     lattice parameter (alat)  =      13.7562  a.u.
     unit-cell volume          =    1358.1864 (a.u.)^3
     number of atoms/cell      =           14
     number of atomic types    =            3
     number of electrons       =       192.00
     number of Kohn-Sham states=          115
     kinetic-energy cutoff     =      30.0000  Ry
     charge density cutoff     =     240.0000  Ry
     scf convergence threshold =      1.0E-06
     mixing beta               =       0.7000
     number of iterations used =            8  plain     mixing
     Exchange-correlation= PBE
                           (   1   4   3   4   0   0   0)

     celldm(1)=  13.756182  celldm(2)=   0.000000  celldm(3)=   0.000000
     celldm(4)=   0.000000  celldm(5)=   0.000000  celldm(6)=   0.000000

     crystal axes: (cart. coord. in units of alat)
               a(1) = (   1.000000   0.000000   0.000000 )
               a(2) = (   0.000000   1.000000   0.000000 )
               a(3) = (   0.000000   0.000000   0.521754 )

     reciprocal axes: (cart. coord. in units 2 pi/alat)
               b(1) = (  1.000000  0.000000  0.000000 )
               b(2) = (  0.000000  1.000000  0.000000 )
               b(3) = (  0.000000  0.000000  1.916613 )

     PseudoPot. # 1 for Ca read from file:
     /home/pragov/projects/rrg-bengioy-ad/pragov/crystal_structure_design/SSSP/Ca_pbe_v1.uspp.F.UPF
     MD5 check sum: 403a4c14b9e4d4dfdc3024c9a3812218
     Pseudo is Ultrasoft + core correction, Zval = 10.0
     Generated by new atomic code, or converted to UPF format
     Using radial grid of  845 points,  6 beta functions with:
                l(1) =   0
                l(2) =   0
                l(3) =   1
                l(4) =   1
                l(5) =   2
                l(6) =   2
     Q(r) pseudized with  8 coefficients,  rinner =    1.500   1.500   1.500
                                                       1.500   1.500

     PseudoPot. # 2 for Cu read from file:
     /home/pragov/projects/rrg-bengioy-ad/pragov/crystal_structure_design/SSSP/Cu_pbe_v1.2.uspp.F.UPF
     MD5 check sum: 6e991ff952a84172a2a52a1c1e996048
     Pseudo is Ultrasoft + core correction, Zval = 19.0
     Generated by new atomic code, or converted to UPF format
     Using radial grid of  867 points,  6 beta functions with:
                l(1) =   0
                l(2) =   0
                l(3) =   1
                l(4) =   1
                l(5) =   2
                l(6) =   2
     Q(r) pseudized with  8 coefficients,  rinner =    1.150   1.150   1.150
                                                       1.150   1.150

     PseudoPot. # 3 for P  read from file:
     /home/pragov/projects/rrg-bengioy-ad/pragov/crystal_structure_design/SSSP/P.pbe-n-rrkjus_psl.1.0.0.UPF
     MD5 check sum: 8b930f418f0a4573dca56cd030ffe088
     Pseudo is Ultrasoft + core correction, Zval =  5.0
     Generated using "atomic" code by A. Dal Corso  v.5.1
     Using radial grid of 1147 points,  6 beta functions with:
                l(1) =   0
                l(2) =   0
                l(3) =   1
                l(4) =   1
                l(5) =   2
                l(6) =   2
     Q(r) pseudized with 0 coefficients

     atomic species   valence    mass     pseudopotential
        Ca            10.00    40.07800     Ca( 1.00)
        Cu            19.00    63.54600     Cu( 1.00)
        P              5.00    30.97376     P ( 1.00)

     16 Sym. Ops., with inversion, found ( 8 have fractional translation)

                                    s                        frac. trans.

      isym =  1     identity

 cryst.   s( 1) = (     1          0          0      )
                  (     0          1          0      )
                  (     0          0          1      )

 cart.    s( 1) = (  1.0000000  0.0000000  0.0000000 )
                  (  0.0000000  1.0000000  0.0000000 )
                  (  0.0000000  0.0000000  1.0000000 )

      isym =  2     180 deg rotation - cart. axis [0,0,1]

[...]

 cryst.   s( 3) = (    -1          0          0      )    f =(  0.5000000 )
                  (     0          1          0      )       ( -0.5000000 )
                  (     0          0         -1      )       (  0.5000000 )

 cart.    s( 3) = ( -1.0000000  0.0000000  0.0000000 )    f =(  0.5000000 )
                  (  0.0000000  1.0000000  0.0000000 )       ( -0.5000000 )
                  (  0.0000000  0.0000000 -1.0000000 )       (  0.2608769 )

[...]

      isym =  8      90 deg rotation - cart. axis [0,0,1]

 cryst.   s( 8) = (     0          1          0      )    f =(  0.5000000 )
                  (    -1          0          0      )       ( -0.5000000 )
                  (     0          0          1      )       ( -0.5000000 )

 cart.    s( 8) = (  0.0000000 -1.0000000  0.0000000 )    f =(  0.5000000 )
                  (  1.0000000  0.0000000  0.0000000 )       ( -0.5000000 )
                  (  0.0000000  0.0000000  1.0000000 )       ( -0.2608769 )

      isym =  9     inversion

 cryst.   s( 9) = (    -1          0          0      )
                  (     0         -1          0      )
                  (     0          0         -1      )

 cart.    s( 9) = ( -1.0000000  0.0000000  0.0000000 )
                  (  0.0000000 -1.0000000  0.0000000 )
                  (  0.0000000  0.0000000 -1.0000000 )

      isym = 10     inv. 180 deg rotation - cart. axis [0,0,1]

 cryst.   s(10) = (     1          0          0      )
                  (     0          1          0      )
                  (     0          0         -1      )

 cart.    s(10) = (  1.0000000  0.0000000  0.0000000 )
                  (  0.0000000  1.0000000  0.0000000 )
                  (  0.0000000  0.0000000 -1.0000000 )

[...]

 cryst.   s(11) = (     1          0          0      )    f =( -0.5000000 )
                  (     0         -1          0      )       (  0.5000000 )
                  (     0          0          1      )       ( -0.5000000 )

 cart.    s(11) = (  1.0000000  0.0000000  0.0000000 )    f =( -0.5000000 )
                  (  0.0000000 -1.0000000  0.0000000 )       (  0.5000000 )
                  (  0.0000000  0.0000000  1.0000000 )       ( -0.2608769 )

[...]

 cryst.   s(14) = (     0          1          0      )
                  (     1          0          0      )
                  (     0          0          1      )

 cart.    s(14) = (  0.0000000  1.0000000  0.0000000 )
                  (  1.0000000  0.0000000  0.0000000 )
                  (  0.0000000  0.0000000  1.0000000 )

[...]

      isym = 16     inv.  90 deg rotation - cart. axis [0,0,1]

 cryst.   s(16) = (     0         -1          0      )    f =( -0.5000000 )
                  (     1          0          0      )       (  0.5000000 )
                  (     0          0         -1      )       (  0.5000000 )

 cart.    s(16) = (  0.0000000  1.0000000  0.0000000 )    f =( -0.5000000 )
                  ( -1.0000000  0.0000000  0.0000000 )       (  0.5000000 )
                  (  0.0000000  0.0000000 -1.0000000 )       (  0.2608769 )

   Cartesian axes

     site n.     atom                  positions (alat units)
         1           Ca  tau(   1) = (   0.0000000   0.0000000   0.0000000  )
         2           Ca  tau(   2) = (   0.5000000   0.5000000   0.2608769  )
         3           Cu  tau(   3) = (   0.6638320   0.9150170   0.2608769  )
         4           Cu  tau(   4) = (   0.1638320   0.5849830   0.0000000  )
         5           Cu  tau(   5) = (   0.4150170   0.8361680   0.0000000  )
         6           Cu  tau(   6) = (   0.9150170   0.6638320   0.2608769  )
         7           Cu  tau(   7) = (   0.8361680   0.4150170   0.0000000  )
         8           Cu  tau(   8) = (   0.5849830   0.1638320   0.0000000  )
         9           Cu  tau(   9) = (   0.0849830   0.3361680   0.2608769  )
        10           Cu  tau(  10) = (   0.3361680   0.0849830   0.2608769  )
        11           P   tau(  11) = (   0.2810900   0.2810900   0.0000000  )
        12           P   tau(  12) = (   0.7189100   0.7189100   0.0000000  )
        13           P   tau(  13) = (   0.7810900   0.2189100   0.2608769  )
        14           P   tau(  14) = (   0.2189100   0.7810900   0.2608769  )

   Crystallographic axes

     site n.     atom                  positions (cryst. coord.)
         1           Ca  tau(   1) = (  0.0000000  0.0000000  0.0000000  )
         2           Ca  tau(   2) = (  0.5000000  0.5000000  0.5000000  )
         3           Cu  tau(   3) = (  0.6638320  0.9150170  0.5000000  )
         4           Cu  tau(   4) = (  0.1638320  0.5849830  0.0000000  )
         5           Cu  tau(   5) = (  0.4150170  0.8361680  0.0000000  )
         6           Cu  tau(   6) = (  0.9150170  0.6638320  0.5000000  )
         7           Cu  tau(   7) = (  0.8361680  0.4150170  0.0000000  )
         8           Cu  tau(   8) = (  0.5849830  0.1638320  0.0000000  )
         9           Cu  tau(   9) = (  0.0849830  0.3361680  0.5000000  )
        10           Cu  tau(  10) = (  0.3361680  0.0849830  0.5000000  )
        11           P   tau(  11) = (  0.2810900  0.2810900  0.0000000  )
        12           P   tau(  12) = (  0.7189100  0.7189100  0.0000000  )
        13           P   tau(  13) = (  0.7810900  0.2189100  0.5000000  )
        14           P   tau(  14) = (  0.2189100  0.7810900  0.5000000  )

     number of k points=     1  Methfessel-Paxton smearing, width (Ry)=  0.0010
                       cart. coord. in units 2pi/alat
        k(    1) = (   0.0000000   0.0000000   0.0000000), wk =   2.0000000

                       cryst. coord.
        k(    1) = (   0.0000000   0.0000000   0.0000000), wk =   2.0000000

     Check: negative core charge=   -0.000001

     Initial potential from superposition of free atoms

     starting charge     183.9884, renormalised to     192.0000
     Starting wfcs are  140 randomized atomic wfcs

     Self-consistent Calculation

     iteration #  1     ecut=    30.00 Ry     beta= 0.70
     Davidson diagonalization with overlap

     ethr =  1.00E-02,  avg # of iterations =  4.0

     total energy              =   -3407.17715500 Ry
     estimated scf accuracy    <      38.35834380 Ry

[...]

     total energy              =   -3435.42723870 Ry
     estimated scf accuracy    <       0.00000122 Ry

     iteration # 26     ecut=    30.00 Ry     beta= 0.70
     Davidson diagonalization with overlap

     ethr =  6.33E-10,  avg # of iterations =  2.0

     End of self-consistent calculation

          k = 0.0000 0.0000 0.0000 (  1885 PWs)   bands (ev):

  -100.0563-100.0538-100.0529-100.0527-100.0524-100.0500-100.0497-100.0485
   -57.5394 -57.5330 -57.5216 -57.5213 -57.5157 -57.5154 -57.5099 -57.5061
   -57.4591 -57.4565 -57.4473 -57.4471 -57.4339 -57.4309 -57.4301 -57.4299
   -57.3213 -57.3204 -57.3124 -57.3121 -57.3096 -57.3088 -57.3040 -57.3038
   -27.1347 -27.1343  -8.3008  -8.3006  -8.2544  -8.2542  -8.1415  -8.1402
     0.6497   1.8124   1.8124   2.3089   5.2261   7.1613   7.1614   7.4049
     8.0952   8.1087   8.1657   8.4062   8.4063   8.4941   8.5715   8.5808
     8.5809   9.1744   9.2036   9.2366   9.3588   9.3590   9.4625   9.4954
     9.4955   9.5731   9.5732   9.5940   9.7636   9.7637   9.7777   9.9014
    10.0185  10.0468  10.0468  10.1376  10.1997  10.2844  10.3184  10.3186
    10.3188  10.3229  10.3230  10.4788  10.5027  10.5863  10.8045  11.2285
    11.2782  11.2784  12.1035  12.2313  12.9914  12.9914  13.0943  13.0944
    14.3382  14.4778  15.0691  15.2277  15.2797  15.2798  15.8865  16.0492
    16.3650  16.5716  16.5716  17.2509  17.8884  17.8885  18.2755  18.6296
    18.7606  19.0384  19.0393

     occupation numbers
     1.0000   1.0000   1.0000   1.0000   1.0000   1.0000   1.0000   1.0000
     1.0000   1.0000   1.0000   1.0000   1.0000   1.0000   1.0000   1.0000
     1.0000   1.0000   1.0000   1.0000   1.0000   1.0000   1.0000   1.0000
     1.0000   1.0000   1.0000   1.0000   1.0000   1.0000   1.0000   1.0000
     1.0000   1.0000   1.0000   1.0000   1.0000   1.0000   1.0000   1.0000
     1.0000   1.0000   1.0000   1.0000   1.0000   1.0000   1.0000   1.0000
     1.0000   1.0000   1.0000   1.0000   1.0000   1.0000   1.0000   1.0000
     1.0000   1.0000   1.0000   1.0000   1.0000   1.0000   1.0000   1.0000
     1.0000   1.0000   1.0000   1.0000   1.0000   1.0000   1.0000   1.0000
     1.0000   1.0000   1.0000   1.0000   1.0000   1.0000   1.0000   1.0000
     1.0000   1.0000   1.0000   1.0000   1.0000   1.0000   1.0000   1.0000
     1.0000   1.0000   1.0000   1.0000   1.0000   1.0000   1.0000   1.0000
    -0.0000  -0.0000  -0.0000  -0.0000  -0.0000  -0.0000  -0.0000  -0.0000
    -0.0000  -0.0000  -0.0000  -0.0000  -0.0000  -0.0000  -0.0000  -0.0000
    -0.0000  -0.0000  -0.0000

     the Fermi energy is    13.5800 ev

!    total energy              =   -3435.42723877 Ry
     estimated scf accuracy    <       0.00000010 Ry
     smearing contrib. (-TS)   =       0.00000000 Ry
     internal energy E=F+TS    =   -3435.42723877 Ry

     The total energy is F=E-TS. E is the sum of the following terms:
     one-electron contribution =   -2831.12548206 Ry
     hartree contribution      =    1510.40320150 Ry
     xc contribution           =    -352.51486596 Ry
     ewald contribution        =   -1762.19009225 Ry

     convergence has been achieved in  26 iterations

     Forces acting on atoms (cartesian axes, Ry/au):

     atom    1 type  1   force =     0.00000000    0.00000000    0.00000000
     atom    2 type  1   force =     0.00000000    0.00000000   -0.00000000
     atom    3 type  2   force =     0.01863245    0.02734832   -0.00000000
     atom    4 type  2   force =     0.01863245   -0.02734832    0.00000000
     atom    5 type  2   force =     0.02734832   -0.01863245   -0.00000000
     atom    6 type  2   force =     0.02734832    0.01863245   -0.00000000
     atom    7 type  2   force =    -0.01863245    0.02734832    0.00000000
     atom    8 type  2   force =    -0.02734832    0.01863245    0.00000000
     atom    9 type  2   force =    -0.02734832   -0.01863245   -0.00000000
     atom   10 type  2   force =    -0.01863245   -0.02734832    0.00000000
     atom   11 type  3   force =     0.06482112    0.06482112   -0.00000000
     atom   12 type  3   force =    -0.06482112   -0.06482112    0.00000000
     atom   13 type  3   force =     0.06482112   -0.06482112    0.00000000
     atom   14 type  3   force =    -0.06482112    0.06482112    0.00000000
     The non-local contrib.  to forces
     atom    1 type  1   force =     0.00000000    0.00000000    0.00000000
     atom    2 type  1   force =     0.00000000    0.00000000    0.00000000
     atom    3 type  2   force =     0.07107422   -0.51609281   -0.00000000
     atom    4 type  2   force =     0.07107422    0.51609281    0.00000000
     atom    5 type  2   force =    -0.51609281   -0.07107422    0.00000000
     atom    6 type  2   force =    -0.51609281    0.07107422   -0.00000000
     atom    7 type  2   force =    -0.07107422   -0.51609281   -0.00000000
     atom    8 type  2   force =     0.51609281    0.07107422    0.00000000
     atom    9 type  2   force =     0.51609281   -0.07107422   -0.00000000
     atom   10 type  2   force =    -0.07107422    0.51609281   -0.00000000
     atom   11 type  3   force =    -0.05031855   -0.05031855   -0.00000000
     atom   12 type  3   force =     0.05031855    0.05031855   -0.00000000
     atom   13 type  3   force =    -0.05031855    0.05031855    0.00000000
     atom   14 type  3   force =     0.05031855   -0.05031855   -0.00000000
     The ionic contribution  to forces
     atom    1 type  1   force =    -0.00000000   -0.00000000    0.00000000
     atom    2 type  1   force =     0.00000000    0.00000000    0.00000000
     atom    3 type  2   force =    22.05292986   -7.08655539   -0.00000000
     atom    4 type  2   force =    22.05292986    7.08655539   -0.00000000
     atom    5 type  2   force =    -7.08655539  -22.05292986   -0.00000000
     atom    6 type  2   force =    -7.08655539   22.05292986   -0.00000000
     atom    7 type  2   force =   -22.05292986   -7.08655539    0.00000000
     atom    8 type  2   force =     7.08655539   22.05292986   -0.00000000
     atom    9 type  2   force =     7.08655539  -22.05292986   -0.00000000
     atom   10 type  2   force =   -22.05292986    7.08655539   -0.00000000
     atom   11 type  3   force =     1.73946316    1.73946316   -0.00000000
     atom   12 type  3   force =    -1.73946316   -1.73946316   -0.00000000
     atom   13 type  3   force =     1.73946316   -1.73946316   -0.00000000
     atom   14 type  3   force =    -1.73946316    1.73946316   -0.00000000
     The local contribution  to forces
     atom    1 type  1   force =     0.00020355   -0.00004639   -0.00000130
     atom    2 type  1   force =    -0.00030107   -0.00003388    0.00000142
     atom    3 type  2   force =   -22.10624938    7.62952718   -0.00000308
     atom    4 type  2   force =   -22.10534200   -7.62926984    0.00000169
     atom    5 type  2   force =     7.62917980   22.10596502    0.00000478
     atom    6 type  2   force =     7.62964741  -22.10563166   -0.00000742
     atom    7 type  2   force =    22.10583904    7.62938261    0.00000124
     atom    8 type  2   force =    -7.63013164  -22.10597882    0.00000250
     atom    9 type  2   force =    -7.62858557   22.10570145   -0.00000125
     atom   10 type  2   force =    22.10595555   -7.62927353   -0.00000682
     atom   11 type  3   force =    -1.62707780   -1.62723071    0.00000140
     atom   12 type  3   force =     1.62712977    1.62732138    0.00000181
     atom   13 type  3   force =    -1.62732388    1.62710480   -0.00000085
     atom   14 type  3   force =     1.62731658   -1.62719252    0.00000090
     The core correction contribution to forces
     atom    1 type  1   force =     0.00000054   -0.00000008   -0.00000003
     atom    2 type  1   force =    -0.00000075    0.00000050    0.00000008
     atom    3 type  2   force =     0.00014975    0.00075986   -0.00000000
     atom    4 type  2   force =     0.00014959   -0.00075975   -0.00000000
     atom    5 type  2   force =     0.00075984   -0.00014968   -0.00000000
     atom    6 type  2   force =     0.00075985    0.00014957    0.00000000
     atom    7 type  2   force =    -0.00014963    0.00075996    0.00000000
     atom    8 type  2   force =    -0.00075984    0.00014962    0.00000000
     atom    9 type  2   force =    -0.00075997   -0.00014963    0.00000000
     atom   10 type  2   force =    -0.00014966   -0.00075984    0.00000000
     atom   11 type  3   force =     0.00287338    0.00287296    0.00000005
     atom   12 type  3   force =    -0.00287167   -0.00287139    0.00000006
     atom   13 type  3   force =     0.00287179   -0.00287255   -0.00000003
     atom   14 type  3   force =    -0.00287175    0.00287188    0.00000003
     The Hubbard contrib.    to forces
     atom    1 type  1   force =     0.00000000    0.00000000    0.00000000
     atom    2 type  1   force =     0.00000000    0.00000000    0.00000000
     atom    3 type  2   force =     0.00000000    0.00000000    0.00000000
     atom    4 type  2   force =     0.00000000    0.00000000    0.00000000
     atom    5 type  2   force =     0.00000000    0.00000000    0.00000000
     atom    6 type  2   force =     0.00000000    0.00000000    0.00000000
     atom    7 type  2   force =     0.00000000    0.00000000    0.00000000
     atom    8 type  2   force =     0.00000000    0.00000000    0.00000000
     atom    9 type  2   force =     0.00000000    0.00000000    0.00000000
     atom   10 type  2   force =     0.00000000    0.00000000    0.00000000
     atom   11 type  3   force =     0.00000000    0.00000000    0.00000000
     atom   12 type  3   force =     0.00000000    0.00000000    0.00000000
     atom   13 type  3   force =     0.00000000    0.00000000    0.00000000
     atom   14 type  3   force =     0.00000000    0.00000000    0.00000000
     The SCF correction term to forces
     atom    1 type  1   force =    -0.00020171    0.00005440    0.00000082
     atom    2 type  1   force =     0.00028988    0.00002838   -0.00000059
     atom    3 type  2   force =     0.00079906   -0.00028473    0.00000632
     atom    4 type  2   force =    -0.00024771    0.00006203   -0.00000549
     atom    5 type  2   force =     0.00004892   -0.00045803   -0.00000617
     atom    6 type  2   force =    -0.00035961    0.00008397    0.00000386
     atom    7 type  2   force =    -0.00030372   -0.00014879   -0.00000206
     atom    8 type  2   force =     0.00095816    0.00045694   -0.00000308
     atom    9 type  2   force =    -0.00068743   -0.00016528    0.00000221
     atom   10 type  2   force =    -0.00047349    0.00002734    0.00000987
     atom   11 type  3   force =    -0.00010013    0.00005322   -0.00000085
     atom   12 type  3   force =     0.00007964   -0.00011780   -0.00000096
     atom   13 type  3   force =     0.00012795    0.00009281    0.00000011
     atom   14 type  3   force =    -0.00011753   -0.00001174    0.00000043

     Total force =     0.205852     Total SCF correction =     0.001817

     Computing stress (Cartesian axis) and pressure

          total   stress  (Ry/bohr**3)                   (kbar)     P=     -479.07
  -0.00301493   0.00000000   0.00000000         -443.51        0.00        0.00
   0.00000000  -0.00301493   0.00000000            0.00     -443.51        0.00
   0.00000000   0.00000000  -0.00374016            0.00        0.00     -550.20

     kinetic stress (kbar)  29008.48      0.00      0.00
                                0.00  29008.48      0.00
                                0.00      0.00  28587.23

     local   stress (kbar) -19329.86      0.12      0.00
                                0.12 -19329.87     -0.00
                                0.00     -0.00 -44473.53

     nonloc. stress (kbar)  19550.77      0.00      0.00
                                0.00  19550.77      0.00
                                0.00      0.00  19454.55

     hartree stress (kbar)  50545.73     -0.11     -0.00
                               -0.11  50545.73     -0.00
                               -0.00     -0.00  62500.21

     exc-cor stress (kbar) -10941.81     -0.00      0.00
                               -0.00 -10941.81      0.00
                                0.00      0.00 -10946.57

     corecor stress (kbar)  -1120.23      0.00     -0.00
                                0.00  -1120.23      0.00
                               -0.00      0.00  -1122.60

     ewald   stress (kbar) -68156.60      0.00     -0.00
                                0.00 -68156.60      0.00
                               -0.00      0.00 -54549.49

     hubbard stress (kbar)      0.00      0.00      0.00
                                0.00      0.00      0.00
                                0.00      0.00      0.00

     DFT-D   stress (kbar)      0.00      0.00      0.00
                                0.00      0.00      0.00
                                0.00      0.00      0.00

     XDM     stress (kbar)      0.00      0.00      0.00
                                0.00      0.00      0.00
                                0.00      0.00      0.00

     dft-nl  stress (kbar)      0.00      0.00      0.00
                                0.00      0.00      0.00
                                0.00      0.00      0.00

     TS-vdW  stress (kbar)      0.00      0.00      0.00
                                0.00      0.00      0.00
                                0.00      0.00      0.00

[...]

                                0.00      0.00      0.00

     Writing all to output data dir new_calculations/myprefix.save/

     General routines

     Parallel routines

   This run was terminated on:  12:23:11  20May2023

   JOB DONE.