     Program PWSCF v.7.0 starts on 20May2023 at  8: 9:39

     Reading input from espresso_9237.pwi
Warning: card &CELL ignored
Warning: card / ignored

     Current dimensions of program PWSCF are:
     Max number of different atomic species (ntypx) = 10
     Max number of k-points (npk) =  40000
     Max angular momentum in pseudopotentials (lmaxx) =  4
     file O.pbe-n-kjpaw_psl.0.1.UPF: wavefunction(s)  2P renormalized

     gamma-point specific algorithms are used
     Message from routine setup:
     using ibrav=0 with symmetry is DISCOURAGED, use correct ibrav instead

     Subspace diagonalization in iterative solution of the eigenvalue problem:
     a serial algorithm will be used

     Using Slab Decomposition

     bravais-lattice index     =            0
     lattice parameter (alat)  =       9.1647  a.u.
     unit-cell volume          =     442.2593 (a.u.)^3
     number of atoms/cell      =            6
     number of atomic types    =            2
     number of electrons       =        54.00
     number of Kohn-Sham states=           32
     kinetic-energy cutoff     =      30.0000  Ry
     charge density cutoff     =     240.0000  Ry
     scf convergence threshold =      1.0E-06
     mixing beta               =       0.7000
     number of iterations used =            8  plain     mixing
     Exchange-correlation= SLA  PW   PBX  PBC
                           (   1   4   3   4   0   0   0)

     celldm(1)=   9.164654  celldm(2)=   0.000000  celldm(3)=   0.000000
     celldm(4)=   0.000000  celldm(5)=   0.000000  celldm(6)=   0.000000

     crystal axes: (cart. coord. in units of alat)
               a(1) = (   1.000000   0.000000   0.000000 )
               a(2) = (   0.000000   1.000000   0.000000 )
               a(3) = (   0.000000   0.000000   0.574551 )

     reciprocal axes: (cart. coord. in units 2 pi/alat)
               b(1) = (  1.000000  0.000000  0.000000 )
               b(2) = (  0.000000  1.000000  0.000000 )
               b(3) = (  0.000000  0.000000  1.740489 )

     PseudoPot. # 1 for Tc read from file:
     /home/pragov/projects/rrg-bengioy-ad/pragov/crystal_structure_design/SSSP/Tc_ONCV_PBE-1.0.oncvpsp.upf
     MD5 check sum: 1c2b1e6c8b361b656073c0c20ed4f60a
     Pseudo is Norm-conserving, Zval = 15.0
     Generated using ONCVPSP code by D. R. Hamann
     Using radial grid of 1492 points,  6 beta functions with:
                l(1) =   0
                l(2) =   0
                l(3) =   1
                l(4) =   1
                l(5) =   2
                l(6) =   2

     PseudoPot. # 2 for O  read from file:
     /home/pragov/projects/rrg-bengioy-ad/pragov/crystal_structure_design/SSSP/O.pbe-n-kjpaw_psl.0.1.UPF
     MD5 check sum: 0234752ac141de4415c5fc33072bef88
     Pseudo is Projector augmented-wave + core cor, Zval =  6.0
     Generated using "atomic" code by A. Dal Corso  v.5.0.99 svn rev. 10869
     Shape of augmentation charge: BESSEL
     Using radial grid of 1095 points,  4 beta functions with:
                l(1) =   0
                l(2) =   0
                l(3) =   1
                l(4) =   1
     Q(r) pseudized with 0 coefficients

     atomic species   valence    mass     pseudopotential
        Tc            15.00    97.90721     Tc( 1.00)
        O              6.00    15.99900     O ( 1.00)

     16 Sym. Ops., with inversion, found ( 8 have fractional translation)

                                    s                        frac. trans.

      isym =  1     identity

 cryst.   s( 1) = (     1          0          0      )
                  (     0          1          0      )
                  (     0          0          1      )

 cart.    s( 1) = (  1.0000000  0.0000000  0.0000000 )
                  (  0.0000000  1.0000000  0.0000000 )
                  (  0.0000000  0.0000000  1.0000000 )

      isym =  2     180 deg rotation - cart. axis [0,0,1]

[...]

 cryst.   s( 3) = (    -1          0          0      )    f =(  0.5000000 )
                  (     0          1          0      )       (  0.5000000 )
                  (     0          0         -1      )       (  0.5000000 )

 cart.    s( 3) = ( -1.0000000  0.0000000  0.0000000 )    f =(  0.5000000 )
                  (  0.0000000  1.0000000  0.0000000 )       (  0.5000000 )
                  (  0.0000000  0.0000000 -1.0000000 )       (  0.2872756 )

[...]

      isym =  8      90 deg rotation - cart. axis [0,0,1]

 cryst.   s( 8) = (     0          1          0      )    f =(  0.5000000 )
                  (    -1          0          0      )       (  0.5000000 )
                  (     0          0          1      )       ( -0.5000000 )

 cart.    s( 8) = (  0.0000000 -1.0000000  0.0000000 )    f =(  0.5000000 )
                  (  1.0000000  0.0000000  0.0000000 )       (  0.5000000 )
                  (  0.0000000  0.0000000  1.0000000 )       ( -0.2872756 )

      isym =  9     inversion

 cryst.   s( 9) = (    -1          0          0      )
                  (     0         -1          0      )
                  (     0          0         -1      )

 cart.    s( 9) = ( -1.0000000  0.0000000  0.0000000 )
                  (  0.0000000 -1.0000000  0.0000000 )
                  (  0.0000000  0.0000000 -1.0000000 )

      isym = 10     inv. 180 deg rotation - cart. axis [0,0,1]

 cryst.   s(10) = (     1          0          0      )
                  (     0          1          0      )
                  (     0          0         -1      )

 cart.    s(10) = (  1.0000000  0.0000000  0.0000000 )
                  (  0.0000000  1.0000000  0.0000000 )
                  (  0.0000000  0.0000000 -1.0000000 )

[...]

 cryst.   s(11) = (     1          0          0      )    f =(  0.5000000 )
                  (     0         -1          0      )       (  0.5000000 )
                  (     0          0          1      )       ( -0.5000000 )

 cart.    s(11) = (  1.0000000  0.0000000  0.0000000 )    f =(  0.5000000 )
                  (  0.0000000 -1.0000000  0.0000000 )       (  0.5000000 )
                  (  0.0000000  0.0000000  1.0000000 )       ( -0.2872756 )

[...]

 cryst.   s(14) = (     0          1          0      )
                  (     1          0          0      )
                  (     0          0          1      )

 cart.    s(14) = (  0.0000000  1.0000000  0.0000000 )
                  (  1.0000000  0.0000000  0.0000000 )
                  (  0.0000000  0.0000000  1.0000000 )

[...]

      isym = 16     inv.  90 deg rotation - cart. axis [0,0,1]

 cryst.   s(16) = (     0         -1          0      )    f =(  0.5000000 )
                  (     1          0          0      )       (  0.5000000 )
                  (     0          0         -1      )       (  0.5000000 )

 cart.    s(16) = (  0.0000000  1.0000000  0.0000000 )    f =(  0.5000000 )
                  ( -1.0000000  0.0000000  0.0000000 )       (  0.5000000 )
                  (  0.0000000  0.0000000 -1.0000000 )       (  0.2872756 )

   Cartesian axes

     site n.     atom                  positions (alat units)
         1           Tc  tau(   1) = (   0.5000000   0.5000000   0.0000000  )
         2           Tc  tau(   2) = (   0.0000000   0.0000000   0.2872756  )
         3           O   tau(   3) = (   0.2849610   0.7150390   0.2872756  )
         4           O   tau(   4) = (   0.7849610   0.7849610   0.0000000  )
         5           O   tau(   5) = (   0.7150390   0.2849610   0.2872756  )
         6           O   tau(   6) = (   0.2150390   0.2150390   0.0000000  )

   Crystallographic axes

     site n.     atom                  positions (cryst. coord.)
         1           Tc  tau(   1) = (  0.5000000  0.5000000  0.0000000  )
         2           Tc  tau(   2) = (  0.0000000  0.0000000  0.5000000  )
         3           O   tau(   3) = (  0.2849610  0.7150390  0.5000000  )
         4           O   tau(   4) = (  0.7849610  0.7849610  0.0000000  )
         5           O   tau(   5) = (  0.7150390  0.2849610  0.5000000  )
         6           O   tau(   6) = (  0.2150390  0.2150390  0.0000000  )

     number of k points=     1  Methfessel-Paxton smearing, width (Ry)=  0.0010
                       cart. coord. in units 2pi/alat
        k(    1) = (   0.0000000   0.0000000   0.0000000), wk =   2.0000000

                       cryst. coord.
        k(    1) = (   0.0000000   0.0000000   0.0000000), wk =   2.0000000

     Check: negative core charge=   -0.000017

     Initial potential from superposition of free atoms

     starting charge      53.9986, renormalised to      54.0000
     Starting wfcs are   36 randomized atomic wfcs
     Checking if some PAW data can be deallocated...

     Self-consistent Calculation

     iteration #  1     ecut=    30.00 Ry     beta= 0.70
     Davidson diagonalization with overlap

     ethr =  1.00E-02,  avg # of iterations =  2.0

     total energy              =    -487.68093659 Ry
     estimated scf accuracy    <       1.88683409 Ry

[...]

     WARNING: integrated charge=    53.99994700, expected=    54.00000000

[...]

     WARNING: integrated charge=    53.99999358, expected=    54.00000000

[...]

     total energy              =    -488.60528543 Ry
     estimated scf accuracy    <       0.00000685 Ry

     iteration # 92     ecut=    30.00 Ry     beta= 0.70
     Davidson diagonalization with overlap

     ethr =  1.27E-08,  avg # of iterations =  1.0

     End of self-consistent calculation

          k = 0.0000 0.0000 0.0000 (   601 PWs)   bands (ev):

   -55.6924 -55.6862 -28.2075 -28.2074 -27.3742 -27.3580 -27.2416 -27.2415
    -6.7703  -5.8708  -5.1166  -5.1165   4.6961   5.1146   5.7593   7.6904
     7.6905   8.7429   8.7429  10.1492  10.4009  10.5966  10.8260  10.8261
    11.0729  11.2087  12.0181  12.0356  12.0357  14.6221  15.2031  17.0938

     occupation numbers
     1.0000   1.0000   1.0000   1.0000   1.0000   1.0000   1.0000   1.0000
     1.0000   1.0000   1.0000   1.0000   1.0000   1.0000   1.0000   1.0000
     1.0000   1.0000   1.0000   1.0000   1.0000   1.0000   1.0000   1.0000
     1.0000   1.0000   0.9176   0.0417   0.0406  -0.0000  -0.0000  -0.0000

     the Fermi energy is    12.0262 ev

!    total energy              =    -488.60528498 Ry
     estimated scf accuracy    <       0.00000056 Ry
     smearing contrib. (-TS)   =      -0.00006778 Ry
     internal energy E=F+TS    =    -488.60521720 Ry

     The total energy is F=E-TS. E is the sum of the following terms:
     one-electron contribution =    -141.56842910 Ry
     hartree contribution      =     100.41128966 Ry
     xc contribution           =     -64.88376452 Ry
     ewald contribution        =    -344.55313952 Ry
     one-center paw contrib.   =     -38.01117373 Ry
      -> PAW hartree energy AE =     123.48437798 Ry
      -> PAW hartree energy PS =    -123.00942856 Ry
      -> PAW xc energy AE      =     -69.40078977 Ry
      -> PAW xc energy PS      =      30.91466662 Ry
      -> total E_H with PAW    =     100.88623908 Ry
      -> total E_XC with PAW   =    -103.36988767 Ry

     convergence has been achieved in  92 iterations

     Forces acting on atoms (cartesian axes, Ry/au):

     atom    1 type  1   force =     0.00000000    0.00000000    0.00000000
     atom    2 type  1   force =     0.00000000    0.00000000    0.00000000
     atom    3 type  2   force =     0.05700480   -0.05700480    0.00000000
     atom    4 type  2   force =     0.05700480    0.05700480    0.00000000
     atom    5 type  2   force =    -0.05700480    0.05700480    0.00000000
     atom    6 type  2   force =    -0.05700480   -0.05700480    0.00000000
     The non-local contrib.  to forces
     atom    1 type  1   force =     0.00000000    0.00000000    0.00000000
     atom    2 type  1   force =     0.00000000    0.00000000    0.00000000
     atom    3 type  2   force =    -0.14722113    0.14722113   -0.00000000
     atom    4 type  2   force =    -0.14722113   -0.14722113    0.00000000
     atom    5 type  2   force =     0.14722113   -0.14722113   -0.00000000
     atom    6 type  2   force =     0.14722113    0.14722113   -0.00000000
     The ionic contribution  to forces
     atom    1 type  1   force =    -0.00000000   -0.00000000    0.00000000
     atom    2 type  1   force =    -0.00000000   -0.00000000    0.00000000
     atom    3 type  2   force =    -1.40648089    1.40648089    0.00000000
     atom    4 type  2   force =    -1.40648089   -1.40648089   -0.00000000
     atom    5 type  2   force =     1.40648089   -1.40648089    0.00000000
     atom    6 type  2   force =     1.40648089    1.40648089   -0.00000000
     The local contribution  to forces
     atom    1 type  1   force =     0.00001015    0.00003065   -0.00000075
     atom    2 type  1   force =    -0.00001267   -0.00003766   -0.00000014
     atom    3 type  2   force =     1.60968018   -1.60967209    0.00000055
     atom    4 type  2   force =     1.60776781    1.60776140   -0.00000130
     atom    5 type  2   force =    -1.60967982    1.60967535   -0.00000087
     atom    6 type  2   force =    -1.60777313   -1.60776702    0.00000192
     The core correction contribution to forces
     atom    1 type  1   force =     0.00000000    0.00000000    0.00000000
     atom    2 type  1   force =     0.00000000    0.00000000    0.00000000
     atom    3 type  2   force =     0.00199421   -0.00199420   -0.00000001
     atom    4 type  2   force =     0.00199432    0.00199433   -0.00000001
     atom    5 type  2   force =    -0.00199413    0.00199415   -0.00000001
     atom    6 type  2   force =    -0.00199437   -0.00199437    0.00000001
     The Hubbard contrib.    to forces
     atom    1 type  1   force =     0.00000000    0.00000000    0.00000000
     atom    2 type  1   force =     0.00000000    0.00000000    0.00000000
     atom    3 type  2   force =     0.00000000    0.00000000    0.00000000
     atom    4 type  2   force =     0.00000000    0.00000000    0.00000000
     atom    5 type  2   force =     0.00000000    0.00000000    0.00000000
     atom    6 type  2   force =     0.00000000    0.00000000    0.00000000
     The SCF correction term to forces
     atom    1 type  1   force =    -0.00001212   -0.00002844    0.00000086
     atom    2 type  1   force =     0.00001725    0.00003607    0.00000035
     atom    3 type  2   force =    -0.00094034    0.00093487    0.00000011
     atom    4 type  2   force =     0.00091797    0.00092383   -0.00000030
     atom    5 type  2   force =     0.00094209   -0.00093854   -0.00000077
     atom    6 type  2   force =    -0.00091707   -0.00092059   -0.00000013

     Total force =     0.161234     Total SCF correction =     0.002629

     Computing stress (Cartesian axis) and pressure

          total   stress  (Ry/bohr**3)                   (kbar)     P=     -456.72
  -0.00345079   0.00000000   0.00000000         -507.63        0.00        0.00
   0.00000000  -0.00345079   0.00000000            0.00     -507.63        0.00
   0.00000000   0.00000000  -0.00241256            0.00        0.00     -354.90

     kinetic stress (kbar)  37503.56      0.00      0.00
                                0.00  37503.56      0.00
                                0.00      0.00  37685.35

     local   stress (kbar)  -4156.64     -2.14     -0.00
                               -2.14  -4156.81     -0.01
                               -0.00     -0.01 -28928.35

     nonloc. stress (kbar)   8224.77      0.00      0.00
                                0.00   8224.77      0.00
                                0.00      0.00   8209.96

     hartree stress (kbar)   7913.51      0.75      0.00
                                0.75   7913.53      0.00
                                0.00      0.00  17571.94

     exc-cor stress (kbar)  -6196.90      0.01      0.00
                                0.01  -6196.90      0.00
                                0.00      0.00  -6195.41

     corecor stress (kbar)   -561.14     -0.00      0.00
                               -0.00   -561.14      0.00
                                0.00      0.00   -561.94

     ewald   stress (kbar) -43234.72     -0.00     -0.00
                               -0.00 -43234.72     -0.00
                               -0.00     -0.00 -28136.44

     hubbard stress (kbar)      0.00      0.00      0.00
                                0.00      0.00      0.00
                                0.00      0.00      0.00

     DFT-D   stress (kbar)      0.00      0.00      0.00
                                0.00      0.00      0.00
                                0.00      0.00      0.00

     XDM     stress (kbar)      0.00      0.00      0.00
                                0.00      0.00      0.00
                                0.00      0.00      0.00

     dft-nl  stress (kbar)      0.00      0.00      0.00
                                0.00      0.00      0.00
                                0.00      0.00      0.00

     TS-vdW  stress (kbar)      0.00      0.00      0.00
                                0.00      0.00      0.00
                                0.00      0.00      0.00

[...]

                                0.00      0.00      0.00

     Writing all to output data dir new_calculations/myprefix.save/

     General routines

     Parallel routines

     PAW routines

   This run was terminated on:   8: 9:54  20May2023

   JOB DONE.