     Program PWSCF v.7.0 starts on 21May2023 at 11:37:16

     Reading input from espresso_20590.pwi
Warning: card &CELL ignored
Warning: card / ignored

     Current dimensions of program PWSCF are:
     Max number of different atomic species (ntypx) = 10
     Max number of k-points (npk) =  40000
     Max angular momentum in pseudopotentials (lmaxx) =  4
     file Mg.pbe-n-kjpaw_psl.0.3.0.UPF: wavefunction(s)  3S renormalized
     file O.pbe-n-kjpaw_psl.0.1.UPF: wavefunction(s)  2P renormalized

     gamma-point specific algorithms are used
     Message from routine setup:
     using ibrav=0 with symmetry is DISCOURAGED, use correct ibrav instead

     Subspace diagonalization in iterative solution of the eigenvalue problem:
     a serial algorithm will be used

     Using Slab Decomposition

     bravais-lattice index     =            0
     lattice parameter (alat)  =      10.6398  a.u.
     unit-cell volume          =     849.4824 (a.u.)^3
     number of atoms/cell      =           10
     number of atomic types    =            4
     number of electrons       =        74.00
     number of Kohn-Sham states=           44
     kinetic-energy cutoff     =      30.0000  Ry
     charge density cutoff     =     240.0000  Ry
     scf convergence threshold =      1.0E-06
     mixing beta               =       0.7000
     number of iterations used =            8  plain     mixing
     Exchange-correlation= SLA  PW   PBX  PBC
                           (   1   4   3   4   0   0   0)

     celldm(1)=  10.639797  celldm(2)=   0.000000  celldm(3)=   0.000000
     celldm(4)=   0.000000  celldm(5)=   0.000000  celldm(6)=   0.000000

     crystal axes: (cart. coord. in units of alat)
               a(1) = (   1.000000   0.000000   0.000000 )
               a(2) = (   0.005167   0.999987   0.000000 )
               a(3) = (  -0.502583  -0.499993   0.705278 )

     reciprocal axes: (cart. coord. in units 2 pi/alat)
               b(1) = (  1.000000 -0.005167  0.708940 )
               b(2) = (  0.000000  1.000013  0.708940 )
               b(3) = (  0.000000  0.000000  1.417881 )

     PseudoPot. # 1 for Sr read from file:
     /home/pragov/projects/rrg-bengioy-ad/pragov/crystal_structure_design/SSSP/Sr_pbe_v1.uspp.F.UPF
     MD5 check sum: 6b418c05fbe9db5448babca5e47b7a5b
     Pseudo is Ultrasoft + core correction, Zval = 10.0
     Generated by new atomic code, or converted to UPF format
     Using radial grid of  883 points,  6 beta functions with:
                l(1) =   0
                l(2) =   0
                l(3) =   1
                l(4) =   1
                l(5) =   2
                l(6) =   2
     Q(r) pseudized with  6 coefficients,  rinner =    1.400   1.400   1.400
                                                       1.400   1.400

     PseudoPot. # 2 for Mg read from file:
     /home/pragov/projects/rrg-bengioy-ad/pragov/crystal_structure_design/SSSP/Mg.pbe-n-kjpaw_psl.0.3.0.UPF
     MD5 check sum: 24ecedc7f3e3cbe212e682f4413594e4
     Pseudo is Projector augmented-wave + core cor, Zval =  2.0
     Generated using "atomic" code by A. Dal Corso  v.5.0.99 svn rev. 10869
     Shape of augmentation charge: PSQ
     Using radial grid of 1129 points,  4 beta functions with:
                l(1) =   0
                l(2) =   0
                l(3) =   1
                l(4) =   1
     Q(r) pseudized with 0 coefficients

     PseudoPot. # 3 for Os read from file:
     /home/pragov/projects/rrg-bengioy-ad/pragov/crystal_structure_design/SSSP/Os_pbe_v1.2.uspp.F.UPF
     MD5 check sum: a3fb40a04f0c37c25c34bbc47164c9a8
     Pseudo is Ultrasoft + core correction, Zval = 16.0
     Generated by new atomic code, or converted to UPF format
     Using radial grid of  983 points,  8 beta functions with:
                l(1) =   0
                l(2) =   0
                l(3) =   1
                l(4) =   1
                l(5) =   2
                l(6) =   2
                l(7) =   3
                l(8) =   3
     Q(r) pseudized with  8 coefficients,  rinner =    1.150   1.150   1.150
                                                       1.150   1.150   1.150
                                                       1.150

     PseudoPot. # 4 for O  read from file:
     /home/pragov/projects/rrg-bengioy-ad/pragov/crystal_structure_design/SSSP/O.pbe-n-kjpaw_psl.0.1.UPF
     MD5 check sum: 0234752ac141de4415c5fc33072bef88
     Pseudo is Projector augmented-wave + core cor, Zval =  6.0
     Generated using "atomic" code by A. Dal Corso  v.5.0.99 svn rev. 10869
     Shape of augmentation charge: BESSEL
     Using radial grid of 1095 points,  4 beta functions with:
                l(1) =   0
                l(2) =   0
                l(3) =   1
                l(4) =   1
     Q(r) pseudized with 0 coefficients

     atomic species   valence    mass     pseudopotential
        Sr            10.00    87.62000     Sr( 1.00)
        Mg             2.00    24.30500     Mg( 1.00)
        Os            16.00   190.23000     Os( 1.00)
        O              6.00    15.99900     O ( 1.00)

      2 Sym. Ops., with inversion, found

                                    s                        frac. trans.

      isym =  1     identity

 cryst.   s( 1) = (     1          0          0      )
                  (     0          1          0      )
                  (     0          0          1      )

 cart.    s( 1) = (  1.0000000 -0.0000000 -0.0000000 )
                  (  0.0000000  1.0000000  0.0000000 )
                  (  0.0000000  0.0000000  1.0000000 )

      isym =  2     inversion

 cryst.   s( 2) = (    -1          0          0      )
                  (     0         -1          0      )
                  (     0          0         -1      )

 cart.    s( 2) = ( -1.0000000  0.0000000  0.0000000 )
                  (  0.0000000 -1.0000000 -0.0000000 )
                  (  0.0000000  0.0000000 -1.0000000 )

   Cartesian axes

     site n.     atom                  positions (alat units)
         1           Sr  tau(   1) = (   0.5000001   0.0000001   0.3526388  )
         2           Sr  tau(   2) = (   0.0025834   0.4999934   0.3526388  )
         3           Mg  tau(   3) = (   0.5025834   0.4999933   0.0000000  )
         4           Os  tau(   4) = (   0.0000000   0.0000000   0.0000000  )
         5           O   tau(   5) = (   0.5237236   0.4787437   0.3633111  )
         6           O   tau(   6) = (  -0.0211401   0.0212498   0.3419666  )
         7           O   tau(   7) = (   0.2562358  -0.2575619   0.6753027  )
         8           O   tau(   8) = (   0.2463476   0.7575554   0.0299750  )
         9           O   tau(   9) = (   0.2443379   0.2430788   0.0000000  )
        10           O   tau(  10) = (   0.7608288   0.7569079   0.0000000  )

   Crystallographic axes

     site n.     atom                  positions (cryst. coord.)
         1           Sr  tau(   1) = (  0.7500000  0.2500000  0.5000000  )
         2           Sr  tau(   2) = (  0.2500000  0.7500000  0.5000000  )
         3           Mg  tau(   3) = (  0.5000000  0.5000000  0.0000000  )
         4           Os  tau(   4) = (  0.0000000  0.0000000  0.0000000  )
         5           O   tau(   5) = (  0.7788160  0.7363160  0.5151320  )
         6           O   tau(   6) = (  0.2211840  0.2636840  0.4848680  )
         7           O   tau(   7) = (  0.7363160  0.2211840  0.9574990  )
         8           O   tau(   8) = (  0.2636840  0.7788160  0.0425010  )
         9           O   tau(   9) = (  0.2430820  0.2430820  0.0000000  )
        10           O   tau(  10) = (  0.7569180  0.7569180  0.0000000  )

     number of k points=     1  Methfessel-Paxton smearing, width (Ry)=  0.0010
                       cart. coord. in units 2pi/alat
        k(    1) = (   0.0000000   0.0000000   0.0000000), wk =   2.0000000

                       cryst. coord.
        k(    1) = (   0.0000000   0.0000000   0.0000000), wk =   2.0000000

     Check: negative core charge=   -0.000010

     Initial potential from superposition of free atoms

     starting charge      73.4317, renormalised to      74.0000

     negative rho (up, down):  2.512E-01 0.000E+00
     Starting wfcs are   67 randomized atomic wfcs
     Checking if some PAW data can be deallocated...

     Self-consistent Calculation

     iteration #  1     ecut=    30.00 Ry     beta= 0.70
     Davidson diagonalization with overlap

     ethr =  1.00E-02,  avg # of iterations =  2.0

     negative rho (up, down):  2.716E-01 0.000E+00

     total energy              =    -620.49319790 Ry
     estimated scf accuracy    <       3.37761050 Ry

[...]

     total energy              =    -622.30981425 Ry
     estimated scf accuracy    <       0.00000145 Ry

     iteration # 20     ecut=    30.00 Ry     beta= 0.70
     Davidson diagonalization with overlap

     ethr =  1.96E-09,  avg # of iterations =  1.0

[...]

     End of self-consistent calculation

          k = 0.0000 0.0000 0.0000 (  1203 PWs)   bands (ev):

   -77.5676 -36.8605 -36.8605 -36.8237 -24.2586 -24.2143  -8.1003  -7.1741
    -6.9575  -6.7486  -6.7485  -6.6264  -6.4162  -6.4162  -6.1982  -6.1837
    -6.1392  -6.1392   3.8200   4.8917   4.9592   4.9940   5.0242   5.0243
     6.4298   6.4299   6.4346   8.5469   8.6164   8.6164   9.1804   9.1807
     9.1807   9.5852   9.7248   9.7248  10.8027  10.8027  10.8030  14.3623
    14.6314  14.9155  15.7478  16.2083

     occupation numbers
     1.0000   1.0000   1.0000   1.0000   1.0000   1.0000   1.0000   1.0000
     1.0000   1.0000   1.0000   1.0000   1.0000   1.0000   1.0000   1.0000
     1.0000   1.0000   1.0000   1.0000   1.0000   1.0000   1.0000   1.0000
     1.0000   1.0000   1.0000   1.0000   1.0000   1.0000   1.0000   1.0000
     1.0000   1.0000   1.0000   1.0000   0.3408   0.3388   0.3204  -0.0000
    -0.0000  -0.0000  -0.0000  -0.0000

     the Fermi energy is    10.8001 ev

!    total energy              =    -622.30981403 Ry
     estimated scf accuracy    <       0.00000039 Ry
     smearing contrib. (-TS)   =      -0.00074640 Ry
     internal energy E=F+TS    =    -622.30906763 Ry

     The total energy is F=E-TS. E is the sum of the following terms:
     one-electron contribution =    -169.78929771 Ry
     hartree contribution      =     127.32093204 Ry
     xc contribution           =    -120.94762635 Ry
     ewald contribution        =    -370.55184775 Ry
     one-center paw contrib.   =     -88.34122786 Ry
      -> PAW hartree energy AE =     183.08358666 Ry
      -> PAW hartree energy PS =    -182.37527924 Ry
      -> PAW xc energy AE      =    -136.43829588 Ry
      -> PAW xc energy PS      =      47.38876060 Ry
      -> total E_H with PAW    =     128.02923945 Ry
      -> total E_XC with PAW   =    -209.99716162 Ry

     convergence has been achieved in  20 iterations

     negative rho (up, down):  2.662E-01 0.000E+00

     Forces acting on atoms (cartesian axes, Ry/au):

     atom    1 type  1   force =    -0.00003647   -0.00003034   -0.00000966
     atom    2 type  1   force =     0.00003647    0.00003034    0.00000966
     atom    3 type  2   force =     0.00000000    0.00000000    0.00000000
     atom    4 type  3   force =     0.00000000    0.00000000    0.00000000
     atom    5 type  4   force =     0.03736920   -0.03756429    0.05091776
     atom    6 type  4   force =    -0.03736920    0.03756429   -0.05091776
     atom    7 type  4   force =     0.03572592   -0.03589745   -0.05298814
     atom    8 type  4   force =    -0.03572592    0.03589745    0.05298814
     atom    9 type  4   force =    -0.03582408   -0.03562914    0.00000275
     atom   10 type  4   force =     0.03582408    0.03562914   -0.00000275
     The non-local contrib.  to forces
     atom    1 type  1   force =    -0.00001149   -0.00001169    0.00000859
     atom    2 type  1   force =     0.00001149    0.00001169   -0.00000859
     atom    3 type  2   force =     0.00000000    0.00000000    0.00000000
     atom    4 type  3   force =     0.00000000    0.00000000    0.00000000
     atom    5 type  4   force =    -0.02309070    0.02321880    0.55376638
     atom    6 type  4   force =     0.02309070   -0.02321880   -0.55376638
     atom    7 type  4   force =     0.39048922   -0.39251862    0.03274481
     atom    8 type  4   force =    -0.39048922    0.39251862   -0.03274481
     atom    9 type  4   force =    -0.39462178   -0.39259102    0.00000052
     atom   10 type  4   force =     0.39462178    0.39259102   -0.00000052
     The ionic contribution  to forces
     atom    1 type  1   force =     0.00001902    0.00002438   -0.00003117
     atom    2 type  1   force =    -0.00001901   -0.00002438    0.00003117
     atom    3 type  2   force =    -0.00000000   -0.00000000   -0.00000000
     atom    4 type  3   force =    -0.00000000   -0.00000000   -0.00000000
     atom    5 type  4   force =     0.38313103   -0.38512049  -10.91764914
     atom    6 type  4   force =    -0.38313103    0.38512049   10.91764914
     atom    7 type  4   force =    -7.69997369    7.73985181   -0.54321282
     atom    8 type  4   force =     7.69997369   -7.73985181    0.54321282
     atom    9 type  4   force =     7.68744320    7.64780049    0.00000086
     atom   10 type  4   force =    -7.68744320   -7.64780049   -0.00000086
     The local contribution  to forces
     atom    1 type  1   force =    -0.00013374   -0.00014212    0.00000465
     atom    2 type  1   force =     0.00015740    0.00011777    0.00000205
     atom    3 type  2   force =     0.00004698   -0.00001704   -0.00005579
     atom    4 type  3   force =    -0.00032219    0.00012800    0.00033513
     atom    5 type  4   force =    -0.32300396    0.32465428   10.41998362
     atom    6 type  4   force =     0.32299561   -0.32465183  -10.41988017
     atom    7 type  4   force =     7.34880000   -7.38686706    0.45784997
     atom    8 type  4   force =    -7.34889707    7.38695983   -0.45780105
     atom    9 type  4   force =    -7.33239218   -7.29457416    0.00002048
     atom   10 type  4   force =     7.33233738    7.29455489   -0.00000980
     The core correction contribution to forces
     atom    1 type  1   force =    -0.00000005    0.00000002   -0.00000139
     atom    2 type  1   force =     0.00000031   -0.00000013    0.00000055
     atom    3 type  2   force =    -0.00000049   -0.00000002    0.00000064
     atom    4 type  3   force =    -0.00000065    0.00000110    0.00000282
     atom    5 type  4   force =     0.00028314   -0.00028475   -0.00512996
     atom    6 type  4   force =    -0.00028317    0.00028483    0.00512948
     atom    7 type  4   force =    -0.00361780    0.00363672   -0.00040148
     atom    8 type  4   force =     0.00361818   -0.00363706    0.00040153
     atom    9 type  4   force =     0.00374089    0.00372160    0.00000002
     atom   10 type  4   force =    -0.00374060   -0.00372155    0.00000001
     The Hubbard contrib.    to forces
     atom    1 type  1   force =     0.00000000    0.00000000    0.00000000
     atom    2 type  1   force =     0.00000000    0.00000000    0.00000000
     atom    3 type  2   force =     0.00000000    0.00000000    0.00000000
     atom    4 type  3   force =     0.00000000    0.00000000    0.00000000
     atom    5 type  4   force =     0.00000000    0.00000000    0.00000000
     atom    6 type  4   force =     0.00000000    0.00000000    0.00000000
     atom    7 type  4   force =     0.00000000    0.00000000    0.00000000
     atom    8 type  4   force =     0.00000000    0.00000000    0.00000000
     atom    9 type  4   force =     0.00000000    0.00000000    0.00000000
     atom   10 type  4   force =     0.00000000    0.00000000    0.00000000
     The SCF correction term to forces
     atom    1 type  1   force =     0.00009198    0.00009884    0.00000044
     atom    2 type  1   force =    -0.00011154   -0.00007485   -0.00002474
     atom    3 type  2   force =    -0.00003726    0.00001161    0.00004401
     atom    4 type  3   force =     0.00042446   -0.00017523   -0.00045197
     atom    5 type  4   force =     0.00004502   -0.00002737   -0.00003620
     atom    6 type  4   force =    -0.00004597    0.00003437   -0.00003289
     atom    7 type  4   force =     0.00002156    0.00000628    0.00003530
     atom    8 type  4   force =     0.00006187   -0.00008556   -0.00007642
     atom    9 type  4   force =     0.00000461    0.00001165   -0.00001629
     atom   10 type  4   force =     0.00004754    0.00000297    0.00001127

     Total force =     0.163252     Total SCF correction =     0.000697

     Computing stress (Cartesian axis) and pressure

     negative rho (up, down):  2.662E-01 0.000E+00
          total   stress  (Ry/bohr**3)                   (kbar)     P=     -208.89
  -0.00144657  -0.00007440  -0.00000095         -212.80      -10.94       -0.14
  -0.00007440  -0.00144480   0.00000086          -10.94     -212.54        0.13
  -0.00000095   0.00000086  -0.00136871           -0.14        0.13     -201.34

     kinetic stress (kbar)  24178.96     18.75      0.32
                               18.75  24178.49     -0.29
                                0.32     -0.29  24158.94

     local   stress (kbar)  -4627.43   -101.11     -0.53
                             -101.11  -4626.14      0.49
                               -0.53      0.49  -4523.79

     nonloc. stress (kbar)   -213.11     -7.50     -0.16
                               -7.50   -212.88      0.14
                               -0.16      0.14   -204.90

     hartree stress (kbar)   7358.63     26.11      0.21
                               26.11   7358.31     -0.19
                                0.21     -0.19   7331.26

     exc-cor stress (kbar)   1737.91      0.64      0.00
                                0.64   1737.90     -0.00
                                0.00     -0.00   1737.26

     corecor stress (kbar)  -7275.90     -0.13     -0.01
                               -0.13  -7275.89      0.01
                               -0.01      0.01  -7275.74

     ewald   stress (kbar) -21371.86     52.29      0.02
                               52.29 -21372.33     -0.03
                                0.02     -0.03 -21424.37

     hubbard stress (kbar)      0.00      0.00      0.00
                                0.00      0.00      0.00
                                0.00      0.00      0.00

     DFT-D   stress (kbar)      0.00      0.00      0.00
                                0.00      0.00      0.00
                                0.00      0.00      0.00

     XDM     stress (kbar)      0.00      0.00      0.00
                                0.00      0.00      0.00
                                0.00      0.00      0.00

     dft-nl  stress (kbar)      0.00      0.00      0.00
                                0.00      0.00      0.00
                                0.00      0.00      0.00

     TS-vdW  stress (kbar)      0.00      0.00      0.00
                                0.00      0.00      0.00
                                0.00      0.00      0.00

[...]

                                0.00      0.00      0.00

     Writing all to output data dir new_calculations/myprefix.save/

     General routines

     Parallel routines

     PAW routines

   This run was terminated on:  11:38:10  21May2023

   JOB DONE.