     Program PWSCF v.7.0 starts on 20May2023 at  7:33:36

     Reading input from espresso_17127.pwi
Warning: card &CELL ignored
Warning: card / ignored

     Current dimensions of program PWSCF are:
     Max number of different atomic species (ntypx) = 10
     Max number of k-points (npk) =  40000
     Max angular momentum in pseudopotentials (lmaxx) =  4

     gamma-point specific algorithms are used
     Message from routine setup:
     using ibrav=0 with symmetry is DISCOURAGED, use correct ibrav instead

     Subspace diagonalization in iterative solution of the eigenvalue problem:
     a serial algorithm will be used

     Using Slab Decomposition

     bravais-lattice index     =            0
     lattice parameter (alat)  =      10.1630  a.u.
     unit-cell volume          =     727.3483 (a.u.)^3
     number of atoms/cell      =            8
     number of atomic types    =            2
     number of electrons       =       124.00
     number of Kohn-Sham states=           74
     kinetic-energy cutoff     =      30.0000  Ry
     charge density cutoff     =     240.0000  Ry
     scf convergence threshold =      1.0E-06
     mixing beta               =       0.7000
     number of iterations used =            8  plain     mixing
     Exchange-correlation= PBE
                           (   1   4   3   4   0   0   0)

     celldm(1)=  10.162983  celldm(2)=   0.000000  celldm(3)=   0.000000
     celldm(4)=   0.000000  celldm(5)=   0.000000  celldm(6)=   0.000000

     crystal axes: (cart. coord. in units of alat)
               a(1) = (   1.000000   0.000000   0.000000 )
               a(2) = (  -0.500000   0.866025   0.000000 )
               a(3) = (   0.000000   0.000000   0.800107 )

     reciprocal axes: (cart. coord. in units 2 pi/alat)
               b(1) = (  1.000000  0.577350  0.000000 )
               b(2) = (  0.000000  1.154700  0.000000 )
               b(3) = (  0.000000  0.000000  1.249833 )

     PseudoPot. # 1 for Co read from file:
     /home/pragov/projects/rrg-bengioy-ad/pragov/crystal_structure_design/SSSP/Co_pbe_v1.2.uspp.F.UPF
     MD5 check sum: 5f91765df6ddd3222702df6e7b74a16d
     Pseudo is Ultrasoft + core correction, Zval = 17.0
     Generated by new atomic code, or converted to UPF format
     Using radial grid of  863 points,  6 beta functions with:
                l(1) =   0
                l(2) =   0
                l(3) =   1
                l(4) =   1
                l(5) =   2
                l(6) =   2
     Q(r) pseudized with  8 coefficients,  rinner =    1.200   1.200   1.200
                                                       1.200   1.200

     PseudoPot. # 2 for Tc read from file:
     /home/pragov/projects/rrg-bengioy-ad/pragov/crystal_structure_design/SSSP/Tc_ONCV_PBE-1.0.oncvpsp.upf
     MD5 check sum: 1c2b1e6c8b361b656073c0c20ed4f60a
     Pseudo is Norm-conserving, Zval = 15.0
     Generated using ONCVPSP code by D. R. Hamann
     Using radial grid of 1492 points,  6 beta functions with:
                l(1) =   0
                l(2) =   0
                l(3) =   1
                l(4) =   1
                l(5) =   2
                l(6) =   2

     atomic species   valence    mass     pseudopotential
        Co            17.00    58.93319     Co( 1.00)
        Tc            15.00    97.90721     Tc( 1.00)

     24 Sym. Ops., with inversion, found (12 have fractional translation)

                                    s                        frac. trans.

      isym =  1     identity

 cryst.   s( 1) = (     1          0          0      )
                  (     0          1          0      )
                  (     0          0          1      )

 cart.    s( 1) = (  1.0000000  0.0000000  0.0000000 )
                  (  0.0000000  1.0000000  0.0000000 )
                  (  0.0000000  0.0000000  1.0000000 )

      isym =  2     180 deg rotation - cart. axis [0,0,1]

 cryst.   s( 2) = (    -1          0          0      )    f =( -0.0000000 )
                  (     0         -1          0      )       (  0.0000000 )
                  (     0          0          1      )       (  0.5000000 )

 cart.    s( 2) = ( -1.0000000 -0.0000000  0.0000000 )    f =( -0.0000000 )
                  (  0.0000000 -1.0000000  0.0000000 )       (  0.0000000 )
                  (  0.0000000  0.0000000  1.0000000 )       (  0.4000535 )

[...]

      isym =  4     180 deg rotation - cart. axis [1,0,0]

[...]

      isym =  5      60 deg rotation - cryst. axis [0,0,1]

[...]

 cryst.   s( 8) = (    -1         -1          0      )
                  (     1          0          0      )
                  (     0          0          1      )

 cart.    s( 8) = ( -0.5000002  0.8660253  0.0000000 )
                  ( -0.8660255 -0.4999998  0.0000000 )
                  (  0.0000000  0.0000000  1.0000000 )

[...]

 cryst.   s( 9) = (     0         -1          0      )    f =(  0.0000000 )
                  (    -1          0          0      )       (  0.0000000 )
                  (     0          0         -1      )       (  0.5000000 )

 cart.    s( 9) = (  0.4999998 -0.8660255  0.0000000 )    f =(  0.0000000 )
                  ( -0.8660255 -0.4999998  0.0000000 )       (  0.0000000 )
                  (  0.0000000  0.0000000 -1.0000000 )       (  0.4000535 )

[...]

 cryst.   s(10) = (     1          1          0      )    f =(  0.0000000 )
                  (     0         -1          0      )       ( -0.0000010 )
                  (     0          0         -1      )       (  0.5000000 )

 cart.    s(10) = (  0.5000002  0.8660251  0.0000000 )    f =(  0.0000005 )
                  (  0.8660255 -0.5000002  0.0000000 )       ( -0.0000009 )
                  (  0.0000000  0.0000000 -1.0000000 )       (  0.4000535 )

[...]

 cryst.   s(11) = (    -1         -1          0      )
                  (     0          1          0      )
                  (     0          0         -1      )

 cart.    s(11) = ( -0.5000002 -0.8660251  0.0000000 )
                  ( -0.8660255  0.5000002  0.0000000 )
                  (  0.0000000  0.0000000 -1.0000000 )

      isym = 12     180 deg rotation - cryst. axis [1,1,0]

[...]

      isym = 13     inversion

[...]

      isym = 14     inv. 180 deg rotation - cart. axis [0,0,1]

[...]

      isym = 16     inv. 180 deg rotation - cart. axis [1,0,0]

[...]

      isym = 17     inv.  60 deg rotation - cryst. axis [0,0,1]

[...]

 cryst.   s(22) = (    -1         -1          0      )    f =( -0.0000000 )
                  (     0          1          0      )       ( -0.0000010 )
                  (     0          0          1      )       (  0.5000000 )

 cart.    s(22) = ( -0.5000002 -0.8660251  0.0000000 )    f =(  0.0000005 )
                  ( -0.8660255  0.5000002  0.0000000 )       ( -0.0000009 )
                  (  0.0000000  0.0000000  1.0000000 )       (  0.4000535 )

[...]

      isym = 24     inv. 180 deg rotation - cryst. axis [1,1,0]

 cryst.   s(24) = (     0         -1          0      )
                  (    -1          0          0      )
                  (     0          0          1      )

 cart.    s(24) = (  0.4999998 -0.8660255  0.0000000 )
                  ( -0.8660255 -0.4999998  0.0000000 )
                  (  0.0000000  0.0000000  1.0000000 )

   Cartesian axes

     site n.     atom                  positions (alat units)
         1           Co  tau(   1) = (  -0.0000004   0.5773506   0.6000803  )
         2           Co  tau(   2) = (   0.5000006   0.2886749   0.2000268  )
         3           Tc  tau(   3) = (   0.0000001   0.2894378   0.2000268  )
         4           Tc  tau(   4) = (   0.2493396   0.7213066   0.2000268  )
         5           Tc  tau(   5) = (  -0.2493394   0.7213066   0.2000268  )
         6           Tc  tau(   6) = (   0.5000001   0.5765876   0.6000803  )
         7           Tc  tau(   7) = (   0.2506605   0.1447189   0.6000803  )
         8           Tc  tau(   8) = (   0.7493395   0.1447189   0.6000803  )

   Crystallographic axes

     site n.     atom                  positions (cryst. coord.)
         1           Co  tau(   1) = (  0.3333330  0.6666670  0.7500000  )
         2           Co  tau(   2) = (  0.6666670  0.3333330  0.2500000  )
         3           Tc  tau(   3) = (  0.1671070  0.3342140  0.2500000  )
         4           Tc  tau(   4) = (  0.6657860  0.8328930  0.2500000  )
         5           Tc  tau(   5) = (  0.1671070  0.8328930  0.2500000  )
         6           Tc  tau(   6) = (  0.8328930  0.6657860  0.7500000  )
         7           Tc  tau(   7) = (  0.3342140  0.1671070  0.7500000  )
         8           Tc  tau(   8) = (  0.8328930  0.1671070  0.7500000  )

     number of k points=     1  Methfessel-Paxton smearing, width (Ry)=  0.0010
                       cart. coord. in units 2pi/alat
        k(    1) = (   0.0000000   0.0000000   0.0000000), wk =   2.0000000

                       cryst. coord.
        k(    1) = (   0.0000000   0.0000000   0.0000000), wk =   2.0000000

     Check: negative core charge=   -0.000012

     Initial potential from superposition of free atoms

     starting charge     121.9957, renormalised to     124.0000
     Starting wfcs are   86 randomized atomic wfcs

     Self-consistent Calculation

     iteration #  1     ecut=    30.00 Ry     beta= 0.70
     Davidson diagonalization with overlap

     ethr =  1.00E-02,  avg # of iterations =  3.0

     total energy              =   -1560.92910503 Ry
     estimated scf accuracy    <       5.31583761 Ry

[...]

     total energy              =   -1564.67168409 Ry
     estimated scf accuracy    <       0.00000230 Ry

     iteration # 16     ecut=    30.00 Ry     beta= 0.70
     Davidson diagonalization with overlap

     ethr =  1.85E-09,  avg # of iterations =  3.0

     End of self-consistent calculation

          k = 0.0000 0.0000 0.0000 (  1013 PWs)   bands (ev):

   -72.8106 -72.8097 -44.9689 -44.7847 -44.7842 -44.7687 -44.6872 -44.6867
   -36.2823 -36.2823 -36.2724 -36.2723 -35.6452 -35.6432 -17.7802 -17.5137
   -17.3014 -17.3011 -17.2406 -17.2405 -17.1434 -16.9270 -16.7450 -16.7446
   -16.6233 -16.6230 -16.5881 -16.5879 -16.5583 -16.2323 -16.2318 -16.0739
    14.1470  16.2611  16.2768  16.6737  16.7704  16.7705  16.8701  17.4632
    17.4633  17.8769  17.8771  20.0684  20.0911  20.0911  20.1686  20.1688
    20.3820  20.5768  20.5768  20.6220  20.6242  20.6242  20.8544  20.8544
    20.9058  21.1464  21.3233  21.3235  21.5320  21.5320  23.2909  23.3545
    23.3547  23.5734  23.5736  24.0187  24.0187  24.1490  24.1492  24.8184
    25.2863  25.6586

     occupation numbers
     1.0000   1.0000   1.0000   1.0000   1.0000   1.0000   1.0000   1.0000
     1.0000   1.0000   1.0000   1.0000   1.0000   1.0000   1.0000   1.0000
     1.0000   1.0000   1.0000   1.0000   1.0000   1.0000   1.0000   1.0000
     1.0000   1.0000   1.0000   1.0000   1.0000   1.0000   1.0000   1.0000
     1.0000   1.0000   1.0000   1.0000   1.0000   1.0000   1.0000   1.0000
     1.0000   1.0000   1.0000   1.0000   1.0000   1.0000   1.0000   1.0000
     1.0000   1.0000   1.0000   1.0000   1.0000   1.0000   1.0000   1.0000
     1.0000   1.0000   1.0000   1.0000   1.0000   1.0000  -0.0000  -0.0000
    -0.0000  -0.0000  -0.0000  -0.0000  -0.0000  -0.0000  -0.0000  -0.0000
    -0.0000  -0.0000

     the Fermi energy is    22.7090 ev

!    total energy              =   -1564.67168419 Ry
     estimated scf accuracy    <       0.00000023 Ry
     smearing contrib. (-TS)   =       0.00000000 Ry
     internal energy E=F+TS    =   -1564.67168419 Ry

     The total energy is F=E-TS. E is the sum of the following terms:
     one-electron contribution =    -480.79631919 Ry
     hartree contribution      =     323.55360942 Ry
     xc contribution           =    -171.23646980 Ry
     ewald contribution        =   -1236.19250462 Ry

     convergence has been achieved in  16 iterations

     Forces acting on atoms (cartesian axes, Ry/au):

     atom    1 type  1   force =     0.00000000    0.00000000    0.00000000
     atom    2 type  1   force =     0.00000000   -0.00000000    0.00000000
     atom    3 type  2   force =    -0.00000000    0.04529310   -0.00000000
     atom    4 type  2   force =    -0.03922498   -0.02264654    0.00000000
     atom    5 type  2   force =     0.03922498   -0.02264655    0.00000000
     atom    6 type  2   force =    -0.00000000   -0.04529310    0.00000000
     atom    7 type  2   force =     0.03922498    0.02264654    0.00000000
     atom    8 type  2   force =    -0.03922498    0.02264655   -0.00000000
     The non-local contrib.  to forces
     atom    1 type  1   force =     0.00000000    0.00000000    0.00000000
     atom    2 type  1   force =    -0.00000000    0.00000000    0.00000000
     atom    3 type  2   force =    -0.00000000    0.04736401    0.00000000
     atom    4 type  2   force =    -0.04101844   -0.02368200    0.00000000
     atom    5 type  2   force =     0.04101844   -0.02368201    0.00000000
     atom    6 type  2   force =     0.00000000   -0.04736401   -0.00000000
     atom    7 type  2   force =     0.04101844    0.02368200   -0.00000000
     atom    8 type  2   force =    -0.04101844    0.02368201    0.00000000
     The ionic contribution  to forces
     atom    1 type  1   force =     0.00012676   -0.00007319    0.00000000
     atom    2 type  1   force =    -0.00012676    0.00007319   -0.00000000
     atom    3 type  2   force =     0.00010424   -1.98990384   -0.00000000
     atom    4 type  2   force =     1.72335957    0.99486135   -0.00000000
     atom    5 type  2   force =    -1.72336335    0.99498450   -0.00000000
     atom    6 type  2   force =    -0.00010424    1.98990384    0.00000000
     atom    7 type  2   force =    -1.72335957   -0.99486135    0.00000000
     atom    8 type  2   force =     1.72336335   -0.99498450   -0.00000000
     The local contribution  to forces
     atom    1 type  1   force =     0.00019363    0.00039054   -0.00002739
     atom    2 type  1   force =     0.00039031   -0.00057661    0.00002880
     atom    3 type  2   force =    -0.00039507    1.98726211    0.00003515
     atom    4 type  2   force =    -1.72149076   -0.99317684    0.00002690
     atom    5 type  2   force =     1.72145402   -0.99358891    0.00002269
     atom    6 type  2   force =    -0.00021865   -1.98736446   -0.00002939
     atom    7 type  2   force =     1.72142886    0.99362530   -0.00002801
     atom    8 type  2   force =    -1.72142221    0.99338137   -0.00002868
     The core correction contribution to forces
     atom    1 type  1   force =    -0.00000034    0.00000075    0.00000000
     atom    2 type  1   force =    -0.00000028   -0.00000043   -0.00000002
     atom    3 type  2   force =     0.00000000    0.00000000    0.00000000
     atom    4 type  2   force =     0.00000000    0.00000000    0.00000000
     atom    5 type  2   force =     0.00000000    0.00000000    0.00000000
     atom    6 type  2   force =     0.00000000    0.00000000    0.00000000
     atom    7 type  2   force =     0.00000000    0.00000000    0.00000000
     atom    8 type  2   force =     0.00000000    0.00000000    0.00000000
     The Hubbard contrib.    to forces
     atom    1 type  1   force =     0.00000000    0.00000000    0.00000000
     atom    2 type  1   force =     0.00000000    0.00000000    0.00000000
     atom    3 type  2   force =     0.00000000    0.00000000    0.00000000
     atom    4 type  2   force =     0.00000000    0.00000000    0.00000000
     atom    5 type  2   force =     0.00000000    0.00000000    0.00000000
     atom    6 type  2   force =     0.00000000    0.00000000    0.00000000
     atom    7 type  2   force =     0.00000000    0.00000000    0.00000000
     atom    8 type  2   force =     0.00000000    0.00000000    0.00000000
     The SCF correction term to forces
     atom    1 type  1   force =    -0.00033128   -0.00032388    0.00003200
     atom    2 type  1   force =    -0.00027718    0.00047660   -0.00004003
     atom    3 type  2   force =     0.00028241    0.00058993   -0.00003727
     atom    4 type  2   force =    -0.00009340   -0.00064913   -0.00002922
     atom    5 type  2   force =     0.00012956   -0.00035753   -0.00002553
     atom    6 type  2   force =     0.00030581   -0.00045936    0.00003189
     atom    7 type  2   force =     0.00011288    0.00020804    0.00003100
     atom    8 type  2   force =    -0.00013097    0.00055890    0.00003207

     Total force =     0.110945     Total SCF correction =     0.001490

     Computing stress (Cartesian axis) and pressure

          total   stress  (Ry/bohr**3)                   (kbar)     P=     -269.95
  -0.00218863   0.00000000  -0.00000000         -321.96        0.00       -0.00
   0.00000000  -0.00218863   0.00000000            0.00     -321.96        0.00
   0.00000000  -0.00000000  -0.00112794            0.00       -0.00     -165.93

     kinetic stress (kbar)  51578.51     -0.01      0.00
                               -0.01  51578.50     -0.00
                                0.00      0.00  54410.11

     local   stress (kbar)   5657.95      0.02      0.00
                                0.02   5657.80      0.00
                                0.00      0.00  -1914.61

     nonloc. stress (kbar)  16476.29     -0.00      0.00
                               -0.00  16476.29      0.00
                                0.00      0.00  16382.87

     hartree stress (kbar)  20939.01     -0.01     -0.00
                               -0.01  20939.16      0.00
                               -0.00      0.00  23560.05

     exc-cor stress (kbar)  -9944.78     -0.00      0.00
                               -0.00  -9944.78     -0.00
                                0.00     -0.00  -9915.50

     corecor stress (kbar)   -908.61      0.00      0.00
                                0.00   -908.61     -0.00
                                0.00     -0.00   -911.47

     ewald   stress (kbar) -84120.32     -0.02     -0.00
                               -0.02 -84120.34      0.00
                               -0.00      0.00 -81777.38

     hubbard stress (kbar)      0.00      0.00      0.00
                                0.00      0.00      0.00
                                0.00      0.00      0.00

     DFT-D   stress (kbar)      0.00      0.00      0.00
                                0.00      0.00      0.00
                                0.00      0.00      0.00

     XDM     stress (kbar)      0.00      0.00      0.00
                                0.00      0.00      0.00
                                0.00      0.00      0.00

     dft-nl  stress (kbar)      0.00      0.00      0.00
                                0.00      0.00      0.00
                                0.00      0.00      0.00

     TS-vdW  stress (kbar)      0.00      0.00      0.00
                                0.00      0.00      0.00
                                0.00      0.00      0.00

[...]

                                0.00      0.00      0.00

     Writing all to output data dir new_calculations/myprefix.save/

     General routines

     Parallel routines

   This run was terminated on:   7:33:48  20May2023

   JOB DONE.