     Program PWSCF v.7.1 starts on 16Jul2023 at 16:53:42

     Reading input from espresso_12946.pwi
Warning: card &CELL ignored
Warning: card / ignored

     Current dimensions of program PWSCF are:
     Max number of different atomic species (ntypx) = 10
     Max number of k-points (npk) =  40000
     Max angular momentum in pseudopotentials (lmaxx) =  4
     Message from routine setup:
     using ibrav=0 with symmetry is DISCOURAGED, use correct ibrav instead

     K-points division:     npool     =       2
     R & G space division:  proc/nbgrp/npool/nimage =       4
     Subspace diagonalization in iterative solution of the eigenvalue problem:
     a serial algorithm will be used

     Using Slab Decomposition

     bravais-lattice index     =            0
     lattice parameter (alat)  =      24.5765  a.u.
     unit-cell volume          =    1680.7057 (a.u.)^3
     number of atoms/cell      =           18
     number of atomic types    =            3
     number of electrons       =       126.00
     number of Kohn-Sham states=           76
     kinetic-energy cutoff     =      30.0000  Ry
     charge density cutoff     =     240.0000  Ry
     scf convergence threshold =      1.0E-06
     mixing beta               =       0.7000
     number of iterations used =            8  plain     mixing
     Exchange-correlation= PBE
                           (   1   4   3   4   0   0   0)

     celldm(1)=  24.576478  celldm(2)=   0.000000  celldm(3)=   0.000000
     celldm(4)=   0.000000  celldm(5)=   0.000000  celldm(6)=   0.000000

     crystal axes: (cart. coord. in units of alat)
               a(1) = (   1.000000   0.000000   0.000000 )
               a(2) = (   0.000000   0.359999   0.000000 )
               a(3) = (   0.000000   0.178685   0.314508 )

     reciprocal axes: (cart. coord. in units 2 pi/alat)
               b(1) = (  1.000000  0.000000  0.000000 )
               b(2) = (  0.000000  2.777784 -1.578178 )
               b(3) = (  0.000000  0.000000  3.179573 )

     PseudoPot. # 1 for Ta read from file:
     /lustre07/scratch/pragov/crystal_structure_design/utils/SSSP/Ta_pbe_v1.uspp.F.UPF
     MD5 check sum: f8bbe9446314a3b8ea5d9f3e3836c939
     Pseudo is Ultrasoft + core correction, Zval = 13.0
     Generated by new atomic code, or converted to UPF format
     Using radial grid of  921 points,  7 beta functions with:
                l(1) =   0
                l(2) =   0
                l(3) =   1
                l(4) =   1
                l(5) =   2
                l(6) =   2
                l(7) =   3
     Q(r) pseudized with  6 coefficients,  rinner =    1.300   1.300   1.300
                                                       1.300   1.300   1.300
                                                       1.300

     PseudoPot. # 2 for V  read from file:
     /lustre07/scratch/pragov/crystal_structure_design/utils/SSSP/v_pbe_v1.4.uspp.F.UPF
     MD5 check sum: 22b79981416ebb76fdaf5b1b8640f6fb
     Pseudo is Ultrasoft + core correction, Zval = 13.0
     Generated by new atomic code, or converted to UPF format
     Using radial grid of  853 points,  6 beta functions with:
                l(1) =   0
                l(2) =   0
                l(3) =   1
                l(4) =   1
                l(5) =   2
                l(6) =   2
     Q(r) pseudized with  8 coefficients,  rinner =    1.100   1.100   1.100
                                                       1.100   1.100

     PseudoPot. # 3 for Si read from file:
     /lustre07/scratch/pragov/crystal_structure_design/utils/SSSP/Si.pbe-n-rrkjus_psl.1.0.0.UPF
     MD5 check sum: 0b0bb1205258b0d07b9f9672cf965d36
     Pseudo is Ultrasoft + core correction, Zval =  4.0
     Generated using "atomic" code by A. Dal Corso  v.5.1
     Using radial grid of 1141 points,  6 beta functions with:
                l(1) =   0
                l(2) =   0
                l(3) =   1
                l(4) =   1
                l(5) =   2
                l(6) =   2
     Q(r) pseudized with 0 coefficients

     atomic species   valence    mass     pseudopotential
        Ta            13.00   180.94788     Ta( 1.00)
        V             13.00    50.94150     V ( 1.00)
        Si             4.00    28.08500     Si( 1.00)

      2 Sym. Ops. (no inversion) found

                                    s                        frac. trans.

      isym =  1     identity

 cryst.   s( 1) = (     1          0          0      )
                  (     0          1          0      )
                  (     0          0          1      )

 cart.    s( 1) = (  1.0000000  0.0000000  0.0000000 )
                  (  0.0000000  1.0000000  0.0000000 )
                  (  0.0000000  0.0000000  1.0000000 )

      isym =  2     180 deg rotation - cart. axis [1,0,0]

 cryst.   s( 2) = (     1          0          0      )
                  (     0         -1          0      )
                  (     0          0         -1      )

 cart.    s( 2) = (  1.0000000  0.0000000  0.0000000 )
                  (  0.0000000 -1.0000000  0.0000000 )
                  (  0.0000000  0.0000000 -1.0000000 )

   Cartesian axes

     site n.     atom                  positions (alat units)
         1           Ta  tau(   1) = (   0.0826290   0.2693422   0.1572538  )
         2           Ta  tau(   2) = (   0.5853800   0.2693422   0.1572538  )
         3           Ta  tau(   3) = (   0.2485680   0.0893426   0.1572538  )
         4           V   tau(   4) = (   0.7490300   0.0893426   0.1572538  )
         5           V   tau(   5) = (   0.4183870   0.1799996   0.0000000  )
         6           V   tau(   6) = (   0.9160330   0.1799996   0.0000000  )
         7           Si  tau(   7) = (   0.0785110   0.4514126   0.2657791  )
         8           Si  tau(   8) = (   0.5846790   0.4508268   0.2634332  )
         9           Si  tau(   9) = (   0.2532850   0.2671578   0.2654218  )
        10           Si  tau(  10) = (   0.7533690   0.2669019   0.2663292  )
        11           Si  tau(  11) = (   0.4178580   0.3597073   0.0994395  )
        12           Si  tau(  12) = (   0.9122850   0.3620098   0.1017269  )
        13           Si  tau(  13) = (   0.0785110   0.0872718   0.0487286  )
        14           Si  tau(  14) = (   0.5846790   0.0878577   0.0510745  )
        15           Si  tau(  15) = (   0.2532850   0.2715266   0.0490858  )
        16           Si  tau(  16) = (   0.7533690   0.2717826   0.0481785  )
        17           Si  tau(  17) = (   0.4178580   0.1789771   0.2150682  )
        18           Si  tau(  18) = (   0.9122850   0.1766746   0.2127808  )

   Crystallographic axes

     site n.     atom                  positions (cryst. coord.)
         1           Ta  tau(   1) = (  0.0826290  0.5000000  0.5000000  )
         2           Ta  tau(   2) = (  0.5853800  0.5000000  0.5000000  )
         3           Ta  tau(   3) = (  0.2485680  0.0000000  0.5000000  )
         4           V   tau(   4) = (  0.7490300  0.0000000  0.5000000  )
         5           V   tau(   5) = (  0.4183870  0.5000000  0.0000000  )
         6           V   tau(   6) = (  0.9160330  0.5000000  0.0000000  )
         7           Si  tau(   7) = (  0.0785110  0.8344800  0.8450640  )
         8           Si  tau(   8) = (  0.5846790  0.8365550  0.8376050  )
         9           Si  tau(   9) = (  0.2532850  0.3232240  0.8439280  )
        10           Si  tau(  10) = (  0.7533690  0.3210810  0.8468130  )
        11           Si  tau(  11) = (  0.4178580  0.8422560  0.3161750  )
        12           Si  tau(  12) = (  0.9122850  0.8450420  0.3234480  )
        13           Si  tau(  13) = (  0.0785110  0.1655200  0.1549360  )
        14           Si  tau(  14) = (  0.5846790  0.1634450  0.1623950  )
        15           Si  tau(  15) = (  0.2532850  0.6767760  0.1560720  )
        16           Si  tau(  16) = (  0.7533690  0.6789190  0.1531870  )
        17           Si  tau(  17) = (  0.4178580  0.1577440  0.6838250  )
        18           Si  tau(  18) = (  0.9122850  0.1549580  0.6765520  )

     number of k points=    10  Gaussian smearing, width (Ry)=  0.0010
                       cart. coord. in units 2pi/alat
        k(    1) = (   0.0000000   0.0000000   0.0000000), wk =   0.0740741
        k(    2) = (   0.0000000   0.0000000   1.0598577), wk =   0.1481481
        k(    3) = (   0.0000000   0.9259280  -0.5260592), wk =   0.1481481
        k(    4) = (   0.0000000   0.9259280   0.5337985), wk =   0.1481481
        k(    5) = (   0.0000000   0.9259280  -1.5859169), wk =   0.1481481
        k(    6) = (   0.3333333   0.0000000   0.0000000), wk =   0.1481481
        k(    7) = (   0.3333333   0.0000000   1.0598577), wk =   0.2962963
        k(    8) = (   0.3333333   0.9259280  -0.5260592), wk =   0.2962963
        k(    9) = (   0.3333333   0.9259280   0.5337985), wk =   0.2962963
        k(   10) = (   0.3333333   0.9259280  -1.5859169), wk =   0.2962963

                       cryst. coord.
        k(    1) = (   0.0000000   0.0000000   0.0000000), wk =   0.0740741
        k(    2) = (   0.0000000   0.0000000   0.3333333), wk =   0.1481481
        k(    3) = (   0.0000000   0.3333333  -0.0000000), wk =   0.1481481
        k(    4) = (   0.0000000   0.3333333   0.3333333), wk =   0.1481481
        k(    5) = (   0.0000000   0.3333333  -0.3333333), wk =   0.1481481
        k(    6) = (   0.3333333   0.0000000   0.0000000), wk =   0.1481481
        k(    7) = (   0.3333333   0.0000000   0.3333333), wk =   0.2962963
        k(    8) = (   0.3333333   0.3333333  -0.0000000), wk =   0.2962963
        k(    9) = (   0.3333333   0.3333333   0.3333333), wk =   0.2962963
        k(   10) = (   0.3333333   0.3333333  -0.3333333), wk =   0.2962963

     Check: negative core charge=   -0.000002

     Initial potential from superposition of free atoms

     starting charge     125.9863, renormalised to     126.0000

     negative rho (up, down):  2.822E-01 0.000E+00
     Starting wfcs are  117 randomized atomic wfcs

     Self-consistent Calculation

     iteration #  1     ecut=    30.00 Ry     beta= 0.70
     Davidson diagonalization with overlap

     ethr =  1.00E-02,  avg # of iterations =  2.0

     Threshold (ethr) on eigenvalues was too large:
     Diagonalizing with lowered threshold

     Davidson diagonalization with overlap

[...]

     negative rho (up, down):  2.855E-01 0.000E+00

     total energy              =    -998.29008950 Ry
     estimated scf accuracy    <       0.37388547 Ry

[...]

     total energy              =    -998.43855765 Ry
     estimated scf accuracy    <       0.00001220 Ry

     iteration # 18     ecut=    30.00 Ry     beta= 0.70
     Davidson diagonalization with overlap

     ethr =  9.69E-09,  avg # of iterations =  1.6

     negative rho (up, down):  2.893E-01 0.000E+00

     End of self-consistent calculation

          k = 0.0000 0.0000 0.0000 (  4709 PWs)   bands (ev):

   -53.2172 -53.2011 -53.1508 -49.8172 -49.7670 -49.7593 -23.7251 -23.6970
   -23.6914 -23.6557 -23.6514 -23.6356 -23.6246 -23.6072 -23.5864 -19.9048
   -19.8534 -19.7897 -19.7810 -19.7787 -19.7517 -19.7256 -19.7121 -19.6974
     1.0495   1.9279   1.9979   4.1762   4.5128   6.7288   8.1101   8.1459
     8.2813   8.6718   8.7156   8.7739   8.8021   8.8673   9.0243   9.4830
     9.7085   9.7943   9.9201  10.1124  10.2559  10.6017  10.8702  11.2943
    11.7713  11.8763  11.9652  12.0324  12.0378  12.1216  12.1989  12.3054
    12.3129  12.3968  12.4585  12.5414  12.6293  12.8106  12.9571  14.8023
    14.9772  15.2677  16.4851  16.5460  16.5726  16.5890  16.7188  16.8052
    16.8127  17.0190  17.1162  17.1993

     occupation numbers
     1.0000   1.0000   1.0000   1.0000   1.0000   1.0000   1.0000   1.0000
     1.0000   1.0000   1.0000   1.0000   1.0000   1.0000   1.0000   1.0000
     1.0000   1.0000   1.0000   1.0000   1.0000   1.0000   1.0000   1.0000
     1.0000   1.0000   1.0000   1.0000   1.0000   1.0000   1.0000   1.0000
     1.0000   1.0000   1.0000   1.0000   1.0000   1.0000   1.0000   1.0000
     1.0000   1.0000   1.0000   1.0000   1.0000   1.0000   1.0000   1.0000
     1.0000   1.0000   1.0000   1.0000   1.0000   1.0000   1.0000   1.0000
     1.0000   1.0000   1.0000   1.0000   1.0000   1.0000   1.0000   0.0000
     0.0000   0.0000   0.0000   0.0000   0.0000   0.0000   0.0000   0.0000
     0.0000   0.0000   0.0000   0.0000

[...]

          k = 0.3333 0.9259-1.5859 (  4671 PWs)   bands (ev):

   -53.2145 -53.2032 -53.1505 -49.8169 -49.7653 -49.7605 -23.7244 -23.6971
   -23.6905 -23.6715 -23.6388 -23.6357 -23.6221 -23.6024 -23.5903 -19.9080
   -19.8931 -19.7880 -19.7860 -19.7609 -19.7365 -19.7319 -19.7187 -19.7054
     3.3140   3.5584   4.2694   4.3523   4.3819   4.4164   5.0824   5.4563
     6.1134   6.8445   6.9540   7.1718   7.8630   8.5247   8.6098   9.2392
     9.4704  10.0362  11.1263  11.1895  11.5841  11.7222  11.8236  11.9197
    11.9581  12.1197  12.2037  12.3094  12.3700  12.4274  12.4751  12.7362
    13.1896  13.2324  13.5774  13.6018  14.3712  14.4344  14.5249  14.6732
    14.7630  14.9712  15.7221  15.8532  16.0327  16.0723  16.3407  16.3664
    16.4780  16.6568  16.7634  16.8117

     occupation numbers
     1.0000   1.0000   1.0000   1.0000   1.0000   1.0000   1.0000   1.0000
     1.0000   1.0000   1.0000   1.0000   1.0000   1.0000   1.0000   1.0000
     1.0000   1.0000   1.0000   1.0000   1.0000   1.0000   1.0000   1.0000
     1.0000   1.0000   1.0000   1.0000   1.0000   1.0000   1.0000   1.0000
     1.0000   1.0000   1.0000   1.0000   1.0000   1.0000   1.0000   1.0000
     1.0000   1.0000   1.0000   1.0000   1.0000   1.0000   1.0000   1.0000
     1.0000   1.0000   1.0000   1.0000   1.0000   1.0000   1.0000   1.0000
     1.0000   1.0000   1.0000   1.0000   1.0000   0.0070   0.0000   0.0000
     0.0000   0.0000   0.0000   0.0000   0.0000   0.0000   0.0000   0.0000
     0.0000   0.0000   0.0000   0.0000

     the Fermi energy is    14.4108 ev

!    total energy              =    -998.43855803 Ry
     estimated scf accuracy    <       0.00000088 Ry
     smearing contrib. (-TS)   =      -0.00029243 Ry
     internal energy E=F+TS    =    -998.43826560 Ry

     The total energy is F=E-TS. E is the sum of the following terms:
     one-electron contribution =    -268.72460953 Ry
     hartree contribution      =     197.38153255 Ry
     xc contribution           =    -261.20173427 Ry
     ewald contribution        =    -665.89345435 Ry

     convergence has been achieved in  18 iterations

     Writing all to output data dir energy_m/myprefix.save/

     General routines

     Parallel routines

   This run was terminated on:  16:54:18  16Jul2023

   JOB DONE.