     Program PWSCF v.7.0 starts on 20May2023 at  6:43:12

     Reading input from espresso_10202.pwi
Warning: card &CELL ignored
Warning: card / ignored

     Current dimensions of program PWSCF are:
     Max number of different atomic species (ntypx) = 10
     Max number of k-points (npk) =  40000
     Max angular momentum in pseudopotentials (lmaxx) =  4
     file Mg.pbe-n-kjpaw_psl.0.3.0.UPF: wavefunction(s)  3S renormalized

     gamma-point specific algorithms are used
     Message from routine setup:
     using ibrav=0 with symmetry is DISCOURAGED, use correct ibrav instead

     Subspace diagonalization in iterative solution of the eigenvalue problem:
     a serial algorithm will be used

     Using Slab Decomposition

     bravais-lattice index     =            0
     lattice parameter (alat)  =       8.3389  a.u.
     unit-cell volume          =     410.0320 (a.u.)^3
     number of atoms/cell      =            3
     number of atomic types    =            3
     number of electrons       =        36.00
     number of Kohn-Sham states=           22
     kinetic-energy cutoff     =      30.0000  Ry
     charge density cutoff     =     240.0000  Ry
     scf convergence threshold =      1.0E-06
     mixing beta               =       0.7000
     number of iterations used =            8  plain     mixing
     Exchange-correlation=  SLA  PW   PBX  PBC
                           (   1   4   3   4   0   0   0)

     celldm(1)=   8.338941  celldm(2)=   0.000000  celldm(3)=   0.000000
     celldm(4)=   0.000000  celldm(5)=   0.000000  celldm(6)=   0.000000

     crystal axes: (cart. coord. in units of alat)
               a(1) = (   1.000000   0.000000   0.000000 )
               a(2) = (   0.500000   0.866025   0.000000 )
               a(3) = (   0.500000   0.288675   0.816497 )

     reciprocal axes: (cart. coord. in units 2 pi/alat)
               b(1) = (  1.000000 -0.577350 -0.408248 )
               b(2) = (  0.000000  1.154701 -0.408248 )
               b(3) = (  0.000000  0.000000  1.224745 )

     PseudoPot. # 1 for Mg read from file:
     /home/pragov/projects/rrg-bengioy-ad/pragov/crystal_structure_design/SSSP/Mg.pbe-n-kjpaw_psl.0.3.0.UPF
     MD5 check sum: 24ecedc7f3e3cbe212e682f4413594e4
     Pseudo is Projector augmented-wave + core cor, Zval =  2.0
     Generated using "atomic" code by A. Dal Corso  v.5.0.99 svn rev. 10869
     Shape of augmentation charge: PSQ
     Using radial grid of 1129 points,  4 beta functions with:
                l(1) =   0
                l(2) =   0
                l(3) =   1
                l(4) =   1
     Q(r) pseudized with 0 coefficients

     PseudoPot. # 2 for Cu read from file:
     /home/pragov/projects/rrg-bengioy-ad/pragov/crystal_structure_design/SSSP/Cu_pbe_v1.2.uspp.F.UPF
     MD5 check sum: 6e991ff952a84172a2a52a1c1e996048
     Pseudo is Ultrasoft + core correction, Zval = 19.0
     Generated by new atomic code, or converted to UPF format
     Using radial grid of  867 points,  6 beta functions with:
                l(1) =   0
                l(2) =   0
                l(3) =   1
                l(4) =   1
                l(5) =   2
                l(6) =   2
     Q(r) pseudized with  8 coefficients,  rinner =    1.150   1.150   1.150
                                                       1.150   1.150

     PseudoPot. # 3 for Sb read from file:
     /home/pragov/projects/rrg-bengioy-ad/pragov/crystal_structure_design/SSSP/sb_pbe_v1.4.uspp.F.UPF
     MD5 check sum: 9bc50dfb53373b713f5709b9110fe27f
     Pseudo is Ultrasoft + core correction, Zval = 15.0
     Generated by new atomic code, or converted to UPF format
     Using radial grid of  891 points,  6 beta functions with:
                l(1) =   0
                l(2) =   0
                l(3) =   1
                l(4) =   1
                l(5) =   2
                l(6) =   2
     Q(r) pseudized with  8 coefficients,  rinner =    1.350   1.350   1.350
                                                       1.350   1.350

     atomic species   valence    mass     pseudopotential
        Mg             2.00    24.30500     Mg( 1.00)
        Cu            19.00    63.54600     Cu( 1.00)
        Sb            15.00   121.76000     Sb( 1.00)

      6 Sym. Ops. (no inversion) found

                                    s                        frac. trans.

      isym =  1     identity

 cryst.   s( 1) = (     1          0          0      )
                  (     0          1          0      )
                  (     0          0          1      )

 cart.    s( 1) = (  1.0000000  0.0000000  0.0000000 )
                  (  0.0000000  1.0000000  0.0000000 )
                  (  0.0000000  0.0000000  1.0000000 )

      isym =  2     120 deg rotation - cryst. axis [0,0,1]

[...]

      isym =  3     120 deg rotation - cryst. axis [0,0,-1]

[...]

      isym =  4     inv. 180 deg rotation - cart. axis [1,0,0]

[...]

      isym =  5     inv. 180 deg rotation - cryst. axis [0,1,0]

[...]

      isym =  6     inv. 180 deg rotation - cryst. axis [1,1,0]

 cryst.   s( 6) = (     1         -1          0      )
                  (     0         -1          0      )
                  (     0         -1          1      )

 cart.    s( 6) = (  0.5000000 -0.8660254 -0.0000000 )
                  ( -0.8660254 -0.5000000 -0.0000000 )
                  (  0.0000000  0.0000000  1.0000000 )

   Cartesian axes

     site n.     atom                  positions (alat units)
         1           Mg  tau(   1) = (   1.0000000   0.5773503   0.4082483  )
         2           Cu  tau(   2) = (   0.5000000   0.2886751   0.2041241  )
         3           Sb  tau(   3) = (   0.0000000   0.0000000   0.0000000  )

   Crystallographic axes

     site n.     atom                  positions (cryst. coord.)
         1           Mg  tau(   1) = (  0.5000000  0.5000000  0.5000000  )
         2           Cu  tau(   2) = (  0.2500000  0.2500000  0.2500000  )
         3           Sb  tau(   3) = (  0.0000000  0.0000000  0.0000000  )

     number of k points=     1  Methfessel-Paxton smearing, width (Ry)=  0.0010
                       cart. coord. in units 2pi/alat
        k(    1) = (   0.0000000   0.0000000   0.0000000), wk =   2.0000000

                       cryst. coord.
        k(    1) = (   0.0000000   0.0000000   0.0000000), wk =   2.0000000

     Check: negative core charge=   -0.000002

     Initial potential from superposition of free atoms

     starting charge      33.9991, renormalised to      36.0000
     Starting wfcs are   26 randomized atomic wfcs
     Checking if some PAW data can be deallocated...

     Self-consistent Calculation

     iteration #  1     ecut=    30.00 Ry     beta= 0.70
     Davidson diagonalization with overlap

     ethr =  1.00E-02,  avg # of iterations =  5.0

     total energy              =    -596.66852546 Ry
     estimated scf accuracy    <      31.44954220 Ry

[...]

     total energy              =    -621.02481355 Ry
     estimated scf accuracy    <       0.00000521 Ry

     iteration # 53     ecut=    30.00 Ry     beta= 0.70
     Davidson diagonalization with overlap

     ethr =  6.93E-09,  avg # of iterations =  1.0

     End of self-consistent calculation

          k = 0.0000 0.0000 0.0000 (   570 PWs)   bands (ev):

  -103.7666 -61.1580 -61.1580 -61.1579 -16.0853 -16.0853 -16.0853 -16.0660
   -16.0660  -0.7046   5.5970   5.5970   5.5970   6.0729   6.0729  10.9134
    11.0496  11.0497  11.0497  12.6668  12.6668  12.6668

     occupation numbers
     1.0000   1.0000   1.0000   1.0000   1.0000   1.0000   1.0000   1.0000
     1.0000   1.0000   1.0000   1.0000   1.0000   1.0000   1.0000   1.0000
     0.6682   0.6661   0.6657  -0.0000  -0.0000  -0.0000

     the Fermi energy is    11.0524 ev

!    total energy              =    -621.02481330 Ry
     estimated scf accuracy    <       0.00000067 Ry
     smearing contrib. (-TS)   =      -0.00074671 Ry
     internal energy E=F+TS    =    -621.02406658 Ry

     The total energy is F=E-TS. E is the sum of the following terms:
     one-electron contribution =    -488.11661529 Ry
     hartree contribution      =     262.15073093 Ry
     xc contribution           =     -84.87600371 Ry
     ewald contribution        =    -278.85110097 Ry
     one-center paw contrib.   =     -31.33107755 Ry
      -> PAW hartree energy AE =       1.07605781 Ry
      -> PAW hartree energy PS =      -1.07294481 Ry
      -> PAW xc energy AE      =     -32.78605840 Ry
      -> PAW xc energy PS      =       1.45186786 Ry
      -> total E_H with PAW    =     262.15384392 Ry
      -> total E_XC with PAW   =    -116.21019425 Ry

     convergence has been achieved in  53 iterations

     Forces acting on atoms (cartesian axes, Ry/au):

     atom    1 type  1   force =     0.00000000    0.00000000   -0.00021785
     atom    2 type  2   force =     0.00000000    0.00000000    0.00114397
     atom    3 type  3   force =    -0.00000000   -0.00000000   -0.00092611
     The non-local contrib.  to forces
     atom    1 type  1   force =     0.00000000    0.00000000   -0.00010364
     atom    2 type  2   force =     0.00000000    0.00000000    0.00180719
     atom    3 type  3   force =     0.00000000    0.00000000   -0.00130580
     The ionic contribution  to forces
     atom    1 type  1   force =    -0.00000000    0.00000000    0.00000000
     atom    2 type  2   force =     0.00000000   -0.00000000    0.00000000
     atom    3 type  3   force =    -0.00000000    0.00000000   -0.00000000
     The local contribution  to forces
     atom    1 type  1   force =    -0.00006174    0.00009276    0.00005952
     atom    2 type  2   force =     0.00210484   -0.00190871   -0.00260218
     atom    3 type  3   force =    -0.00348930    0.00421117    0.00219704
     The core correction contribution to forces
     atom    1 type  1   force =    -0.00001061    0.00001449    0.00000900
     atom    2 type  2   force =     0.00000287   -0.00000276   -0.00000320
     atom    3 type  3   force =    -0.00007466    0.00009029    0.00004387
     The Hubbard contrib.    to forces
     atom    1 type  1   force =     0.00000000    0.00000000    0.00000000
     atom    2 type  2   force =     0.00000000    0.00000000    0.00000000
     atom    3 type  3   force =     0.00000000    0.00000000    0.00000000
     The SCF correction term to forces
     atom    1 type  1   force =    -0.00002786    0.00003206    0.00001817
     atom    2 type  2   force =    -0.00168492    0.00143679    0.00214305
     atom    3 type  3   force =     0.00265694   -0.00321025   -0.00166033

     Total force =     0.001488     Total SCF correction =     0.005442
     SCF correction compared to forces is large: reduce conv_thr to get better values

     Computing stress (Cartesian axis) and pressure

          total   stress  (Ry/bohr**3)                   (kbar)     P=      371.87
   0.00252805   0.00000000   0.00000000          371.89        0.00        0.00
   0.00000000   0.00252805   0.00000000            0.00      371.89        0.00
   0.00000000   0.00000000   0.00252762            0.00        0.00      371.83

     kinetic stress (kbar)  19267.05     -0.00      0.00
                               -0.00  19267.05      0.00
                                0.00      0.00  19266.02

     local   stress (kbar) -17052.79      2.65      1.64
                                2.65 -17047.16     -1.37
                                1.64     -1.37 -17044.50

     nonloc. stress (kbar)   7785.96      0.00      0.00
                                0.00   7785.96      0.00
                                0.00      0.00   7784.60

     hartree stress (kbar)  31352.77     -1.53     -1.05
                               -1.53  31349.65      1.01
                               -1.05      1.01  31348.05

     exc-cor stress (kbar)   1019.48     -0.02     -0.01
                               -0.02   1019.44      0.00
                               -0.01      0.00   1019.43

     corecor stress (kbar)  -8654.50      0.02      0.00
                                0.02  -8654.46      0.00
                                0.00      0.00  -8654.46

     ewald   stress (kbar) -33347.33     -0.00     -0.00
                               -0.00 -33347.33     -0.00
                               -0.00     -0.00 -33347.33

     hubbard stress (kbar)      0.00      0.00      0.00
                                0.00      0.00      0.00
                                0.00      0.00      0.00

     DFT-D   stress (kbar)      0.00      0.00      0.00
                                0.00      0.00      0.00
                                0.00      0.00      0.00

     XDM     stress (kbar)      0.00      0.00      0.00
                                0.00      0.00      0.00
                                0.00      0.00      0.00

     dft-nl  stress (kbar)      0.00      0.00      0.00
                                0.00      0.00      0.00
                                0.00      0.00      0.00

     TS-vdW  stress (kbar)      0.00      0.00      0.00
                                0.00      0.00      0.00
                                0.00      0.00      0.00

[...]

                                0.00      0.00      0.00

     Writing all to output data dir new_calculations/myprefix.save/

     General routines

     Parallel routines

     PAW routines

   This run was terminated on:   6:43:29  20May2023

   JOB DONE.