     Program PWSCF v.7.0 starts on 21May2023 at  2: 2:37

     Reading input from espresso_16775.pwi
Warning: card &CELL ignored
Warning: card / ignored

     Current dimensions of program PWSCF are:
     Max number of different atomic species (ntypx) = 10
     Max number of k-points (npk) =  40000
     Max angular momentum in pseudopotentials (lmaxx) =  4

     gamma-point specific algorithms are used
     Message from routine setup:
     using ibrav=0 with symmetry is DISCOURAGED, use correct ibrav instead

     Subspace diagonalization in iterative solution of the eigenvalue problem:
     a serial algorithm will be used

     Using Slab Decomposition

     bravais-lattice index     =            0
     lattice parameter (alat)  =       8.4910  a.u.
     unit-cell volume          =     432.8732 (a.u.)^3
     number of atoms/cell      =            3
     number of atomic types    =            3
     number of electrons       =        43.00
     number of Kohn-Sham states=           26
     kinetic-energy cutoff     =      30.0000  Ry
     charge density cutoff     =     240.0000  Ry
     scf convergence threshold =      1.0E-06
     mixing beta               =       0.7000
     number of iterations used =            8  plain     mixing
     Exchange-correlation= PBE
                           (   1   4   3   4   0   0   0)

     celldm(1)=   8.490994  celldm(2)=   0.000000  celldm(3)=   0.000000
     celldm(4)=   0.000000  celldm(5)=   0.000000  celldm(6)=   0.000000

     crystal axes: (cart. coord. in units of alat)
               a(1) = (   1.000000   0.000000   0.000000 )
               a(2) = (   0.500000   0.866025   0.000000 )
               a(3) = (   0.500000   0.288675   0.816497 )

     reciprocal axes: (cart. coord. in units 2 pi/alat)
               b(1) = (  1.000000 -0.577350 -0.408248 )
               b(2) = (  0.000000  1.154701 -0.408248 )
               b(3) = (  0.000000  0.000000  1.224745 )

     PseudoPot. # 1 for Zr read from file:
     /home/pragov/projects/rrg-bengioy-ad/pragov/crystal_structure_design/SSSP/Zr_pbe_v1.uspp.F.UPF
     MD5 check sum: 5db81b1e868ab7776c4564c113de050b
     Pseudo is Ultrasoft + core correction, Zval = 12.0
     Generated by new atomic code, or converted to UPF format
     Using radial grid of  887 points,  6 beta functions with:
                l(1) =   0
                l(2) =   0
                l(3) =   1
                l(4) =   1
                l(5) =   2
                l(6) =   2
     Q(r) pseudized with  6 coefficients,  rinner =    1.200   1.200   1.200
                                                       1.200   1.200

     PseudoPot. # 2 for Sb read from file:
     /home/pragov/projects/rrg-bengioy-ad/pragov/crystal_structure_design/SSSP/sb_pbe_v1.4.uspp.F.UPF
     MD5 check sum: 9bc50dfb53373b713f5709b9110fe27f
     Pseudo is Ultrasoft + core correction, Zval = 15.0
     Generated by new atomic code, or converted to UPF format
     Using radial grid of  891 points,  6 beta functions with:
                l(1) =   0
                l(2) =   0
                l(3) =   1
                l(4) =   1
                l(5) =   2
                l(6) =   2
     Q(r) pseudized with  8 coefficients,  rinner =    1.350   1.350   1.350
                                                       1.350   1.350

     PseudoPot. # 3 for Ru read from file:
     /home/pragov/projects/rrg-bengioy-ad/pragov/crystal_structure_design/SSSP/Ru_ONCV_PBE-1.0.oncvpsp.upf
     MD5 check sum: be037bb81c227cfb9b1461a9f099f4bd
     Pseudo is Norm-conserving, Zval = 16.0
     Generated using ONCVPSP code by D. R. Hamann
     Using radial grid of 1458 points,  6 beta functions with:
                l(1) =   0
                l(2) =   0
                l(3) =   1
                l(4) =   1
                l(5) =   2
                l(6) =   2

     atomic species   valence    mass     pseudopotential
        Zr            12.00    91.22400     Zr( 1.00)
        Sb            15.00   121.76000     Sb( 1.00)
        Ru            16.00   101.07000     Ru( 1.00)

      6 Sym. Ops. (no inversion) found

                                    s                        frac. trans.

      isym =  1     identity

 cryst.   s( 1) = (     1          0          0      )
                  (     0          1          0      )
                  (     0          0          1      )

 cart.    s( 1) = (  1.0000000  0.0000000  0.0000000 )
                  (  0.0000000  1.0000000 -0.0000000 )
                  (  0.0000000  0.0000000  1.0000000 )

      isym =  2     120 deg rotation - cryst. axis [0,0,1]

[...]

      isym =  3     120 deg rotation - cryst. axis [0,0,-1]

[...]

      isym =  4     inv. 180 deg rotation - cart. axis [1,0,0]

[...]

      isym =  5     inv. 180 deg rotation - cryst. axis [0,1,0]

[...]

      isym =  6     inv. 180 deg rotation - cryst. axis [1,1,0]

 cryst.   s( 6) = (     1         -1          0      )
                  (     0         -1          0      )
                  (     0         -1          1      )

 cart.    s( 6) = (  0.5000000 -0.8660254  0.0000000 )
                  ( -0.8660254 -0.5000000  0.0000000 )
                  (  0.0000000  0.0000000  1.0000000 )

   Cartesian axes

     site n.     atom                  positions (alat units)
         1           Zr  tau(   1) = (   0.0000000   0.0000000   0.0000000  )
         2           Sb  tau(   2) = (   1.0000000   0.5773503   0.4082483  )
         3           Ru  tau(   3) = (   0.5000000   0.2886751   0.2041241  )

   Crystallographic axes

     site n.     atom                  positions (cryst. coord.)
         1           Zr  tau(   1) = (  0.0000000  0.0000000  0.0000000  )
         2           Sb  tau(   2) = (  0.5000000  0.5000000  0.5000000  )
         3           Ru  tau(   3) = (  0.2500000  0.2500000  0.2500000  )

     number of k points=     1  Methfessel-Paxton smearing, width (Ry)=  0.0010
                       cart. coord. in units 2pi/alat
        k(    1) = (   0.0000000   0.0000000   0.0000000), wk =   2.0000000

                       cryst. coord.
        k(    1) = (   0.0000000   0.0000000   0.0000000), wk =   2.0000000

     Check: negative core charge=   -0.000005

     Initial potential from superposition of free atoms

     starting charge      41.9973, renormalised to      43.0000

     negative rho (up, down):  6.303E-02 0.000E+00
     Starting wfcs are   32 randomized atomic wfcs

     Self-consistent Calculation

     iteration #  1     ecut=    30.00 Ry     beta= 0.70
     Davidson diagonalization with overlap

     ethr =  1.00E-02,  avg # of iterations =  2.0

     negative rho (up, down):  5.840E-02 0.000E+00

     total energy              =    -471.99099555 Ry
     estimated scf accuracy    <       0.64934182 Ry

[...]

     ethr =  3.66E-05,  avg # of iterations =  1.0
     Minimization algorithm failed to find Fermi energy: reverting to bisection
     Possible cause: smearing is larger than the electronic band-gap.

[...]

     ethr =  1.50E-05,  avg # of iterations =  1.0

[...]

     total energy              =    -472.26178276 Ry
     estimated scf accuracy    <       0.00000289 Ry

     iteration # 19     ecut=    30.00 Ry     beta= 0.70
     Davidson diagonalization with overlap

     ethr =  6.73E-09,  avg # of iterations =  1.0
     Minimization algorithm failed to find Fermi energy: reverting to bisection
     Possible cause: smearing is larger than the electronic band-gap.

[...]

     End of self-consistent calculation

          k = 0.0000 0.0000 0.0000 (   622 PWs)   bands (ev):

   -58.3862 -31.6638 -28.3312 -28.3311 -28.3311 -15.1523 -15.1523 -15.1412
   -15.1411 -15.1411  -9.8963  -9.8962  -9.8962   3.6596  11.0058  11.0059
    11.0059  12.0983  12.0983  15.4793  15.4793  15.4794  16.9158  17.1431
    17.1431  17.1431

     occupation numbers
     1.0000   1.0000   1.0000   1.0000   1.0000   1.0000   1.0000   1.0000
     1.0000   1.0000   1.0000   1.0000   1.0000   1.0000   1.0000   1.0000
     1.0000   1.0000   1.0000   0.8348   0.8338   0.8314  -0.0000  -0.0000
    -0.0000  -0.0000

     the Fermi energy is    15.4853 ev

!    total energy              =    -472.26178248 Ry
     estimated scf accuracy    <       0.00000071 Ry
     smearing contrib. (-TS)   =      -0.00043271 Ry
     internal energy E=F+TS    =    -472.26134977 Ry

     The total energy is F=E-TS. E is the sum of the following terms:
     one-electron contribution =    -167.64600792 Ry
     hartree contribution      =     106.26319138 Ry
     xc contribution           =     -81.87377202 Ry
     ewald contribution        =    -329.00476122 Ry

     convergence has been achieved in  19 iterations

     negative rho (up, down):  5.809E-02 0.000E+00

     Forces acting on atoms (cartesian axes, Ry/au):

     atom    1 type  1   force =     0.00000000    0.00000000   -0.00005565
     atom    2 type  2   force =     0.00000000    0.00000000   -0.00012920
     atom    3 type  3   force =     0.00000000    0.00000000    0.00018485
     The non-local contrib.  to forces
     atom    1 type  1   force =     0.00000000    0.00000000   -0.00007638
     atom    2 type  2   force =     0.00000000    0.00000000   -0.00074473
     atom    3 type  3   force =     0.00000000    0.00000000    0.00038885
     The ionic contribution  to forces
     atom    1 type  1   force =    -0.00000000    0.00000000   -0.00000000
     atom    2 type  2   force =     0.00000000   -0.00000000    0.00000000
     atom    3 type  3   force =    -0.00000000    0.00000000   -0.00000000
     The local contribution  to forces
     atom    1 type  1   force =     0.00094886    0.00066603   -0.00067343
     atom    2 type  2   force =    -0.00218996   -0.00151672    0.00158681
     atom    3 type  3   force =     0.00046796    0.00031602   -0.00023832
     The core correction contribution to forces
     atom    1 type  1   force =     0.00000073    0.00000110   -0.00000006
     atom    2 type  2   force =    -0.00002996   -0.00002076    0.00002177
     atom    3 type  3   force =     0.00000000    0.00000000    0.00000000
     The Hubbard contrib.    to forces
     atom    1 type  1   force =     0.00000000    0.00000000    0.00000000
     atom    2 type  2   force =     0.00000000    0.00000000    0.00000000
     atom    3 type  3   force =     0.00000000    0.00000000    0.00000000
     The SCF correction term to forces
     atom    1 type  1   force =    -0.00065686   -0.00045541    0.00047097
     atom    2 type  2   force =     0.00169127    0.00116210   -0.00121630
     atom    3 type  3   force =     0.00011769    0.00010726   -0.00018892

     Total force =     0.000232     Total SCF correction =     0.002571
     SCF correction compared to forces is large: reduce conv_thr to get better values

     Computing stress (Cartesian axis) and pressure

     negative rho (up, down):  5.809E-02 0.000E+00
          total   stress  (Ry/bohr**3)                   (kbar)     P=     -144.08
  -0.00097830   0.00000000   0.00000000         -143.91        0.00        0.00
   0.00000000  -0.00097830   0.00000000            0.00     -143.91        0.00
   0.00000000   0.00000000  -0.00098180            0.00        0.00     -144.43

     kinetic stress (kbar)  28155.26      0.00      0.00
                                0.00  28155.26     -0.00
                                0.00     -0.00  28156.80

     local   stress (kbar)  -3910.06     -2.72     -2.22
                               -2.72  -3906.29     -1.56
                               -2.22     -1.56  -3912.56

     nonloc. stress (kbar)   7531.70     -0.00      0.00
                                0.00   7531.70     -0.00
                                0.00     -0.00   7532.20

     hartree stress (kbar)  12037.48      1.15      0.90
                                1.15  12035.88      0.63
                                0.90      0.63  12038.50

     exc-cor stress (kbar)   3256.04      0.02      0.01
                                0.02   3256.02      0.01
                                0.01      0.01   3256.05

     corecor stress (kbar)  -9946.39     -0.01     -0.01
                               -0.01  -9946.38     -0.01
                               -0.01     -0.01  -9946.40

     ewald   stress (kbar) -37269.02     -0.00     -0.00
                               -0.00 -37269.02     -0.00
                               -0.00     -0.00 -37269.02

     hubbard stress (kbar)      0.00      0.00      0.00
                                0.00      0.00      0.00
                                0.00      0.00      0.00

     DFT-D   stress (kbar)      0.00      0.00      0.00
                                0.00      0.00      0.00
                                0.00      0.00      0.00

     XDM     stress (kbar)      0.00      0.00      0.00
                                0.00      0.00      0.00
                                0.00      0.00      0.00

     dft-nl  stress (kbar)      0.00      0.00      0.00
                                0.00      0.00      0.00
                                0.00      0.00      0.00

     TS-vdW  stress (kbar)      0.00      0.00      0.00
                                0.00      0.00      0.00
                                0.00      0.00      0.00

[...]

                                0.00      0.00      0.00

     Writing all to output data dir new_calculations/myprefix.save/

     General routines

     Parallel routines

   This run was terminated on:   2: 3: 2  21May2023

   JOB DONE.