     Program PWSCF v.7.0 starts on 21May2023 at 13: 8:41

     Reading input from espresso_26740.pwi
Warning: card &CELL ignored
Warning: card / ignored

     Current dimensions of program PWSCF are:
     Max number of different atomic species (ntypx) = 10
     Max number of k-points (npk) =  40000
     Max angular momentum in pseudopotentials (lmaxx) =  4
     file Al.pbe-n-kjpaw_psl.1.0.0.UPF: wavefunction(s)  3S 3P renormalized

     gamma-point specific algorithms are used
     Message from routine setup:
     using ibrav=0 with symmetry is DISCOURAGED, use correct ibrav instead

     Subspace diagonalization in iterative solution of the eigenvalue problem:
     a serial algorithm will be used

     Using Slab Decomposition

     bravais-lattice index     =            0
     lattice parameter (alat)  =      13.4421  a.u.
     unit-cell volume          =    1720.4768 (a.u.)^3
     number of atoms/cell      =           14
     number of atomic types    =            3
     number of electrons       =        88.00
     number of Kohn-Sham states=           53
     kinetic-energy cutoff     =      30.0000  Ry
     charge density cutoff     =     240.0000  Ry
     scf convergence threshold =      1.0E-06
     mixing beta               =       0.7000
     number of iterations used =            8  plain     mixing
     Exchange-correlation=  SLA  PW   PBX  PBC
                           (   1   4   3   4   0   0   0)

     celldm(1)=  13.442051  celldm(2)=   0.000000  celldm(3)=   0.000000
     celldm(4)=   0.000000  celldm(5)=   0.000000  celldm(6)=   0.000000

     crystal axes: (cart. coord. in units of alat)
               a(1) = (   1.000000   0.000000   0.000000 )
               a(2) = (  -0.003917   0.999992   0.000000 )
               a(3) = (  -0.488499  -0.509501   0.708362 )

     reciprocal axes: (cart. coord. in units 2 pi/alat)
               b(1) = (  1.000000  0.003917  0.692436 )
               b(2) = (  0.000000  1.000008  0.719271 )
               b(3) = (  0.000000  0.000000  1.411707 )

     PseudoPot. # 1 for Al read from file:
     /home/pragov/projects/rrg-bengioy-ad/pragov/crystal_structure_design/SSSP/Al.pbe-n-kjpaw_psl.1.0.0.UPF
     MD5 check sum: cfc449ca30b5f3223ec38ddd88ac046d
     Pseudo is Projector augmented-wave + core cor, Zval =  3.0
     Generated using "atomic" code by A. Dal Corso  v.5.1
     Shape of augmentation charge: PSQ
     Using radial grid of 1135 points,  6 beta functions with:
                l(1) =   0
                l(2) =   0
                l(3) =   1
                l(4) =   1
                l(5) =   2
                l(6) =   2
     Q(r) pseudized with 0 coefficients

     PseudoPot. # 2 for Cr read from file:
     /home/pragov/projects/rrg-bengioy-ad/pragov/crystal_structure_design/SSSP/cr_pbe_v1.5.uspp.F.UPF
     MD5 check sum: 0d52af634a40206e4dee301ad30da4bf
     Pseudo is Ultrasoft + core correction, Zval = 14.0
     Generated by new atomic code, or converted to UPF format
     Using radial grid of  857 points,  6 beta functions with:
                l(1) =   0
                l(2) =   0
                l(3) =   1
                l(4) =   1
                l(5) =   2
                l(6) =   2
     Q(r) pseudized with  8 coefficients,  rinner =    0.950   0.950   0.950
                                                       0.950   0.950

     PseudoPot. # 3 for S  read from file:
     /home/pragov/projects/rrg-bengioy-ad/pragov/crystal_structure_design/SSSP/s_pbe_v1.4.uspp.F.UPF
     MD5 check sum: 88d86576ff6df21479756cfb9bdac1df
     Pseudo is Ultrasoft + core correction, Zval =  6.0
     Generated by new atomic code, or converted to UPF format
     Using radial grid of  907 points,  6 beta functions with:
                l(1) =   0
                l(2) =   0
                l(3) =   1
                l(4) =   1
                l(5) =   2
                l(6) =   2
     Q(r) pseudized with  8 coefficients,  rinner =    1.300   1.300   1.300
                                                       1.300   1.300

     atomic species   valence    mass     pseudopotential
        Al             3.00    26.98154     Al( 1.00)
        Cr            14.00    51.99610     Cr( 1.00)
        S              6.00    32.06000     S ( 1.00)

      2 Sym. Ops., with inversion, found

                                    s                        frac. trans.

      isym =  1     identity

 cryst.   s( 1) = (     1          0          0      )
                  (     0          1          0      )
                  (     0          0          1      )

 cart.    s( 1) = (  1.0000000 -0.0000000  0.0000000 )
                  (  0.0000000  1.0000000  0.0000000 )
                  (  0.0000000  0.0000000  1.0000000 )

      isym =  2     inversion

 cryst.   s( 2) = (    -1          0          0      )
                  (     0         -1          0      )
                  (     0          0         -1      )

 cart.    s( 2) = ( -1.0000000  0.0000000 -0.0000000 )
                  (  0.0000000 -1.0000000 -0.0000000 )
                  (  0.0000000  0.0000000 -1.0000000 )

   Cartesian axes

     site n.     atom                  positions (alat units)
         1           Al  tau(   1) = (   0.5140793  -0.2511596   0.5312718  )
         2           Al  tau(   2) = (  -0.0064961   0.7416512   0.1770906  )
         3           Al  tau(   3) = (  -0.2462084   0.2452458   0.3541812  )
         4           Al  tau(   4) = (   0.4980414   0.4999962   0.0000000  )
         5           Cr  tau(   5) = (   0.2537916   0.2452458   0.3541812  )
         6           Cr  tau(   6) = (   0.5000000   0.0000000   0.0000000  )
         7           S   tau(   7) = (   0.0012128   0.4794991   0.3639715  )
         8           S   tau(   8) = (   0.2428252   0.2388324   0.6985721  )
         9           S   tau(   9) = (   0.0043106   0.0092431   0.3645799  )
        10           S   tau(  10) = (  -0.2274404   0.2400880   0.6979636  )
        11           S   tau(  11) = (   0.7350236   0.2504036   0.0103988  )
        12           S   tau(  12) = (   0.5032726   0.4812485   0.3437824  )
        13           S   tau(  13) = (   0.2647580   0.2516592   0.0097903  )
        14           S   tau(  14) = (   0.5063704   0.0109925   0.3443909  )

   Crystallographic axes

     site n.     atom                  positions (cryst. coord.)
         1           Al  tau(   1) = (  0.8809670  0.1309670  0.7500000  )
         2           Al  tau(   2) = (  0.1190330  0.8690330  0.2500000  )
         3           Al  tau(   3) = ( -0.0000000  0.5000000  0.5000000  )
         4           Al  tau(   4) = (  0.5000000  0.5000000  0.0000000  )
         5           Cr  tau(   5) = (  0.5000000  0.5000000  0.5000000  )
         6           Cr  tau(   6) = (  0.5000000  0.0000000  0.0000000  )
         7           S   tau(   7) = (  0.2551180  0.7412970  0.5138210  )
         8           S   tau(   8) = (  0.7274770  0.7412970  0.9861790  )
         9           S   tau(   9) = (  0.2567950  0.2714750  0.5146800  )
        10           S   tau(  10) = (  0.2567950  0.7421150  0.9853200  )
        11           S   tau(  11) = (  0.7432050  0.2578850  0.0146800  )
        12           S   tau(  12) = (  0.7432050  0.7285250  0.4853200  )
        13           S   tau(  13) = (  0.2725230  0.2587030  0.0138210  )
        14           S   tau(  14) = (  0.7448820  0.2587030  0.4861790  )

     number of k points=     1  Methfessel-Paxton smearing, width (Ry)=  0.0010
                       cart. coord. in units 2pi/alat
        k(    1) = (   0.0000000   0.0000000   0.0000000), wk =   2.0000000

                       cryst. coord.
        k(    1) = (   0.0000000   0.0000000   0.0000000), wk =   2.0000000

     Check: negative core charge=   -0.000003

     Initial potential from superposition of free atoms

     starting charge      85.9905, renormalised to      88.0000

     negative rho (up, down):  3.022E-03 0.000E+00
     Starting wfcs are   68 randomized atomic wfcs
     Checking if some PAW data can be deallocated...

     Self-consistent Calculation

     iteration #  1     ecut=    30.00 Ry     beta= 0.70
     Davidson diagonalization with overlap

     ethr =  1.00E-02,  avg # of iterations =  3.0

     negative rho (up, down):  1.615E-03 0.000E+00

     total energy              =    -698.81465691 Ry
     estimated scf accuracy    <       4.37375525 Ry

[...]

     total energy              =    -701.94664371 Ry
     estimated scf accuracy    <       0.00000221 Ry

     iteration # 33     ecut=    30.00 Ry     beta= 0.70
     Davidson diagonalization with overlap

     ethr =  2.51E-09,  avg # of iterations =  2.0

[...]

     End of self-consistent calculation

          k = 0.0000 0.0000 0.0000 (  2383 PWs)   bands (ev):

   -63.8141 -63.8131 -35.4631 -35.4479 -35.0662 -35.0637 -34.9178 -34.9152
    -6.8892  -5.5060  -5.1814  -5.1412  -5.0834  -4.9814  -4.8279  -4.7149
    -0.2902   0.4214   0.6002   1.3114   1.7852   2.3495   2.3851   3.5986
     3.8950   4.0308   4.2418   4.4512   4.6898   4.7605   4.8176   5.1856
     5.4013   5.4158   5.5703   5.7934   5.9606   6.2696   6.4877   6.6905
     6.7525   7.4110   7.8594   7.9121   7.9146   8.1318   8.5591   8.6394
     9.2095   9.6876   9.9346   9.9891  10.0320

     occupation numbers
     1.0000   1.0000   1.0000   1.0000   1.0000   1.0000   1.0000   1.0000
     1.0000   1.0000   1.0000   1.0000   1.0000   1.0000   1.0000   1.0000
     1.0000   1.0000   1.0000   1.0000   1.0000   1.0000   1.0000   1.0000
     1.0000   1.0000   1.0000   1.0000   1.0000   1.0000   1.0000   1.0000
     1.0000   1.0000   1.0000   1.0000   1.0000   1.0000   1.0000   1.0000
     1.0000   1.0000   1.0000   0.5771   0.4229  -0.0000  -0.0000  -0.0000
    -0.0000  -0.0000  -0.0000  -0.0000  -0.0000

     the Fermi energy is     7.9134 ev

!    total energy              =    -701.94664324 Ry
     estimated scf accuracy    <       0.00000089 Ry
     smearing contrib. (-TS)   =      -0.00055009 Ry
     internal energy E=F+TS    =    -701.94609314 Ry

     The total energy is F=E-TS. E is the sum of the following terms:
     one-electron contribution =    -301.50849169 Ry
     hartree contribution      =     188.37549496 Ry
     xc contribution           =    -123.31336104 Ry
     ewald contribution        =    -326.87572936 Ry
     one-center paw contrib.   =    -138.62400601 Ry
      -> PAW hartree energy AE =       5.31755733 Ry
      -> PAW hartree energy PS =      -5.30306312 Ry
      -> PAW xc energy AE      =    -146.13685802 Ry
      -> PAW xc energy PS      =       7.49835779 Ry
      -> total E_H with PAW    =     188.38998917 Ry
      -> total E_XC with PAW   =    -261.95186127 Ry

     convergence has been achieved in  33 iterations

     negative rho (up, down):  2.861E-03 0.000E+00

     Forces acting on atoms (cartesian axes, Ry/au):

     atom    1 type  1   force =    -0.01015174   -0.01020640    0.00001236
     atom    2 type  1   force =     0.01015174    0.01020640   -0.00001236
     atom    3 type  1   force =     0.00000000    0.00000000    0.00000000
     atom    4 type  1   force =     0.00000000    0.00000000    0.00000000
     atom    5 type  2   force =     0.00000000    0.00000000    0.00000000
     atom    6 type  2   force =     0.00000000    0.00000000    0.00000000
     atom    7 type  3   force =    -0.00581286   -0.03670272    0.02135442
     atom    8 type  3   force =    -0.03668928   -0.00595772   -0.02140162
     atom    9 type  3   force =     0.02959010    0.02954409   -0.00008435
     atom   10 type  3   force =     0.02942925    0.02967830    0.00011189
     atom   11 type  3   force =    -0.02942925   -0.02967830   -0.00011189
     atom   12 type  3   force =    -0.02959010   -0.02954409    0.00008435
     atom   13 type  3   force =     0.03668928    0.00595772    0.02140162
     atom   14 type  3   force =     0.00581286    0.03670272   -0.02135442
     The non-local contrib.  to forces
     atom    1 type  1   force =    -0.03560963   -0.03573684    0.00000144
     atom    2 type  1   force =     0.03560963    0.03573684   -0.00000144
     atom    3 type  1   force =     0.00000000    0.00000000    0.00000000
     atom    4 type  1   force =     0.00000000    0.00000000    0.00000000
     atom    5 type  2   force =     0.00000000    0.00000000    0.00000000
     atom    6 type  2   force =     0.00000000    0.00000000    0.00000000
     atom    7 type  3   force =    -0.02549805    0.05478424   -0.05567926
     atom    8 type  3   force =     0.05488651   -0.02529411    0.05565665
     atom    9 type  3   force =    -0.03912762   -0.10358284   -0.04633522
     atom   10 type  3   force =    -0.10349971   -0.03949258    0.04626097
     atom   11 type  3   force =     0.10349971    0.03949258   -0.04626097
     atom   12 type  3   force =     0.03912762    0.10358284    0.04633522
     atom   13 type  3   force =    -0.05488651    0.02529411   -0.05565665
     atom   14 type  3   force =     0.02549805   -0.05478424    0.05567926
     The ionic contribution  to forces
     atom    1 type  1   force =     0.15728835    0.15791273   -0.00000969
     atom    2 type  1   force =    -0.15728835   -0.15791273    0.00000969
     atom    3 type  1   force =     0.00000000    0.00000000   -0.00000000
     atom    4 type  1   force =    -0.00000000   -0.00000000    0.00000000
     atom    5 type  2   force =     0.00000000    0.00000000   -0.00000000
     atom    6 type  2   force =    -0.00000000    0.00000000    0.00000000
     atom    7 type  3   force =    -3.57091415    4.41468890   -5.53916735
     atom    8 type  3   force =     4.42861464   -3.55356809    5.53917550
     atom    9 type  3   force =    -3.54070063   -4.72754897   -0.84365165
     atom   10 type  3   force =    -4.71362633   -3.55919296    0.84366336
     atom   11 type  3   force =     4.71362633    3.55919296   -0.84366336
     atom   12 type  3   force =     3.54070063    4.72754897    0.84365165
     atom   13 type  3   force =    -4.42861464    3.55356809   -5.53917550
     atom   14 type  3   force =     3.57091415   -4.41468890    5.53916735
     The local contribution  to forces
     atom    1 type  1   force =    -0.13565498   -0.13621529    0.00002855
     atom    2 type  1   force =     0.13565645    0.13621696   -0.00003173
     atom    3 type  1   force =     0.00000311   -0.00000021    0.00000568
     atom    4 type  1   force =    -0.00000010    0.00000575   -0.00000229
     atom    5 type  2   force =    -0.00001724   -0.00000487    0.00003517
     atom    6 type  2   force =    -0.00001031   -0.00004297   -0.00001788
     atom    7 type  3   force =     3.58928701   -4.50286965    5.61283385
     atom    8 type  3   force =    -4.51692514    3.57139721   -5.61309058
     atom    9 type  3   force =     3.60725863    4.85461537    0.88730831
     atom   10 type  3   force =     4.84052801    3.62589869   -0.88701681
     atom   11 type  3   force =    -4.84051809   -3.62590471    0.88700250
     atom   12 type  3   force =    -3.60725936   -4.85459972   -0.88729562
     atom   13 type  3   force =     4.51691150   -3.57139856    5.61307934
     atom   14 type  3   force =    -3.58928662    4.50284958   -5.61281461
     The core correction contribution to forces
     atom    1 type  1   force =     0.00381756    0.00383111    0.00000022
     atom    2 type  1   force =    -0.00381747   -0.00383106   -0.00000010
     atom    3 type  1   force =     0.00000008    0.00000007    0.00000004
     atom    4 type  1   force =     0.00000007    0.00000001    0.00000005
     atom    5 type  2   force =     0.00000012   -0.00000007    0.00000005
     atom    6 type  2   force =    -0.00000016   -0.00000019    0.00000002
     atom    7 type  3   force =     0.00124705   -0.00308945    0.00300688
     atom    8 type  3   force =    -0.00309468    0.00123508   -0.00300610
     atom    9 type  3   force =     0.00213352    0.00585169    0.00267418
     atom   10 type  3   force =     0.00584798    0.00215312   -0.00266937
     atom   11 type  3   force =    -0.00584783   -0.00215329    0.00266896
     atom   12 type  3   force =    -0.00213373   -0.00585144   -0.00267429
     atom   13 type  3   force =     0.00309455   -0.00123516    0.00300619
     atom   14 type  3   force =    -0.00124700    0.00308914   -0.00300662
     The Hubbard contrib.    to forces
     atom    1 type  1   force =     0.00000000    0.00000000    0.00000000
     atom    2 type  1   force =     0.00000000    0.00000000    0.00000000
     atom    3 type  1   force =     0.00000000    0.00000000    0.00000000
     atom    4 type  1   force =     0.00000000    0.00000000    0.00000000
     atom    5 type  2   force =     0.00000000    0.00000000    0.00000000
     atom    6 type  2   force =     0.00000000    0.00000000    0.00000000
     atom    7 type  3   force =     0.00000000    0.00000000    0.00000000
     atom    8 type  3   force =     0.00000000    0.00000000    0.00000000
     atom    9 type  3   force =     0.00000000    0.00000000    0.00000000
     atom   10 type  3   force =     0.00000000    0.00000000    0.00000000
     atom   11 type  3   force =     0.00000000    0.00000000    0.00000000
     atom   12 type  3   force =     0.00000000    0.00000000    0.00000000
     atom   13 type  3   force =     0.00000000    0.00000000    0.00000000
     atom   14 type  3   force =     0.00000000    0.00000000    0.00000000
     The SCF correction term to forces
     atom    1 type  1   force =     0.00000684    0.00000187   -0.00000722
     atom    2 type  1   force =    -0.00000863   -0.00000364    0.00001216
     atom    3 type  1   force =    -0.00000220    0.00000144   -0.00000597
     atom    4 type  1   force =     0.00000137   -0.00000618    0.00000289
     atom    5 type  2   force =     0.00001847    0.00000419   -0.00003778
     atom    6 type  2   force =     0.00001200    0.00004634    0.00002069
     atom    7 type  3   force =     0.00006490   -0.00021968    0.00036183
     atom    8 type  3   force =    -0.00017233    0.00027154   -0.00013573
     atom    9 type  3   force =     0.00002645    0.00021012   -0.00008024
     atom   10 type  3   force =     0.00018046    0.00031042   -0.00012836
     atom   11 type  3   force =    -0.00018822   -0.00030745    0.00013891
     atom   12 type  3   force =    -0.00002503   -0.00022345    0.00006712
     atom   13 type  3   force =     0.00018267   -0.00027142    0.00014960
     atom   14 type  3   force =    -0.00006610    0.00023421   -0.00037825

     Total force =     0.121483     Total SCF correction =     0.001021

     Computing stress (Cartesian axis) and pressure

     negative rho (up, down):  2.861E-03 0.000E+00
          total   stress  (Ry/bohr**3)                   (kbar)     P=      -20.48
  -0.00014387  -0.00002120   0.00012687          -21.16       -3.12       18.66
  -0.00002120  -0.00014406  -0.00012626           -3.12      -21.19      -18.57
   0.00012687  -0.00012626  -0.00012972           18.66      -18.57      -19.08

     kinetic stress (kbar)   8466.32     49.14     47.95
                               49.14   8466.69    -47.74
                               47.95    -47.74   8414.82

     local   stress (kbar)  -5849.95   1365.37   3924.31
                             1365.37  -5839.24  -3908.94
                             3924.31  -3908.94  -7420.73

     nonloc. stress (kbar)   4461.48     21.77     14.69
                               21.77   4461.63    -14.60
                               14.69    -14.60   4439.03

     hartree stress (kbar)   5109.40   -686.71  -1856.06
                             -686.71   5104.08   1848.72
                            -1856.06   1848.72   5893.11

     exc-cor stress (kbar)    831.07      0.80      0.74
                                0.80    831.08     -0.74
                                0.74     -0.74    830.23

     corecor stress (kbar)  -3437.66     -1.21     -0.75
                               -1.21  -3437.67      0.75
                               -0.75      0.75  -3436.42

     ewald   stress (kbar)  -9601.82   -752.28  -2112.22
                             -752.28  -9607.75   2103.98
                            -2112.22   2103.98  -8739.12

     hubbard stress (kbar)      0.00      0.00      0.00
                                0.00      0.00      0.00
                                0.00      0.00      0.00

     DFT-D   stress (kbar)      0.00      0.00      0.00
                                0.00      0.00      0.00
                                0.00      0.00      0.00

     XDM     stress (kbar)      0.00      0.00      0.00
                                0.00      0.00      0.00
                                0.00      0.00      0.00

     dft-nl  stress (kbar)      0.00      0.00      0.00
                                0.00      0.00      0.00
                                0.00      0.00      0.00

     TS-vdW  stress (kbar)      0.00      0.00      0.00
                                0.00      0.00      0.00
                                0.00      0.00      0.00

[...]

                                0.00      0.00      0.00

     Writing all to output data dir new_calculations/myprefix.save/

     General routines

     Parallel routines

     PAW routines

   This run was terminated on:  13: 9:36  21May2023

   JOB DONE.