     Program PWSCF v.7.0 starts on 21May2023 at  4: 8: 6

     Reading input from espresso_8053.pwi
Warning: card &CELL ignored
Warning: card / ignored

     Current dimensions of program PWSCF are:
     Max number of different atomic species (ntypx) = 10
     Max number of k-points (npk) =  40000
     Max angular momentum in pseudopotentials (lmaxx) =  4

     gamma-point specific algorithms are used
     Message from routine setup:
     using ibrav=0 with symmetry is DISCOURAGED, use correct ibrav instead

     Subspace diagonalization in iterative solution of the eigenvalue problem:
     a serial algorithm will be used

     Using Slab Decomposition

     bravais-lattice index     =            0
     lattice parameter (alat)  =      11.0215  a.u.
     unit-cell volume          =    1085.9042 (a.u.)^3
     number of atoms/cell      =           12
     number of atomic types    =            3
     number of electrons       =       140.00
     number of Kohn-Sham states=           84
     kinetic-energy cutoff     =      30.0000  Ry
     charge density cutoff     =     240.0000  Ry
     scf convergence threshold =      1.0E-06
     mixing beta               =       0.7000
     number of iterations used =            8  plain     mixing
     Exchange-correlation= PBE
                           (   1   4   3   4   0   0   0)

     celldm(1)=  11.021507  celldm(2)=   0.000000  celldm(3)=   0.000000
     celldm(4)=   0.000000  celldm(5)=   0.000000  celldm(6)=   0.000000

     crystal axes: (cart. coord. in units of alat)
               a(1) = (   1.000000   0.000000   0.000000 )
               a(2) = (  -0.501344   0.865248   0.000000 )
               a(3) = (   0.000000   0.000000   0.937407 )

     reciprocal axes: (cart. coord. in units 2 pi/alat)
               b(1) = (  1.000000  0.579423  0.000000 )
               b(2) = (  0.000000  1.155738  0.000000 )
               b(3) = (  0.000000  0.000000  1.066773 )

     PseudoPot. # 1 for Zn read from file:
     /home/pragov/projects/rrg-bengioy-ad/pragov/crystal_structure_design/SSSP/Zn_pbe_v1.uspp.F.UPF
     MD5 check sum: df62231357ef9e81f77b2b3087fa5675
     Pseudo is Ultrasoft, Zval = 20.0
     Generated by new atomic code, or converted to UPF format
     Using radial grid of  943 points,  6 beta functions with:
                l(1) =   0
                l(2) =   0
                l(3) =   1
                l(4) =   1
                l(5) =   2
                l(6) =   2
     Q(r) pseudized with  8 coefficients,  rinner =    1.100   1.100   1.100
                                                       1.100   1.100

     PseudoPot. # 2 for Sb read from file:
     /home/pragov/projects/rrg-bengioy-ad/pragov/crystal_structure_design/SSSP/sb_pbe_v1.4.uspp.F.UPF
     MD5 check sum: 9bc50dfb53373b713f5709b9110fe27f
     Pseudo is Ultrasoft + core correction, Zval = 15.0
     Generated by new atomic code, or converted to UPF format
     Using radial grid of  891 points,  6 beta functions with:
                l(1) =   0
                l(2) =   0
                l(3) =   1
                l(4) =   1
                l(5) =   2
                l(6) =   2
     Q(r) pseudized with  8 coefficients,  rinner =    1.350   1.350   1.350
                                                       1.350   1.350

     PseudoPot. # 3 for N  read from file:
     /home/pragov/projects/rrg-bengioy-ad/pragov/crystal_structure_design/SSSP/N.pbe-n-radius_5.UPF
     MD5 check sum: 16739722b17309cd8fe442a2ace49922
     Pseudo is Ultrasoft + core correction, Zval =  5.0
     Generated using "atomic" code by A. Dal Corso  v.5.1
     Using radial grid of 1085 points,  4 beta functions with:
                l(1) =   0
                l(2) =   0
                l(3) =   1
                l(4) =   1
     Q(r) pseudized with 0 coefficients

     atomic species   valence    mass     pseudopotential
        Zn            20.00    65.38000     Zn( 1.00)
        Sb            15.00   121.76000     Sb( 1.00)
        N              5.00    14.00700     N ( 1.00)

      2 Sym. Ops. (no inversion) found ( 1 have fractional translation)

                                    s                        frac. trans.

      isym =  1     identity

 cryst.   s( 1) = (     1          0          0      )
                  (     0          1          0      )
                  (     0          0          1      )

 cart.    s( 1) = (  1.0000000 -0.0000000  0.0000000 )
                  (  0.0000000  1.0000000  0.0000000 )
                  (  0.0000000  0.0000000  1.0000000 )

      isym =  2     180 deg rotation - cart. axis [0,0,1]

 cryst.   s( 2) = (    -1          0          0      )    f =( -0.0000000 )
                  (     0         -1          0      )       ( -0.0000000 )
                  (     0          0          1      )       (  0.5000000 )

 cart.    s( 2) = ( -1.0000000  0.0000000  0.0000000 )    f =( -0.0000000 )
                  (  0.0000000 -1.0000000  0.0000000 )       ( -0.0000000 )
                  (  0.0000000  0.0000000  1.0000000 )       (  0.4687034 )

   Cartesian axes

     site n.     atom                  positions (alat units)
         1           Zn  tau(   1) = (   0.0718969   0.7221670   0.9122890  )
         2           Zn  tau(   2) = (   0.5888083   0.4242630   0.9122890  )
         3           Zn  tau(   3) = (   0.4267587   0.1430808   0.4435856  )
         4           Zn  tau(   4) = (  -0.0901527   0.4409848   0.4435856  )
         5           Sb  tau(   5) = (   0.4098735   0.7111965   0.4326957  )
         6           Sb  tau(   6) = (   0.0887821   0.1540513   0.9013991  )
         7           N   tau(   7) = (   0.0852847   0.7203655   0.3264950  )
         8           N   tau(   8) = (   0.5805377   0.4349436   0.3264950  )
         9           N   tau(   9) = (   0.4133709   0.1448823   0.7951985  )
        10           N   tau(  10) = (  -0.0818821   0.4303042   0.7951985  )
        11           N   tau(  11) = (   0.4197703   0.7283691   0.7872258  )
        12           N   tau(  12) = (   0.0788853   0.1368787   0.3185224  )

   Crystallographic axes

     site n.     atom                  positions (cryst. coord.)
         1           Zn  tau(   1) = (  0.4903370  0.8346360  0.9732050  )
         2           Zn  tau(   2) = (  0.8346360  0.4903370  0.9732050  )
         3           Zn  tau(   3) = (  0.5096630  0.1653640  0.4732050  )
         4           Zn  tau(   4) = (  0.1653640  0.5096630  0.4732050  )
         5           Sb  tau(   5) = (  0.8219570  0.8219570  0.4615880  )
         6           Sb  tau(   6) = (  0.1780430  0.1780430  0.9615880  )
         7           N   tau(   7) = (  0.5026810  0.8325540  0.3482960  )
         8           N   tau(   8) = (  0.8325540  0.5026810  0.3482960  )
         9           N   tau(   9) = (  0.4973190  0.1674460  0.8482960  )
        10           N   tau(  10) = (  0.1674460  0.4973190  0.8482960  )
        11           N   tau(  11) = (  0.8418040  0.8418040  0.8397910  )
        12           N   tau(  12) = (  0.1581960  0.1581960  0.3397910  )

     number of k points=     1  Methfessel-Paxton smearing, width (Ry)=  0.0010
                       cart. coord. in units 2pi/alat
        k(    1) = (   0.0000000   0.0000000   0.0000000), wk =   2.0000000

                       cryst. coord.
        k(    1) = (   0.0000000   0.0000000   0.0000000), wk =   2.0000000

     Check: negative core charge=   -0.000005

     Initial potential from superposition of free atoms

     starting charge     137.9994, renormalised to     140.0000
     Starting wfcs are   94 randomized atomic wfcs

     Self-consistent Calculation

     iteration #  1     ecut=    30.00 Ry     beta= 0.70
     Davidson diagonalization with overlap

     ethr =  1.00E-02,  avg # of iterations =  3.0

     total energy              =   -2322.90617252 Ry
     estimated scf accuracy    <      19.00589572 Ry

[...]

     total energy              =   -2336.69862929 Ry
     estimated scf accuracy    <       0.00000180 Ry

     iteration # 14     ecut=    30.00 Ry     beta= 0.70
     Davidson diagonalization with overlap

     ethr =  1.28E-09,  avg # of iterations =  2.0

     End of self-consistent calculation

          k = 0.0000 0.0000 0.0000 (  1498 PWs)   bands (ev):

  -114.1772-114.1759-114.1750-114.1739 -68.3161 -68.3132 -68.3065 -68.3009
   -68.2936 -68.2873 -68.2873 -68.2845 -68.2753 -68.2704 -68.2696 -68.2692
   -19.5116 -19.4764 -19.4763 -19.4446 -19.4299 -19.4256 -19.3571 -19.3568
   -19.3499 -19.3492  -6.1973  -4.2796  -3.8275  -3.5881  -3.2876  -3.2676
     1.3944   2.9579   3.7465   4.0702   4.2445   4.2557   4.2803   4.3846
     4.4616   4.4978   4.5343   4.5960   4.6124   4.7917   4.8546   4.8739
     4.8808   4.9152   4.9823   5.0398   5.1248   5.1416   5.4527   5.4683
     5.5137   6.4399   6.4671   6.5742   6.8278   7.5212   7.7126   8.2013
     8.2190   9.2648   9.2926  10.0274  10.1263  10.1365  10.2922  12.6578
    14.3052  14.7922  15.5742  15.7222  16.6549  16.9572  16.9988  17.2393
    17.3741  17.6911  18.3348  18.5935

     occupation numbers
     1.0000   1.0000   1.0000   1.0000   1.0000   1.0000   1.0000   1.0000
     1.0000   1.0000   1.0000   1.0000   1.0000   1.0000   1.0000   1.0000
     1.0000   1.0000   1.0000   1.0000   1.0000   1.0000   1.0000   1.0000
     1.0000   1.0000   1.0000   1.0000   1.0000   1.0000   1.0000   1.0000
     1.0000   1.0000   1.0000   1.0000   1.0000   1.0000   1.0000   1.0000
     1.0000   1.0000   1.0000   1.0000   1.0000   1.0000   1.0000   1.0000
     1.0000   1.0000   1.0000   1.0000   1.0000   1.0000   1.0000   1.0000
     1.0000   1.0000   1.0000   1.0000   1.0000   1.0000   1.0000   1.0000
     1.0000   1.0000   1.0000   1.0000   1.0000   1.0000  -0.0000  -0.0000
    -0.0000  -0.0000  -0.0000  -0.0000  -0.0000  -0.0000  -0.0000  -0.0000
    -0.0000  -0.0000  -0.0000  -0.0000

     the Fermi energy is    10.2195 ev

!    total energy              =   -2336.69862945 Ry
     estimated scf accuracy    <       0.00000025 Ry
     smearing contrib. (-TS)   =       0.00000000 Ry
     internal energy E=F+TS    =   -2336.69862945 Ry

     The total energy is F=E-TS. E is the sum of the following terms:
     one-electron contribution =   -1805.80814234 Ry
     hartree contribution      =     968.69638493 Ry
     xc contribution           =    -289.65480832 Ry
     ewald contribution        =   -1209.93206372 Ry

     convergence has been achieved in  14 iterations

     Forces acting on atoms (cartesian axes, Ry/au):

     atom    1 type  1   force =    -0.00490131   -0.00082149   -0.01118560
     atom    2 type  1   force =     0.00169215   -0.00468299   -0.01123127
     atom    3 type  1   force =     0.00490131    0.00082149   -0.01118560
     atom    4 type  1   force =    -0.00169215    0.00468299   -0.01123127
     atom    5 type  2   force =    -0.00626924   -0.01086495    0.00610512
     atom    6 type  2   force =     0.00626924    0.01086495    0.00610512
     atom    7 type  3   force =    -0.00862909    0.00225596    0.00669836
     atom    8 type  3   force =     0.00628094   -0.00634256    0.00668942
     atom    9 type  3   force =     0.00862909   -0.00225596    0.00669836
     atom   10 type  3   force =    -0.00628094    0.00634256    0.00668942
     atom   11 type  3   force =    -0.00425570   -0.00738229    0.00292397
     atom   12 type  3   force =     0.00425570    0.00738229    0.00292397
     The non-local contrib.  to forces
     atom    1 type  1   force =     0.30252186    0.00625395   -0.08503833
     atom    2 type  1   force =    -0.14629529    0.26487084   -0.08506777
     atom    3 type  1   force =    -0.30252186   -0.00625395   -0.08503833
     atom    4 type  1   force =     0.14629529   -0.26487084   -0.08506777
     atom    5 type  2   force =     0.08118715    0.14086398    0.05076538
     atom    6 type  2   force =    -0.08118715   -0.14086398    0.05076538
     atom    7 type  3   force =     0.74498415   -0.03987625    0.51108506
     atom    8 type  3   force =    -0.40795786    0.62459073    0.51106924
     atom    9 type  3   force =    -0.74498415    0.03987625    0.51108506
     atom   10 type  3   force =     0.40795786   -0.62459073    0.51106924
     atom   11 type  3   force =     0.35928454    0.62342306   -0.25326414
     atom   12 type  3   force =    -0.35928454   -0.62342306   -0.25326414
     The ionic contribution  to forces
     atom    1 type  1   force =     5.12313116   -0.43758739   -0.35506895
     atom    2 type  1   force =    -2.94707453    4.21339618   -0.35506894
     atom    3 type  1   force =    -5.12313116    0.43758738   -0.35506895
     atom    4 type  1   force =     2.94707453   -4.21339617   -0.35506895
     atom    5 type  2   force =     1.71554596    2.97674859    0.99713752
     atom    6 type  2   force =    -1.71554595   -2.97674859    0.99713752
     atom    7 type  3   force =     2.45903602   -0.17854102    0.22037545
     atom    8 type  3   force =    -1.38730611    2.03816505    0.22037545
     atom    9 type  3   force =    -2.45903602    0.17854102    0.22037545
     atom   10 type  3   force =     1.38730611   -2.03816505    0.22037545
     atom   11 type  3   force =     0.86230591    1.49623966   -0.72775053
     atom   12 type  3   force =    -0.86230591   -1.49623966   -0.72775053
     The local contribution  to forces
     atom    1 type  1   force =    -5.42969819    0.43043905    0.42906032
     atom    2 type  1   force =     3.09472866   -4.48219174    0.42915627
     atom    3 type  1   force =     5.42985730   -0.43052998    0.42843204
     atom    4 type  1   force =    -3.09477145    4.48229001    0.42847922
     atom    5 type  2   force =    -1.80192872   -3.12658953   -1.04002604
     atom    6 type  2   force =     1.80185184    3.12663397   -1.03966628
     atom    7 type  3   force =    -3.20606262    0.22007900   -0.72012857
     atom    8 type  3   force =     1.79805292   -2.66383169   -0.72007018
     atom    9 type  3   force =     3.20628664   -0.22043607   -0.71999050
     atom   10 type  3   force =    -1.79782593    2.66357525   -0.72004558
     atom   11 type  3   force =    -1.22257275   -2.12174280    0.98218313
     atom   12 type  3   force =     1.22281207    2.12142027    0.98206091
     The core correction contribution to forces
     atom    1 type  1   force =     0.00000000    0.00000000    0.00000000
     atom    2 type  1   force =     0.00000000    0.00000000    0.00000000
     atom    3 type  1   force =     0.00000000    0.00000000    0.00000000
     atom    4 type  1   force =     0.00000000    0.00000000    0.00000000
     atom    5 type  2   force =    -0.00082209   -0.00142109   -0.00182384
     atom    6 type  2   force =     0.00082210    0.00142624   -0.00182149
     atom    7 type  3   force =    -0.00633154    0.00036962   -0.00467142
     atom    8 type  3   force =     0.00349619   -0.00529432   -0.00467095
     atom    9 type  3   force =     0.00633359   -0.00037238   -0.00467120
     atom   10 type  3   force =    -0.00349449    0.00529186   -0.00467146
     atom   11 type  3   force =    -0.00305912   -0.00531176    0.00179763
     atom   12 type  3   force =     0.00306171    0.00530902    0.00179704
     The Hubbard contrib.    to forces
     atom    1 type  1   force =     0.00000000    0.00000000    0.00000000
     atom    2 type  1   force =     0.00000000    0.00000000    0.00000000
     atom    3 type  1   force =     0.00000000    0.00000000    0.00000000
     atom    4 type  1   force =     0.00000000    0.00000000    0.00000000
     atom    5 type  2   force =     0.00000000    0.00000000    0.00000000
     atom    6 type  2   force =     0.00000000    0.00000000    0.00000000
     atom    7 type  3   force =     0.00000000    0.00000000    0.00000000
     atom    8 type  3   force =     0.00000000    0.00000000    0.00000000
     atom    9 type  3   force =     0.00000000    0.00000000    0.00000000
     atom   10 type  3   force =     0.00000000    0.00000000    0.00000000
     atom   11 type  3   force =     0.00000000    0.00000000    0.00000000
     atom   12 type  3   force =     0.00000000    0.00000000    0.00000000
     The SCF correction term to forces
     atom    1 type  1   force =    -0.00087292    0.00008540   -0.00021344
     atom    2 type  1   force =     0.00034604   -0.00076532   -0.00032960
     atom    3 type  1   force =     0.00068026    0.00003054    0.00061653
     atom    4 type  1   force =    -0.00027780    0.00065295    0.00055710
     atom    5 type  2   force =    -0.00024879   -0.00046194    0.00011972
     atom    6 type  2   force =     0.00033116    0.00042227   -0.00032550
     atom    7 type  3   force =    -0.00017573    0.00011841    0.00005569
     atom    8 type  3   force =     0.00006318   -0.00007046    0.00003462
     atom    9 type  3   force =     0.00010839    0.00002900   -0.00006620
     atom   10 type  3   force =    -0.00015712    0.00013310   -0.00003488
     atom   11 type  3   force =    -0.00010586   -0.00009982    0.00000803
     atom   12 type  3   force =     0.00008078    0.00020636    0.00008264

     Total force =     0.040629     Total SCF correction =     0.002041

     Computing stress (Cartesian axis) and pressure

          total   stress  (Ry/bohr**3)                   (kbar)     P=     -444.12
  -0.00276975   0.00005014   0.00000000         -407.45        7.38        0.00
   0.00005014  -0.00271173   0.00000000            7.38     -398.91        0.00
   0.00000000   0.00000000  -0.00357580            0.00        0.00     -526.02

     kinetic stress (kbar)  27200.38      7.50      0.00
                                7.50  27209.07      0.00
                                0.00      0.00  27163.78

     local   stress (kbar)  -2562.07  -2272.20     -0.02
                            -2272.20  -5195.18      0.04
                               -0.02      0.04 -10308.46

     nonloc. stress (kbar)    298.96     -8.56      0.00
                               -8.56    289.04      0.00
                                0.00      0.00    192.46

     hartree stress (kbar)  41932.88   1213.52      0.01
                             1213.52  43339.14     -0.04
                                0.01     -0.04  45955.17

     exc-cor stress (kbar)  -4451.00     -0.43      0.00
                               -0.43  -4451.50     -0.00
                                0.00     -0.00  -4449.83

     corecor stress (kbar)  -6530.40      0.66     -0.00
                                0.66  -6529.63      0.00
                               -0.00      0.00  -6528.33

     ewald   stress (kbar) -56296.20   1066.88      0.00
                             1066.88 -55059.85      0.00
                                0.00      0.00 -52550.81

     hubbard stress (kbar)      0.00      0.00      0.00
                                0.00      0.00      0.00
                                0.00      0.00      0.00

     DFT-D   stress (kbar)      0.00      0.00      0.00
                                0.00      0.00      0.00
                                0.00      0.00      0.00

     XDM     stress (kbar)      0.00      0.00      0.00
                                0.00      0.00      0.00
                                0.00      0.00      0.00

     dft-nl  stress (kbar)      0.00      0.00      0.00
                                0.00      0.00      0.00
                                0.00      0.00      0.00

     TS-vdW  stress (kbar)      0.00      0.00      0.00
                                0.00      0.00      0.00
                                0.00      0.00      0.00

[...]

                                0.00      0.00      0.00

     Writing all to output data dir new_calculations/myprefix.save/

     General routines

     Parallel routines

   This run was terminated on:   4: 8:55  21May2023

   JOB DONE.