     Program PWSCF v.7.0 starts on 20May2023 at 11:48:42

     Reading input from espresso_14338.pwi
Warning: card &CELL ignored
Warning: card / ignored

     Current dimensions of program PWSCF are:
     Max number of different atomic species (ntypx) = 10
     Max number of k-points (npk) =  40000
     Max angular momentum in pseudopotentials (lmaxx) =  4
     file K.pbe-spn-kjpaw_psl.1.0.0.UPF: wavefunction(s)  3S renormalized
     file Nb.pbe-spn-kjpaw_psl.0.3.0.UPF: wavefunction(s)  4S 4P renormalized

     gamma-point specific algorithms are used
     Message from routine setup:
     using ibrav=0 with symmetry is DISCOURAGED, use correct ibrav instead

     Subspace diagonalization in iterative solution of the eigenvalue problem:
     a serial algorithm will be used

     Using Slab Decomposition

     bravais-lattice index     =            0
     lattice parameter (alat)  =       7.0116  a.u.
     unit-cell volume          =    2557.0264 (a.u.)^3
     number of atoms/cell      =           15
     number of atomic types    =            3
     number of electrons       =       135.00
     number of Kohn-Sham states=           82
     kinetic-energy cutoff     =      30.0000  Ry
     charge density cutoff     =     240.0000  Ry
     scf convergence threshold =      1.0E-06
     mixing beta               =       0.7000
     number of iterations used =            8  plain     mixing
     Exchange-correlation= SLA  PW   PBE  PBE
                           (   1   4   3   4   0   0   0)

     celldm(1)=   7.011557  celldm(2)=   0.000000  celldm(3)=   0.000000
     celldm(4)=   0.000000  celldm(5)=   0.000000  celldm(6)=   0.000000

     crystal axes: (cart. coord. in units of alat)
               a(1) = (   1.000000   0.000000   0.000000 )
               a(2) = (   0.000121   2.926194   0.000000 )
               a(3) = (  -0.000000   1.462212   2.535063 )

     reciprocal axes: (cart. coord. in units 2 pi/alat)
               b(1) = (  1.000000 -0.000041  0.000024 )
               b(2) = (  0.000000  0.341741 -0.197114 )
               b(3) = (  0.000000  0.000000  0.394467 )

     PseudoPot. # 1 for K  read from file:
     /home/pragov/projects/rrg-bengioy-ad/pragov/crystal_structure_design/SSSP/K.pbe-spn-kjpaw_psl.1.0.0.UPF
     MD5 check sum: 7d58810084cac21f60fbe77ea2b688fd
     Pseudo is Projector augmented-wave + core cor, Zval =  9.0
     Generated using "atomic" code by A. Dal Corso  v.5.1
     Shape of augmentation charge: PSQ
     Using radial grid of 1165 points,  6 beta functions with:
                l(1) =   0
                l(2) =   0
                l(3) =   1
                l(4) =   1
                l(5) =   2
                l(6) =   2
     Q(r) pseudized with 0 coefficients

     PseudoPot. # 2 for Nb read from file:
     /home/pragov/projects/rrg-bengioy-ad/pragov/crystal_structure_design/SSSP/Nb.pbe-spn-kjpaw_psl.0.3.0.UPF
     MD5 check sum: 411d72ad547312f8017e2943ceca08cc
     Pseudo is Projector augmented-wave + core cor, Zval = 13.0
     Generated using "atomic" code by A. Dal Corso  v.5.0.99 svn rev. 10869
     Shape of augmentation charge: PSQ
     Using radial grid of 1227 points,  6 beta functions with:
                l(1) =   0
                l(2) =   0
                l(3) =   1
                l(4) =   1
                l(5) =   2
                l(6) =   2
     Q(r) pseudized with 0 coefficients

     PseudoPot. # 3 for Te read from file:
     /home/pragov/projects/rrg-bengioy-ad/pragov/crystal_structure_design/SSSP/Te_pbe_v1.uspp.F.UPF
     MD5 check sum: c319670d6894cc26e93307826a071b75
     Pseudo is Ultrasoft + core correction, Zval =  6.0
     Generated by new atomic code, or converted to UPF format
     Using radial grid of  891 points,  5 beta functions with:
                l(1) =   0
                l(2) =   0
                l(3) =   1
                l(4) =   1
                l(5) =   2
     Q(r) pseudized with  6 coefficients,  rinner =    1.800   1.800   1.800
                                                       1.800   1.800

     atomic species   valence    mass     pseudopotential
        K              9.00    39.09830     K ( 1.00)
        Nb            13.00    92.90637     Nb( 1.00)
        Te             6.00   127.60000     Te( 1.00)

      2 Sym. Ops., with inversion, found

                                    s                        frac. trans.

      isym =  1     identity

 cryst.   s( 1) = (     1          0          0      )
                  (     0          1          0      )
                  (     0          0          1      )

 cart.    s( 1) = (  1.0000000  0.0000000  0.0000000 )
                  (  0.0000000  1.0000000 -0.0000000 )
                  (  0.0000000  0.0000000  1.0000000 )

      isym =  2     inversion

 cryst.   s( 2) = (    -1          0          0      )
                  (     0         -1          0      )
                  (     0          0         -1      )

 cart.    s( 2) = ( -1.0000000 -0.0000000 -0.0000000 )
                  (  0.0000000 -1.0000000  0.0000000 )
                  (  0.0000000  0.0000000 -1.0000000 )

   Cartesian axes

     site n.     atom                  positions (alat units)
         1           K   tau(   1) = (   0.5000000   0.0000000   0.0000000  )
         2           Nb  tau(   2) = (   0.7485470   1.8822111   1.2948647  )
         3           Nb  tau(   3) = (   0.7485132   0.8636196   0.9836781  )
         4           Nb  tau(   4) = (   0.7485620   1.6426858   0.2565763  )
         5           Nb  tau(   5) = (   0.2515742   2.5061942   1.2401986  )
         6           Nb  tau(   6) = (   0.2516080   3.5247857   1.5513852  )
         7           Nb  tau(   7) = (   0.2515593   2.7457195   2.2784869  )
         8           Te  tau(   8) = (   0.7532896   1.1530073   1.6783285  )
         9           Te  tau(   9) = (   0.7533533   0.8963586   0.1601323  )
        10           Te  tau(  10) = (   0.7533553   2.3388579   0.6966683  )
        11           Te  tau(  11) = (   0.2468317   3.2353980   0.8567348  )
        12           Te  tau(  12) = (   0.2467679   3.4920466   2.3749309  )
        13           Te  tau(  13) = (   0.2467659   2.0495474   1.8383949  )
        14           Te  tau(  14) = (   0.7506178   2.9256166   1.6901292  )
        15           Te  tau(  15) = (   0.2495034   1.4627886   0.8449340  )

   Crystallographic axes

     site n.     atom                  positions (cryst. coord.)
         1           K   tau(   1) = (  0.5000000  0.0000000  0.0000000  )
         2           Nb  tau(   2) = (  0.7485000  0.3879920  0.5107820  )
         3           Nb  tau(   3) = (  0.7485010  0.1012370  0.3880290  )
         4           Nb  tau(   4) = (  0.7485000  0.5107980  0.1012110  )
         5           Nb  tau(   5) = (  0.2515000  0.6120080  0.4892180  )
         6           Nb  tau(   6) = (  0.2514990  0.8987630  0.6119710  )
         7           Nb  tau(   7) = (  0.2515000  0.4892020  0.8987890  )
         8           Te  tau(   8) = (  0.7532820  0.0632070  0.6620460  )
         9           Te  tau(   9) = (  0.7533200  0.2747580  0.0631670  )
        10           Te  tau(  10) = (  0.7532750  0.6619600  0.2748130  )
        11           Te  tau(  11) = (  0.2467180  0.9367930  0.3379540  )
        12           Te  tau(  12) = (  0.2466800  0.7252420  0.9368330  )
        13           Te  tau(  13) = (  0.2467250  0.3380400  0.7251870  )
        14           Te  tau(  14) = (  0.7505370  0.6666540  0.6667010  )
        15           Te  tau(  15) = (  0.2494630  0.3333460  0.3332990  )

     number of k points=     1  Methfessel-Paxton smearing, width (Ry)=  0.0010
                       cart. coord. in units 2pi/alat
        k(    1) = (   0.0000000   0.0000000   0.0000000), wk =   2.0000000

                       cryst. coord.
        k(    1) = (   0.0000000   0.0000000   0.0000000), wk =   2.0000000

     Check: negative core charge=   -0.000005

     Initial potential from superposition of free atoms

     starting charge     134.9667, renormalised to     135.0000
     Starting wfcs are  100 randomized atomic wfcs
     Checking if some PAW data can be deallocated...

     Self-consistent Calculation

     iteration #  1     ecut=    30.00 Ry     beta= 0.70
     Davidson diagonalization with overlap

     ethr =  1.00E-02,  avg # of iterations =  2.0

     Threshold (ethr) on eigenvalues was too large:
     Diagonalizing with lowered threshold

     Davidson diagonalization with overlap

[...]

     total energy              =   -2329.52908951 Ry
     estimated scf accuracy    <       1.04642591 Ry

[...]

     total energy              =   -2329.89348136 Ry
     estimated scf accuracy    <       0.00000647 Ry

     iteration # 30     ecut=    30.00 Ry     beta= 0.70
     Davidson diagonalization with overlap

     ethr =  4.80E-09,  avg # of iterations =  5.0

     End of self-consistent calculation

          k = 0.0000 0.0000 0.0000 (  3532 PWs)   bands (ev):

   -44.1303 -44.1287 -44.1274 -44.0635 -44.0624 -44.0611 -20.9846 -20.5415
   -20.5406 -20.5356 -20.3170 -20.3159 -20.3100 -20.1887 -20.1684 -20.1676
   -20.1437 -20.1208 -20.1197 -20.0889 -20.0855 -20.0841 -19.8817 -19.8786
   -19.8770  -4.5163  -4.5161  -4.4215  -2.1427  -1.2769  -1.2758  -1.0935
    -1.0933  -1.0312  -0.4590  -0.4432   5.7422   5.7432   5.7635   5.7648
     5.9357   6.0936   6.3423   6.3426   6.3860   6.3864   7.8306   8.0603
     8.4696   8.4704   8.4869   8.5696   9.1219   9.1222   9.1736   9.2331
     9.2370   9.3297   9.4802   9.4805  10.0364  10.2142  10.2145  10.2349
    10.2369  10.6405  10.7925  10.8043  10.8045  11.7093  11.9124  11.9127
    11.9669  11.9681  11.9877  12.6393  12.7067  12.7078  12.7800  12.7814
    13.0600  13.0623

     occupation numbers
     1.0000   1.0000   1.0000   1.0000   1.0000   1.0000   1.0000   1.0000
     1.0000   1.0000   1.0000   1.0000   1.0000   1.0000   1.0000   1.0000
     1.0000   1.0000   1.0000   1.0000   1.0000   1.0000   1.0000   1.0000
     1.0000   1.0000   1.0000   1.0000   1.0000   1.0000   1.0000   1.0000
     1.0000   1.0000   1.0000   1.0000   1.0000   1.0000   1.0000   1.0000
     1.0000   1.0000   1.0000   1.0000   1.0000   1.0000   1.0000   1.0000
     1.0000   1.0000   1.0000   1.0000   1.0000   1.0000   1.0000   1.0000
     1.0000   1.0000   1.0000   1.0000   1.0000   1.0000   1.0000   1.0000
     1.0000   1.0000   0.9254   0.2912   0.2834  -0.0000  -0.0000  -0.0000
    -0.0000  -0.0000  -0.0000  -0.0000  -0.0000  -0.0000  -0.0000  -0.0000
    -0.0000  -0.0000

     the Fermi energy is    10.8009 ev

!    total energy              =   -2329.89348073 Ry
     estimated scf accuracy    <       0.00000090 Ry
     smearing contrib. (-TS)   =      -0.00050390 Ry
     internal energy E=F+TS    =   -2329.89297682 Ry

     The total energy is F=E-TS. E is the sum of the following terms:
     one-electron contribution =    -373.89759326 Ry
     hartree contribution      =     249.76220829 Ry
     xc contribution           =    -301.18144791 Ry
     ewald contribution        =    -598.29323917 Ry
     one-center paw contrib.   =   -1306.28290478 Ry
      -> PAW hartree energy AE =     452.34345973 Ry
      -> PAW hartree energy PS =    -449.92452432 Ry
      -> PAW xc energy AE      =   -1481.70402023 Ry
      -> PAW xc energy PS      =     173.00218004 Ry
      -> total E_H with PAW    =     252.18114370 Ry
      -> total E_XC with PAW   =   -1609.88328810 Ry

     convergence has been achieved in  30 iterations

     Forces acting on atoms (cartesian axes, Ry/au):

     atom    1 type  1   force =     0.00000000    0.00000000    0.00000000
     atom    2 type  2   force =    -0.00004942    0.04762975   -0.01597484
     atom    3 type  2   force =    -0.00007502   -0.01021312    0.04918610
     atom    4 type  2   force =    -0.00006019   -0.03736308   -0.03350777
     atom    5 type  2   force =     0.00004942   -0.04762975    0.01597484
     atom    6 type  2   force =     0.00007502    0.01021312   -0.04918610
     atom    7 type  2   force =     0.00006019    0.03736308    0.03350777
     atom    8 type  3   force =    -0.00042029   -0.02130552   -0.03241063
     atom    9 type  3   force =    -0.00041252    0.03878237   -0.00226089
     atom   10 type  3   force =    -0.00042006   -0.01765245    0.03439918
     atom   11 type  3   force =     0.00042029    0.02130552    0.03241063
     atom   12 type  3   force =     0.00041252   -0.03878237    0.00226089
     atom   13 type  3   force =     0.00042006    0.01765245   -0.03439918
     atom   14 type  3   force =    -0.00023991    0.00010831    0.00008069
     atom   15 type  3   force =     0.00023991   -0.00010831   -0.00008069
     The non-local contrib.  to forces
     atom    1 type  1   force =     0.00000000    0.00000000    0.00000000
     atom    2 type  2   force =    -0.00099211    0.10502754    0.07277327
     atom    3 type  2   force =    -0.00095148   -0.11568235    0.05380202
     atom    4 type  2   force =    -0.00098801    0.01094219   -0.12739339
     atom    5 type  2   force =     0.00099211   -0.10502754   -0.07277327
     atom    6 type  2   force =     0.00095148    0.11568235   -0.05380202
     atom    7 type  2   force =     0.00098801   -0.01094219    0.12739339
     atom    8 type  3   force =    -0.00159037   -0.05914201   -0.03065843
     atom    9 type  3   force =    -0.00167137    0.05641917   -0.03585951
     atom   10 type  3   force =    -0.00161535    0.00277886    0.06667361
     atom   11 type  3   force =     0.00159037    0.05914201    0.03065843
     atom   12 type  3   force =     0.00167137   -0.05641917    0.03585951
     atom   13 type  3   force =     0.00161535   -0.00277886   -0.06667361
     atom   14 type  3   force =    -0.00083576    0.00024107    0.00006018
     atom   15 type  3   force =     0.00083576   -0.00024107   -0.00006018
     The ionic contribution  to forces
     atom    1 type  1   force =    -0.00000000    0.00000000    0.00000000
     atom    2 type  2   force =     0.02388844   -6.36861773    6.21095262
     atom    3 type  2   force =     0.02316028   -2.19689300   -8.61778891
     atom    4 type  2   force =     0.02336652    8.55526286    2.40453699
     atom    5 type  2   force =    -0.02388844    6.36861773   -6.21095262
     atom    6 type  2   force =    -0.02316028    2.19689300    8.61778891
     atom    7 type  2   force =    -0.02336652   -8.55526286   -2.40453699
     atom    8 type  3   force =     0.09033261    4.75381063    8.87427490
     atom    9 type  3   force =     0.09069539  -10.06186396   -0.31220385
     atom   10 type  3   force =     0.09041228    5.30805264   -8.55599836
     atom   11 type  3   force =    -0.09033261   -4.75381063   -8.87427490
     atom   12 type  3   force =    -0.09069539   10.06186396    0.31220385
     atom   13 type  3   force =    -0.09041228   -5.30805264    8.55599836
     atom   14 type  3   force =     0.01476781    0.00433925    0.00704902
     atom   15 type  3   force =    -0.01476781   -0.00433925   -0.00704902
     The local contribution  to forces
     atom    1 type  1   force =    -0.00000084    0.00019206   -0.00011146
     atom    2 type  2   force =    -0.02302547    6.32204235   -6.29421352
     atom    3 type  2   force =    -0.02237275    2.29158655    8.62028344
     atom    4 type  2   force =    -0.02253180   -8.60567063   -2.32474427
     atom    5 type  2   force =     0.02303577   -6.32229327    6.29487837
     atom    6 type  2   force =     0.02236512   -2.29144583   -8.62022770
     atom    7 type  2   force =     0.02252187    8.60489808    2.32427202
     atom    8 type  3   force =    -0.08924099   -4.71562055   -8.87998585
     atom    9 type  3   force =    -0.08951755   10.04766161    0.34826761
     atom   10 type  3   force =    -0.08930123   -5.33243668    8.52442133
     atom   11 type  3   force =     0.08924994    4.71573966    8.87998027
     atom   12 type  3   force =     0.08950992  -10.04777335   -0.34868669
     atom   13 type  3   force =     0.08929816    5.33257433   -8.52426664
     atom   14 type  3   force =    -0.01416739   -0.00412526   -0.00627641
     atom   15 type  3   force =     0.01416776    0.00396640    0.00665385
     The core correction contribution to forces
     atom    1 type  1   force =    -0.00000003    0.00000018   -0.00000033
     atom    2 type  2   force =     0.00008793   -0.01181082   -0.00565496
     atom    3 type  2   force =     0.00008408    0.01080503   -0.00732919
     atom    4 type  2   force =     0.00008705    0.00095765    0.01304098
     atom    5 type  2   force =    -0.00008790    0.01181013    0.00565202
     atom    6 type  2   force =    -0.00008407   -0.01080244    0.00733121
     atom    7 type  2   force =    -0.00008678   -0.00095465   -0.01304061
     atom    8 type  3   force =     0.00008366   -0.00078768    0.00395911
     atom    9 type  3   force =     0.00007649   -0.00299440   -0.00265172
     atom   10 type  3   force =     0.00008163    0.00380690   -0.00126537
     atom   11 type  3   force =    -0.00008474    0.00079078   -0.00396481
     atom   12 type  3   force =    -0.00007543    0.00299654    0.00265483
     atom   13 type  3   force =    -0.00008151   -0.00381518    0.00126199
     atom   14 type  3   force =    -0.00000471    0.00001428    0.00001076
     atom   15 type  3   force =     0.00000479   -0.00001448   -0.00001405
     The Hubbard contrib.    to forces
     atom    1 type  1   force =     0.00000000    0.00000000    0.00000000
     atom    2 type  2   force =     0.00000000    0.00000000    0.00000000
     atom    3 type  2   force =     0.00000000    0.00000000    0.00000000
     atom    4 type  2   force =     0.00000000    0.00000000    0.00000000
     atom    5 type  2   force =     0.00000000    0.00000000    0.00000000
     atom    6 type  2   force =     0.00000000    0.00000000    0.00000000
     atom    7 type  2   force =     0.00000000    0.00000000    0.00000000
     atom    8 type  3   force =     0.00000000    0.00000000    0.00000000
     atom    9 type  3   force =     0.00000000    0.00000000    0.00000000
     atom   10 type  3   force =     0.00000000    0.00000000    0.00000000
     atom   11 type  3   force =     0.00000000    0.00000000    0.00000000
     atom   12 type  3   force =     0.00000000    0.00000000    0.00000000
     atom   13 type  3   force =     0.00000000    0.00000000    0.00000000
     atom   14 type  3   force =     0.00000000    0.00000000    0.00000000
     atom   15 type  3   force =     0.00000000    0.00000000    0.00000000
     The SCF correction term to forces
     atom    1 type  1   force =     0.00000200   -0.00017736    0.00009527
     atom    2 type  2   force =    -0.00000668    0.00098999    0.00018380
     atom    3 type  2   force =     0.00000077   -0.00001985    0.00022993
     atom    4 type  2   force =     0.00000642    0.00115811    0.00105411
     atom    5 type  2   force =    -0.00000059   -0.00073521   -0.00081362
     atom    6 type  2   force =    -0.00000132   -0.00010446   -0.00026532
     atom    7 type  2   force =     0.00000398   -0.00036202   -0.00057783
     atom    8 type  3   force =    -0.00000018    0.00041865    0.00002964
     atom    9 type  3   force =     0.00000014   -0.00045319    0.00015279
     atom   10 type  3   force =     0.00000161    0.00018189    0.00058033
     atom   11 type  3   force =     0.00000236   -0.00057175    0.00004166
     atom   12 type  3   force =    -0.00000234    0.00053651    0.00019560
     atom   13 type  3   force =    -0.00000066   -0.00023914   -0.00070695
     atom   14 type  3   force =     0.00000001   -0.00036813   -0.00074320
     atom   15 type  3   force =    -0.00000074    0.00051299    0.00040836

     Total force =     0.155404     Total SCF correction =     0.002901

     Computing stress (Cartesian axis) and pressure

          total   stress  (Ry/bohr**3)                   (kbar)     P=       46.36
   0.00109464  -0.00000012   0.00000002          161.03       -0.02        0.00
  -0.00000012  -0.00007401   0.00000100           -0.02      -10.89        0.15
   0.00000002   0.00000100  -0.00007523            0.00        0.15      -11.07

     kinetic stress (kbar)  12675.90     -0.04      0.01
                               -0.04  12206.70      0.16
                                0.01      0.16  12205.76

     local   stress (kbar) -10475.72      0.02      0.08
                                0.02   1258.81     -4.43
                                0.08     -4.43   1266.34

     nonloc. stress (kbar)     98.28      0.01     -0.01
                                0.01    293.35     -0.09
                               -0.01     -0.09    293.59

     hartree stress (kbar)   8581.12      0.00     -0.02
                                0.00   2895.10      1.75
                               -0.02      1.75   2892.54

     exc-cor stress (kbar)   7242.87      0.00     -0.00
                                0.00   7243.16      0.00
                               -0.00      0.00   7243.14

     corecor stress (kbar) -10455.46     -0.00      0.00
                               -0.00 -10453.39     -0.00
                                0.00     -0.00 -10453.37

     ewald   stress (kbar)  -7505.98     -0.01     -0.06
                               -0.01 -13454.61      2.76
                               -0.06      2.76 -13459.07

     hubbard stress (kbar)      0.00      0.00      0.00
                                0.00      0.00      0.00
                                0.00      0.00      0.00

     DFT-D   stress (kbar)      0.00      0.00      0.00
                                0.00      0.00      0.00
                                0.00      0.00      0.00

     XDM     stress (kbar)      0.00      0.00      0.00
                                0.00      0.00      0.00
                                0.00      0.00      0.00

     dft-nl  stress (kbar)      0.00      0.00      0.00
                                0.00      0.00      0.00
                                0.00      0.00      0.00

     TS-vdW  stress (kbar)      0.00      0.00      0.00
                                0.00      0.00      0.00
                                0.00      0.00      0.00

[...]

                                0.00      0.00      0.00

     Writing all to output data dir new_calculations/myprefix.save/

     General routines

     Parallel routines

     PAW routines

   This run was terminated on:  11:49:56  20May2023

   JOB DONE.