     Program PWSCF v.7.0 starts on 21May2023 at 15:17:34

     Reading input from espresso_25667.pwi
Warning: card &CELL ignored
Warning: card / ignored

     Current dimensions of program PWSCF are:
     Max number of different atomic species (ntypx) = 10
     Max number of k-points (npk) =  40000
     Max angular momentum in pseudopotentials (lmaxx) =  4

     gamma-point specific algorithms are used
     Message from routine setup:
     using ibrav=0 with symmetry is DISCOURAGED, use correct ibrav instead

     Subspace diagonalization in iterative solution of the eigenvalue problem:
     a serial algorithm will be used

     Using Slab Decomposition

     bravais-lattice index     =            0
     lattice parameter (alat)  =      12.1966  a.u.
     unit-cell volume          =    1282.9351 (a.u.)^3
     number of atoms/cell      =           10
     number of atomic types    =            4
     number of electrons       =        98.00
     number of Kohn-Sham states=           59
     kinetic-energy cutoff     =      30.0000  Ry
     charge density cutoff     =     240.0000  Ry
     scf convergence threshold =      1.0E-06
     mixing beta               =       0.7000
     number of iterations used =            8  plain     mixing
     Exchange-correlation=  SLA  PW   PBX  PBC
                           (   1   4   3   4   0   0   0)

     celldm(1)=  12.196631  celldm(2)=   0.000000  celldm(3)=   0.000000
     celldm(4)=   0.000000  celldm(5)=   0.000000  celldm(6)=   0.000000

     crystal axes: (cart. coord. in units of alat)
               a(1) = (   1.000000   0.000000   0.000000 )
               a(2) = (   0.500000   0.866025   0.000000 )
               a(3) = (   0.500000   0.288675   0.816497 )

     reciprocal axes: (cart. coord. in units 2 pi/alat)
               b(1) = (  1.000000 -0.577350 -0.408248 )
               b(2) = (  0.000000  1.154701 -0.408248 )
               b(3) = (  0.000000  0.000000  1.224745 )

     PseudoPot. # 1 for Cs read from file:
     /home/pragov/projects/rrg-bengioy-ad/pragov/crystal_structure_design/SSSP/Cs_pbe_v1.uspp.F.UPF
     MD5 check sum: 3476d69cb178dfad3ffaa59df4e07ca4
     Pseudo is Ultrasoft + core correction, Zval =  9.0
     Generated by new atomic code, or converted to UPF format
     Using radial grid of  905 points,  6 beta functions with:
                l(1) =   0
                l(2) =   0
                l(3) =   1
                l(4) =   1
                l(5) =   2
                l(6) =   2
     Q(r) pseudized with  6 coefficients,  rinner =    1.500   1.500   1.500
                                                       1.500   1.500

     PseudoPot. # 2 for Hg read from file:
     /home/pragov/projects/rrg-bengioy-ad/pragov/crystal_structure_design/SSSP/Hg_ONCV_PBE-1.0.oncvpsp.upf
     MD5 check sum: dd5a8773074bfcf4280086d4d95875c4
     Pseudo is Norm-conserving, Zval = 20.0
     Generated using ONCVPSP code by D. R. Hamann
     Using radial grid of 1262 points,  8 beta functions with:
                l(1) =   0
                l(2) =   0
                l(3) =   1
                l(4) =   1
                l(5) =   2
                l(6) =   2
                l(7) =   3
                l(8) =   3

     PseudoPot. # 3 for Pd read from file:
     /home/pragov/projects/rrg-bengioy-ad/pragov/crystal_structure_design/SSSP/Pd_ONCV_PBE-1.0.oncvpsp.upf
     MD5 check sum: eb77f42b51d86fb18e25f68156a31cf1
     Pseudo is Norm-conserving, Zval = 18.0
     Generated using ONCVPSP code by D. R. Hamann
     Using radial grid of 1410 points,  6 beta functions with:
                l(1) =   0
                l(2) =   0
                l(3) =   1
                l(4) =   1
                l(5) =   2
                l(6) =   2

     PseudoPot. # 4 for F  read from file:
     /home/pragov/projects/rrg-bengioy-ad/pragov/crystal_structure_design/SSSP/f_pbe_v1.4.uspp.F.UPF
     MD5 check sum: 4c38b6a325caf53ec0e86aed9459de46
     Pseudo is Ultrasoft, Zval =  7.0
     Generated by new atomic code, or converted to UPF format
     Using radial grid of  799 points,  4 beta functions with:
                l(1) =   0
                l(2) =   0
                l(3) =   1
                l(4) =   1
     Q(r) pseudized with  8 coefficients,  rinner =    0.950   0.950   0.950

     atomic species   valence    mass     pseudopotential
        Cs             9.00   132.90545     Cs( 1.00)
        Hg            20.00   200.59200     Hg( 1.00)
        Pd            18.00   106.42000     Pd( 1.00)
        F              7.00    18.99840     F ( 1.00)

     12 Sym. Ops., with inversion, found

                                    s                        frac. trans.

      isym =  1     identity

 cryst.   s( 1) = (     1          0          0      )
                  (     0          1          0      )
                  (     0          0          1      )

 cart.    s( 1) = (  1.0000000  0.0000000  0.0000000 )
                  (  0.0000000  1.0000000 -0.0000000 )
                  (  0.0000000  0.0000000  1.0000000 )

      isym =  2     180 deg rotation - cart. axis [1,0,0]

[...]

      isym =  3     120 deg rotation - cryst. axis [0,0,1]

[...]

      isym =  6     180 deg rotation - cryst. axis [1,1,0]

[...]

      isym =  7     inversion

[...]

      isym =  8     inv. 180 deg rotation - cart. axis [1,0,0]

[...]

      isym =  9     inv. 120 deg rotation - cryst. axis [0,0,1]

 cryst.   s( 9) = (     1         -1          0      )
                  (     1          0          0      )
                  (     1          0         -1      )

 cart.    s( 9) = (  0.5000000  0.8660254  0.0000000 )
                  ( -0.8660254  0.5000000  0.0000000 )
                  (  0.0000000  0.0000000 -1.0000000 )

[...]

 cryst.   s(10) = (     0          1          0      )
                  (    -1          1          0      )
                  (     0          1         -1      )

 cart.    s(10) = (  0.5000000 -0.8660254 -0.0000000 )
                  (  0.8660254  0.5000000  0.0000000 )
                  (  0.0000000  0.0000000 -1.0000000 )

[...]

      isym = 12     inv. 180 deg rotation - cryst. axis [1,1,0]

 cryst.   s(12) = (     1         -1          0      )
                  (     0         -1          0      )
                  (     0         -1          1      )

 cart.    s(12) = (  0.5000000 -0.8660254 -0.0000000 )
                  ( -0.8660254 -0.5000000 -0.0000000 )
                  (  0.0000000  0.0000000  1.0000000 )

   Cartesian axes

     site n.     atom                  positions (alat units)
         1           Cs  tau(   1) = (   1.5000000   0.8660254   0.6123724  )
         2           Cs  tau(   2) = (   0.5000000   0.2886751   0.2041241  )
         3           Hg  tau(   3) = (   1.0000000   0.5773503   0.4082483  )
         4           Pd  tau(   4) = (   0.0000000   0.0000000   0.0000000  )
         5           F   tau(   5) = (   1.0000000   0.2801153   0.1980715  )
         6           F   tau(   6) = (   0.7425870   0.4287328   0.6184251  )
         7           F   tau(   7) = (   1.0000000   0.8745852   0.6184251  )
         8           F   tau(   8) = (   0.7425870   0.7259677   0.1980715  )
         9           F   tau(   9) = (   1.2574130   0.4287328   0.6184251  )
        10           F   tau(  10) = (   1.2574130   0.7259677   0.1980715  )

   Crystallographic axes

     site n.     atom                  positions (cryst. coord.)
         1           Cs  tau(   1) = (  0.7500000  0.7500000  0.7500000  )
         2           Cs  tau(   2) = (  0.2500000  0.2500000  0.2500000  )
         3           Hg  tau(   3) = (  0.5000000  0.5000000  0.5000000  )
         4           Pd  tau(   4) = (  0.0000000  0.0000000  0.0000000  )
         5           F   tau(   5) = (  0.7574130  0.2425870  0.2425870  )
         6           F   tau(   6) = (  0.2425870  0.2425870  0.7574130  )
         7           F   tau(   7) = (  0.2425870  0.7574130  0.7574130  )
         8           F   tau(   8) = (  0.2425870  0.7574130  0.2425870  )
         9           F   tau(   9) = (  0.7574130  0.2425870  0.7574130  )
        10           F   tau(  10) = (  0.7574130  0.7574130  0.2425870  )

     number of k points=     1  Methfessel-Paxton smearing, width (Ry)=  0.0010
                       cart. coord. in units 2pi/alat
        k(    1) = (   0.0000000   0.0000000   0.0000000), wk =   2.0000000

                       cryst. coord.
        k(    1) = (   0.0000000   0.0000000   0.0000000), wk =   2.0000000

     Initial potential from superposition of free atoms

     starting charge      97.9208, renormalised to      98.0000
     Starting wfcs are   70 randomized atomic wfcs

     Self-consistent Calculation

     iteration #  1     ecut=    30.00 Ry     beta= 0.70
     Davidson diagonalization with overlap

     ethr =  1.00E-02,  avg # of iterations =  3.0

     total energy              =    -979.75756436 Ry
     estimated scf accuracy    <       1.90238438 Ry

[...]

     total energy              =    -980.81740115 Ry
     estimated scf accuracy    <       0.00000290 Ry

     iteration # 68     ecut=    30.00 Ry     beta= 0.70
     Davidson diagonalization with overlap

     ethr =  2.96E-09,  avg # of iterations =  1.0

     End of self-consistent calculation

          k = 0.0000 0.0000 0.0000 (  1764 PWs)   bands (ev):

  -108.9674 -78.9326 -56.8013 -56.8013 -56.8013 -44.2792 -44.2792 -44.2792
   -15.8662 -15.5835 -15.5835 -15.5835 -15.5811 -15.5811 -13.5344 -13.5190
    -1.0663  -1.0663  -1.0663  -0.5501  -0.5501  -0.5501  -0.4103  -0.4103
    -0.0006   0.5363   0.5363   0.5363   2.0098   2.0098   2.0098   2.6500
     2.6500   2.9316   2.9316   2.9317   3.2355   3.2355   3.2355   3.4906
     3.4906   3.4906   3.6107   3.6107   3.6107   5.2083   5.2083   5.2083
     6.8574   6.8574   6.8606  11.7567  11.7567  11.7567  12.1520  12.1520
    12.3038  14.8942  15.1046

     occupation numbers
     1.0000   1.0000   1.0000   1.0000   1.0000   1.0000   1.0000   1.0000
     1.0000   1.0000   1.0000   1.0000   1.0000   1.0000   1.0000   1.0000
     1.0000   1.0000   1.0000   1.0000   1.0000   1.0000   1.0000   1.0000
     1.0000   1.0000   1.0000   1.0000   1.0000   1.0000   1.0000   1.0000
     1.0000   1.0000   1.0000   1.0000   1.0000   1.0000   1.0000   1.0000
     1.0000   1.0000   1.0000   1.0000   1.0000   1.0000   1.0000   1.0000
     0.3926   0.3925   0.2148  -0.0000  -0.0000  -0.0000  -0.0000  -0.0000
    -0.0000  -0.0000  -0.0000

     the Fermi energy is     6.8557 ev

!    total energy              =    -980.81740091 Ry
     estimated scf accuracy    <       0.00000027 Ry
     smearing contrib. (-TS)   =      -0.00071945 Ry
     internal energy E=F+TS    =    -980.81668147 Ry

     The total energy is F=E-TS. E is the sum of the following terms:
     one-electron contribution =    -584.22808149 Ry
     hartree contribution      =     332.31414615 Ry
     xc contribution           =    -168.94988499 Ry
     ewald contribution        =    -559.95286115 Ry

     convergence has been achieved in  68 iterations

     Forces acting on atoms (cartesian axes, Ry/au):

     atom    1 type  1   force =     0.00000000    0.00000000    0.00000012
     atom    2 type  1   force =     0.00000000    0.00000000   -0.00000012
     atom    3 type  2   force =     0.00000000    0.00000000    0.00000000
     atom    4 type  3   force =     0.00000000    0.00000000    0.00000000
     atom    5 type  4   force =     0.00000000   -0.00783646   -0.00554137
     atom    6 type  4   force =    -0.00678657   -0.00391823    0.00554137
     atom    7 type  4   force =     0.00000000    0.00783646    0.00554137
     atom    8 type  4   force =    -0.00678657    0.00391823   -0.00554137
     atom    9 type  4   force =     0.00678657   -0.00391823    0.00554137
     atom   10 type  4   force =     0.00678657    0.00391823   -0.00554137
     The non-local contrib.  to forces
     atom    1 type  1   force =    -0.00000000   -0.00000000    0.00000017
     atom    2 type  1   force =     0.00000000    0.00000000   -0.00000017
     atom    3 type  2   force =     0.00000000    0.00000000    0.00000000
     atom    4 type  3   force =     0.00000000    0.00000000    0.00000000
     atom    5 type  4   force =     0.00000000   -0.04795484   -0.03390922
     atom    6 type  4   force =    -0.04153011   -0.02397742    0.03390922
     atom    7 type  4   force =     0.00000000    0.04795484    0.03390922
     atom    8 type  4   force =    -0.04153011    0.02397742   -0.03390922
     atom    9 type  4   force =     0.04153011   -0.02397742    0.03390922
     atom   10 type  4   force =     0.04153011    0.02397742   -0.03390922
     The ionic contribution  to forces
     atom    1 type  1   force =     0.00000000    0.00000000    0.00000000
     atom    2 type  1   force =     0.00000000    0.00000000   -0.00000000
     atom    3 type  2   force =    -0.00000000   -0.00000000    0.00000000
     atom    4 type  3   force =    -0.00000000   -0.00000000   -0.00000000
     atom    5 type  4   force =     0.00000000    1.23991135    0.87674973
     atom    6 type  4   force =     1.07379473    0.61995568   -0.87674973
     atom    7 type  4   force =    -0.00000000   -1.23991135   -0.87674972
     atom    8 type  4   force =     1.07379473   -0.61995568    0.87674973
     atom    9 type  4   force =    -1.07379473    0.61995568   -0.87674973
     atom   10 type  4   force =    -1.07379473   -0.61995568    0.87674973
     The local contribution  to forces
     atom    1 type  1   force =    -0.00000022   -0.00000029   -0.00000099
     atom    2 type  1   force =    -0.00000000   -0.00000077   -0.00000066
     atom    3 type  2   force =    -0.00000366    0.00000015   -0.00000537
     atom    4 type  3   force =     0.00000480    0.00000194    0.00000493
     atom    5 type  4   force =     0.00000010   -1.20036039   -0.84878221
     atom    6 type  4   force =    -1.03959707   -0.60021167    0.84882809
     atom    7 type  4   force =    -0.00000006    1.20036016    0.84878362
     atom    8 type  4   force =    -1.03959054    0.60020743   -0.84882169
     atom    9 type  4   force =     1.03959006   -0.60020779    0.84882223
     atom   10 type  4   force =     1.03959785    0.60021185   -0.84882757
     The core correction contribution to forces
     atom    1 type  1   force =    -0.00000007   -0.00000008   -0.00000018
     atom    2 type  1   force =    -0.00000003   -0.00000025   -0.00000013
     atom    3 type  2   force =     0.00000000    0.00000000    0.00000000
     atom    4 type  3   force =     0.00000000    0.00000000    0.00000000
     atom    5 type  4   force =     0.00000000    0.00000000    0.00000000
     atom    6 type  4   force =     0.00000000    0.00000000    0.00000000
     atom    7 type  4   force =     0.00000000    0.00000000    0.00000000
     atom    8 type  4   force =     0.00000000    0.00000000    0.00000000
     atom    9 type  4   force =     0.00000000    0.00000000    0.00000000
     atom   10 type  4   force =     0.00000000    0.00000000    0.00000000
     The Hubbard contrib.    to forces
     atom    1 type  1   force =     0.00000000    0.00000000    0.00000000
     atom    2 type  1   force =     0.00000000    0.00000000    0.00000000
     atom    3 type  2   force =     0.00000000    0.00000000    0.00000000
     atom    4 type  3   force =     0.00000000    0.00000000    0.00000000
     atom    5 type  4   force =     0.00000000    0.00000000    0.00000000
     atom    6 type  4   force =     0.00000000    0.00000000    0.00000000
     atom    7 type  4   force =     0.00000000    0.00000000    0.00000000
     atom    8 type  4   force =     0.00000000    0.00000000    0.00000000
     atom    9 type  4   force =     0.00000000    0.00000000    0.00000000
     atom   10 type  4   force =     0.00000000    0.00000000    0.00000000
     The SCF correction term to forces
     atom    1 type  1   force =    -0.00000021   -0.00000020    0.00000034
     atom    2 type  1   force =    -0.00000018   -0.00000012    0.00000006
     atom    3 type  2   force =     0.00000382    0.00000258    0.00000769
     atom    4 type  3   force =    -0.00000173    0.00000049   -0.00000859
     atom    5 type  4   force =     0.00000016    0.00058822    0.00041492
     atom    6 type  4   force =     0.00053336    0.00030806   -0.00043616
     atom    7 type  4   force =     0.00000028   -0.00058793   -0.00041647
     atom    8 type  4   force =     0.00053365   -0.00030765    0.00043512
     atom    9 type  4   force =    -0.00053273    0.00030801   -0.00043535
     atom   10 type  4   force =    -0.00053488   -0.00030865    0.00043607

     Total force =     0.023510     Total SCF correction =     0.001821

     Computing stress (Cartesian axis) and pressure

          total   stress  (Ry/bohr**3)                   (kbar)     P=     -330.39
  -0.00224592  -0.00000000  -0.00000000         -330.39       -0.00       -0.00
  -0.00000000  -0.00224592  -0.00000000           -0.00     -330.39       -0.00
   0.00000000  -0.00000000  -0.00224592            0.00       -0.00     -330.39

     kinetic stress (kbar)  23711.71     -0.00     -0.00
                               -0.00  23711.71      0.00
                               -0.00      0.00  23711.71

     local   stress (kbar) -16529.85      0.04     -0.06
                                0.04 -16529.90     -0.03
                               -0.06     -0.03 -16529.88

     nonloc. stress (kbar)   5934.92      0.00      0.00
                                0.00   5934.92      0.00
                               -0.00      0.00   5934.92

     hartree stress (kbar)  12701.36     -0.02      0.03
                               -0.02  12701.38      0.02
                                0.03      0.02  12701.37

     exc-cor stress (kbar)    749.48     -0.00      0.00
                               -0.00    749.48     -0.00
                                0.00     -0.00    749.48

     corecor stress (kbar)  -5496.05      0.00     -0.00
                                0.00  -5496.05     -0.00
                               -0.00     -0.00  -5496.05

     ewald   stress (kbar) -21401.94      0.00      0.00
                                0.00 -21401.94     -0.00
                                0.00     -0.00 -21401.94

     hubbard stress (kbar)      0.00      0.00      0.00
                                0.00      0.00      0.00
                                0.00      0.00      0.00

     DFT-D   stress (kbar)      0.00      0.00      0.00
                                0.00      0.00      0.00
                                0.00      0.00      0.00

     XDM     stress (kbar)      0.00      0.00      0.00
                                0.00      0.00      0.00
                                0.00      0.00      0.00

     dft-nl  stress (kbar)      0.00      0.00      0.00
                                0.00      0.00      0.00
                                0.00      0.00      0.00

     TS-vdW  stress (kbar)      0.00      0.00      0.00
                                0.00      0.00      0.00
                                0.00      0.00      0.00

[...]

                                0.00      0.00      0.00

     Writing all to output data dir new_calculations/myprefix.save/

     General routines

     Parallel routines

   This run was terminated on:  15:18:32  21May2023

   JOB DONE.