     Program PWSCF v.7.0 starts on 21May2023 at 17:29:28

     Reading input from espresso_6897.pwi
Warning: card &CELL ignored
Warning: card / ignored

     Current dimensions of program PWSCF are:
     Max number of different atomic species (ntypx) = 10
     Max number of k-points (npk) =  40000
     Max angular momentum in pseudopotentials (lmaxx) =  4
     file Ga.pbe-dn-kjpaw_psl.1.0.0.UPF: wavefunction(s)  4S renormalized

     gamma-point specific algorithms are used
     Message from routine setup:
     using ibrav=0 with symmetry is DISCOURAGED, use correct ibrav instead

     Subspace diagonalization in iterative solution of the eigenvalue problem:
     a serial algorithm will be used

     Using Slab Decomposition

     bravais-lattice index     =            0
     lattice parameter (alat)  =      12.9320  a.u.
     unit-cell volume          =    1450.9706 (a.u.)^3
     number of atoms/cell      =           12
     number of atomic types    =            2
     number of electrons       =       166.00
     number of Kohn-Sham states=          100
     kinetic-energy cutoff     =      30.0000  Ry
     charge density cutoff     =     240.0000  Ry
     scf convergence threshold =      1.0E-06
     mixing beta               =       0.7000
     number of iterations used =            8  plain     mixing
     Exchange-correlation= PBE
                           (   1   4   3   4   0   0   0)

     celldm(1)=  12.931977  celldm(2)=   0.000000  celldm(3)=   0.000000
     celldm(4)=   0.000000  celldm(5)=   0.000000  celldm(6)=   0.000000

     crystal axes: (cart. coord. in units of alat)
               a(1) = (   1.000000   0.000000   0.000000 )
               a(2) = (   0.092066   0.995753   0.000000 )
               a(3) = (  -0.546033  -0.497876   0.673771 )

     reciprocal axes: (cart. coord. in units 2 pi/alat)
               b(1) = (  1.000000 -0.092458  0.742092 )
               b(2) = (  0.000000  1.004265  0.742092 )
               b(3) = (  0.000000  0.000000  1.484184 )

     PseudoPot. # 1 for Ga read from file:
     /home/pragov/projects/rrg-bengioy-ad/pragov/crystal_structure_design/SSSP/Ga.pbe-dn-kjpaw_psl.1.0.0.UPF
     MD5 check sum: a27b4342b1af7e5f338de752e9ed7044
     Pseudo is Projector augmented-wave + core cor, Zval = 13.0
     Generated using "atomic" code by A. Dal Corso  v.5.1
     Shape of augmentation charge: PSQ
     Using radial grid of 1205 points,  6 beta functions with:
                l(1) =   0
                l(2) =   0
                l(3) =   1
                l(4) =   1
                l(5) =   2
                l(6) =   2
     Q(r) pseudized with 0 coefficients

     PseudoPot. # 2 for Pd read from file:
     /home/pragov/projects/rrg-bengioy-ad/pragov/crystal_structure_design/SSSP/Pd_ONCV_PBE-1.0.oncvpsp.upf
     MD5 check sum: eb77f42b51d86fb18e25f68156a31cf1
     Pseudo is Norm-conserving, Zval = 18.0
     Generated using ONCVPSP code by D. R. Hamann
     Using radial grid of 1410 points,  6 beta functions with:
                l(1) =   0
                l(2) =   0
                l(3) =   1
                l(4) =   1
                l(5) =   2
                l(6) =   2

     atomic species   valence    mass     pseudopotential
        Ga            13.00    69.72300     Ga( 1.00)
        Pd            18.00   106.42000     Pd( 1.00)

      4 Sym. Ops., with inversion, found ( 2 have fractional translation)

                                    s                        frac. trans.

      isym =  1     identity

 cryst.   s( 1) = (     1          0          0      )
                  (     0          1          0      )
                  (     0          0          1      )

 cart.    s( 1) = (  1.0000000  0.0000000  0.0000000 )
                  (  0.0000000  1.0000000 -0.0000000 )
                  (  0.0000000  0.0000000  1.0000000 )

      isym =  2     180 deg rotation - cart. axis [0,0,1]

 cryst.   s( 2) = (    -1          0          0      )    f =( -0.5000000 )
                  (     0         -1          0      )       (  0.5000000 )
                  (     1          1          1      )       (  0.0000000 )

 cart.    s( 2) = ( -1.0000000 -0.0000000 -0.0000000 )    f =( -0.4539672 )
                  (  0.0000000 -1.0000000 -0.0000000 )       (  0.4978765 )
                  (  0.0000000  0.0000000  1.0000000 )       (  0.0000000 )

      isym =  3     inversion

 cryst.   s( 3) = (    -1          0          0      )
                  (     0         -1          0      )
                  (     0          0         -1      )

 cart.    s( 3) = ( -1.0000000 -0.0000000 -0.0000000 )
                  (  0.0000000 -1.0000000  0.0000000 )
                  (  0.0000000  0.0000000 -1.0000000 )

      isym =  4     inv. 180 deg rotation - cart. axis [0,0,1]

 cryst.   s( 4) = (     1          0          0      )    f =(  0.5000000 )
                  (     0          1          0      )       ( -0.5000000 )
                  (    -1         -1         -1      )       (  0.0000000 )

 cart.    s( 4) = (  1.0000000  0.0000000  0.0000000 )    f =(  0.4539672 )
                  (  0.0000000  1.0000000  0.0000000 )       ( -0.4978765 )
                  (  0.0000000  0.0000000 -1.0000000 )       (  0.0000000 )

   Cartesian axes

     site n.     atom                  positions (alat units)
         1           Ga  tau(   1) = (   0.0000000   0.0000000   0.0000000  )
         2           Ga  tau(   2) = (   0.5460328   0.4978765   0.0000000  )
         3           Ga  tau(   3) = (   0.3792623  -0.1100894   0.5333947  )
         4           Ga  tau(   4) = (   0.0576974   0.2425784   0.3368854  )
         5           Ga  tau(   5) = (   0.7928929   0.5329957   0.3368854  )
         6           Ga  tau(   6) = (   0.4883354   0.2552981   0.3368854  )
         7           Ga  tau(   7) = (  -0.2468601  -0.0351192   0.3368854  )
         8           Ga  tau(   8) = (   0.0747049  -0.3877870   0.5333947  )
         9           Ga  tau(   9) = (   0.1667705   0.6079659   0.1403761  )
        10           Ga  tau(  10) = (   0.4713280   0.8856635   0.1403761  )
        11           Pd  tau(  11) = (   0.2730164   0.2489382   0.0000000  )
        12           Pd  tau(  12) = (   0.8190492   0.7468147   0.0000000  )

   Crystallographic axes

     site n.     atom                  positions (cryst. coord.)
         1           Ga  tau(   1) = (  0.0000000  0.0000000  0.0000000  )
         2           Ga  tau(   2) = (  0.5000000  0.5000000  0.0000000  )
         3           Ga  tau(   3) = (  0.7852690  0.2852690  0.7916560  )
         4           Ga  tau(   4) = (  0.2852690  0.4936130  0.5000000  )
         5           Ga  tau(   5) = (  0.9936130  0.7852690  0.5000000  )
         6           Ga  tau(   6) = (  0.7147310  0.5063870  0.5000000  )
         7           Ga  tau(   7) = (  0.0063870  0.2147310  0.5000000  )
         8           Ga  tau(   8) = (  0.5063870  0.0063870  0.7916560  )
         9           Ga  tau(   9) = (  0.2147310  0.7147310  0.2083440  )
        10           Ga  tau(  10) = (  0.4936130  0.9936130  0.2083440  )
        11           Pd  tau(  11) = (  0.2500000  0.2500000  0.0000000  )
        12           Pd  tau(  12) = (  0.7500000  0.7500000  0.0000000  )

     number of k points=     1  Methfessel-Paxton smearing, width (Ry)=  0.0010
                       cart. coord. in units 2pi/alat
        k(    1) = (   0.0000000   0.0000000   0.0000000), wk =   2.0000000

                       cryst. coord.
        k(    1) = (   0.0000000   0.0000000   0.0000000), wk =   2.0000000

     Check: negative core charge=   -0.000002

     Initial potential from superposition of free atoms

     starting charge     165.9698, renormalised to     166.0000
     Starting wfcs are  110 randomized atomic wfcs
     Checking if some PAW data can be deallocated...

     Self-consistent Calculation

     iteration #  1     ecut=    30.00 Ry     beta= 0.70
     Davidson diagonalization with overlap

     ethr =  1.00E-02,  avg # of iterations =  5.0

     Threshold (ethr) on eigenvalues was too large:
     Diagonalizing with lowered threshold

     Davidson diagonalization with overlap

[...]

     total energy              =   -3283.57519654 Ry
     estimated scf accuracy    <       1.34769586 Ry

[...]

     total energy              =   -3284.27183302 Ry
     estimated scf accuracy    <       0.00000302 Ry

     iteration # 12     ecut=    30.00 Ry     beta= 0.70
     Davidson diagonalization with overlap

     ethr =  1.22E-09,  avg # of iterations =  2.0

     End of self-consistent calculation

          k = 0.0000 0.0000 0.0000 (  2013 PWs)   bands (ev):

   -75.4121 -73.7370 -41.0392 -40.0065 -39.9646 -39.4707 -39.4235 -39.3995
    -5.1128  -5.1018  -5.0774  -5.0770  -5.0589  -5.0134  -4.9874  -4.9682
    -4.9659  -4.8871  -4.8729  -4.8524  -4.8507  -4.8262  -4.8199  -4.8070
    -4.7792  -4.7769  -4.7578  -4.7562  -4.7383  -4.7210  -4.7109  -4.7093
    -4.7077  -4.7002  -4.6934  -4.6752  -4.6440  -4.6427  -4.6299  -4.6046
    -4.5830  -4.5782  -4.5724  -4.5335  -4.5179  -4.4588  -4.4179  -4.3903
    -4.3893  -4.3300  -4.2321  -4.2210  -4.0918  -4.0538  -3.7998  -3.7440
    -3.5876  -3.3430   0.3478   4.2356   4.6862   4.9113   5.1194   5.2136
     5.2668   5.5817   5.6245   6.3434   6.5808   7.2193   8.1079   8.1565
     8.1611   8.2741   8.3560   8.4606   8.9544   9.5460   9.7922   9.8009
    10.4856  11.0092  11.3596  12.8798  13.4575  13.8251  13.9788  14.0082
    15.1978  15.2334  15.2629  16.1828  16.9861  17.0564  17.4342  17.7200
    17.8027  17.8801  18.4675  18.6055

     occupation numbers
     1.0000   1.0000   1.0000   1.0000   1.0000   1.0000   1.0000   1.0000
     1.0000   1.0000   1.0000   1.0000   1.0000   1.0000   1.0000   1.0000
     1.0000   1.0000   1.0000   1.0000   1.0000   1.0000   1.0000   1.0000
     1.0000   1.0000   1.0000   1.0000   1.0000   1.0000   1.0000   1.0000
     1.0000   1.0000   1.0000   1.0000   1.0000   1.0000   1.0000   1.0000
     1.0000   1.0000   1.0000   1.0000   1.0000   1.0000   1.0000   1.0000
     1.0000   1.0000   1.0000   1.0000   1.0000   1.0000   1.0000   1.0000
     1.0000   1.0000   1.0000   1.0000   1.0000   1.0000   1.0000   1.0000
     1.0000   1.0000   1.0000   1.0000   1.0000   1.0000   1.0000   1.0000
     1.0000   1.0000   1.0000   1.0000   1.0000   1.0000   1.0000   1.0000
     1.0000   1.0000   1.0000  -0.0000  -0.0000  -0.0000  -0.0000  -0.0000
    -0.0000  -0.0000  -0.0000  -0.0000  -0.0000  -0.0000  -0.0000  -0.0000
    -0.0000  -0.0000  -0.0000  -0.0000

     the Fermi energy is    12.1118 ev

!    total energy              =   -3284.27183342 Ry
     estimated scf accuracy    <       0.00000006 Ry
     smearing contrib. (-TS)   =       0.00000000 Ry
     internal energy E=F+TS    =   -3284.27183342 Ry

     The total energy is F=E-TS. E is the sum of the following terms:
     one-electron contribution =   -1165.49913969 Ry
     hartree contribution      =     732.78275001 Ry
     xc contribution           =    -428.80713928 Ry
     ewald contribution        =   -1314.31612771 Ry
     one-center paw contrib.   =   -1108.43217675 Ry
      -> PAW hartree energy AE =    1393.59747098 Ry
      -> PAW hartree energy PS =   -1370.66627704 Ry
      -> PAW xc energy AE      =   -1505.91112421 Ry
      -> PAW xc energy PS      =     374.54775353 Ry
      -> total E_H with PAW    =     755.71394395 Ry
      -> total E_XC with PAW   =   -1560.17050997 Ry

     convergence has been achieved in  12 iterations

     Forces acting on atoms (cartesian axes, Ry/au):

     atom    1 type  1   force =     0.00000000    0.00000000    0.00000000
     atom    2 type  1   force =     0.00000000    0.00000000    0.00000000
     atom    3 type  1   force =     0.02897782   -0.03915646    0.00818363
     atom    4 type  1   force =    -0.01205147   -0.02304082   -0.00000000
     atom    5 type  1   force =     0.02147793   -0.00600395    0.00000000
     atom    6 type  1   force =     0.01205147    0.02304082    0.00000000
     atom    7 type  1   force =    -0.02147793    0.00600395   -0.00000000
     atom    8 type  1   force =    -0.02897782    0.03915646    0.00818363
     atom    9 type  1   force =    -0.02897782    0.03915646   -0.00818363
     atom   10 type  1   force =     0.02897782   -0.03915646   -0.00818363
     atom   11 type  2   force =     0.00000000    0.00000000   -0.01162163
     atom   12 type  2   force =     0.00000000    0.00000000    0.01162163
     The non-local contrib.  to forces
     atom    1 type  1   force =     0.00000000    0.00000000    0.00000000
     atom    2 type  1   force =    -0.00000000   -0.00000000   -0.00000000
     atom    3 type  1   force =     0.09269282    0.04106013   -0.09897158
     atom    4 type  1   force =    -0.07508031    0.15082176    0.00000000
     atom    5 type  1   force =     0.17041323    0.01729298    0.00000000
     atom    6 type  1   force =     0.07508031   -0.15082176   -0.00000000
     atom    7 type  1   force =    -0.17041323   -0.01729298   -0.00000000
     atom    8 type  1   force =    -0.09269282   -0.04106013   -0.09897158
     atom    9 type  1   force =    -0.09269282   -0.04106013    0.09897158
     atom   10 type  1   force =     0.09269282    0.04106013    0.09897158
     atom   11 type  2   force =     0.00000000    0.00000000   -0.00707883
     atom   12 type  2   force =     0.00000000    0.00000000    0.00707883
     The ionic contribution  to forces
     atom    1 type  1   force =     0.00000000    0.00000000   -0.00000000
     atom    2 type  1   force =     0.00000000    0.00000000   -0.00000000
     atom    3 type  1   force =    -5.53088440   -5.04309835   -2.95742747
     atom    4 type  1   force =    -7.52351288   -2.85773590   -0.00000000
     atom    5 type  1   force =    -3.53825593   -7.22846080   -0.00000000
     atom    6 type  1   force =     7.52351288    2.85773590    0.00000000
     atom    7 type  1   force =     3.53825593    7.22846080    0.00000000
     atom    8 type  1   force =     5.53088441    5.04309835   -2.95742747
     atom    9 type  1   force =     5.53088440    5.04309835    2.95742747
     atom   10 type  1   force =    -5.53088440   -5.04309835    2.95742747
     atom   11 type  2   force =    -0.00000000   -0.00000000   -0.00000000
     atom   12 type  2   force =    -0.00000000   -0.00000000   -0.00000000
     The local contribution  to forces
     atom    1 type  1   force =    -0.00005689    0.00005679    0.00002702
     atom    2 type  1   force =     0.00004175   -0.00005684    0.00011635
     atom    3 type  1   force =     5.44896166    5.00155035    3.06419393
     atom    4 type  1   force =     7.58905073    2.68568785    0.03481243
     atom    5 type  1   force =     3.38705685    7.20600774    0.00580431
     atom    6 type  1   force =    -7.58909535   -2.68568516   -0.03482499
     atom    7 type  1   force =    -3.38704237   -7.20600843   -0.00575231
     atom    8 type  1   force =    -5.48946105   -4.92291796    3.06264711
     atom    9 type  1   force =    -5.44894884   -5.00159334   -3.06424968
     atom   10 type  1   force =     5.48950470    4.92288820   -3.06256750
     atom   11 type  2   force =    -0.00861308    0.02655644   -0.00447718
     atom   12 type  2   force =     0.00863872   -0.02663989    0.00452838
     The core correction contribution to forces
     atom    1 type  1   force =    -0.00000351    0.00000122    0.00000109
     atom    2 type  1   force =     0.00000294   -0.00000125    0.00000382
     atom    3 type  1   force =    -0.00110401    0.00202806    0.00142188
     atom    4 type  1   force =    -0.00259928   -0.00184945    0.00035339
     atom    5 type  1   force =     0.00224275   -0.00095331    0.00101809
     atom    6 type  1   force =     0.00259731    0.00185067   -0.00035241
     atom    7 type  1   force =    -0.00224123    0.00095292   -0.00101881
     atom    8 type  1   force =     0.00315298    0.00080410    0.00088496
     atom    9 type  1   force =     0.00110245   -0.00202910   -0.00142268
     atom   10 type  1   force =    -0.00315022   -0.00080631   -0.00088289
     atom   11 type  2   force =     0.00000000    0.00000000    0.00000000
     atom   12 type  2   force =     0.00000000    0.00000000    0.00000000
     The Hubbard contrib.    to forces
     atom    1 type  1   force =     0.00000000    0.00000000    0.00000000
     atom    2 type  1   force =     0.00000000    0.00000000    0.00000000
     atom    3 type  1   force =     0.00000000    0.00000000    0.00000000
     atom    4 type  1   force =     0.00000000    0.00000000    0.00000000
     atom    5 type  1   force =     0.00000000    0.00000000    0.00000000
     atom    6 type  1   force =     0.00000000    0.00000000    0.00000000
     atom    7 type  1   force =     0.00000000    0.00000000    0.00000000
     atom    8 type  1   force =     0.00000000    0.00000000    0.00000000
     atom    9 type  1   force =     0.00000000    0.00000000    0.00000000
     atom   10 type  1   force =     0.00000000    0.00000000    0.00000000
     atom   11 type  2   force =     0.00000000    0.00000000    0.00000000
     atom   12 type  2   force =     0.00000000    0.00000000    0.00000000
     The SCF correction term to forces
     atom    1 type  1   force =     0.00005540   -0.00007328   -0.00002145
     atom    2 type  1   force =    -0.00005300    0.00007065   -0.00015428
     atom    3 type  1   force =     0.00010155   -0.00000148   -0.00005538
     atom    4 type  1   force =     0.00009990    0.00003472    0.00023644
     atom    5 type  1   force =     0.00003028    0.00010941    0.00000511
     atom    6 type  1   force =    -0.00003403   -0.00003903   -0.00020266
     atom    7 type  1   force =    -0.00002777   -0.00010838   -0.00007792
     atom    8 type  1   force =    -0.00007400   -0.00007005    0.00007188
     atom    9 type  1   force =    -0.00012085    0.00006221    0.00014592
     atom   10 type  1   force =     0.00001464    0.00012411   -0.00018952
     atom   11 type  2   force =    -0.00010925   -0.00045208   -0.00006229
     atom   12 type  2   force =     0.00007475    0.00054358    0.00001773

     Total force =     0.111251     Total SCF correction =     0.000908

     Computing stress (Cartesian axis) and pressure

          total   stress  (Ry/bohr**3)                   (kbar)     P=     -619.79
  -0.00473290   0.00042784  -0.00000000         -696.23       62.94       -0.00
   0.00042784  -0.00322135  -0.00000000           62.94     -473.88       -0.00
  -0.00000000  -0.00000000  -0.00468552           -0.00       -0.00     -689.26

     kinetic stress (kbar)  20827.19    -66.44      0.00
                              -66.44  21048.48      0.00
                                0.00      0.00  21045.69

     local   stress (kbar)    921.16  -3278.61    -40.35
                            -3278.61   1557.02     26.96
                              -40.35     26.96   4568.81

     nonloc. stress (kbar)   5203.53     28.74      0.00
                               28.74   5245.37      0.00
                                0.00      0.00   5085.41

     hartree stress (kbar)  25263.83   1109.35     11.46
                             1109.35  25012.33      2.10
                               11.46      2.10  24016.22

     exc-cor stress (kbar)   5231.48      0.45      0.11
                                0.45   5230.23      0.25
                                0.11      0.25   5230.25

     corecor stress (kbar) -14696.83     -1.63     -1.63
                               -1.63 -14700.74      1.88
                               -1.63      1.88 -14698.31

     ewald   stress (kbar) -43446.60   2271.07      0.00
                             2271.07 -43866.56      0.00
                                0.00      0.00 -45937.35

     hubbard stress (kbar)      0.00      0.00      0.00
                                0.00      0.00      0.00
                                0.00      0.00      0.00

     DFT-D   stress (kbar)      0.00      0.00      0.00
                                0.00      0.00      0.00
                                0.00      0.00      0.00

     XDM     stress (kbar)      0.00      0.00      0.00
                                0.00      0.00      0.00
                                0.00      0.00      0.00

     dft-nl  stress (kbar)      0.00      0.00      0.00
                                0.00      0.00      0.00
                                0.00      0.00      0.00

     TS-vdW  stress (kbar)      0.00      0.00      0.00
                                0.00      0.00      0.00
                                0.00      0.00      0.00

[...]

                                0.00      0.00      0.00

     Writing all to output data dir new_calculations/myprefix.save/

     General routines

     Parallel routines

     PAW routines

   This run was terminated on:  17:30:13  21May2023

   JOB DONE.