     Program PWSCF v.7.0 starts on 21May2023 at  6:57:22

     Reading input from espresso_14154.pwi
Warning: card &CELL ignored
Warning: card / ignored

     Current dimensions of program PWSCF are:
     Max number of different atomic species (ntypx) = 10
     Max number of k-points (npk) =  40000
     Max angular momentum in pseudopotentials (lmaxx) =  4

     gamma-point specific algorithms are used
     Message from routine setup:
     using ibrav=0 with symmetry is DISCOURAGED, use correct ibrav instead

     Subspace diagonalization in iterative solution of the eigenvalue problem:
     a serial algorithm will be used

     Using Slab Decomposition

     bravais-lattice index     =            0
     lattice parameter (alat)  =       5.4131  a.u.
     unit-cell volume          =     512.3660 (a.u.)^3
     number of atoms/cell      =            8
     number of atomic types    =            3
     number of electrons       =        78.00
     number of Kohn-Sham states=           47
     kinetic-energy cutoff     =      30.0000  Ry
     charge density cutoff     =     240.0000  Ry
     scf convergence threshold =      1.0E-06
     mixing beta               =       0.7000
     number of iterations used =            8  plain     mixing
     Exchange-correlation= PBE
                           (   1   4   3   4   0   0   0)

     celldm(1)=   5.413099  celldm(2)=   0.000000  celldm(3)=   0.000000
     celldm(4)=   0.000000  celldm(5)=   0.000000  celldm(6)=   0.000000

     crystal axes: (cart. coord. in units of alat)
               a(1) = (   1.000000   0.000000   0.000000 )
               a(2) = (  -0.500000   0.866025   0.000000 )
               a(3) = (   0.000000   0.000000   3.730026 )

     reciprocal axes: (cart. coord. in units 2 pi/alat)
               b(1) = (  1.000000  0.577351  0.000000 )
               b(2) = (  0.000000  1.154701  0.000000 )
               b(3) = (  0.000000  0.000000  0.268095 )

     PseudoPot. # 1 for Mn read from file:
     /home/pragov/projects/rrg-bengioy-ad/pragov/crystal_structure_design/SSSP/mn_pbe_v1.5.uspp.F.UPF
     MD5 check sum: 82ef2b46521d7a7d9e736dc3972e4928
     Pseudo is Ultrasoft + core correction, Zval = 15.0
     Generated by new atomic code, or converted to UPF format
     Using radial grid of  859 points,  6 beta functions with:
                l(1) =   0
                l(2) =   0
                l(3) =   1
                l(4) =   1
                l(5) =   2
                l(6) =   2
     Q(r) pseudized with  8 coefficients,  rinner =    0.950   0.950   0.950
                                                       0.950   0.950

     PseudoPot. # 2 for Mo read from file:
     /home/pragov/projects/rrg-bengioy-ad/pragov/crystal_structure_design/SSSP/Mo_ONCV_PBE-1.0.oncvpsp.upf
     MD5 check sum: 1b5d28e075c9ccadda658a603575cd1f
     Pseudo is Norm-conserving, Zval = 14.0
     Generated using ONCVPSP code by D. R. Hamann
     Using radial grid of 1526 points,  6 beta functions with:
                l(1) =   0
                l(2) =   0
                l(3) =   1
                l(4) =   1
                l(5) =   2
                l(6) =   2

     PseudoPot. # 3 for N  read from file:
     /home/pragov/projects/rrg-bengioy-ad/pragov/crystal_structure_design/SSSP/N.pbe-n-radius_5.UPF
     MD5 check sum: 16739722b17309cd8fe442a2ace49922
     Pseudo is Ultrasoft + core correction, Zval =  5.0
     Generated using "atomic" code by A. Dal Corso  v.5.1
     Using radial grid of 1085 points,  4 beta functions with:
                l(1) =   0
                l(2) =   0
                l(3) =   1
                l(4) =   1
     Q(r) pseudized with 0 coefficients

     atomic species   valence    mass     pseudopotential
        Mn            15.00    54.93804     Mn( 1.00)
        Mo            14.00    95.95000     Mo( 1.00)
        N              5.00    14.00700     N ( 1.00)

     24 Sym. Ops., with inversion, found (12 have fractional translation)

                                    s                        frac. trans.

      isym =  1     identity

 cryst.   s( 1) = (     1          0          0      )
                  (     0          1          0      )
                  (     0          0          1      )

 cart.    s( 1) = (  1.0000000 -0.0000000  0.0000000 )
                  (  0.0000000  1.0000000  0.0000000 )
                  (  0.0000000  0.0000000  1.0000000 )

      isym =  2     180 deg rotation - cart. axis [0,0,1]

 cryst.   s( 2) = (    -1          0          0      )    f =(  0.0000000 )
                  (     0         -1          0      )       (  0.0000000 )
                  (     0          0          1      )       (  0.5000000 )

 cart.    s( 2) = ( -1.0000000  0.0000000  0.0000000 )    f =(  0.0000000 )
                  (  0.0000000 -1.0000000  0.0000000 )       (  0.0000000 )
                  (  0.0000000  0.0000000  1.0000000 )       (  1.8650130 )

[...]

      isym =  4     180 deg rotation - cart. axis [1,0,0]

[...]

      isym =  5      60 deg rotation - cryst. axis [0,0,1]

[...]

 cryst.   s( 8) = (    -1         -1          0      )
                  (     1          0          0      )
                  (     0          0          1      )

 cart.    s( 8) = ( -0.4999998  0.8660255  0.0000000 )
                  ( -0.8660253 -0.5000002  0.0000000 )
                  (  0.0000000  0.0000000  1.0000000 )

[...]

 cryst.   s( 9) = (     0         -1          0      )    f =(  0.0000000 )
                  (    -1          0          0      )       (  0.0000000 )
                  (     0          0         -1      )       (  0.5000000 )

 cart.    s( 9) = (  0.5000002 -0.8660253  0.0000000 )    f =(  0.0000000 )
                  ( -0.8660253 -0.5000002  0.0000000 )       (  0.0000000 )
                  (  0.0000000  0.0000000 -1.0000000 )       (  1.8650130 )

[...]

 cryst.   s(10) = (     1          1          0      )    f =(  0.0000000 )
                  (     0         -1          0      )       (  0.0000000 )
                  (     0          0         -1      )       (  0.5000000 )

 cart.    s(10) = (  0.4999998  0.8660257  0.0000000 )    f =(  0.0000000 )
                  (  0.8660253 -0.4999998  0.0000000 )       (  0.0000000 )
                  (  0.0000000  0.0000000 -1.0000000 )       (  1.8650130 )

[...]

 cryst.   s(11) = (    -1         -1          0      )
                  (     0          1          0      )
                  (     0          0         -1      )

 cart.    s(11) = ( -0.4999998 -0.8660257  0.0000000 )
                  ( -0.8660253  0.4999998  0.0000000 )
                  (  0.0000000  0.0000000 -1.0000000 )

      isym = 12     180 deg rotation - cryst. axis [1,1,0]

[...]

      isym = 13     inversion

[...]

      isym = 14     inv. 180 deg rotation - cart. axis [0,0,1]

[...]

      isym = 16     inv. 180 deg rotation - cart. axis [1,0,0]

[...]

      isym = 17     inv.  60 deg rotation - cryst. axis [0,0,1]

[...]

 cryst.   s(22) = (    -1         -1          0      )    f =(  0.0000000 )
                  (     0          1          0      )       (  0.0000000 )
                  (     0          0          1      )       (  0.5000000 )

 cart.    s(22) = ( -0.4999998 -0.8660257  0.0000000 )    f =(  0.0000000 )
                  ( -0.8660253  0.4999998  0.0000000 )       (  0.0000000 )
                  (  0.0000000  0.0000000  1.0000000 )       (  1.8650130 )

[...]

      isym = 24     inv. 180 deg rotation - cryst. axis [1,1,0]

 cryst.   s(24) = (     0         -1          0      )
                  (    -1          0          0      )
                  (     0          0          1      )

 cart.    s(24) = (  0.5000002 -0.8660253  0.0000000 )
                  ( -0.8660253 -0.5000002  0.0000000 )
                  (  0.0000000  0.0000000  1.0000000 )

   Cartesian axes

     site n.     atom                  positions (alat units)
         1           Mn  tau(   1) = (   0.0000000   0.0000000   1.8650130  )
         2           Mn  tau(   2) = (   0.0000000   0.0000000   0.0000000  )
         3           Mo  tau(   3) = (   0.0000000   0.0000000   0.9325065  )
         4           Mo  tau(   4) = (   0.0000000   0.0000000   2.7975196  )
         5           N   tau(   5) = (  -0.0000006   0.5773505   1.4121431  )
         6           N   tau(   6) = (   0.5000004   0.2886748   3.2771562  )
         7           N   tau(   7) = (  -0.0000006   0.5773505   0.4528699  )
         8           N   tau(   8) = (   0.5000004   0.2886748   2.3178830  )

   Crystallographic axes

     site n.     atom                  positions (cryst. coord.)
         1           Mn  tau(   1) = (  0.0000000  0.0000000  0.5000000  )
         2           Mn  tau(   2) = (  0.0000000  0.0000000  0.0000000  )
         3           Mo  tau(   3) = (  0.0000000  0.0000000  0.2500000  )
         4           Mo  tau(   4) = (  0.0000000  0.0000000  0.7500000  )
         5           N   tau(   5) = (  0.3333330  0.6666670  0.3785880  )
         6           N   tau(   6) = (  0.6666670  0.3333330  0.8785880  )
         7           N   tau(   7) = (  0.3333330  0.6666670  0.1214120  )
         8           N   tau(   8) = (  0.6666670  0.3333330  0.6214120  )

     number of k points=     1  Methfessel-Paxton smearing, width (Ry)=  0.0010
                       cart. coord. in units 2pi/alat
        k(    1) = (   0.0000000   0.0000000   0.0000000), wk =   2.0000000

                       cryst. coord.
        k(    1) = (   0.0000000   0.0000000   0.0000000), wk =   2.0000000

     Check: negative core charge=   -0.000023

     Initial potential from superposition of free atoms

     starting charge      76.9978, renormalised to      78.0000
     Starting wfcs are   62 randomized atomic wfcs

     Self-consistent Calculation

     iteration #  1     ecut=    30.00 Ry     beta= 0.70
     Davidson diagonalization with overlap

     ethr =  1.00E-02,  avg # of iterations =  2.0

     total energy              =    -774.43434952 Ry
     estimated scf accuracy    <       3.42610474 Ry

[...]

     total energy              =    -776.43322786 Ry
     estimated scf accuracy    <       0.00009346 Ry

     iteration # 39     ecut=    30.00 Ry     beta= 0.70
     Davidson diagonalization with overlap

     ethr =  8.76E-08,  avg # of iterations =  1.0

     End of self-consistent calculation

          k = 0.0000 0.0000 0.0000 (   720 PWs)   bands (ev):

   -60.0366 -60.0348 -42.0438 -42.0425 -29.2058 -29.1855 -28.5823 -28.5822
   -28.5752 -28.5752 -16.7916 -16.7743 -15.5355 -15.5355 -15.5351 -15.5350
     1.5399   2.4331   2.6096   3.7810  10.8479  12.6045  13.4311  14.2688
    14.2688  14.5875  14.5875  15.1268  15.1268  15.2059  15.9294  15.9294
    16.9547  18.2132  18.2132  18.2318  18.2318  18.3243  18.5280  18.5292
    18.5292  19.9778  19.9778  20.5599  20.9004  20.9005  21.4643

     occupation numbers
     1.0000   1.0000   1.0000   1.0000   1.0000   1.0000   1.0000   1.0000
     1.0000   1.0000   1.0000   1.0000   1.0000   1.0000   1.0000   1.0000
     1.0000   1.0000   1.0000   1.0000   1.0000   1.0000   1.0000   1.0000
     1.0000   1.0000   1.0000   1.0000   1.0000   1.0000   1.0000   1.0000
     1.0000   1.0000   1.0000   1.0000   1.0000   1.0000   0.3797   0.3114
     0.3089  -0.0000  -0.0000  -0.0000  -0.0000  -0.0000  -0.0000

     the Fermi energy is    18.5261 ev

!    total energy              =    -776.43322771 Ry
     estimated scf accuracy    <       0.00000086 Ry
     smearing contrib. (-TS)   =      -0.00074267 Ry
     internal energy E=F+TS    =    -776.43248504 Ry

     The total energy is F=E-TS. E is the sum of the following terms:
     one-electron contribution =    -216.39710938 Ry
     hartree contribution      =     161.21940643 Ry
     xc contribution           =    -106.70950293 Ry
     ewald contribution        =    -614.54527916 Ry

     convergence has been achieved in  39 iterations

     Forces acting on atoms (cartesian axes, Ry/au):

     atom    1 type  1   force =     0.00000000    0.00000000    0.00000000
     atom    2 type  1   force =    -0.00000000   -0.00000000    0.00000000
     atom    3 type  2   force =     0.00000000   -0.00000000    0.00000000
     atom    4 type  2   force =     0.00000000   -0.00000000   -0.00000000
     atom    5 type  3   force =     0.00000000   -0.00000000   -0.14507640
     atom    6 type  3   force =     0.00000000    0.00000000   -0.14507640
     atom    7 type  3   force =    -0.00000000   -0.00000000    0.14507640
     atom    8 type  3   force =    -0.00000000   -0.00000000    0.14507640
     The non-local contrib.  to forces
     atom    1 type  1   force =     0.00000000    0.00000000    0.00000000
     atom    2 type  1   force =    -0.00000000   -0.00000000   -0.00000000
     atom    3 type  2   force =     0.00000000   -0.00000000    0.00000000
     atom    4 type  2   force =    -0.00000000   -0.00000000    0.00000000
     atom    5 type  3   force =    -0.00000000   -0.00000000    0.29122881
     atom    6 type  3   force =     0.00000000   -0.00000000    0.29122881
     atom    7 type  3   force =     0.00000000    0.00000000   -0.29122881
     atom    8 type  3   force =     0.00000000    0.00000000   -0.29122881
     The ionic contribution  to forces
     atom    1 type  1   force =    -0.00000000   -0.00000000    0.00000000
     atom    2 type  1   force =    -0.00000000   -0.00000000   -0.00000000
     atom    3 type  2   force =    -0.00000674    0.00000389   -0.00000000
     atom    4 type  2   force =     0.00000673   -0.00000389    0.00000000
     atom    5 type  3   force =     0.00000789   -0.00000455   -1.71936065
     atom    6 type  3   force =    -0.00000789    0.00000455   -1.71936065
     atom    7 type  3   force =     0.00000789   -0.00000455    1.71936065
     atom    8 type  3   force =    -0.00000789    0.00000455    1.71936065
     The local contribution  to forces
     atom    1 type  1   force =    -0.00000057    0.00000667    0.00114030
     atom    2 type  1   force =    -0.00000237   -0.00000536   -0.00017048
     atom    3 type  2   force =    -0.00001576   -0.00001708   -0.00319915
     atom    4 type  2   force =     0.00001472    0.00002074    0.00242627
     atom    5 type  3   force =    -0.00003867    0.00000176    1.28559972
     atom    6 type  3   force =     0.00002705    0.00002773    1.28693676
     atom    7 type  3   force =    -0.00003033   -0.00001637   -1.28688165
     atom    8 type  3   force =     0.00002543    0.00000899   -1.28558588
     The core correction contribution to forces
     atom    1 type  1   force =     0.00000003    0.00000016   -0.00000118
     atom    2 type  1   force =     0.00000007   -0.00000029    0.00000015
     atom    3 type  2   force =     0.00000000    0.00000000    0.00000000
     atom    4 type  2   force =     0.00000000    0.00000000    0.00000000
     atom    5 type  3   force =    -0.00000006    0.00000001   -0.00351584
     atom    6 type  3   force =     0.00000010    0.00000003   -0.00351548
     atom    7 type  3   force =    -0.00000009    0.00000011    0.00351596
     atom    8 type  3   force =    -0.00000004    0.00000009    0.00351597
     The Hubbard contrib.    to forces
     atom    1 type  1   force =     0.00000000    0.00000000    0.00000000
     atom    2 type  1   force =     0.00000000    0.00000000    0.00000000
     atom    3 type  2   force =     0.00000000    0.00000000    0.00000000
     atom    4 type  2   force =     0.00000000    0.00000000    0.00000000
     atom    5 type  3   force =     0.00000000    0.00000000    0.00000000
     atom    6 type  3   force =     0.00000000    0.00000000    0.00000000
     atom    7 type  3   force =     0.00000000    0.00000000    0.00000000
     atom    8 type  3   force =     0.00000000    0.00000000    0.00000000
     The SCF correction term to forces
     atom    1 type  1   force =     0.00000332   -0.00001011   -0.00121617
     atom    2 type  1   force =     0.00000121    0.00000362    0.00017427
     atom    3 type  2   force =     0.00002070    0.00002989    0.00330764
     atom    4 type  2   force =    -0.00002667   -0.00001594   -0.00242746
     atom    5 type  3   force =     0.00000978   -0.00000731    0.00094451
     atom    6 type  3   force =    -0.00000255   -0.00001870   -0.00031327
     atom    7 type  3   force =     0.00000435    0.00001374    0.00031073
     atom    8 type  3   force =    -0.00000540    0.00000051   -0.00096049

     Total force =     0.290153     Total SCF correction =     0.004512

     Computing stress (Cartesian axis) and pressure

          total   stress  (Ry/bohr**3)                   (kbar)     P=       35.81
   0.00411791   0.00000000   0.00000000          605.77        0.00        0.00
   0.00000000   0.00411791   0.00000000            0.00      605.77        0.00
   0.00000000   0.00000000  -0.00750561            0.00        0.00    -1104.11

     kinetic stress (kbar)  42998.76      0.01      0.00
                                0.01  42998.77      0.00
                               -0.00     -0.00  39806.70

     local   stress (kbar)  -4714.27      1.64      0.22
                                1.64  -4716.88     -0.61
                                0.22     -0.61 -13008.08

     nonloc. stress (kbar)  18523.09      0.00      0.00
                                0.00  18523.09      0.00
                                0.00      0.00  18461.49

     hartree stress (kbar)  14765.84     -0.44     -0.07
                               -0.44  14766.53      0.18
                               -0.07      0.18  16755.22

     exc-cor stress (kbar)  -7044.90     -0.01     -0.00
                               -0.01  -7044.89      0.00
                               -0.00      0.00  -7036.41

     corecor stress (kbar)  -2496.18      0.02      0.00
                                0.02  -2496.21     -0.01
                                0.00     -0.01  -2492.55

     ewald   stress (kbar) -61425.59     -0.04     -0.00
                               -0.04 -61425.63     -0.00
                               -0.00     -0.00 -53590.49

     hubbard stress (kbar)      0.00      0.00      0.00
                                0.00      0.00      0.00
                                0.00      0.00      0.00

     DFT-D   stress (kbar)      0.00      0.00      0.00
                                0.00      0.00      0.00
                                0.00      0.00      0.00

     XDM     stress (kbar)      0.00      0.00      0.00
                                0.00      0.00      0.00
                                0.00      0.00      0.00

     dft-nl  stress (kbar)      0.00      0.00      0.00
                                0.00      0.00      0.00
                                0.00      0.00      0.00

     TS-vdW  stress (kbar)      0.00      0.00      0.00
                                0.00      0.00      0.00
                                0.00      0.00      0.00

[...]

                                0.00      0.00      0.00

     Writing all to output data dir new_calculations/myprefix.save/

     General routines

     Parallel routines

   This run was terminated on:   6:57:41  21May2023

   JOB DONE.