     Program PWSCF v.7.0 starts on 20May2023 at  2:19:38

     Reading input from espresso_109.pwi
Warning: card &CELL ignored
Warning: card / ignored

     Current dimensions of program PWSCF are:
     Max number of different atomic species (ntypx) = 10
     Max number of k-points (npk) =  40000
     Max angular momentum in pseudopotentials (lmaxx) =  4
     file O.pbe-n-kjpaw_psl.0.1.UPF: wavefunction(s)  2P renormalized

     gamma-point specific algorithms are used
     Message from routine setup:
     using ibrav=0 with symmetry is DISCOURAGED, use correct ibrav instead

     Subspace diagonalization in iterative solution of the eigenvalue problem:
     a serial algorithm will be used

     Using Slab Decomposition

     bravais-lattice index     =            0
     lattice parameter (alat)  =       6.3245  a.u.
     unit-cell volume          =     857.3342 (a.u.)^3
     number of atoms/cell      =           12
     number of atomic types    =            3
     number of electrons       =       146.00
     number of Kohn-Sham states=           88
     kinetic-energy cutoff     =      30.0000  Ry
     charge density cutoff     =     240.0000  Ry
     scf convergence threshold =      1.0E-06
     mixing beta               =       0.7000
     number of iterations used =            8  plain     mixing
     Exchange-correlation= SLA  PW   PBX  PBC
                           (   1   4   3   4   0   0   0)

     celldm(1)=   6.324458  celldm(2)=   0.000000  celldm(3)=   0.000000
     celldm(4)=   0.000000  celldm(5)=   0.000000  celldm(6)=   0.000000

     crystal axes: (cart. coord. in units of alat)
               a(1) = (   1.000000   0.000000   0.000000 )
               a(2) = (   0.000000   1.177644   0.000000 )
               a(3) = (   0.000000   0.000000   2.877838 )

     reciprocal axes: (cart. coord. in units 2 pi/alat)
               b(1) = (  1.000000  0.000000  0.000000 )
               b(2) = (  0.000000  0.849153  0.000000 )
               b(3) = (  0.000000  0.000000  0.347483 )

     PseudoPot. # 1 for Co read from file:
     /home/pragov/projects/rrg-bengioy-ad/pragov/crystal_structure_design/SSSP/Co_pbe_v1.2.uspp.F.UPF
     MD5 check sum: 5f91765df6ddd3222702df6e7b74a16d
     Pseudo is Ultrasoft + core correction, Zval = 17.0
     Generated by new atomic code, or converted to UPF format
     Using radial grid of  863 points,  6 beta functions with:
                l(1) =   0
                l(2) =   0
                l(3) =   1
                l(4) =   1
                l(5) =   2
                l(6) =   2
     Q(r) pseudized with  8 coefficients,  rinner =    1.200   1.200   1.200
                                                       1.200   1.200

     PseudoPot. # 2 for Cu read from file:
     /home/pragov/projects/rrg-bengioy-ad/pragov/crystal_structure_design/SSSP/Cu_pbe_v1.2.uspp.F.UPF
     MD5 check sum: 6e991ff952a84172a2a52a1c1e996048
     Pseudo is Ultrasoft + core correction, Zval = 19.0
     Generated by new atomic code, or converted to UPF format
     Using radial grid of  867 points,  6 beta functions with:
                l(1) =   0
                l(2) =   0
                l(3) =   1
                l(4) =   1
                l(5) =   2
                l(6) =   2
     Q(r) pseudized with  8 coefficients,  rinner =    1.150   1.150   1.150
                                                       1.150   1.150

     PseudoPot. # 3 for O  read from file:
     /home/pragov/projects/rrg-bengioy-ad/pragov/crystal_structure_design/SSSP/O.pbe-n-kjpaw_psl.0.1.UPF
     MD5 check sum: 0234752ac141de4415c5fc33072bef88
     Pseudo is Projector augmented-wave + core cor, Zval =  6.0
     Generated using "atomic" code by A. Dal Corso  v.5.0.99 svn rev. 10869
     Shape of augmentation charge: BESSEL
     Using radial grid of 1095 points,  4 beta functions with:
                l(1) =   0
                l(2) =   0
                l(3) =   1
                l(4) =   1
     Q(r) pseudized with 0 coefficients

     atomic species   valence    mass     pseudopotential
        Co            17.00    58.93319     Co( 1.00)
        Cu            19.00    63.54600     Cu( 1.00)
        O              6.00    15.99900     O ( 1.00)

      8 Sym. Ops., with inversion, found ( 4 have fractional translation)

                                    s                        frac. trans.

      isym =  1     identity

 cryst.   s( 1) = (     1          0          0      )
                  (     0          1          0      )
                  (     0          0          1      )

 cart.    s( 1) = (  1.0000000  0.0000000  0.0000000 )
                  (  0.0000000  1.0000000  0.0000000 )
                  (  0.0000000  0.0000000  1.0000000 )

      isym =  2     180 deg rotation - cart. axis [0,0,1]

 cryst.   s( 2) = (    -1          0          0      )    f =(  0.0000000 )
                  (     0         -1          0      )       (  0.5000000 )
                  (     0          0          1      )       ( -0.5000000 )

 cart.    s( 2) = ( -1.0000000  0.0000000  0.0000000 )    f =(  0.0000000 )
                  (  0.0000000 -1.0000000  0.0000000 )       (  0.5888218 )
                  (  0.0000000  0.0000000  1.0000000 )       ( -1.4389191 )

[...]

      isym =  4     180 deg rotation - cart. axis [1,0,0]

[...]

      isym =  5     inversion

[...]

      isym =  6     inv. 180 deg rotation - cart. axis [0,0,1]

[...]

 cryst.   s( 7) = (     1          0          0      )
                  (     0         -1          0      )
                  (     0          0          1      )

 cart.    s( 7) = (  1.0000000  0.0000000  0.0000000 )
                  (  0.0000000 -1.0000000  0.0000000 )
                  (  0.0000000  0.0000000  1.0000000 )

      isym =  8     inv. 180 deg rotation - cart. axis [1,0,0]

 cryst.   s( 8) = (    -1          0          0      )    f =(  0.0000000 )
                  (     0          1          0      )       (  0.5000000 )
                  (     0          0          1      )       ( -0.5000000 )

 cart.    s( 8) = ( -1.0000000  0.0000000  0.0000000 )    f =(  0.0000000 )
                  (  0.0000000  1.0000000  0.0000000 )       (  0.5888218 )
                  (  0.0000000  0.0000000  1.0000000 )       ( -1.4389191 )

   Cartesian axes

     site n.     atom                  positions (alat units)
         1           Co  tau(   1) = (   0.1942190   0.5888218   1.4389191  )
         2           Co  tau(   2) = (   0.8057810   0.0000000   0.0000000  )
         3           Cu  tau(   3) = (   0.6865990   0.0000000   1.9118515  )
         4           Cu  tau(   4) = (   0.6865990   0.0000000   0.9659867  )
         5           Cu  tau(   5) = (   0.3134010   0.5888218   2.4049058  )
         6           Cu  tau(   6) = (   0.3134010   0.5888218   0.4729324  )
         7           O   tau(   7) = (   0.3903110   0.0000000   0.4611563  )
         8           O   tau(   8) = (   0.3903110   0.0000000   2.4166819  )
         9           O   tau(   9) = (   0.6096890   0.5888218   0.9777628  )
        10           O   tau(  10) = (   0.6096890   0.5888218   1.9000754  )
        11           O   tau(  11) = (   0.9898900   0.5888218   0.0000000  )
        12           O   tau(  12) = (   0.0101100   0.0000000   1.4389191  )

   Crystallographic axes

     site n.     atom                  positions (cryst. coord.)
         1           Co  tau(   1) = (  0.1942190  0.5000000  0.5000000  )
         2           Co  tau(   2) = (  0.8057810  0.0000000  0.0000000  )
         3           Cu  tau(   3) = (  0.6865990  0.0000000  0.6643360  )
         4           Cu  tau(   4) = (  0.6865990  0.0000000  0.3356640  )
         5           Cu  tau(   5) = (  0.3134010  0.5000000  0.8356640  )
         6           Cu  tau(   6) = (  0.3134010  0.5000000  0.1643360  )
         7           O   tau(   7) = (  0.3903110  0.0000000  0.1602440  )
         8           O   tau(   8) = (  0.3903110  0.0000000  0.8397560  )
         9           O   tau(   9) = (  0.6096890  0.5000000  0.3397560  )
        10           O   tau(  10) = (  0.6096890  0.5000000  0.6602440  )
        11           O   tau(  11) = (  0.9898900  0.5000000  0.0000000  )
        12           O   tau(  12) = (  0.0101100  0.0000000  0.5000000  )

     number of k points=     1  Methfessel-Paxton smearing, width (Ry)=  0.0010
                       cart. coord. in units 2pi/alat
        k(    1) = (   0.0000000   0.0000000   0.0000000), wk =   2.0000000

                       cryst. coord.
        k(    1) = (   0.0000000   0.0000000   0.0000000), wk =   2.0000000

     Check: negative core charge=   -0.000019

     Initial potential from superposition of free atoms

     starting charge     140.0000, renormalised to     146.0000
     Starting wfcs are  102 randomized atomic wfcs
     Checking if some PAW data can be deallocated...

     Self-consistent Calculation

     iteration #  1     ecut=    30.00 Ry     beta= 0.70
     Davidson diagonalization with overlap

     ethr =  1.00E-02,  avg # of iterations =  3.0

     total energy              =   -2416.20025277 Ry
     estimated scf accuracy    <      57.88109952 Ry

[...]

     negative rho (up, down):  1.389E-03 0.000E+00

[...]

     total energy              =   -2460.43466715 Ry
     estimated scf accuracy    <       0.00000303 Ry

     iteration # 79     ecut=    30.00 Ry     beta= 0.70
     Davidson diagonalization with overlap

     ethr =  1.54E-09,  avg # of iterations =  1.0

     End of self-consistent calculation

          k = 0.0000 0.0000 0.0000 (  1205 PWs)   bands (ev):

  -101.1211-101.1206-101.1190-101.1188 -84.2939 -84.2936 -58.7663 -58.7657
   -58.7627 -58.7601 -58.4870 -58.4857 -58.4851 -58.4829 -58.2376 -58.2360
   -58.2341 -58.2330 -47.8629 -47.8604 -47.4405 -47.4393 -47.3344 -47.3299
    -8.2973  -7.9625  -7.5137  -7.1404  -6.7876  -6.7520   5.2734   5.3739
     5.5543   5.5877   5.7111   5.7877   6.0662   6.2998   6.4601   6.5527
     6.7559   6.8324   7.1607   7.4459   7.5663   7.8802   8.0050   8.2552
     8.6381   8.6486   8.7422   8.8122   8.8789   9.0239   9.1276   9.2101
     9.2426   9.3222   9.5231   9.5660   9.6093   9.6281   9.6652   9.6887
     9.7496  10.0007  10.3309  10.3427  10.4478  10.4677  10.5782  10.6457
    10.7636  10.7668  11.0570  11.1601  11.3032  11.3497  12.7442  15.4591
    15.5089  17.4868  17.8737  18.8268  19.4214  20.3043  21.1830  21.5173

     occupation numbers
     1.0000   1.0000   1.0000   1.0000   1.0000   1.0000   1.0000   1.0000
     1.0000   1.0000   1.0000   1.0000   1.0000   1.0000   1.0000   1.0000
     1.0000   1.0000   1.0000   1.0000   1.0000   1.0000   1.0000   1.0000
     1.0000   1.0000   1.0000   1.0000   1.0000   1.0000   1.0000   1.0000
     1.0000   1.0000   1.0000   1.0000   1.0000   1.0000   1.0000   1.0000
     1.0000   1.0000   1.0000   1.0000   1.0000   1.0000   1.0000   1.0000
     1.0000   1.0000   1.0000   1.0000   1.0000   1.0000   1.0000   1.0000
     1.0000   1.0000   1.0000   1.0000   1.0000   1.0000   1.0000   1.0000
     1.0000   1.0000   1.0000   1.0000   1.0000   1.0000   1.0000   1.0000
     0.5976   0.4024  -0.0000  -0.0000  -0.0000  -0.0000  -0.0000  -0.0000
    -0.0000  -0.0000  -0.0000  -0.0000  -0.0000  -0.0000  -0.0000  -0.0000

     the Fermi energy is    10.7652 ev

!    total energy              =   -2460.43466681 Ry
     estimated scf accuracy    <       0.00000055 Ry
     smearing contrib. (-TS)   =      -0.00054158 Ry
     internal energy E=F+TS    =   -2460.43412523 Ry

     The total energy is F=E-TS. E is the sum of the following terms:
     one-electron contribution =   -1668.13803172 Ry
     hartree contribution      =     911.19885345 Ry
     xc contribution           =    -264.43195100 Ry
     ewald contribution        =   -1381.90529285 Ry
     one-center paw contrib.   =     -57.15770311 Ry
      -> PAW hartree energy AE =     172.22080848 Ry
      -> PAW hartree energy PS =    -171.61287742 Ry
      -> PAW xc energy AE      =    -102.17999011 Ry
      -> PAW xc energy PS      =      44.41435594 Ry
      -> total E_H with PAW    =     911.80678451 Ry
      -> total E_XC with PAW   =    -322.19758517 Ry

     convergence has been achieved in  79 iterations

     Forces acting on atoms (cartesian axes, Ry/au):

     atom    1 type  1   force =    -0.01156216    0.00000000    0.00000000
     atom    2 type  1   force =     0.01156216   -0.00000000    0.00000000
     atom    3 type  2   force =    -0.00936459    0.00000000    0.00895845
     atom    4 type  2   force =    -0.00936459    0.00000000   -0.00895845
     atom    5 type  2   force =     0.00936459   -0.00000000   -0.00895845
     atom    6 type  2   force =     0.00936459    0.00000000    0.00895845
     atom    7 type  3   force =     0.01380564    0.00000000   -0.05861771
     atom    8 type  3   force =     0.01380564    0.00000000    0.05861771
     atom    9 type  3   force =    -0.01380564    0.00000000    0.05861771
     atom   10 type  3   force =    -0.01380564   -0.00000000   -0.05861771
     atom   11 type  3   force =    -0.01819186    0.00000000    0.00000000
     atom   12 type  3   force =     0.01819186   -0.00000000    0.00000000
     The non-local contrib.  to forces
     atom    1 type  1   force =    -0.08926359    0.00000000    0.00000000
     atom    2 type  1   force =     0.08926359    0.00000000    0.00000000
     atom    3 type  2   force =    -0.01071297    0.00000000   -0.11486793
     atom    4 type  2   force =    -0.01071297    0.00000000    0.11486793
     atom    5 type  2   force =     0.01071297   -0.00000000    0.11486793
     atom    6 type  2   force =     0.01071297   -0.00000000   -0.11486793
     atom    7 type  3   force =     0.16417698    0.00000000    0.02546064
     atom    8 type  3   force =     0.16417698   -0.00000000   -0.02546064
     atom    9 type  3   force =    -0.16417698    0.00000000   -0.02546064
     atom   10 type  3   force =    -0.16417698    0.00000000    0.02546064
     atom   11 type  3   force =    -0.30106406    0.00000000    0.00000000
     atom   12 type  3   force =     0.30106406    0.00000000    0.00000000
     The ionic contribution  to forces
     atom    1 type  1   force =    -1.88222136   -0.00000000   -0.00000000
     atom    2 type  1   force =     1.88222136    0.00000000    0.00000000
     atom    3 type  2   force =     4.39297120   -0.00000000    0.73645865
     atom    4 type  2   force =     4.39297120   -0.00000000   -0.73645865
     atom    5 type  2   force =    -4.39297120   -0.00000000   -0.73645865
     atom    6 type  2   force =    -4.39297120   -0.00000000    0.73645865
     atom    7 type  3   force =    -3.75783254    0.00000000   -2.26057303
     atom    8 type  3   force =    -3.75783254   -0.00000000    2.26057303
     atom    9 type  3   force =     3.75783254    0.00000000    2.26057303
     atom   10 type  3   force =     3.75783254   -0.00000000   -2.26057303
     atom   11 type  3   force =    -5.17316823    0.00000000   -0.00000000
     atom   12 type  3   force =     5.17316823   -0.00000000    0.00000000
     The local contribution  to forces
     atom    1 type  1   force =     1.96717249   -0.00000003    0.00196944
     atom    2 type  1   force =    -1.96738882    0.00000000   -0.00224628
     atom    3 type  2   force =    -4.39155509    0.00000001   -0.61077950
     atom    4 type  2   force =    -4.39130524    0.00000001    0.61345792
     atom    5 type  2   force =     4.39162495    0.00000004    0.61024546
     atom    6 type  2   force =     4.39141581    0.00000006   -0.61254737
     atom    7 type  3   force =     3.60889679    0.00000004    2.17651566
     atom    8 type  3   force =     3.60862298    0.00000006   -2.17718039
     atom    9 type  3   force =    -3.60880491   -0.00000007   -2.17649414
     atom   10 type  3   force =    -3.60853421   -0.00000008    2.17718270
     atom   11 type  3   force =     5.45109460   -0.00000013   -0.00068803
     atom   12 type  3   force =    -5.45112590    0.00000017    0.00068716
     The core correction contribution to forces
     atom    1 type  1   force =    -0.00701249   -0.00000000    0.00000041
     atom    2 type  1   force =     0.00700889    0.00000000   -0.00000099
     atom    3 type  2   force =    -0.00035425   -0.00000000    0.00001345
     atom    4 type  2   force =    -0.00035406    0.00000000   -0.00001329
     atom    5 type  2   force =     0.00035424   -0.00000000   -0.00001336
     atom    6 type  2   force =     0.00035410    0.00000000    0.00001328
     atom    7 type  3   force =    -0.00134124    0.00000000   -0.00009318
     atom    8 type  3   force =    -0.00134427    0.00000000    0.00009500
     atom    9 type  3   force =     0.00134170   -0.00000000    0.00009231
     atom   10 type  3   force =     0.00134475   -0.00000000   -0.00009396
     atom   11 type  3   force =     0.00511376   -0.00000000    0.00000072
     atom   12 type  3   force =    -0.00511328    0.00000000   -0.00000058
     The Hubbard contrib.    to forces
     atom    1 type  1   force =     0.00000000    0.00000000    0.00000000
     atom    2 type  1   force =     0.00000000    0.00000000    0.00000000
     atom    3 type  2   force =     0.00000000    0.00000000    0.00000000
     atom    4 type  2   force =     0.00000000    0.00000000    0.00000000
     atom    5 type  2   force =     0.00000000    0.00000000    0.00000000
     atom    6 type  2   force =     0.00000000    0.00000000    0.00000000
     atom    7 type  3   force =     0.00000000    0.00000000    0.00000000
     atom    8 type  3   force =     0.00000000    0.00000000    0.00000000
     atom    9 type  3   force =     0.00000000    0.00000000    0.00000000
     atom   10 type  3   force =     0.00000000    0.00000000    0.00000000
     atom   11 type  3   force =     0.00000000    0.00000000    0.00000000
     atom   12 type  3   force =     0.00000000    0.00000000    0.00000000
     The SCF correction term to forces
     atom    1 type  1   force =    -0.00026015   -0.00000000   -0.00192223
     atom    2 type  1   force =     0.00043420    0.00000002    0.00221789
     atom    3 type  2   force =     0.00028478   -0.00000001   -0.00182785
     atom    4 type  2   force =     0.00003671   -0.00000001   -0.00081700
     atom    5 type  2   force =    -0.00035340   -0.00000005    0.00242707
     atom    6 type  2   force =    -0.00015155   -0.00000007   -0.00011430
     atom    7 type  3   force =     0.00003363   -0.00000000    0.00010102
     atom    8 type  3   force =     0.00008769   -0.00000001    0.00068000
     atom    9 type  3   force =    -0.00008638    0.00000002   -0.00018106
     atom   10 type  3   force =    -0.00015015    0.00000003   -0.00062183
     atom   11 type  3   force =    -0.00015113    0.00000003    0.00074656
     atom   12 type  3   force =     0.00021556   -0.00000007   -0.00073286

     Total force =     0.126916     Total SCF correction =     0.004594

     Computing stress (Cartesian axis) and pressure

          total   stress  (Ry/bohr**3)                   (kbar)     P=     -812.33
  -0.00564644   0.00000000   0.00000000         -830.62        0.00        0.00
   0.00000000  -0.00452373   0.00000000            0.00     -665.46        0.00
   0.00000000   0.00000000  -0.00639611            0.00        0.00     -940.90

     kinetic stress (kbar)  40234.98      0.00      0.00
                                0.00  40814.44      0.00
                                0.00      0.00  40133.98

     local   stress (kbar)   4753.31     -0.00      0.27
                               -0.00 -43142.42     -0.00
                                0.27     -0.00 -25659.25

     nonloc. stress (kbar)  21199.11      0.00      0.00
                                0.00  21891.05      0.00
                                0.00      0.00  21133.51

     hartree stress (kbar)  41588.30      0.00     -0.18
                                0.00  60874.73      0.00
                               -0.18      0.00  53884.38

     exc-cor stress (kbar) -12910.74      0.00     -0.00
                                0.00 -12869.41      0.00
                               -0.00      0.00 -12888.47

     corecor stress (kbar)  -1450.37      0.00     -0.00
                                0.00  -1457.61     -0.00
                               -0.00     -0.00  -1453.26

     ewald   stress (kbar) -94245.20      0.00      0.00
                                0.00 -66776.24     -0.00
                                0.00     -0.00 -76091.80

     hubbard stress (kbar)      0.00      0.00      0.00
                                0.00      0.00      0.00
                                0.00      0.00      0.00

     DFT-D   stress (kbar)      0.00      0.00      0.00
                                0.00      0.00      0.00
                                0.00      0.00      0.00

     XDM     stress (kbar)      0.00      0.00      0.00
                                0.00      0.00      0.00
                                0.00      0.00      0.00

     dft-nl  stress (kbar)      0.00      0.00      0.00
                                0.00      0.00      0.00
                                0.00      0.00      0.00

     TS-vdW  stress (kbar)      0.00      0.00      0.00
                                0.00      0.00      0.00
                                0.00      0.00      0.00

[...]

                                0.00      0.00      0.00

     Writing all to output data dir new_calculations/myprefix.save/

     General routines

     Parallel routines

     PAW routines

   This run was terminated on:   2:20:21  20May2023

   JOB DONE.