     Program PWSCF v.7.0 starts on 20May2023 at 17:42: 6

     Reading input from espresso_14610.pwi
Warning: card &CELL ignored
Warning: card / ignored

     Current dimensions of program PWSCF are:
     Max number of different atomic species (ntypx) = 10
     Max number of k-points (npk) =  40000
     Max angular momentum in pseudopotentials (lmaxx) =  4
     file Fe.pbe-spn-kjpaw_psl.0.2.1.UPF: wavefunction(s)  3D renormalized
     file O.pbe-n-kjpaw_psl.0.1.UPF: wavefunction(s)  2P renormalized

     gamma-point specific algorithms are used
     Message from routine setup:
     using ibrav=0 with symmetry is DISCOURAGED, use correct ibrav instead

     Subspace diagonalization in iterative solution of the eigenvalue problem:
     a serial algorithm will be used

     Using Slab Decomposition

     bravais-lattice index     =            0
     lattice parameter (alat)  =      11.0306  a.u.
     unit-cell volume          =     932.6252 (a.u.)^3
     number of atoms/cell      =           14
     number of atomic types    =            4
     number of electrons       =       124.00
     number of Kohn-Sham states=           74
     kinetic-energy cutoff     =      30.0000  Ry
     charge density cutoff     =     240.0000  Ry
     scf convergence threshold =      1.0E-06
     mixing beta               =       0.7000
     number of iterations used =            8  plain     mixing
     Exchange-correlation= SLA  PW   PBX  PBC
                           (   1   4   3   4   0   0   0)

     celldm(1)=  11.030592  celldm(2)=   0.000000  celldm(3)=   0.000000
     celldm(4)=   0.000000  celldm(5)=   0.000000  celldm(6)=   0.000000

     crystal axes: (cart. coord. in units of alat)
               a(1) = (   1.000000   0.000000   0.000000 )
               a(2) = (   0.511429   0.859326   0.000000 )
               a(3) = (   0.511429   0.290774   0.808635 )

     reciprocal axes: (cart. coord. in units 2 pi/alat)
               b(1) = (  1.000000 -0.595151 -0.418451 )
               b(2) = (  0.000000  1.163703 -0.418451 )
               b(3) = (  0.000000  0.000000  1.236651 )

     PseudoPot. # 1 for Li read from file:
     /home/pragov/projects/rrg-bengioy-ad/pragov/crystal_structure_design/SSSP/li_pbe_v1.4.uspp.F.UPF
     MD5 check sum: e912e257baa3777c20ea3d68f190483c
     Pseudo is Ultrasoft, Zval =  3.0
     Generated by new atomic code, or converted to UPF format
     Using radial grid of  751 points,  5 beta functions with:
                l(1) =   0
                l(2) =   0
                l(3) =   0
                l(4) =   1
                l(5) =   1
     Q(r) pseudized with 10 coefficients,  rinner =    1.150   1.150   1.150

     PseudoPot. # 2 for Fe read from file:
     /home/pragov/projects/rrg-bengioy-ad/pragov/crystal_structure_design/SSSP/Fe.pbe-spn-kjpaw_psl.0.2.1.UPF
     MD5 check sum: e86618425769142926afa95317d90200
     Pseudo is Projector augmented-wave + core cor, Zval = 16.0
     Generated using "atomic" code by A. Dal Corso  v.5.0.99 svn rev. 10869
     Shape of augmentation charge: PSQ
     Using radial grid of 1191 points,  6 beta functions with:
                l(1) =   0
                l(2) =   0
                l(3) =   1
                l(4) =   1
                l(5) =   2
                l(6) =   2
     Q(r) pseudized with 0 coefficients

     PseudoPot. # 3 for Ni read from file:
     /home/pragov/projects/rrg-bengioy-ad/pragov/crystal_structure_design/SSSP/ni_pbe_v1.4.uspp.F.UPF
     MD5 check sum: 1ee80287db30b12d2bc1f57a5b5d6409
     Pseudo is Ultrasoft + core correction, Zval = 18.0
     Generated by new atomic code, or converted to UPF format
     Using radial grid of  865 points,  6 beta functions with:
                l(1) =   0
                l(2) =   0
                l(3) =   1
                l(4) =   1
                l(5) =   2
                l(6) =   2
     Q(r) pseudized with 10 coefficients,  rinner =    0.980   0.980   0.980
                                                       0.980   0.980

     PseudoPot. # 4 for O  read from file:
     /home/pragov/projects/rrg-bengioy-ad/pragov/crystal_structure_design/SSSP/O.pbe-n-kjpaw_psl.0.1.UPF
     MD5 check sum: 0234752ac141de4415c5fc33072bef88
     Pseudo is Projector augmented-wave + core cor, Zval =  6.0
     Generated using "atomic" code by A. Dal Corso  v.5.0.99 svn rev. 10869
     Shape of augmentation charge: BESSEL
     Using radial grid of 1095 points,  4 beta functions with:
                l(1) =   0
                l(2) =   0
                l(3) =   1
                l(4) =   1
     Q(r) pseudized with 0 coefficients

     atomic species   valence    mass     pseudopotential
        Li             3.00     6.94000     Li( 1.00)
        Fe            16.00    55.84500     Fe( 1.00)
        Ni            18.00    58.69340     Ni( 1.00)
        O              6.00    15.99900     O ( 1.00)

      2 Sym. Ops., with inversion, found

                                    s                        frac. trans.

      isym =  1     identity

 cryst.   s( 1) = (     1          0          0      )
                  (     0          1          0      )
                  (     0          0          1      )

 cart.    s( 1) = (  1.0000000 -0.0000000 -0.0000000 )
                  (  0.0000000  1.0000000 -0.0000000 )
                  (  0.0000000  0.0000000  1.0000000 )

      isym =  2     inversion

 cryst.   s( 2) = (    -1          0          0      )
                  (     0         -1          0      )
                  (     0          0         -1      )

 cart.    s( 2) = ( -1.0000000  0.0000000  0.0000000 )
                  (  0.0000000 -1.0000000  0.0000000 )
                  (  0.0000000  0.0000000 -1.0000000 )

   Cartesian axes

     site n.     atom                  positions (alat units)
         1           Li  tau(   1) = (   1.7773593   1.0105212   0.7104979  )
         2           Li  tau(   2) = (   0.2454980   0.1395784   0.0981376  )
         3           Fe  tau(   3) = (   1.0114287   0.5750498   0.4043177  )
         4           Ni  tau(   4) = (   0.7557143   0.1453869   0.4043177  )
         5           Ni  tau(   5) = (   0.7557143   0.4296629   0.0000000  )
         6           Ni  tau(   6) = (   0.5114287   0.5750498   0.4043177  )
         7           O   tau(   7) = (   1.4929112   0.8487976   0.5967900  )
         8           O   tau(   8) = (   1.0531656   0.8558638   0.6017582  )
         9           O   tau(   9) = (   1.2740849   0.7243835   0.2361143  )
        10           O   tau(  10) = (   1.2740849   0.4672991   0.6017582  )
        11           O   tau(  11) = (   0.7487724   0.6828005   0.2068773  )
        12           O   tau(  12) = (   0.7487725   0.4257161   0.5725212  )
        13           O   tau(  13) = (   0.9696917   0.2942357   0.2068773  )
        14           O   tau(  14) = (   0.5299461   0.3013019   0.2118455  )

   Crystallographic axes

     site n.     atom                  positions (cryst. coord.)
         1           Li  tau(   1) = (  0.8786380  0.8786380  0.8786380  )
         2           Li  tau(   2) = (  0.1213620  0.1213620  0.1213620  )
         3           Fe  tau(   3) = (  0.5000000  0.5000000  0.5000000  )
         4           Ni  tau(   4) = (  0.5000000 -0.0000000  0.5000000  )
         5           Ni  tau(   5) = (  0.5000000  0.5000000  0.0000000  )
         6           Ni  tau(   6) = ( -0.0000000  0.5000000  0.5000000  )
         7           O   tau(   7) = (  0.7380210  0.7380210  0.7380210  )
         8           O   tau(   8) = (  0.2919910  0.7441650  0.7441650  )
         9           O   tau(   9) = (  0.7441650  0.7441650  0.2919910  )
        10           O   tau(  10) = (  0.7441650  0.2919910  0.7441650  )
        11           O   tau(  11) = (  0.2558350  0.7080090  0.2558350  )
        12           O   tau(  12) = (  0.2558350  0.2558350  0.7080090  )
        13           O   tau(  13) = (  0.7080090  0.2558350  0.2558350  )
        14           O   tau(  14) = (  0.2619790  0.2619790  0.2619790  )

     number of k points=     1  Methfessel-Paxton smearing, width (Ry)=  0.0010
                       cart. coord. in units 2pi/alat
        k(    1) = (   0.0000000   0.0000000   0.0000000), wk =   2.0000000

                       cryst. coord.
        k(    1) = (   0.0000000   0.0000000   0.0000000), wk =   2.0000000

     Check: negative core charge=   -0.000065

     Initial potential from superposition of free atoms

     starting charge     117.0981, renormalised to     124.0000
     Starting wfcs are   94 randomized atomic wfcs
     Checking if some PAW data can be deallocated...

     Self-consistent Calculation

     iteration #  1     ecut=    30.00 Ry     beta= 0.70
     Davidson diagonalization with overlap

     ethr =  1.00E-02,  avg # of iterations =  4.0

     negative rho (up, down):  9.773E-04 0.000E+00

     total energy              =   -1636.60203411 Ry
     estimated scf accuracy    <     112.45728133 Ry

[...]

     negative rho (up, down):  8.192E-05 0.000E+00

[...]

     total energy              =   -1720.37241511 Ry
     estimated scf accuracy    <       0.00003042 Ry

     iteration # 23     ecut=    30.00 Ry     beta= 0.70
     Davidson diagonalization with overlap

     ethr =  7.65E-09,  avg # of iterations =  2.0

     End of self-consistent calculation

          k = 0.0000 0.0000 0.0000 (  1325 PWs)   bands (ev):

   -96.4688 -96.4651 -96.4641 -78.1610 -56.8628 -56.8527 -56.8518 -56.8079
   -56.8071 -56.8017 -56.6358 -56.6300 -56.6291 -43.9597 -43.6678 -43.6676
   -35.6538 -35.6526 -11.3856 -10.0567  -9.8024  -9.8022  -9.7077  -9.7061
    -9.7059  -9.7049   1.4605   1.6050   1.6050   1.8498   2.8837   2.8838
     3.0370   3.0370   3.1540   3.1708   3.7299   3.7301   4.3590   4.5771
     4.5775   4.9839   4.9840   5.3172   5.3672   5.6760   5.6761   5.8737
     5.8737   6.2923   6.4132   6.4136   6.5614   6.5755   6.5757   6.6141
     6.6211   6.6212   6.9456   8.1013   8.2989   8.2991   9.1455   9.2590
     9.2591   9.6585   9.6587   9.6928  11.0718  11.0722  13.7225  16.8244
    16.8244  17.4531

     occupation numbers
     1.0000   1.0000   1.0000   1.0000   1.0000   1.0000   1.0000   1.0000
     1.0000   1.0000   1.0000   1.0000   1.0000   1.0000   1.0000   1.0000
     1.0000   1.0000   1.0000   1.0000   1.0000   1.0000   1.0000   1.0000
     1.0000   1.0000   1.0000   1.0000   1.0000   1.0000   1.0000   1.0000
     1.0000   1.0000   1.0000   1.0000   1.0000   1.0000   1.0000   1.0000
     1.0000   1.0000   1.0000   1.0000   1.0000   1.0000   1.0000   1.0000
     1.0000   1.0000   1.0000   1.0000   1.0000   1.0000   1.0000   1.0000
     1.0000   1.0000   1.0000   1.0000   1.0000   1.0000  -0.0000  -0.0000
    -0.0000  -0.0000  -0.0000  -0.0000  -0.0000  -0.0000  -0.0000  -0.0000
    -0.0000  -0.0000

     the Fermi energy is     8.6677 ev

!    total energy              =   -1720.37241642 Ry
     estimated scf accuracy    <       0.00000086 Ry
     smearing contrib. (-TS)   =       0.00000000 Ry
     internal energy E=F+TS    =   -1720.37241642 Ry

     The total energy is F=E-TS. E is the sum of the following terms:
     one-electron contribution =   -1245.94143219 Ry
     hartree contribution      =     677.62429344 Ry
     xc contribution           =    -206.77244019 Ry
     ewald contribution        =    -793.00213625 Ry
     one-center paw contrib.   =    -152.28070123 Ry
      -> PAW hartree energy AE =     436.09627026 Ry
      -> PAW hartree energy PS =    -434.48587926 Ry
      -> PAW xc energy AE      =    -246.96169250 Ry
      -> PAW xc energy PS      =      93.07060027 Ry
      -> total E_H with PAW    =     679.23468444 Ry
      -> total E_XC with PAW   =    -360.66353242 Ry

     convergence has been achieved in  23 iterations

     Forces acting on atoms (cartesian axes, Ry/au):

     atom    1 type  1   force =     0.00311279    0.00176931    0.00122116
     atom    2 type  1   force =    -0.00311279   -0.00176931   -0.00122116
     atom    3 type  2   force =     0.00000000    0.00000000    0.00000000
     atom    4 type  3   force =     0.00000000    0.00000000    0.00000000
     atom    5 type  3   force =     0.00000000    0.00000000    0.00000000
     atom    6 type  3   force =     0.00000000    0.00000000    0.00000000
     atom    7 type  4   force =    -0.01835318   -0.01042002   -0.00727846
     atom    8 type  4   force =     0.00134056   -0.02596578   -0.01820331
     atom    9 type  4   force =    -0.02164429   -0.01229477    0.01972160
     atom   10 type  4   force =    -0.02163960    0.01442209   -0.01820769
     atom   11 type  4   force =     0.02163960   -0.01442209    0.01820769
     atom   12 type  4   force =     0.02164429    0.01229477   -0.01972160
     atom   13 type  4   force =    -0.00134056    0.02596578    0.01820331
     atom   14 type  4   force =     0.01835318    0.01042002    0.00727846
     The non-local contrib.  to forces
     atom    1 type  1   force =    -0.02631429   -0.01496605   -0.01053209
     atom    2 type  1   force =     0.02631429    0.01496605    0.01053209
     atom    3 type  2   force =     0.00000000    0.00000000    0.00000000
     atom    4 type  3   force =     0.00000000    0.00000000    0.00000000
     atom    5 type  3   force =     0.00000000    0.00000000    0.00000000
     atom    6 type  3   force =     0.00000000    0.00000000    0.00000000
     atom    7 type  4   force =    -0.70189916   -0.39905527   -0.28054304
     atom    8 type  4   force =     0.74468192   -0.35818318   -0.25181334
     atom    9 type  4   force =     0.07303352    0.04153001    0.85975834
     atom   10 type  4   force =     0.07304067    0.82311120   -0.25182371
     atom   11 type  4   force =    -0.07304067   -0.82311120    0.25182371
     atom   12 type  4   force =    -0.07303352   -0.04153001   -0.85975834
     atom   13 type  4   force =    -0.74468192    0.35818318    0.25181334
     atom   14 type  4   force =     0.70189916    0.39905527    0.28054304
     The ionic contribution  to forces
     atom    1 type  1   force =    -0.75078104   -0.42685806   -0.30012405
     atom    2 type  1   force =     0.75078104    0.42685806    0.30012405
     atom    3 type  2   force =    -0.00000000   -0.00000000   -0.00000000
     atom    4 type  3   force =     0.00000000    0.00000000   -0.00000000
     atom    5 type  3   force =    -0.00000000    0.00000000    0.00000000
     atom    6 type  3   force =     0.00000000   -0.00000000   -0.00000000
     atom    7 type  4   force =    17.58846639    9.99995761    7.03097137
     atom    8 type  4   force =   -17.97736233    7.37526395    5.18555422
     atom    9 type  4   force =    -2.85638110   -1.62400117  -19.84121258
     atom   10 type  4   force =    -2.85638347  -19.22033163    5.18555422
     atom   11 type  4   force =     2.85638347   19.22033163   -5.18555422
     atom   12 type  4   force =     2.85638110    1.62400117   19.84121258
     atom   13 type  4   force =    17.97736233   -7.37526395   -5.18555422
     atom   14 type  4   force =   -17.58846639   -9.99995761   -7.03097137
     The local contribution  to forces
     atom    1 type  1   force =     0.78018834    0.44345259    0.31186544
     atom    2 type  1   force =    -0.78014568   -0.44365527   -0.31174640
     atom    3 type  2   force =     0.00004355    0.00085750   -0.00034813
     atom    4 type  3   force =    -0.00025781   -0.00116272    0.00023388
     atom    5 type  3   force =    -0.00029063    0.00114385   -0.00015952
     atom    6 type  3   force =    -0.00005042    0.00089563   -0.00077863
     atom    7 type  4   force =   -16.91245928   -9.61565247   -6.76112617
     atom    8 type  4   force =    17.24235887   -7.04674680   -4.95490581
     atom    9 type  4   force =     2.76289976    1.57071492   19.01098980
     atom   10 type  4   force =     2.76284291   18.42070122   -4.95503027
     atom   11 type  4   force =    -2.76289380  -18.42067024    4.95494435
     atom   12 type  4   force =    -2.76285095   -1.57065917  -19.01087123
     atom   13 type  4   force =   -17.24222175    7.04673635    4.95485605
     atom   14 type  4   force =    16.91228725    9.61570897    6.76104803
     The core correction contribution to forces
     atom    1 type  1   force =     0.00000000    0.00000000    0.00000000
     atom    2 type  1   force =     0.00000000    0.00000000    0.00000000
     atom    3 type  2   force =    -0.00000136    0.00000384   -0.00000245
     atom    4 type  3   force =    -0.00000048   -0.00000158    0.00000001
     atom    5 type  3   force =    -0.00000057    0.00000197    0.00000036
     atom    6 type  3   force =     0.00000044    0.00000149   -0.00000177
     atom    7 type  4   force =     0.00762408    0.00433489    0.00304743
     atom    8 type  4   force =    -0.00844082    0.00346272    0.00243470
     atom    9 type  4   force =    -0.00134106   -0.00076242   -0.00931577
     atom   10 type  4   force =    -0.00134149   -0.00902615    0.00243529
     atom   11 type  4   force =     0.00134132    0.00902419   -0.00243467
     atom   12 type  4   force =     0.00134162    0.00076298    0.00931779
     atom   13 type  4   force =     0.00844235   -0.00346290   -0.00243491
     atom   14 type  4   force =    -0.00762504   -0.00433489   -0.00304827
     The Hubbard contrib.    to forces
     atom    1 type  1   force =     0.00000000    0.00000000    0.00000000
     atom    2 type  1   force =     0.00000000    0.00000000    0.00000000
     atom    3 type  2   force =     0.00000000    0.00000000    0.00000000
     atom    4 type  3   force =     0.00000000    0.00000000    0.00000000
     atom    5 type  3   force =     0.00000000    0.00000000    0.00000000
     atom    6 type  3   force =     0.00000000    0.00000000    0.00000000
     atom    7 type  4   force =     0.00000000    0.00000000    0.00000000
     atom    8 type  4   force =     0.00000000    0.00000000    0.00000000
     atom    9 type  4   force =     0.00000000    0.00000000    0.00000000
     atom   10 type  4   force =     0.00000000    0.00000000    0.00000000
     atom   11 type  4   force =     0.00000000    0.00000000    0.00000000
     atom   12 type  4   force =     0.00000000    0.00000000    0.00000000
     atom   13 type  4   force =     0.00000000    0.00000000    0.00000000
     atom   14 type  4   force =     0.00000000    0.00000000    0.00000000
     The SCF correction term to forces
     atom    1 type  1   force =     0.00001789    0.00012957    0.00001887
     atom    2 type  1   force =    -0.00006433    0.00005061   -0.00012390
     atom    3 type  2   force =    -0.00002464   -0.00095801    0.00041973
     atom    4 type  3   force =     0.00022052    0.00117915   -0.00023768
     atom    5 type  3   force =     0.00026457   -0.00118118    0.00015776
     atom    6 type  3   force =     0.00005597   -0.00090970    0.00077503
     atom    7 type  4   force =    -0.00010884   -0.00000054    0.00035825
     atom    8 type  4   force =     0.00014709    0.00022408    0.00051002
     atom    9 type  4   force =     0.00015806    0.00024146   -0.00045304
     atom   10 type  4   force =     0.00018685   -0.00007991    0.00066749
     atom   11 type  4   force =    -0.00016564   -0.00004386   -0.00056075
     atom   12 type  4   force =    -0.00018051   -0.00026263    0.00042275
     atom   13 type  4   force =    -0.00019739   -0.00024037   -0.00049383
     atom   14 type  4   force =     0.00023459   -0.00004749   -0.00030667

     Total force =     0.084101     Total SCF correction =     0.002813

     Computing stress (Cartesian axis) and pressure

          total   stress  (Ry/bohr**3)                   (kbar)     P=     -970.48
  -0.00682931  -0.00026043  -0.00018317        -1004.63      -38.31      -26.94
  -0.00026043  -0.00651891  -0.00010409          -38.31     -958.97      -15.31
  -0.00018317  -0.00010409  -0.00644328          -26.94      -15.31     -947.84

     kinetic stress (kbar)  34855.74     19.37     13.64
                               19.37  34832.72      7.77
                               13.64      7.77  34827.10

     local   stress (kbar) -17365.46   8271.62   5815.69
                             8271.62 -27210.84   3306.41
                             5815.69   3306.41 -29587.70

     nonloc. stress (kbar)   5106.07     -7.67     -5.36
                               -7.67   5115.20     -3.04
                               -5.36     -3.04   5117.40

     hartree stress (kbar)  32188.53  -3867.64  -2719.31
                            -3867.64  36791.87  -1545.96
                            -2719.31  -1545.96  37902.81

     exc-cor stress (kbar)  -7383.59     -0.58     -0.40
                               -0.58  -7382.90     -0.23
                               -0.40     -0.23  -7382.74

     corecor stress (kbar)  -2751.09      0.12      0.08
                                0.12  -2751.24      0.05
                                0.08      0.05  -2751.27

     ewald   stress (kbar) -45654.82  -4453.53  -3131.28
                            -4453.53 -40353.77  -1780.30
                            -3131.28  -1780.30 -39073.43

     hubbard stress (kbar)      0.00      0.00      0.00
                                0.00      0.00      0.00
                                0.00      0.00      0.00

     DFT-D   stress (kbar)      0.00      0.00      0.00
                                0.00      0.00      0.00
                                0.00      0.00      0.00

     XDM     stress (kbar)      0.00      0.00      0.00
                                0.00      0.00      0.00
                                0.00      0.00      0.00

     dft-nl  stress (kbar)      0.00      0.00      0.00
                                0.00      0.00      0.00
                                0.00      0.00      0.00

     TS-vdW  stress (kbar)      0.00      0.00      0.00
                                0.00      0.00      0.00
                                0.00      0.00      0.00

[...]

                                0.00      0.00      0.00

     Writing all to output data dir new_calculations/myprefix.save/

     General routines

     Parallel routines

     PAW routines

   This run was terminated on:  17:42:37  20May2023

   JOB DONE.