     Program PWSCF v.7.0 starts on 20May2023 at  2:22:55

     Reading input from espresso_5075.pwi
Warning: card &CELL ignored
Warning: card / ignored

     Current dimensions of program PWSCF are:
     Max number of different atomic species (ntypx) = 10
     Max number of k-points (npk) =  40000
     Max angular momentum in pseudopotentials (lmaxx) =  4

     gamma-point specific algorithms are used
     Message from routine setup:
     using ibrav=0 with symmetry is DISCOURAGED, use correct ibrav instead

     Subspace diagonalization in iterative solution of the eigenvalue problem:
     a serial algorithm will be used

     Using Slab Decomposition

     bravais-lattice index     =            0
     lattice parameter (alat)  =      14.0785  a.u.
     unit-cell volume          =    1735.5824 (a.u.)^3
     number of atoms/cell      =           12
     number of atomic types    =            3
     number of electrons       =       148.00
     number of Kohn-Sham states=           89
     kinetic-energy cutoff     =      30.0000  Ry
     charge density cutoff     =     240.0000  Ry
     scf convergence threshold =      1.0E-06
     mixing beta               =       0.7000
     number of iterations used =            8  plain     mixing
     Exchange-correlation= SLA  PW   PBE  PBE
                           (   1   4   3   4   0   0   0)

     celldm(1)=  14.078515  celldm(2)=   0.000000  celldm(3)=   0.000000
     celldm(4)=   0.000000  celldm(5)=   0.000000  celldm(6)=   0.000000

     crystal axes: (cart. coord. in units of alat)
               a(1) = (   1.000000   0.000000   0.000000 )
               a(2) = (   0.195531   0.980697   0.000000 )
               a(3) = (  -0.597766  -0.490349   0.634219 )

     reciprocal axes: (cart. coord. in units 2 pi/alat)
               b(1) = (  1.000000 -0.199380  0.788371 )
               b(2) = (  0.000000  1.019682  0.788371 )
               b(3) = (  0.000000  0.000000  1.576741 )

     PseudoPot. # 1 for Li read from file:
     /home/pragov/projects/rrg-bengioy-ad/pragov/crystal_structure_design/SSSP/li_pbe_v1.4.uspp.F.UPF
     MD5 check sum: e912e257baa3777c20ea3d68f190483c
     Pseudo is Ultrasoft, Zval =  3.0
     Generated by new atomic code, or converted to UPF format
     Using radial grid of  751 points,  5 beta functions with:
                l(1) =   0
                l(2) =   0
                l(3) =   0
                l(4) =   1
                l(5) =   1
     Q(r) pseudized with 10 coefficients,  rinner =    1.150   1.150   1.150

     PseudoPot. # 2 for Sn read from file:
     /home/pragov/projects/rrg-bengioy-ad/pragov/crystal_structure_design/SSSP/Sn_pbe_v1.uspp.F.UPF
     MD5 check sum: 4cf58ce39ec5d5d420df3dd08604eb00
     Pseudo is Ultrasoft + core correction, Zval = 14.0
     Generated by new atomic code, or converted to UPF format
     Using radial grid of  891 points,  6 beta functions with:
                l(1) =   0
                l(2) =   0
                l(3) =   1
                l(4) =   1
                l(5) =   2
                l(6) =   2
     Q(r) pseudized with  6 coefficients,  rinner =    1.200   1.200   1.200
                                                       1.200   1.200

     PseudoPot. # 3 for Ir read from file:
     /home/pragov/projects/rrg-bengioy-ad/pragov/crystal_structure_design/SSSP/Ir_pbe_v1.2.uspp.F.UPF
     MD5 check sum: 8836f839c3459d2b385c504ce6d91f2c
     Pseudo is Ultrasoft + core correction, Zval = 15.0
     Generated by new atomic code, or converted to UPF format
     Using radial grid of  983 points,  7 beta functions with:
                l(1) =   0
                l(2) =   0
                l(3) =   1
                l(4) =   1
                l(5) =   1
                l(6) =   2
                l(7) =   2
     Q(r) pseudized with  8 coefficients,  rinner =    1.400   1.400   1.400
                                                       1.400   1.400

     atomic species   valence    mass     pseudopotential
        Li             3.00     6.94000     Li( 1.00)
        Sn            14.00   118.71000     Sn( 1.00)
        Ir            15.00   192.21700     Ir( 1.00)

      4 Sym. Ops., with inversion, found ( 2 have fractional translation)

                                    s                        frac. trans.

      isym =  1     identity

 cryst.   s( 1) = (     1          0          0      )
                  (     0          1          0      )
                  (     0          0          1      )

 cart.    s( 1) = (  1.0000000  0.0000000 -0.0000000 )
                  (  0.0000000  1.0000000  0.0000000 )
                  (  0.0000000  0.0000000  1.0000000 )

      isym =  2     180 deg rotation - cart. axis [0,0,1]

 cryst.   s( 2) = (    -1          0          0      )    f =( -0.5000000 )
                  (     0         -1          0      )       (  0.5000000 )
                  (     1          1          1      )       (  0.0000000 )

 cart.    s( 2) = ( -1.0000000 -0.0000000  0.0000000 )    f =( -0.4022344 )
                  (  0.0000000 -1.0000000  0.0000000 )       (  0.4903487 )
                  (  0.0000000  0.0000000  1.0000000 )       (  0.0000000 )

      isym =  3     inversion

 cryst.   s( 3) = (    -1          0          0      )
                  (     0         -1          0      )
                  (     0          0         -1      )

 cart.    s( 3) = ( -1.0000000 -0.0000000  0.0000000 )
                  (  0.0000000 -1.0000000 -0.0000000 )
                  (  0.0000000  0.0000000 -1.0000000 )

      isym =  4     inv. 180 deg rotation - cart. axis [0,0,1]

 cryst.   s( 4) = (     1          0          0      )    f =( -0.5000000 )
                  (     0          1          0      )       (  0.5000000 )
                  (    -1         -1         -1      )       (  0.0000000 )

 cart.    s( 4) = (  1.0000000  0.0000000 -0.0000000 )    f =( -0.4022344 )
                  (  0.0000000  1.0000000 -0.0000000 )       (  0.4903487 )
                  (  0.0000000  0.0000000 -1.0000000 )       (  0.0000000 )

   Cartesian axes

     site n.     atom                  positions (alat units)
         1           Li  tau(   1) = (   0.5977656   0.4903487   0.0000000  )
         2           Li  tau(   2) = (   0.0000000   0.0000000   0.0000000  )
         3           Sn  tau(   3) = (   0.5097537   0.2681452   0.3171097  )
         4           Sn  tau(   4) = (   0.0395501  -0.3777083   0.5182404  )
         5           Sn  tau(   5) = (   0.2350802   0.6029882   0.1159791  )
         6           Sn  tau(   6) = (   0.3626855  -0.1126395   0.5182404  )
         7           Sn  tau(   7) = (   0.5582155   0.8680570   0.1159791  )
         8           Sn  tau(   8) = (   0.0880119   0.2222035   0.3171097  )
         9           Sn  tau(   9) = (   0.8328891   0.5332140   0.3171097  )
        10           Sn  tau(  10) = (  -0.2351235  -0.0428653   0.3171097  )
        11           Ir  tau(  11) = (   0.8966484   0.7355231   0.0000000  )
        12           Ir  tau(  12) = (   0.2988828   0.2451744   0.0000000  )

   Crystallographic axes

     site n.     atom                  positions (cryst. coord.)
         1           Li  tau(   1) = (  0.5000000  0.5000000  0.0000000  )
         2           Li  tau(   2) = (  0.0000000  0.0000000  0.0000000  )
         3           Sn  tau(   3) = (  0.7062910  0.5234230  0.5000000  )
         4           Sn  tau(   4) = (  0.5234230  0.0234230  0.8171310  )
         5           Sn  tau(   5) = (  0.2062910  0.7062910  0.1828690  )
         6           Sn  tau(   6) = (  0.7937090  0.2937090  0.8171310  )
         7           Sn  tau(   7) = (  0.4765770  0.9765770  0.1828690  )
         8           Sn  tau(   8) = (  0.2937090  0.4765770  0.5000000  )
         9           Sn  tau(   9) = (  0.9765770  0.7937090  0.5000000  )
        10           Sn  tau(  10) = (  0.0234230  0.2062910  0.5000000  )
        11           Ir  tau(  11) = (  0.7500000  0.7500000  0.0000000  )
        12           Ir  tau(  12) = (  0.2500000  0.2500000  0.0000000  )

     number of k points=     1  Methfessel-Paxton smearing, width (Ry)=  0.0010
                       cart. coord. in units 2pi/alat
        k(    1) = (   0.0000000   0.0000000   0.0000000), wk =   2.0000000

                       cryst. coord.
        k(    1) = (   0.0000000   0.0000000   0.0000000), wk =   2.0000000

     Initial potential from superposition of free atoms

     starting charge     138.0981, renormalised to     148.0000

     negative rho (up, down):  7.676E-01 0.000E+00
     Starting wfcs are  106 randomized atomic wfcs

     Self-consistent Calculation

     iteration #  1     ecut=    30.00 Ry     beta= 0.70
     Davidson diagonalization with overlap

     ethr =  1.00E-02,  avg # of iterations =  6.0

     negative rho (up, down):  5.131E-01 0.000E+00

     total energy              =   -1685.58147088 Ry
     estimated scf accuracy    <      24.11968085 Ry

[...]

     c_bands:  1 eigenvalues not converged
     ethr =  2.87E-06,  avg # of iterations = 20.0

[...]

     total energy              =   -1699.05500873 Ry
     estimated scf accuracy    <       0.00000246 Ry

     iteration # 12     ecut=    30.00 Ry     beta= 0.70
     Davidson diagonalization with overlap

     ethr =  1.66E-09,  avg # of iterations =  2.0

[...]

     End of self-consistent calculation

          k = 0.0000 0.0000 0.0000 (  2382 PWs)   bands (ev):

   -35.8676 -35.8613 -35.8610 -35.8591 -35.7308 -35.7302 -33.9985 -33.9972
    -9.4811  -9.4743  -9.4239  -9.3970  -9.3917  -9.3857  -9.3768  -9.3754
    -9.3562  -9.3519  -9.3419  -9.3408  -9.3262  -9.3156  -9.3067  -9.2916
    -9.2818  -9.2719  -9.2703  -9.2678  -9.2580  -9.2568  -9.2520  -9.2445
    -9.2317  -9.2291  -9.2123  -9.2122  -9.2112  -9.1876  -9.1763  -9.1740
    -9.1731  -9.1584  -9.1568  -9.1534  -9.1511  -9.1421  -9.1312  -9.1303
     0.9658   4.4031   4.8597   5.0384   5.0393   5.1710   5.2943   5.2968
     7.0036   7.1081   7.2680   8.9754   8.9762   9.3466   9.3504   9.5328
     9.5955   9.6854  10.0710  10.3468  10.8473  10.8580  10.9205  11.3711
    11.6658  12.0109  13.2051  14.3129  14.3165  14.3655  14.4355  14.4368
    15.5696  15.5697  15.6739  16.6678  16.6678  16.7701  16.8022  17.6976
    17.7014

     occupation numbers
     1.0000   1.0000   1.0000   1.0000   1.0000   1.0000   1.0000   1.0000
     1.0000   1.0000   1.0000   1.0000   1.0000   1.0000   1.0000   1.0000
     1.0000   1.0000   1.0000   1.0000   1.0000   1.0000   1.0000   1.0000
     1.0000   1.0000   1.0000   1.0000   1.0000   1.0000   1.0000   1.0000
     1.0000   1.0000   1.0000   1.0000   1.0000   1.0000   1.0000   1.0000
     1.0000   1.0000   1.0000   1.0000   1.0000   1.0000   1.0000   1.0000
     1.0000   1.0000   1.0000   1.0000   1.0000   1.0000   1.0000   1.0000
     1.0000   1.0000   1.0000   1.0000   1.0000   1.0000   1.0000   1.0000
     1.0000   1.0000   1.0000   1.0000   1.0000   1.0000   1.0000   1.0000
     1.0000   1.0000  -0.0000  -0.0000  -0.0000  -0.0000  -0.0000  -0.0000
    -0.0000  -0.0000  -0.0000  -0.0000  -0.0000  -0.0000  -0.0000  -0.0000
    -0.0000

     the Fermi energy is    12.7899 ev

!    total energy              =   -1699.05500903 Ry
     estimated scf accuracy    <          7.7E-09 Ry
     smearing contrib. (-TS)   =       0.00000000 Ry
     internal energy E=F+TS    =   -1699.05500903 Ry

     The total energy is F=E-TS. E is the sum of the following terms:
     one-electron contribution =    -555.67991591 Ry
     hartree contribution      =     382.67084915 Ry
     xc contribution           =    -488.81607500 Ry
     ewald contribution        =   -1037.22986727 Ry

     convergence has been achieved in  12 iterations

     negative rho (up, down):  6.376E-01 0.000E+00

     Forces acting on atoms (cartesian axes, Ry/au):

     atom    1 type  1   force =     0.00000000   -0.00000000    0.00000000
     atom    2 type  1   force =     0.00000000    0.00000000    0.00000000
     atom    3 type  2   force =    -0.01170209    0.05404108   -0.00000000
     atom    4 type  2   force =     0.01948555    0.01623785    0.04946226
     atom    5 type  2   force =     0.01948555    0.01623785   -0.04946226
     atom    6 type  2   force =    -0.01948555   -0.01623785    0.04946226
     atom    7 type  2   force =    -0.01948555   -0.01623785   -0.04946226
     atom    8 type  2   force =     0.01170209   -0.05404108    0.00000000
     atom    9 type  2   force =    -0.05052220    0.02222233    0.00000000
     atom   10 type  2   force =     0.05052220   -0.02222233   -0.00000000
     atom   11 type  3   force =     0.00000000    0.00000000   -0.00005657
     atom   12 type  3   force =     0.00000000    0.00000000    0.00005657
     The non-local contrib.  to forces
     atom    1 type  1   force =     0.00000000    0.00000000    0.00000000
     atom    2 type  1   force =     0.00000000   -0.00000000    0.00000000
     atom    3 type  2   force =     0.08855441   -0.31751621    0.00000000
     atom    4 type  2   force =    -0.10254175   -0.08408749   -0.30243002
     atom    5 type  2   force =    -0.10254175   -0.08408749    0.30243002
     atom    6 type  2   force =     0.10254175    0.08408749   -0.30243002
     atom    7 type  2   force =     0.10254175    0.08408749    0.30243002
     atom    8 type  2   force =    -0.08855441    0.31751621   -0.00000000
     atom    9 type  2   force =     0.29381220   -0.14912183   -0.00000000
     atom   10 type  2   force =    -0.29381220    0.14912183    0.00000000
     atom   11 type  3   force =     0.00000000    0.00000000   -0.00011880
     atom   12 type  3   force =     0.00000000    0.00000000    0.00011880
     The ionic contribution  to forces
     atom    1 type  1   force =     0.00000000    0.00000000    0.00000000
     atom    2 type  1   force =     0.00000000    0.00000000    0.00000000
     atom    3 type  2   force =     9.57646735    6.44004302   -0.00003177
     atom    4 type  2   force =     8.88224962    7.28613298   -1.09423394
     atom    5 type  2   force =     8.88234924    7.28621470    1.09432980
     atom    6 type  2   force =    -8.88234924   -7.28621470   -1.09432980
     atom    7 type  2   force =    -8.88224962   -7.28613298    1.09423394
     atom    8 type  2   force =    -9.57646735   -6.44004302    0.00003177
     atom    9 type  2   force =    -8.18823260   -8.13238758    0.00003177
     atom   10 type  2   force =     8.18823260    8.13238758   -0.00003177
     atom   11 type  3   force =    -0.00008538    0.00010408    0.00000000
     atom   12 type  3   force =     0.00008538   -0.00010408   -0.00000000
     The local contribution  to forces
     atom    1 type  1   force =     0.00000608    0.00001105    0.00000805
     atom    2 type  1   force =     0.00000576   -0.00000639   -0.00000414
     atom    3 type  2   force =    -9.67424585   -6.07751656    0.00014875
     atom    4 type  2   force =    -8.76324892   -7.18800915    1.43732442
     atom    5 type  2   force =    -8.76316397   -7.18859737   -1.43764671
     atom    6 type  2   force =     8.76314478    7.18864576    1.43762949
     atom    7 type  2   force =     8.76325989    7.18795694   -1.43731498
     atom    8 type  2   force =     9.67425402    6.07752966   -0.00011079
     atom    9 type  2   force =     7.85224436    8.29948125    0.00010418
     atom   10 type  2   force =    -7.85228001   -8.29949905   -0.00015048
     atom   11 type  3   force =     0.00009766   -0.00058844    0.00010903
     atom   12 type  3   force =    -0.00011602    0.00051719   -0.00006795
     The core correction contribution to forces
     atom    1 type  1   force =     0.00000000    0.00000000    0.00000000
     atom    2 type  1   force =     0.00000000    0.00000000    0.00000000
     atom    3 type  2   force =    -0.00251259    0.00907854    0.00005539
     atom    4 type  2   force =     0.00292126    0.00248277    0.00872720
     atom    5 type  2   force =     0.00295254    0.00240363   -0.00872681
     atom    6 type  2   force =    -0.00295356   -0.00240275    0.00872685
     atom    7 type  2   force =    -0.00292066   -0.00248386   -0.00872714
     atom    8 type  2   force =     0.00251243   -0.00907873   -0.00005479
     atom    9 type  2   force =    -0.00839689    0.00426270    0.00003521
     atom   10 type  2   force =     0.00839686   -0.00426303   -0.00003626
     atom   11 type  3   force =     0.00000969    0.00000005   -0.00004582
     atom   12 type  3   force =    -0.00001142   -0.00000025    0.00004539
     The Hubbard contrib.    to forces
     atom    1 type  1   force =     0.00000000    0.00000000    0.00000000
     atom    2 type  1   force =     0.00000000    0.00000000    0.00000000
     atom    3 type  2   force =     0.00000000    0.00000000    0.00000000
     atom    4 type  2   force =     0.00000000    0.00000000    0.00000000
     atom    5 type  2   force =     0.00000000    0.00000000    0.00000000
     atom    6 type  2   force =     0.00000000    0.00000000    0.00000000
     atom    7 type  2   force =     0.00000000    0.00000000    0.00000000
     atom    8 type  2   force =     0.00000000    0.00000000    0.00000000
     atom    9 type  2   force =     0.00000000    0.00000000    0.00000000
     atom   10 type  2   force =     0.00000000    0.00000000    0.00000000
     atom   11 type  3   force =     0.00000000    0.00000000    0.00000000
     atom   12 type  3   force =     0.00000000    0.00000000    0.00000000
     The SCF correction term to forces
     atom    1 type  1   force =    -0.00000444   -0.00000894   -0.00001182
     atom    2 type  1   force =    -0.00000579    0.00000541    0.00000529
     atom    3 type  2   force =     0.00003466   -0.00005192   -0.00004252
     atom    4 type  2   force =    -0.00003930    0.00001871    0.00000257
     atom    5 type  2   force =     0.00002500    0.00001040    0.00007998
     atom    6 type  2   force =    -0.00002051   -0.00004371   -0.00005931
     atom    7 type  2   force =     0.00002518    0.00003059   -0.00000974
     atom    8 type  2   force =    -0.00004255    0.00003060    0.00001394
     atom    9 type  2   force =     0.00005348   -0.00001080    0.00005269
     atom   10 type  2   force =    -0.00001231    0.00003174   -0.00001416
     atom   11 type  3   force =    -0.00006007    0.00010633   -0.00000491
     atom   12 type  3   force =     0.00007488   -0.00003216   -0.00004361

     Total force =     0.156738     Total SCF correction =     0.000237

     Computing stress (Cartesian axis) and pressure

     negative rho (up, down):  6.376E-01 0.000E+00
          total   stress  (Ry/bohr**3)                   (kbar)     P=      -17.04
  -0.00020811  -0.00014668   0.00000000          -30.61      -21.58        0.00
  -0.00014668  -0.00013471   0.00000000          -21.58      -19.82        0.00
   0.00000000   0.00000000  -0.00000469            0.00        0.00       -0.69

     kinetic stress (kbar)  15170.46    -27.74     -0.00
                              -27.74  15183.66     -0.00
                               -0.00     -0.00  15208.89

     local   stress (kbar)   8772.74   7634.91     -0.25
                             7634.91   5730.35     -0.43
                               -0.25     -0.43   -530.92

     nonloc. stress (kbar)   6194.60    -39.27     -0.00
                              -39.27   6208.54     -0.00
                               -0.00     -0.00   6238.43

     hartree stress (kbar)   8997.65  -3364.51      0.05
                            -3364.51  10338.72      0.11
                                0.05      0.11  13098.18

     exc-cor stress (kbar)  17725.52     -1.67      0.00
                               -1.67  17726.16      0.00
                                0.00      0.00  17727.51

     corecor stress (kbar) -25308.70      1.34     -0.03
                                1.34 -25308.97     -0.04
                               -0.03     -0.04 -25310.06

     ewald   stress (kbar) -31582.88  -4224.64      0.01
                            -4224.64 -29898.27      0.01
                                0.01      0.01 -26432.73

     hubbard stress (kbar)      0.00      0.00      0.00
                                0.00      0.00      0.00
                                0.00      0.00      0.00

     DFT-D   stress (kbar)      0.00      0.00      0.00
                                0.00      0.00      0.00
                                0.00      0.00      0.00

     XDM     stress (kbar)      0.00      0.00      0.00
                                0.00      0.00      0.00
                                0.00      0.00      0.00

     dft-nl  stress (kbar)      0.00      0.00      0.00
                                0.00      0.00      0.00
                                0.00      0.00      0.00

     TS-vdW  stress (kbar)      0.00      0.00      0.00
                                0.00      0.00      0.00
                                0.00      0.00      0.00

[...]

                                0.00      0.00      0.00

     Writing all to output data dir new_calculations/myprefix.save/

     General routines

     Parallel routines

   This run was terminated on:   2:23:28  20May2023

   JOB DONE.