     Program PWSCF v.7.0 starts on 21May2023 at  3:10:51

     Reading input from espresso_21497.pwi
Warning: card &CELL ignored
Warning: card / ignored

     Current dimensions of program PWSCF are:
     Max number of different atomic species (ntypx) = 10
     Max number of k-points (npk) =  40000
     Max angular momentum in pseudopotentials (lmaxx) =  4

     gamma-point specific algorithms are used
     Message from routine setup:
     using ibrav=0 with symmetry is DISCOURAGED, use correct ibrav instead

     Subspace diagonalization in iterative solution of the eigenvalue problem:
     a serial algorithm will be used

     Using Slab Decomposition

     bravais-lattice index     =            0
     lattice parameter (alat)  =       6.5076  a.u.
     unit-cell volume          =    2350.9698 (a.u.)^3
     number of atoms/cell      =           15
     number of atomic types    =            3
     number of electrons       =       126.00
     number of Kohn-Sham states=           76
     kinetic-energy cutoff     =      30.0000  Ry
     charge density cutoff     =     240.0000  Ry
     scf convergence threshold =      1.0E-06
     mixing beta               =       0.7000
     number of iterations used =            8  plain     mixing
     Exchange-correlation= SLA  PW   PBE  PBE
                           (   1   4   3   4   0   0   0)

     celldm(1)=   6.507613  celldm(2)=   0.000000  celldm(3)=   0.000000
     celldm(4)=   0.000000  celldm(5)=   0.000000  celldm(6)=   0.000000

     crystal axes: (cart. coord. in units of alat)
               a(1) = (   1.000000   0.000000   0.000000 )
               a(2) = (   0.500000   0.866025   0.000000 )
               a(3) = (   0.000000   0.577350   9.850341 )

     reciprocal axes: (cart. coord. in units 2 pi/alat)
               b(1) = (  1.000000 -0.577351  0.033840 )
               b(2) = (  0.000000  1.154701 -0.067680 )
               b(3) = (  0.000000  0.000000  0.101519 )

     PseudoPot. # 1 for Ta read from file:
     /home/pragov/projects/rrg-bengioy-ad/pragov/crystal_structure_design/SSSP/Ta_pbe_v1.uspp.F.UPF
     MD5 check sum: f8bbe9446314a3b8ea5d9f3e3836c939
     Pseudo is Ultrasoft + core correction, Zval = 13.0
     Generated by new atomic code, or converted to UPF format
     Using radial grid of  921 points,  7 beta functions with:
                l(1) =   0
                l(2) =   0
                l(3) =   1
                l(4) =   1
                l(5) =   2
                l(6) =   2
                l(7) =   3
     Q(r) pseudized with  6 coefficients,  rinner =    1.300   1.300   1.300
                                                       1.300   1.300   1.300
                                                       1.300

     PseudoPot. # 2 for Mo read from file:
     /home/pragov/projects/rrg-bengioy-ad/pragov/crystal_structure_design/SSSP/Mo_ONCV_PBE-1.0.oncvpsp.upf
     MD5 check sum: 1b5d28e075c9ccadda658a603575cd1f
     Pseudo is Norm-conserving, Zval = 14.0
     Generated using ONCVPSP code by D. R. Hamann
     Using radial grid of 1526 points,  6 beta functions with:
                l(1) =   0
                l(2) =   0
                l(3) =   1
                l(4) =   1
                l(5) =   2
                l(6) =   2

     PseudoPot. # 3 for Se read from file:
     /home/pragov/projects/rrg-bengioy-ad/pragov/crystal_structure_design/SSSP/Se_pbe_v1.uspp.F.UPF
     MD5 check sum: 1b3568f3a8ae88f9a2a0ad0698632c85
     Pseudo is Ultrasoft + core correction, Zval =  6.0
     Generated by new atomic code, or converted to UPF format
     Using radial grid of  877 points,  6 beta functions with:
                l(1) =   0
                l(2) =   0
                l(3) =   1
                l(4) =   1
                l(5) =   2
                l(6) =   2
     Q(r) pseudized with  8 coefficients,  rinner =    1.300   1.300   1.300
                                                       1.300   1.300

     atomic species   valence    mass     pseudopotential
        Ta            13.00   180.94788     Ta( 1.00)
        Mo            14.00    95.95000     Mo( 1.00)
        Se             6.00    78.97100     Se( 1.00)

      6 Sym. Ops. (no inversion) found

                                    s                        frac. trans.

      isym =  1     identity

 cryst.   s( 1) = (     1          0          0      )
                  (     0          1          0      )
                  (     0          0          1      )

 cart.    s( 1) = (  1.0000000 -0.0000000 -0.0000000 )
                  (  0.0000000  1.0000000 -0.0000000 )
                  (  0.0000000  0.0000000  1.0000000 )

      isym =  2     120 deg rotation - cryst. axis [0,0,1]

[...]

      isym =  3     120 deg rotation - cryst. axis [0,0,-1]

[...]

      isym =  4     inv. 180 deg rotation - cart. axis [1,0,0]

[...]

      isym =  5     inv. 180 deg rotation - cryst. axis [0,1,0]

[...]

      isym =  6     inv. 180 deg rotation - cryst. axis [1,1,0]

 cryst.   s( 6) = (     1         -1          0      )
                  (     0         -1          0      )
                  (     0         -1          1      )

 cart.    s( 6) = (  0.4999998 -0.8660257  0.0000000 )
                  ( -0.8660253 -0.4999998  0.0000000 )
                  (  0.0000000  0.0000000  1.0000000 )

   Cartesian axes

     site n.     atom                  positions (alat units)
         1           Ta  tau(   1) = (   0.4999996   0.2886748   1.9662956  )
         2           Ta  tau(   2) = (   1.0000001   0.5773502   3.9386885  )
         3           Ta  tau(   3) = (   0.4999997   0.8660250   5.9089144  )
         4           Ta  tau(   4) = (   1.0000002   1.1547004   7.8811005  )
         5           Mo  tau(   5) = (   1.0000006   0.5773505   9.8500951  )
         6           Se  tau(   6) = (   0.9999996   0.5773499   6.3993235  )
         7           Se  tau(   7) = (   0.5000007   0.8660256   8.3712929  )
         8           Se  tau(   8) = (   0.9999996   0.5773499   0.4729838  )
         9           Se  tau(   9) = (   0.5000007   0.8660256   2.4562122  )
        10           Se  tau(  10) = (   0.5000001   0.2886745   4.4292060  )
        11           Se  tau(  11) = (   0.5000007   0.8660256   1.4762116  )
        12           Se  tau(  12) = (   0.5000001   0.2886751   3.4482992  )
        13           Se  tau(  13) = (   0.9999996   0.5773499   5.4184364  )
        14           Se  tau(  14) = (   0.5000002   0.8660259   7.3904255  )
        15           Se  tau(  15) = (   1.0000007   1.1547007   9.3755451  )

   Crystallographic axes

     site n.     atom                  positions (cryst. coord.)
         1           Ta  tau(   1) = (  0.3998720  0.2002550  0.1996170  )
         2           Ta  tau(   2) = (  0.7999510  0.4000980  0.3998530  )
         3           Ta  tau(   3) = (  0.1999560  0.6000870  0.5998690  )
         4           Ta  tau(   4) = (  0.6000280  0.7999440  0.8000840  )
         5           Mo  tau(   5) = (  0.9999920  0.0000170  0.9999750  )
         6           Se  tau(   6) = (  0.8832180  0.2335630  0.6496550  )
         7           Se  tau(   7) = (  0.2832830  0.4334350  0.8498480  )
         8           Se  tau(   8) = (  0.6826720  0.6346550  0.0480170  )
         9           Se  tau(   9) = (  0.0831180  0.8337650  0.2493530  )
        10           Se  tau(  10) = (  0.4832170  0.0335660  0.4496500  )
        11           Se  tau(  11) = (  0.0499550  0.9000910  0.1498640  )
        12           Se  tau(  12) = (  0.4500230  0.0999540  0.3500690  )
        13           Se  tau(  13) = (  0.8500250  0.2999490  0.5500760  )
        14           Se  tau(  14) = (  0.2500900  0.4998200  0.7502710  )
        15           Se  tau(  15) = (  0.6506000  0.6988010  0.9517990  )

     number of k points=     1  Methfessel-Paxton smearing, width (Ry)=  0.0010
                       cart. coord. in units 2pi/alat
        k(    1) = (   0.0000000   0.0000000   0.0000000), wk =   2.0000000

                       cryst. coord.
        k(    1) = (   0.0000000   0.0000000   0.0000000), wk =   2.0000000

     Initial potential from superposition of free atoms

     starting charge     125.9939, renormalised to     126.0000

     negative rho (up, down):  3.736E-01 0.000E+00
     Starting wfcs are  102 randomized atomic wfcs

     Self-consistent Calculation

     iteration #  1     ecut=    30.00 Ry     beta= 0.70
     Davidson diagonalization with overlap

     ethr =  1.00E-02,  avg # of iterations =  2.0

     negative rho (up, down):  3.695E-01 0.000E+00

     total energy              =   -1135.57653007 Ry
     estimated scf accuracy    <       4.16731707 Ry

[...]

     total energy              =   -1138.19628635 Ry
     estimated scf accuracy    <       0.00001363 Ry

     iteration # 69     ecut=    30.00 Ry     beta= 0.70
     Davidson diagonalization with overlap

     ethr =  2.87E-09,  avg # of iterations =  2.0

[...]

     End of self-consistent calculation

          k = 0.0000 0.0000 0.0000 (  3284 PWs)   bands (ev):

   -57.5532 -57.5523 -57.5099 -57.5070 -51.1298 -25.3200 -25.3200 -25.0425
   -24.3061 -24.3050 -24.2554 -24.2518 -23.9701 -23.9701 -23.9693 -23.9693
   -23.9346 -23.9346 -23.9311 -23.9311  -5.9220  -5.2309  -5.2010  -5.1127
    -5.1009  -4.9947  -4.2818  -4.1876  -4.1140  -4.0547   3.0988   3.3886
     3.5011   3.9306   4.0424   6.2367   6.2367   6.2564   6.4704   7.1025
     7.1025   7.3340   7.4706   7.4903   7.4903   7.5034   7.5034   7.5206
     7.5206   7.5303   7.5303   8.2070   8.2105   8.2105   8.2333   8.2333
     8.2566   8.2566   8.2645   8.2645   9.0550   9.7831  10.0574  10.2578
    10.3809  10.9283  10.9283  11.0563  11.0563  12.4648  12.4648  12.4689
    12.4689  12.4775  12.4777  12.5502

     occupation numbers
     1.0000   1.0000   1.0000   1.0000   1.0000   1.0000   1.0000   1.0000
     1.0000   1.0000   1.0000   1.0000   1.0000   1.0000   1.0000   1.0000
     1.0000   1.0000   1.0000   1.0000   1.0000   1.0000   1.0000   1.0000
     1.0000   1.0000   1.0000   1.0000   1.0000   1.0000   1.0000   1.0000
     1.0000   1.0000   1.0000   1.0000   1.0000   1.0000   1.0000   1.0000
     1.0000   1.0000   1.0000   1.0000   1.0000   1.0000   1.0000   1.0000
     1.0000   1.0000   1.0000   1.0000   1.0000   1.0000   1.0000   1.0000
     1.0000   1.0000   1.0000   1.0000   1.0000   1.0000   1.0000  -0.0000
    -0.0000  -0.0000  -0.0000  -0.0000  -0.0000  -0.0000  -0.0000  -0.0000
    -0.0000  -0.0000  -0.0000  -0.0000

     the Fermi energy is    10.1434 ev

!    total energy              =   -1138.19628581 Ry
     estimated scf accuracy    <       0.00000076 Ry
     smearing contrib. (-TS)   =       0.00000000 Ry
     internal energy E=F+TS    =   -1138.19628581 Ry

     The total energy is F=E-TS. E is the sum of the following terms:
     one-electron contribution =    -414.59847621 Ry
     hartree contribution      =     257.36165558 Ry
     xc contribution           =    -483.15002663 Ry
     ewald contribution        =    -497.80943854 Ry

     convergence has been achieved in  69 iterations

     negative rho (up, down):  3.680E-01 0.000E+00

     Forces acting on atoms (cartesian axes, Ry/au):

     atom    1 type  1   force =     0.00000000    0.00000000    0.03067550
     atom    2 type  1   force =     0.00000000    0.00000000   -0.01622790
     atom    3 type  1   force =     0.00000000    0.00000000    0.01693602
     atom    4 type  1   force =     0.00000000    0.00000000   -0.03099885
     atom    5 type  2   force =     0.00000000    0.00000000   -0.00099166
     atom    6 type  3   force =     0.00000000    0.00000000   -0.13744785
     atom    7 type  3   force =     0.00000000    0.00000000   -0.12072899
     atom    8 type  3   force =     0.00000000    0.00000000   -0.10870899
     atom    9 type  3   force =     0.00000000    0.00000000   -0.14309744
     atom   10 type  3   force =     0.00000000    0.00000000   -0.12610276
     atom   11 type  3   force =     0.00000000    0.00000000    0.12024415
     atom   12 type  3   force =     0.00000000    0.00000000    0.13741805
     atom   13 type  3   force =     0.00000000    0.00000000    0.12580679
     atom   14 type  3   force =     0.00000000    0.00000000    0.14380017
     atom   15 type  3   force =     0.00000000    0.00000000    0.10942375
     The non-local contrib.  to forces
     atom    1 type  1   force =     0.00000000    0.00000000    0.03247107
     atom    2 type  1   force =     0.00000000    0.00000000   -0.01844479
     atom    3 type  1   force =     0.00000000    0.00000000    0.02012697
     atom    4 type  1   force =     0.00000000    0.00000000   -0.03175253
     atom    5 type  2   force =     0.00000000    0.00000000    0.00120721
     atom    6 type  3   force =     0.00000000    0.00000000    0.08089777
     atom    7 type  3   force =     0.00000000    0.00000000    0.02940189
     atom    8 type  3   force =     0.00000000    0.00000000   -0.00343525
     atom    9 type  3   force =     0.00000000    0.00000000    0.07682173
     atom   10 type  3   force =     0.00000000    0.00000000    0.04113401
     atom   11 type  3   force =     0.00000000    0.00000000   -0.02948011
     atom   12 type  3   force =     0.00000000    0.00000000   -0.08164820
     atom   13 type  3   force =     0.00000000    0.00000000   -0.04163237
     atom   14 type  3   force =     0.00000000    0.00000000   -0.07473014
     atom   15 type  3   force =     0.00000000    0.00000000    0.00623329
     The ionic contribution  to forces
     atom    1 type  1   force =     0.00001187    0.00000685    2.95504955
     atom    2 type  1   force =    -0.00000159   -0.00000479    0.90427678
     atom    3 type  1   force =    -0.00000160   -0.00000093   -0.89274797
     atom    4 type  1   force =     0.00000176    0.00000489   -2.90989421
     atom    5 type  2   force =    -0.00000992   -0.00000573   -0.11015658
     atom    6 type  3   force =     0.00000087    0.00000056   10.92676437
     atom    7 type  3   force =    -0.00000244   -0.00000154    9.99921804
     atom    8 type  3   force =     0.00000882    0.00000509   13.83857731
     atom    9 type  3   force =    -0.00000598   -0.00000345   12.72144486
     atom   10 type  3   force =     0.00000076    0.00000425   11.75353535
     atom   11 type  3   force =    -0.00000604   -0.00000349   -9.97692122
     atom   12 type  3   force =     0.00000084    0.00000061  -10.91169293
     atom   13 type  3   force =     0.00000082    0.00000042  -11.73936557
     atom   14 type  3   force =     0.00000063   -0.00000344  -12.66504567
     atom   15 type  3   force =     0.00000121    0.00000070  -13.89304209
     The local contribution  to forces
     atom    1 type  1   force =    -0.00001058   -0.00000643   -2.96087218
     atom    2 type  1   force =     0.00000046    0.00000212   -0.89999490
     atom    3 type  1   force =     0.00000139   -0.00000071    0.89135241
     atom    4 type  1   force =    -0.00000177   -0.00000708    2.91128763
     atom    5 type  2   force =     0.00000724    0.00000412    0.10808745
     atom    6 type  3   force =    -0.00000222   -0.00000539  -11.12886735
     atom    7 type  3   force =     0.00000035   -0.00000270  -10.14145361
     atom    8 type  3   force =    -0.00000901   -0.00000494  -13.94085078
     atom    9 type  3   force =     0.00000777    0.00000243  -12.92737858
     atom   10 type  3   force =     0.00000212    0.00000138  -11.91058070
     atom   11 type  3   force =     0.00000768    0.00000078   10.11819759
     atom   12 type  3   force =    -0.00000023    0.00000077   11.11569609
     atom   13 type  3   force =    -0.00000265   -0.00000272   11.89757897
     atom   14 type  3   force =     0.00000334    0.00000241   12.86831699
     atom   15 type  3   force =    -0.00000080   -0.00000021   13.99354889
     The core correction contribution to forces
     atom    1 type  1   force =     0.00000033    0.00000063    0.00346994
     atom    2 type  1   force =    -0.00000008    0.00000027   -0.00165388
     atom    3 type  1   force =     0.00000009   -0.00000008    0.00186899
     atom    4 type  1   force =    -0.00000003   -0.00000025   -0.00337036
     atom    5 type  2   force =     0.00000000    0.00000000    0.00000000
     atom    6 type  3   force =    -0.00000006   -0.00000110   -0.01488454
     atom    7 type  3   force =    -0.00000004    0.00000126   -0.00825587
     atom    8 type  3   force =    -0.00000022   -0.00000014   -0.00310812
     atom    9 type  3   force =     0.00000033    0.00000010   -0.01440842
     atom   10 type  3   force =     0.00000031   -0.00000007   -0.00988955
     atom   11 type  3   force =     0.00000047   -0.00000058    0.00824107
     atom   12 type  3   force =     0.00000007    0.00000160    0.01497579
     atom   13 type  3   force =    -0.00000008   -0.00000020    0.00993964
     atom   14 type  3   force =     0.00000043   -0.00000001    0.01412178
     atom   15 type  3   force =    -0.00000002   -0.00000062    0.00273600
     The Hubbard contrib.    to forces
     atom    1 type  1   force =     0.00000000    0.00000000    0.00000000
     atom    2 type  1   force =     0.00000000    0.00000000    0.00000000
     atom    3 type  1   force =     0.00000000    0.00000000    0.00000000
     atom    4 type  1   force =     0.00000000    0.00000000    0.00000000
     atom    5 type  2   force =     0.00000000    0.00000000    0.00000000
     atom    6 type  3   force =     0.00000000    0.00000000    0.00000000
     atom    7 type  3   force =     0.00000000    0.00000000    0.00000000
     atom    8 type  3   force =     0.00000000    0.00000000    0.00000000
     atom    9 type  3   force =     0.00000000    0.00000000    0.00000000
     atom   10 type  3   force =     0.00000000    0.00000000    0.00000000
     atom   11 type  3   force =     0.00000000    0.00000000    0.00000000
     atom   12 type  3   force =     0.00000000    0.00000000    0.00000000
     atom   13 type  3   force =     0.00000000    0.00000000    0.00000000
     atom   14 type  3   force =     0.00000000    0.00000000    0.00000000
     atom   15 type  3   force =     0.00000000    0.00000000    0.00000000
     The SCF correction term to forces
     atom    1 type  1   force =    -0.00000001    0.00000015    0.00056629
     atom    2 type  1   force =     0.00000135    0.00000134   -0.00040193
     atom    3 type  1   force =     0.00000085    0.00000232   -0.00365522
     atom    4 type  1   force =     0.00000069    0.00000294    0.00273979
     atom    5 type  2   force =    -0.00000004    0.00000001   -0.00012057
     atom    6 type  3   force =     0.00000022    0.00000103   -0.00134893
     atom    7 type  3   force =     0.00000031    0.00000078    0.00036973
     atom    8 type  3   force =     0.00000000   -0.00000009    0.00011703
     atom    9 type  3   force =    -0.00000071    0.00000028    0.00043215
     atom   10 type  3   force =    -0.00000103   -0.00000204   -0.00029269
     atom   11 type  3   force =    -0.00000062    0.00000056    0.00021600
     atom   12 type  3   force =    -0.00000031   -0.00000084    0.00009648
     atom   13 type  3   force =     0.00000073    0.00000104   -0.00070471
     atom   14 type  3   force =    -0.00000131    0.00000033    0.00114639
     atom   15 type  3   force =     0.00000001    0.00000005   -0.00004317

     Total force =     0.407356     Total SCF correction =     0.005047

     Computing stress (Cartesian axis) and pressure

     negative rho (up, down):  3.680E-01 0.000E+00
          total   stress  (Ry/bohr**3)                   (kbar)     P=      167.75
   0.00217628  -0.00000000   0.00000000          320.14       -0.00        0.00
  -0.00000000   0.00217628  -0.00000000           -0.00      320.14       -0.00
   0.00000000  -0.00000000  -0.00093160            0.00       -0.00     -137.04

     kinetic stress (kbar)  11535.30     -0.00      0.00
                               -0.00  11535.30     -0.00
                                0.00     -0.00  11249.78

     local   stress (kbar) -14922.08     -0.00     -0.00
                               -0.00 -14922.08     -0.00
                               -0.00     -0.00  22898.13

     nonloc. stress (kbar)   -347.00      0.00     -0.00
                                0.00   -347.00      0.00
                               -0.00      0.00   -440.77

     hartree stress (kbar)  11153.54      0.00      0.00
                                0.00  11153.55      0.00
                                0.00      0.00  -6203.43

     exc-cor stress (kbar)  19379.16      0.00     -0.00
                                0.00  19379.16      0.00
                               -0.00      0.00  19388.93

     corecor stress (kbar) -22946.97     -0.00      0.00
                               -0.00 -22946.97     -0.00
                                0.00     -0.00 -22944.32

     ewald   stress (kbar)  -3531.81      0.00      0.00
                                0.00  -3531.81      0.00
                                0.00      0.00 -24085.35

     hubbard stress (kbar)      0.00      0.00      0.00
                                0.00      0.00      0.00
                                0.00      0.00      0.00

     DFT-D   stress (kbar)      0.00      0.00      0.00
                                0.00      0.00      0.00
                                0.00      0.00      0.00

     XDM     stress (kbar)      0.00      0.00      0.00
                                0.00      0.00      0.00
                                0.00      0.00      0.00

     dft-nl  stress (kbar)      0.00      0.00      0.00
                                0.00      0.00      0.00
                                0.00      0.00      0.00

     TS-vdW  stress (kbar)      0.00      0.00      0.00
                                0.00      0.00      0.00
                                0.00      0.00      0.00

[...]

                                0.00      0.00      0.00

     Writing all to output data dir new_calculations/myprefix.save/

     General routines

     Parallel routines

   This run was terminated on:   3:12:19  21May2023

   JOB DONE.