     Program PWSCF v.7.0 starts on 20May2023 at  8:57:18

     Reading input from espresso_18179.pwi
Warning: card &CELL ignored
Warning: card / ignored

     Current dimensions of program PWSCF are:
     Max number of different atomic species (ntypx) = 10
     Max number of k-points (npk) =  40000
     Max angular momentum in pseudopotentials (lmaxx) =  4
     file Al.pbe-n-kjpaw_psl.1.0.0.UPF: wavefunction(s)  3S 3P renormalized

     gamma-point specific algorithms are used
     Message from routine setup:
     using ibrav=0 with symmetry is DISCOURAGED, use correct ibrav instead

     Subspace diagonalization in iterative solution of the eigenvalue problem:
     a serial algorithm will be used

     Using Slab Decomposition

     bravais-lattice index     =            0
     lattice parameter (alat)  =       8.1049  a.u.
     unit-cell volume          =    1647.1876 (a.u.)^3
     number of atoms/cell      =           12
     number of atomic types    =            3
     number of electrons       =       116.00
     number of Kohn-Sham states=           70
     kinetic-energy cutoff     =      30.0000  Ry
     charge density cutoff     =     240.0000  Ry
     scf convergence threshold =      1.0E-06
     mixing beta               =       0.7000
     number of iterations used =            8  plain     mixing
     Exchange-correlation=  SLA  PW   PBX  PBC
                           (   1   4   3   4   0   0   0)

     celldm(1)=   8.104914  celldm(2)=   0.000000  celldm(3)=   0.000000
     celldm(4)=   0.000000  celldm(5)=   0.000000  celldm(6)=   0.000000

     crystal axes: (cart. coord. in units of alat)
               a(1) = (   1.000000   0.000000   0.000000 )
               a(2) = (   0.000000   1.692529   0.000000 )
               a(3) = (   0.000000   0.000000   1.827939 )

     reciprocal axes: (cart. coord. in units 2 pi/alat)
               b(1) = (  1.000000  0.000000  0.000000 )
               b(2) = (  0.000000  0.590832  0.000000 )
               b(3) = (  0.000000  0.000000  0.547064 )

     PseudoPot. # 1 for Ca read from file:
     /home/pragov/projects/rrg-bengioy-ad/pragov/crystal_structure_design/SSSP/Ca_pbe_v1.uspp.F.UPF
     MD5 check sum: 403a4c14b9e4d4dfdc3024c9a3812218
     Pseudo is Ultrasoft + core correction, Zval = 10.0
     Generated by new atomic code, or converted to UPF format
     Using radial grid of  845 points,  6 beta functions with:
                l(1) =   0
                l(2) =   0
                l(3) =   1
                l(4) =   1
                l(5) =   2
                l(6) =   2
     Q(r) pseudized with  8 coefficients,  rinner =    1.500   1.500   1.500
                                                       1.500   1.500

     PseudoPot. # 2 for Al read from file:
     /home/pragov/projects/rrg-bengioy-ad/pragov/crystal_structure_design/SSSP/Al.pbe-n-kjpaw_psl.1.0.0.UPF
     MD5 check sum: cfc449ca30b5f3223ec38ddd88ac046d
     Pseudo is Projector augmented-wave + core cor, Zval =  3.0
     Generated using "atomic" code by A. Dal Corso  v.5.1
     Shape of augmentation charge: PSQ
     Using radial grid of 1135 points,  6 beta functions with:
                l(1) =   0
                l(2) =   0
                l(3) =   1
                l(4) =   1
                l(5) =   2
                l(6) =   2
     Q(r) pseudized with 0 coefficients

     PseudoPot. # 3 for Pt read from file:
     /home/pragov/projects/rrg-bengioy-ad/pragov/crystal_structure_design/SSSP/pt_pbe_v1.4.uspp.F.UPF
     MD5 check sum: f09d6de1a584b5a045c4fc126da2d0c4
     Pseudo is Ultrasoft + core correction, Zval = 16.0
     Generated by new atomic code, or converted to UPF format
     Using radial grid of  985 points,  6 beta functions with:
                l(1) =   0
                l(2) =   0
                l(3) =   1
                l(4) =   1
                l(5) =   2
                l(6) =   2
     Q(r) pseudized with  8 coefficients,  rinner =    1.300   1.300   1.300
                                                       1.300   1.300

     atomic species   valence    mass     pseudopotential
        Ca            10.00    40.07800     Ca( 1.00)
        Al             3.00    26.98154     Al( 1.00)
        Pt            16.00   195.08400     Pt( 1.00)

      8 Sym. Ops., with inversion, found ( 6 have fractional translation)

                                    s                        frac. trans.

      isym =  1     identity

 cryst.   s( 1) = (     1          0          0      )
                  (     0          1          0      )
                  (     0          0          1      )

 cart.    s( 1) = (  1.0000000  0.0000000  0.0000000 )
                  (  0.0000000  1.0000000  0.0000000 )
                  (  0.0000000  0.0000000  1.0000000 )

      isym =  2     180 deg rotation - cart. axis [0,0,1]

 cryst.   s( 2) = (    -1          0          0      )    f =(  0.0000000 )
                  (     0         -1          0      )       ( -0.5000000 )
                  (     0          0          1      )       (  0.5000000 )

 cart.    s( 2) = ( -1.0000000  0.0000000  0.0000000 )    f =(  0.0000000 )
                  (  0.0000000 -1.0000000  0.0000000 )       ( -0.8462646 )
                  (  0.0000000  0.0000000  1.0000000 )       (  0.9139693 )

[...]

      isym =  4     180 deg rotation - cart. axis [1,0,0]

[...]

      isym =  5     inversion

 cryst.   s( 5) = (    -1          0          0      )
                  (     0         -1          0      )
                  (     0          0         -1      )

 cart.    s( 5) = ( -1.0000000  0.0000000  0.0000000 )
                  (  0.0000000 -1.0000000  0.0000000 )
                  (  0.0000000  0.0000000 -1.0000000 )

      isym =  6     inv. 180 deg rotation - cart. axis [0,0,1]

[...]

      isym =  8     inv. 180 deg rotation - cart. axis [1,0,0]

 cryst.   s( 8) = (    -1          0          0      )    f =(  0.5000000 )
                  (     0          1          0      )       (  0.0000000 )
                  (     0          0          1      )       (  0.0000000 )

 cart.    s( 8) = ( -1.0000000  0.0000000  0.0000000 )    f =(  0.5000000 )
                  (  0.0000000  1.0000000  0.0000000 )       (  0.0000000 )
                  (  0.0000000  0.0000000  1.0000000 )       (  0.0000000 )

   Cartesian axes

     site n.     atom                  positions (alat units)
         1           Ca  tau(   1) = (   0.2500000   0.0382410   1.2384120  )
         2           Ca  tau(   2) = (   0.2500000   0.8845056   1.5034960  )
         3           Ca  tau(   3) = (   0.7500000   1.6542881   0.5895267  )
         4           Ca  tau(   4) = (   0.7500000   0.8080235   0.3244427  )
         5           Al  tau(   5) = (   0.2500000   0.2436463   0.1221429  )
         6           Al  tau(   6) = (   0.2500000   1.0899109   0.7918265  )
         7           Al  tau(   7) = (   0.7500000   1.4488828   1.7057958  )
         8           Al  tau(   8) = (   0.7500000   0.6026182   1.0361122  )
         9           Pt  tau(   9) = (   0.2500000   0.4892035   0.7041805  )
        10           Pt  tau(  10) = (   0.2500000   1.3354681   0.2097889  )
        11           Pt  tau(  11) = (   0.7500000   1.2033256   1.1237582  )
        12           Pt  tau(  12) = (   0.7500000   0.3570610   1.6181498  )

   Crystallographic axes

     site n.     atom                  positions (cryst. coord.)
         1           Ca  tau(   1) = (  0.2500000  0.0225940  0.6774910  )
         2           Ca  tau(   2) = (  0.2500000  0.5225940  0.8225090  )
         3           Ca  tau(   3) = (  0.7500000  0.9774060  0.3225090  )
         4           Ca  tau(   4) = (  0.7500000  0.4774060  0.1774910  )
         5           Al  tau(   5) = (  0.2500000  0.1439540  0.0668200  )
         6           Al  tau(   6) = (  0.2500000  0.6439540  0.4331800  )
         7           Al  tau(   7) = (  0.7500000  0.8560460  0.9331800  )
         8           Al  tau(   8) = (  0.7500000  0.3560460  0.5668200  )
         9           Pt  tau(   9) = (  0.2500000  0.2890370  0.3852320  )
        10           Pt  tau(  10) = (  0.2500000  0.7890370  0.1147680  )
        11           Pt  tau(  11) = (  0.7500000  0.7109630  0.6147680  )
        12           Pt  tau(  12) = (  0.7500000  0.2109630  0.8852320  )

     number of k points=     1  Methfessel-Paxton smearing, width (Ry)=  0.0010
                       cart. coord. in units 2pi/alat
        k(    1) = (   0.0000000   0.0000000   0.0000000), wk =   2.0000000

                       cryst. coord.
        k(    1) = (   0.0000000   0.0000000   0.0000000), wk =   2.0000000

     Initial potential from superposition of free atoms

     starting charge     113.9690, renormalised to     116.0000

     negative rho (up, down):  7.334E-01 0.000E+00
     Starting wfcs are  104 randomized atomic wfcs
     Checking if some PAW data can be deallocated...

     Self-consistent Calculation

     iteration #  1     ecut=    30.00 Ry     beta= 0.70
     Davidson diagonalization with overlap

     ethr =  1.00E-02,  avg # of iterations =  2.0

     negative rho (up, down):  6.538E-01 0.000E+00

     total energy              =   -1296.84578357 Ry
     estimated scf accuracy    <       7.45284157 Ry

[...]

     total energy              =   -1301.42134434 Ry
     estimated scf accuracy    <       0.00000335 Ry

     iteration # 12     ecut=    30.00 Ry     beta= 0.70
     Davidson diagonalization with overlap

     ethr =  2.88E-09,  avg # of iterations =  4.0

[...]

     End of self-consistent calculation

          k = 0.0000 0.0000 0.0000 (  2283 PWs)   bands (ev):

   -41.7630 -41.7622 -41.7614 -41.7601 -41.4377 -41.4369 -41.4360 -41.4347
   -41.3110 -41.3100 -41.3092 -41.3078 -29.5481 -29.5393 -29.5294 -29.5222
   -10.7495 -10.7164 -10.7138 -10.6348 -10.6156 -10.5678 -10.5521 -10.5506
   -10.5411 -10.5332 -10.4783 -10.4675   2.6691   4.0020   4.8728   5.4982
     6.1670   6.8745   6.8824   6.9160   7.1956   7.3568   7.3725   7.4349
     7.5724   7.7238   7.8611   7.9044   7.9311   7.9411   8.0590   8.1248
     8.1254   8.1389   8.2218   8.4646   8.8215   8.9403   9.3748  10.6256
    11.1577  11.4574  11.8919  12.1016  13.0282  13.2732  13.3292  13.5648
    13.6758  13.8328  13.9949  14.4176  14.5898  14.6972

     occupation numbers
     1.0000   1.0000   1.0000   1.0000   1.0000   1.0000   1.0000   1.0000
     1.0000   1.0000   1.0000   1.0000   1.0000   1.0000   1.0000   1.0000
     1.0000   1.0000   1.0000   1.0000   1.0000   1.0000   1.0000   1.0000
     1.0000   1.0000   1.0000   1.0000   1.0000   1.0000   1.0000   1.0000
     1.0000   1.0000   1.0000   1.0000   1.0000   1.0000   1.0000   1.0000
     1.0000   1.0000   1.0000   1.0000   1.0000   1.0000   1.0000   1.0000
     1.0000   1.0000   1.0000   1.0000   1.0000   1.0000   1.0000   1.0000
     1.0000   1.0000  -0.0000  -0.0000  -0.0000  -0.0000  -0.0000  -0.0000
    -0.0000  -0.0000  -0.0000  -0.0000  -0.0000  -0.0000

     the Fermi energy is    11.7307 ev

!    total energy              =   -1301.42134437 Ry
     estimated scf accuracy    <       0.00000081 Ry
     smearing contrib. (-TS)   =       0.00000000 Ry
     internal energy E=F+TS    =   -1301.42134437 Ry

     The total energy is F=E-TS. E is the sum of the following terms:
     one-electron contribution =    -399.46046907 Ry
     hartree contribution      =     251.34214485 Ry
     xc contribution           =    -285.78282552 Ry
     ewald contribution        =    -728.81141505 Ry
     one-center paw contrib.   =    -138.70877959 Ry
      -> PAW hartree energy AE =       5.34771491 Ry
      -> PAW hartree energy PS =      -5.32914662 Ry
      -> PAW xc energy AE      =    -146.22126723 Ry
      -> PAW xc energy PS      =       7.49391935 Ry
      -> total E_H with PAW    =     251.36071315 Ry
      -> total E_XC with PAW   =    -424.51017340 Ry

     convergence has been achieved in  12 iterations

     negative rho (up, down):  6.828E-01 0.000E+00

     Forces acting on atoms (cartesian axes, Ry/au):

     atom    1 type  1   force =     0.00000000   -0.01187870   -0.00050207
     atom    2 type  1   force =     0.00000000   -0.01187870    0.00050207
     atom    3 type  1   force =    -0.00000000    0.01187870    0.00050207
     atom    4 type  1   force =    -0.00000000    0.01187870   -0.00050207
     atom    5 type  2   force =     0.00000000   -0.03066628    0.05691618
     atom    6 type  2   force =    -0.00000000   -0.03066628   -0.05691618
     atom    7 type  2   force =     0.00000000    0.03066628   -0.05691618
     atom    8 type  2   force =     0.00000000    0.03066628    0.05691618
     atom    9 type  3   force =     0.00000000    0.00534529   -0.03459613
     atom   10 type  3   force =     0.00000000    0.00534529    0.03459613
     atom   11 type  3   force =     0.00000000   -0.00534529    0.03459613
     atom   12 type  3   force =     0.00000000   -0.00534529   -0.03459613
     The non-local contrib.  to forces
     atom    1 type  1   force =     0.00000000   -0.00563074    0.04255066
     atom    2 type  1   force =     0.00000000   -0.00563074   -0.04255066
     atom    3 type  1   force =     0.00000000    0.00563074   -0.04255066
     atom    4 type  1   force =     0.00000000    0.00563074    0.04255066
     atom    5 type  2   force =     0.00000000    0.02654430   -0.02922922
     atom    6 type  2   force =     0.00000000    0.02654430    0.02922922
     atom    7 type  2   force =     0.00000000   -0.02654430    0.02922922
     atom    8 type  2   force =    -0.00000000   -0.02654430   -0.02922922
     atom    9 type  3   force =     0.00000000    0.01291625    0.02327733
     atom   10 type  3   force =     0.00000000    0.01291625   -0.02327733
     atom   11 type  3   force =     0.00000000   -0.01291625   -0.02327733
     atom   12 type  3   force =     0.00000000   -0.01291625    0.02327733
     The ionic contribution  to forces
     atom    1 type  1   force =    -0.00000000   -0.92459906   -0.45520641
     atom    2 type  1   force =     0.00000000   -0.92459906    0.45520641
     atom    3 type  1   force =     0.00000000    0.92459906    0.45520641
     atom    4 type  1   force =    -0.00000000    0.92459906   -0.45520641
     atom    5 type  2   force =     0.00000000    0.46350068    0.20285753
     atom    6 type  2   force =     0.00000000    0.46350068   -0.20285753
     atom    7 type  2   force =    -0.00000000   -0.46350068   -0.20285753
     atom    8 type  2   force =    -0.00000000   -0.46350068    0.20285753
     atom    9 type  3   force =     0.00000000   -0.05659788    0.42435842
     atom   10 type  3   force =    -0.00000000   -0.05659788   -0.42435842
     atom   11 type  3   force =    -0.00000000    0.05659788   -0.42435842
     atom   12 type  3   force =    -0.00000000    0.05659788    0.42435842
     The local contribution  to forces
     atom    1 type  1   force =     0.00002095    0.91830913    0.41318588
     atom    2 type  1   force =    -0.00004350    0.91933896   -0.41470484
     atom    3 type  1   force =    -0.00000712   -0.91861685   -0.41337201
     atom    4 type  1   force =    -0.00000746   -0.91873511    0.41525878
     atom    5 type  2   force =     0.00000450   -0.51685374   -0.11948319
     atom    6 type  2   force =    -0.00000820   -0.51727445    0.11977306
     atom    7 type  2   force =     0.00000287    0.51674174    0.11958222
     atom    8 type  2   force =     0.00000177    0.51727137   -0.11996064
     atom    9 type  3   force =     0.00003618    0.03903606   -0.45716256
     atom   10 type  3   force =    -0.00003616    0.03549938    0.45793819
     atom   11 type  3   force =     0.00007071   -0.03828122    0.45703619
     atom   12 type  3   force =     0.00002639   -0.03605772   -0.45790584
     The core correction contribution to forces
     atom    1 type  1   force =     0.00000049   -0.00045444   -0.00170369
     atom    2 type  1   force =    -0.00000073   -0.00044826    0.00170275
     atom    3 type  1   force =    -0.00000009    0.00045650    0.00170273
     atom    4 type  1   force =    -0.00000037    0.00045078   -0.00169631
     atom    5 type  2   force =     0.00000060   -0.00372820    0.00296749
     atom    6 type  2   force =    -0.00000069   -0.00373054   -0.00296925
     atom    7 type  2   force =     0.00000012    0.00372824   -0.00296905
     atom    8 type  2   force =     0.00000018    0.00373016    0.00296956
     atom    9 type  3   force =     0.00000125    0.01262791   -0.02457076
     atom   10 type  3   force =    -0.00000079    0.01260614    0.02459303
     atom   11 type  3   force =     0.00000199   -0.01261986    0.02456846
     atom   12 type  3   force =     0.00000052   -0.01260215   -0.02459863
     The Hubbard contrib.    to forces
     atom    1 type  1   force =     0.00000000    0.00000000    0.00000000
     atom    2 type  1   force =     0.00000000    0.00000000    0.00000000
     atom    3 type  1   force =     0.00000000    0.00000000    0.00000000
     atom    4 type  1   force =     0.00000000    0.00000000    0.00000000
     atom    5 type  2   force =     0.00000000    0.00000000    0.00000000
     atom    6 type  2   force =     0.00000000    0.00000000    0.00000000
     atom    7 type  2   force =     0.00000000    0.00000000    0.00000000
     atom    8 type  2   force =     0.00000000    0.00000000    0.00000000
     atom    9 type  3   force =     0.00000000    0.00000000    0.00000000
     atom   10 type  3   force =     0.00000000    0.00000000    0.00000000
     atom   11 type  3   force =     0.00000000    0.00000000    0.00000000
     atom   12 type  3   force =     0.00000000    0.00000000    0.00000000
     The SCF correction term to forces
     atom    1 type  1   force =    -0.00001409    0.00048697    0.00060267
     atom    2 type  1   force =     0.00003648   -0.00052716    0.00085275
     atom    3 type  1   force =     0.00001242   -0.00019209   -0.00048533
     atom    4 type  1   force =     0.00000557   -0.00006242   -0.00133656
     atom    5 type  2   force =    -0.00000146   -0.00010186   -0.00020388
     atom    6 type  2   force =     0.00000258    0.00027031   -0.00008946
     atom    7 type  2   force =    -0.00000050    0.00021492    0.00008505
     atom    8 type  2   force =    -0.00000078   -0.00025983    0.00027473
     atom    9 type  3   force =    -0.00004036   -0.00267968   -0.00050094
     atom   10 type  3   force =     0.00003669    0.00095598   -0.00015411
     atom   11 type  3   force =    -0.00006776    0.00183332    0.00048743
     atom   12 type  3   force =    -0.00001732   -0.00033428    0.00028042

     Total force =     0.148952     Total SCF correction =     0.004021

     Computing stress (Cartesian axis) and pressure

     negative rho (up, down):  6.828E-01 0.000E+00
          total   stress  (Ry/bohr**3)                   (kbar)     P=      -32.69
  -0.00090708   0.00000000   0.00000000         -133.44        0.00        0.00
   0.00000000   0.00032555   0.00000000            0.00       47.89        0.00
   0.00000000   0.00000000  -0.00008507            0.00        0.00      -12.51

     kinetic stress (kbar)  18681.62      0.00      0.00
                                0.00  19084.36      0.00
                                0.00      0.00  18933.60

     local   stress (kbar)  -2060.05     -0.00      0.00
                               -0.00  -2219.29     -0.03
                                0.00     -0.03    407.44

     nonloc. stress (kbar)   1745.98      0.00      0.00
                                0.00   1984.93      0.00
                                0.00      0.00   1915.49

     hartree stress (kbar)   7767.36      0.00     -0.00
                                0.00   7930.44     -0.01
                               -0.00     -0.01   6748.77

     exc-cor stress (kbar)   9406.38      0.00     -0.00
                                0.00   9409.38      0.00
                               -0.00      0.00   9407.50

     corecor stress (kbar) -14713.84     -0.00     -0.00
                               -0.00 -14720.99     -0.00
                               -0.00     -0.00 -14719.32

     ewald   stress (kbar) -20960.90      0.00      0.00
                                0.00 -21420.94      0.00
                                0.00      0.00 -22705.99

     hubbard stress (kbar)      0.00      0.00      0.00
                                0.00      0.00      0.00
                                0.00      0.00      0.00

     DFT-D   stress (kbar)      0.00      0.00      0.00
                                0.00      0.00      0.00
                                0.00      0.00      0.00

     XDM     stress (kbar)      0.00      0.00      0.00
                                0.00      0.00      0.00
                                0.00      0.00      0.00

     dft-nl  stress (kbar)      0.00      0.00      0.00
                                0.00      0.00      0.00
                                0.00      0.00      0.00

     TS-vdW  stress (kbar)      0.00      0.00      0.00
                                0.00      0.00      0.00
                                0.00      0.00      0.00

[...]

                                0.00      0.00      0.00

     Writing all to output data dir new_calculations/myprefix.save/

     General routines

     Parallel routines

     PAW routines

   This run was terminated on:   8:57:51  20May2023

   JOB DONE.