     Program PWSCF v.7.0 starts on 20May2023 at 17:35:40

     Reading input from espresso_5574.pwi
Warning: card &CELL ignored
Warning: card / ignored

     Current dimensions of program PWSCF are:
     Max number of different atomic species (ntypx) = 10
     Max number of k-points (npk) =  40000
     Max angular momentum in pseudopotentials (lmaxx) =  4
     file K.pbe-spn-kjpaw_psl.1.0.0.UPF: wavefunction(s)  3S renormalized
     file O.pbe-n-kjpaw_psl.0.1.UPF: wavefunction(s)  2P renormalized

     gamma-point specific algorithms are used
     Message from routine setup:
     using ibrav=0 with symmetry is DISCOURAGED, use correct ibrav instead

     Subspace diagonalization in iterative solution of the eigenvalue problem:
     a serial algorithm will be used

     Using Slab Decomposition

     bravais-lattice index     =            0
     lattice parameter (alat)  =      12.4452  a.u.
     unit-cell volume          =     470.2591 (a.u.)^3
     number of atoms/cell      =            4
     number of atomic types    =            3
     number of electrons       =        38.00
     number of Kohn-Sham states=           23
     kinetic-energy cutoff     =      30.0000  Ry
     charge density cutoff     =     240.0000  Ry
     scf convergence threshold =      1.0E-06
     mixing beta               =       0.7000
     number of iterations used =            8  plain     mixing
     Exchange-correlation= SLA  PW   PBX  PBC
                           (   1   4   3   4   0   0   0)

     celldm(1)=  12.445193  celldm(2)=   0.000000  celldm(3)=   0.000000
     celldm(4)=   0.000000  celldm(5)=   0.000000  celldm(6)=   0.000000

     crystal axes: (cart. coord. in units of alat)
               a(1) = (   1.000000   0.000000   0.000000 )
               a(2) = (   0.851615   0.524168   0.000000 )
               a(3) = (   0.851615   0.241081   0.465438 )

     reciprocal axes: (cart. coord. in units 2 pi/alat)
               b(1) = (  1.000000 -1.624697 -0.988168 )
               b(2) = (  0.000000  1.907784 -0.988168 )
               b(3) = (  0.000000  0.000000  2.148515 )

     PseudoPot. # 1 for K  read from file:
     /home/pragov/projects/rrg-bengioy-ad/pragov/crystal_structure_design/SSSP/K.pbe-spn-kjpaw_psl.1.0.0.UPF
     MD5 check sum: 7d58810084cac21f60fbe77ea2b688fd
     Pseudo is Projector augmented-wave + core cor, Zval =  9.0
     Generated using "atomic" code by A. Dal Corso  v.5.1
     Shape of augmentation charge: PSQ
     Using radial grid of 1165 points,  6 beta functions with:
                l(1) =   0
                l(2) =   0
                l(3) =   1
                l(4) =   1
                l(5) =   2
                l(6) =   2
     Q(r) pseudized with 0 coefficients

     PseudoPot. # 2 for Eu read from file:
     /home/pragov/projects/rrg-bengioy-ad/pragov/crystal_structure_design/SSSP/Eu.GGA-PBE-paw-v1.0.UPF
     MD5 check sum: acec5fd9176fb57ec8e299eae1ecaf48
     Pseudo is Projector augmented-wave + core cor, Zval = 17.0
     Generated using ATOMPAW code
     Shape of augmentation charge: BESSEL
     Using radial grid of 1109 points,  8 beta functions with:
                l(1) =   0
                l(2) =   0
                l(3) =   1
                l(4) =   1
                l(5) =   2
                l(6) =   2
                l(7) =   3
                l(8) =   3
     Q(r) pseudized with 0 coefficients

     PseudoPot. # 3 for O  read from file:
     /home/pragov/projects/rrg-bengioy-ad/pragov/crystal_structure_design/SSSP/O.pbe-n-kjpaw_psl.0.1.UPF
     MD5 check sum: 0234752ac141de4415c5fc33072bef88
     Pseudo is Projector augmented-wave + core cor, Zval =  6.0
     Generated using "atomic" code by A. Dal Corso  v.5.0.99 svn rev. 10869
     Shape of augmentation charge: BESSEL
     Using radial grid of 1095 points,  4 beta functions with:
                l(1) =   0
                l(2) =   0
                l(3) =   1
                l(4) =   1
     Q(r) pseudized with 0 coefficients

     atomic species   valence    mass     pseudopotential
        K              9.00    39.09830     K ( 1.00)
        Eu            17.00   151.96400     Eu( 1.00)
        O              6.00    15.99900     O ( 1.00)

      2 Sym. Ops., with inversion, found

                                    s                        frac. trans.

      isym =  1     identity

 cryst.   s( 1) = (     1          0          0      )
                  (     0          1          0      )
                  (     0          0          1      )

 cart.    s( 1) = (  1.0000000 -0.0000000  0.0000000 )
                  (  0.0000000  1.0000000 -0.0000000 )
                  (  0.0000000  0.0000000  1.0000000 )

      isym =  2     inversion

 cryst.   s( 2) = (    -1          0          0      )
                  (     0         -1          0      )
                  (     0          0         -1      )

 cart.    s( 2) = ( -1.0000000  0.0000000 -0.0000000 )
                  (  0.0000000 -1.0000000  0.0000000 )
                  (  0.0000000  0.0000000 -1.0000000 )

   Cartesian axes

     site n.     atom                  positions (alat units)
         1           K   tau(   1) = (   0.0000000   0.0000000   0.0000000  )
         2           Eu  tau(   2) = (   1.3516147   0.3826247   0.2327189  )
         3           O   tau(   3) = (   0.6217563   0.1760112   0.1070530  )
         4           O   tau(   4) = (   2.0814732   0.5892383   0.3583847  )

   Crystallographic axes

     site n.     atom                  positions (cryst. coord.)
         1           K   tau(   1) = (  0.0000000  0.0000000  0.0000000  )
         2           Eu  tau(   2) = (  0.5000000  0.5000000  0.5000000  )
         3           O   tau(   3) = (  0.2300050  0.2300050  0.2300050  )
         4           O   tau(   4) = (  0.7699950  0.7699950  0.7699950  )

     number of k points=     1  Methfessel-Paxton smearing, width (Ry)=  0.0010
                       cart. coord. in units 2pi/alat
        k(    1) = (   0.0000000   0.0000000   0.0000000), wk =   2.0000000

                       cryst. coord.
        k(    1) = (   0.0000000   0.0000000   0.0000000), wk =   2.0000000

     Check: negative core charge=   -0.000010

     Initial potential from superposition of free atoms

     starting charge      37.9764, renormalised to      38.0000
     Starting wfcs are   48 randomized atomic wfcs
     Checking if some PAW data can be deallocated...

     Self-consistent Calculation

     iteration #  1     ecut=    30.00 Ry     beta= 0.70
     Davidson diagonalization with overlap

     ethr =  1.00E-02,  avg # of iterations =  1.0

     total energy              =    -837.88505678 Ry
     estimated scf accuracy    <       1.03182680 Ry

[...]

     total energy              =    -838.58599801 Ry
     estimated scf accuracy    <       0.00000159 Ry

     iteration # 46     ecut=    30.00 Ry     beta= 0.70
     Davidson diagonalization with overlap

     ethr =  4.18E-09,  avg # of iterations =  2.0

     End of self-consistent calculation

          k = 0.0000 0.0000 0.0000 (   644 PWs)   bands (ev):

   -29.5992 -20.9239  -9.8187  -8.0663  -8.0660  -7.4467  -6.0293  -4.2208
    -4.1793  -4.1793   5.7159   6.4709   6.4710   7.5590   7.8406   7.8408
    11.2184  11.2197  11.4334  11.6674  11.7286  11.7316  11.8435

     occupation numbers
     1.0000   1.0000   1.0000   1.0000   1.0000   1.0000   1.0000   1.0000
     1.0000   1.0000   1.0000   1.0000   1.0000   1.0000   1.0000   1.0000
     1.0000   1.0000   1.0000  -0.0000  -0.0000  -0.0000  -0.0000

     the Fermi energy is    11.5722 ev

!    total energy              =    -838.58601110 Ry

     total all-electron energy =     -2147.518508 Ry
     estimated scf accuracy    <       0.00000071 Ry
     smearing contrib. (-TS)   =       0.00000000 Ry
     internal energy E=F+TS    =    -838.58601110 Ry

     The total energy is F=E-TS. E is the sum of the following terms:
     one-electron contribution =    -133.64093254 Ry
     hartree contribution      =      93.26430854 Ry
     xc contribution           =     -46.62255583 Ry
     ewald contribution        =    -219.92043972 Ry
     one-center paw contrib.   =    -531.66639156 Ry
      -> PAW hartree energy AE =     255.76537467 Ry
      -> PAW hartree energy PS =    -248.38846406 Ry
      -> PAW xc energy AE      =    -583.92323871 Ry
      -> PAW xc energy PS      =      44.87993654 Ry
      -> total E_H with PAW    =     100.64121915 Ry
      -> total E_XC with PAW   =    -585.66585800 Ry

     convergence has been achieved in  46 iterations

     Forces acting on atoms (cartesian axes, Ry/au):

     atom    1 type  1   force =     0.00000000    0.00000000    0.00000000
     atom    2 type  2   force =     0.00000000    0.00000000    0.00000000
     atom    3 type  3   force =    -0.14695269   -0.04164658   -0.02531910
     atom    4 type  3   force =     0.14695269    0.04164658    0.02531910
     The non-local contrib.  to forces
     atom    1 type  1   force =     0.00000000    0.00000000    0.00000000
     atom    2 type  2   force =     0.00000000    0.00000000    0.00000000
     atom    3 type  3   force =     0.05430494    0.01537154    0.00927588
     atom    4 type  3   force =    -0.05430494   -0.01537154   -0.00927588
     The ionic contribution  to forces
     atom    1 type  1   force =     0.00000000    0.00000000    0.00000000
     atom    2 type  2   force =    -0.00000000   -0.00000000   -0.00000000
     atom    3 type  3   force =     9.66812209    2.73692104    1.66464021
     atom    4 type  3   force =    -9.66812209   -2.73692104   -1.66464021
     The local contribution  to forces
     atom    1 type  1   force =     0.00009149    0.00001560    0.00000993
     atom    2 type  2   force =    -0.00005853   -0.00003052    0.00011333
     atom    3 type  3   force =    -9.86781982   -2.79338692   -1.69879871
     atom    4 type  3   force =     9.86771089    2.79341461    1.69878503
     The core correction contribution to forces
     atom    1 type  1   force =     0.00000036   -0.00000047   -0.00000030
     atom    2 type  2   force =     0.00000000    0.00000000    0.00000000
     atom    3 type  3   force =    -0.00172617   -0.00048857   -0.00029637
     atom    4 type  3   force =     0.00172548    0.00048879    0.00029631
     The Hubbard contrib.    to forces
     atom    1 type  1   force =     0.00000000    0.00000000    0.00000000
     atom    2 type  2   force =     0.00000000    0.00000000    0.00000000
     atom    3 type  3   force =     0.00000000    0.00000000    0.00000000
     atom    4 type  3   force =     0.00000000    0.00000000    0.00000000
     The SCF correction term to forces
     atom    1 type  1   force =    -0.00007739   -0.00002117   -0.00001372
     atom    2 type  2   force =     0.00009865    0.00009679   -0.00003735
     atom    3 type  3   force =     0.00014314   -0.00004502   -0.00013920
     atom    4 type  3   force =    -0.00007979    0.00005440    0.00015476

     Total force =     0.218955     Total SCF correction =     0.000320

     Computing stress (Cartesian axis) and pressure

          total   stress  (Ry/bohr**3)                   (kbar)     P=     -206.27
  -0.00281408  -0.00063668  -0.00038964         -413.97      -93.66      -57.32
  -0.00063668  -0.00075098  -0.00011030          -93.66     -110.47      -16.23
  -0.00038964  -0.00011030  -0.00064159          -57.32      -16.23      -94.38

     kinetic stress (kbar)  15439.41   -183.53   -111.78
                             -183.53  16035.45    -31.63
                             -111.78    -31.63  16067.62

     local   stress (kbar)  13587.14   8648.74   5261.55
                             8648.74 -14513.32   1488.97
                             5261.55   1488.97 -16052.99

     nonloc. stress (kbar)   7233.81    -31.69    -20.30
                              -31.69   7334.59     -5.44
                              -20.30     -5.44   7338.31

     hartree stress (kbar)   1069.44  -3889.30  -2365.95
                            -3889.30  13706.29   -669.59
                            -2365.95   -669.59  14398.93

     exc-cor stress (kbar)  -3384.62     -2.08     -1.27
                               -2.08  -3377.87     -0.36
                               -1.27     -0.36  -3377.50

     corecor stress (kbar)  -1108.37      0.53      0.32
                                0.53  -1110.09      0.09
                                0.32      0.09  -1110.18

     ewald   stress (kbar) -33250.77  -4636.32  -2819.89
                            -4636.32 -18185.53   -798.27
                            -2819.89   -798.27 -17358.57

     hubbard stress (kbar)      0.00      0.00      0.00
                                0.00      0.00      0.00
                                0.00      0.00      0.00

     DFT-D   stress (kbar)      0.00      0.00      0.00
                                0.00      0.00      0.00
                                0.00      0.00      0.00

     XDM     stress (kbar)      0.00      0.00      0.00
                                0.00      0.00      0.00
                                0.00      0.00      0.00

     dft-nl  stress (kbar)      0.00      0.00      0.00
                                0.00      0.00      0.00
                                0.00      0.00      0.00

     TS-vdW  stress (kbar)      0.00      0.00      0.00
                                0.00      0.00      0.00
                                0.00      0.00      0.00

[...]

                                0.00      0.00      0.00

     Writing all to output data dir new_calculations/myprefix.save/

     General routines

     Parallel routines

     PAW routines

   This run was terminated on:  17:36:25  20May2023

   JOB DONE.