     Program PWSCF v.7.0 starts on 21May2023 at 18:15:33

     Reading input from espresso_20772.pwi
Warning: card &CELL ignored
Warning: card / ignored

     Current dimensions of program PWSCF are:
     Max number of different atomic species (ntypx) = 10
     Max number of k-points (npk) =  40000
     Max angular momentum in pseudopotentials (lmaxx) =  4

     gamma-point specific algorithms are used

     Subspace diagonalization in iterative solution of the eigenvalue problem:
     a serial algorithm will be used

     Using Slab Decomposition

     bravais-lattice index     =            0
     lattice parameter (alat)  =      12.7987  a.u.
     unit-cell volume          =    1530.8430 (a.u.)^3
     number of atoms/cell      =           12
     number of atomic types    =            3
     number of electrons       =       103.00
     number of Kohn-Sham states=           62
     kinetic-energy cutoff     =      30.0000  Ry
     charge density cutoff     =     240.0000  Ry
     scf convergence threshold =      1.0E-06
     mixing beta               =       0.7000
     number of iterations used =            8  plain     mixing
     Exchange-correlation=  SLA  PW   PBX  PBC
                           (   1   4   3   4   0   0   0)

     celldm(1)=  12.798693  celldm(2)=   0.000000  celldm(3)=   0.000000
     celldm(4)=   0.000000  celldm(5)=   0.000000  celldm(6)=   0.000000

     crystal axes: (cart. coord. in units of alat)
               a(1) = (   1.000000   0.000000   0.000000 )
               a(2) = (   0.519928   0.880220   0.000000 )
               a(3) = (   0.519584   0.284069   0.829550 )

     reciprocal axes: (cart. coord. in units 2 pi/alat)
               b(1) = (  1.000000 -0.590679 -0.424073 )
               b(2) = (  0.000000  1.136080 -0.389037 )
               b(3) = (  0.000000  0.000000  1.205473 )

     PseudoPot. # 1 for Ta read from file:
     /home/pragov/projects/rrg-bengioy-ad/pragov/crystal_structure_design/SSSP/Ta_pbe_v1.uspp.F.UPF
     MD5 check sum: f8bbe9446314a3b8ea5d9f3e3836c939
     Pseudo is Ultrasoft + core correction, Zval = 13.0
     Generated by new atomic code, or converted to UPF format
     Using radial grid of  921 points,  7 beta functions with:
                l(1) =   0
                l(2) =   0
                l(3) =   1
                l(4) =   1
                l(5) =   2
                l(6) =   2
                l(7) =   3
     Q(r) pseudized with  6 coefficients,  rinner =    1.300   1.300   1.300
                                                       1.300   1.300   1.300
                                                       1.300

     PseudoPot. # 2 for Cr read from file:
     /home/pragov/projects/rrg-bengioy-ad/pragov/crystal_structure_design/SSSP/cr_pbe_v1.5.uspp.F.UPF
     MD5 check sum: 0d52af634a40206e4dee301ad30da4bf
     Pseudo is Ultrasoft + core correction, Zval = 14.0
     Generated by new atomic code, or converted to UPF format
     Using radial grid of  857 points,  6 beta functions with:
                l(1) =   0
                l(2) =   0
                l(3) =   1
                l(4) =   1
                l(5) =   2
                l(6) =   2
     Q(r) pseudized with  8 coefficients,  rinner =    0.950   0.950   0.950
                                                       0.950   0.950

     PseudoPot. # 3 for S  read from file:
     /home/pragov/projects/rrg-bengioy-ad/pragov/crystal_structure_design/SSSP/s_pbe_v1.4.uspp.F.UPF
     MD5 check sum: 88d86576ff6df21479756cfb9bdac1df
     Pseudo is Ultrasoft + core correction, Zval =  6.0
     Generated by new atomic code, or converted to UPF format
     Using radial grid of  907 points,  6 beta functions with:
                l(1) =   0
                l(2) =   0
                l(3) =   1
                l(4) =   1
                l(5) =   2
                l(6) =   2
     Q(r) pseudized with  8 coefficients,  rinner =    1.300   1.300   1.300
                                                       1.300   1.300

     atomic species   valence    mass     pseudopotential
        Ta            13.00   180.94788     Ta( 1.00)
        Cr            14.00    51.99610     Cr( 1.00)
        S              6.00    32.06000     S ( 1.00)

     No symmetry found

                                    s                        frac. trans.

      isym =  1     identity

 cryst.   s( 1) = (     1          0          0      )
                  (     0          1          0      )
                  (     0          0          1      )

 cart.    s( 1) = (  1.0000000 -0.0000000  0.0000000 )
                  (  0.0000000  1.0000000  0.0000000 )
                  (  0.0000000  0.0000000  1.0000000 )

   Cartesian axes

     site n.     atom                  positions (alat units)
         1           Ta  tau(   1) = (   1.5197809   0.5821172   0.4150347  )
         2           Cr  tau(   2) = (   1.0196295   0.5823874   0.4144358  )
         3           Cr  tau(   3) = (   0.7597407   0.4400600   0.0000290  )
         4           Cr  tau(   4) = (   1.2800164   1.0218601   0.4148447  )
         5           S   tau(   5) = (   1.5235771   0.8768226   0.6250428  )
         6           S   tau(   6) = (   0.7759704   0.4295265   0.6194209  )
         7           S   tau(   7) = (   0.7759324   0.7277254   0.2046343  )
         8           S   tau(   8) = (   0.9988352   0.2976262   0.2122993  )
         9           S   tau(   9) = (   1.2636180   0.4366768   0.6249200  )
        10           S   tau(  10) = (   1.0406576   0.8667676   0.6174491  )
        11           S   tau(  11) = (   0.5159997   0.2875427   0.2044318  )
        12           S   tau(  12) = (   1.2634769   0.7346982   0.2099749  )

   Crystallographic axes

     site n.     atom                  positions (cryst. coord.)
         1           Ta  tau(   1) = (  0.9999310  0.4998680  0.5003130  )
         2           Cr  tau(   2) = (  0.4998740  0.5004080  0.4995910  )
         3           Cr  tau(   3) = (  0.4997940  0.4999320  0.0000350  )
         4           Cr  tau(   4) = (  0.5005000  0.9995250  0.5000840  )
         5           S   tau(   5) = (  0.7405920  0.7529760  0.7534720  )
         6           S   tau(   6) = (  0.2595780  0.2469990  0.7466950  )
         7           S   tau(   7) = (  0.2593000  0.7471440  0.2466810  )
         8           S   tau(   8) = (  0.7330030  0.2555350  0.2559210  )
         9           S   tau(   9) = (  0.7406700  0.2529830  0.7533240  )
        10           S   tau(  10) = (  0.2668320  0.7445070  0.7443180  )
        11           S   tau(  11) = (  0.2594600  0.2471400  0.2464370  )
        12           S   tau(  12) = (  0.7404610  0.7529880  0.2531190  )

     number of k points=     1  Methfessel-Paxton smearing, width (Ry)=  0.0010
                       cart. coord. in units 2pi/alat
        k(    1) = (   0.0000000   0.0000000   0.0000000), wk =   2.0000000

                       cryst. coord.
        k(    1) = (   0.0000000   0.0000000   0.0000000), wk =   2.0000000

     Check: negative core charge=   -0.000005

     Initial potential from superposition of free atoms

     starting charge      99.9985, renormalised to     103.0000

     negative rho (up, down):  1.024E-01 0.000E+00
     Starting wfcs are   75 randomized atomic wfcs

     Self-consistent Calculation

     iteration #  1     ecut=    30.00 Ry     beta= 0.70
     Davidson diagonalization with overlap

     ethr =  1.00E-02,  avg # of iterations =  2.0

     negative rho (up, down):  1.009E-01 0.000E+00

     total energy              =    -859.47425642 Ry
     estimated scf accuracy    <       2.86529824 Ry

[...]

     ethr =  6.93E-05,  avg # of iterations =  7.0
     Minimization algorithm failed to find Fermi energy: reverting to bisection
     Possible cause: smearing is larger than the electronic band-gap.

[...]

     ethr =  1.65E-07,  avg # of iterations =  2.0
     Minimization algorithm failed to find Fermi energy: reverting to bisection
     Possible cause: smearing is larger than the electronic band-gap.

[...]

     total energy              =    -861.12490094 Ry
     estimated scf accuracy    <       0.00002009 Ry

     iteration # 71     ecut=    30.00 Ry     beta= 0.70
     Davidson diagonalization with overlap

     ethr =  1.91E-09,  avg # of iterations =  1.0

[...]

     End of self-consistent calculation

          k = 0.0000 0.0000 0.0000 (  2114 PWs)   bands (ev):

   -63.7284 -63.7267 -63.7251 -60.2392 -35.2933 -35.2806 -35.2782 -34.9447
   -34.9360 -34.9309 -34.9294 -34.9159 -34.9036 -26.8832 -26.6438 -26.6377
    -5.8499  -4.1175  -3.9838  -3.9683  -3.9195  -3.9189  -3.9056  -3.7606
     2.3538   2.4485   2.4761   2.4826   3.6329   3.6350   3.7689   4.8532
     4.8545   5.1157   5.1289   5.4275   5.8435   5.8448   5.8960   6.2932
     6.3405   6.3519   6.5603   6.5710   6.7018   7.2047   7.2069   7.8413
     8.1800   8.1827   8.1839   8.1852   8.2891   8.3179   8.4147   8.4707
     8.4830   9.7511   9.8467   9.8600  11.1501  11.1581

     occupation numbers
     1.0000   1.0000   1.0000   1.0000   1.0000   1.0000   1.0000   1.0000
     1.0000   1.0000   1.0000   1.0000   1.0000   1.0000   1.0000   1.0000
     1.0000   1.0000   1.0000   1.0000   1.0000   1.0000   1.0000   1.0000
     1.0000   1.0000   1.0000   1.0000   1.0000   1.0000   1.0000   1.0000
     1.0000   1.0000   1.0000   1.0000   1.0000   1.0000   1.0000   1.0000
     1.0000   1.0000   1.0000   1.0000   1.0000   1.0000   1.0000   1.0000
     0.9744   0.8944   0.8453   0.7858  -0.0000  -0.0000  -0.0000  -0.0000
    -0.0000  -0.0000  -0.0000  -0.0000  -0.0000  -0.0000

     the Fermi energy is     8.1902 ev

!    total energy              =    -861.12490082 Ry
     estimated scf accuracy    <       0.00000062 Ry
     smearing contrib. (-TS)   =      -0.00038256 Ry
     internal energy E=F+TS    =    -861.12451827 Ry

     The total energy is F=E-TS. E is the sum of the following terms:
     one-electron contribution =    -482.64303215 Ry
     hartree contribution      =     277.26795832 Ry
     xc contribution           =    -176.74558573 Ry
     ewald contribution        =    -479.00385871 Ry

     convergence has been achieved in  71 iterations

     negative rho (up, down):  1.010E-01 0.000E+00

     Forces acting on atoms (cartesian axes, Ry/au):

     atom    1 type  1   force =    -0.00010920   -0.00164603    0.00207153
     atom    2 type  2   force =    -0.00634465   -0.00162644   -0.00000975
     atom    3 type  2   force =    -0.00467479   -0.00509337    0.00270115
     atom    4 type  2   force =     0.00159199   -0.01154285    0.00097090
     atom    5 type  3   force =    -0.00997327    0.00689554    0.00241083
     atom    6 type  3   force =     0.01137094   -0.00219068   -0.00768521
     atom    7 type  3   force =     0.01130328   -0.00220598   -0.00492104
     atom    8 type  3   force =    -0.00859868    0.00585435    0.00399396
     atom    9 type  3   force =    -0.00741873    0.00779871    0.00405374
     atom   10 type  3   force =     0.00886227   -0.00364788   -0.00392785
     atom   11 type  3   force =     0.01273352   -0.00075197   -0.00540747
     atom   12 type  3   force =    -0.00874267    0.00815661    0.00574922
     The non-local contrib.  to forces
     atom    1 type  1   force =    -0.00143243   -0.00215316    0.00018419
     atom    2 type  2   force =     0.00214374    0.00128933    0.00178954
     atom    3 type  2   force =     0.00317097    0.00371323   -0.00047392
     atom    4 type  2   force =    -0.00049830    0.00273381   -0.00214084
     atom    5 type  3   force =    -0.17877333   -0.08507032   -0.05689921
     atom    6 type  3   force =     0.01805797   -0.00109681   -0.19880382
     atom    7 type  3   force =     0.01212673   -0.20503306    0.05926994
     atom    8 type  3   force =    -0.13960976    0.08178897    0.05839822
     atom    9 type  3   force =    -0.01518580    0.19417345   -0.05962247
     atom   10 type  3   force =     0.13881560   -0.08351615   -0.05914914
     atom   11 type  3   force =     0.17421026    0.07906315    0.05726115
     atom   12 type  3   force =    -0.01139976    0.01324050    0.20123117
     The ionic contribution  to forces
     atom    1 type  1   force =     0.00820949   -0.03075081    0.00029174
     atom    2 type  2   force =     0.00618740   -0.00313506    0.01361207
     atom    3 type  2   force =    -0.00872203   -0.00993437    0.00953214
     atom    4 type  2   force =     0.00083316    0.05950491   -0.02329973
     atom    5 type  3   force =     9.27970471    4.60028507    3.25938404
     atom    6 type  3   force =    -0.43641251    0.19435433   10.82675830
     atom    7 type  3   force =    -0.46297189   10.36514422   -3.27159923
     atom    8 type  3   force =     9.19537705   -5.48260462   -3.87381394
     atom    9 type  3   force =     0.42955205  -10.36532778    3.25157045
     atom   10 type  3   force =    -9.20493587    5.49029841    3.86674300
     atom   11 type  3   force =    -9.26760902   -4.60828920   -3.21587990
     atom   12 type  3   force =     0.46078747   -0.20954509  -10.84329896
     The local contribution  to forces
     atom    1 type  1   force =    -0.00559247    0.03175501    0.00105115
     atom    2 type  2   force =    -0.01551918    0.00014081   -0.01569554
     atom    3 type  2   force =     0.00119881    0.00179519   -0.00584116
     atom    4 type  2   force =     0.00143272   -0.07343359    0.02628398
     atom    5 type  3   force =    -9.12072823   -4.51238807   -3.20263299
     atom    6 type  3   force =     0.43109743   -0.19583825  -10.64596353
     atom    7 type  3   force =     0.46319293  -10.17316219    3.21000947
     atom    8 type  3   force =    -9.07197887    5.41109439    3.82235897
     atom    9 type  3   force =    -0.42301772   10.18934513   -3.19055178
     atom   10 type  3   force =     9.08252732   -5.41485919   -3.81450603
     atom   11 type  3   force =     9.11573170    4.53232304    3.15588553
     atom   12 type  3   force =    -0.45914076    0.20559740   10.65831270
     The core correction contribution to forces
     atom    1 type  1   force =    -0.00030095   -0.00054059    0.00020557
     atom    2 type  2   force =    -0.00008765   -0.00008553   -0.00006254
     atom    3 type  2   force =    -0.00022475   -0.00034941    0.00003150
     atom    4 type  2   force =    -0.00005707   -0.00028843    0.00017481
     atom    5 type  3   force =     0.00958237    0.00403601    0.00267961
     atom    6 type  3   force =    -0.00142739    0.00035034    0.01029470
     atom    7 type  3   force =    -0.00109811    0.01074820   -0.00279268
     atom    8 type  3   force =     0.00736899   -0.00431201   -0.00307737
     atom    9 type  3   force =     0.00129080   -0.01012860    0.00281929
     atom   10 type  3   force =    -0.00731953    0.00441284    0.00312861
     atom   11 type  3   force =    -0.00932666   -0.00368477   -0.00272700
     atom   12 type  3   force =     0.00104623   -0.00100793   -0.01043020
     The Hubbard contrib.    to forces
     atom    1 type  1   force =     0.00000000    0.00000000    0.00000000
     atom    2 type  2   force =     0.00000000    0.00000000    0.00000000
     atom    3 type  2   force =     0.00000000    0.00000000    0.00000000
     atom    4 type  2   force =     0.00000000    0.00000000    0.00000000
     atom    5 type  3   force =     0.00000000    0.00000000    0.00000000
     atom    6 type  3   force =     0.00000000    0.00000000    0.00000000
     atom    7 type  3   force =     0.00000000    0.00000000    0.00000000
     atom    8 type  3   force =     0.00000000    0.00000000    0.00000000
     atom    9 type  3   force =     0.00000000    0.00000000    0.00000000
     atom   10 type  3   force =     0.00000000    0.00000000    0.00000000
     atom   11 type  3   force =     0.00000000    0.00000000    0.00000000
     atom   12 type  3   force =     0.00000000    0.00000000    0.00000000
     The SCF correction term to forces
     atom    1 type  1   force =    -0.00097840    0.00004331    0.00033473
     atom    2 type  2   force =     0.00094548    0.00016380    0.00034257
     atom    3 type  2   force =    -0.00008335   -0.00031822   -0.00055155
     atom    4 type  2   force =    -0.00010408   -0.00005977   -0.00005148
     atom    5 type  3   force =     0.00025566    0.00003263   -0.00012478
     atom    6 type  3   force =     0.00006987    0.00003951    0.00002500
     atom    7 type  3   force =     0.00006806    0.00009663    0.00018732
     atom    8 type  3   force =     0.00025836   -0.00011260    0.00012393
     atom    9 type  3   force =    -0.00004360   -0.00026370   -0.00016590
     atom   10 type  3   force =    -0.00021081    0.00001600   -0.00014843
     atom   11 type  3   force =    -0.00025831   -0.00016441    0.00004861
     atom   12 type  3   force =    -0.00002140   -0.00012847   -0.00006964

     Total force =     0.038422     Total SCF correction =     0.001748

     Computing stress (Cartesian axis) and pressure

     negative rho (up, down):  1.010E-01 0.000E+00
          total   stress  (Ry/bohr**3)                   (kbar)     P=      -59.17
  -0.00054443   0.00013100   0.00010228          -80.09       19.27       15.05
   0.00013100  -0.00029768  -0.00009343           19.27      -43.79      -13.74
   0.00010228  -0.00009343  -0.00036462           15.05      -13.74      -53.64

     kinetic stress (kbar)  13904.71    122.44     84.68
                              122.44  14081.96    -68.31
                               84.68    -68.31  14067.07

     local   stress (kbar)  -5676.71  -2004.10  -1411.70
                            -2004.10  -7869.06    858.65
                            -1411.70    858.65  -8423.51

     nonloc. stress (kbar)   3761.57     40.82     28.80
                               40.82   3821.23    -22.57
                               28.80    -22.57   3816.54

     hartree stress (kbar)   8160.40    883.16    625.93
                              883.16   9104.77   -367.62
                              625.93   -367.62   9378.66

     exc-cor stress (kbar)   2417.88      1.93      1.29
                                1.93   2420.37     -1.01
                                1.29     -1.01   2420.41

     corecor stress (kbar)  -6506.81     -5.15     -3.52
                               -5.15  -6513.88      2.74
                               -3.52      2.74  -6513.65

     ewald   stress (kbar) -16141.14    980.17    689.56
                              980.17 -15089.18   -415.62
                              689.56   -415.62 -14799.15

     hubbard stress (kbar)      0.00      0.00      0.00
                                0.00      0.00      0.00
                                0.00      0.00      0.00

     DFT-D   stress (kbar)      0.00      0.00      0.00
                                0.00      0.00      0.00
                                0.00      0.00      0.00

     XDM     stress (kbar)      0.00      0.00      0.00
                                0.00      0.00      0.00
                                0.00      0.00      0.00

     dft-nl  stress (kbar)      0.00      0.00      0.00
                                0.00      0.00      0.00
                                0.00      0.00      0.00

     TS-vdW  stress (kbar)      0.00      0.00      0.00
                                0.00      0.00      0.00
                                0.00      0.00      0.00

[...]

                                0.00      0.00      0.00

     Writing all to output data dir new_calculations/myprefix.save/

     General routines

     Parallel routines

   This run was terminated on:  18:16:50  21May2023

   JOB DONE.