     Program PWSCF v.7.0 starts on 20May2023 at 11:25:24

     Reading input from espresso_5378.pwi
Warning: card &CELL ignored
Warning: card / ignored

     Current dimensions of program PWSCF are:
     Max number of different atomic species (ntypx) = 10
     Max number of k-points (npk) =  40000
     Max angular momentum in pseudopotentials (lmaxx) =  4

     gamma-point specific algorithms are used
     Message from routine setup:
     using ibrav=0 with symmetry is DISCOURAGED, use correct ibrav instead

     Subspace diagonalization in iterative solution of the eigenvalue problem:
     a serial algorithm will be used

     Using Slab Decomposition

     bravais-lattice index     =            0
     lattice parameter (alat)  =      14.9817  a.u.
     unit-cell volume          =    2089.7437 (a.u.)^3
     number of atoms/cell      =           13
     number of atomic types    =            3
     number of electrons       =       110.00
     number of Kohn-Sham states=           66
     kinetic-energy cutoff     =      30.0000  Ry
     charge density cutoff     =     240.0000  Ry
     scf convergence threshold =      1.0E-06
     mixing beta               =       0.7000
     number of iterations used =            8  plain     mixing
     Exchange-correlation=  SLA  PW   PBX  PBC
                           (   1   4   3   4   0   0   0)

     celldm(1)=  14.981695  celldm(2)=   0.000000  celldm(3)=   0.000000
     celldm(4)=   0.000000  celldm(5)=   0.000000  celldm(6)=   0.000000

     crystal axes: (cart. coord. in units of alat)
               a(1) = (   1.000000   0.000000   0.000000 )
               a(2) = (   0.576458   0.817127   0.000000 )
               a(3) = (   0.576458   0.298796   0.760538 )

     reciprocal axes: (cart. coord. in units 2 pi/alat)
               b(1) = (  1.000000 -0.705469 -0.480800 )
               b(2) = (  0.000000  1.223800 -0.480800 )
               b(3) = (  0.000000  0.000000  1.314859 )

     PseudoPot. # 1 for Na read from file:
     /home/pragov/projects/rrg-bengioy-ad/pragov/crystal_structure_design/SSSP/na_pbe_v1.5.uspp.F.UPF
     MD5 check sum: 44600605ef58000f06b90626533354dc
     Pseudo is Ultrasoft, Zval =  9.0
     Generated by new atomic code, or converted to UPF format
     Using radial grid of  819 points,  5 beta functions with:
                l(1) =   0
                l(2) =   0
                l(3) =   1
                l(4) =   1
                l(5) =   2
     Q(r) pseudized with  8 coefficients,  rinner =    1.250   1.250   1.250
                                                       1.250   1.250

     PseudoPot. # 2 for Ti read from file:
     /home/pragov/projects/rrg-bengioy-ad/pragov/crystal_structure_design/SSSP/ti_pbe_v1.4.uspp.F.UPF
     MD5 check sum: 88a00a6731bd790ddea75d31a80cb452
     Pseudo is Ultrasoft + core correction, Zval = 12.0
     Generated by new atomic code, or converted to UPF format
     Using radial grid of  851 points,  6 beta functions with:
                l(1) =   0
                l(2) =   0
                l(3) =   1
                l(4) =   1
                l(5) =   2
                l(6) =   2
     Q(r) pseudized with  6 coefficients,  rinner =    1.000   1.000   1.000
                                                       1.000   1.000

     PseudoPot. # 3 for Cl read from file:
     /home/pragov/projects/rrg-bengioy-ad/pragov/crystal_structure_design/SSSP/cl_pbe_v1.4.uspp.F.UPF
     MD5 check sum: fc6f6913ecf08c9257cb748ef0700058
     Pseudo is Ultrasoft + core correction, Zval =  7.0
     Generated by new atomic code, or converted to UPF format
     Using radial grid of  909 points,  6 beta functions with:
                l(1) =   0
                l(2) =   0
                l(3) =   1
                l(4) =   1
                l(5) =   2
                l(6) =   2
     Q(r) pseudized with  8 coefficients,  rinner =    1.300   1.300   1.300
                                                       1.300   1.300

     atomic species   valence    mass     pseudopotential
        Na             9.00    22.98977     Na( 1.00)
        Ti            12.00    47.86700     Ti( 1.00)
        Cl             7.00    35.45000     Cl( 1.00)

      2 Sym. Ops., with inversion, found

                                    s                        frac. trans.

      isym =  1     identity

 cryst.   s( 1) = (     1          0          0      )
                  (     0          1          0      )
                  (     0          0          1      )

 cart.    s( 1) = (  1.0000000 -0.0000000  0.0000000 )
                  (  0.0000000  1.0000000  0.0000000 )
                  (  0.0000000  0.0000000  1.0000000 )

      isym =  2     inversion

 cryst.   s( 2) = (    -1          0          0      )
                  (     0         -1          0      )
                  (     0          0         -1      )

 cart.    s( 2) = ( -1.0000000  0.0000000 -0.0000000 )
                  (  0.0000000 -1.0000000 -0.0000000 )
                  (  0.0000000  0.0000000 -1.0000000 )

   Cartesian axes

     site n.     atom                  positions (alat units)
         1           Na  tau(   1) = (   0.3415816   0.1770523   0.1206669  )
         2           Na  tau(   2) = (   1.8113340   0.9388705   0.6398707  )
         3           Ti  tau(   3) = (   0.7882289   0.4085635   0.0000000  )
         4           Ti  tau(   4) = (   0.7882289   0.1493980   0.3802688  )
         5           Ti  tau(   5) = (   1.5764578   0.5579614   0.3802688  )
         6           Cl  tau(   6) = (   0.8721763   0.4520760   0.3081044  )
         7           Cl  tau(   7) = (   1.2807394   0.6638469   0.4524331  )
         8           Cl  tau(   8) = (   0.6949621   0.1125375   0.0766979  )
         9           Cl  tau(   9) = (   0.4925737   0.2553162   0.4401185  )
        10           Cl  tau(  10) = (   0.4925737   0.5029991   0.0766979  )
        11           Cl  tau(  11) = (   1.6603419   0.6129237   0.6838396  )
        12           Cl  tau(  12) = (   1.4579535   1.0033854   0.6838396  )
        13           Cl  tau(  13) = (   1.6603419   0.8606066   0.3204190  )

   Crystallographic axes

     site n.     atom                  positions (cryst. coord.)
         1           Na  tau(   1) = (  0.1586600  0.1586600  0.1586600  )
         2           Na  tau(   2) = (  0.8413400  0.8413400  0.8413400  )
         3           Ti  tau(   3) = (  0.5000000  0.5000000  0.0000000  )
         4           Ti  tau(   4) = (  0.5000000 -0.0000000  0.5000000  )
         5           Ti  tau(   5) = (  1.0000000  0.5000000  0.5000000  )
         6           Cl  tau(   6) = (  0.4051140  0.4051140  0.4051140  )
         7           Cl  tau(   7) = (  0.5948860  0.5948860  0.5948860  )
         8           Cl  tau(   8) = (  0.5786940  0.1008470  0.1008470  )
         9           Cl  tau(   9) = (  0.1008470  0.1008470  0.5786940  )
        10           Cl  tau(  10) = (  0.1008470  0.5786940  0.1008470  )
        11           Cl  tau(  11) = (  0.8991530  0.4213060  0.8991530  )
        12           Cl  tau(  12) = (  0.4213060  0.8991530  0.8991530  )
        13           Cl  tau(  13) = (  0.8991530  0.8991530  0.4213060  )

     number of k points=     1  Methfessel-Paxton smearing, width (Ry)=  0.0010
                       cart. coord. in units 2pi/alat
        k(    1) = (   0.0000000   0.0000000   0.0000000), wk =   2.0000000

                       cryst. coord.
        k(    1) = (   0.0000000   0.0000000   0.0000000), wk =   2.0000000

     Check: negative core charge=   -0.000003

     Initial potential from superposition of free atoms

     starting charge     106.9872, renormalised to     110.0000

     negative rho (up, down):  1.283E-01 0.000E+00
     Starting wfcs are   72 randomized atomic wfcs

     Self-consistent Calculation

     iteration #  1     ecut=    30.00 Ry     beta= 0.70
     Davidson diagonalization with overlap

     ethr =  1.00E-02,  avg # of iterations =  2.0

     negative rho (up, down):  1.198E-01 0.000E+00

     total energy              =    -813.66194276 Ry
     estimated scf accuracy    <       3.82820493 Ry

[...]

     total energy              =    -816.12032501 Ry
     estimated scf accuracy    <       0.00000737 Ry

     iteration # 14     ecut=    30.00 Ry     beta= 0.70
     Davidson diagonalization with overlap

     ethr =  6.70E-09,  avg # of iterations =  5.0

[...]

     End of self-consistent calculation

          k = 0.0000 0.0000 0.0000 (  2889 PWs)   bands (ev):

   -51.7676 -51.7641 -51.7640 -47.1086 -47.1084 -28.2277 -28.1937 -28.1933
   -28.1417 -28.1417 -28.1226 -27.7848 -27.7576 -27.7574 -19.0253 -19.0253
   -19.0181 -19.0181 -19.0058 -18.9997 -11.1785 -10.6534 -10.5837 -10.5834
   -10.5525 -10.4888 -10.4861 -10.4858  -0.8175  -0.5953  -0.5952  -0.1844
    -0.1763  -0.0148  -0.0148   0.5047   0.5049   0.8671   0.9934   1.1504
     1.1505   1.1582   1.1583   1.2969   1.4058   1.6155   1.6156   1.8675
     1.9151   1.9153   2.1902   2.1903   5.7914   5.7914   5.8485   6.4493
     6.4495   6.5839   6.9768   7.0680   7.0682   7.6662   7.6663   7.8300
     7.9565   7.9781

     occupation numbers
     1.0000   1.0000   1.0000   1.0000   1.0000   1.0000   1.0000   1.0000
     1.0000   1.0000   1.0000   1.0000   1.0000   1.0000   1.0000   1.0000
     1.0000   1.0000   1.0000   1.0000   1.0000   1.0000   1.0000   1.0000
     1.0000   1.0000   1.0000   1.0000   1.0000   1.0000   1.0000   1.0000
     1.0000   1.0000   1.0000   1.0000   1.0000   1.0000   1.0000   1.0000
     1.0000   1.0000   1.0000   1.0000   1.0000   1.0000   1.0000   1.0000
     1.0000   1.0000   1.0000   1.0000   1.0000   1.0000   1.0000  -0.0000
    -0.0000  -0.0000  -0.0000  -0.0000  -0.0000  -0.0000  -0.0000  -0.0000
    -0.0000  -0.0000

     the Fermi energy is     6.2386 ev

!    total energy              =    -816.12032590 Ry
     estimated scf accuracy    <       0.00000043 Ry
     smearing contrib. (-TS)   =       0.00000000 Ry
     internal energy E=F+TS    =    -816.12032590 Ry

     The total energy is F=E-TS. E is the sum of the following terms:
     one-electron contribution =    -473.36323344 Ry
     hartree contribution      =     267.56982523 Ry
     xc contribution           =    -158.70644004 Ry
     ewald contribution        =    -451.62047765 Ry

     convergence has been achieved in  14 iterations

     negative rho (up, down):  1.205E-01 0.000E+00

     Forces acting on atoms (cartesian axes, Ry/au):

     atom    1 type  1   force =     0.00221355    0.00114021    0.00078451
     atom    2 type  1   force =    -0.00221355   -0.00114021   -0.00078451
     atom    3 type  2   force =     0.00000000    0.00000000    0.00000000
     atom    4 type  2   force =     0.00000000    0.00000000    0.00000000
     atom    5 type  2   force =     0.00000000    0.00000000    0.00000000
     atom    6 type  3   force =    -0.00495611   -0.00255608   -0.00173101
     atom    7 type  3   force =     0.00495611    0.00255608    0.00173101
     atom    8 type  3   force =     0.00819277    0.00785717    0.00539283
     atom    9 type  3   force =     0.01122332    0.00587432    0.00003917
     atom   10 type  3   force =     0.01117709    0.00218499    0.00544154
     atom   11 type  3   force =    -0.01117709   -0.00218499   -0.00544154
     atom   12 type  3   force =    -0.00819277   -0.00785717   -0.00539283
     atom   13 type  3   force =    -0.01122332   -0.00587432   -0.00003917
     The non-local contrib.  to forces
     atom    1 type  1   force =     0.00135267    0.00074534    0.00046690
     atom    2 type  1   force =    -0.00135267   -0.00074534   -0.00046690
     atom    3 type  2   force =     0.00000000    0.00000000    0.00000000
     atom    4 type  2   force =     0.00000000    0.00000000    0.00000000
     atom    5 type  2   force =     0.00000000    0.00000000    0.00000000
     atom    6 type  3   force =    -0.20411331   -0.10575866   -0.07202334
     atom    7 type  3   force =     0.20411331    0.10575866    0.07202334
     atom    8 type  3   force =     0.02948197    0.10384711    0.07074868
     atom    9 type  3   force =     0.10184590    0.05283049   -0.05913685
     atom   10 type  3   force =     0.10185090   -0.03577569    0.07078325
     atom   11 type  3   force =    -0.10185090    0.03577569   -0.07078325
     atom   12 type  3   force =    -0.02948197   -0.10384711   -0.07074868
     atom   13 type  3   force =    -0.10184590   -0.05283049    0.05913685
     The ionic contribution  to forces
     atom    1 type  1   force =    -1.47070646   -0.76231272   -0.51954106
     atom    2 type  1   force =     1.47070646    0.76231272    0.51954106
     atom    3 type  2   force =    -0.00000000    0.00000000   -0.00000000
     atom    4 type  2   force =    -0.00000000    0.00000000    0.00000000
     atom    5 type  2   force =     0.00000000    0.00000000    0.00000000
     atom    6 type  3   force =     9.27465202    4.80733944    3.27635758
     atom    7 type  3   force =    -9.27465202   -4.80733944   -3.27635758
     atom    8 type  3   force =    -2.09057966   -5.39144282   -3.67444276
     atom    9 type  3   force =    -5.61062357   -2.90816000    2.64635822
     atom   10 type  3   force =    -5.61062401    1.39967040   -3.67444276
     atom   11 type  3   force =     5.61062401   -1.39967040    3.67444276
     atom   12 type  3   force =     2.09057966    5.39144282    3.67444276
     atom   13 type  3   force =     5.61062357    2.90816000   -2.64635822
     The local contribution  to forces
     atom    1 type  1   force =     1.47150154    0.76270527    0.51976312
     atom    2 type  1   force =    -1.47149970   -0.76269555   -0.51974450
     atom    3 type  2   force =     0.00005432    0.00001930   -0.00006565
     atom    4 type  2   force =    -0.00000514    0.00001133    0.00007103
     atom    5 type  2   force =     0.00002451    0.00002883    0.00008734
     atom    6 type  3   force =    -9.08073772   -4.70703424   -3.20820140
     atom    7 type  3   force =     9.08073192    4.70703215    3.20822535
     atom    8 type  3   force =     2.07024970    5.29812898    3.61072014
     atom    9 type  3   force =     5.52251652    2.86234940   -2.58840086
     atom   10 type  3   force =     5.52268299   -1.36248349    3.61056190
     atom   11 type  3   force =    -5.52268664    1.36249736   -3.61059075
     atom   12 type  3   force =    -2.07026317   -5.29814010   -3.61074589
     atom   13 type  3   force =    -5.52253067   -2.86236906    2.58844483
     The core correction contribution to forces
     atom    1 type  1   force =     0.00000000    0.00000000    0.00000000
     atom    2 type  1   force =     0.00000000    0.00000000    0.00000000
     atom    3 type  2   force =     0.00000168    0.00000009   -0.00000040
     atom    4 type  2   force =    -0.00000051    0.00000303    0.00000070
     atom    5 type  2   force =     0.00000125    0.00000025    0.00000171
     atom    6 type  3   force =     0.00536912    0.00277895    0.00189022
     atom    7 type  3   force =    -0.00536939   -0.00278047   -0.00188985
     atom    8 type  3   force =    -0.00082966   -0.00253442   -0.00172577
     atom    9 type  3   force =    -0.00254867   -0.00132465    0.00135803
     atom   10 type  3   force =    -0.00254863    0.00078207   -0.00172786
     atom   11 type  3   force =     0.00254966   -0.00078322    0.00172758
     atom   12 type  3   force =     0.00083038    0.00253323    0.00172651
     atom   13 type  3   force =     0.00254861    0.00132340   -0.00135793
     The Hubbard contrib.    to forces
     atom    1 type  1   force =     0.00000000    0.00000000    0.00000000
     atom    2 type  1   force =     0.00000000    0.00000000    0.00000000
     atom    3 type  2   force =     0.00000000    0.00000000    0.00000000
     atom    4 type  2   force =     0.00000000    0.00000000    0.00000000
     atom    5 type  2   force =     0.00000000    0.00000000    0.00000000
     atom    6 type  3   force =     0.00000000    0.00000000    0.00000000
     atom    7 type  3   force =     0.00000000    0.00000000    0.00000000
     atom    8 type  3   force =     0.00000000    0.00000000    0.00000000
     atom    9 type  3   force =     0.00000000    0.00000000    0.00000000
     atom   10 type  3   force =     0.00000000    0.00000000    0.00000000
     atom   11 type  3   force =     0.00000000    0.00000000    0.00000000
     atom   12 type  3   force =     0.00000000    0.00000000    0.00000000
     atom   13 type  3   force =     0.00000000    0.00000000    0.00000000
     The SCF correction term to forces
     atom    1 type  1   force =     0.00007710    0.00001067    0.00011518
     atom    2 type  1   force =    -0.00005633   -0.00000367   -0.00009453
     atom    3 type  2   force =    -0.00004998   -0.00003125    0.00007516
     atom    4 type  2   force =     0.00000211   -0.00000213   -0.00007948
     atom    5 type  2   force =    -0.00001848   -0.00003240   -0.00008405
     atom    6 type  3   force =    -0.00013483    0.00011034    0.00024492
     atom    7 type  3   force =     0.00012367   -0.00012292   -0.00027126
     atom    8 type  3   force =    -0.00013424   -0.00014178    0.00009313
     atom    9 type  3   force =     0.00003557    0.00017528   -0.00013942
     atom   10 type  3   force =    -0.00018192   -0.00000840    0.00026897
     atom   11 type  3   force =     0.00018903   -0.00000451   -0.00023591
     atom   12 type  3   force =     0.00013767    0.00015388   -0.00006694
     atom   13 type  3   force =    -0.00001650   -0.00016195    0.00009525

     Total force =     0.032207     Total SCF correction =     0.000792

     Computing stress (Cartesian axis) and pressure

     negative rho (up, down):  1.205E-01 0.000E+00
          total   stress  (Ry/bohr**3)                   (kbar)     P=      -38.82
  -0.00022815   0.00003454   0.00002364          -33.56        5.08        3.48
   0.00003454  -0.00027687   0.00001231            5.08      -40.73        1.81
   0.00002364   0.00001231  -0.00028670            3.48        1.81      -42.17

     kinetic stress (kbar)   9433.67     37.26     25.37
                               37.26   9381.10     13.15
                               25.37     13.15   9370.78

     local   stress (kbar)   1438.38   2923.79   1992.75
                             2923.79  -2686.87   1032.95
                             1992.75   1032.95  -3498.65

     nonloc. stress (kbar)   -446.95      1.46      0.98
                                1.46   -449.00      0.51
                                0.98      0.51   -449.39

     hartree stress (kbar)   4905.44  -1328.90   -905.74
                            -1328.90   6780.41   -469.51
                             -905.74   -469.51   7149.42

     exc-cor stress (kbar)   -194.11      0.57      0.39
                                0.57   -194.92      0.20
                                0.39      0.20   -195.08

     corecor stress (kbar)  -2890.08     -0.27     -0.18
                               -0.27  -2889.70     -0.09
                               -0.18     -0.09  -2889.63

     ewald   stress (kbar) -12279.92  -1628.83  -1110.10
                            -1628.83  -9981.75   -575.40
                            -1110.10   -575.40  -9529.63

     hubbard stress (kbar)      0.00      0.00      0.00
                                0.00      0.00      0.00
                                0.00      0.00      0.00

     DFT-D   stress (kbar)      0.00      0.00      0.00
                                0.00      0.00      0.00
                                0.00      0.00      0.00

     XDM     stress (kbar)      0.00      0.00      0.00
                                0.00      0.00      0.00
                                0.00      0.00      0.00

     dft-nl  stress (kbar)      0.00      0.00      0.00
                                0.00      0.00      0.00
                                0.00      0.00      0.00

     TS-vdW  stress (kbar)      0.00      0.00      0.00
                                0.00      0.00      0.00
                                0.00      0.00      0.00

[...]

                                0.00      0.00      0.00

     Writing all to output data dir new_calculations/myprefix.save/

     General routines

     Parallel routines

   This run was terminated on:  11:25:57  20May2023

   JOB DONE.