     Program PWSCF v.7.0 starts on 21May2023 at  3: 1:46

     Reading input from espresso_3994.pwi
Warning: card &CELL ignored
Warning: card / ignored

     Current dimensions of program PWSCF are:
     Max number of different atomic species (ntypx) = 10
     Max number of k-points (npk) =  40000
     Max angular momentum in pseudopotentials (lmaxx) =  4
     file Al.pbe-n-kjpaw_psl.1.0.0.UPF: wavefunction(s)  3S 3P renormalized

     gamma-point specific algorithms are used
     Message from routine setup:
     using ibrav=0 with symmetry is DISCOURAGED, use correct ibrav instead

     Subspace diagonalization in iterative solution of the eigenvalue problem:
     a serial algorithm will be used

     Using Slab Decomposition

     bravais-lattice index     =            0
     lattice parameter (alat)  =      13.7577  a.u.
     unit-cell volume          =     649.8531 (a.u.)^3
     number of atoms/cell      =            6
     number of atomic types    =            3
     number of electrons       =        69.00
     number of Kohn-Sham states=           42
     kinetic-energy cutoff     =      30.0000  Ry
     charge density cutoff     =     240.0000  Ry
     scf convergence threshold =      1.0E-06
     mixing beta               =       0.7000
     number of iterations used =            8  plain     mixing
     Exchange-correlation=  SLA  PW   PBX  PBC
                           (   1   4   3   4   0   0   0)

     celldm(1)=  13.757723  celldm(2)=   0.000000  celldm(3)=   0.000000
     celldm(4)=   0.000000  celldm(5)=   0.000000  celldm(6)=   0.000000

     crystal axes: (cart. coord. in units of alat)
               a(1) = (   1.000000   0.000000   0.000000 )
               a(2) = (  -0.870974   0.491329   0.000000 )
               a(3) = (   0.000000   0.000000   0.507930 )

     reciprocal axes: (cart. coord. in units 2 pi/alat)
               b(1) = (  1.000000  1.772692  0.000000 )
               b(2) = (  0.000000  2.035298  0.000000 )
               b(3) = (  0.000000  0.000000  1.968776 )

     PseudoPot. # 1 for Ti read from file:
     /home/pragov/projects/rrg-bengioy-ad/pragov/crystal_structure_design/SSSP/ti_pbe_v1.4.uspp.F.UPF
     MD5 check sum: 88a00a6731bd790ddea75d31a80cb452
     Pseudo is Ultrasoft + core correction, Zval = 12.0
     Generated by new atomic code, or converted to UPF format
     Using radial grid of  851 points,  6 beta functions with:
                l(1) =   0
                l(2) =   0
                l(3) =   1
                l(4) =   1
                l(5) =   2
                l(6) =   2
     Q(r) pseudized with  6 coefficients,  rinner =    1.000   1.000   1.000
                                                       1.000   1.000

     PseudoPot. # 2 for Al read from file:
     /home/pragov/projects/rrg-bengioy-ad/pragov/crystal_structure_design/SSSP/Al.pbe-n-kjpaw_psl.1.0.0.UPF
     MD5 check sum: cfc449ca30b5f3223ec38ddd88ac046d
     Pseudo is Projector augmented-wave + core cor, Zval =  3.0
     Generated using "atomic" code by A. Dal Corso  v.5.1
     Shape of augmentation charge: PSQ
     Using radial grid of 1135 points,  6 beta functions with:
                l(1) =   0
                l(2) =   0
                l(3) =   1
                l(4) =   1
                l(5) =   2
                l(6) =   2
     Q(r) pseudized with 0 coefficients

     PseudoPot. # 3 for Ge read from file:
     /home/pragov/projects/rrg-bengioy-ad/pragov/crystal_structure_design/SSSP/ge_pbe_v1.4.uspp.F.UPF
     MD5 check sum: 9c9eaa91e581c3f09632fb3098b2c6b2
     Pseudo is Ultrasoft + core correction, Zval = 14.0
     Generated by new atomic code, or converted to UPF format
     Using radial grid of  873 points,  6 beta functions with:
                l(1) =   0
                l(2) =   0
                l(3) =   1
                l(4) =   1
                l(5) =   2
                l(6) =   2
     Q(r) pseudized with  8 coefficients,  rinner =    1.400   1.400   1.400
                                                       1.400   1.400

     atomic species   valence    mass     pseudopotential
        Ti            12.00    47.86700     Ti( 1.00)
        Al             3.00    26.98154     Al( 1.00)
        Ge            14.00    72.63000     Ge( 1.00)

      2 Sym. Ops. (no inversion) found

                                    s                        frac. trans.

      isym =  1     identity

 cryst.   s( 1) = (     1          0          0      )
                  (     0          1          0      )
                  (     0          0          1      )

 cart.    s( 1) = (  1.0000000  0.0000000  0.0000000 )
                  (  0.0000000  1.0000000  0.0000000 )
                  (  0.0000000  0.0000000  1.0000000 )

      isym =  2     inv. 180 deg rotation - cart. axis [0,0,1]

 cryst.   s( 2) = (     1          0          0      )
                  (     0          1          0      )
                  (     0          0         -1      )

 cart.    s( 2) = (  1.0000000  0.0000000  0.0000000 )
                  (  0.0000000  1.0000000  0.0000000 )
                  (  0.0000000  0.0000000 -1.0000000 )

   Cartesian axes

     site n.     atom                  positions (alat units)
         1           Ti  tau(   1) = (   0.8149101   0.0486057   0.0000000  )
         2           Ti  tau(   2) = (  -0.6855159   0.4426261   0.2539648  )
         3           Al  tau(   3) = (   0.5339758   0.1223806   0.2539648  )
         4           Ge  tau(   4) = (  -0.4050381   0.3689710   0.0000000  )
         5           Ge  tau(   5) = (   0.1885996   0.2130784   0.0000000  )
         6           Ge  tau(   6) = (  -0.0598564   0.2783243   0.2539648  )

   Crystallographic axes

     site n.     atom                  positions (cryst. coord.)
         1           Ti  tau(   1) = (  0.9010730  0.0989270  0.0000000  )
         2           Ti  tau(   2) = (  0.0991240  0.9008760  0.5000000  )
         3           Al  tau(   3) = (  0.7509190  0.2490810  0.5000000  )
         4           Ge  tau(   4) = (  0.2490340  0.7509660  0.0000000  )
         5           Ge  tau(   5) = (  0.5663220  0.4336780  0.0000000  )
         6           Ge  tau(   6) = (  0.4335270  0.5664730  0.5000000  )

     number of k points=     1  Methfessel-Paxton smearing, width (Ry)=  0.0010
                       cart. coord. in units 2pi/alat
        k(    1) = (   0.0000000   0.0000000   0.0000000), wk =   2.0000000

                       cryst. coord.
        k(    1) = (   0.0000000   0.0000000   0.0000000), wk =   2.0000000

     Check: negative core charge=   -0.000004

     Initial potential from superposition of free atoms

     starting charge      66.9950, renormalised to      69.0000

     negative rho (up, down):  3.403E-03 0.000E+00
     Starting wfcs are   51 randomized atomic wfcs
     Checking if some PAW data can be deallocated...

     Self-consistent Calculation

     iteration #  1     ecut=    30.00 Ry     beta= 0.70
     Davidson diagonalization with overlap

     ethr =  1.00E-02,  avg # of iterations =  2.0

     negative rho (up, down):  1.507E-04 0.000E+00

     total energy              =    -913.56577163 Ry
     estimated scf accuracy    <       6.76386131 Ry

[...]

     total energy              =    -918.19307333 Ry
     estimated scf accuracy    <       0.00000754 Ry

     iteration # 21     ecut=    30.00 Ry     beta= 0.70
     Davidson diagonalization with overlap

     ethr =  2.49E-09,  avg # of iterations =  2.0

[...]

     End of self-consistent calculation

          k = 0.0000 0.0000 0.0000 (   891 PWs)   bands (ev):

   -43.1970 -43.1684 -19.7907 -19.6974 -19.5336 -19.3994 -19.3807 -19.2346
   -12.0028 -11.9732 -11.9271 -11.9219 -11.9218 -11.8356 -11.8345 -11.8288
   -11.8114 -11.7814 -11.4502 -11.4469 -11.4328 -11.4255 -11.4232   0.5438
     2.8158   4.1112  10.4796  10.9834  10.9915  11.0370  11.5876  11.5913
    11.7617  11.9529  14.3691  14.4461  14.5532  14.6022  14.6264  15.1950
    15.5100  15.5832

     occupation numbers
     1.0000   1.0000   1.0000   1.0000   1.0000   1.0000   1.0000   1.0000
     1.0000   1.0000   1.0000   1.0000   1.0000   1.0000   1.0000   1.0000
     1.0000   1.0000   1.0000   1.0000   1.0000   1.0000   1.0000   1.0000
     1.0000   1.0000   1.0000   1.0000   1.0000   1.0000   1.0000   1.0000
     1.0000   1.0000   0.5000  -0.0000  -0.0000  -0.0000  -0.0000  -0.0000
    -0.0000  -0.0000

     the Fermi energy is    14.3691 ev

!    total energy              =    -918.19307346 Ry
     estimated scf accuracy    <       0.00000012 Ry
     smearing contrib. (-TS)   =      -0.00028209 Ry
     internal energy E=F+TS    =    -918.19279136 Ry

     The total energy is F=E-TS. E is the sum of the following terms:
     one-electron contribution =    -453.30370996 Ry
     hartree contribution      =     283.19375449 Ry
     xc contribution           =    -214.07359481 Ry
     ewald contribution        =    -499.30112732 Ry
     one-center paw contrib.   =     -34.70811375 Ry
      -> PAW hartree energy AE =       1.59363754 Ry
      -> PAW hartree energy PS =      -1.58713169 Ry
      -> PAW xc energy AE      =     -36.70506032 Ry
      -> PAW xc energy PS      =       1.99044073 Ry
      -> total E_H with PAW    =     283.20026033 Ry
      -> total E_XC with PAW   =    -248.78821441 Ry

     convergence has been achieved in  21 iterations

     negative rho (up, down):  1.627E-03 0.000E+00

     Forces acting on atoms (cartesian axes, Ry/au):

     atom    1 type  1   force =    -0.02829949    0.00743756    0.00000000
     atom    2 type  1   force =     0.03760201   -0.00985990    0.00000000
     atom    3 type  2   force =     0.00920104   -0.00241042    0.00000000
     atom    4 type  3   force =    -0.03027292    0.00794130    0.00000000
     atom    5 type  3   force =    -0.13889138    0.03647820    0.00000000
     atom    6 type  3   force =     0.15066073   -0.03958673    0.00000000
     The non-local contrib.  to forces
     atom    1 type  1   force =     0.12431087   -0.03264387    0.00000000
     atom    2 type  1   force =    -0.11538281    0.03030457    0.00000000
     atom    3 type  2   force =    -0.05449538    0.01431679    0.00000000
     atom    4 type  3   force =     0.31151536   -0.08182467    0.00000000
     atom    5 type  3   force =     0.10525540   -0.02763185    0.00000000
     atom    6 type  3   force =    -0.15055676    0.03951017    0.00000000
     The ionic contribution  to forces
     atom    1 type  1   force =    -9.78661503    2.57002078    0.00000000
     atom    2 type  1   force =     9.49739941   -2.49407112   -0.00000000
     atom    3 type  2   force =     0.01737687   -0.00456327    0.00000000
     atom    4 type  3   force =     0.38281201   -0.10052861   -0.00000000
     atom    5 type  3   force =    11.48477267   -3.01596664    0.00000000
     atom    6 type  3   force =   -11.59574594    3.04510885    0.00000000
     The local contribution  to forces
     atom    1 type  1   force =     9.64589331   -2.53308683   -0.00000876
     atom    2 type  1   force =    -9.35903307    2.45774284    0.00000793
     atom    3 type  2   force =     0.04101312   -0.01077758    0.00000272
     atom    4 type  3   force =    -0.71575728    0.18799250   -0.00001428
     atom    5 type  3   force =   -11.72101775    3.07799246   -0.00001164
     atom    6 type  3   force =    11.88629418   -3.12137263    0.00001597
     The core correction contribution to forces
     atom    1 type  1   force =    -0.01212184    0.00318353    0.00000042
     atom    2 type  1   force =     0.01462327   -0.00384053   -0.00000034
     atom    3 type  2   force =     0.00554228   -0.00145603    0.00000005
     atom    4 type  3   force =    -0.00785563    0.00206320   -0.00000006
     atom    5 type  3   force =    -0.00861047    0.00226073   -0.00000010
     atom    6 type  3   force =     0.01005509   -0.00263967    0.00000017
     The Hubbard contrib.    to forces
     atom    1 type  1   force =     0.00000000    0.00000000    0.00000000
     atom    2 type  1   force =     0.00000000    0.00000000    0.00000000
     atom    3 type  2   force =     0.00000000    0.00000000    0.00000000
     atom    4 type  3   force =     0.00000000    0.00000000    0.00000000
     atom    5 type  3   force =     0.00000000    0.00000000    0.00000000
     atom    6 type  3   force =     0.00000000    0.00000000    0.00000000
     The SCF correction term to forces
     atom    1 type  1   force =     0.00029253   -0.00005702    0.00001118
     atom    2 type  1   force =     0.00005453   -0.00001663   -0.00001050
     atom    3 type  2   force =    -0.00017653    0.00004869   -0.00000144
     atom    4 type  3   force =    -0.00092806    0.00021791    0.00001549
     atom    5 type  3   force =     0.00076808   -0.00019747    0.00001464
     atom    6 type  3   force =     0.00067347   -0.00021443   -0.00002009

     Total force =     0.219828     Total SCF correction =     0.001471

     Computing stress (Cartesian axis) and pressure

     negative rho (up, down):  1.627E-03 0.000E+00
          total   stress  (Ry/bohr**3)                   (kbar)     P=        5.42
  -0.00107922   0.00042857   0.00000000         -158.76       63.04        0.00
   0.00042857   0.00044051   0.00000000           63.04       64.80        0.00
   0.00000000   0.00000000   0.00074927            0.00        0.00      110.22

     kinetic stress (kbar)  14972.08    117.60      0.00
                              117.60  15388.97      0.00
                                0.00      0.00  15327.50

     local   stress (kbar)  14367.66  -2940.99     -0.01
                            -2940.99   3940.79      0.00
                               -0.01      0.00   -921.92

     nonloc. stress (kbar)   4773.30     37.28      0.00
                               37.28   4905.47      0.00
                                0.00      0.00   4908.85

     hartree stress (kbar)  17655.83   1277.19      0.00
                             1277.19  22183.95      0.00
                                0.00      0.00  24265.85

     exc-cor stress (kbar)  13170.25      2.24      0.00
                                2.24  13178.19     -0.00
                                0.00     -0.00  13179.77

     corecor stress (kbar) -22743.94     -3.65     -0.00
                               -3.65 -22756.90      0.00
                               -0.00      0.00 -22754.29

     ewald   stress (kbar) -42353.92   1573.38     -0.00
                             1573.38 -36775.68     -0.00
                               -0.00     -0.00 -33895.53

     hubbard stress (kbar)      0.00      0.00      0.00
                                0.00      0.00      0.00
                                0.00      0.00      0.00

     DFT-D   stress (kbar)      0.00      0.00      0.00
                                0.00      0.00      0.00
                                0.00      0.00      0.00

     XDM     stress (kbar)      0.00      0.00      0.00
                                0.00      0.00      0.00
                                0.00      0.00      0.00

     dft-nl  stress (kbar)      0.00      0.00      0.00
                                0.00      0.00      0.00
                                0.00      0.00      0.00

     TS-vdW  stress (kbar)      0.00      0.00      0.00
                                0.00      0.00      0.00
                                0.00      0.00      0.00

[...]

                                0.00      0.00      0.00

     Writing all to output data dir new_calculations/myprefix.save/

     General routines

     Parallel routines

     PAW routines

   This run was terminated on:   3: 1:56  21May2023

   JOB DONE.