     Program PWSCF v.7.0 starts on 20May2023 at 21:56:21

     Reading input from espresso_12570.pwi
Warning: card &CELL ignored
Warning: card / ignored

     Current dimensions of program PWSCF are:
     Max number of different atomic species (ntypx) = 10
     Max number of k-points (npk) =  40000
     Max angular momentum in pseudopotentials (lmaxx) =  4

     gamma-point specific algorithms are used
     Message from routine setup:
     using ibrav=0 with symmetry is DISCOURAGED, use correct ibrav instead

     Subspace diagonalization in iterative solution of the eigenvalue problem:
     a serial algorithm will be used

     Using Slab Decomposition

     bravais-lattice index     =            0
     lattice parameter (alat)  =       9.0576  a.u.
     unit-cell volume          =     393.5509 (a.u.)^3
     number of atoms/cell      =            4
     number of atomic types    =            2
     number of electrons       =        73.00
     number of Kohn-Sham states=           44
     kinetic-energy cutoff     =      30.0000  Ry
     charge density cutoff     =     240.0000  Ry
     scf convergence threshold =      1.0E-06
     mixing beta               =       0.7000
     number of iterations used =            8  plain     mixing
     Exchange-correlation= PBE
                           (   1   4   3   4   0   0   0)

     celldm(1)=   9.057589  celldm(2)=   0.000000  celldm(3)=   0.000000
     celldm(4)=   0.000000  celldm(5)=   0.000000  celldm(6)=   0.000000

     crystal axes: (cart. coord. in units of alat)
               a(1) = (   1.000000   0.000000   0.000000 )
               a(2) = (   0.357044   0.934087   0.000000 )
               a(3) = (  -0.678522  -0.467044   0.566990 )

     reciprocal axes: (cart. coord. in units 2 pi/alat)
               b(1) = (  1.000000 -0.382239  0.881849 )
               b(2) = (  0.000000  1.070564  0.881849 )
               b(3) = (  0.000000  0.000000  1.763699 )

     PseudoPot. # 1 for Cu read from file:
     /home/pragov/projects/rrg-bengioy-ad/pragov/crystal_structure_design/SSSP/Cu_pbe_v1.2.uspp.F.UPF
     MD5 check sum: 6e991ff952a84172a2a52a1c1e996048
     Pseudo is Ultrasoft + core correction, Zval = 19.0
     Generated by new atomic code, or converted to UPF format
     Using radial grid of  867 points,  6 beta functions with:
                l(1) =   0
                l(2) =   0
                l(3) =   1
                l(4) =   1
                l(5) =   2
                l(6) =   2
     Q(r) pseudized with  8 coefficients,  rinner =    1.150   1.150   1.150
                                                       1.150   1.150

     PseudoPot. # 2 for Pd read from file:
     /home/pragov/projects/rrg-bengioy-ad/pragov/crystal_structure_design/SSSP/Pd_ONCV_PBE-1.0.oncvpsp.upf
     MD5 check sum: eb77f42b51d86fb18e25f68156a31cf1
     Pseudo is Norm-conserving, Zval = 18.0
     Generated using ONCVPSP code by D. R. Hamann
     Using radial grid of 1410 points,  6 beta functions with:
                l(1) =   0
                l(2) =   0
                l(3) =   1
                l(4) =   1
                l(5) =   2
                l(6) =   2

     atomic species   valence    mass     pseudopotential
        Cu            19.00    63.54600     Cu( 1.00)
        Pd            18.00   106.42000     Pd( 1.00)

      4 Sym. Ops., with inversion, found

                                    s                        frac. trans.

      isym =  1     identity

 cryst.   s( 1) = (     1          0          0      )
                  (     0          1          0      )
                  (     0          0          1      )

 cart.    s( 1) = (  1.0000000 -0.0000000 -0.0000000 )
                  (  0.0000000  1.0000000  0.0000000 )
                  (  0.0000000  0.0000000  1.0000000 )

      isym =  2     180 deg rotation - cart. axis [0,0,1]

[...]

      isym =  3     inversion

[...]

      isym =  4     inv. 180 deg rotation - cart. axis [0,0,1]

 cryst.   s( 4) = (     1          0          0      )
                  (     0          1          0      )
                  (    -1         -1         -1      )

 cart.    s( 4) = (  1.0000000 -0.0000000  0.0000000 )
                  (  0.0000000  1.0000000  0.0000000 )
                  (  0.0000000  0.0000000 -1.0000000 )

   Cartesian axes

     site n.     atom                  positions (alat units)
         1           Cu  tau(   1) = (   0.0000000   0.0000000   0.0000000  )
         2           Pd  tau(   2) = (   0.5000000  -0.0000000   0.2834951  )
         3           Pd  tau(   3) = (   0.1785221   0.4670437   0.2834951  )
         4           Pd  tau(   4) = (   0.6785221   0.4670437   0.0000000  )

   Crystallographic axes

     site n.     atom                  positions (cryst. coord.)
         1           Cu  tau(   1) = (  0.0000000  0.0000000  0.0000000  )
         2           Pd  tau(   2) = (  0.7500000  0.2500000  0.5000000  )
         3           Pd  tau(   3) = (  0.2500000  0.7500000  0.5000000  )
         4           Pd  tau(   4) = (  0.5000000  0.5000000  0.0000000  )

     number of k points=     1  Methfessel-Paxton smearing, width (Ry)=  0.0010
                       cart. coord. in units 2pi/alat
        k(    1) = (   0.0000000   0.0000000   0.0000000), wk =   2.0000000

                       cryst. coord.
        k(    1) = (   0.0000000   0.0000000   0.0000000), wk =   2.0000000

     Initial potential from superposition of free atoms

     starting charge      71.9989, renormalised to      73.0000
     Starting wfcs are   43 randomized atomic wfcs +    1 random wfcs

     Self-consistent Calculation

     iteration #  1     ecut=    30.00 Ry     beta= 0.70
     Davidson diagonalization with overlap

     ethr =  1.00E-02,  avg # of iterations =  3.0

     total energy              =   -1162.40916107 Ry
     estimated scf accuracy    <       0.82692579 Ry

[...]

     total energy              =   -1162.84681334 Ry
     estimated scf accuracy    <       0.00037093 Ry

     iteration # 66     ecut=    30.00 Ry     beta= 0.70
     Davidson diagonalization with overlap

     ethr =  4.38E-07,  avg # of iterations =  1.0

     End of self-consistent calculation

          k = 0.0000 0.0000 0.0000 (   537 PWs)   bands (ev):

   -92.4402 -66.1683 -66.1465 -65.3911 -49.9836 -49.8238 -49.7800 -32.1564
   -32.1276 -31.9004 -31.5976 -31.4718 -31.3419 -31.0681 -30.8883 -30.8477
    10.9687  13.6702  13.8771  13.9059  15.2431  15.2836  15.4221  16.0022
    16.0454  16.3918  16.5600  16.6023  17.4879  17.6372  17.7151  17.8301
    18.7071  19.1026  19.1082  19.1901  19.1978  20.9303  26.4878  26.5093
    26.6333  26.6858  26.9941  28.0545

     occupation numbers
     1.0000   1.0000   1.0000   1.0000   1.0000   1.0000   1.0000   1.0000
     1.0000   1.0000   1.0000   1.0000   1.0000   1.0000   1.0000   1.0000
     1.0000   1.0000   1.0000   1.0000   1.0000   1.0000   1.0000   1.0000
     1.0000   1.0000   1.0000   1.0000   1.0000   1.0000   1.0000   1.0000
     1.0000   1.0000   1.0000   0.9373   0.5627  -0.0000  -0.0000  -0.0000
    -0.0000  -0.0000  -0.0000  -0.0000

     the Fermi energy is    19.1989 ev

!    total energy              =   -1162.84681449 Ry
     estimated scf accuracy    <       0.00000065 Ry
     smearing contrib. (-TS)   =      -0.00031115 Ry
     internal energy E=F+TS    =   -1162.84650334 Ry

     The total energy is F=E-TS. E is the sum of the following terms:
     one-electron contribution =    -522.04939781 Ry
     hartree contribution      =     306.60357051 Ry
     xc contribution           =    -113.66570305 Ry
     ewald contribution        =    -833.73497299 Ry

     convergence has been achieved in  66 iterations

     Forces acting on atoms (cartesian axes, Ry/au):

     atom    1 type  1   force =     0.00000000    0.00000000    0.00000000
     atom    2 type  2   force =     0.00000000    0.00000000   -0.00380958
     atom    3 type  2   force =     0.00000000    0.00000000    0.00380958
     atom    4 type  2   force =     0.00000000    0.00000000   -0.00000000
     The non-local contrib.  to forces
     atom    1 type  1   force =     0.00000000    0.00000000   -0.00000000
     atom    2 type  2   force =     0.00000000    0.00000000   -0.00050896
     atom    3 type  2   force =     0.00000000    0.00000000    0.00050896
     atom    4 type  2   force =     0.00000000    0.00000000    0.00000000
     The ionic contribution  to forces
     atom    1 type  1   force =    -0.00000000   -0.00000000    0.00000000
     atom    2 type  2   force =     0.00000000   -0.00000000   -0.00000000
     atom    3 type  2   force =     0.00000000    0.00000000   -0.00000000
     atom    4 type  2   force =    -0.00000000    0.00000000    0.00000000
     The local contribution  to forces
     atom    1 type  1   force =    -0.00000936    0.00002225    0.00000047
     atom    2 type  2   force =    -0.00275051   -0.00073650   -0.00338493
     atom    3 type  2   force =     0.00275668    0.00071150    0.00338302
     atom    4 type  2   force =     0.00001467   -0.00001241   -0.00000537
     The core correction contribution to forces
     atom    1 type  1   force =    -0.00000000    0.00000000   -0.00000001
     atom    2 type  2   force =     0.00000000    0.00000000    0.00000000
     atom    3 type  2   force =     0.00000000    0.00000000    0.00000000
     atom    4 type  2   force =     0.00000000    0.00000000    0.00000000
     The Hubbard contrib.    to forces
     atom    1 type  1   force =     0.00000000    0.00000000    0.00000000
     atom    2 type  2   force =     0.00000000    0.00000000    0.00000000
     atom    3 type  2   force =     0.00000000    0.00000000    0.00000000
     atom    4 type  2   force =     0.00000000    0.00000000    0.00000000
     The SCF correction term to forces
     atom    1 type  1   force =     0.00000436   -0.00002687   -0.00000059
     atom    2 type  2   force =     0.00008176   -0.00004038    0.00008617
     atom    3 type  2   force =    -0.00007247    0.00004350   -0.00008053
     atom    4 type  2   force =    -0.00001474    0.00001302    0.00000910

     Total force =     0.005388     Total SCF correction =     0.000175

     Computing stress (Cartesian axis) and pressure

          total   stress  (Ry/bohr**3)                   (kbar)     P=    -1614.13
  -0.01175379  -0.00087808  -0.00000000        -1729.04     -129.17       -0.00
  -0.00087808  -0.01096448  -0.00000000         -129.17    -1612.93       -0.00
  -0.00000000  -0.00000000  -0.01019953           -0.00       -0.00    -1500.40

     kinetic stress (kbar)  74585.59    331.79      0.00
                              331.79  74346.71      0.00
                                0.00      0.00  74160.90

     local   stress (kbar) -13854.55   -132.67    -76.29
                             -132.67 -13781.23    155.16
                              -76.29    155.16 -13657.22

     nonloc. stress (kbar)  16829.20   -126.50      0.00
                             -126.50  16958.16      0.00
                                0.00      0.00  16996.47

     hartree stress (kbar)  38224.81     28.81     15.74
                               28.81  38201.65    -37.60
                               15.74    -37.60  38178.65

     exc-cor stress (kbar) -13325.56      3.85     -0.03
                                3.85 -13328.89      0.01
                               -0.03      0.01 -13331.26

     corecor stress (kbar)   -134.78      0.13     -0.01
                                0.13   -134.90      0.03
                               -0.01      0.03   -134.99

     ewald   stress (kbar)-104053.76   -234.59      0.00
                             -234.59-103874.42      0.00
                                0.00      0.00-103712.95

     hubbard stress (kbar)      0.00      0.00      0.00
                                0.00      0.00      0.00
                                0.00      0.00      0.00

     DFT-D   stress (kbar)      0.00      0.00      0.00
                                0.00      0.00      0.00
                                0.00      0.00      0.00

     XDM     stress (kbar)      0.00      0.00      0.00
                                0.00      0.00      0.00
                                0.00      0.00      0.00

     dft-nl  stress (kbar)      0.00      0.00      0.00
                                0.00      0.00      0.00
                                0.00      0.00      0.00

     TS-vdW  stress (kbar)      0.00      0.00      0.00
                                0.00      0.00      0.00
                                0.00      0.00      0.00

[...]

                                0.00      0.00      0.00

     Writing all to output data dir new_calculations/myprefix.save/

     General routines

     Parallel routines

   This run was terminated on:  21:56:42  20May2023

   JOB DONE.