     Program PWSCF v.7.0 starts on 20May2023 at 21:25:32

     Reading input from espresso_13676.pwi
Warning: card &CELL ignored
Warning: card / ignored

     Current dimensions of program PWSCF are:
     Max number of different atomic species (ntypx) = 10
     Max number of k-points (npk) =  40000
     Max angular momentum in pseudopotentials (lmaxx) =  4
     file K.pbe-spn-kjpaw_psl.1.0.0.UPF: wavefunction(s)  3S renormalized
     file Nb.pbe-spn-kjpaw_psl.0.3.0.UPF: wavefunction(s)  4S 4P renormalized

     gamma-point specific algorithms are used
     Message from routine setup:
     using ibrav=0 with symmetry is DISCOURAGED, use correct ibrav instead

     Subspace diagonalization in iterative solution of the eigenvalue problem:
     a serial algorithm will be used

     Using Slab Decomposition

     bravais-lattice index     =            0
     lattice parameter (alat)  =      19.2670  a.u.
     unit-cell volume          =    2141.2012 (a.u.)^3
     number of atoms/cell      =           15
     number of atomic types    =            3
     number of electrons       =       135.00
     number of Kohn-Sham states=           82
     kinetic-energy cutoff     =      30.0000  Ry
     charge density cutoff     =     240.0000  Ry
     scf convergence threshold =      1.0E-06
     mixing beta               =       0.7000
     number of iterations used =            8  plain     mixing
     Exchange-correlation= SLA  PW   PBE  PBE
                           (   1   4   3   4   0   0   0)

     celldm(1)=  19.266980  celldm(2)=   0.000000  celldm(3)=   0.000000
     celldm(4)=   0.000000  celldm(5)=   0.000000  celldm(6)=   0.000000

     crystal axes: (cart. coord. in units of alat)
               a(1) = (   1.000000   0.000000   0.000000 )
               a(2) = (  -0.500000   0.866025   0.000000 )
               a(3) = (   0.000000   0.000000   0.345689 )

     reciprocal axes: (cart. coord. in units 2 pi/alat)
               b(1) = (  1.000000  0.577350  0.000000 )
               b(2) = (  0.000000  1.154701  0.000000 )
               b(3) = (  0.000000  0.000000  2.892771 )

     PseudoPot. # 1 for K  read from file:
     /home/pragov/projects/rrg-bengioy-ad/pragov/crystal_structure_design/SSSP/K.pbe-spn-kjpaw_psl.1.0.0.UPF
     MD5 check sum: 7d58810084cac21f60fbe77ea2b688fd
     Pseudo is Projector augmented-wave + core cor, Zval =  9.0
     Generated using "atomic" code by A. Dal Corso  v.5.1
     Shape of augmentation charge: PSQ
     Using radial grid of 1165 points,  6 beta functions with:
                l(1) =   0
                l(2) =   0
                l(3) =   1
                l(4) =   1
                l(5) =   2
                l(6) =   2
     Q(r) pseudized with 0 coefficients

     PseudoPot. # 2 for Nb read from file:
     /home/pragov/projects/rrg-bengioy-ad/pragov/crystal_structure_design/SSSP/Nb.pbe-spn-kjpaw_psl.0.3.0.UPF
     MD5 check sum: 411d72ad547312f8017e2943ceca08cc
     Pseudo is Projector augmented-wave + core cor, Zval = 13.0
     Generated using "atomic" code by A. Dal Corso  v.5.0.99 svn rev. 10869
     Shape of augmentation charge: PSQ
     Using radial grid of 1227 points,  6 beta functions with:
                l(1) =   0
                l(2) =   0
                l(3) =   1
                l(4) =   1
                l(5) =   2
                l(6) =   2
     Q(r) pseudized with 0 coefficients

     PseudoPot. # 3 for Se read from file:
     /home/pragov/projects/rrg-bengioy-ad/pragov/crystal_structure_design/SSSP/Se_pbe_v1.uspp.F.UPF
     MD5 check sum: 1b3568f3a8ae88f9a2a0ad0698632c85
     Pseudo is Ultrasoft + core correction, Zval =  6.0
     Generated by new atomic code, or converted to UPF format
     Using radial grid of  877 points,  6 beta functions with:
                l(1) =   0
                l(2) =   0
                l(3) =   1
                l(4) =   1
                l(5) =   2
                l(6) =   2
     Q(r) pseudized with  8 coefficients,  rinner =    1.300   1.300   1.300
                                                       1.300   1.300

     atomic species   valence    mass     pseudopotential
        K              9.00    39.09830     K ( 1.00)
        Nb            13.00    92.90637     Nb( 1.00)
        Se             6.00    78.97100     Se( 1.00)

      6 Sym. Ops., with inversion, found

                                    s                        frac. trans.

      isym =  1     identity

 cryst.   s( 1) = (     1          0          0      )
                  (     0          1          0      )
                  (     0          0          1      )

 cart.    s( 1) = (  1.0000000  0.0000000  0.0000000 )
                  (  0.0000000  1.0000000  0.0000000 )
                  (  0.0000000  0.0000000  1.0000000 )

      isym =  2     120 deg rotation - cryst. axis [0,0,1]

[...]

      isym =  3     120 deg rotation - cryst. axis [0,0,-1]

[...]

      isym =  4     inversion

[...]

      isym =  5     inv. 120 deg rotation - cryst. axis [0,0,1]

[...]

      isym =  6     inv. 120 deg rotation - cryst. axis [0,0,-1]

 cryst.   s( 6) = (     1          1          0      )
                  (    -1          0          0      )
                  (     0          0         -1      )

 cart.    s( 6) = (  0.5000000 -0.8660254  0.0000000 )
                  (  0.8660254  0.5000000  0.0000000 )
                  (  0.0000000  0.0000000 -1.0000000 )

   Cartesian axes

     site n.     atom                  positions (alat units)
         1           K   tau(   1) = (   0.0000000   0.0000000   0.1728447  )
         2           Nb  tau(   2) = (  -0.2028645   0.5352842   0.0864904  )
         3           Nb  tau(   3) = (   0.0650020   0.7740691   0.0864904  )
         4           Nb  tau(   4) = (   0.1378625   0.4226975   0.0864904  )
         5           Nb  tau(   5) = (   0.7028645   0.3307412   0.2591989  )
         6           Nb  tau(   6) = (   0.4349980   0.0919563   0.2591989  )
         7           Nb  tau(   7) = (   0.3621375   0.4433279   0.2591989  )
         8           Se  tau(   8) = (  -0.1882485   0.8142587   0.0859989  )
         9           Se  tau(   9) = (   0.2992940   0.6219240   0.0859989  )
        10           Se  tau(  10) = (  -0.1110440   0.2958672   0.0859989  )
        11           Se  tau(  11) = (   0.6882485   0.0517667   0.2596905  )
        12           Se  tau(  12) = (   0.2007060   0.2441014   0.2596905  )
        13           Se  tau(  13) = (   0.6110440   0.5701582   0.2596905  )
        14           Se  tau(  14) = (   0.5000005   0.2886748   0.0864237  )
        15           Se  tau(  15) = (  -0.0000005   0.5773505   0.2592656  )

   Crystallographic axes

     site n.     atom                  positions (cryst. coord.)
         1           K   tau(   1) = (  0.0000000  0.0000000  0.5000000  )
         2           Nb  tau(   2) = (  0.1061820  0.6180930  0.2501970  )
         3           Nb  tau(   3) = (  0.5119110  0.8938180  0.2501970  )
         4           Nb  tau(   4) = (  0.3819070  0.4880890  0.2501970  )
         5           Nb  tau(   5) = (  0.8938180  0.3819070  0.7498030  )
         6           Nb  tau(   6) = (  0.4880890  0.1061820  0.7498030  )
         7           Nb  tau(   7) = (  0.6180930  0.5119110  0.7498030  )
         8           Se  tau(   8) = (  0.2818640  0.9402250  0.2487750  )
         9           Se  tau(   9) = (  0.6583620  0.7181360  0.2487750  )
        10           Se  tau(  10) = (  0.0597750  0.3416380  0.2487750  )
        11           Se  tau(  11) = (  0.7181360  0.0597750  0.7512250  )
        12           Se  tau(  12) = (  0.3416380  0.2818640  0.7512250  )
        13           Se  tau(  13) = (  0.9402250  0.6583620  0.7512250  )
        14           Se  tau(  14) = (  0.6666670  0.3333330  0.2500040  )
        15           Se  tau(  15) = (  0.3333330  0.6666670  0.7499960  )

     number of k points=     1  Methfessel-Paxton smearing, width (Ry)=  0.0010
                       cart. coord. in units 2pi/alat
        k(    1) = (   0.0000000   0.0000000   0.0000000), wk =   2.0000000

                       cryst. coord.
        k(    1) = (   0.0000000   0.0000000   0.0000000), wk =   2.0000000

     Check: negative core charge=   -0.000008

     Initial potential from superposition of free atoms

     starting charge     134.9679, renormalised to     135.0000
     Starting wfcs are  100 randomized atomic wfcs
     Checking if some PAW data can be deallocated...

     Self-consistent Calculation

     iteration #  1     ecut=    30.00 Ry     beta= 0.70
     Davidson diagonalization with overlap

     ethr =  1.00E-02,  avg # of iterations =  2.0

     Threshold (ethr) on eigenvalues was too large:
     Diagonalizing with lowered threshold

     Davidson diagonalization with overlap

[...]

     total energy              =   -2466.83088600 Ry
     estimated scf accuracy    <       1.36721308 Ry

[...]

     total energy              =   -2467.34697926 Ry
     estimated scf accuracy    <       0.00000624 Ry

     iteration # 25     ecut=    30.00 Ry     beta= 0.70
     Davidson diagonalization with overlap

     ethr =  4.62E-09,  avg # of iterations =  1.0

     End of self-consistent calculation

          k = 0.0000 0.0000 0.0000 (  2970 PWs)   bands (ev):

   -43.7445 -43.7406 -43.7406 -43.6518 -43.6479 -43.6478 -20.3166 -20.2488
   -20.2488 -20.2384 -19.9110 -19.9109 -19.8968 -19.7551 -19.7396 -19.7096
   -19.7095 -19.6963 -19.6880 -19.6880 -19.6862 -19.6861 -19.4465 -19.4393
   -19.4393  -3.8729  -3.8729  -3.6879  -3.1836  -2.2911  -2.2910  -2.2518
    -2.2517  -2.1820  -1.8778  -1.6978   5.8278   5.8278   5.8834   5.8834
     6.2043   6.3531   6.3532   6.3979   6.7825   6.7825   7.8074   7.8363
     8.2882   8.3500   8.4280   8.4280   9.0141   9.0141   9.1855   9.1855
     9.3721   9.5330   9.6852   9.6853  10.4588  10.4852  10.5631  10.5631
    10.7126  10.7126  11.2269  11.2300  11.2300  12.3391  12.5585  12.5585
    12.8828  13.1045  13.1047  13.4406  13.5242  13.5242  13.5495  13.5495
    13.6172  13.7408

     occupation numbers
     1.0000   1.0000   1.0000   1.0000   1.0000   1.0000   1.0000   1.0000
     1.0000   1.0000   1.0000   1.0000   1.0000   1.0000   1.0000   1.0000
     1.0000   1.0000   1.0000   1.0000   1.0000   1.0000   1.0000   1.0000
     1.0000   1.0000   1.0000   1.0000   1.0000   1.0000   1.0000   1.0000
     1.0000   1.0000   1.0000   1.0000   1.0000   1.0000   1.0000   1.0000
     1.0000   1.0000   1.0000   1.0000   1.0000   1.0000   1.0000   1.0000
     1.0000   1.0000   1.0000   1.0000   1.0000   1.0000   1.0000   1.0000
     1.0000   1.0000   1.0000   1.0000   1.0000   1.0000   1.0000   1.0000
     1.0000   1.0000   0.6253   0.4377   0.4370  -0.0000  -0.0000  -0.0000
    -0.0000  -0.0000  -0.0000  -0.0000  -0.0000  -0.0000  -0.0000  -0.0000
    -0.0000  -0.0000

     the Fermi energy is    11.2290 ev

!    total energy              =   -2467.34697902 Ry
     estimated scf accuracy    <       0.00000032 Ry
     smearing contrib. (-TS)   =      -0.00081833 Ry
     internal energy E=F+TS    =   -2467.34616069 Ry

     The total energy is F=E-TS. E is the sum of the following terms:
     one-electron contribution =    -341.85209832 Ry
     hartree contribution      =     237.92495538 Ry
     xc contribution           =    -423.43323006 Ry
     ewald contribution        =    -633.69251414 Ry
     one-center paw contrib.   =   -1306.29327355 Ry
      -> PAW hartree energy AE =     450.82705396 Ry
      -> PAW hartree energy PS =    -448.40680739 Ry
      -> PAW xc energy AE      =   -1481.57540556 Ry
      -> PAW xc energy PS      =     172.86188544 Ry
      -> total E_H with PAW    =     240.34520194 Ry
      -> total E_XC with PAW   =   -1732.14675017 Ry

     convergence has been achieved in  25 iterations

     Forces acting on atoms (cartesian axes, Ry/au):

     atom    1 type  1   force =     0.00000000    0.00000000   -0.00000000
     atom    2 type  2   force =     0.00298400   -0.02910574    0.00017505
     atom    3 type  2   force =    -0.02669831    0.01196865    0.00017505
     atom    4 type  2   force =     0.02371431    0.01713709    0.00017505
     atom    5 type  2   force =    -0.00298400    0.02910574   -0.00017505
     atom    6 type  2   force =     0.02669831   -0.01196865   -0.00017505
     atom    7 type  2   force =    -0.02371431   -0.01713709   -0.00017505
     atom    8 type  3   force =     0.04386772    0.01169645   -0.00024048
     atom    9 type  3   force =    -0.01180444   -0.04383878   -0.00024048
     atom   10 type  3   force =    -0.03206327    0.03214233   -0.00024048
     atom   11 type  3   force =    -0.04386772   -0.01169645    0.00024048
     atom   12 type  3   force =     0.01180444    0.04383878    0.00024048
     atom   13 type  3   force =     0.03206327   -0.03214233    0.00024048
     atom   14 type  3   force =     0.00000000    0.00000000   -0.00027884
     atom   15 type  3   force =     0.00000000    0.00000000    0.00027884
     The non-local contrib.  to forces
     atom    1 type  1   force =     0.00000000    0.00000000   -0.00000000
     atom    2 type  2   force =    -0.13375329   -0.05570148   -0.00044218
     atom    3 type  2   force =     0.01863776    0.14368449   -0.00044218
     atom    4 type  2   force =     0.11511553   -0.08798301   -0.00044218
     atom    5 type  2   force =     0.13375329    0.05570148    0.00044218
     atom    6 type  2   force =    -0.01863776   -0.14368449    0.00044218
     atom    7 type  2   force =    -0.11511553    0.08798301    0.00044218
     atom    8 type  3   force =     0.06230511   -0.04355356    0.00191246
     atom    9 type  3   force =    -0.06887105   -0.03218104    0.00191246
     atom   10 type  3   force =     0.00656593    0.07573460    0.00191246
     atom   11 type  3   force =    -0.06230511    0.04355356   -0.00191246
     atom   12 type  3   force =     0.06887105    0.03218104   -0.00191246
     atom   13 type  3   force =    -0.00656593   -0.07573460   -0.00191246
     atom   14 type  3   force =     0.00000000    0.00000000   -0.00029845
     atom   15 type  3   force =     0.00000000   -0.00000000    0.00029845
     The ionic contribution  to forces
     atom    1 type  1   force =    -0.00000000   -0.00000000    0.00000000
     atom    2 type  2   force =    -3.45618247    9.11592125   -0.00741162
     atom    3 type  2   force =     9.62281537   -1.56491808   -0.00741144
     atom    4 type  2   force =    -6.16658095   -7.55103287   -0.00741136
     atom    5 type  2   force =     3.45618247   -9.11592125    0.00741162
     atom    6 type  2   force =    -9.62281537    1.56491808    0.00741144
     atom    7 type  2   force =     6.16658095    7.55103287    0.00741136
     atom    8 type  3   force =   -11.45740005    0.30039612   -0.09380956
     atom    9 type  3   force =     5.98877920    9.77222224   -0.09381069
     atom   10 type  3   force =     5.46850201  -10.07254954   -0.09381156
     atom   11 type  3   force =    11.45740005   -0.30039612    0.09380956
     atom   12 type  3   force =    -5.98877920   -9.77222224    0.09381069
     atom   13 type  3   force =    -5.46850201   10.07254954    0.09381156
     atom   14 type  3   force =    -0.00002826    0.00001670   -0.00426794
     atom   15 type  3   force =     0.00002826   -0.00001670    0.00426794
     The local contribution  to forces
     atom    1 type  1   force =     0.00008690   -0.00004638   -0.00000074
     atom    2 type  2   force =     3.58059498   -9.09626012    0.00798433
     atom    3 type  2   force =    -9.66867659    1.44819061    0.00798088
     atom    4 type  2   force =     6.08670304    7.64940228    0.00798350
     atom    5 type  2   force =    -3.58038427    9.09681754   -0.00797887
     atom    6 type  2   force =     9.66845742   -1.44843449   -0.00798063
     atom    7 type  2   force =    -6.08710775   -7.64930180   -0.00798218
     atom    8 type  3   force =    11.44451233   -0.25040963    0.09182432
     atom    9 type  3   force =    -5.93917765   -9.78522801    0.09182948
     atom   10 type  3   force =    -5.50523732   10.03625318    0.09182598
     atom   11 type  3   force =   -11.44456259    0.25026288   -0.09182255
     atom   12 type  3   force =     5.93907272    9.78525115   -0.09182878
     atom   13 type  3   force =     5.50552079  -10.03602928   -0.09182075
     atom   14 type  3   force =     0.00019910   -0.00048163    0.00424863
     atom   15 type  3   force =    -0.00033016    0.00038495   -0.00425118
     The core correction contribution to forces
     atom    1 type  1   force =    -0.00000022   -0.00000007   -0.00000018
     atom    2 type  2   force =     0.01226628    0.00734594    0.00004587
     atom    3 type  2   force =     0.00023214   -0.01429832    0.00004578
     atom    4 type  2   force =    -0.01249773    0.00695375    0.00004586
     atom    5 type  2   force =    -0.01226514   -0.00734505   -0.00004559
     atom    6 type  2   force =    -0.00022996    0.01429823   -0.00004575
     atom    7 type  2   force =     0.01249582   -0.00695199   -0.00004558
     atom    8 type  3   force =    -0.00533323    0.00536425   -0.00016760
     atom    9 type  3   force =     0.00730703    0.00193608   -0.00016770
     atom   10 type  3   force =    -0.00197605   -0.00729658   -0.00016800
     atom   11 type  3   force =     0.00533262   -0.00536250    0.00016824
     atom   12 type  3   force =    -0.00730581   -0.00193709    0.00016730
     atom   13 type  3   force =     0.00197450    0.00729667    0.00016900
     atom   14 type  3   force =     0.00000088    0.00000117    0.00003718
     atom   15 type  3   force =     0.00000074   -0.00000025   -0.00003729
     The Hubbard contrib.    to forces
     atom    1 type  1   force =     0.00000000    0.00000000    0.00000000
     atom    2 type  2   force =     0.00000000    0.00000000    0.00000000
     atom    3 type  2   force =     0.00000000    0.00000000    0.00000000
     atom    4 type  2   force =     0.00000000    0.00000000    0.00000000
     atom    5 type  2   force =     0.00000000    0.00000000    0.00000000
     atom    6 type  2   force =     0.00000000    0.00000000    0.00000000
     atom    7 type  2   force =     0.00000000    0.00000000    0.00000000
     atom    8 type  3   force =     0.00000000    0.00000000    0.00000000
     atom    9 type  3   force =     0.00000000    0.00000000    0.00000000
     atom   10 type  3   force =     0.00000000    0.00000000    0.00000000
     atom   11 type  3   force =     0.00000000    0.00000000    0.00000000
     atom   12 type  3   force =     0.00000000    0.00000000    0.00000000
     atom   13 type  3   force =     0.00000000    0.00000000    0.00000000
     atom   14 type  3   force =     0.00000000    0.00000000    0.00000000
     atom   15 type  3   force =     0.00000000    0.00000000    0.00000000
     The SCF correction term to forces
     atom    1 type  1   force =    -0.00009172    0.00004487    0.00000063
     atom    2 type  2   force =     0.00004056   -0.00042960    0.00000041
     atom    3 type  2   force =     0.00034311   -0.00063651    0.00000261
     atom    4 type  2   force =     0.00089978   -0.00013573    0.00000017
     atom    5 type  2   force =    -0.00023882   -0.00011625   -0.00000154
     atom    6 type  2   force =    -0.00008867    0.00088471   -0.00000255
     atom    7 type  2   force =    -0.00051753    0.00004408   -0.00000011
     atom    8 type  3   force =    -0.00021743   -0.00004665    0.00000053
     atom    9 type  3   force =     0.00012122   -0.00056893   -0.00000041
     atom   10 type  3   force =     0.00009529    0.00000441    0.00000006
     atom   11 type  3   force =     0.00025955    0.00019868   -0.00000093
     atom   12 type  3   force =    -0.00001690    0.00054603    0.00000010
     atom   13 type  3   force =    -0.00037102   -0.00022085   -0.00000100
     atom   14 type  3   force =    -0.00015530    0.00046758    0.00000074
     atom   15 type  3   force =     0.00029504   -0.00035887   -0.00000009

     Total force =     0.132303     Total SCF correction =     0.002031

     Computing stress (Cartesian axis) and pressure

          total   stress  (Ry/bohr**3)                   (kbar)     P=       34.75
  -0.00036811  -0.00000000  -0.00000000          -54.15       -0.00       -0.00
  -0.00000000  -0.00036811  -0.00000000           -0.00      -54.15       -0.00
  -0.00000000  -0.00000000   0.00144499           -0.00       -0.00      212.56

     kinetic stress (kbar)  15131.80      0.00      0.00
                                0.00  15131.80     -0.00
                                0.00     -0.00  15800.62

     local   stress (kbar)  -5550.87     -0.10     -0.00
                               -0.10  -5551.61      0.00
                               -0.00      0.00 -19833.58

     nonloc. stress (kbar)   7951.52      0.00      0.00
                                0.00   7951.52      0.00
                                0.00     -0.00   7853.01

     hartree stress (kbar)   3223.80      0.15      0.00
                                0.15   3224.47     -0.00
                                0.00     -0.00   9897.68

     exc-cor stress (kbar)  16391.11     -0.00      0.00
                               -0.00  16391.11      0.00
                                0.00      0.00  16392.13

     corecor stress (kbar) -20252.96      0.00     -0.00
                                0.00 -20252.96      0.00
                               -0.00      0.00 -20258.31

     ewald   stress (kbar) -16948.52      0.03      0.00
                                0.03 -16948.51     -0.00
                                0.00     -0.00  -9638.99

     hubbard stress (kbar)      0.00      0.00      0.00
                                0.00      0.00      0.00
                                0.00      0.00      0.00

     DFT-D   stress (kbar)      0.00      0.00      0.00
                                0.00      0.00      0.00
                                0.00      0.00      0.00

     XDM     stress (kbar)      0.00      0.00      0.00
                                0.00      0.00      0.00
                                0.00      0.00      0.00

     dft-nl  stress (kbar)      0.00      0.00      0.00
                                0.00      0.00      0.00
                                0.00      0.00      0.00

     TS-vdW  stress (kbar)      0.00      0.00      0.00
                                0.00      0.00      0.00
                                0.00      0.00      0.00

[...]

                                0.00      0.00      0.00

     Writing all to output data dir new_calculations/myprefix.save/

     General routines

     Parallel routines

     PAW routines

   This run was terminated on:  21:27: 7  20May2023

   JOB DONE.