     Program PWSCF v.7.0 starts on 21May2023 at 14:24:36

     Reading input from espresso_23707.pwi
Warning: card &CELL ignored
Warning: card / ignored

     Current dimensions of program PWSCF are:
     Max number of different atomic species (ntypx) = 10
     Max number of k-points (npk) =  40000
     Max angular momentum in pseudopotentials (lmaxx) =  4

     gamma-point specific algorithms are used
     Message from routine setup:
     using ibrav=0 with symmetry is DISCOURAGED, use correct ibrav instead

     Subspace diagonalization in iterative solution of the eigenvalue problem:
     a serial algorithm will be used

     Using Slab Decomposition

     bravais-lattice index     =            0
     lattice parameter (alat)  =       7.8235  a.u.
     unit-cell volume          =    1139.9800 (a.u.)^3
     number of atoms/cell      =           10
     number of atomic types    =            3
     number of electrons       =        98.00
     number of Kohn-Sham states=           59
     kinetic-energy cutoff     =      30.0000  Ry
     charge density cutoff     =     240.0000  Ry
     scf convergence threshold =      1.0E-06
     mixing beta               =       0.7000
     number of iterations used =            8  plain     mixing
     Exchange-correlation= SLA  PW   PBE  PBE
                           (   1   4   3   4   0   0   0)

     celldm(1)=   7.823483  celldm(2)=   0.000000  celldm(3)=   0.000000
     celldm(4)=   0.000000  celldm(5)=   0.000000  celldm(6)=   0.000000

     crystal axes: (cart. coord. in units of alat)
               a(1) = (   1.000000   0.000000   0.000000 )
               a(2) = (   0.000000   1.000000   0.000000 )
               a(3) = (   0.000000   0.000000   2.380657 )

     reciprocal axes: (cart. coord. in units 2 pi/alat)
               b(1) = (  1.000000  0.000000  0.000000 )
               b(2) = (  0.000000  1.000000  0.000000 )
               b(3) = (  0.000000  0.000000  0.420052 )

     PseudoPot. # 1 for Y  read from file:
     /home/pragov/projects/rrg-bengioy-ad/pragov/crystal_structure_design/SSSP/Y_pbe_v1.uspp.F.UPF
     MD5 check sum: 2cf71db95cafeb975fc457bd7f14888e
     Pseudo is Ultrasoft + core correction, Zval = 11.0
     Generated by new atomic code, or converted to UPF format
     Using radial grid of  885 points,  6 beta functions with:
                l(1) =   0
                l(2) =   0
                l(3) =   1
                l(4) =   1
                l(5) =   2
                l(6) =   2
     Q(r) pseudized with  6 coefficients,  rinner =    1.200   1.200   1.200
                                                       1.200   1.200

     PseudoPot. # 2 for Si read from file:
     /home/pragov/projects/rrg-bengioy-ad/pragov/crystal_structure_design/SSSP/Si.pbe-n-rrkjus_psl.1.0.0.UPF
     MD5 check sum: 0b0bb1205258b0d07b9f9672cf965d36
     Pseudo is Ultrasoft + core correction, Zval =  4.0
     Generated using "atomic" code by A. Dal Corso  v.5.1
     Using radial grid of 1141 points,  6 beta functions with:
                l(1) =   0
                l(2) =   0
                l(3) =   1
                l(4) =   1
                l(5) =   2
                l(6) =   2
     Q(r) pseudized with 0 coefficients

     PseudoPot. # 3 for Ir read from file:
     /home/pragov/projects/rrg-bengioy-ad/pragov/crystal_structure_design/SSSP/Ir_pbe_v1.2.uspp.F.UPF
     MD5 check sum: 8836f839c3459d2b385c504ce6d91f2c
     Pseudo is Ultrasoft + core correction, Zval = 15.0
     Generated by new atomic code, or converted to UPF format
     Using radial grid of  983 points,  7 beta functions with:
                l(1) =   0
                l(2) =   0
                l(3) =   1
                l(4) =   1
                l(5) =   1
                l(6) =   2
                l(7) =   2
     Q(r) pseudized with  8 coefficients,  rinner =    1.400   1.400   1.400
                                                       1.400   1.400

     atomic species   valence    mass     pseudopotential
        Y             11.00    88.90584     Y ( 1.00)
        Si             4.00    28.08500     Si( 1.00)
        Ir            15.00   192.21700     Ir( 1.00)

     16 Sym. Ops., with inversion, found ( 8 have fractional translation)

                                    s                        frac. trans.

      isym =  1     identity

 cryst.   s( 1) = (     1          0          0      )
                  (     0          1          0      )
                  (     0          0          1      )

 cart.    s( 1) = (  1.0000000  0.0000000  0.0000000 )
                  (  0.0000000  1.0000000  0.0000000 )
                  (  0.0000000  0.0000000  1.0000000 )

      isym =  2     180 deg rotation - cart. axis [0,0,1]

[...]

 cryst.   s( 3) = (    -1          0          0      )    f =(  0.5000000 )
                  (     0          1          0      )       ( -0.5000000 )
                  (     0          0         -1      )       (  0.0000000 )

 cart.    s( 3) = ( -1.0000000  0.0000000  0.0000000 )    f =(  0.5000000 )
                  (  0.0000000  1.0000000  0.0000000 )       ( -0.5000000 )
                  (  0.0000000  0.0000000 -1.0000000 )       (  0.0000000 )

[...]

 cryst.   s( 6) = (     0         -1          0      )
                  (    -1          0          0      )
                  (     0          0         -1      )

 cart.    s( 6) = (  0.0000000 -1.0000000  0.0000000 )
                  ( -1.0000000  0.0000000  0.0000000 )
                  (  0.0000000  0.0000000 -1.0000000 )

[...]

      isym =  8      90 deg rotation - cart. axis [0,0,1]

[...]

      isym =  9     inversion

 cryst.   s( 9) = (    -1          0          0      )    f =(  0.5000000 )
                  (     0         -1          0      )       (  0.5000000 )
                  (     0          0         -1      )       (  0.0000000 )

 cart.    s( 9) = ( -1.0000000  0.0000000  0.0000000 )    f =(  0.5000000 )
                  (  0.0000000 -1.0000000  0.0000000 )       (  0.5000000 )
                  (  0.0000000  0.0000000 -1.0000000 )       (  0.0000000 )

      isym = 10     inv. 180 deg rotation - cart. axis [0,0,1]

 cryst.   s(10) = (     1          0          0      )    f =(  0.5000000 )
                  (     0          1          0      )       ( -0.5000000 )
                  (     0          0         -1      )       (  0.0000000 )

 cart.    s(10) = (  1.0000000  0.0000000  0.0000000 )    f =(  0.5000000 )
                  (  0.0000000  1.0000000  0.0000000 )       ( -0.5000000 )
                  (  0.0000000  0.0000000 -1.0000000 )       (  0.0000000 )

[...]

 cryst.   s(11) = (     1          0          0      )
                  (     0         -1          0      )
                  (     0          0          1      )

 cart.    s(11) = (  1.0000000  0.0000000  0.0000000 )
                  (  0.0000000 -1.0000000  0.0000000 )
                  (  0.0000000  0.0000000  1.0000000 )

[...]

 cryst.   s(14) = (     0          1          0      )    f =(  0.5000000 )
                  (     1          0          0      )       ( -0.5000000 )
                  (     0          0          1      )       (  0.0000000 )

 cart.    s(14) = (  0.0000000  1.0000000  0.0000000 )    f =(  0.5000000 )
                  (  1.0000000  0.0000000  0.0000000 )       ( -0.5000000 )
                  (  0.0000000  0.0000000  1.0000000 )       (  0.0000000 )

[...]

      isym = 16     inv.  90 deg rotation - cart. axis [0,0,1]

 cryst.   s(16) = (     0         -1          0      )
                  (     1          0          0      )
                  (     0          0         -1      )

 cart.    s(16) = (  0.0000000  1.0000000  0.0000000 )
                  ( -1.0000000  0.0000000  0.0000000 )
                  (  0.0000000  0.0000000 -1.0000000 )

   Cartesian axes

     site n.     atom                  positions (alat units)
         1           Y   tau(   1) = (   0.5000000   0.0000000   0.6074412  )
         2           Y   tau(   2) = (   0.0000000   0.5000000   1.7732154  )
         3           Si  tau(   3) = (   0.5000000   0.5000000   1.1903283  )
         4           Si  tau(   4) = (   0.0000000   0.0000000   1.1903283  )
         5           Si  tau(   5) = (   0.0000000   0.5000000   0.3119732  )
         6           Si  tau(   6) = (   0.5000000   0.0000000   2.0686835  )
         7           Ir  tau(   7) = (   0.0000000   0.5000000   0.8851162  )
         8           Ir  tau(   8) = (   0.5000000   0.0000000   1.4955404  )
         9           Ir  tau(   9) = (   0.5000000   0.5000000   0.0000000  )
        10           Ir  tau(  10) = (   0.0000000   0.0000000   0.0000000  )

   Crystallographic axes

     site n.     atom                  positions (cryst. coord.)
         1           Y   tau(   1) = (  0.5000000  0.0000000  0.2551570  )
         2           Y   tau(   2) = (  0.0000000  0.5000000  0.7448430  )
         3           Si  tau(   3) = (  0.5000000  0.5000000  0.5000000  )
         4           Si  tau(   4) = (  0.0000000  0.0000000  0.5000000  )
         5           Si  tau(   5) = (  0.0000000  0.5000000  0.1310450  )
         6           Si  tau(   6) = (  0.5000000  0.0000000  0.8689550  )
         7           Ir  tau(   7) = (  0.0000000  0.5000000  0.3717950  )
         8           Ir  tau(   8) = (  0.5000000  0.0000000  0.6282050  )
         9           Ir  tau(   9) = (  0.5000000  0.5000000  0.0000000  )
        10           Ir  tau(  10) = (  0.0000000  0.0000000  0.0000000  )

     number of k points=     1  Methfessel-Paxton smearing, width (Ry)=  0.0010
                       cart. coord. in units 2pi/alat
        k(    1) = (   0.0000000   0.0000000   0.0000000), wk =   2.0000000

                       cryst. coord.
        k(    1) = (   0.0000000   0.0000000   0.0000000), wk =   2.0000000

     Check: negative core charge=   -0.000002

     Initial potential from superposition of free atoms

     starting charge      95.9887, renormalised to      98.0000

     negative rho (up, down):  1.547E+00 0.000E+00
     Starting wfcs are   90 randomized atomic wfcs

     Self-consistent Calculation

     iteration #  1     ecut=    30.00 Ry     beta= 0.70
     Davidson diagonalization with overlap

     ethr =  1.00E-02,  avg # of iterations =  2.0

     negative rho (up, down):  1.237E+00 0.000E+00

     total energy              =    -943.68884983 Ry
     estimated scf accuracy    <       7.07937849 Ry

[...]

     ethr =  3.77E-05,  avg # of iterations =  1.0
     Minimization algorithm failed to find Fermi energy: reverting to bisection
     Possible cause: smearing is larger than the electronic band-gap.

[...]

     total energy              =    -947.79770973 Ry
     estimated scf accuracy    <       0.00000132 Ry

     iteration # 55     ecut=    30.00 Ry     beta= 0.70
     Davidson diagonalization with overlap

     ethr =  1.35E-09,  avg # of iterations =  1.0

[...]

     End of self-consistent calculation

          k = 0.0000 0.0000 0.0000 (  1585 PWs)   bands (ev):

   -34.0582 -34.0582 -34.0544 -34.0544 -33.7438 -33.7369 -33.0076 -33.0076
   -32.8261 -32.8261 -32.7256 -32.6858 -26.4990 -26.4981  -6.6380  -6.6158
    -6.5069  -6.5069  -6.5061  -6.5061   3.3740   5.1150   6.5939   7.6456
     8.5282   9.5332   9.5332   9.7725   9.8971   9.9882  10.9088  11.0021
    11.0021  11.5595  11.9679  12.1826  12.1826  12.2825  13.1726  13.1726
    13.3368  13.4308  14.2002  15.0356  15.0380  15.0380  15.3671  15.3671
    16.6847  16.6849  16.6900  17.2582  17.2582  17.4176  17.7490  17.8494
    18.5687  18.5687  19.1935

     occupation numbers
     1.0000   1.0000   1.0000   1.0000   1.0000   1.0000   1.0000   1.0000
     1.0000   1.0000   1.0000   1.0000   1.0000   1.0000   1.0000   1.0000
     1.0000   1.0000   1.0000   1.0000   1.0000   1.0000   1.0000   1.0000
     1.0000   1.0000   1.0000   1.0000   1.0000   1.0000   1.0000   1.0000
     1.0000   1.0000   1.0000   1.0000   1.0000   1.0000   1.0000   1.0000
     1.0000   1.0000   1.0000   1.0000   1.0000   1.0000   1.0000   1.0000
     0.4314   0.4208   0.1478  -0.0000  -0.0000  -0.0000  -0.0000  -0.0000
    -0.0000  -0.0000  -0.0000

     the Fermi energy is    16.6836 ev

!    total energy              =    -947.79770919 Ry
     estimated scf accuracy    <       0.00000065 Ry
     smearing contrib. (-TS)   =      -0.00067837 Ry
     internal energy E=F+TS    =    -947.79703082 Ry

     The total energy is F=E-TS. E is the sum of the following terms:
     one-electron contribution =    -193.34030189 Ry
     hartree contribution      =     157.49859010 Ry
     xc contribution           =    -271.07946701 Ry
     ewald contribution        =    -640.87585202 Ry

     convergence has been achieved in  55 iterations

     negative rho (up, down):  1.343E+00 0.000E+00

     Forces acting on atoms (cartesian axes, Ry/au):

     atom    1 type  1   force =     0.00000000    0.00000000   -0.04992317
     atom    2 type  1   force =     0.00000000    0.00000000    0.04992317
     atom    3 type  2   force =     0.00000000    0.00000000    0.00000000
     atom    4 type  2   force =     0.00000000    0.00000000    0.00000000
     atom    5 type  2   force =     0.00000000    0.00000000    0.01304603
     atom    6 type  2   force =     0.00000000    0.00000000   -0.01304603
     atom    7 type  3   force =     0.00000000    0.00000000   -0.03090993
     atom    8 type  3   force =     0.00000000    0.00000000    0.03090993
     atom    9 type  3   force =     0.00000000    0.00000000    0.00000000
     atom   10 type  3   force =     0.00000000    0.00000000    0.00000000
     The non-local contrib.  to forces
     atom    1 type  1   force =     0.00000000    0.00000000   -0.06115035
     atom    2 type  1   force =     0.00000000    0.00000000    0.06115035
     atom    3 type  2   force =     0.00000000    0.00000000    0.00000000
     atom    4 type  2   force =     0.00000000    0.00000000    0.00000000
     atom    5 type  2   force =     0.00000000    0.00000000    0.01579832
     atom    6 type  2   force =     0.00000000    0.00000000   -0.01579832
     atom    7 type  3   force =     0.00000000    0.00000000    0.09767320
     atom    8 type  3   force =     0.00000000    0.00000000   -0.09767320
     atom    9 type  3   force =     0.00000000    0.00000000    0.00000000
     atom   10 type  3   force =     0.00000000    0.00000000    0.00000000
     The ionic contribution  to forces
     atom    1 type  1   force =    -0.00000000   -0.00000000    6.06582513
     atom    2 type  1   force =     0.00000000   -0.00000000   -6.06582513
     atom    3 type  2   force =    -0.00000000   -0.00000000    0.00000000
     atom    4 type  2   force =     0.00000000    0.00000000   -0.00000000
     atom    5 type  2   force =     0.00000000    0.00000000    3.95301447
     atom    6 type  2   force =     0.00000000    0.00000000   -3.95301447
     atom    7 type  3   force =    -0.00000000   -0.00000000    2.52759114
     atom    8 type  3   force =     0.00000000   -0.00000000   -2.52759114
     atom    9 type  3   force =     0.00000000    0.00000000   -0.00000000
     atom   10 type  3   force =    -0.00000000   -0.00000000   -0.00000000
     The local contribution  to forces
     atom    1 type  1   force =    -0.00000192   -0.00000036   -6.06102003
     atom    2 type  1   force =    -0.00000077   -0.00000056    6.06071492
     atom    3 type  2   force =     0.00000024   -0.00000043    0.00001123
     atom    4 type  2   force =     0.00000017    0.00000026    0.00001152
     atom    5 type  2   force =    -0.00000075   -0.00000081   -3.95384888
     atom    6 type  2   force =    -0.00000015   -0.00000015    3.95396070
     atom    7 type  3   force =     0.00000156    0.00000037   -2.66854058
     atom    8 type  3   force =    -0.00000091    0.00000085    2.66787390
     atom    9 type  3   force =    -0.00000194    0.00000141    0.00047111
     atom   10 type  3   force =     0.00000023    0.00000040    0.00045245
     The core correction contribution to forces
     atom    1 type  1   force =    -0.00000008    0.00000000    0.00625396
     atom    2 type  1   force =    -0.00000000   -0.00000006   -0.00625518
     atom    3 type  2   force =     0.00000002   -0.00000002   -0.00000303
     atom    4 type  2   force =     0.00000006    0.00000001   -0.00000299
     atom    5 type  2   force =    -0.00000000   -0.00000002   -0.00150551
     atom    6 type  2   force =    -0.00000000    0.00000001    0.00150557
     atom    7 type  3   force =     0.00000001   -0.00000012    0.01124624
     atom    8 type  3   force =    -0.00000007   -0.00000004   -0.01124655
     atom    9 type  3   force =     0.00000007    0.00000004    0.00001448
     atom   10 type  3   force =     0.00000018    0.00000016    0.00001546
     The Hubbard contrib.    to forces
     atom    1 type  1   force =     0.00000000    0.00000000    0.00000000
     atom    2 type  1   force =     0.00000000    0.00000000    0.00000000
     atom    3 type  2   force =     0.00000000    0.00000000    0.00000000
     atom    4 type  2   force =     0.00000000    0.00000000    0.00000000
     atom    5 type  2   force =     0.00000000    0.00000000    0.00000000
     atom    6 type  2   force =     0.00000000    0.00000000    0.00000000
     atom    7 type  3   force =     0.00000000    0.00000000    0.00000000
     atom    8 type  3   force =     0.00000000    0.00000000    0.00000000
     atom    9 type  3   force =     0.00000000    0.00000000    0.00000000
     atom   10 type  3   force =     0.00000000    0.00000000    0.00000000
     The SCF correction term to forces
     atom    1 type  1   force =     0.00000104   -0.00000065    0.00014682
     atom    2 type  1   force =    -0.00000032    0.00000032    0.00011692
     atom    3 type  2   force =     0.00000009    0.00000013   -0.00000906
     atom    4 type  2   force =    -0.00000009   -0.00000013   -0.00000896
     atom    5 type  2   force =    -0.00000045   -0.00000018   -0.00039975
     atom    6 type  2   force =    -0.00000005   -0.00000010    0.00031312
     atom    7 type  3   force =    -0.00000140    0.00000015    0.00110294
     atom    8 type  3   force =     0.00000085   -0.00000126   -0.00047019
     atom    9 type  3   force =     0.00000230   -0.00000045   -0.00047209
     atom   10 type  3   force =     0.00000225    0.00000046   -0.00044597

     Total force =     0.085064     Total SCF correction =     0.001467

     Computing stress (Cartesian axis) and pressure

     negative rho (up, down):  1.343E+00 0.000E+00
          total   stress  (Ry/bohr**3)                   (kbar)     P=       45.36
   0.00042604   0.00000000   0.00000000           62.67        0.00        0.00
   0.00000000   0.00042604   0.00000000            0.00       62.67        0.00
   0.00000000   0.00000000   0.00007304            0.00        0.00       10.74

     kinetic stress (kbar)  21091.51      0.00      0.00
                                0.00  21091.51      0.00
                                0.00      0.00  21117.72

     local   stress (kbar)  -3117.24      0.03      0.00
                                0.03  -3117.24      0.00
                                0.00      0.00   7488.85

     nonloc. stress (kbar)   5953.09      0.00      0.00
                                0.00   5953.09      0.00
                                0.00      0.00   6276.25

     hartree stress (kbar)   8341.23     -0.01     -0.00
                               -0.01   8341.23     -0.00
                               -0.00     -0.00   3641.44

     exc-cor stress (kbar)  15923.89     -0.00     -0.00
                               -0.00  15923.89     -0.00
                               -0.00     -0.00  15930.21

     corecor stress (kbar) -22671.47      0.00      0.00
                                0.00 -22671.47      0.00
                                0.00      0.00 -22660.62

     ewald   stress (kbar) -25458.34      0.00      0.00
                                0.00 -25458.34     -0.00
                                0.00     -0.00 -31783.11

     hubbard stress (kbar)      0.00      0.00      0.00
                                0.00      0.00      0.00
                                0.00      0.00      0.00

     DFT-D   stress (kbar)      0.00      0.00      0.00
                                0.00      0.00      0.00
                                0.00      0.00      0.00

     XDM     stress (kbar)      0.00      0.00      0.00
                                0.00      0.00      0.00
                                0.00      0.00      0.00

     dft-nl  stress (kbar)      0.00      0.00      0.00
                                0.00      0.00      0.00
                                0.00      0.00      0.00

     TS-vdW  stress (kbar)      0.00      0.00      0.00
                                0.00      0.00      0.00
                                0.00      0.00      0.00

[...]

                                0.00      0.00      0.00

     Writing all to output data dir new_calculations/myprefix.save/

     General routines

     Parallel routines

   This run was terminated on:  14:25:19  21May2023

   JOB DONE.