     Program PWSCF v.7.0 starts on 21May2023 at  3: 5:29

     Reading input from espresso_24339.pwi
Warning: card &CELL ignored
Warning: card / ignored

     Current dimensions of program PWSCF are:
     Max number of different atomic species (ntypx) = 10
     Max number of k-points (npk) =  40000
     Max angular momentum in pseudopotentials (lmaxx) =  4

     gamma-point specific algorithms are used
     Message from routine setup:
     using ibrav=0 with symmetry is DISCOURAGED, use correct ibrav instead

     Subspace diagonalization in iterative solution of the eigenvalue problem:
     a serial algorithm will be used

     Using Slab Decomposition

     bravais-lattice index     =            0
     lattice parameter (alat)  =       8.0625  a.u.
     unit-cell volume          =    1704.9237 (a.u.)^3
     number of atoms/cell      =            8
     number of atomic types    =            3
     number of electrons       =        76.00
     number of Kohn-Sham states=           46
     kinetic-energy cutoff     =      30.0000  Ry
     charge density cutoff     =     240.0000  Ry
     scf convergence threshold =      1.0E-06
     mixing beta               =       0.7000
     number of iterations used =            8  plain     mixing
     Exchange-correlation=  SLA  PW   PBX  PBC
                           (   1   4   3   4   0   0   0)

     celldm(1)=   8.062468  celldm(2)=   0.000000  celldm(3)=   0.000000
     celldm(4)=   0.000000  celldm(5)=   0.000000  celldm(6)=   0.000000

     crystal axes: (cart. coord. in units of alat)
               a(1) = (   1.000000   0.000000   0.000000 )
               a(2) = (  -0.500000   0.866025   0.000000 )
               a(3) = (   0.000000   0.000000   3.756387 )

     reciprocal axes: (cart. coord. in units 2 pi/alat)
               b(1) = (  1.000000  0.577350  0.000000 )
               b(2) = (  0.000000  1.154701  0.000000 )
               b(3) = (  0.000000  0.000000  0.266213 )

     PseudoPot. # 1 for Cs read from file:
     /home/pragov/projects/rrg-bengioy-ad/pragov/crystal_structure_design/SSSP/Cs_pbe_v1.uspp.F.UPF
     MD5 check sum: 3476d69cb178dfad3ffaa59df4e07ca4
     Pseudo is Ultrasoft + core correction, Zval =  9.0
     Generated by new atomic code, or converted to UPF format
     Using radial grid of  905 points,  6 beta functions with:
                l(1) =   0
                l(2) =   0
                l(3) =   1
                l(4) =   1
                l(5) =   2
                l(6) =   2
     Q(r) pseudized with  6 coefficients,  rinner =    1.500   1.500   1.500
                                                       1.500   1.500

     PseudoPot. # 2 for Eu read from file:
     /home/pragov/projects/rrg-bengioy-ad/pragov/crystal_structure_design/SSSP/Eu.GGA-PBE-paw-v1.0.UPF
     MD5 check sum: acec5fd9176fb57ec8e299eae1ecaf48
     Pseudo is Projector augmented-wave + core cor, Zval = 17.0
     Generated using ATOMPAW code
     Shape of augmentation charge: BESSEL
     Using radial grid of 1109 points,  8 beta functions with:
                l(1) =   0
                l(2) =   0
                l(3) =   1
                l(4) =   1
                l(5) =   2
                l(6) =   2
                l(7) =   3
                l(8) =   3
     Q(r) pseudized with 0 coefficients

     PseudoPot. # 3 for S  read from file:
     /home/pragov/projects/rrg-bengioy-ad/pragov/crystal_structure_design/SSSP/s_pbe_v1.4.uspp.F.UPF
     MD5 check sum: 88d86576ff6df21479756cfb9bdac1df
     Pseudo is Ultrasoft + core correction, Zval =  6.0
     Generated by new atomic code, or converted to UPF format
     Using radial grid of  907 points,  6 beta functions with:
                l(1) =   0
                l(2) =   0
                l(3) =   1
                l(4) =   1
                l(5) =   2
                l(6) =   2
     Q(r) pseudized with  8 coefficients,  rinner =    1.300   1.300   1.300
                                                       1.300   1.300

     atomic species   valence    mass     pseudopotential
        Cs             9.00   132.90545     Cs( 1.00)
        Eu            17.00   151.96400     Eu( 1.00)
        S              6.00    32.06000     S ( 1.00)

     24 Sym. Ops., with inversion, found (12 have fractional translation)

                                    s                        frac. trans.

      isym =  1     identity

 cryst.   s( 1) = (     1          0          0      )
                  (     0          1          0      )
                  (     0          0          1      )

 cart.    s( 1) = (  1.0000000  0.0000000  0.0000000 )
                  (  0.0000000  1.0000000  0.0000000 )
                  (  0.0000000  0.0000000  1.0000000 )

      isym =  2     180 deg rotation - cart. axis [0,0,1]

 cryst.   s( 2) = (    -1          0          0      )    f =(  0.0000000 )
                  (     0         -1          0      )       (  0.0000000 )
                  (     0          0          1      )       (  0.5000000 )

 cart.    s( 2) = ( -1.0000000 -0.0000000  0.0000000 )    f =(  0.0000000 )
                  (  0.0000000 -1.0000000  0.0000000 )       (  0.0000000 )
                  (  0.0000000  0.0000000  1.0000000 )       (  1.8781937 )

[...]

      isym =  4     180 deg rotation - cart. axis [1,0,0]

[...]

      isym =  5      60 deg rotation - cryst. axis [0,0,1]

[...]

 cryst.   s( 8) = (    -1         -1          0      )
                  (     1          0          0      )
                  (     0          0          1      )

 cart.    s( 8) = ( -0.5000000  0.8660254  0.0000000 )
                  ( -0.8660254 -0.5000000  0.0000000 )
                  (  0.0000000  0.0000000  1.0000000 )

[...]

 cryst.   s( 9) = (     0         -1          0      )    f =(  0.0000000 )
                  (    -1          0          0      )       (  0.0000000 )
                  (     0          0         -1      )       (  0.5000000 )

 cart.    s( 9) = (  0.5000000 -0.8660254  0.0000000 )    f =(  0.0000000 )
                  ( -0.8660254 -0.5000000  0.0000000 )       (  0.0000000 )
                  (  0.0000000  0.0000000 -1.0000000 )       (  1.8781937 )

[...]

 cryst.   s(10) = (     1          1          0      )    f =(  0.0000000 )
                  (     0         -1          0      )       ( -0.0000010 )
                  (     0          0         -1      )       (  0.5000000 )

 cart.    s(10) = (  0.5000000  0.8660254  0.0000000 )    f =(  0.0000005 )
                  (  0.8660254 -0.5000000  0.0000000 )       ( -0.0000009 )
                  (  0.0000000  0.0000000 -1.0000000 )       (  1.8781937 )

[...]

 cryst.   s(11) = (    -1         -1          0      )
                  (     0          1          0      )
                  (     0          0         -1      )

 cart.    s(11) = ( -0.5000000 -0.8660254  0.0000000 )
                  ( -0.8660254  0.5000000  0.0000000 )
                  (  0.0000000  0.0000000 -1.0000000 )

      isym = 12     180 deg rotation - cryst. axis [1,1,0]

[...]

      isym = 13     inversion

[...]

      isym = 14     inv. 180 deg rotation - cart. axis [0,0,1]

[...]

      isym = 16     inv. 180 deg rotation - cart. axis [1,0,0]

[...]

      isym = 17     inv.  60 deg rotation - cryst. axis [0,0,1]

[...]

 cryst.   s(22) = (    -1         -1          0      )    f =(  0.0000000 )
                  (     0          1          0      )       ( -0.0000010 )
                  (     0          0          1      )       (  0.5000000 )

 cart.    s(22) = ( -0.5000000 -0.8660254  0.0000000 )    f =(  0.0000005 )
                  ( -0.8660254  0.5000000  0.0000000 )       ( -0.0000009 )
                  (  0.0000000  0.0000000  1.0000000 )       (  1.8781937 )

[...]

      isym = 24     inv. 180 deg rotation - cryst. axis [1,1,0]

 cryst.   s(24) = (     0         -1          0      )
                  (    -1          0          0      )
                  (     0          0          1      )

 cart.    s(24) = (  0.5000000 -0.8660254  0.0000000 )
                  ( -0.8660254 -0.5000000  0.0000000 )
                  (  0.0000000  0.0000000  1.0000000 )

   Cartesian axes

     site n.     atom                  positions (alat units)
         1           Cs  tau(   1) = (  -0.0000005   0.5773505   0.9390969  )
         2           Cs  tau(   2) = (   0.5000005   0.2886748   2.8172906  )
         3           Eu  tau(   3) = (   0.0000000   0.0000000   1.8781937  )
         4           Eu  tau(   4) = (   0.0000000   0.0000000   0.0000000  )
         5           S   tau(   5) = (  -0.0000005   0.5773505   3.4108524  )
         6           S   tau(   6) = (   0.5000005   0.2886748   0.3455351  )
         7           S   tau(   7) = (   0.5000005   0.2886748   1.5326587  )
         8           S   tau(   8) = (  -0.0000005   0.5773505   2.2237288  )

   Crystallographic axes

     site n.     atom                  positions (cryst. coord.)
         1           Cs  tau(   1) = (  0.3333330  0.6666670  0.2500000  )
         2           Cs  tau(   2) = (  0.6666670  0.3333330  0.7500000  )
         3           Eu  tau(   3) = (  0.0000000  0.0000000  0.5000000  )
         4           Eu  tau(   4) = (  0.0000000  0.0000000  0.0000000  )
         5           S   tau(   5) = (  0.3333330  0.6666670  0.9080140  )
         6           S   tau(   6) = (  0.6666670  0.3333330  0.0919860  )
         7           S   tau(   7) = (  0.6666670  0.3333330  0.4080140  )
         8           S   tau(   8) = (  0.3333330  0.6666670  0.5919860  )

     number of k points=     1  Methfessel-Paxton smearing, width (Ry)=  0.0010
                       cart. coord. in units 2pi/alat
        k(    1) = (   0.0000000   0.0000000   0.0000000), wk =   2.0000000

                       cryst. coord.
        k(    1) = (   0.0000000   0.0000000   0.0000000), wk =   2.0000000

     Initial potential from superposition of free atoms

     starting charge      75.9116, renormalised to      76.0000
     Starting wfcs are  106 randomized atomic wfcs
     Checking if some PAW data can be deallocated...

     Self-consistent Calculation

     iteration #  1     ecut=    30.00 Ry     beta= 0.70
     Davidson diagonalization with overlap

     ethr =  1.00E-02,  avg # of iterations =  1.0

     total energy              =   -1501.95864112 Ry
     estimated scf accuracy    <       4.30588782 Ry

[...]

     negative rho (up, down):  2.095E-05 0.000E+00

[...]

     negative rho (up, down):  4.989E-06 0.000E+00

[...]

     WARNING: integrated charge=    76.00020571, expected=    76.00000000

[...]

     WARNING: integrated charge=    76.00000938, expected=    76.00000000

[...]

     total energy              =   -1507.09384272 Ry
     estimated scf accuracy    <       0.00000185 Ry

     iteration # 40     ecut=    30.00 Ry     beta= 0.70
     Davidson diagonalization with overlap

     ethr =  2.44E-09,  avg # of iterations =  8.0

     End of self-consistent calculation

          k = 0.0000 0.0000 0.0000 (  2334 PWs)   bands (ev):

   -32.9663 -32.9660 -14.6768 -14.6759 -12.1283 -12.1267 -11.6881 -11.6879
   -11.6877 -11.6875  -4.7185  -4.5634  -4.1368  -3.9224  -1.4062  -1.3067
    -1.1932  -1.1932  -1.1924  -1.1924   3.9896   4.4618   4.9620   4.9620
     4.9709   4.9710   5.3806   6.0217   6.0217   6.0299   6.0300   6.0770
     7.8979   7.8979   7.8982   7.8982   8.0165   8.0168   8.2704   8.2985
     8.2986   8.3040   8.3041   8.4057   8.4482   8.4650

     occupation numbers
     1.0000   1.0000   1.0000   1.0000   1.0000   1.0000   1.0000   1.0000
     1.0000   1.0000   1.0000   1.0000   1.0000   1.0000   1.0000   1.0000
     1.0000   1.0000   1.0000   1.0000   1.0000   1.0000   1.0000   1.0000
     1.0000   1.0000   1.0000   1.0000   1.0000   1.0000   1.0000   1.0000
     1.0000   1.0000   1.0000   1.0000   1.0000   1.0000  -0.0000  -0.0000
    -0.0000  -0.0000  -0.0000  -0.0000  -0.0000  -0.0000

     the Fermi energy is     8.1124 ev

!    total energy              =   -1507.09384245 Ry
     estimated scf accuracy    <       0.00000068 Ry
     smearing contrib. (-TS)   =       0.00000000 Ry
     internal energy E=F+TS    =   -1507.09384245 Ry

     The total energy is F=E-TS. E is the sum of the following terms:
     one-electron contribution =    -291.31891225 Ry
     hartree contribution      =     186.45737760 Ry
     xc contribution           =    -135.25569505 Ry
     ewald contribution        =    -352.77859958 Ry
     one-center paw contrib.   =    -914.19801317 Ry
      -> PAW hartree energy AE =     314.29440098 Ry
      -> PAW hartree energy PS =    -300.08956664 Ry
      -> PAW xc energy AE      =    -966.62760227 Ry
      -> PAW xc energy PS      =      38.22475476 Ry
      -> total E_H with PAW    =     200.66221194 Ry
      -> total E_XC with PAW   =   -1063.65854256 Ry

     convergence has been achieved in  40 iterations

     Forces acting on atoms (cartesian axes, Ry/au):

     atom    1 type  1   force =     0.00000000    0.00000000    0.00000000
     atom    2 type  1   force =    -0.00000000    0.00000000   -0.00000000
     atom    3 type  2   force =     0.00000000    0.00000000    0.00000000
     atom    4 type  2   force =     0.00000000    0.00000000    0.00000000
     atom    5 type  3   force =     0.00000000   -0.00000000    0.09126178
     atom    6 type  3   force =    -0.00000000    0.00000000   -0.09126178
     atom    7 type  3   force =    -0.00000000   -0.00000000    0.09126178
     atom    8 type  3   force =     0.00000000   -0.00000000   -0.09126178
     The non-local contrib.  to forces
     atom    1 type  1   force =     0.00000000    0.00000000   -0.00000000
     atom    2 type  1   force =     0.00000000    0.00000000    0.00000000
     atom    3 type  2   force =     0.00000000    0.00000000    0.00000000
     atom    4 type  2   force =     0.00000000   -0.00000000    0.00000000
     atom    5 type  3   force =     0.00000000    0.00000000   -0.05276108
     atom    6 type  3   force =     0.00000000    0.00000000    0.05276108
     atom    7 type  3   force =    -0.00000000    0.00000000   -0.05276108
     atom    8 type  3   force =     0.00000000   -0.00000000    0.05276108
     The ionic contribution  to forces
     atom    1 type  1   force =     0.00000356   -0.00000206   -0.00000000
     atom    2 type  1   force =    -0.00000356    0.00000206    0.00000000
     atom    3 type  2   force =    -0.00000000   -0.00000000    0.00000000
     atom    4 type  2   force =    -0.00000000   -0.00000000   -0.00000000
     atom    5 type  3   force =     0.00000852   -0.00000492   -8.03014271
     atom    6 type  3   force =    -0.00000852    0.00000492    8.03014271
     atom    7 type  3   force =    -0.00000852    0.00000492   -8.03014271
     atom    8 type  3   force =     0.00000852   -0.00000492    8.03014271
     The local contribution  to forces
     atom    1 type  1   force =     0.00000413   -0.00001030    0.00008046
     atom    2 type  1   force =     0.00000767   -0.00000267   -0.00006386
     atom    3 type  2   force =    -0.00000883    0.00006232   -0.00149893
     atom    4 type  2   force =    -0.00003571   -0.00006386    0.00121881
     atom    5 type  3   force =     0.00001694    0.00001988    8.17175222
     atom    6 type  3   force =    -0.00001415    0.00005253   -8.17048672
     atom    7 type  3   force =     0.00003484   -0.00004893    8.17042688
     atom    8 type  3   force =    -0.00001893    0.00002677   -8.17183098
     The core correction contribution to forces
     atom    1 type  1   force =     0.00000075   -0.00000036   -0.00000214
     atom    2 type  1   force =    -0.00000014   -0.00000056   -0.00000168
     atom    3 type  2   force =     0.00000000    0.00000000   -0.00000001
     atom    4 type  2   force =    -0.00000000   -0.00000000    0.00000000
     atom    5 type  3   force =     0.00000113   -0.00000055    0.00305769
     atom    6 type  3   force =    -0.00000003    0.00000223   -0.00305066
     atom    7 type  3   force =     0.00000048   -0.00000006    0.00304667
     atom    8 type  3   force =    -0.00000023   -0.00000065   -0.00306050
     The Hubbard contrib.    to forces
     atom    1 type  1   force =     0.00000000    0.00000000    0.00000000
     atom    2 type  1   force =     0.00000000    0.00000000    0.00000000
     atom    3 type  2   force =     0.00000000    0.00000000    0.00000000
     atom    4 type  2   force =     0.00000000    0.00000000    0.00000000
     atom    5 type  3   force =     0.00000000    0.00000000    0.00000000
     atom    6 type  3   force =     0.00000000    0.00000000    0.00000000
     atom    7 type  3   force =     0.00000000    0.00000000    0.00000000
     atom    8 type  3   force =     0.00000000    0.00000000    0.00000000
     The SCF correction term to forces
     atom    1 type  1   force =     0.00000000    0.00000387   -0.00008663
     atom    2 type  1   force =    -0.00000158   -0.00000009    0.00002012
     atom    3 type  2   force =     0.00011679   -0.00005172    0.00154291
     atom    4 type  2   force =     0.00004541    0.00019982   -0.00103977
     atom    5 type  3   force =    -0.00001460   -0.00002974   -0.00045767
     atom    6 type  3   force =     0.00001688    0.00000438   -0.00044988
     atom    7 type  3   force =    -0.00001660    0.00003478    0.00048040
     atom    8 type  3   force =     0.00000183   -0.00002621    0.00052263

     Total force =     0.182524     Total SCF correction =     0.002109

     Computing stress (Cartesian axis) and pressure

          total   stress  (Ry/bohr**3)                   (kbar)     P=       50.69
   0.00084560   0.00000000   0.00000000          124.39        0.00        0.00
   0.00000000   0.00084560   0.00000000            0.00      124.39        0.00
   0.00000000   0.00000000  -0.00065755            0.00        0.00      -96.73

     kinetic stress (kbar)   5418.74      0.00     -0.00
                                0.00   5418.74      0.00
                                0.00      0.00   5092.64

     local   stress (kbar) -11196.10     -0.02     -0.07
                               -0.02 -11195.77     -0.04
                               -0.07     -0.04   8274.76

     nonloc. stress (kbar)   6585.10      0.00      0.00
                                0.00   6585.10      0.00
                                0.00     -0.00   6476.28

     hartree stress (kbar)   8433.17      0.01      0.03
                                0.01   8433.05      0.01
                                0.03      0.01   -778.22

     exc-cor stress (kbar)   3165.51      0.00      0.00
                                0.00   3165.51     -0.00
                                0.00     -0.00   3164.02

     corecor stress (kbar)  -5486.06      0.00     -0.00
                                0.00  -5486.06     -0.00
                               -0.00     -0.00  -5479.76

     ewald   stress (kbar)  -6796.08     -0.01      0.00
                               -0.01  -6796.09     -0.00
                                0.00     -0.00 -16846.45

     hubbard stress (kbar)      0.00      0.00      0.00
                                0.00      0.00      0.00
                                0.00      0.00      0.00

     DFT-D   stress (kbar)      0.00      0.00      0.00
                                0.00      0.00      0.00
                                0.00      0.00      0.00

     XDM     stress (kbar)      0.00      0.00      0.00
                                0.00      0.00      0.00
                                0.00      0.00      0.00

     dft-nl  stress (kbar)      0.00      0.00      0.00
                                0.00      0.00      0.00
                                0.00      0.00      0.00

     TS-vdW  stress (kbar)      0.00      0.00      0.00
                                0.00      0.00      0.00
                                0.00      0.00      0.00

[...]

                                0.00      0.00      0.00

     Writing all to output data dir new_calculations/myprefix.save/

     General routines

     Parallel routines

     PAW routines

   This run was terminated on:   3: 6:38  21May2023

   JOB DONE.