     Program PWSCF v.7.0 starts on 21May2023 at 14: 9:21

     Reading input from espresso_24789.pwi
Warning: card &CELL ignored
Warning: card / ignored

     Current dimensions of program PWSCF are:
     Max number of different atomic species (ntypx) = 10
     Max number of k-points (npk) =  40000
     Max angular momentum in pseudopotentials (lmaxx) =  4

     gamma-point specific algorithms are used
     Message from routine setup:
     using ibrav=0 with symmetry is DISCOURAGED, use correct ibrav instead

     Subspace diagonalization in iterative solution of the eigenvalue problem:
     a serial algorithm will be used

     Using Slab Decomposition

     bravais-lattice index     =            0
     lattice parameter (alat)  =      17.3521  a.u.
     unit-cell volume          =    2877.0519 (a.u.)^3
     number of atoms/cell      =           14
     number of atomic types    =            2
     number of electrons       =       170.00
     number of Kohn-Sham states=          102
     kinetic-energy cutoff     =      30.0000  Ry
     charge density cutoff     =     240.0000  Ry
     scf convergence threshold =      1.0E-06
     mixing beta               =       0.7000
     number of iterations used =            8  plain     mixing
     Exchange-correlation= SLA  PW   PBE  PBE
                           (   1   4   3   4   0   0   0)

     celldm(1)=  17.352142  celldm(2)=   0.000000  celldm(3)=   0.000000
     celldm(4)=   0.000000  celldm(5)=   0.000000  celldm(6)=   0.000000

     crystal axes: (cart. coord. in units of alat)
               a(1) = (   1.000000   0.000000   0.000000 )
               a(2) = (   0.727437   0.686174   0.000000 )
               a(3) = (   0.084322   0.033494   0.802517 )

     reciprocal axes: (cart. coord. in units 2 pi/alat)
               b(1) = (  1.000000 -1.060135 -0.060825 )
               b(2) = (  0.000000  1.457356 -0.060825 )
               b(3) = (  0.000000  0.000000  1.246080 )

     PseudoPot. # 1 for La read from file:
     /home/pragov/projects/rrg-bengioy-ad/pragov/crystal_structure_design/SSSP/La.GGA-PBE-paw-v1.0.UPF
     MD5 check sum: 436541e95c1ad8901025bd0b0ed42ae2
     Pseudo is Projector augmented-wave + core cor, Zval = 11.0
     Generated using ATOMPAW code
     Shape of augmentation charge: BESSEL
     Using radial grid of 1101 points,  8 beta functions with:
                l(1) =   0
                l(2) =   0
                l(3) =   1
                l(4) =   1
                l(5) =   2
                l(6) =   2
                l(7) =   3
                l(8) =   3
     Q(r) pseudized with 0 coefficients

     PseudoPot. # 2 for Ir read from file:
     /home/pragov/projects/rrg-bengioy-ad/pragov/crystal_structure_design/SSSP/Ir_pbe_v1.2.uspp.F.UPF
     MD5 check sum: 8836f839c3459d2b385c504ce6d91f2c
     Pseudo is Ultrasoft + core correction, Zval = 15.0
     Generated by new atomic code, or converted to UPF format
     Using radial grid of  983 points,  7 beta functions with:
                l(1) =   0
                l(2) =   0
                l(3) =   1
                l(4) =   1
                l(5) =   1
                l(6) =   2
                l(7) =   2
     Q(r) pseudized with  8 coefficients,  rinner =    1.400   1.400   1.400
                                                       1.400   1.400

     atomic species   valence    mass     pseudopotential
        La            11.00   138.90547     La( 1.00)
        Ir            15.00   192.21700     Ir( 1.00)

      2 Sym. Ops., with inversion, found

                                    s                        frac. trans.

      isym =  1     identity

 cryst.   s( 1) = (     1          0          0      )
                  (     0          1          0      )
                  (     0          0          1      )

 cart.    s( 1) = (  1.0000000 -0.0000000 -0.0000000 )
                  (  0.0000000  1.0000000 -0.0000000 )
                  (  0.0000000  0.0000000  1.0000000 )

      isym =  2     inversion

 cryst.   s( 2) = (    -1          0          0      )
                  (     0         -1          0      )
                  (     0          0         -1      )

 cart.    s( 2) = ( -1.0000000  0.0000000  0.0000000 )
                  (  0.0000000 -1.0000000  0.0000000 )
                  (  0.0000000  0.0000000 -1.0000000 )

   Cartesian axes

     site n.     atom                  positions (alat units)
         1           La  tau(   1) = (   0.6726160   0.5790193   0.7315614  )
         2           La  tau(   2) = (   0.9673257   0.6960841   0.4722137  )
         3           La  tau(   3) = (   1.1391430   0.1406491   0.0709553  )
         4           La  tau(   4) = (   0.8444332   0.0235843   0.3303030  )
         5           La  tau(   5) = (   0.5800236   0.1733955   0.6554523  )
         6           La  tau(   6) = (   1.3130095   0.4645528   0.5483228  )
         7           La  tau(   7) = (   1.2317354   0.5462730   0.1470644  )
         8           La  tau(   8) = (   0.4987495   0.2551157   0.2541940  )
         9           La  tau(   9) = (   0.9481794   0.3147878   0.6018876  )
        10           La  tau(  10) = (   0.8635795   0.4048807   0.2006292  )
        11           Ir  tau(  11) = (   0.6640933   0.4262368   0.4654942  )
        12           Ir  tau(  12) = (   1.0783609   0.5907925   0.7382809  )
        13           Ir  tau(  13) = (   1.1476657   0.2934317   0.3370225  )
        14           Ir  tau(  14) = (   0.7333981   0.1288760   0.0642358  )

   Crystallographic axes

     site n.     atom                  positions (cryst. coord.)
         1           La  tau(   1) = (  0.0142800  0.7993400  0.9115840  )
         2           La  tau(   2) = (  0.2006600  0.9857200  0.5884160  )
         3           La  tau(   3) = (  0.9857200  0.2006600  0.0884160  )
         4           La  tau(   4) = (  0.7993400  0.0142800  0.4115840  )
         5           La  tau(   5) = (  0.3563330  0.2128310  0.8167460  )
         6           La  tau(   6) = (  0.7871690  0.6436670  0.6832540  )
         7           La  tau(   7) = (  0.6436670  0.7871690  0.1832540  )
         8           La  tau(   8) = (  0.2128310  0.3563330  0.3167460  )
         9           La  tau(   9) = (  0.5778520  0.4221480  0.7500000  )
        10           La  tau(  10) = (  0.4221480  0.5778520  0.2500000  )
        11           Ir  tau(  11) = (  0.1839110  0.5928650  0.5800430  )
        12           Ir  tau(  12) = (  0.4071350  0.8160890  0.9199570  )
        13           Ir  tau(  13) = (  0.8160890  0.4071350  0.4199570  )
        14           Ir  tau(  14) = (  0.5928650  0.1839110  0.0800430  )

     number of k points=     1  Methfessel-Paxton smearing, width (Ry)=  0.0010
                       cart. coord. in units 2pi/alat
        k(    1) = (   0.0000000   0.0000000   0.0000000), wk =   2.0000000

                       cryst. coord.
        k(    1) = (   0.0000000   0.0000000   0.0000000), wk =   2.0000000

     Initial potential from superposition of free atoms

     starting charge     167.9146, renormalised to     170.0000

     negative rho (up, down):  1.465E+00 0.000E+00
     Starting wfcs are  368 randomized atomic wfcs
     Checking if some PAW data can be deallocated...

     Self-consistent Calculation

     iteration #  1     ecut=    30.00 Ry     beta= 0.70
     Davidson diagonalization with overlap

     ethr =  1.00E-02,  avg # of iterations =  1.0

     negative rho (up, down):  1.176E+00 0.000E+00

     total energy              =   -5306.37608190 Ry
     estimated scf accuracy    <       5.36701403 Ry

[...]

     c_bands:  1 eigenvalues not converged
     ethr =  4.18E-05,  avg # of iterations = 20.0

[...]

     total energy              =   -5309.90174180 Ry
     estimated scf accuracy    <       0.00000247 Ry

     iteration # 21     ecut=    30.00 Ry     beta= 0.70
     Davidson diagonalization with overlap

     ethr =  1.45E-09,  avg # of iterations =  2.0

[...]

     End of self-consistent calculation

          k = 0.0000 0.0000 0.0000 (  3991 PWs)   bands (ev):

   -35.5934 -35.5932 -35.5926 -35.5913 -35.4902 -35.4899 -35.4895 -35.4881
   -35.4438 -35.4437 -35.4431 -35.4418 -19.8448 -19.7363 -19.7250 -19.7236
   -19.7151 -19.7049 -19.6892 -19.6733 -19.5228 -19.4869  -4.0791  -4.0011
    -3.9763  -3.9570  -3.9429  -3.8760  -3.8688  -3.8507  -3.8266  -3.7454
    -3.6861  -3.6282  -3.5163  -3.5152  -3.4975  -3.4360  -3.3900  -3.3634
    -3.3549  -3.3493  -3.3019  -3.2574  -3.2080  -3.1393  -3.1232  -3.0874
    -3.0622  -3.0413  -2.9866  -2.9798   8.2073   9.6338   9.6925   9.8999
     9.9307   9.9487  10.0848  10.1457  10.1532  10.2087  10.2220  10.2232
    10.3004  10.3274  10.3773  10.4053  10.4220  10.4432  10.5881  10.6259
    10.6379  10.7160  10.7262  10.9248  11.4216  11.7940  12.0617  12.2409
    12.3160  12.3498  12.6315  12.6374  12.7193  12.9526  13.0664  13.1222
    13.1900  13.4391  13.6009  13.6035  13.7056  13.7366  13.8368  14.0099
    14.0170  14.1720  14.1986  14.2935  14.3636  14.4240

     occupation numbers
     1.0000   1.0000   1.0000   1.0000   1.0000   1.0000   1.0000   1.0000
     1.0000   1.0000   1.0000   1.0000   1.0000   1.0000   1.0000   1.0000
     1.0000   1.0000   1.0000   1.0000   1.0000   1.0000   1.0000   1.0000
     1.0000   1.0000   1.0000   1.0000   1.0000   1.0000   1.0000   1.0000
     1.0000   1.0000   1.0000   1.0000   1.0000   1.0000   1.0000   1.0000
     1.0000   1.0000   1.0000   1.0000   1.0000   1.0000   1.0000   1.0000
     1.0000   1.0000   1.0000   1.0000   1.0000   1.0000   1.0000   1.0000
     1.0000   1.0000   1.0000   1.0000   1.0000   1.0000   1.0000   1.0000
     1.0000   1.0000   1.0000   1.0000   1.0000   1.0000   1.0000   1.0000
     1.0000   1.0000   1.0000   1.0000   1.0000   1.0000   1.0000   1.0000
     1.0000   1.0000   1.0000   1.0000   1.0000  -0.0000  -0.0000  -0.0000
    -0.0000  -0.0000  -0.0000  -0.0000  -0.0000  -0.0000  -0.0000  -0.0000
    -0.0000  -0.0000  -0.0000  -0.0000  -0.0000  -0.0000

     the Fermi energy is    12.7921 ev

!    total energy              =   -5309.90174125 Ry
     estimated scf accuracy    <       0.00000097 Ry
     smearing contrib. (-TS)   =       0.00000000 Ry
     internal energy E=F+TS    =   -5309.90174125 Ry

     The total energy is F=E-TS. E is the sum of the following terms:
     one-electron contribution =    -311.10574547 Ry
     hartree contribution      =     253.35150459 Ry
     xc contribution           =    -289.19305195 Ry
     ewald contribution        =    -982.05802194 Ry
     one-center paw contrib.   =   -3980.89642647 Ry
      -> PAW hartree energy AE =     353.89955272 Ry
      -> PAW hartree energy PS =    -354.32481071 Ry
      -> PAW xc energy AE      =   -4053.95275216 Ry
      -> PAW xc energy PS      =      73.48158367 Ry
      -> total E_H with PAW    =     252.92624660 Ry
      -> total E_XC with PAW   =   -4269.66422044 Ry

     convergence has been achieved in  21 iterations

     negative rho (up, down):  1.270E+00 0.000E+00

     Forces acting on atoms (cartesian axes, Ry/au):

     atom    1 type  1   force =     0.00077424    0.04824052    0.02039654
     atom    2 type  1   force =    -0.03368030    0.03457941   -0.02040310
     atom    3 type  1   force =    -0.00077424   -0.04824052   -0.02039654
     atom    4 type  1   force =     0.03368030   -0.03457941    0.02040310
     atom    5 type  1   force =    -0.00445798    0.03084223    0.00660485
     atom    6 type  1   force =    -0.01792625    0.02549972   -0.00665579
     atom    7 type  1   force =     0.00445798   -0.03084223   -0.00660485
     atom    8 type  1   force =     0.01792625   -0.02549972    0.00665579
     atom    9 type  1   force =    -0.01047390    0.02635377   -0.00004577
     atom   10 type  1   force =     0.01047390   -0.02635377    0.00004577
     atom   11 type  2   force =     0.00279369    0.00151635   -0.01408544
     atom   12 type  2   force =    -0.00309336   -0.00059414    0.01397448
     atom   13 type  2   force =    -0.00279369   -0.00151635    0.01408544
     atom   14 type  2   force =     0.00309336    0.00059414   -0.01397448
     The non-local contrib.  to forces
     atom    1 type  1   force =     0.04104576   -0.15583136    0.03935455
     atom    2 type  1   force =     0.07710301   -0.14151832   -0.03928173
     atom    3 type  1   force =    -0.04104576    0.15583136   -0.03935455
     atom    4 type  1   force =    -0.07710301    0.14151832    0.03928173
     atom    5 type  1   force =     0.00498171   -0.11900002    0.01656635
     atom    6 type  1   force =     0.07802433   -0.09002428   -0.01647273
     atom    7 type  1   force =    -0.00498171    0.11900002   -0.01656635
     atom    8 type  1   force =    -0.07802433    0.09002428    0.01647273
     atom    9 type  1   force =     0.03872876   -0.09750230    0.00006357
     atom   10 type  1   force =    -0.03872876    0.09750230   -0.00006357
     atom   11 type  2   force =     0.02046105    0.00898706   -0.01013733
     atom   12 type  2   force =    -0.02102542   -0.00738973    0.01016018
     atom   13 type  2   force =    -0.02046105   -0.00898706    0.01013733
     atom   14 type  2   force =     0.02102542    0.00738973   -0.01016018
     The ionic contribution  to forces
     atom    1 type  1   force =    -1.86857952    0.08186359    3.38738175
     atom    2 type  1   force =     1.30310182    1.34172154   -3.38738175
     atom    3 type  1   force =     1.86857952   -0.08186359   -3.38738175
     atom    4 type  1   force =    -1.30310182   -1.34172154    3.38738175
     atom    5 type  1   force =    -4.03706446   -1.62737620   -1.41986920
     atom    6 type  1   force =     4.05337484    1.58631497    1.41986920
     atom    7 type  1   force =     4.03706446    1.62737620    1.41986920
     atom    8 type  1   force =    -4.05337484   -1.58631497   -1.41986920
     atom    9 type  1   force =     1.47779177   -3.72032780    0.00000000
     atom   10 type  1   force =    -1.47779177    3.72032780   -0.00000000
     atom   11 type  2   force =    -2.82835319    0.88784755   -0.99119835
     atom   12 type  2   force =     1.44823168    2.58659623    0.99119835
     atom   13 type  2   force =     2.82835319   -0.88784755    0.99119835
     atom   14 type  2   force =    -1.44823168   -2.58659623   -0.99119835
     The local contribution  to forces
     atom    1 type  1   force =     1.82786374    0.12206148   -3.40687560
     atom    2 type  1   force =    -1.41380547   -1.16574587    3.40707493
     atom    3 type  1   force =    -1.82805569   -0.12227661    3.40559121
     atom    4 type  1   force =     1.41368198    1.16503446   -3.40591119
     atom    5 type  1   force =     4.02761403    1.77735926    1.40975300
     atom    6 type  1   force =    -4.14871833   -1.47077752   -1.40962081
     atom    7 type  1   force =    -4.02742058   -1.77705529   -1.41062591
     atom    8 type  1   force =     4.14964028    1.47121846    1.41021258
     atom    9 type  1   force =    -1.52730553    3.84419673    0.00009356
     atom   10 type  1   force =     1.52655033   -3.84405743    0.00005968
     atom   11 type  2   force =     2.80800933   -0.88840039    0.98665416
     atom   12 type  2   force =    -1.43308157   -2.57331254   -0.98667591
     atom   13 type  2   force =    -2.80825392    0.88897744   -0.98551530
     atom   14 type  2   force =     1.43314998    2.57310180    0.98571441
     The core correction contribution to forces
     atom    1 type  1   force =    -0.00001146    0.00000791    0.00001088
     atom    2 type  1   force =     0.00000284    0.00001350   -0.00001095
     atom    3 type  1   force =     0.00001146   -0.00000784   -0.00001110
     atom    4 type  1   force =    -0.00000285   -0.00001365    0.00001115
     atom    5 type  1   force =    -0.00001099    0.00010307   -0.00002452
     atom    6 type  1   force =    -0.00006266    0.00008252    0.00002438
     atom    7 type  1   force =     0.00001088   -0.00010305    0.00002436
     atom    8 type  1   force =     0.00006276   -0.00008247   -0.00002432
     atom    9 type  1   force =    -0.00001600    0.00004025   -0.00000007
     atom   10 type  1   force =     0.00001602   -0.00004023    0.00000011
     atom   11 type  2   force =     0.00201175   -0.00664563    0.00114806
     atom   12 type  2   force =     0.00309816   -0.00622940   -0.00115300
     atom   13 type  2   force =    -0.00201607    0.00666022   -0.00113651
     atom   14 type  2   force =    -0.00309538    0.00621308    0.00115491
     The Hubbard contrib.    to forces
     atom    1 type  1   force =     0.00000000    0.00000000    0.00000000
     atom    2 type  1   force =     0.00000000    0.00000000    0.00000000
     atom    3 type  1   force =     0.00000000    0.00000000    0.00000000
     atom    4 type  1   force =     0.00000000    0.00000000    0.00000000
     atom    5 type  1   force =     0.00000000    0.00000000    0.00000000
     atom    6 type  1   force =     0.00000000    0.00000000    0.00000000
     atom    7 type  1   force =     0.00000000    0.00000000    0.00000000
     atom    8 type  1   force =     0.00000000    0.00000000    0.00000000
     atom    9 type  1   force =     0.00000000    0.00000000    0.00000000
     atom   10 type  1   force =     0.00000000    0.00000000    0.00000000
     atom   11 type  2   force =     0.00000000    0.00000000    0.00000000
     atom   12 type  2   force =     0.00000000    0.00000000    0.00000000
     atom   13 type  2   force =     0.00000000    0.00000000    0.00000000
     atom   14 type  2   force =     0.00000000    0.00000000    0.00000000
     The SCF correction term to forces
     atom    1 type  1   force =     0.00042373    0.00019794    0.00041804
     atom    2 type  1   force =    -0.00008832    0.00004585   -0.00068990
     atom    3 type  1   force =    -0.00029576    0.00013519    0.00065273
     atom    4 type  1   force =     0.00020017    0.00054030   -0.00024663
     atom    5 type  1   force =    -0.00000422   -0.00027175    0.00009573
     atom    6 type  1   force =    -0.00049033   -0.00005248   -0.00044010
     atom    7 type  1   force =    -0.00024101   -0.00008799    0.00061038
     atom    8 type  1   force =    -0.00032354   -0.00030153   -0.00012029
     atom    9 type  1   force =     0.00035712   -0.00007702   -0.00020236
     atom   10 type  1   force =     0.00045810   -0.00011013    0.00005001
     atom   11 type  2   force =     0.00060437   -0.00020755   -0.00059895
     atom   12 type  2   force =    -0.00034735   -0.00031905    0.00047974
     atom   13 type  2   force =    -0.00047623   -0.00025472   -0.00064539
     atom   14 type  2   force =     0.00021388    0.00042541    0.00054960

     Total force =     0.132202     Total SCF correction =     0.002414

     Computing stress (Cartesian axis) and pressure

     negative rho (up, down):  1.270E+00 0.000E+00
          total   stress  (Ry/bohr**3)                   (kbar)     P=        1.26
   0.00017221   0.00010944  -0.00001906           25.33       16.10       -2.80
   0.00010944  -0.00005984  -0.00000751           16.10       -8.80       -1.11
  -0.00001906  -0.00000751  -0.00008658           -2.80       -1.11      -12.74

     kinetic stress (kbar)  12556.99     17.70    -17.95
                               17.70  12519.46     -7.12
                              -17.95     -7.12  12592.77

     local   stress (kbar)  -2649.02   -522.57  -1443.79
                             -522.57  -1540.99   -573.48
                            -1443.79   -573.48  -5140.51

     nonloc. stress (kbar)   6365.17      6.40     -8.01
                                6.40   6351.61     -3.19
                               -8.01     -3.19   6314.94

     hartree stress (kbar)   4214.29    233.41    564.69
                              233.41   3719.35    224.30
                              564.69    224.30   5020.35

     exc-cor stress (kbar)   3645.05     -0.04      0.65
                               -0.04   3645.14      0.26
                                0.65      0.26   3649.87

     corecor stress (kbar)  -7015.27      0.54      0.33
                                0.54  -7016.41      0.13
                                0.33      0.13  -7015.88

     ewald   stress (kbar) -17091.88    280.67    901.27
                              280.67 -17686.97    358.00
                              901.27    358.00 -15434.26

     hubbard stress (kbar)      0.00      0.00      0.00
                                0.00      0.00      0.00
                                0.00      0.00      0.00

     DFT-D   stress (kbar)      0.00      0.00      0.00
                                0.00      0.00      0.00
                                0.00      0.00      0.00

     XDM     stress (kbar)      0.00      0.00      0.00
                                0.00      0.00      0.00
                                0.00      0.00      0.00

     dft-nl  stress (kbar)      0.00      0.00      0.00
                                0.00      0.00      0.00
                                0.00      0.00      0.00

     TS-vdW  stress (kbar)      0.00      0.00      0.00
                                0.00      0.00      0.00
                                0.00      0.00      0.00

[...]

                                0.00      0.00      0.00

     Writing all to output data dir new_calculations/myprefix.save/

     General routines

     Parallel routines

     PAW routines

   This run was terminated on:  14:11:37  21May2023

   JOB DONE.