     Program PWSCF v.7.0 starts on 20May2023 at  6:30:50

     Reading input from espresso_12128.pwi
Warning: card &CELL ignored
Warning: card / ignored

     Current dimensions of program PWSCF are:
     Max number of different atomic species (ntypx) = 10
     Max number of k-points (npk) =  40000
     Max angular momentum in pseudopotentials (lmaxx) =  4
     file In.pbe-dn-rrkjus_psl.0.2.2.UPF: wavefunction(s)  5S renormalized
     file Ga.pbe-dn-kjpaw_psl.1.0.0.UPF: wavefunction(s)  4S renormalized

     gamma-point specific algorithms are used
     Message from routine setup:
     using ibrav=0 with symmetry is DISCOURAGED, use correct ibrav instead

     Subspace diagonalization in iterative solution of the eigenvalue problem:
     a serial algorithm will be used

     Using Slab Decomposition

     bravais-lattice index     =            0
     lattice parameter (alat)  =      12.4578  a.u.
     unit-cell volume          =    1436.8942 (a.u.)^3
     number of atoms/cell      =            8
     number of atomic types    =            3
     number of electrons       =        76.00
     number of Kohn-Sham states=           46
     kinetic-energy cutoff     =      30.0000  Ry
     charge density cutoff     =     240.0000  Ry
     scf convergence threshold =      1.0E-06
     mixing beta               =       0.7000
     number of iterations used =            8  plain     mixing
     Exchange-correlation= SLA  PW   PBE  PBE
                           (   1   4   3   4   0   0   0)

     celldm(1)=  12.457837  celldm(2)=   0.000000  celldm(3)=   0.000000
     celldm(4)=   0.000000  celldm(5)=   0.000000  celldm(6)=   0.000000

     crystal axes: (cart. coord. in units of alat)
               a(1) = (   1.000000   0.000000   0.000000 )
               a(2) = (  -0.525028   0.851085   0.000000 )
               a(3) = (  -0.237486  -0.425543   0.873220 )

     reciprocal axes: (cart. coord. in units 2 pi/alat)
               b(1) = (  1.000000  0.616892  0.572593 )
               b(2) = (  0.000000  1.174971  0.572593 )
               b(3) = (  0.000000  0.000000  1.145186 )

     PseudoPot. # 1 for In read from file:
     /home/pragov/projects/rrg-bengioy-ad/pragov/crystal_structure_design/SSSP/In.pbe-dn-rrkjus_psl.0.2.2.UPF
     MD5 check sum: 25e7c42c3b55b68f4bf926be2e7201a4
     Pseudo is Ultrasoft + core correction, Zval = 13.0
     Generated using "atomic" code by A. Dal Corso  v.5.0.99 svn rev. 10869
     Using radial grid of 1241 points,  6 beta functions with:
                l(1) =   0
                l(2) =   0
                l(3) =   1
                l(4) =   1
                l(5) =   2
                l(6) =   2
     Q(r) pseudized with 0 coefficients

     PseudoPot. # 2 for Ga read from file:
     /home/pragov/projects/rrg-bengioy-ad/pragov/crystal_structure_design/SSSP/Ga.pbe-dn-kjpaw_psl.1.0.0.UPF
     MD5 check sum: a27b4342b1af7e5f338de752e9ed7044
     Pseudo is Projector augmented-wave + core cor, Zval = 13.0
     Generated using "atomic" code by A. Dal Corso  v.5.1
     Shape of augmentation charge: PSQ
     Using radial grid of 1205 points,  6 beta functions with:
                l(1) =   0
                l(2) =   0
                l(3) =   1
                l(4) =   1
                l(5) =   2
                l(6) =   2
     Q(r) pseudized with 0 coefficients

     PseudoPot. # 3 for Se read from file:
     /home/pragov/projects/rrg-bengioy-ad/pragov/crystal_structure_design/SSSP/Se_pbe_v1.uspp.F.UPF
     MD5 check sum: 1b3568f3a8ae88f9a2a0ad0698632c85
     Pseudo is Ultrasoft + core correction, Zval =  6.0
     Generated by new atomic code, or converted to UPF format
     Using radial grid of  877 points,  6 beta functions with:
                l(1) =   0
                l(2) =   0
                l(3) =   1
                l(4) =   1
                l(5) =   2
                l(6) =   2
     Q(r) pseudized with  8 coefficients,  rinner =    1.300   1.300   1.300
                                                       1.300   1.300

     atomic species   valence    mass     pseudopotential
        In            13.00   114.81800     In( 1.00)
        Ga            13.00    69.72300     Ga( 1.00)
        Se             6.00    78.97100     Se( 1.00)

      4 Sym. Ops., with inversion, found ( 2 have fractional translation)

                                    s                        frac. trans.

      isym =  1     identity

 cryst.   s( 1) = (     1          0          0      )
                  (     0          1          0      )
                  (     0          0          1      )

 cart.    s( 1) = (  1.0000000  0.0000000 -0.0000000 )
                  (  0.0000000  1.0000000 -0.0000000 )
                  (  0.0000000  0.0000000  1.0000000 )

      isym =  2     180 deg rotation - cart. axis [0,0,1]

 cryst.   s( 2) = (    -1          0          0      )    f =(  0.5000000 )
                  (     0         -1          0      )       ( -0.5000000 )
                  (     1          1          1      )       (  0.0000000 )

 cart.    s( 2) = ( -1.0000000 -0.0000000 -0.0000000 )    f =(  0.7625139 )
                  (  0.0000000 -1.0000000 -0.0000000 )       ( -0.4255425 )
                  (  0.0000000  0.0000000  1.0000000 )       (  0.0000000 )

      isym =  3     inversion

 cryst.   s( 3) = (    -1          0          0      )
                  (     0         -1          0      )
                  (     0          0         -1      )

 cart.    s( 3) = ( -1.0000000 -0.0000000  0.0000000 )
                  (  0.0000000 -1.0000000  0.0000000 )
                  (  0.0000000  0.0000000 -1.0000000 )

      isym =  4     inv. 180 deg rotation - cart. axis [0,0,1]

 cryst.   s( 4) = (     1          0          0      )    f =( -0.5000000 )
                  (     0          1          0      )       ( -0.5000000 )
                  (    -1         -1         -1      )       (  0.0000000 )

 cart.    s( 4) = (  1.0000000  0.0000000  0.0000000 )    f =( -0.2374861 )
                  (  0.0000000  1.0000000  0.0000000 )       ( -0.4255425 )
                  (  0.0000000  0.0000000 -1.0000000 )       (  0.0000000 )

   Cartesian axes

     site n.     atom                  positions (alat units)
         1           In  tau(   1) = (   0.1187430   0.2127713   0.0000000  )
         2           In  tau(   2) = (   0.3562291   0.6383138   0.0000000  )
         3           Ga  tau(   3) = (  -0.2625139   0.4255425   0.4366102  )
         4           Ga  tau(   4) = (   0.5000000  -0.0000000   0.4366102  )
         5           Se  tau(   5) = (  -0.3812570   0.2127713   0.7199982  )
         6           Se  tau(   6) = (   0.6187430   0.2127713   0.1532222  )
         7           Se  tau(   7) = (   0.1337968  -0.0746691   0.4366102  )
         8           Se  tau(   8) = (   0.1036893   0.5002116   0.4366102  )

   Crystallographic axes

     site n.     atom                  positions (cryst. coord.)
         1           In  tau(   1) = (  0.2500000  0.2500000  0.0000000  )
         2           In  tau(   2) = (  0.7500000  0.7500000  0.0000000  )
         3           Ga  tau(   3) = (  0.2500000  0.7500000  0.5000000  )
         4           Ga  tau(   4) = (  0.7500000  0.2500000  0.5000000  )
         5           Se  tau(   5) = (  0.1622660  0.6622660  0.8245320  )
         6           Se  tau(   6) = (  0.8377340  0.3377340  0.1754680  )
         7           Se  tau(   7) = (  0.3377340  0.1622660  0.5000000  )
         8           Se  tau(   8) = (  0.6622660  0.8377340  0.5000000  )

     number of k points=     1  Methfessel-Paxton smearing, width (Ry)=  0.0010
                       cart. coord. in units 2pi/alat
        k(    1) = (   0.0000000   0.0000000   0.0000000), wk =   2.0000000

                       cryst. coord.
        k(    1) = (   0.0000000   0.0000000   0.0000000), wk =   2.0000000

     Initial potential from superposition of free atoms

     starting charge      75.9864, renormalised to      76.0000
     Starting wfcs are   52 randomized atomic wfcs
     Checking if some PAW data can be deallocated...

     Self-consistent Calculation

     iteration #  1     ecut=    30.00 Ry     beta= 0.70
     Davidson diagonalization with overlap

     ethr =  1.00E-02,  avg # of iterations =  3.0

     Threshold (ethr) on eigenvalues was too large:
     Diagonalizing with lowered threshold

     Davidson diagonalization with overlap

[...]

     total energy              =   -1020.41007664 Ry
     estimated scf accuracy    <       0.12191782 Ry

[...]

     total energy              =   -1020.45355608 Ry
     estimated scf accuracy    <       0.00000110 Ry

     iteration #  8     ecut=    30.00 Ry     beta= 0.70
     Davidson diagonalization with overlap

     ethr =  1.44E-09,  avg # of iterations =  4.0

     End of self-consistent calculation

          k = 0.0000 0.0000 0.0000 (  1996 PWs)   bands (ev):

    -9.4592  -9.4592  -9.3762  -9.3532  -9.2610  -9.2610  -9.2514  -9.2193
    -9.2074  -9.1837  -7.8105  -7.6005  -7.4711  -7.4711  -7.3941  -7.3377
    -7.3177  -7.3152  -7.2782  -7.2782  -7.1962  -6.5442  -6.1675  -6.1675
    -0.3345  -0.2054   1.3368   2.2334   2.2334   2.2561   2.4876   2.4876
     3.3349   4.2358   4.5788   4.6799   4.6799   4.7549   8.2170   8.5590
     8.9210   9.3175   9.3175  10.8491  10.8492  11.4290

     occupation numbers
     1.0000   1.0000   1.0000   1.0000   1.0000   1.0000   1.0000   1.0000
     1.0000   1.0000   1.0000   1.0000   1.0000   1.0000   1.0000   1.0000
     1.0000   1.0000   1.0000   1.0000   1.0000   1.0000   1.0000   1.0000
     1.0000   1.0000   1.0000   1.0000   1.0000   1.0000   1.0000   1.0000
     1.0000   1.0000   1.0000   1.0000   1.0000   1.0000  -0.0000  -0.0000
    -0.0000  -0.0000  -0.0000  -0.0000  -0.0000  -0.0000

     the Fermi energy is     6.2749 ev

!    total energy              =   -1020.45355643 Ry
     estimated scf accuracy    <       0.00000002 Ry
     smearing contrib. (-TS)   =       0.00000000 Ry
     internal energy E=F+TS    =   -1020.45355643 Ry

     The total energy is F=E-TS. E is the sum of the following terms:
     one-electron contribution =    -375.05247023 Ry
     hartree contribution      =     244.35488807 Ry
     xc contribution           =    -290.02319331 Ry
     ewald contribution        =    -377.84362043 Ry
     one-center paw contrib.   =    -221.88916053 Ry
      -> PAW hartree energy AE =     279.81612448 Ry
      -> PAW hartree energy PS =    -275.41616168 Ry
      -> PAW xc energy AE      =    -301.48984711 Ry
      -> PAW xc energy PS      =      75.20072377 Ry
      -> total E_H with PAW    =     248.75485088 Ry
      -> total E_XC with PAW   =    -516.31231664 Ry

     convergence has been achieved in   8 iterations

     Forces acting on atoms (cartesian axes, Ry/au):

     atom    1 type  1   force =     0.00000000    0.00000000    0.00000458
     atom    2 type  1   force =     0.00000000    0.00000000   -0.00000458
     atom    3 type  2   force =     0.00011321    0.00006710    0.00000000
     atom    4 type  2   force =    -0.00011321   -0.00006710   -0.00000000
     atom    5 type  3   force =     0.00000000    0.00000000    0.09422779
     atom    6 type  3   force =     0.00000000    0.00000000   -0.09422779
     atom    7 type  3   force =    -0.08228602    0.04592107    0.00000000
     atom    8 type  3   force =     0.08228602   -0.04592107   -0.00000000
     The non-local contrib.  to forces
     atom    1 type  1   force =     0.00000000    0.00000000    0.00000023
     atom    2 type  1   force =     0.00000000    0.00000000   -0.00000023
     atom    3 type  2   force =     0.00001220    0.00000820    0.00000000
     atom    4 type  2   force =    -0.00001220   -0.00000820   -0.00000000
     atom    5 type  3   force =     0.00000000    0.00000000   -0.28409947
     atom    6 type  3   force =     0.00000000    0.00000000    0.28409947
     atom    7 type  3   force =     0.24808940   -0.13844247    0.00000000
     atom    8 type  3   force =    -0.24808940    0.13844247    0.00000000
     The ionic contribution  to forces
     atom    1 type  1   force =     0.00000000    0.00000000    0.00000000
     atom    2 type  1   force =    -0.00000000   -0.00000000    0.00000000
     atom    3 type  2   force =    -0.00000000   -0.00000000    0.00000000
     atom    4 type  2   force =     0.00000000    0.00000000   -0.00000000
     atom    5 type  3   force =     0.00000000    0.00000000    5.47553963
     atom    6 type  3   force =    -0.00000000   -0.00000000   -5.47553963
     atom    7 type  3   force =    -4.78135303    2.66836981    0.00000000
     atom    8 type  3   force =     4.78135303   -2.66836982   -0.00000000
     The local contribution  to forces
     atom    1 type  1   force =     0.00001435    0.00002846   -0.00002180
     atom    2 type  1   force =    -0.00004928    0.00000796   -0.00001920
     atom    3 type  2   force =     0.00002349   -0.00005529    0.00003632
     atom    4 type  2   force =     0.00007465    0.00000330   -0.00002570
     atom    5 type  3   force =     0.00002218   -0.00000789   -5.12847410
     atom    6 type  3   force =    -0.00000746   -0.00004855    5.12844758
     atom    7 type  3   force =     4.47823410   -2.49920888    0.00000091
     atom    8 type  3   force =    -4.47824470    2.49922093    0.00001447
     The core correction contribution to forces
     atom    1 type  1   force =     0.00000128    0.00000073   -0.00000035
     atom    2 type  1   force =    -0.00000052   -0.00000008   -0.00000007
     atom    3 type  2   force =     0.00000096   -0.00000012    0.00000035
     atom    4 type  2   force =     0.00000125   -0.00000063   -0.00000095
     atom    5 type  3   force =     0.00000261    0.00000048    0.03112267
     atom    6 type  3   force =    -0.00000015   -0.00000294   -0.03112536
     atom    7 type  3   force =    -0.02718127    0.01516693   -0.00000215
     atom    8 type  3   force =     0.02717805   -0.01516677    0.00000204
     The Hubbard contrib.    to forces
     atom    1 type  1   force =     0.00000000    0.00000000    0.00000000
     atom    2 type  1   force =     0.00000000    0.00000000    0.00000000
     atom    3 type  2   force =     0.00000000    0.00000000    0.00000000
     atom    4 type  2   force =     0.00000000    0.00000000    0.00000000
     atom    5 type  3   force =     0.00000000    0.00000000    0.00000000
     atom    6 type  3   force =     0.00000000    0.00000000    0.00000000
     atom    7 type  3   force =     0.00000000    0.00000000    0.00000000
     atom    8 type  3   force =     0.00000000    0.00000000    0.00000000
     The SCF correction term to forces
     atom    1 type  1   force =    -0.00001606   -0.00002567    0.00003100
     atom    2 type  1   force =     0.00005434   -0.00001806    0.00001943
     atom    3 type  2   force =     0.00003318    0.00015119   -0.00010008
     atom    4 type  2   force =    -0.00022028   -0.00002470    0.00005916
     atom    5 type  3   force =    -0.00001091    0.00000733    0.00012896
     atom    6 type  3   force =     0.00000933    0.00003409   -0.00011995
     atom    7 type  3   force =    -0.00008446    0.00003294   -0.00001067
     atom    8 type  3   force =     0.00007981   -0.00005060   -0.00000467

     Total force =     0.188460     Total SCF correction =     0.000377

     Computing stress (Cartesian axis) and pressure

          total   stress  (Ry/bohr**3)                   (kbar)     P=      -31.12
  -0.00029370   0.00036477   0.00000000          -43.20       53.66        0.00
   0.00036477   0.00015635   0.00000000           53.66       23.00        0.00
   0.00000000   0.00000000  -0.00049732            0.00        0.00      -73.16

     kinetic stress (kbar)   7553.31     -8.51      0.00
                               -8.51   7542.81      0.00
                                0.00      0.00   7558.06

     local   stress (kbar)  -1791.75  -4817.05      0.01
                            -4817.05  -7734.94     -0.00
                                0.01     -0.00    896.54

     nonloc. stress (kbar)   3855.22      1.08      0.00
                                1.08   3856.56      0.00
                                0.00      0.00   3854.62

     hartree stress (kbar)   7893.90   1975.16     -0.00
                             1975.16  10330.82     -0.00
                               -0.00     -0.00   6791.62

     exc-cor stress (kbar)  15240.20      1.65     -0.00
                                1.65  15242.23      0.00
                               -0.00      0.00  15239.28

     corecor stress (kbar) -19246.52      0.38      0.00
                                0.38 -19246.05     -0.00
                                0.00     -0.00 -19246.74

     ewald   stress (kbar) -13547.58   2900.95      0.00
                             2900.95  -9968.43      0.00
                                0.00      0.00 -15166.53

     hubbard stress (kbar)      0.00      0.00      0.00
                                0.00      0.00      0.00
                                0.00      0.00      0.00

     DFT-D   stress (kbar)      0.00      0.00      0.00
                                0.00      0.00      0.00
                                0.00      0.00      0.00

     XDM     stress (kbar)      0.00      0.00      0.00
                                0.00      0.00      0.00
                                0.00      0.00      0.00

     dft-nl  stress (kbar)      0.00      0.00      0.00
                                0.00      0.00      0.00
                                0.00      0.00      0.00

     TS-vdW  stress (kbar)      0.00      0.00      0.00
                                0.00      0.00      0.00
                                0.00      0.00      0.00

[...]

                                0.00      0.00      0.00

     Writing all to output data dir new_calculations/myprefix.save/

     General routines

     Parallel routines

     PAW routines

   This run was terminated on:   6:31: 8  20May2023

   JOB DONE.