     Program PWSCF v.7.0 starts on 21May2023 at 17: 6:52

     Reading input from espresso_23802.pwi
Warning: card &CELL ignored
Warning: card / ignored

     Current dimensions of program PWSCF are:
     Max number of different atomic species (ntypx) = 10
     Max number of k-points (npk) =  40000
     Max angular momentum in pseudopotentials (lmaxx) =  4
     file In.pbe-dn-rrkjus_psl.0.2.2.UPF: wavefunction(s)  5S renormalized

     gamma-point specific algorithms are used
     Message from routine setup:
     using ibrav=0 with symmetry is DISCOURAGED, use correct ibrav instead

     Subspace diagonalization in iterative solution of the eigenvalue problem:
     a serial algorithm will be used

     Using Slab Decomposition

     bravais-lattice index     =            0
     lattice parameter (alat)  =      16.4877  a.u.
     unit-cell volume          =    1950.8693 (a.u.)^3
     number of atoms/cell      =           12
     number of atomic types    =            3
     number of electrons       =       188.00
     number of Kohn-Sham states=          113
     kinetic-energy cutoff     =      30.0000  Ry
     charge density cutoff     =     240.0000  Ry
     scf convergence threshold =      1.0E-06
     mixing beta               =       0.7000
     number of iterations used =            8  plain     mixing
     Exchange-correlation= PBE
                           (   1   4   3   4   0   0   0)

     celldm(1)=  16.487651  celldm(2)=   0.000000  celldm(3)=   0.000000
     celldm(4)=   0.000000  celldm(5)=   0.000000  celldm(6)=   0.000000

     crystal axes: (cart. coord. in units of alat)
               a(1) = (   1.000000   0.000000   0.000000 )
               a(2) = (  -0.867591   0.497279   0.000000 )
               a(3) = (   0.000000   0.000000   0.875289 )

     reciprocal axes: (cart. coord. in units 2 pi/alat)
               b(1) = (  1.000000  1.744676  0.000000 )
               b(2) = (  0.000000  2.010944  0.000000 )
               b(3) = (  0.000000  0.000000  1.142479 )

     PseudoPot. # 1 for Yb read from file:
     /home/pragov/projects/rrg-bengioy-ad/pragov/crystal_structure_design/SSSP/Yb.GGA-PBE-paw-v1.0.UPF
     MD5 check sum: 43b6465ad8021f06e3edb42ae292e187
     Pseudo is Projector augmented-wave + core cor, Zval = 24.0
     Generated using ATOMPAW code
     Shape of augmentation charge: BESSEL
     Using radial grid of 1117 points,  8 beta functions with:
                l(1) =   0
                l(2) =   0
                l(3) =   1
                l(4) =   1
                l(5) =   2
                l(6) =   2
                l(7) =   3
                l(8) =   3
     Q(r) pseudized with 0 coefficients

     PseudoPot. # 2 for In read from file:
     /home/pragov/projects/rrg-bengioy-ad/pragov/crystal_structure_design/SSSP/In.pbe-dn-rrkjus_psl.0.2.2.UPF
     MD5 check sum: 25e7c42c3b55b68f4bf926be2e7201a4
     Pseudo is Ultrasoft + core correction, Zval = 13.0
     Generated using "atomic" code by A. Dal Corso  v.5.0.99 svn rev. 10869
     Using radial grid of 1241 points,  6 beta functions with:
                l(1) =   0
                l(2) =   0
                l(3) =   1
                l(4) =   1
                l(5) =   2
                l(6) =   2
     Q(r) pseudized with 0 coefficients

     PseudoPot. # 3 for Pd read from file:
     /home/pragov/projects/rrg-bengioy-ad/pragov/crystal_structure_design/SSSP/Pd_ONCV_PBE-1.0.oncvpsp.upf
     MD5 check sum: eb77f42b51d86fb18e25f68156a31cf1
     Pseudo is Norm-conserving, Zval = 18.0
     Generated using ONCVPSP code by D. R. Hamann
     Using radial grid of 1410 points,  6 beta functions with:
                l(1) =   0
                l(2) =   0
                l(3) =   1
                l(4) =   1
                l(5) =   2
                l(6) =   2

     atomic species   valence    mass     pseudopotential
        Yb            24.00   173.05400     Yb( 1.00)
        In            13.00   114.81800     In( 1.00)
        Pd            18.00   106.42000     Pd( 1.00)

      4 Sym. Ops., with inversion, found ( 2 have fractional translation)

                                    s                        frac. trans.

      isym =  1     identity

 cryst.   s( 1) = (     1          0          0      )
                  (     0          1          0      )
                  (     0          0          1      )

 cart.    s( 1) = (  1.0000000 -0.0000000  0.0000000 )
                  (  0.0000000  1.0000000  0.0000000 )
                  (  0.0000000  0.0000000  1.0000000 )

      isym =  2     180 deg rotation - cart. axis [0,0,1]

 cryst.   s( 2) = (    -1          0          0      )    f =( -0.0000000 )
                  (     0         -1          0      )       ( -0.0000000 )
                  (     0          0          1      )       (  0.5000000 )

 cart.    s( 2) = ( -1.0000000  0.0000000  0.0000000 )    f =( -0.0000000 )
                  (  0.0000000 -1.0000000  0.0000000 )       ( -0.0000000 )
                  (  0.0000000  0.0000000  1.0000000 )       (  0.4376447 )

      isym =  3     inversion

 cryst.   s( 3) = (    -1          0          0      )
                  (     0         -1          0      )
                  (     0          0         -1      )

 cart.    s( 3) = ( -1.0000000  0.0000000  0.0000000 )
                  (  0.0000000 -1.0000000  0.0000000 )
                  (  0.0000000  0.0000000 -1.0000000 )

      isym =  4     inv. 180 deg rotation - cart. axis [0,0,1]

 cryst.   s( 4) = (     1          0          0      )    f =(  0.0000000 )
                  (     0          1          0      )       (  0.0000000 )
                  (     0          0         -1      )       (  0.5000000 )

 cart.    s( 4) = (  1.0000000 -0.0000000  0.0000000 )    f =(  0.0000000 )
                  (  0.0000000  1.0000000  0.0000000 )       (  0.0000000 )
                  (  0.0000000  0.0000000 -1.0000000 )       (  0.4376447 )

   Cartesian axes

     site n.     atom                  positions (alat units)
         1           Yb  tau(   1) = (  -0.6281152   0.4335144   0.6564671  )
         2           Yb  tau(   2) = (   0.7605244   0.0637646   0.2188224  )
         3           In  tau(   3) = (   0.4062668   0.1580919   0.3951459  )
         4           In  tau(   4) = (  -0.2738575   0.3391870   0.8327907  )
         5           In  tau(   5) = (  -0.7455978   0.4647962   0.2188224  )
         6           In  tau(   6) = (  -0.2738575   0.3391870   0.4801436  )
         7           In  tau(   7) = (   0.4062668   0.1580919   0.0424988  )
         8           In  tau(   8) = (   0.8780071   0.0324828   0.6564671  )
         9           In  tau(   9) = (   0.0662046   0.2486395   0.4376447  )
        10           In  tau(  10) = (   0.0662046   0.2486395   0.0000000  )
        11           Pd  tau(  11) = (  -0.4427885   0.3841679   0.2188224  )
        12           Pd  tau(  12) = (   0.5751978   0.1131111   0.6564671  )

   Crystallographic axes

     site n.     atom                  positions (cryst. coord.)
         1           Yb  tau(   1) = (  0.1282270  0.8717730  0.7500000  )
         2           Yb  tau(   2) = (  0.8717730  0.1282270  0.2500000  )
         3           In  tau(   3) = (  0.6820860  0.3179140  0.4514460  )
         4           In  tau(   4) = (  0.3179140  0.6820860  0.9514460  )
         5           In  tau(   5) = (  0.0653210  0.9346790  0.2500000  )
         6           In  tau(   6) = (  0.3179140  0.6820860  0.5485540  )
         7           In  tau(   7) = (  0.6820860  0.3179140  0.0485540  )
         8           In  tau(   8) = (  0.9346790  0.0653210  0.7500000  )
         9           In  tau(   9) = (  0.5000000  0.5000000  0.5000000  )
        10           In  tau(  10) = (  0.5000000  0.5000000  0.0000000  )
        11           Pd  tau(  11) = (  0.2274600  0.7725400  0.2500000  )
        12           Pd  tau(  12) = (  0.7725400  0.2274600  0.7500000  )

     number of k points=     1  Methfessel-Paxton smearing, width (Ry)=  0.0010
                       cart. coord. in units 2pi/alat
        k(    1) = (   0.0000000   0.0000000   0.0000000), wk =   2.0000000

                       cryst. coord.
        k(    1) = (   0.0000000   0.0000000   0.0000000), wk =   2.0000000

     Initial potential from superposition of free atoms

     starting charge     187.9615, renormalised to     188.0000
     Starting wfcs are  156 randomized atomic wfcs
     Checking if some PAW data can be deallocated...

     Self-consistent Calculation

     iteration #  1     ecut=    30.00 Ry     beta= 0.70
     Davidson diagonalization with overlap

     ethr =  1.00E-02,  avg # of iterations =  3.0

     total energy              =   -3684.84566559 Ry
     estimated scf accuracy    <       2.05837305 Ry

[...]

     c_bands:  1 eigenvalues not converged
     ethr =  9.18E-10,  avg # of iterations = 20.0

[...]

     total energy              =   -3686.64339110 Ry
     estimated scf accuracy    <       0.00000466 Ry

     iteration # 31     ecut=    30.00 Ry     beta= 0.70
     Davidson diagonalization with overlap

     ethr =  9.18E-10,  avg # of iterations =  2.0

     End of self-consistent calculation

          k = 0.0000 0.0000 0.0000 (  2717 PWs)   bands (ev):

   -73.3009 -73.3008 -39.0075 -39.0068 -38.7855 -38.7852 -38.7755 -38.7751
   -38.6218 -38.6213 -11.4761 -11.4745 -11.3240 -11.3222 -11.2915 -11.2908
    -2.5249  -2.4833  -2.4367  -2.4301  -2.3906  -2.3789  -2.3562  -2.3260
    -2.3123  -2.2855  -2.2797  -2.2790  -2.2777  -2.2658  -2.2315  -2.2240
    -2.2207  -2.1766  -2.1705  -2.1680  -2.1594  -2.1480  -2.1323  -2.1231
    -2.1157  -2.0839  -2.0745  -2.0568  -2.0237  -2.0055  -1.9843  -1.9816
    -1.9520  -1.9186  -1.9144  -1.9103  -1.8783  -1.8740  -1.8215  -1.7789
     3.0584   4.8191   5.2123   5.6876   7.2827   7.4162   7.5429   7.8735
     8.4486   8.5303   8.7593   9.0385   9.2531   9.3146   9.3962   9.3990
     9.7263   9.9759  10.2917  11.4961  11.7012  11.7906  12.6297  12.6748
    12.6981  12.7203  12.7403  12.7583  12.7610  12.7721  12.7782  12.7848
    12.7909  12.8300  12.8384  12.8487  13.2862  13.6443  13.6481  13.9686
    14.1994  14.3284  14.4832  14.5564  14.7511  14.9873  14.9970  15.1735
    15.3408  15.4118  15.6995  16.1063  16.3355  16.3361  16.4416  16.7407
    16.9940

     occupation numbers
     1.0000   1.0000   1.0000   1.0000   1.0000   1.0000   1.0000   1.0000
     1.0000   1.0000   1.0000   1.0000   1.0000   1.0000   1.0000   1.0000
     1.0000   1.0000   1.0000   1.0000   1.0000   1.0000   1.0000   1.0000
     1.0000   1.0000   1.0000   1.0000   1.0000   1.0000   1.0000   1.0000
     1.0000   1.0000   1.0000   1.0000   1.0000   1.0000   1.0000   1.0000
     1.0000   1.0000   1.0000   1.0000   1.0000   1.0000   1.0000   1.0000
     1.0000   1.0000   1.0000   1.0000   1.0000   1.0000   1.0000   1.0000
     1.0000   1.0000   1.0000   1.0000   1.0000   1.0000   1.0000   1.0000
     1.0000   1.0000   1.0000   1.0000   1.0000   1.0000   1.0000   1.0000
     1.0000   1.0000   1.0000   1.0000   1.0000   1.0000   1.0000   1.0000
     1.0000   1.0000   1.0000   1.0000   1.0000   1.0000   1.0000   1.0000
     1.0000   1.0000   1.0000   1.0000   1.0000   0.6150   0.3850  -0.0000
    -0.0000  -0.0000  -0.0000  -0.0000  -0.0000  -0.0000  -0.0000  -0.0000
    -0.0000  -0.0000  -0.0000  -0.0000  -0.0000  -0.0000  -0.0000  -0.0000
    -0.0000

     the Fermi energy is    13.6462 ev

!    total energy              =   -3686.64339078 Ry
     estimated scf accuracy    <       0.00000078 Ry
     smearing contrib. (-TS)   =      -0.00053278 Ry
     internal energy E=F+TS    =   -3686.64285800 Ry

     The total energy is F=E-TS. E is the sum of the following terms:
     one-electron contribution =   -1430.31354114 Ry
     hartree contribution      =     784.51776746 Ry
     xc contribution           =    -507.60887465 Ry
     ewald contribution        =   -1564.94577006 Ry
     one-center paw contrib.   =    -968.29243960 Ry
      -> PAW hartree energy AE =     903.66409861 Ry
      -> PAW hartree energy PS =    -776.60931583 Ry
      -> PAW xc energy AE      =   -1169.90157117 Ry
      -> PAW xc energy PS      =      74.55434879 Ry
      -> total E_H with PAW    =     911.57255024 Ry
      -> total E_XC with PAW   =   -1602.95609704 Ry

     convergence has been achieved in  31 iterations

     Forces acting on atoms (cartesian axes, Ry/au):

     atom    1 type  1   force =     0.00872117   -0.00233525    0.00000000
     atom    2 type  1   force =    -0.00872117    0.00233525    0.00000000
     atom    3 type  2   force =    -0.01239510    0.00330008    0.00256100
     atom    4 type  2   force =     0.01239510   -0.00330008    0.00256100
     atom    5 type  2   force =    -0.01689345    0.00449779    0.00000000
     atom    6 type  2   force =     0.01239510   -0.00330008   -0.00256100
     atom    7 type  2   force =    -0.01239510    0.00330008   -0.00256100
     atom    8 type  2   force =     0.01689345   -0.00449779    0.00000000
     atom    9 type  2   force =     0.00000000    0.00000000    0.00000000
     atom   10 type  2   force =     0.00000000    0.00000000    0.00000000
     atom   11 type  3   force =     0.04447655   -0.01184464    0.00000000
     atom   12 type  3   force =    -0.04447655    0.01184464    0.00000000
     The non-local contrib.  to forces
     atom    1 type  1   force =     0.06035604   -0.01608413    0.00000000
     atom    2 type  1   force =    -0.06035604    0.01608413    0.00000000
     atom    3 type  2   force =     0.02794056   -0.00743855   -0.03989022
     atom    4 type  2   force =    -0.02794056    0.00743855   -0.03989022
     atom    5 type  2   force =     0.04899901   -0.01304761    0.00000000
     atom    6 type  2   force =    -0.02794056    0.00743855    0.03989022
     atom    7 type  2   force =     0.02794056   -0.00743855    0.03989022
     atom    8 type  2   force =    -0.04899901    0.01304761    0.00000000
     atom    9 type  2   force =     0.00000000    0.00000000    0.00000000
     atom   10 type  2   force =     0.00000000    0.00000000    0.00000000
     atom   11 type  3   force =    -0.16626253    0.04426986    0.00000000
     atom   12 type  3   force =     0.16626253   -0.04426986    0.00000000
     The ionic contribution  to forces
     atom    1 type  1   force =   -26.67969766    7.10393985    0.00000000
     atom    2 type  1   force =    26.67969766   -7.10393985   -0.00000000
     atom    3 type  2   force =   -13.71638022    3.65222805   -0.32805528
     atom    4 type  2   force =    13.71638022   -3.65222805   -0.32805528
     atom    5 type  2   force =   -11.35009147    3.02216195   -0.00000000
     atom    6 type  2   force =    13.71638022   -3.65222805    0.32805528
     atom    7 type  2   force =   -13.71638022    3.65222805    0.32805528
     atom    8 type  2   force =    11.35009147   -3.02216195    0.00000000
     atom    9 type  2   force =     0.00000000    0.00000000   -0.00000000
     atom   10 type  2   force =    -0.00000000    0.00000000   -0.00000000
     atom   11 type  3   force =    -5.91192701    1.57415479   -0.00000000
     atom   12 type  3   force =     5.91192701   -1.57415479    0.00000000
     The local contribution  to forces
     atom    1 type  1   force =    26.62980691   -7.09067414   -0.00037886
     atom    2 type  1   force =   -26.62989429    7.09062906    0.00044403
     atom    3 type  2   force =    13.67249049   -3.64083887    0.37377625
     atom    4 type  2   force =   -13.67379798    3.64118485    0.37341453
     atom    5 type  2   force =    11.28645517   -3.00521268    0.00021387
     atom    6 type  2   force =   -13.67389662    3.64062842   -0.37352532
     atom    7 type  2   force =    13.67268725   -3.64030771   -0.37369308
     atom    8 type  2   force =   -11.28515327    3.00487534   -0.00020957
     atom    9 type  2   force =     0.00119730    0.00047153    0.00002375
     atom   10 type  2   force =     0.00080676   -0.00100863   -0.00002338
     atom   11 type  3   force =     6.12151050   -1.62995356    0.00018200
     atom   12 type  3   force =    -6.12414521    1.63066075   -0.00015088
     The core correction contribution to forces
     atom    1 type  1   force =     0.00000025   -0.00000007   -0.00000000
     atom    2 type  1   force =    -0.00000025    0.00000007    0.00000000
     atom    3 type  2   force =     0.00391143   -0.00105419   -0.00350287
     atom    4 type  2   force =    -0.00392161    0.00105700   -0.00350543
     atom    5 type  2   force =    -0.00048282    0.00012883    0.00000153
     atom    6 type  2   force =    -0.00392706    0.00103318    0.00350438
     atom    7 type  2   force =     0.00391876   -0.00103089    0.00350274
     atom    8 type  2   force =     0.00049167   -0.00013075   -0.00000175
     atom    9 type  2   force =     0.00001400    0.00001373   -0.00000243
     atom   10 type  2   force =     0.00000547   -0.00001910    0.00000278
     atom   11 type  3   force =     0.00000000    0.00000000    0.00000000
     atom   12 type  3   force =     0.00000000    0.00000000    0.00000000
     The Hubbard contrib.    to forces
     atom    1 type  1   force =     0.00000000    0.00000000    0.00000000
     atom    2 type  1   force =     0.00000000    0.00000000    0.00000000
     atom    3 type  2   force =     0.00000000    0.00000000    0.00000000
     atom    4 type  2   force =     0.00000000    0.00000000    0.00000000
     atom    5 type  2   force =     0.00000000    0.00000000    0.00000000
     atom    6 type  2   force =     0.00000000    0.00000000    0.00000000
     atom    7 type  2   force =     0.00000000    0.00000000    0.00000000
     atom    8 type  2   force =     0.00000000    0.00000000    0.00000000
     atom    9 type  2   force =     0.00000000    0.00000000    0.00000000
     atom   10 type  2   force =     0.00000000    0.00000000    0.00000000
     atom   11 type  3   force =     0.00000000    0.00000000    0.00000000
     atom   12 type  3   force =     0.00000000    0.00000000    0.00000000
     The SCF correction term to forces
     atom    1 type  1   force =    -0.00174059    0.00048013    0.00044047
     atom    2 type  1   force =     0.00183554   -0.00044127   -0.00050847
     atom    3 type  2   force =    -0.00036036    0.00034671    0.00023373
     atom    4 type  2   force =     0.00169675   -0.00070570    0.00059709
     atom    5 type  2   force =    -0.00178416    0.00046970   -0.00022649
     atom    6 type  2   force =     0.00176837   -0.00022482   -0.00049077
     atom    7 type  2   force =    -0.00054746   -0.00009983   -0.00031063
     atom    8 type  2   force =     0.00045177   -0.00012564    0.00021516
     atom    9 type  2   force =    -0.00111693   -0.00018896   -0.00004992
     atom   10 type  2   force =    -0.00087513    0.00072160    0.00004517
     atom   11 type  3   force =     0.00120183   -0.00032576   -0.00020252
     atom   12 type  3   force =     0.00152536   -0.00040149    0.00017002

     Total force =     0.075469     Total SCF correction =     0.005054

     Computing stress (Cartesian axis) and pressure

          total   stress  (Ry/bohr**3)                   (kbar)     P=     -124.34
  -0.00055909   0.00006714   0.00000000          -82.25        9.88        0.00
   0.00006714  -0.00032483   0.00000000            9.88      -47.78        0.00
   0.00000000   0.00000000  -0.00165175            0.00        0.00     -242.98

     kinetic stress (kbar)  22129.03    -11.72      0.00
                              -11.72  22088.15      0.00
                                0.00      0.00  21894.00

     local   stress (kbar)   4473.33  -3354.39     -0.01
                            -3354.39  -7231.32      0.00
                               -0.01      0.00  -4903.60

     nonloc. stress (kbar)   7622.48      9.73      0.00
                                9.73   7656.42      0.00
                                0.00      0.00   7578.20

     hartree stress (kbar)  16216.50   1658.47      0.01
                             1658.47  22003.48     -0.00
                                0.01     -0.00  20936.49

     exc-cor stress (kbar)  10040.06     -0.12      0.00
                               -0.12  10039.65      0.00
                                0.00      0.00  10037.99

     corecor stress (kbar) -17650.28      0.18     -0.00
                                0.18 -17649.66     -0.00
                               -0.00     -0.00 -17649.38

     ewald   stress (kbar) -42913.36   1707.72     -0.00
                             1707.72 -36954.51      0.00
                               -0.00      0.00 -38136.69

     hubbard stress (kbar)      0.00      0.00      0.00
                                0.00      0.00      0.00
                                0.00      0.00      0.00

     DFT-D   stress (kbar)      0.00      0.00      0.00
                                0.00      0.00      0.00
                                0.00      0.00      0.00

     XDM     stress (kbar)      0.00      0.00      0.00
                                0.00      0.00      0.00
                                0.00      0.00      0.00

     dft-nl  stress (kbar)      0.00      0.00      0.00
                                0.00      0.00      0.00
                                0.00      0.00      0.00

     TS-vdW  stress (kbar)      0.00      0.00      0.00
                                0.00      0.00      0.00
                                0.00      0.00      0.00

[...]

                                0.00      0.00      0.00

     Writing all to output data dir new_calculations/myprefix.save/

     General routines

     Parallel routines

     PAW routines

   This run was terminated on:  17: 9: 4  21May2023

   JOB DONE.