     Program PWSCF v.7.0 starts on 20May2023 at  3:43:13

     Reading input from espresso_2132.pwi
Warning: card &CELL ignored
Warning: card / ignored

     Current dimensions of program PWSCF are:
     Max number of different atomic species (ntypx) = 10
     Max number of k-points (npk) =  40000
     Max angular momentum in pseudopotentials (lmaxx) =  4

     gamma-point specific algorithms are used
     Message from routine setup:
     using ibrav=0 with symmetry is DISCOURAGED, use correct ibrav instead

     Subspace diagonalization in iterative solution of the eigenvalue problem:
     a serial algorithm will be used

     Using Slab Decomposition

     bravais-lattice index     =            0
     lattice parameter (alat)  =      12.9832  a.u.
     unit-cell volume          =    1396.2073 (a.u.)^3
     number of atoms/cell      =            8
     number of atomic types    =            2
     number of electrons       =       144.00
     number of Kohn-Sham states=           86
     kinetic-energy cutoff     =      30.0000  Ry
     charge density cutoff     =     240.0000  Ry
     scf convergence threshold =      1.0E-06
     mixing beta               =       0.7000
     number of iterations used =            8  plain     mixing
     Exchange-correlation= PBE
                           (   1   4   3   4   0   0   0)

     celldm(1)=  12.983205  celldm(2)=   0.000000  celldm(3)=   0.000000
     celldm(4)=   0.000000  celldm(5)=   0.000000  celldm(6)=   0.000000

     crystal axes: (cart. coord. in units of alat)
               a(1) = (   1.000000   0.000000   0.000000 )
               a(2) = (  -0.500000   0.866025   0.000000 )
               a(3) = (   0.000000   0.000000   0.736671 )

     reciprocal axes: (cart. coord. in units 2 pi/alat)
               b(1) = (  1.000000  0.577350  0.000000 )
               b(2) = (  0.000000  1.154701  0.000000 )
               b(3) = (  0.000000  0.000000  1.357458 )

     PseudoPot. # 1 for Ce read from file:
     /home/pragov/projects/rrg-bengioy-ad/pragov/crystal_structure_design/SSSP/Ce.GGA-PBE-paw-v1.0.UPF
     MD5 check sum: f2b950f613061344c13339c8d844425d
     Pseudo is Projector augmented-wave + core cor, Zval = 12.0
     Generated using ATOMPAW code
     Shape of augmentation charge: BESSEL
     Using radial grid of 1102 points,  8 beta functions with:
                l(1) =   0
                l(2) =   0
                l(3) =   1
                l(4) =   1
                l(5) =   2
                l(6) =   2
                l(7) =   3
                l(8) =   3
     Q(r) pseudized with 0 coefficients

     PseudoPot. # 2 for Hg read from file:
     /home/pragov/projects/rrg-bengioy-ad/pragov/crystal_structure_design/SSSP/Hg_ONCV_PBE-1.0.oncvpsp.upf
     MD5 check sum: dd5a8773074bfcf4280086d4d95875c4
     Pseudo is Norm-conserving, Zval = 20.0
     Generated using ONCVPSP code by D. R. Hamann
     Using radial grid of 1262 points,  8 beta functions with:
                l(1) =   0
                l(2) =   0
                l(3) =   1
                l(4) =   1
                l(5) =   2
                l(6) =   2
                l(7) =   3
                l(8) =   3

     atomic species   valence    mass     pseudopotential
        Ce            12.00   140.11600     Ce( 1.00)
        Hg            20.00   200.59200     Hg( 1.00)

     24 Sym. Ops., with inversion, found (12 have fractional translation)

                                    s                        frac. trans.

      isym =  1     identity

 cryst.   s( 1) = (     1          0          0      )
                  (     0          1          0      )
                  (     0          0          1      )

 cart.    s( 1) = (  1.0000000 -0.0000000  0.0000000 )
                  (  0.0000000  1.0000000  0.0000000 )
                  (  0.0000000  0.0000000  1.0000000 )

      isym =  2     180 deg rotation - cart. axis [0,0,1]

 cryst.   s( 2) = (    -1          0          0      )    f =(  0.0000000 )
                  (     0         -1          0      )       (  0.0000000 )
                  (     0          0          1      )       (  0.5000000 )

 cart.    s( 2) = ( -1.0000000  0.0000000  0.0000000 )    f =(  0.0000000 )
                  (  0.0000000 -1.0000000  0.0000000 )       (  0.0000000 )
                  (  0.0000000  0.0000000  1.0000000 )       (  0.3683355 )

[...]

      isym =  4     180 deg rotation - cart. axis [1,0,0]

[...]

      isym =  5      60 deg rotation - cryst. axis [0,0,1]

[...]

 cryst.   s( 8) = (    -1         -1          0      )
                  (     1          0          0      )
                  (     0          0          1      )

 cart.    s( 8) = ( -0.5000000  0.8660254  0.0000000 )
                  ( -0.8660254 -0.5000000  0.0000000 )
                  (  0.0000000  0.0000000  1.0000000 )

[...]

 cryst.   s( 9) = (     0         -1          0      )    f =(  0.0000000 )
                  (    -1          0          0      )       (  0.0000000 )
                  (     0          0         -1      )       ( -0.5000000 )

 cart.    s( 9) = (  0.5000000 -0.8660254  0.0000000 )    f =(  0.0000000 )
                  ( -0.8660254 -0.5000000  0.0000000 )       (  0.0000000 )
                  (  0.0000000  0.0000000 -1.0000000 )       ( -0.3683355 )

[...]

 cryst.   s(10) = (     1          1          0      )    f =(  0.0000000 )
                  (     0         -1          0      )       ( -0.0000010 )
                  (     0          0         -1      )       ( -0.5000000 )

 cart.    s(10) = (  0.5000000  0.8660254  0.0000000 )    f =(  0.0000005 )
                  (  0.8660254 -0.5000000  0.0000000 )       ( -0.0000009 )
                  (  0.0000000  0.0000000 -1.0000000 )       ( -0.3683355 )

[...]

 cryst.   s(11) = (    -1         -1          0      )
                  (     0          1          0      )
                  (     0          0         -1      )

 cart.    s(11) = ( -0.5000000 -0.8660254  0.0000000 )
                  ( -0.8660254  0.5000000  0.0000000 )
                  (  0.0000000  0.0000000 -1.0000000 )

      isym = 12     180 deg rotation - cryst. axis [1,1,0]

[...]

      isym = 13     inversion

[...]

      isym = 14     inv. 180 deg rotation - cart. axis [0,0,1]

[...]

      isym = 16     inv. 180 deg rotation - cart. axis [1,0,0]

[...]

      isym = 17     inv.  60 deg rotation - cryst. axis [0,0,1]

[...]

 cryst.   s(22) = (    -1         -1          0      )    f =(  0.0000000 )
                  (     0          1          0      )       ( -0.0000010 )
                  (     0          0          1      )       (  0.5000000 )

 cart.    s(22) = ( -0.5000000 -0.8660254  0.0000000 )    f =(  0.0000005 )
                  ( -0.8660254  0.5000000  0.0000000 )       ( -0.0000009 )
                  (  0.0000000  0.0000000  1.0000000 )       (  0.3683355 )

[...]

      isym = 24     inv. 180 deg rotation - cryst. axis [1,1,0]

 cryst.   s(24) = (     0         -1          0      )
                  (    -1          0          0      )
                  (     0          0          1      )

 cart.    s(24) = (  0.5000000 -0.8660254  0.0000000 )
                  ( -0.8660254 -0.5000000  0.0000000 )
                  (  0.0000000  0.0000000  1.0000000 )

   Cartesian axes

     site n.     atom                  positions (alat units)
         1           Ce  tau(   1) = (  -0.0000005   0.5773505   0.1841677  )
         2           Ce  tau(   2) = (   0.5000005   0.2886748   0.5525032  )
         3           Hg  tau(   3) = (   0.7540990   0.1419710   0.1841677  )
         4           Hg  tau(   4) = (   0.5000005   0.5820825   0.1841677  )
         5           Hg  tau(   5) = (   0.2459020   0.1419710   0.1841677  )
         6           Hg  tau(   6) = (  -0.2540990   0.7240544   0.5525032  )
         7           Hg  tau(   7) = (  -0.0000005   0.2839429   0.5525032  )
         8           Hg  tau(   8) = (   0.2540980   0.7240544   0.5525032  )

   Crystallographic axes

     site n.     atom                  positions (cryst. coord.)
         1           Ce  tau(   1) = (  0.3333330  0.6666670  0.2500000  )
         2           Ce  tau(   2) = (  0.6666670  0.3333330  0.7500000  )
         3           Hg  tau(   3) = (  0.8360660  0.1639340  0.2500000  )
         4           Hg  tau(   4) = (  0.8360660  0.6721310  0.2500000  )
         5           Hg  tau(   5) = (  0.3278690  0.1639340  0.2500000  )
         6           Hg  tau(   6) = (  0.1639340  0.8360660  0.7500000  )
         7           Hg  tau(   7) = (  0.1639340  0.3278690  0.7500000  )
         8           Hg  tau(   8) = (  0.6721310  0.8360660  0.7500000  )

     number of k points=     1  Methfessel-Paxton smearing, width (Ry)=  0.0010
                       cart. coord. in units 2pi/alat
        k(    1) = (   0.0000000   0.0000000   0.0000000), wk =   2.0000000

                       cryst. coord.
        k(    1) = (   0.0000000   0.0000000   0.0000000), wk =   2.0000000

     Initial potential from superposition of free atoms

     starting charge     143.9856, renormalised to     144.0000
     Starting wfcs are  124 randomized atomic wfcs
     Checking if some PAW data can be deallocated...

     Self-consistent Calculation

     iteration #  1     ecut=    30.00 Ry     beta= 0.70
     Davidson diagonalization with overlap

     ethr =  1.00E-02,  avg # of iterations =  3.0
     Minimization algorithm failed to find Fermi energy: reverting to bisection
     Possible cause: smearing is larger than the electronic band-gap.

     total energy              =   -2818.25500025 Ry
     estimated scf accuracy    <       5.87858429 Ry

[...]

     ethr =  4.08E-03,  avg # of iterations =  8.0

[...]

     total energy              =   -2823.57353475 Ry
     estimated scf accuracy    <       0.00001090 Ry

     iteration # 52     ecut=    30.00 Ry     beta= 0.70
     Davidson diagonalization with overlap

     ethr =  7.74E-10,  avg # of iterations =  1.0

     End of self-consistent calculation

          k = 0.0000 0.0000 0.0000 (  1929 PWs)   bands (ev):

  -101.8790-101.8786-101.8785-101.8782-101.8781-101.8779 -49.7956 -49.7895
   -49.7894 -49.7868 -49.7868 -49.7778 -49.7465 -49.7403 -49.7402 -49.7309
   -49.7309 -49.7168 -49.6200 -49.6142 -49.6141 -49.6108 -49.5998 -49.5997
   -20.2787 -20.2698  -3.3164  -3.3164  -3.2429  -3.2428  -3.0897  -3.0306
     6.2178   6.6711   6.6711   6.6833   6.8229   6.9149   6.9149   6.9162
     6.9163   6.9415   6.9612   7.1359   7.3236   7.3236   7.5461   7.5859
     7.5859   7.6077   7.6077   7.6854   7.6855   7.8569   7.8570   7.9138
     7.9566   7.9566   8.1486   8.1858   8.1859   8.2426   8.3575  10.5519
    10.5519  11.0981  11.9488  11.9488  12.5013  14.1076  15.0250  15.0250
    15.0406  15.1292  15.1292  15.2396  15.2630  15.2982  15.3041  15.3533
    15.3533  15.3677  15.3677  15.4821  15.8344  15.8345

     occupation numbers
     1.0000   1.0000   1.0000   1.0000   1.0000   1.0000   1.0000   1.0000
     1.0000   1.0000   1.0000   1.0000   1.0000   1.0000   1.0000   1.0000
     1.0000   1.0000   1.0000   1.0000   1.0000   1.0000   1.0000   1.0000
     1.0000   1.0000   1.0000   1.0000   1.0000   1.0000   1.0000   1.0000
     1.0000   1.0000   1.0000   1.0000   1.0000   1.0000   1.0000   1.0000
     1.0000   1.0000   1.0000   1.0000   1.0000   1.0000   1.0000   1.0000
     1.0000   1.0000   1.0000   1.0000   1.0000   1.0000   1.0000   1.0000
     1.0000   1.0000   1.0000   1.0000   1.0000   1.0000   1.0000   1.0000
     1.0000   1.0000   1.0000   1.0000   1.0000   1.0000   0.9378   0.9365
     0.1257  -0.0000  -0.0000  -0.0000  -0.0000  -0.0000  -0.0000  -0.0000
    -0.0000  -0.0000  -0.0000  -0.0000  -0.0000  -0.0000

     the Fermi energy is    15.0337 ev

!    total energy              =   -2823.57353458 Ry
     estimated scf accuracy    <       0.00000047 Ry
     smearing contrib. (-TS)   =      -0.00017345 Ry
     internal energy E=F+TS    =   -2823.57336112 Ry

     The total energy is F=E-TS. E is the sum of the following terms:
     one-electron contribution =    -995.82562243 Ry
     hartree contribution      =     532.75240884 Ry
     xc contribution           =    -185.09864851 Ry
     ewald contribution        =   -1358.49670850 Ry
     one-center paw contrib.   =    -816.90479051 Ry
      -> PAW hartree energy AE =      89.40640202 Ry
      -> PAW hartree energy PS =     -88.77459206 Ry
      -> PAW xc energy AE      =    -834.82263787 Ry
      -> PAW xc energy PS      =      17.28603741 Ry
      -> total E_H with PAW    =     533.38421879 Ry
      -> total E_XC with PAW   =   -1002.63524898 Ry

     convergence has been achieved in  52 iterations

     Forces acting on atoms (cartesian axes, Ry/au):

     atom    1 type  1   force =     0.00000000   -0.00000000    0.00000000
     atom    2 type  1   force =    -0.00000000    0.00000000    0.00000000
     atom    3 type  2   force =    -0.00916879    0.00529360   -0.00000000
     atom    4 type  2   force =     0.00000000   -0.01058721    0.00000000
     atom    5 type  2   force =     0.00916879    0.00529360    0.00000000
     atom    6 type  2   force =     0.00916879   -0.00529360    0.00000000
     atom    7 type  2   force =     0.00000000    0.01058721   -0.00000000
     atom    8 type  2   force =    -0.00916879   -0.00529360   -0.00000000
     The non-local contrib.  to forces
     atom    1 type  1   force =     0.00000000    0.00000000    0.00000000
     atom    2 type  1   force =     0.00000000   -0.00000000    0.00000000
     atom    3 type  2   force =     0.15850262   -0.09151153    0.00000000
     atom    4 type  2   force =    -0.00000000    0.18302306   -0.00000000
     atom    5 type  2   force =    -0.15850262   -0.09151154    0.00000000
     atom    6 type  2   force =    -0.15850262    0.09151153   -0.00000000
     atom    7 type  2   force =     0.00000000   -0.18302306    0.00000000
     atom    8 type  2   force =     0.15850262    0.09151154   -0.00000000
     The ionic contribution  to forces
     atom    1 type  1   force =     0.00012672   -0.00007316   -0.00000000
     atom    2 type  1   force =    -0.00012672    0.00007316   -0.00000000
     atom    3 type  2   force =    -8.16936760    4.71658642   -0.00000000
     atom    4 type  2   force =    -0.00017237   -9.43324882    0.00000000
     atom    5 type  2   force =     8.16934679    4.71677393   -0.00000000
     atom    6 type  2   force =     8.16936761   -4.71658642   -0.00000000
     atom    7 type  2   force =     0.00017236    9.43324882   -0.00000000
     atom    8 type  2   force =    -8.16934679   -4.71677393   -0.00000000
     The local contribution  to forces
     atom    1 type  1   force =    -0.00086010    0.00080296   -0.00056470
     atom    2 type  1   force =     0.00094586   -0.00108152    0.00056217
     atom    3 type  2   force =     8.00178271   -4.62032125   -0.00018490
     atom    4 type  2   force =     0.00030872    9.24040495   -0.00000509
     atom    5 type  2   force =    -8.00182228   -4.62069926   -0.00027258
     atom    6 type  2   force =    -8.00142207    4.62017085    0.00019378
     atom    7 type  2   force =    -0.00043906   -9.24000174   -0.00002624
     atom    8 type  2   force =     8.00142349    4.62064323    0.00031414
     The core correction contribution to forces
     atom    1 type  1   force =    -0.00000042    0.00000038   -0.00000036
     atom    2 type  1   force =     0.00000047   -0.00000054    0.00000036
     atom    3 type  2   force =     0.00000000    0.00000000    0.00000000
     atom    4 type  2   force =     0.00000000    0.00000000    0.00000000
     atom    5 type  2   force =     0.00000000    0.00000000    0.00000000
     atom    6 type  2   force =     0.00000000    0.00000000    0.00000000
     atom    7 type  2   force =     0.00000000    0.00000000    0.00000000
     atom    8 type  2   force =     0.00000000    0.00000000    0.00000000
     The Hubbard contrib.    to forces
     atom    1 type  1   force =     0.00000000    0.00000000    0.00000000
     atom    2 type  1   force =     0.00000000    0.00000000    0.00000000
     atom    3 type  2   force =     0.00000000    0.00000000    0.00000000
     atom    4 type  2   force =     0.00000000    0.00000000    0.00000000
     atom    5 type  2   force =     0.00000000    0.00000000    0.00000000
     atom    6 type  2   force =     0.00000000    0.00000000    0.00000000
     atom    7 type  2   force =     0.00000000    0.00000000    0.00000000
     atom    8 type  2   force =     0.00000000    0.00000000    0.00000000
     The SCF correction term to forces
     atom    1 type  1   force =     0.00034256   -0.00033487    0.00027201
     atom    2 type  1   force =    -0.00039446    0.00051808   -0.00026853
     atom    3 type  2   force =    -0.00013085    0.00052460    0.00018178
     atom    4 type  2   force =    -0.00009318   -0.00073925   -0.00000119
     atom    5 type  2   force =     0.00018019    0.00065613    0.00026046
     atom    6 type  2   force =    -0.00026513   -0.00040293   -0.00019515
     atom    7 type  2   force =     0.00024114    0.00036023    0.00002892
     atom    8 type  2   force =     0.00024573   -0.00065027   -0.00029403

     Total force =     0.025933     Total SCF correction =     0.001800

     Computing stress (Cartesian axis) and pressure

          total   stress  (Ry/bohr**3)                   (kbar)     P=     -785.15
  -0.00549674  -0.00000000  -0.00000000         -808.60       -0.00       -0.00
  -0.00000000  -0.00549674   0.00000000           -0.00     -808.60        0.00
  -0.00000000   0.00000000  -0.00501858           -0.00        0.00     -738.26

     kinetic stress (kbar)  42339.80      0.00      0.00
                                0.00  42339.81     -0.00
                                0.00     -0.00  42348.42

     local   stress (kbar) -12737.91      0.12      0.08
                                0.12 -12737.66      0.27
                                0.08      0.27 -23881.96

     nonloc. stress (kbar)   8441.99      0.00     -0.00
                                0.00   8441.99      0.00
                                0.00      0.00   8523.84

     hartree stress (kbar)  17167.78     -0.06      0.01
                               -0.06  17167.63      0.03
                                0.01      0.03  21795.65

     exc-cor stress (kbar)  -6128.49     -0.00      0.00
                               -0.00  -6128.49      0.00
                                0.00      0.00  -6117.89

     corecor stress (kbar)    -19.34      0.00      0.00
                                0.00    -19.34      0.00
                                0.00      0.00    -19.40

     ewald   stress (kbar) -49872.48      0.00     -0.00
                                0.00 -49872.48      0.00
                               -0.00      0.00 -43386.91

     hubbard stress (kbar)      0.00      0.00      0.00
                                0.00      0.00      0.00
                                0.00      0.00      0.00

     DFT-D   stress (kbar)      0.00      0.00      0.00
                                0.00      0.00      0.00
                                0.00      0.00      0.00

     XDM     stress (kbar)      0.00      0.00      0.00
                                0.00      0.00      0.00
                                0.00      0.00      0.00

     dft-nl  stress (kbar)      0.00      0.00      0.00
                                0.00      0.00      0.00
                                0.00      0.00      0.00

     TS-vdW  stress (kbar)      0.00      0.00      0.00
                                0.00      0.00      0.00
                                0.00      0.00      0.00

[...]

                                0.00      0.00      0.00

     Writing all to output data dir new_calculations/myprefix.save/

     General routines

     Parallel routines

     PAW routines

   This run was terminated on:   3:44:55  20May2023

   JOB DONE.