     Program PWSCF v.7.0 starts on 20May2023 at  6:49: 1

     Reading input from espresso_17103.pwi
Warning: card &CELL ignored
Warning: card / ignored

     Current dimensions of program PWSCF are:
     Max number of different atomic species (ntypx) = 10
     Max number of k-points (npk) =  40000
     Max angular momentum in pseudopotentials (lmaxx) =  4

     gamma-point specific algorithms are used
     Message from routine setup:
     using ibrav=0 with symmetry is DISCOURAGED, use correct ibrav instead

     Subspace diagonalization in iterative solution of the eigenvalue problem:
     a serial algorithm will be used

     Using Slab Decomposition

     bravais-lattice index     =            0
     lattice parameter (alat)  =       5.6596  a.u.
     unit-cell volume          =     506.1961 (a.u.)^3
     number of atoms/cell      =            8
     number of atomic types    =            3
     number of electrons       =        66.00
     number of Kohn-Sham states=           40
     kinetic-energy cutoff     =      30.0000  Ry
     charge density cutoff     =     240.0000  Ry
     scf convergence threshold =      1.0E-06
     mixing beta               =       0.7000
     number of iterations used =            8  plain     mixing
     Exchange-correlation=  SLA  PW   PBX  PBC
                           (   1   4   3   4   0   0   0)

     celldm(1)=   5.659633  celldm(2)=   0.000000  celldm(3)=   0.000000
     celldm(4)=   0.000000  celldm(5)=   0.000000  celldm(6)=   0.000000

     crystal axes: (cart. coord. in units of alat)
               a(1) = (   1.000000   0.000000   0.000000 )
               a(2) = (   0.000000   1.027098   0.000000 )
               a(3) = (   0.000000   0.000000   2.718579 )

     reciprocal axes: (cart. coord. in units 2 pi/alat)
               b(1) = (  1.000000  0.000000  0.000000 )
               b(2) = (  0.000000  0.973617  0.000000 )
               b(3) = (  0.000000  0.000000  0.367839 )

     PseudoPot. # 1 for V  read from file:
     /home/pragov/projects/rrg-bengioy-ad/pragov/crystal_structure_design/SSSP/v_pbe_v1.4.uspp.F.UPF
     MD5 check sum: 22b79981416ebb76fdaf5b1b8640f6fb
     Pseudo is Ultrasoft + core correction, Zval = 13.0
     Generated by new atomic code, or converted to UPF format
     Using radial grid of  853 points,  6 beta functions with:
                l(1) =   0
                l(2) =   0
                l(3) =   1
                l(4) =   1
                l(5) =   2
                l(6) =   2
     Q(r) pseudized with  8 coefficients,  rinner =    1.100   1.100   1.100
                                                       1.100   1.100

     PseudoPot. # 2 for Re read from file:
     /home/pragov/projects/rrg-bengioy-ad/pragov/crystal_structure_design/SSSP/Re_pbe_v1.2.uspp.F.UPF
     MD5 check sum: 85f993410f3e006da9d71c142b4ad953
     Pseudo is Ultrasoft + core correction, Zval = 15.0
     Generated by new atomic code, or converted to UPF format
     Using radial grid of  981 points,  8 beta functions with:
                l(1) =   0
                l(2) =   0
                l(3) =   1
                l(4) =   1
                l(5) =   2
                l(6) =   2
                l(7) =   3
                l(8) =   3
     Q(r) pseudized with  8 coefficients,  rinner =    1.150   1.150   1.150
                                                       1.150   1.150   1.150
                                                       1.150

     PseudoPot. # 3 for B  read from file:
     /home/pragov/projects/rrg-bengioy-ad/pragov/crystal_structure_design/SSSP/b_pbe_v1.4.uspp.F.UPF
     MD5 check sum: cc6de2960df11db49a60e589f9ebb39b
     Pseudo is Ultrasoft + core correction, Zval =  3.0
     Generated by new atomic code, or converted to UPF format
     Using radial grid of  781 points,  4 beta functions with:
                l(1) =   0
                l(2) =   0
                l(3) =   1
                l(4) =   1
     Q(r) pseudized with  8 coefficients,  rinner =    1.100   1.100   1.100

     atomic species   valence    mass     pseudopotential
        V             13.00    50.94150     V ( 1.00)
        Re            15.00   186.20700     Re( 1.00)
        B              3.00    10.81000     B ( 1.00)

      4 Sym. Ops. (no inversion) found

                                    s                        frac. trans.

      isym =  1     identity

 cryst.   s( 1) = (     1          0          0      )
                  (     0          1          0      )
                  (     0          0          1      )

 cart.    s( 1) = (  1.0000000  0.0000000  0.0000000 )
                  (  0.0000000  1.0000000  0.0000000 )
                  (  0.0000000  0.0000000  1.0000000 )

      isym =  2     180 deg rotation - cart. axis [0,0,1]

[...]

      isym =  3     inv. 180 deg rotation - cart. axis [0,1,0]

[...]

      isym =  4     inv. 180 deg rotation - cart. axis [1,0,0]

 cryst.   s( 4) = (    -1          0          0      )
                  (     0          1          0      )
                  (     0          0          1      )

 cart.    s( 4) = ( -1.0000000  0.0000000  0.0000000 )
                  (  0.0000000  1.0000000  0.0000000 )
                  (  0.0000000  0.0000000  1.0000000 )

   Cartesian axes

     site n.     atom                  positions (alat units)
         1           V   tau(   1) = (   0.0000000   0.5135491   1.7543642  )
         2           V   tau(   2) = (   0.5000000   0.5135491   0.9787808  )
         3           V   tau(   3) = (   0.5000000   0.0000000   2.3172731  )
         4           Re  tau(   4) = (   0.0000000   0.0000000   0.4104483  )
         5           B   tau(   5) = (   0.0000000   0.0000000   1.1995267  )
         6           B   tau(   6) = (   0.0000000   0.5135491   2.5288791  )
         7           B   tau(   7) = (   0.5000000   0.5135491   0.1519359  )
         8           B   tau(   8) = (   0.5000000   0.0000000   1.5331045  )

   Crystallographic axes

     site n.     atom                  positions (cryst. coord.)
         1           V   tau(   1) = (  0.0000000  0.5000000  0.6453240  )
         2           V   tau(   2) = (  0.5000000  0.5000000  0.3600340  )
         3           V   tau(   3) = (  0.5000000  0.0000000  0.8523840  )
         4           Re  tau(   4) = (  0.0000000  0.0000000  0.1509790  )
         5           B   tau(   5) = (  0.0000000  0.0000000  0.4412330  )
         6           B   tau(   6) = (  0.0000000  0.5000000  0.9302210  )
         7           B   tau(   7) = (  0.5000000  0.5000000  0.0558880  )
         8           B   tau(   8) = (  0.5000000  0.0000000  0.5639360  )

     number of k points=     1  Methfessel-Paxton smearing, width (Ry)=  0.0010
                       cart. coord. in units 2pi/alat
        k(    1) = (   0.0000000   0.0000000   0.0000000), wk =   2.0000000

                       cryst. coord.
        k(    1) = (   0.0000000   0.0000000   0.0000000), wk =   2.0000000

     Check: negative core charge=   -0.000005

     Initial potential from superposition of free atoms

     starting charge      65.4951, renormalised to      66.0000

     negative rho (up, down):  1.303E-01 0.000E+00
     Starting wfcs are   59 randomized atomic wfcs

     Self-consistent Calculation

     iteration #  1     ecut=    30.00 Ry     beta= 0.70
     Davidson diagonalization with overlap

     ethr =  1.00E-02,  avg # of iterations =  2.0

     negative rho (up, down):  1.114E-01 0.000E+00

     total energy              =    -640.08867179 Ry
     estimated scf accuracy    <      13.62973050 Ry

[...]

     total energy              =    -651.07888621 Ry
     estimated scf accuracy    <       0.00000170 Ry

     iteration # 35     ecut=    30.00 Ry     beta= 0.70
     Davidson diagonalization with overlap

     ethr =  2.57E-09,  avg # of iterations =  6.0

[...]

     End of self-consistent calculation

          k = 0.0000 0.0000 0.0000 (   693 PWs)   bands (ev):

   -61.0612 -45.6222 -45.4736 -45.0243 -23.3896 -22.7815 -22.7594 -19.8318
   -19.5633 -19.5402 -19.2890 -19.2496 -19.1974 -19.0466 -18.7792 -18.6540
     5.2401   6.7025   9.2795  10.9007  13.9055  14.2438  14.5964  14.6983
    14.8271  15.5376  15.7379  15.7543  17.0157  17.5301  18.1913  18.5264
    18.7050  18.8546  19.1774  19.7367  19.8143  20.0122  20.1026  20.5179

     occupation numbers
     1.0000   1.0000   1.0000   1.0000   1.0000   1.0000   1.0000   1.0000
     1.0000   1.0000   1.0000   1.0000   1.0000   1.0000   1.0000   1.0000
     1.0000   1.0000   1.0000   1.0000   1.0000   1.0000   1.0000   1.0000
     1.0000   1.0000   1.0000   1.0000   1.0000   1.0000   1.0000   1.0000
     1.0000  -0.0000  -0.0000  -0.0000  -0.0000  -0.0000  -0.0000  -0.0000

     the Fermi energy is    18.7756 ev

!    total energy              =    -651.07888607 Ry
     estimated scf accuracy    <       0.00000051 Ry
     smearing contrib. (-TS)   =       0.00000000 Ry
     internal energy E=F+TS    =    -651.07888607 Ry

     The total energy is F=E-TS. E is the sum of the following terms:
     one-electron contribution =    -158.45284453 Ry
     hartree contribution      =     118.16577633 Ry
     xc contribution           =    -124.17773471 Ry
     ewald contribution        =    -486.61408317 Ry

     convergence has been achieved in  35 iterations

     negative rho (up, down):  1.253E-01 0.000E+00

     Forces acting on atoms (cartesian axes, Ry/au):

     atom    1 type  1   force =     0.00000000    0.00000000   -0.08657201
     atom    2 type  1   force =     0.00000000    0.00000000    0.03252357
     atom    3 type  1   force =     0.00000000    0.00000000    0.12456185
     atom    4 type  2   force =     0.00000000    0.00000000   -0.05387958
     atom    5 type  3   force =     0.00000000    0.00000000    0.19953512
     atom    6 type  3   force =     0.00000000    0.00000000    0.26403214
     atom    7 type  3   force =     0.00000000    0.00000000   -0.23322913
     atom    8 type  3   force =     0.00000000    0.00000000   -0.24697196
     The non-local contrib.  to forces
     atom    1 type  1   force =     0.00000000    0.00000000   -0.15932814
     atom    2 type  1   force =     0.00000000    0.00000000    0.07114456
     atom    3 type  1   force =     0.00000000    0.00000000    0.18782453
     atom    4 type  2   force =     0.00000000    0.00000000   -0.00512405
     atom    5 type  3   force =     0.00000000    0.00000000   -0.02309484
     atom    6 type  3   force =     0.00000000    0.00000000    0.11123801
     atom    7 type  3   force =     0.00000000    0.00000000    0.09546793
     atom    8 type  3   force =     0.00000000    0.00000000   -0.00675050
     The ionic contribution  to forces
     atom    1 type  1   force =    -0.00000000    0.00000000    0.62286953
     atom    2 type  1   force =    -0.00000000    0.00000000    2.72634114
     atom    3 type  1   force =    -0.00000000   -0.00000000   -1.11090873
     atom    4 type  2   force =     0.00000000   -0.00000000   -2.30355774
     atom    5 type  3   force =     0.00000000   -0.00000000    0.71813382
     atom    6 type  3   force =     0.00000000   -0.00000000   -0.32269269
     atom    7 type  3   force =     0.00000000    0.00000000   -0.66705184
     atom    8 type  3   force =    -0.00000000   -0.00000000    0.33686650
     The local contribution  to forces
     atom    1 type  1   force =     0.00001774    0.00008269   -0.57103666
     atom    2 type  1   force =     0.00000328   -0.00010747   -2.75101633
     atom    3 type  1   force =     0.00001553   -0.00006561    1.06239775
     atom    4 type  2   force =     0.00005769    0.00012986    2.22667691
     atom    5 type  3   force =     0.00000419    0.00001097   -0.50033046
     atom    6 type  3   force =    -0.00001001    0.00001275    0.47407839
     atom    7 type  3   force =    -0.00001445    0.00000943    0.34616332
     atom    8 type  3   force =    -0.00000571   -0.00001129   -0.57225341
     The core correction contribution to forces
     atom    1 type  1   force =     0.00000033   -0.00000208    0.02258789
     atom    2 type  1   force =    -0.00000025    0.00000241   -0.01487104
     atom    3 type  1   force =     0.00000075    0.00000276   -0.01437231
     atom    4 type  2   force =     0.00000321   -0.00000505    0.02613568
     atom    5 type  3   force =    -0.00000001    0.00000002    0.00492029
     atom    6 type  3   force =    -0.00000045    0.00000015    0.00142736
     atom    7 type  3   force =    -0.00000048    0.00000007   -0.00802497
     atom    8 type  3   force =    -0.00000013   -0.00000009   -0.00442682
     The Hubbard contrib.    to forces
     atom    1 type  1   force =     0.00000000    0.00000000    0.00000000
     atom    2 type  1   force =     0.00000000    0.00000000    0.00000000
     atom    3 type  1   force =     0.00000000    0.00000000    0.00000000
     atom    4 type  2   force =     0.00000000    0.00000000    0.00000000
     atom    5 type  3   force =     0.00000000    0.00000000    0.00000000
     atom    6 type  3   force =     0.00000000    0.00000000    0.00000000
     atom    7 type  3   force =     0.00000000    0.00000000    0.00000000
     atom    8 type  3   force =     0.00000000    0.00000000    0.00000000
     The SCF correction term to forces
     atom    1 type  1   force =    -0.00001038   -0.00008051   -0.00171005
     atom    2 type  1   force =    -0.00001151    0.00010259    0.00087983
     atom    3 type  1   force =    -0.00000796    0.00007839   -0.00042481
     atom    4 type  2   force =    -0.00006616   -0.00009110    0.00194420
     atom    5 type  3   force =    -0.00000165   -0.00000761   -0.00013911
     atom    6 type  3   force =     0.00000248   -0.00001107   -0.00006434
     atom    7 type  3   force =    -0.00000054   -0.00000436    0.00017101
     atom    8 type  3   force =     0.00000313    0.00000542   -0.00045315

     Total force =     0.501886     Total SCF correction =     0.002820

     Computing stress (Cartesian axis) and pressure

     negative rho (up, down):  1.253E-01 0.000E+00
          total   stress  (Ry/bohr**3)                   (kbar)     P=        5.99
   0.00191332   0.00000000   0.00000000          281.46        0.00        0.00
   0.00000000   0.00108063   0.00000000            0.00      158.97        0.00
   0.00000000   0.00000000  -0.00287172            0.00        0.00     -422.44

     kinetic stress (kbar)  35353.83      0.00      0.00
                                0.00  35214.41      0.00
                                0.00      0.00  33274.39

     local   stress (kbar)  15504.20     -0.01      0.01
                               -0.01  16820.89     -0.50
                                0.01     -0.50  16188.75

     nonloc. stress (kbar)  -6193.28      0.00      0.00
                                0.00  -6049.53      0.00
                                0.00      0.00  -5911.12

     hartree stress (kbar)  11742.36      0.00     -0.00
                                0.00  11083.59      0.19
                               -0.00      0.19  11514.06

     exc-cor stress (kbar)   4639.80      0.00      0.00
                                0.00   4636.19      0.00
                                0.00      0.00   4618.14

     corecor stress (kbar) -13681.66     -0.00     -0.00
                               -0.00 -13669.11     -0.01
                               -0.00     -0.01 -13653.57

     ewald   stress (kbar) -47083.79     -0.00     -0.00
                               -0.00 -47877.47      0.00
                               -0.00      0.00 -46453.10

     hubbard stress (kbar)      0.00      0.00      0.00
                                0.00      0.00      0.00
                                0.00      0.00      0.00

     DFT-D   stress (kbar)      0.00      0.00      0.00
                                0.00      0.00      0.00
                                0.00      0.00      0.00

     XDM     stress (kbar)      0.00      0.00      0.00
                                0.00      0.00      0.00
                                0.00      0.00      0.00

     dft-nl  stress (kbar)      0.00      0.00      0.00
                                0.00      0.00      0.00
                                0.00      0.00      0.00

     TS-vdW  stress (kbar)      0.00      0.00      0.00
                                0.00      0.00      0.00
                                0.00      0.00      0.00

[...]

                                0.00      0.00      0.00

     Writing all to output data dir new_calculations/myprefix.save/

     General routines

     Parallel routines

   This run was terminated on:   6:50: 3  20May2023

   JOB DONE.