     Program PWSCF v.7.0 starts on 20May2023 at 15:47:33

     Reading input from espresso_7496.pwi
Warning: card &CELL ignored
Warning: card / ignored

     Current dimensions of program PWSCF are:
     Max number of different atomic species (ntypx) = 10
     Max number of k-points (npk) =  40000
     Max angular momentum in pseudopotentials (lmaxx) =  4
     file O.pbe-n-kjpaw_psl.0.1.UPF: wavefunction(s)  2P renormalized

     gamma-point specific algorithms are used
     Message from routine setup:
     using ibrav=0 with symmetry is DISCOURAGED, use correct ibrav instead

     Subspace diagonalization in iterative solution of the eigenvalue problem:
     a serial algorithm will be used

     Using Slab Decomposition

     bravais-lattice index     =            0
     lattice parameter (alat)  =      12.4171  a.u.
     unit-cell volume          =    1353.7712 (a.u.)^3
     number of atoms/cell      =           16
     number of atomic types    =            4
     number of electrons       =       180.00
     number of Kohn-Sham states=          108
     kinetic-energy cutoff     =      30.0000  Ry
     charge density cutoff     =     240.0000  Ry
     scf convergence threshold =      1.0E-06
     mixing beta               =       0.7000
     number of iterations used =            8  plain     mixing
     Exchange-correlation= SLA  PW   PBX  PBC
                           (   1   4   3   4   0   0   0)

     celldm(1)=  12.417097  celldm(2)=   0.000000  celldm(3)=   0.000000
     celldm(4)=   0.000000  celldm(5)=   0.000000  celldm(6)=   0.000000

     crystal axes: (cart. coord. in units of alat)
               a(1) = (   1.000000   0.000000   0.000000 )
               a(2) = (   0.500000   0.866025   0.000000 )
               a(3) = (   0.500000   0.288675   0.816497 )

     reciprocal axes: (cart. coord. in units 2 pi/alat)
               b(1) = (  1.000000 -0.577350 -0.408248 )
               b(2) = (  0.000000  1.154701 -0.408248 )
               b(3) = (  0.000000  0.000000  1.224745 )

     PseudoPot. # 1 for Y  read from file:
     /home/pragov/projects/rrg-bengioy-ad/pragov/crystal_structure_design/SSSP/Y_pbe_v1.uspp.F.UPF
     MD5 check sum: 2cf71db95cafeb975fc457bd7f14888e
     Pseudo is Ultrasoft + core correction, Zval = 11.0
     Generated by new atomic code, or converted to UPF format
     Using radial grid of  885 points,  6 beta functions with:
                l(1) =   0
                l(2) =   0
                l(3) =   1
                l(4) =   1
                l(5) =   2
                l(6) =   2
     Q(r) pseudized with  6 coefficients,  rinner =    1.200   1.200   1.200
                                                       1.200   1.200

     PseudoPot. # 2 for Cu read from file:
     /home/pragov/projects/rrg-bengioy-ad/pragov/crystal_structure_design/SSSP/Cu_pbe_v1.2.uspp.F.UPF
     MD5 check sum: 6e991ff952a84172a2a52a1c1e996048
     Pseudo is Ultrasoft + core correction, Zval = 19.0
     Generated by new atomic code, or converted to UPF format
     Using radial grid of  867 points,  6 beta functions with:
                l(1) =   0
                l(2) =   0
                l(3) =   1
                l(4) =   1
                l(5) =   2
                l(6) =   2
     Q(r) pseudized with  8 coefficients,  rinner =    1.150   1.150   1.150
                                                       1.150   1.150

     PseudoPot. # 3 for Cl read from file:
     /home/pragov/projects/rrg-bengioy-ad/pragov/crystal_structure_design/SSSP/cl_pbe_v1.4.uspp.F.UPF
     MD5 check sum: fc6f6913ecf08c9257cb748ef0700058
     Pseudo is Ultrasoft + core correction, Zval =  7.0
     Generated by new atomic code, or converted to UPF format
     Using radial grid of  909 points,  6 beta functions with:
                l(1) =   0
                l(2) =   0
                l(3) =   1
                l(4) =   1
                l(5) =   2
                l(6) =   2
     Q(r) pseudized with  8 coefficients,  rinner =    1.300   1.300   1.300
                                                       1.300   1.300

     PseudoPot. # 4 for O  read from file:
     /home/pragov/projects/rrg-bengioy-ad/pragov/crystal_structure_design/SSSP/O.pbe-n-kjpaw_psl.0.1.UPF
     MD5 check sum: 0234752ac141de4415c5fc33072bef88
     Pseudo is Projector augmented-wave + core cor, Zval =  6.0
     Generated using "atomic" code by A. Dal Corso  v.5.0.99 svn rev. 10869
     Shape of augmentation charge: BESSEL
     Using radial grid of 1095 points,  4 beta functions with:
                l(1) =   0
                l(2) =   0
                l(3) =   1
                l(4) =   1
     Q(r) pseudized with 0 coefficients

     atomic species   valence    mass     pseudopotential
        Y             11.00    88.90584     Y ( 1.00)
        Cu            19.00    63.54600     Cu( 1.00)
        Cl             7.00    35.45000     Cl( 1.00)
        O              6.00    15.99900     O ( 1.00)

     12 Sym. Ops., with inversion, found

                                    s                        frac. trans.

      isym =  1     identity

 cryst.   s( 1) = (     1          0          0      )
                  (     0          1          0      )
                  (     0          0          1      )

 cart.    s( 1) = (  1.0000000  0.0000000 -0.0000000 )
                  (  0.0000000  1.0000000 -0.0000000 )
                  (  0.0000000  0.0000000  1.0000000 )

      isym =  2     180 deg rotation - cart. axis [1,0,0]

[...]

      isym =  3     120 deg rotation - cryst. axis [0,0,1]

[...]

      isym =  6     180 deg rotation - cryst. axis [1,1,0]

[...]

      isym =  7     inversion

[...]

      isym =  8     inv. 180 deg rotation - cart. axis [1,0,0]

[...]

      isym =  9     inv. 120 deg rotation - cryst. axis [0,0,1]

 cryst.   s( 9) = (     1         -1          0      )
                  (     1          0          0      )
                  (     1          0         -1      )

 cart.    s( 9) = (  0.5000000  0.8660254  0.0000000 )
                  ( -0.8660254  0.5000000  0.0000000 )
                  (  0.0000000  0.0000000 -1.0000000 )

[...]

 cryst.   s(10) = (     0          1          0      )
                  (    -1          1          0      )
                  (     0          1         -1      )

 cart.    s(10) = (  0.5000000 -0.8660254 -0.0000000 )
                  (  0.8660254  0.5000000  0.0000000 )
                  (  0.0000000  0.0000000 -1.0000000 )

[...]

      isym = 12     inv. 180 deg rotation - cryst. axis [1,1,0]

 cryst.   s(12) = (     1         -1          0      )
                  (     0         -1          0      )
                  (     0         -1          1      )

 cart.    s(12) = (  0.5000000 -0.8660254 -0.0000000 )
                  ( -0.8660254 -0.5000000 -0.0000000 )
                  (  0.0000000  0.0000000  1.0000000 )

   Cartesian axes

     site n.     atom                  positions (alat units)
         1           Y   tau(   1) = (   0.0000000   0.0000000   0.0000000  )
         2           Cu  tau(   2) = (   0.2500000   0.1443376   0.4082483  )
         3           Cu  tau(   3) = (   0.7500000   0.1443376   0.4082483  )
         4           Cu  tau(   4) = (   0.5000000   0.5773503   0.4082483  )
         5           Cu  tau(   5) = (   0.7500000   0.4330127   0.0000000  )
         6           Cu  tau(   6) = (   0.2500000   0.4330127   0.0000000  )
         7           Cu  tau(   7) = (   0.5000000   0.0000000   0.0000000  )
         8           Cl  tau(   8) = (   1.0000000   0.5773503   0.4082483  )
         9           O   tau(   9) = (   1.5000000   0.8660254   0.3539439  )
        10           O   tau(  10) = (   1.5000000   0.6223767   0.6985153  )
        11           O   tau(  11) = (   1.2889940   0.9878498   0.6985153  )
        12           O   tau(  12) = (   1.7110060   0.9878498   0.6985153  )
        13           O   tau(  13) = (   0.5000000   0.2886751   0.4625527  )
        14           O   tau(  14) = (   0.5000000   0.5323239   0.1179813  )
        15           O   tau(  15) = (   0.7110060   0.1668508   0.1179813  )
        16           O   tau(  16) = (   0.2889940   0.1668508   0.1179813  )

   Crystallographic axes

     site n.     atom                  positions (cryst. coord.)
         1           Y   tau(   1) = (  0.0000000  0.0000000  0.0000000  )
         2           Cu  tau(   2) = (  0.0000000 -0.0000000  0.5000000  )
         3           Cu  tau(   3) = (  0.5000000 -0.0000000  0.5000000  )
         4           Cu  tau(   4) = ( -0.0000000  0.5000000  0.5000000  )
         5           Cu  tau(   5) = (  0.5000000  0.5000000  0.0000000  )
         6           Cu  tau(   6) = (  0.0000000  0.5000000  0.0000000  )
         7           Cu  tau(   7) = (  0.5000000  0.0000000  0.0000000  )
         8           Cl  tau(   8) = (  0.5000000  0.5000000  0.5000000  )
         9           O   tau(   9) = (  0.8555030  0.8555030  0.4334910  )
        10           O   tau(  10) = (  0.8555030  0.4334910  0.8555030  )
        11           O   tau(  11) = (  0.4334910  0.8555030  0.8555030  )
        12           O   tau(  12) = (  0.8555030  0.8555030  0.8555030  )
        13           O   tau(  13) = (  0.1444970  0.1444970  0.5665090  )
        14           O   tau(  14) = (  0.1444970  0.5665090  0.1444970  )
        15           O   tau(  15) = (  0.5665090  0.1444970  0.1444970  )
        16           O   tau(  16) = (  0.1444970  0.1444970  0.1444970  )

     number of k points=     1  Methfessel-Paxton smearing, width (Ry)=  0.0010
                       cart. coord. in units 2pi/alat
        k(    1) = (   0.0000000   0.0000000   0.0000000), wk =   2.0000000

                       cryst. coord.
        k(    1) = (   0.0000000   0.0000000   0.0000000), wk =   2.0000000

     Check: negative core charge=   -0.000013

     Initial potential from superposition of free atoms

     starting charge     173.9955, renormalised to     180.0000

     negative rho (up, down):  6.185E-02 0.000E+00
     Starting wfcs are  127 randomized atomic wfcs
     Checking if some PAW data can be deallocated...

     Self-consistent Calculation

     iteration #  1     ecut=    30.00 Ry     beta= 0.70
     Davidson diagonalization with overlap

     ethr =  1.00E-02,  avg # of iterations =  4.0

     negative rho (up, down):  6.008E-02 0.000E+00

     total energy              =   -2870.60897446 Ry
     estimated scf accuracy    <       8.56259847 Ry

[...]

     ethr =  1.18E-04,  avg # of iterations =  1.0
     Minimization algorithm failed to find Fermi energy: reverting to bisection
     Possible cause: smearing is larger than the electronic band-gap.

[...]

     total energy              =   -2876.13783500 Ry
     estimated scf accuracy    <       0.00000504 Ry

     iteration # 27     ecut=    30.00 Ry     beta= 0.70
     Davidson diagonalization with overlap

     ethr =  1.72E-09,  avg # of iterations =  1.0

[...]

     End of self-consistent calculation

          k = 0.0000 0.0000 0.0000 (  1860 PWs)   bands (ev):

  -104.2626-104.2625-104.2606-104.2606-104.2605-104.2581 -61.7983 -61.7983
   -61.7981 -61.7962 -61.7960 -61.7960 -61.7407 -61.7407 -61.7406 -61.7405
   -61.7404 -61.7395 -61.2826 -61.2824 -61.2824 -61.2795 -61.2795 -61.2793
   -31.9158 -12.4955 -12.4954 -12.4954 -10.5115  -9.5225  -9.5223  -9.5221
    -9.3369  -8.8335  -8.8334  -8.8332  -5.0191   2.1008   2.1008   2.4788
     2.5825   2.5826   2.5826   3.1992   3.1992   3.1992   3.9158   3.9158
     3.9159   4.5408   4.5409   4.5410   4.6557   4.6557   4.6558   5.2755
     5.8058   5.8058   5.9100   5.9100   5.9623   5.9623   5.9682   5.9682
     5.9682   6.0718   6.0866   6.0866   6.0866   6.2970   6.4004   6.4005
     6.4005   6.4777   6.4777   6.4777   6.5220   6.5221   6.5221   7.0601
     7.0601   7.0993   7.0994   7.0995   7.1481   7.1481   7.1482   7.3838
     8.2399   8.2400   8.2400   9.9523   9.9523   9.9523  11.4105  13.9682
    13.9682  15.4566  15.4566  15.4566  15.7761  15.7761  15.7761  17.1796
    17.1796  17.1797  17.3578  17.3578

     occupation numbers
     1.0000   1.0000   1.0000   1.0000   1.0000   1.0000   1.0000   1.0000
     1.0000   1.0000   1.0000   1.0000   1.0000   1.0000   1.0000   1.0000
     1.0000   1.0000   1.0000   1.0000   1.0000   1.0000   1.0000   1.0000
     1.0000   1.0000   1.0000   1.0000   1.0000   1.0000   1.0000   1.0000
     1.0000   1.0000   1.0000   1.0000   1.0000   1.0000   1.0000   1.0000
     1.0000   1.0000   1.0000   1.0000   1.0000   1.0000   1.0000   1.0000
     1.0000   1.0000   1.0000   1.0000   1.0000   1.0000   1.0000   1.0000
     1.0000   1.0000   1.0000   1.0000   1.0000   1.0000   1.0000   1.0000
     1.0000   1.0000   1.0000   1.0000   1.0000   1.0000   1.0000   1.0000
     1.0000   1.0000   1.0000   1.0000   1.0000   1.0000   1.0000   1.0000
     1.0000   1.0000   1.0000   1.0000   1.0000   1.0000   1.0000   1.0000
     0.6679   0.6665   0.6656  -0.0000  -0.0000  -0.0000  -0.0000  -0.0000
    -0.0000  -0.0000  -0.0000  -0.0000  -0.0000  -0.0000  -0.0000  -0.0000
    -0.0000  -0.0000  -0.0000  -0.0000

     the Fermi energy is     8.2427 ev

!    total energy              =   -2876.13783442 Ry
     estimated scf accuracy    <       0.00000070 Ry
     smearing contrib. (-TS)   =      -0.00074671 Ry
     internal energy E=F+TS    =   -2876.13708771 Ry

     The total energy is F=E-TS. E is the sum of the following terms:
     one-electron contribution =   -2281.41188502 Ry
     hartree contribution      =    1222.72657106 Ry
     xc contribution           =    -322.73250391 Ry
     ewald contribution        =   -1418.50568644 Ry
     one-center paw contrib.   =     -76.21358340 Ry
      -> PAW hartree energy AE =     232.72811823 Ry
      -> PAW hartree energy PS =    -231.92828944 Ry
      -> PAW xc energy AE      =    -136.69386779 Ry
      -> PAW xc energy PS      =      59.68045561 Ry
      -> total E_H with PAW    =    1223.52639984 Ry
      -> total E_XC with PAW   =    -399.74591609 Ry

     convergence has been achieved in  27 iterations

     negative rho (up, down):  6.111E-02 0.000E+00

     Forces acting on atoms (cartesian axes, Ry/au):

     atom    1 type  1   force =     0.00000000    0.00000000    0.00000000
     atom    2 type  2   force =     0.00000000   -0.00000000   -0.00000000
     atom    3 type  2   force =     0.00000000   -0.00000000   -0.00000000
     atom    4 type  2   force =     0.00000000    0.00000000    0.00000000
     atom    5 type  2   force =     0.00000000   -0.00000000   -0.00000000
     atom    6 type  2   force =     0.00000000    0.00000000    0.00000000
     atom    7 type  2   force =     0.00000000   -0.00000000   -0.00000000
     atom    8 type  3   force =     0.00000000    0.00000000   -0.00000000
     atom    9 type  4   force =    -0.00000000    0.00000000   -0.00058517
     atom   10 type  4   force =     0.00000000   -0.00052210    0.00022708
     atom   11 type  4   force =    -0.00045215    0.00026105    0.00022708
     atom   12 type  4   force =     0.00045215    0.00026105    0.00022708
     atom   13 type  4   force =    -0.00000000    0.00000000    0.00058517
     atom   14 type  4   force =     0.00000000    0.00052210   -0.00022708
     atom   15 type  4   force =     0.00045215   -0.00026105   -0.00022708
     atom   16 type  4   force =    -0.00045215   -0.00026105   -0.00022708
     The non-local contrib.  to forces
     atom    1 type  1   force =     0.00000000    0.00000000    0.00000000
     atom    2 type  2   force =    -0.00000000    0.00000000    0.00000000
     atom    3 type  2   force =     0.00000000   -0.00000000    0.00000000
     atom    4 type  2   force =     0.00000000    0.00000000    0.00000000
     atom    5 type  2   force =     0.00000000    0.00000000    0.00000000
     atom    6 type  2   force =    -0.00000000    0.00000000    0.00000000
     atom    7 type  2   force =    -0.00000000    0.00000000   -0.00000000
     atom    8 type  3   force =     0.00000000    0.00000000   -0.00000000
     atom    9 type  4   force =     0.00000000    0.00000000    0.07390215
     atom   10 type  4   force =     0.00000000    0.07071360   -0.02475642
     atom   11 type  4   force =     0.06123977   -0.03535680   -0.02475642
     atom   12 type  4   force =    -0.06123977   -0.03535680   -0.02475642
     atom   13 type  4   force =     0.00000000   -0.00000000   -0.07390215
     atom   14 type  4   force =     0.00000000   -0.07071360    0.02475642
     atom   15 type  4   force =    -0.06123977    0.03535680    0.02475642
     atom   16 type  4   force =     0.06123977    0.03535680    0.02475642
     The ionic contribution  to forces
     atom    1 type  1   force =     0.00000000   -0.00000000   -0.00000000
     atom    2 type  2   force =     0.00000000    0.00000000   -0.00000000
     atom    3 type  2   force =    -0.00000000    0.00000000   -0.00000000
     atom    4 type  2   force =     0.00000000   -0.00000000   -0.00000000
     atom    5 type  2   force =    -0.00000000    0.00000000    0.00000000
     atom    6 type  2   force =     0.00000000    0.00000000    0.00000000
     atom    7 type  2   force =     0.00000000   -0.00000000   -0.00000000
     atom    8 type  3   force =     0.00000000   -0.00000000   -0.00000000
     atom    9 type  4   force =    -0.00000000    0.00000000   -4.32176948
     atom   10 type  4   force =     0.00000000   -4.07460334    1.44058983
     atom   11 type  4   force =    -3.52871000    2.03730167    1.44058983
     atom   12 type  4   force =     3.52871000    2.03730167    1.44058983
     atom   13 type  4   force =     0.00000000    0.00000000    4.32176948
     atom   14 type  4   force =    -0.00000000    4.07460334   -1.44058983
     atom   15 type  4   force =     3.52871000   -2.03730167   -1.44058983
     atom   16 type  4   force =    -3.52871000   -2.03730167   -1.44058983
     The local contribution  to forces
     atom    1 type  1   force =     0.00008189    0.00005439   -0.00003549
     atom    2 type  2   force =    -0.00012392   -0.00007038    0.00003070
     atom    3 type  2   force =     0.00013838   -0.00006045    0.00023535
     atom    4 type  2   force =     0.00001283    0.00014464    0.00023864
     atom    5 type  2   force =     0.00024937    0.00013197   -0.00019479
     atom    6 type  2   force =    -0.00023576   -0.00006340   -0.00013572
     atom    7 type  2   force =    -0.00016049   -0.00016708   -0.00013258
     atom    8 type  3   force =    -0.00000595   -0.00000474    0.00000340
     atom    9 type  4   force =     0.00020157   -0.00047047    4.24927835
     atom   10 type  4   force =    -0.00007111    4.00517373   -1.41696102
     atom   11 type  4   force =     3.46769944   -2.00260898   -1.41630711
     atom   12 type  4   force =    -3.46775197   -2.00255471   -1.41660710
     atom   13 type  4   force =    -0.00018759    0.00047835   -4.24917105
     atom   14 type  4   force =     0.00008647   -4.00507036    1.41691936
     atom   15 type  4   force =    -3.46760020    2.00257162    1.41626437
     atom   16 type  4   force =     3.46766864    2.00250979    1.41656206
     The core correction contribution to forces
     atom    1 type  1   force =     0.00000062    0.00000046   -0.00000029
     atom    2 type  2   force =    -0.00000001   -0.00000001   -0.00000000
     atom    3 type  2   force =     0.00000001   -0.00000001    0.00000002
     atom    4 type  2   force =    -0.00000000    0.00000001    0.00000002
     atom    5 type  2   force =     0.00000002    0.00000001   -0.00000002
     atom    6 type  2   force =    -0.00000003   -0.00000001   -0.00000001
     atom    7 type  2   force =    -0.00000002   -0.00000002   -0.00000001
     atom    8 type  3   force =    -0.00000000   -0.00000003    0.00000001
     atom    9 type  4   force =     0.00000126   -0.00000206   -0.00161039
     atom   10 type  4   force =    -0.00000080   -0.00152789    0.00053622
     atom   11 type  4   force =    -0.00133165    0.00076620    0.00054131
     atom   12 type  4   force =     0.00133104    0.00076682    0.00053916
     atom   13 type  4   force =    -0.00000130    0.00000203    0.00161061
     atom   14 type  4   force =     0.00000077    0.00152849   -0.00053643
     atom   15 type  4   force =     0.00133214   -0.00076652   -0.00054152
     atom   16 type  4   force =    -0.00133106   -0.00076681   -0.00053913
     The Hubbard contrib.    to forces
     atom    1 type  1   force =     0.00000000    0.00000000    0.00000000
     atom    2 type  2   force =     0.00000000    0.00000000    0.00000000
     atom    3 type  2   force =     0.00000000    0.00000000    0.00000000
     atom    4 type  2   force =     0.00000000    0.00000000    0.00000000
     atom    5 type  2   force =     0.00000000    0.00000000    0.00000000
     atom    6 type  2   force =     0.00000000    0.00000000    0.00000000
     atom    7 type  2   force =     0.00000000    0.00000000    0.00000000
     atom    8 type  3   force =     0.00000000    0.00000000    0.00000000
     atom    9 type  4   force =     0.00000000    0.00000000    0.00000000
     atom   10 type  4   force =     0.00000000    0.00000000    0.00000000
     atom   11 type  4   force =     0.00000000    0.00000000    0.00000000
     atom   12 type  4   force =     0.00000000    0.00000000    0.00000000
     atom   13 type  4   force =     0.00000000    0.00000000    0.00000000
     atom   14 type  4   force =     0.00000000    0.00000000    0.00000000
     atom   15 type  4   force =     0.00000000    0.00000000    0.00000000
     atom   16 type  4   force =     0.00000000    0.00000000    0.00000000
     The SCF correction term to forces
     atom    1 type  1   force =    -0.00007340   -0.00004825    0.00003165
     atom    2 type  2   force =     0.00013614    0.00007393   -0.00003134
     atom    3 type  2   force =    -0.00014953    0.00006335   -0.00025759
     atom    4 type  2   force =    -0.00001213   -0.00016174   -0.00026599
     atom    5 type  2   force =    -0.00027285   -0.00014685    0.00021491
     atom    6 type  2   force =     0.00025798    0.00007230    0.00014920
     atom    7 type  2   force =     0.00017965    0.00018217    0.00014487
     atom    8 type  3   force =     0.00000598    0.00000452   -0.00000342
     atom    9 type  4   force =    -0.00012459    0.00033903   -0.00038235
     atom   10 type  4   force =     0.00002034    0.00010744    0.00063657
     atom   11 type  4   force =     0.00041855    0.00012627    0.00031261
     atom   12 type  4   force =    -0.00040439    0.00011036    0.00048108
     atom   13 type  4   force =     0.00010719   -0.00035014    0.00028171
     atom   14 type  4   force =    -0.00003796   -0.00017607   -0.00060652
     atom   15 type  4   force =    -0.00049085   -0.00010808   -0.00028199
     atom   16 type  4   force =     0.00049293   -0.00006161   -0.00043051

     Total force =     0.001622     Total SCF correction =     0.001820
     SCF correction compared to forces is large: reduce conv_thr to get better values

     Computing stress (Cartesian axis) and pressure

     negative rho (up, down):  6.111E-02 0.000E+00
          total   stress  (Ry/bohr**3)                   (kbar)     P=     -751.63
  -0.00510877   0.00000000   0.00000000         -751.53        0.00        0.00
   0.00000000  -0.00510877  -0.00000000            0.00     -751.53       -0.00
   0.00000000  -0.00000000  -0.00511078            0.00       -0.00     -751.82

     kinetic stress (kbar)  30253.34      0.00      0.00
                                0.00  30253.34      0.00
                                0.00      0.00  30253.75

     local   stress (kbar) -30488.72     -0.18      0.07
                               -0.18 -30490.05      0.48
                                0.07      0.48 -30491.34

     nonloc. stress (kbar)  17389.15      0.00     -0.00
                                0.00  17389.15      0.00
                               -0.00      0.00  17389.43

     hartree stress (kbar)  44287.78      0.11     -0.06
                                0.11  44288.48     -0.26
                               -0.06     -0.26  44289.09

     exc-cor stress (kbar)  -8467.88      0.00     -0.00
                                0.00  -8467.88     -0.00
                               -0.00     -0.00  -8467.88

     corecor stress (kbar)  -2345.10     -0.00     -0.00
                               -0.00  -2345.10      0.00
                               -0.00      0.00  -2345.10

     ewald   stress (kbar) -51379.78      0.00      0.00
                                0.00 -51379.78     -0.00
                                0.00     -0.00 -51379.78

     hubbard stress (kbar)      0.00      0.00      0.00
                                0.00      0.00      0.00
                                0.00      0.00      0.00

     DFT-D   stress (kbar)      0.00      0.00      0.00
                                0.00      0.00      0.00
                                0.00      0.00      0.00

     XDM     stress (kbar)      0.00      0.00      0.00
                                0.00      0.00      0.00
                                0.00      0.00      0.00

     dft-nl  stress (kbar)      0.00      0.00      0.00
                                0.00      0.00      0.00
                                0.00      0.00      0.00

     TS-vdW  stress (kbar)      0.00      0.00      0.00
                                0.00      0.00      0.00
                                0.00      0.00      0.00

[...]

                                0.00      0.00      0.00

     Writing all to output data dir new_calculations/myprefix.save/

     General routines

     Parallel routines

     PAW routines

   This run was terminated on:  15:48:29  20May2023

   JOB DONE.