     Program PWSCF v.7.0 starts on 21May2023 at 14:14: 0

     Reading input from espresso_26784.pwi
Warning: card &CELL ignored
Warning: card / ignored

     Current dimensions of program PWSCF are:
     Max number of different atomic species (ntypx) = 10
     Max number of k-points (npk) =  40000
     Max angular momentum in pseudopotentials (lmaxx) =  4

     gamma-point specific algorithms are used
     Message from routine setup:
     using ibrav=0 with symmetry is DISCOURAGED, use correct ibrav instead

     Subspace diagonalization in iterative solution of the eigenvalue problem:
     a serial algorithm will be used

     Using Slab Decomposition

     bravais-lattice index     =            0
     lattice parameter (alat)  =      13.6057  a.u.
     unit-cell volume          =    2040.4562 (a.u.)^3
     number of atoms/cell      =           10
     number of atomic types    =            2
     number of electrons       =        80.00
     number of Kohn-Sham states=           48
     kinetic-energy cutoff     =      30.0000  Ry
     charge density cutoff     =     240.0000  Ry
     scf convergence threshold =      1.0E-06
     mixing beta               =       0.7000
     number of iterations used =            8  plain     mixing
     Exchange-correlation= SLA  PW   PBE  PBE
                           (   1   4   3   4   0   0   0)

     celldm(1)=  13.605681  celldm(2)=   0.000000  celldm(3)=   0.000000
     celldm(4)=   0.000000  celldm(5)=   0.000000  celldm(6)=   0.000000

     crystal axes: (cart. coord. in units of alat)
               a(1) = (   1.000000   0.000000   0.000000 )
               a(2) = (  -0.495893   0.868384   0.000000 )
               a(3) = (   0.164912   0.284080   0.932942 )

     reciprocal axes: (cart. coord. in units 2 pi/alat)
               b(1) = (  1.000000  0.571052 -0.350650 )
               b(2) = (  0.000000  1.151564 -0.350650 )
               b(3) = (  0.000000  0.000000  1.071878 )

     PseudoPot. # 1 for Sc read from file:
     /home/pragov/projects/rrg-bengioy-ad/pragov/crystal_structure_design/SSSP/Sc_ONCV_PBE-1.0.oncvpsp.upf
     MD5 check sum: e21af8023abb52e52cb7cd3133e4a229
     Pseudo is Norm-conserving, Zval = 11.0
     Generated using ONCVPSP code by D. R. Hamann
     Using radial grid of 1662 points,  6 beta functions with:
                l(1) =   0
                l(2) =   0
                l(3) =   1
                l(4) =   1
                l(5) =   2
                l(6) =   2

     PseudoPot. # 2 for Te read from file:
     /home/pragov/projects/rrg-bengioy-ad/pragov/crystal_structure_design/SSSP/Te_pbe_v1.uspp.F.UPF
     MD5 check sum: c319670d6894cc26e93307826a071b75
     Pseudo is Ultrasoft + core correction, Zval =  6.0
     Generated by new atomic code, or converted to UPF format
     Using radial grid of  891 points,  5 beta functions with:
                l(1) =   0
                l(2) =   0
                l(3) =   1
                l(4) =   1
                l(5) =   2
     Q(r) pseudized with  6 coefficients,  rinner =    1.800   1.800   1.800
                                                       1.800   1.800

     atomic species   valence    mass     pseudopotential
        Sc            11.00    44.95591     Sc( 1.00)
        Te             6.00   127.60000     Te( 1.00)

      2 Sym. Ops., with inversion, found

                                    s                        frac. trans.

      isym =  1     identity

 cryst.   s( 1) = (     1          0          0      )
                  (     0          1          0      )
                  (     0          0          1      )

 cart.    s( 1) = (  1.0000000  0.0000000 -0.0000000 )
                  (  0.0000000  1.0000000  0.0000000 )
                  (  0.0000000  0.0000000  1.0000000 )

      isym =  2     inversion

 cryst.   s( 2) = (    -1          0          0      )
                  (     0         -1          0      )
                  (     0          0         -1      )

 cart.    s( 2) = ( -1.0000000 -0.0000000  0.0000000 )
                  (  0.0000000 -1.0000000 -0.0000000 )
                  (  0.0000000  0.0000000 -1.0000000 )

   Cartesian axes

     site n.     atom                  positions (alat units)
         1           Sc  tau(   1) = (   0.9965675   0.2868527   0.6997066  )
         2           Sc  tau(   2) = (  -0.3275482   0.8656112   0.2332355  )
         3           Sc  tau(   3) = (   0.6683393   0.2874864   0.2332355  )
         4           Sc  tau(   4) = (   0.0006800   0.8649775   0.6997066  )
         5           Te  tau(   5) = (   0.1645347   0.5721752   0.9326660  )
         6           Te  tau(   6) = (   0.5044846   0.5802887   0.0002762  )
         7           Te  tau(   7) = (   0.3361991   0.8678872   0.4667472  )
         8           Te  tau(   8) = (   0.5000000   0.0000000   0.0000000  )
         9           Te  tau(   9) = (   0.3328202   0.2845767   0.4661949  )
        10           Te  tau(  10) = (  -0.1654904   0.5762319   0.4664711  )

   Crystallographic axes

     site n.     atom                  positions (cryst. coord.)
         1           Sc  tau(   1) = (  0.9150230  0.0849770  0.7500000  )
         2           Sc  tau(   2) = (  0.0849770  0.9150230  0.2500000  )
         3           Sc  tau(   3) = (  0.7507250  0.2492750  0.2500000  )
         4           Sc  tau(   4) = (  0.2492750  0.7507250  0.7500000  )
         5           Te  tau(   5) = (  0.1642370  0.3318570  0.9997040  )
         6           Te  tau(   6) = (  0.8357630  0.6681430  0.0002960  )
         7           Te  tau(   7) = (  0.6681430  0.8357630  0.5002960  )
         8           Te  tau(   8) = (  0.5000000  0.0000000  0.0000000  )
         9           Te  tau(   9) = (  0.3318570  0.1642370  0.4997040  )
        10           Te  tau(  10) = ( -0.0000000  0.5000000  0.5000000  )

     number of k points=     1  Methfessel-Paxton smearing, width (Ry)=  0.0010
                       cart. coord. in units 2pi/alat
        k(    1) = (   0.0000000   0.0000000   0.0000000), wk =   2.0000000

                       cryst. coord.
        k(    1) = (   0.0000000   0.0000000   0.0000000), wk =   2.0000000

     Initial potential from superposition of free atoms

     starting charge      79.9881, renormalised to      80.0000
     Starting wfcs are   64 randomized atomic wfcs

     Self-consistent Calculation

     iteration #  1     ecut=    30.00 Ry     beta= 0.70
     Davidson diagonalization with overlap

     ethr =  1.00E-02,  avg # of iterations =  2.0

     Threshold (ethr) on eigenvalues was too large:
     Diagonalizing with lowered threshold

     Davidson diagonalization with overlap

[...]

     total energy              =    -526.91272704 Ry
     estimated scf accuracy    <       0.38612968 Ry

[...]

     c_bands:  2 eigenvalues not converged
     ethr =  2.30E-06,  avg # of iterations = 20.0

[...]

     c_bands:  1 eigenvalues not converged
     ethr =  4.31E-07,  avg # of iterations = 20.0

[...]

     total energy              =    -527.06378545 Ry
     estimated scf accuracy    <       0.00000347 Ry

     iteration # 20     ecut=    30.00 Ry     beta= 0.70
     Davidson diagonalization with overlap

     ethr =  3.11E-09,  avg # of iterations =  4.0

     End of self-consistent calculation

          k = 0.0000 0.0000 0.0000 (  2836 PWs)   bands (ev):

   -44.0026 -44.0016 -43.9648 -43.9631 -22.6515 -22.6440 -22.5917 -22.5882
   -22.5444 -22.5411 -22.5207 -22.5055 -22.4705 -22.4659 -22.4492 -22.4452
    -4.7048  -3.5102  -3.4310  -3.4179  -3.4039  -3.3702   2.1828   2.8307
     2.8529   3.4961   3.5505   3.7471   3.7696   3.9696   4.0051   4.4002
     4.4796   4.9564   5.0009   5.3283   6.0924   6.9516   6.9898   7.0970
     7.5225   7.5883   7.6023   7.9859   8.0401   8.0651   8.1043   8.3054

     occupation numbers
     1.0000   1.0000   1.0000   1.0000   1.0000   1.0000   1.0000   1.0000
     1.0000   1.0000   1.0000   1.0000   1.0000   1.0000   1.0000   1.0000
     1.0000   1.0000   1.0000   1.0000   1.0000   1.0000   1.0000   1.0000
     1.0000   1.0000   1.0000   1.0000   1.0000   1.0000   1.0000   1.0000
     1.0000   1.0000   1.0000   1.0000   1.0000   1.0000   1.0000   1.0000
    -0.0000  -0.0000  -0.0000  -0.0000  -0.0000  -0.0000  -0.0000  -0.0000

     the Fermi energy is     7.2091 ev

!    total energy              =    -527.06378505 Ry
     estimated scf accuracy    <       0.00000083 Ry
     smearing contrib. (-TS)   =       0.00000000 Ry
     internal energy E=F+TS    =    -527.06378505 Ry

     The total energy is F=E-TS. E is the sum of the following terms:
     one-electron contribution =    -211.00028765 Ry
     hartree contribution      =     124.35045131 Ry
     xc contribution           =    -134.55742454 Ry
     ewald contribution        =    -305.85652417 Ry

     convergence has been achieved in  20 iterations

     Forces acting on atoms (cartesian axes, Ry/au):

     atom    1 type  1   force =    -0.00591950    0.00344988    0.00000274
     atom    2 type  1   force =     0.00591950   -0.00344988   -0.00000274
     atom    3 type  1   force =     0.00071622   -0.00040041    0.00000477
     atom    4 type  1   force =    -0.00071622    0.00040041   -0.00000477
     atom    5 type  2   force =    -0.00973292   -0.00377112   -0.00172158
     atom    6 type  2   force =     0.00973292    0.00377112    0.00172158
     atom    7 type  2   force =    -0.00155182    0.01031692    0.00172090
     atom    8 type  2   force =     0.00000000    0.00000000    0.00000000
     atom    9 type  2   force =     0.00155182   -0.01031692   -0.00172090
     atom   10 type  2   force =     0.00000000    0.00000000    0.00000000
     The non-local contrib.  to forces
     atom    1 type  1   force =    -0.00496706    0.00288588   -0.00000135
     atom    2 type  1   force =     0.00496706   -0.00288588    0.00000135
     atom    3 type  1   force =    -0.01766440    0.01025946    0.00000938
     atom    4 type  1   force =     0.01766440   -0.01025946   -0.00000938
     atom    5 type  2   force =    -0.01683320   -0.00717636   -0.00702367
     atom    6 type  2   force =     0.01683320    0.00717636    0.00702367
     atom    7 type  2   force =    -0.00212022    0.01815405    0.00703321
     atom    8 type  2   force =     0.00000000    0.00000000    0.00000000
     atom    9 type  2   force =     0.00212022   -0.01815405   -0.00703321
     atom   10 type  2   force =     0.00000000    0.00000000    0.00000000
     The ionic contribution  to forces
     atom    1 type  1   force =     0.12243784   -0.07107665   -0.00000000
     atom    2 type  1   force =    -0.12243784    0.07107665    0.00000000
     atom    3 type  1   force =    -1.46244102    0.84896479    0.00000000
     atom    4 type  1   force =     1.46244102   -0.84896479   -0.00000000
     atom    5 type  2   force =     3.55009937    2.02709704   -0.29221272
     atom    6 type  2   force =    -3.55009937   -2.02709704    0.29221272
     atom    7 type  2   force =     0.00016975   -4.08807142    0.29221272
     atom    8 type  2   force =     0.00000000    0.00000000   -0.00000000
     atom    9 type  2   force =    -0.00016975    4.08807142   -0.29221272
     atom   10 type  2   force =    -0.00000000    0.00000000    0.00000000
     The local contribution  to forces
     atom    1 type  1   force =    -0.12301999    0.07140855    0.00008306
     atom    2 type  1   force =     0.12325807   -0.07157215   -0.00007372
     atom    3 type  1   force =     1.48091255   -0.85972250   -0.00006572
     atom    4 type  1   force =    -1.48083448    0.85967772    0.00001075
     atom    5 type  2   force =    -3.55074258   -2.02830644    0.29803210
     atom    6 type  2   force =     3.55084917    2.02843230   -0.29824371
     atom    7 type  2   force =     0.00055175    4.08924024   -0.29805728
     atom    8 type  2   force =    -0.00012876   -0.00013065   -0.00004532
     atom    9 type  2   force =    -0.00060300   -4.08939649    0.29823909
     atom   10 type  2   force =     0.00004561    0.00017992    0.00006495
     The core correction contribution to forces
     atom    1 type  1   force =     0.00000000    0.00000000    0.00000000
     atom    2 type  1   force =     0.00000000    0.00000000    0.00000000
     atom    3 type  1   force =     0.00000000    0.00000000    0.00000000
     atom    4 type  1   force =     0.00000000    0.00000000    0.00000000
     atom    5 type  2   force =     0.00755398    0.00456410   -0.00062043
     atom    6 type  2   force =    -0.00755420   -0.00456479    0.00062269
     atom    7 type  2   force =    -0.00021778   -0.00882563    0.00062339
     atom    8 type  2   force =    -0.00000090    0.00000018    0.00000008
     atom    9 type  2   force =     0.00021804    0.00882520   -0.00062165
     atom   10 type  2   force =    -0.00000079    0.00000151   -0.00000201
     The Hubbard contrib.    to forces
     atom    1 type  1   force =     0.00000000    0.00000000    0.00000000
     atom    2 type  1   force =     0.00000000    0.00000000    0.00000000
     atom    3 type  1   force =     0.00000000    0.00000000    0.00000000
     atom    4 type  1   force =     0.00000000    0.00000000    0.00000000
     atom    5 type  2   force =     0.00000000    0.00000000    0.00000000
     atom    6 type  2   force =     0.00000000    0.00000000    0.00000000
     atom    7 type  2   force =     0.00000000    0.00000000    0.00000000
     atom    8 type  2   force =     0.00000000    0.00000000    0.00000000
     atom    9 type  2   force =     0.00000000    0.00000000    0.00000000
     atom   10 type  2   force =     0.00000000    0.00000000    0.00000000
     The SCF correction term to forces
     atom    1 type  1   force =    -0.00038421    0.00023432   -0.00008002
     atom    2 type  1   force =     0.00011827   -0.00006628    0.00006858
     atom    3 type  1   force =    -0.00007757    0.00010434    0.00006287
     atom    4 type  1   force =     0.00002617   -0.00004655   -0.00000440
     atom    5 type  2   force =     0.00018392    0.00005219    0.00008901
     atom    6 type  2   force =    -0.00030146   -0.00017407    0.00009207
     atom    7 type  2   force =     0.00006165   -0.00017445   -0.00009327
     atom    8 type  2   force =     0.00013494    0.00012349    0.00003857
     atom    9 type  2   force =    -0.00001670    0.00034289   -0.00009454
     atom   10 type  2   force =    -0.00003555   -0.00019234   -0.00004084

     Total force =     0.023295     Total SCF correction =     0.000821

     Computing stress (Cartesian axis) and pressure

          total   stress  (Ry/bohr**3)                   (kbar)     P=       17.36
   0.00005334   0.00001212  -0.00008062            7.85        1.78      -11.86
   0.00001212   0.00006722  -0.00013895            1.78        9.89      -20.44
  -0.00008062  -0.00013895   0.00023346          -11.86      -20.44       34.34

     kinetic stress (kbar)   7503.62     -0.56      4.76
                               -0.56   7502.98      8.21
                                4.76      8.21   7451.44

     local   stress (kbar)   4832.33    342.47   -497.29
                              342.47   5223.51   -856.68
                             -497.29   -856.68   2981.97

     nonloc. stress (kbar)  -5487.13     -1.12     -3.05
                               -1.12  -5488.42     -5.25
                               -3.05     -5.25  -5477.16

     hartree stress (kbar)   2762.65   -154.52    216.34
                             -154.52   2586.13    372.71
                              216.34    372.71   3616.17

     exc-cor stress (kbar)   2782.77      0.23      0.41
                                0.23   2783.04      0.70
                                0.41      0.70   2782.74

     corecor stress (kbar)  -4750.04     -0.50      0.36
                               -0.50  -4750.60      0.61
                                0.36      0.61  -4753.45

     ewald   stress (kbar)  -7636.35   -184.22    266.61
                             -184.22  -7846.75    459.26
                              266.61    459.26  -6567.39

     hubbard stress (kbar)      0.00      0.00      0.00
                                0.00      0.00      0.00
                                0.00      0.00      0.00

     DFT-D   stress (kbar)      0.00      0.00      0.00
                                0.00      0.00      0.00
                                0.00      0.00      0.00

     XDM     stress (kbar)      0.00      0.00      0.00
                                0.00      0.00      0.00
                                0.00      0.00      0.00

     dft-nl  stress (kbar)      0.00      0.00      0.00
                                0.00      0.00      0.00
                                0.00      0.00      0.00

     TS-vdW  stress (kbar)      0.00      0.00      0.00
                                0.00      0.00      0.00
                                0.00      0.00      0.00

[...]

                                0.00      0.00      0.00

     Writing all to output data dir new_calculations/myprefix.save/

     General routines

     Parallel routines

   This run was terminated on:  14:14:26  21May2023

   JOB DONE.