     Program PWSCF v.7.0 starts on 21May2023 at  8:19:51

     Reading input from espresso_17978.pwi
Warning: card &CELL ignored
Warning: card / ignored

     Current dimensions of program PWSCF are:
     Max number of different atomic species (ntypx) = 10
     Max number of k-points (npk) =  40000
     Max angular momentum in pseudopotentials (lmaxx) =  4

     gamma-point specific algorithms are used
     Message from routine setup:
     using ibrav=0 with symmetry is DISCOURAGED, use correct ibrav instead

     Subspace diagonalization in iterative solution of the eigenvalue problem:
     a serial algorithm will be used

     Using Slab Decomposition

     bravais-lattice index     =            0
     lattice parameter (alat)  =       9.0078  a.u.
     unit-cell volume          =     907.3618 (a.u.)^3
     number of atoms/cell      =           10
     number of atomic types    =            3
     number of electrons       =        84.00
     number of Kohn-Sham states=           50
     kinetic-energy cutoff     =      30.0000  Ry
     charge density cutoff     =     240.0000  Ry
     scf convergence threshold =      1.0E-06
     mixing beta               =       0.7000
     number of iterations used =            8  plain     mixing
     Exchange-correlation= PBE
                           (   1   4   3   4   0   0   0)

     celldm(1)=   9.007793  celldm(2)=   0.000000  celldm(3)=   0.000000
     celldm(4)=   0.000000  celldm(5)=   0.000000  celldm(6)=   0.000000

     crystal axes: (cart. coord. in units of alat)
               a(1) = (   1.000000   0.000000   0.000000 )
               a(2) = (   0.000000   0.804953   0.000000 )
               a(3) = (   0.000000   0.192511   1.542251 )

     reciprocal axes: (cart. coord. in units 2 pi/alat)
               b(1) = (  1.000000  0.000000  0.000000 )
               b(2) = (  0.000000  1.242309 -0.155071 )
               b(3) = (  0.000000  0.000000  0.648403 )

     PseudoPot. # 1 for La read from file:
     /home/pragov/projects/rrg-bengioy-ad/pragov/crystal_structure_design/SSSP/La.GGA-PBE-paw-v1.0.UPF
     MD5 check sum: 436541e95c1ad8901025bd0b0ed42ae2
     Pseudo is Projector augmented-wave + core cor, Zval = 11.0
     Generated using ATOMPAW code
     Shape of augmentation charge: BESSEL
     Using radial grid of 1101 points,  8 beta functions with:
                l(1) =   0
                l(2) =   0
                l(3) =   1
                l(4) =   1
                l(5) =   2
                l(6) =   2
                l(7) =   3
                l(8) =   3
     Q(r) pseudized with 0 coefficients

     PseudoPot. # 2 for Os read from file:
     /home/pragov/projects/rrg-bengioy-ad/pragov/crystal_structure_design/SSSP/Os_pbe_v1.2.uspp.F.UPF
     MD5 check sum: a3fb40a04f0c37c25c34bbc47164c9a8
     Pseudo is Ultrasoft + core correction, Zval = 16.0
     Generated by new atomic code, or converted to UPF format
     Using radial grid of  983 points,  8 beta functions with:
                l(1) =   0
                l(2) =   0
                l(3) =   1
                l(4) =   1
                l(5) =   2
                l(6) =   2
                l(7) =   3
                l(8) =   3
     Q(r) pseudized with  8 coefficients,  rinner =    1.150   1.150   1.150
                                                       1.150   1.150   1.150
                                                       1.150

     PseudoPot. # 3 for N  read from file:
     /home/pragov/projects/rrg-bengioy-ad/pragov/crystal_structure_design/SSSP/N.pbe-n-radius_5.UPF
     MD5 check sum: 16739722b17309cd8fe442a2ace49922
     Pseudo is Ultrasoft + core correction, Zval =  5.0
     Generated using "atomic" code by A. Dal Corso  v.5.1
     Using radial grid of 1085 points,  4 beta functions with:
                l(1) =   0
                l(2) =   0
                l(3) =   1
                l(4) =   1
     Q(r) pseudized with 0 coefficients

     atomic species   valence    mass     pseudopotential
        La            11.00   138.90547     La( 1.00)
        Os            16.00   190.23000     Os( 1.00)
        N              5.00    14.00700     N ( 1.00)

      4 Sym. Ops., with inversion, found ( 2 have fractional translation)

                                    s                        frac. trans.

      isym =  1     identity

 cryst.   s( 1) = (     1          0          0      )
                  (     0          1          0      )
                  (     0          0          1      )

 cart.    s( 1) = (  1.0000000  0.0000000  0.0000000 )
                  (  0.0000000  1.0000000  0.0000000 )
                  (  0.0000000  0.0000000  1.0000000 )

      isym =  2     180 deg rotation - cart. axis [1,0,0]

 cryst.   s( 2) = (     1          0          0      )    f =( -0.5000000 )
                  (     0         -1          0      )       ( -0.0000000 )
                  (     0          0         -1      )       ( -0.0000000 )

 cart.    s( 2) = (  1.0000000  0.0000000  0.0000000 )    f =( -0.5000000 )
                  (  0.0000000 -1.0000000 -0.0000000 )       ( -0.0000000 )
                  (  0.0000000  0.0000000 -1.0000000 )       ( -0.0000000 )

      isym =  3     inversion

 cryst.   s( 3) = (    -1          0          0      )
                  (     0         -1          0      )
                  (     0          0         -1      )

 cart.    s( 3) = ( -1.0000000  0.0000000  0.0000000 )
                  (  0.0000000 -1.0000000 -0.0000000 )
                  (  0.0000000  0.0000000 -1.0000000 )

      isym =  4     inv. 180 deg rotation - cart. axis [1,0,0]

 cryst.   s( 4) = (    -1          0          0      )    f =(  0.5000000 )
                  (     0          1          0      )       (  0.0000000 )
                  (     0          0          1      )       (  0.0000000 )

 cart.    s( 4) = ( -1.0000000  0.0000000  0.0000000 )    f =(  0.5000000 )
                  (  0.0000000  1.0000000  0.0000000 )       (  0.0000000 )
                  (  0.0000000  0.0000000  1.0000000 )       (  0.0000000 )

   Cartesian axes

     site n.     atom                  positions (alat units)
         1           La  tau(   1) = (   0.2500000   0.7954236   0.4429452  )
         2           La  tau(   2) = (   0.7500000   0.2020403   1.0993054  )
         3           Os  tau(   3) = (   0.7500000   0.4074403   0.1450163  )
         4           Os  tau(   4) = (   0.2500000   0.5900236   1.3972343  )
         5           N   tau(   5) = (   0.2500000   0.5551587   0.9740932  )
         6           N   tau(   6) = (   0.7500000   0.4423052   0.5681574  )
         7           N   tau(   7) = (   0.7500000   0.8110874   0.1430977  )
         8           N   tau(   8) = (   0.2500000   0.3422799   0.8247216  )
         9           N   tau(   9) = (   0.7500000   0.6551840   0.7175290  )
        10           N   tau(  10) = (   0.2500000   0.1863764   1.3991528  )

   Crystallographic axes

     site n.     atom                  positions (cryst. coord.)
         1           La  tau(   1) = (  0.2500000  0.9194740  0.2872070  )
         2           La  tau(   2) = (  0.7500000  0.0805260  0.7127930  )
         3           Os  tau(   3) = (  0.7500000  0.4836790  0.0940290  )
         4           Os  tau(   4) = (  0.2500000  0.5163210  0.9059710  )
         5           N   tau(   5) = (  0.2500000  0.5386250  0.6316050  )
         6           N   tau(   6) = (  0.7500000  0.4613750  0.3683950  )
         7           N   tau(   7) = (  0.7500000  0.9854310  0.0927850  )
         8           N   tau(   8) = (  0.2500000  0.2973270  0.5347520  )
         9           N   tau(   9) = (  0.7500000  0.7026730  0.4652480  )
        10           N   tau(  10) = (  0.2500000  0.0145690  0.9072150  )

     number of k points=     1  Methfessel-Paxton smearing, width (Ry)=  0.0010
                       cart. coord. in units 2pi/alat
        k(    1) = (   0.0000000   0.0000000   0.0000000), wk =   2.0000000

                       cryst. coord.
        k(    1) = (   0.0000000   0.0000000   0.0000000), wk =   2.0000000

     Check: negative core charge=   -0.000002

     Initial potential from superposition of free atoms

     starting charge      82.9828, renormalised to      84.0000

     negative rho (up, down):  2.468E-01 0.000E+00
     Starting wfcs are  114 randomized atomic wfcs
     Checking if some PAW data can be deallocated...

     Self-consistent Calculation

     iteration #  1     ecut=    30.00 Ry     beta= 0.70
     Davidson diagonalization with overlap

     ethr =  1.00E-02,  avg # of iterations =  2.0

     negative rho (up, down):  2.361E-01 0.000E+00

     total energy              =   -1430.60714662 Ry
     estimated scf accuracy    <       5.08042687 Ry

[...]

     c_bands:  1 eigenvalues not converged
     ethr =  8.98E-07,  avg # of iterations = 20.0

[...]

     total energy              =   -1434.22354862 Ry
     estimated scf accuracy    <       0.00000473 Ry

     iteration # 25     ecut=    30.00 Ry     beta= 0.70
     Davidson diagonalization with overlap

     ethr =  4.16E-09,  avg # of iterations =  1.0

[...]

     End of self-consistent calculation

          k = 0.0000 0.0000 0.0000 (  1260 PWs)   bands (ev):

   -71.9544 -71.9290 -31.5621 -31.5154 -31.3817 -31.2386 -31.2220 -31.0524
   -17.7109 -17.6513  -8.0192  -7.4214  -2.2794  -1.7317  -1.4937  -1.3842
    -1.2910  -1.2495   0.0735   0.0878   2.8925   3.5578   6.4016   6.8225
     6.9005   7.3089   8.2799   8.6425   9.9620  10.3590  10.9448  11.6612
    11.6692  11.8832  12.0098  12.0945  12.2476  12.7439  13.0869  13.1694
    13.3986  13.6956  13.7050  13.9972  15.2020  15.2961  16.2180  16.7433
    16.8643  17.0682

     occupation numbers
     1.0000   1.0000   1.0000   1.0000   1.0000   1.0000   1.0000   1.0000
     1.0000   1.0000   1.0000   1.0000   1.0000   1.0000   1.0000   1.0000
     1.0000   1.0000   1.0000   1.0000   1.0000   1.0000   1.0000   1.0000
     1.0000   1.0000   1.0000   1.0000   1.0000   1.0000   1.0000   1.0000
     1.0000   1.0000   1.0000   1.0000   1.0000   1.0000   1.0000   1.0000
     1.0000   0.7752   0.2248  -0.0000  -0.0000  -0.0000  -0.0000  -0.0000
    -0.0000  -0.0000

     the Fermi energy is    13.7003 ev

!    total energy              =   -1434.22354851 Ry
     estimated scf accuracy    <       0.00000027 Ry
     smearing contrib. (-TS)   =      -0.00037946 Ry
     internal energy E=F+TS    =   -1434.22316905 Ry

     The total energy is F=E-TS. E is the sum of the following terms:
     one-electron contribution =    -161.23729659 Ry
     hartree contribution      =     130.40491954 Ry
     xc contribution           =    -124.82405663 Ry
     ewald contribution        =    -482.38079509 Ry
     one-center paw contrib.   =    -796.18594028 Ry
      -> PAW hartree energy AE =      70.49484151 Ry
      -> PAW hartree energy PS =     -70.58251329 Ry
      -> PAW xc energy AE      =    -810.78718178 Ry
      -> PAW xc energy PS      =      14.68891329 Ry
      -> total E_H with PAW    =     130.31724776 Ry
      -> total E_XC with PAW   =    -920.92232513 Ry

     convergence has been achieved in  25 iterations

     negative rho (up, down):  2.470E-01 0.000E+00

     Forces acting on atoms (cartesian axes, Ry/au):

     atom    1 type  1   force =     0.00000000    0.02083542   -0.04083934
     atom    2 type  1   force =     0.00000000   -0.02083542    0.04083934
     atom    3 type  2   force =     0.00000000   -0.13800949    0.07509981
     atom    4 type  2   force =     0.00000000    0.13800949   -0.07509981
     atom    5 type  3   force =     0.00000000   -0.05417423    0.04137367
     atom    6 type  3   force =     0.00000000    0.05417423   -0.04137367
     atom    7 type  3   force =    -0.00000000    0.06401311   -0.07680219
     atom    8 type  3   force =     0.00000000    0.04383424   -0.01209381
     atom    9 type  3   force =     0.00000000   -0.04383424    0.01209381
     atom   10 type  3   force =    -0.00000000   -0.06401311    0.07680219
     The non-local contrib.  to forces
     atom    1 type  1   force =     0.00000000   -0.03928924   -0.01479387
     atom    2 type  1   force =     0.00000000    0.03928924    0.01479387
     atom    3 type  2   force =     0.00000000   -0.10980831    0.03370233
     atom    4 type  2   force =     0.00000000    0.10980831   -0.03370233
     atom    5 type  3   force =     0.00000000   -1.50908323   -0.07726400
     atom    6 type  3   force =     0.00000000    1.50908323    0.07726400
     atom    7 type  3   force =    -0.00000000    0.07175499    0.02809596
     atom    8 type  3   force =    -0.00000000    1.45253765    0.65921247
     atom    9 type  3   force =     0.00000000   -1.45253765   -0.65921247
     atom   10 type  3   force =    -0.00000000   -0.07175499   -0.02809596
     The ionic contribution  to forces
     atom    1 type  1   force =    -0.00000000    0.90786042    8.58249581
     atom    2 type  1   force =    -0.00000000   -0.90786042   -8.58249581
     atom    3 type  2   force =     0.00000000   -0.80701495    5.06983096
     atom    4 type  2   force =     0.00000000    0.80701495   -5.06983096
     atom    5 type  3   force =    -0.00000000    5.63652188   -4.07356294
     atom    6 type  3   force =    -0.00000000   -5.63652188    4.07356294
     atom    7 type  3   force =     0.00000000    0.12372184    1.91349820
     atom    8 type  3   force =    -0.00000000   -5.92380282   -5.32678310
     atom    9 type  3   force =    -0.00000000    5.92380282    5.32678310
     atom   10 type  3   force =    -0.00000000   -0.12372184   -1.91349820
     The local contribution  to forces
     atom    1 type  1   force =     0.00008727   -0.84764241   -8.60839211
     atom    2 type  1   force =    -0.00002749    0.84772719    8.60834071
     atom    3 type  2   force =    -0.00014816    0.78396225   -5.02748539
     atom    4 type  2   force =    -0.00000426   -0.78423262    5.02770967
     atom    5 type  3   force =     0.00001277   -4.19265965    4.19290832
     atom    6 type  3   force =    -0.00004304    4.19261016   -4.19293858
     atom    7 type  3   force =    -0.00002935   -0.13088587   -2.01793051
     atom    8 type  3   force =     0.00001293    4.52550697    4.65952229
     atom    9 type  3   force =    -0.00005057   -4.52540209   -4.65958595
     atom   10 type  3   force =     0.00001368    0.13100673    2.01802982
     The core correction contribution to forces
     atom    1 type  1   force =     0.00000004   -0.00000658    0.00016981
     atom    2 type  1   force =    -0.00000001    0.00000663   -0.00016982
     atom    3 type  2   force =     0.00000248   -0.00526855   -0.00047363
     atom    4 type  2   force =     0.00000328    0.00527045    0.00047624
     atom    5 type  3   force =    -0.00000010    0.01098542   -0.00099686
     atom    6 type  3   force =    -0.00000032   -0.01098566    0.00099763
     atom    7 type  3   force =    -0.00000014   -0.00052656   -0.00033700
     atom    8 type  3   force =    -0.00000003   -0.01044570   -0.00417619
     atom    9 type  3   force =    -0.00000045    0.01044628    0.00417569
     atom   10 type  3   force =    -0.00000008    0.00052641    0.00033772
     The Hubbard contrib.    to forces
     atom    1 type  1   force =     0.00000000    0.00000000    0.00000000
     atom    2 type  1   force =     0.00000000    0.00000000    0.00000000
     atom    3 type  2   force =     0.00000000    0.00000000    0.00000000
     atom    4 type  2   force =     0.00000000    0.00000000    0.00000000
     atom    5 type  3   force =     0.00000000    0.00000000    0.00000000
     atom    6 type  3   force =     0.00000000    0.00000000    0.00000000
     atom    7 type  3   force =     0.00000000    0.00000000    0.00000000
     atom    8 type  3   force =     0.00000000    0.00000000    0.00000000
     atom    9 type  3   force =     0.00000000    0.00000000    0.00000000
     atom   10 type  3   force =     0.00000000    0.00000000    0.00000000
     The SCF correction term to forces
     atom    1 type  1   force =    -0.00003356   -0.00006564   -0.00031308
     atom    2 type  1   force =     0.00000870    0.00002307    0.00037628
     atom    3 type  2   force =     0.00008533    0.00012433   -0.00052510
     atom    4 type  2   force =    -0.00007569    0.00015267    0.00019692
     atom    5 type  3   force =    -0.00001332    0.00003313    0.00031596
     atom    6 type  3   force =     0.00001412   -0.00003984   -0.00023287
     atom    7 type  3   force =     0.00002247   -0.00004464   -0.00010939
     atom    8 type  3   force =    -0.00001270    0.00007151    0.00010999
     atom    9 type  3   force =     0.00001753   -0.00011024   -0.00008731
     atom   10 type  3   force =    -0.00002063   -0.00006275    0.00004829

     Total force =     0.294955     Total SCF correction =     0.000910

     Computing stress (Cartesian axis) and pressure

     negative rho (up, down):  2.470E-01 0.000E+00
          total   stress  (Ry/bohr**3)                   (kbar)     P=      -22.15
  -0.00177265   0.00000000   0.00000000         -260.77        0.00        0.00
   0.00000000   0.00362838   0.00033226            0.00      533.75       48.88
   0.00000000   0.00033226  -0.00230753            0.00       48.88     -339.45

     kinetic stress (kbar)  24752.99      0.00      0.00
                                0.00  25292.80   -383.48
                                0.00   -383.48  24671.97

     local   stress (kbar)   9868.23     -0.02      0.01
                               -0.02  -7173.21  -3951.48
                                0.01  -3951.48  14202.89

     nonloc. stress (kbar)  -6154.27      0.00      0.00
                                0.00  -5889.80     23.33
                                0.00     23.33  -6026.51

     hartree stress (kbar)   6451.64      0.00     -0.00
                                0.00  11752.45   1064.17
                               -0.00   1064.17   2937.67

     exc-cor stress (kbar)    918.88      0.00     -0.00
                                0.00    956.79     10.37
                               -0.00     10.37    940.94

     corecor stress (kbar)  -6446.24     -0.00     -0.00
                               -0.00  -6464.94      3.73
                               -0.00      3.73  -6453.26

     ewald   stress (kbar) -29651.99     -0.00      0.00
                               -0.00 -17940.33   3282.25
                                0.00   3282.25 -30613.15

     hubbard stress (kbar)      0.00      0.00      0.00
                                0.00      0.00      0.00
                                0.00      0.00      0.00

     DFT-D   stress (kbar)      0.00      0.00      0.00
                                0.00      0.00      0.00
                                0.00      0.00      0.00

     XDM     stress (kbar)      0.00      0.00      0.00
                                0.00      0.00      0.00
                                0.00      0.00      0.00

     dft-nl  stress (kbar)      0.00      0.00      0.00
                                0.00      0.00      0.00
                                0.00      0.00      0.00

     TS-vdW  stress (kbar)      0.00      0.00      0.00
                                0.00      0.00      0.00
                                0.00      0.00      0.00

[...]

                                0.00      0.00      0.00

     Writing all to output data dir new_calculations/myprefix.save/

     General routines

     Parallel routines

     PAW routines

   This run was terminated on:   8:20:31  21May2023

   JOB DONE.