     Program PWSCF v.7.0 starts on 21May2023 at  6:13:59

     Reading input from espresso_10084.pwi
Warning: card &CELL ignored
Warning: card / ignored

     Current dimensions of program PWSCF are:
     Max number of different atomic species (ntypx) = 10
     Max number of k-points (npk) =  40000
     Max angular momentum in pseudopotentials (lmaxx) =  4
     file O.pbe-n-kjpaw_psl.0.1.UPF: wavefunction(s)  2P renormalized

     gamma-point specific algorithms are used
     Message from routine setup:
     using ibrav=0 with symmetry is DISCOURAGED, use correct ibrav instead

     Subspace diagonalization in iterative solution of the eigenvalue problem:
     a serial algorithm will be used

     Using Slab Decomposition

     bravais-lattice index     =            0
     lattice parameter (alat)  =      12.2667  a.u.
     unit-cell volume          =    1420.8956 (a.u.)^3
     number of atoms/cell      =           20
     number of atomic types    =            3
     number of electrons       =       187.00
     number of Kohn-Sham states=          113
     kinetic-energy cutoff     =      30.0000  Ry
     charge density cutoff     =     240.0000  Ry
     scf convergence threshold =      1.0E-06
     mixing beta               =       0.7000
     number of iterations used =            8  plain     mixing
     Exchange-correlation= SLA  PW   PBX  PBC
                           (   1   4   3   4   0   0   0)

     celldm(1)=  12.266708  celldm(2)=   0.000000  celldm(3)=   0.000000
     celldm(4)=   0.000000  celldm(5)=   0.000000  celldm(6)=   0.000000

     crystal axes: (cart. coord. in units of alat)
               a(1) = (   1.000000   0.000000   0.000000 )
               a(2) = (  -0.333333   0.942809   0.000000 )
               a(3) = (  -0.333333  -0.471405   0.816497 )

     reciprocal axes: (cart. coord. in units 2 pi/alat)
               b(1) = (  1.000000  0.353553  0.612372 )
               b(2) = (  0.000000  1.060660  0.612372 )
               b(3) = (  0.000000  0.000000  1.224745 )

     PseudoPot. # 1 for Ca read from file:
     /home/pragov/projects/rrg-bengioy-ad/pragov/crystal_structure_design/SSSP/Ca_pbe_v1.uspp.F.UPF
     MD5 check sum: 403a4c14b9e4d4dfdc3024c9a3812218
     Pseudo is Ultrasoft + core correction, Zval = 10.0
     Generated by new atomic code, or converted to UPF format
     Using radial grid of  845 points,  6 beta functions with:
                l(1) =   0
                l(2) =   0
                l(3) =   1
                l(4) =   1
                l(5) =   2
                l(6) =   2
     Q(r) pseudized with  8 coefficients,  rinner =    1.500   1.500   1.500
                                                       1.500   1.500

     PseudoPot. # 2 for Mn read from file:
     /home/pragov/projects/rrg-bengioy-ad/pragov/crystal_structure_design/SSSP/mn_pbe_v1.5.uspp.F.UPF
     MD5 check sum: 82ef2b46521d7a7d9e736dc3972e4928
     Pseudo is Ultrasoft + core correction, Zval = 15.0
     Generated by new atomic code, or converted to UPF format
     Using radial grid of  859 points,  6 beta functions with:
                l(1) =   0
                l(2) =   0
                l(3) =   1
                l(4) =   1
                l(5) =   2
                l(6) =   2
     Q(r) pseudized with  8 coefficients,  rinner =    0.950   0.950   0.950
                                                       0.950   0.950

     PseudoPot. # 3 for O  read from file:
     /home/pragov/projects/rrg-bengioy-ad/pragov/crystal_structure_design/SSSP/O.pbe-n-kjpaw_psl.0.1.UPF
     MD5 check sum: 0234752ac141de4415c5fc33072bef88
     Pseudo is Projector augmented-wave + core cor, Zval =  6.0
     Generated using "atomic" code by A. Dal Corso  v.5.0.99 svn rev. 10869
     Shape of augmentation charge: BESSEL
     Using radial grid of 1095 points,  4 beta functions with:
                l(1) =   0
                l(2) =   0
                l(3) =   1
                l(4) =   1
     Q(r) pseudized with 0 coefficients

     atomic species   valence    mass     pseudopotential
        Ca            10.00    40.07800     Ca( 1.00)
        Mn            15.00    54.93804     Mn( 1.00)
        O              6.00    15.99900     O ( 1.00)

      2 Sym. Ops., with inversion, found

                                    s                        frac. trans.

      isym =  1     identity

 cryst.   s( 1) = (     1          0          0      )
                  (     0          1          0      )
                  (     0          0          1      )

 cart.    s( 1) = (  1.0000000  0.0000000 -0.0000000 )
                  (  0.0000000  1.0000000 -0.0000000 )
                  (  0.0000000  0.0000000  1.0000000 )

      isym =  2     inversion

 cryst.   s( 2) = (    -1          0          0      )
                  (     0         -1          0      )
                  (     0          0         -1      )

 cart.    s( 2) = ( -1.0000000 -0.0000000  0.0000000 )
                  (  0.0000000 -1.0000000  0.0000000 )
                  (  0.0000000  0.0000000 -1.0000000 )

   Cartesian axes

     site n.     atom                  positions (alat units)
         1           Ca  tau(   1) = (   0.0000000   0.0000000   0.0000000  )
         2           Mn  tau(   2) = (   0.0000000   0.7071068   0.4082483  )
         3           Mn  tau(   3) = (   0.6666667   0.2357023   0.4082483  )
         4           Mn  tau(   4) = (   0.3333333   0.4714045   0.0000000  )
         5           Mn  tau(   5) = (   0.5000000   0.7071068   0.4082483  )
         6           Mn  tau(   6) = (   0.5000000   0.0000000   0.0000000  )
         7           Mn  tau(   7) = (  -0.1666667   0.4714045   0.0000000  )
         8           Mn  tau(   8) = (   0.1666667   0.2357023   0.4082483  )
         9           O   tau(   9) = (  -0.3420197   0.4941281   0.5645421  )
        10           O   tau(  10) = (   0.6753530  -0.0227236   0.2519545  )
        11           O   tau(  11) = (   0.4201260   0.1577499   0.5645421  )
        12           O   tau(  12) = (  -0.0867927   0.3136547   0.2519545  )
        13           O   tau(  13) = (   0.5798750   0.5677827   0.1456556  )
        14           O   tau(  14) = (  -0.2465417  -0.0963782   0.6708409  )
        15           O   tau(  15) = (   0.0086860   0.2645668   0.6708409  )
        16           O   tau(  16) = (   0.3246473   0.2068377   0.1456556  )
        17           O   tau(  17) = (   0.3420190  -0.2418447   0.7101985  )
        18           O   tau(  18) = (  -0.0086857   0.7132492   0.1062981  )
        19           O   tau(  19) = (   0.2465407   0.5327762   0.4188864  )
        20           O   tau(  20) = (   0.0867927  -0.0613717   0.3976102  )

   Crystallographic axes

     site n.     atom                  positions (cryst. coord.)
         1           Ca  tau(   1) = (  0.0000000  0.0000000  0.0000000  )
         2           Mn  tau(   2) = (  0.5000000  1.0000000  0.5000000  )
         3           Mn  tau(   3) = (  1.0000000  0.5000000  0.5000000  )
         4           Mn  tau(   4) = (  0.5000000  0.5000000  0.0000000  )
         5           Mn  tau(   5) = (  1.0000000  1.0000000  0.5000000  )
         6           Mn  tau(   6) = (  0.5000000  0.0000000  0.0000000  )
         7           Mn  tau(   7) = ( -0.0000000  0.5000000  0.0000000  )
         8           Mn  tau(   8) = (  0.5000000  0.5000000  0.5000000  )
         9           O   tau(   9) = (  0.1783910  0.8698120  0.6914200  )
        10           O   tau(  10) = (  0.8216090  0.1301880  0.3085800  )
        11           O   tau(  11) = (  0.8216090  0.5130290  0.6914200  )
        12           O   tau(  12) = (  0.1783910  0.4869710  0.3085800  )
        13           O   tau(  13) = (  0.8698120  0.6914200  0.1783910  )
        14           O   tau(  14) = (  0.1301880  0.3085800  0.8216090  )
        15           O   tau(  15) = (  0.5130290  0.6914200  0.8216090  )
        16           O   tau(  16) = (  0.4869710  0.3085800  0.1783910  )
        17           O   tau(  17) = (  0.6914200  0.1783910  0.8698120  )
        18           O   tau(  18) = (  0.3085800  0.8216090  0.1301880  )
        19           O   tau(  19) = (  0.6914200  0.8216090  0.5130290  )
        20           O   tau(  20) = (  0.3085800  0.1783910  0.4869710  )

     number of k points=     1  Methfessel-Paxton smearing, width (Ry)=  0.0010
                       cart. coord. in units 2pi/alat
        k(    1) = (   0.0000000   0.0000000   0.0000000), wk =   2.0000000

                       cryst. coord.
        k(    1) = (   0.0000000   0.0000000   0.0000000), wk =   2.0000000

     Check: negative core charge=   -0.000033

     Initial potential from superposition of free atoms

     starting charge     183.4939, renormalised to     187.0000
     Starting wfcs are  149 randomized atomic wfcs
     Checking if some PAW data can be deallocated...

     Self-consistent Calculation

     iteration #  1     ecut=    30.00 Ry     beta= 0.70
     Davidson diagonalization with overlap

     ethr =  1.00E-02,  avg # of iterations =  3.0

     total energy              =   -2042.77773664 Ry
     estimated scf accuracy    <      15.93968592 Ry

[...]

     c_bands:  1 eigenvalues not converged
     ethr =  8.81E-06,  avg # of iterations = 20.0

[...]

     total energy              =   -2053.42817737 Ry
     estimated scf accuracy    <       0.00002956 Ry

     iteration # 46     ecut=    30.00 Ry     beta= 0.70
     Davidson diagonalization with overlap

     ethr =  5.86E-10,  avg # of iterations =  1.0

     End of self-consistent calculation

          k = 0.0000 0.0000 0.0000 (  1999 PWs)   bands (ev):

   -73.4617 -73.3173 -72.8712 -72.2530 -71.1811 -69.7356 -69.5380 -38.4998
   -38.3992 -38.3049 -38.2633 -38.1521 -38.0479 -38.0168 -37.9662 -37.9414
   -37.8147 -37.7426 -37.6852 -37.6361 -37.5249 -37.4029 -37.2590 -36.9055
   -36.7418 -36.6749 -36.6139 -36.0902 -28.8873 -11.3429 -11.2764 -10.9262
   -10.6754 -10.6413 -10.2337 -10.1926  -9.8917  -9.6852  -9.6594  -9.5587
    -9.2863  -9.1717  -8.9602  -8.8595   4.0674   4.1593   4.2537   4.3340
     4.4414   4.5557   5.6467   5.6899   5.7043   5.7392   5.8843   6.0108
     6.0200   6.2434   6.5563   6.8206   7.0926   7.2986   7.3115   7.3479
     7.4025   7.4335   7.4830   7.5857   7.6149   7.7168   7.7711   7.8739
     7.8925   8.0572   8.5190   8.5536   8.7351   9.0382   9.1815   9.3162
     9.8957  10.0307  10.0865  10.2050  10.2877  10.3829  10.4114  10.5131
    10.5943  10.6126  10.8708  10.9395  10.9849  10.9873  11.1582  11.2098
    11.2496  11.3513  11.5973  11.6736  11.8138  11.9013  12.0018  12.1139
    12.2965  12.5396  12.6747  12.8576  13.1653  13.9625  14.6057  14.6898
    15.0622

     occupation numbers
     1.0000   1.0000   1.0000   1.0000   1.0000   1.0000   1.0000   1.0000
     1.0000   1.0000   1.0000   1.0000   1.0000   1.0000   1.0000   1.0000
     1.0000   1.0000   1.0000   1.0000   1.0000   1.0000   1.0000   1.0000
     1.0000   1.0000   1.0000   1.0000   1.0000   1.0000   1.0000   1.0000
     1.0000   1.0000   1.0000   1.0000   1.0000   1.0000   1.0000   1.0000
     1.0000   1.0000   1.0000   1.0000   1.0000   1.0000   1.0000   1.0000
     1.0000   1.0000   1.0000   1.0000   1.0000   1.0000   1.0000   1.0000
     1.0000   1.0000   1.0000   1.0000   1.0000   1.0000   1.0000   1.0000
     1.0000   1.0000   1.0000   1.0000   1.0000   1.0000   1.0000   1.0000
     1.0000   1.0000   1.0000   1.0000   1.0000   1.0000   1.0000   1.0000
     1.0000   1.0000   1.0000   1.0000   1.0000   1.0000   1.0000   1.0000
     1.0000   1.0000   1.0000   1.0000   0.8136   0.6864  -0.0000  -0.0000
    -0.0000  -0.0000  -0.0000  -0.0000  -0.0000  -0.0000  -0.0000  -0.0000
    -0.0000  -0.0000  -0.0000  -0.0000  -0.0000  -0.0000  -0.0000  -0.0000
    -0.0000

     the Fermi energy is    10.9904 ev

!    total energy              =   -2053.42817777 Ry
     estimated scf accuracy    <       0.00000005 Ry
     smearing contrib. (-TS)   =      -0.00040131 Ry
     internal energy E=F+TS    =   -2053.42777647 Ry

     The total energy is F=E-TS. E is the sum of the following terms:
     one-electron contribution =    -898.52221697 Ry
     hartree contribution      =     539.31907498 Ry
     xc contribution           =    -284.02013072 Ry
     ewald contribution        =   -1295.79061888 Ry
     one-center paw contrib.   =    -114.41388487 Ry
      -> PAW hartree energy AE =     329.01588515 Ry
      -> PAW hartree energy PS =    -328.26889304 Ry
      -> PAW xc energy AE      =    -201.15935379 Ry
      -> PAW xc energy PS      =      85.99847680 Ry
      -> total E_H with PAW    =     540.06606709 Ry
      -> total E_XC with PAW   =    -399.18100771 Ry

     convergence has been achieved in  46 iterations

     Forces acting on atoms (cartesian axes, Ry/au):

     atom    1 type  1   force =     0.00000000    0.00000000    0.00000000
     atom    2 type  2   force =     0.00000000    0.00000000    0.00000000
     atom    3 type  2   force =     0.00000000    0.00000000    0.00000000
     atom    4 type  2   force =     0.00000000    0.00000000    0.00000000
     atom    5 type  2   force =     0.00000000    0.00000000    0.00000000
     atom    6 type  2   force =     0.00000000    0.00000000    0.00000000
     atom    7 type  2   force =     0.00000000    0.00000000    0.00000000
     atom    8 type  2   force =     0.00000000    0.00000000    0.00000000
     atom    9 type  3   force =    -0.04805759    0.00640955   -0.08341912
     atom   10 type  3   force =     0.04805759   -0.00640955    0.08341912
     atom   11 type  3   force =     0.00363131   -0.10366224   -0.06761904
     atom   12 type  3   force =    -0.00363131    0.10366224    0.06761904
     atom   13 type  3   force =     0.03221799   -0.14878950    0.06754093
     atom   14 type  3   force =    -0.03221799    0.14878950   -0.06754093
     atom   15 type  3   force =    -0.07365708   -0.07445130   -0.04013319
     atom   16 type  3   force =     0.07365708    0.07445130    0.04013319
     atom   17 type  3   force =    -0.04868114    0.11838439   -0.20204561
     atom   18 type  3   force =     0.04868114   -0.11838439    0.20204561
     atom   19 type  3   force =    -0.02814353    0.07519983   -0.21706409
     atom   20 type  3   force =     0.02814353   -0.07519983    0.21706409
     The non-local contrib.  to forces
     atom    1 type  1   force =     0.00000000    0.00000000    0.00000000
     atom    2 type  2   force =     0.00000000    0.00000000    0.00000000
     atom    3 type  2   force =     0.00000000    0.00000000    0.00000000
     atom    4 type  2   force =     0.00000000    0.00000000    0.00000000
     atom    5 type  2   force =     0.00000000    0.00000000    0.00000000
     atom    6 type  2   force =     0.00000000    0.00000000    0.00000000
     atom    7 type  2   force =     0.00000000    0.00000000    0.00000000
     atom    8 type  2   force =     0.00000000    0.00000000    0.00000000
     atom    9 type  3   force =    -0.03274572   -0.18516485   -0.28678805
     atom   10 type  3   force =     0.03274572    0.18516485    0.28678805
     atom   11 type  3   force =     0.19704856   -0.04321230   -0.05318230
     atom   12 type  3   force =    -0.19704856    0.04321230    0.05318230
     atom   13 type  3   force =    -0.09026376   -0.06947401    0.07713275
     atom   14 type  3   force =     0.09026376    0.06947401   -0.07713275
     atom   15 type  3   force =    -0.13914093   -0.20872031   -0.00240920
     atom   16 type  3   force =     0.13914093    0.20872031    0.00240920
     atom   17 type  3   force =    -0.16616349    0.03322706   -0.22517413
     atom   18 type  3   force =     0.16616349   -0.03322706    0.22517413
     atom   19 type  3   force =    -0.14995782    0.17206117   -0.10303615
     atom   20 type  3   force =     0.14995782   -0.17206117    0.10303615
     The ionic contribution  to forces
     atom    1 type  1   force =     0.00000000    0.00000000   -0.00000000
     atom    2 type  2   force =     0.00000000   -0.00000000    0.00000000
     atom    3 type  2   force =    -0.00000000    0.00000000   -0.00000000
     atom    4 type  2   force =     0.00000000   -0.00000000    0.00000000
     atom    5 type  2   force =     0.00000000   -0.00000000    0.00000000
     atom    6 type  2   force =    -0.00000000    0.00000000    0.00000000
     atom    7 type  2   force =     0.00000000   -0.00000000    0.00000000
     atom    8 type  2   force =    -0.00000000    0.00000000   -0.00000000
     atom    9 type  3   force =    -1.70565412    1.10596756    2.03128926
     atom   10 type  3   force =     1.70565412   -1.10596756   -2.03128927
     atom   11 type  3   force =    -1.61137375    1.23945724    2.03126391
     atom   12 type  3   force =     1.61137376   -1.23945723   -2.03126391
     atom   13 type  3   force =     1.61126759    2.37887324   -0.05775079
     atom   14 type  3   force =    -1.61126759   -2.37887324    0.05775079
     atom   15 type  3   force =     1.70569607    2.31215882    0.05775128
     atom   16 type  3   force =    -1.70569607   -2.31215882   -0.05775128
     atom   17 type  3   force =     1.70573400   -1.20605135    1.97344064
     atom   18 type  3   force =    -1.70573400    1.20605135   -1.97344064
     atom   19 type  3   force =     1.61135888   -1.13941857    2.08903341
     atom   20 type  3   force =    -1.61135888    1.13941857   -2.08903341
     The local contribution  to forces
     atom    1 type  1   force =     0.00000078    0.00000376   -0.00000084
     atom    2 type  2   force =     0.00000394   -0.00000038    0.00000142
     atom    3 type  2   force =    -0.00000079   -0.00000341   -0.00000119
     atom    4 type  2   force =    -0.00000618   -0.00000630   -0.00000029
     atom    5 type  2   force =    -0.00000534    0.00000262    0.00000592
     atom    6 type  2   force =    -0.00000128    0.00000367    0.00000314
     atom    7 type  2   force =     0.00000576   -0.00000447   -0.00000334
     atom    8 type  2   force =     0.00000248    0.00000185   -0.00000469
     atom    9 type  3   force =     1.69024144   -0.91618929   -1.83073060
     atom   10 type  3   force =    -1.69024276    0.91619026    1.83073237
     atom   11 type  3   force =     1.42061150   -1.30072704   -2.04452143
     atom   12 type  3   force =    -1.42060977    1.30072592    2.04451935
     atom   13 type  3   force =    -1.48965261   -2.45719808    0.04925630
     atom   14 type  3   force =     1.48965182    2.45719632   -0.04925680
     atom   15 type  3   force =    -1.64219867   -2.17924345   -0.09600495
     atom   16 type  3   force =     1.64219741    2.17924397    0.09600470
     atom   17 type  3   force =    -1.59133747    1.29029862   -1.94955234
     atom   18 type  3   force =     1.59133893   -1.29029881    1.94955218
     atom   19 type  3   force =    -1.49087702    1.04371586   -2.20132901
     atom   20 type  3   force =     1.49087720   -1.04371500    2.20132931
     The core correction contribution to forces
     atom    1 type  1   force =    -0.00000000    0.00000001   -0.00000000
     atom    2 type  2   force =     0.00000000   -0.00000001    0.00000001
     atom    3 type  2   force =     0.00000001   -0.00000000   -0.00000001
     atom    4 type  2   force =    -0.00000002   -0.00000001   -0.00000001
     atom    5 type  2   force =    -0.00000001    0.00000002    0.00000002
     atom    6 type  2   force =     0.00000000    0.00000001    0.00000001
     atom    7 type  2   force =     0.00000002   -0.00000001   -0.00000000
     atom    8 type  2   force =     0.00000001    0.00000001   -0.00000001
     atom    9 type  3   force =     0.00015053    0.00167210    0.00282164
     atom   10 type  3   force =    -0.00015053   -0.00167210   -0.00282164
     atom   11 type  3   force =    -0.00271515    0.00086865   -0.00127300
     atom   12 type  3   force =     0.00271514   -0.00086865    0.00127300
     atom   13 type  3   force =     0.00095464   -0.00101693   -0.00113108
     atom   14 type  3   force =    -0.00095465    0.00101693    0.00113106
     atom   15 type  3   force =     0.00203879    0.00142685    0.00036115
     atom   16 type  3   force =    -0.00203879   -0.00142685   -0.00036115
     atom   17 type  3   force =     0.00310375    0.00088394   -0.00074794
     atom   18 type  3   force =    -0.00310375   -0.00088395    0.00074794
     atom   19 type  3   force =     0.00122886   -0.00133678   -0.00170297
     atom   20 type  3   force =    -0.00122886    0.00133678    0.00170297
     The Hubbard contrib.    to forces
     atom    1 type  1   force =     0.00000000    0.00000000    0.00000000
     atom    2 type  2   force =     0.00000000    0.00000000    0.00000000
     atom    3 type  2   force =     0.00000000    0.00000000    0.00000000
     atom    4 type  2   force =     0.00000000    0.00000000    0.00000000
     atom    5 type  2   force =     0.00000000    0.00000000    0.00000000
     atom    6 type  2   force =     0.00000000    0.00000000    0.00000000
     atom    7 type  2   force =     0.00000000    0.00000000    0.00000000
     atom    8 type  2   force =     0.00000000    0.00000000    0.00000000
     atom    9 type  3   force =     0.00000000    0.00000000    0.00000000
     atom   10 type  3   force =     0.00000000    0.00000000    0.00000000
     atom   11 type  3   force =     0.00000000    0.00000000    0.00000000
     atom   12 type  3   force =     0.00000000    0.00000000    0.00000000
     atom   13 type  3   force =     0.00000000    0.00000000    0.00000000
     atom   14 type  3   force =     0.00000000    0.00000000    0.00000000
     atom   15 type  3   force =     0.00000000    0.00000000    0.00000000
     atom   16 type  3   force =     0.00000000    0.00000000    0.00000000
     atom   17 type  3   force =     0.00000000    0.00000000    0.00000000
     atom   18 type  3   force =     0.00000000    0.00000000    0.00000000
     atom   19 type  3   force =     0.00000000    0.00000000    0.00000000
     atom   20 type  3   force =     0.00000000    0.00000000    0.00000000
     The SCF correction term to forces
     atom    1 type  1   force =    -0.00000073   -0.00000360    0.00000078
     atom    2 type  2   force =    -0.00000420    0.00000036   -0.00000144
     atom    3 type  2   force =     0.00000092    0.00000359    0.00000107
     atom    4 type  2   force =     0.00000616    0.00000653    0.00000002
     atom    5 type  2   force =     0.00000546   -0.00000247   -0.00000594
     atom    6 type  2   force =     0.00000136   -0.00000371   -0.00000306
     atom    7 type  2   force =    -0.00000581    0.00000466    0.00000346
     atom    8 type  2   force =    -0.00000247   -0.00000197    0.00000488
     atom    9 type  3   force =    -0.00004969    0.00012399   -0.00001140
     atom   10 type  3   force =     0.00005109   -0.00012504    0.00000959
     atom   11 type  3   force =     0.00006008   -0.00004879    0.00009381
     atom   12 type  3   force =    -0.00006193    0.00004989   -0.00009165
     atom   13 type  3   force =    -0.00008783    0.00002622    0.00003328
     atom   14 type  3   force =     0.00008870   -0.00002456   -0.00003370
     atom   15 type  3   force =    -0.00005237   -0.00007314    0.00016867
     atom   16 type  3   force =     0.00005358    0.00007276   -0.00016816
     atom   17 type  3   force =    -0.00001803    0.00002611   -0.00001193
     atom   18 type  3   force =     0.00001637   -0.00002594    0.00001190
     atom   19 type  3   force =     0.00010364    0.00017810   -0.00002941
     atom   20 type  3   force =    -0.00010367   -0.00017906    0.00002902

     Total force =     0.592839     Total SCF correction =     0.000497

     Computing stress (Cartesian axis) and pressure

          total   stress  (Ry/bohr**3)                   (kbar)     P=     -925.60
  -0.00662912  -0.00008300   0.00013274         -975.18      -12.21       19.53
  -0.00008300  -0.00652373   0.00021773          -12.21     -959.67       32.03
   0.00013274   0.00021773  -0.00572349           19.53       32.03     -841.95

     kinetic stress (kbar)  37438.41    -34.35    -12.15
                              -34.35  37303.82     15.69
                              -12.15     15.69  37425.54

     local   stress (kbar) -16111.39    198.80    350.98
                              198.80 -14818.70      0.13
                              350.98      0.13 -14998.35

     nonloc. stress (kbar)  12762.53   -156.04   -244.88
                             -156.04  11887.65     22.89
                             -244.88     22.89  12037.43

     hartree stress (kbar)  18788.54    -23.36    -77.58
                              -23.36  18508.06     -6.41
                              -77.58     -6.41  18539.01

     exc-cor stress (kbar)  -5816.12      0.21     -0.29
                                0.21  -5817.30     -0.31
                               -0.29     -0.31  -5818.98

     corecor stress (kbar)  -3319.53      2.57      3.50
                                2.57  -3305.57      0.12
                                3.50      0.12  -3308.89

     ewald   stress (kbar) -44717.62     -0.03     -0.05
                               -0.03 -44717.64     -0.08
                               -0.05     -0.08 -44717.73

     hubbard stress (kbar)      0.00      0.00      0.00
                                0.00      0.00      0.00
                                0.00      0.00      0.00

     DFT-D   stress (kbar)      0.00      0.00      0.00
                                0.00      0.00      0.00
                                0.00      0.00      0.00

     XDM     stress (kbar)      0.00      0.00      0.00
                                0.00      0.00      0.00
                                0.00      0.00      0.00

     dft-nl  stress (kbar)      0.00      0.00      0.00
                                0.00      0.00      0.00
                                0.00      0.00      0.00

     TS-vdW  stress (kbar)      0.00      0.00      0.00
                                0.00      0.00      0.00
                                0.00      0.00      0.00

[...]

                                0.00      0.00      0.00

     Writing all to output data dir new_calculations/myprefix.save/

     General routines

     Parallel routines

     PAW routines

   This run was terminated on:   6:15: 9  21May2023

   JOB DONE.