     Program PWSCF v.7.0 starts on 21May2023 at  8:27: 0

     Reading input from espresso_23514.pwi
Warning: card &CELL ignored
Warning: card / ignored

     Current dimensions of program PWSCF are:
     Max number of different atomic species (ntypx) = 10
     Max number of k-points (npk) =  40000
     Max angular momentum in pseudopotentials (lmaxx) =  4
     file Al.pbe-n-kjpaw_psl.1.0.0.UPF: wavefunction(s)  3S 3P renormalized

     gamma-point specific algorithms are used
     Message from routine setup:
     using ibrav=0 with symmetry is DISCOURAGED, use correct ibrav instead

     Subspace diagonalization in iterative solution of the eigenvalue problem:
     a serial algorithm will be used

     Using Slab Decomposition

     bravais-lattice index     =            0
     lattice parameter (alat)  =      13.3134  a.u.
     unit-cell volume          =    2324.1028 (a.u.)^3
     number of atoms/cell      =           20
     number of atomic types    =            3
     number of electrons       =       286.00
     number of Kohn-Sham states=          172
     kinetic-energy cutoff     =      30.0000  Ry
     charge density cutoff     =     240.0000  Ry
     scf convergence threshold =      1.0E-06
     mixing beta               =       0.7000
     number of iterations used =            8  plain     mixing
     Exchange-correlation= PBE
                           (   1   4   3   4   0   0   0)

     celldm(1)=  13.313366  celldm(2)=   0.000000  celldm(3)=   0.000000
     celldm(4)=   0.000000  celldm(5)=   0.000000  celldm(6)=   0.000000

     crystal axes: (cart. coord. in units of alat)
               a(1) = (   1.000000   0.000000   0.000000 )
               a(2) = (   0.000000   0.989393   0.000000 )
               a(3) = (   0.000000   0.020584   0.995458 )

     reciprocal axes: (cart. coord. in units 2 pi/alat)
               b(1) = (  1.000000  0.000000  0.000000 )
               b(2) = (  0.000000  1.010721 -0.020900 )
               b(3) = (  0.000000  0.000000  1.004563 )

     PseudoPot. # 1 for Al read from file:
     /home/pragov/projects/rrg-bengioy-ad/pragov/crystal_structure_design/SSSP/Al.pbe-n-kjpaw_psl.1.0.0.UPF
     MD5 check sum: cfc449ca30b5f3223ec38ddd88ac046d
     Pseudo is Projector augmented-wave + core cor, Zval =  3.0
     Generated using "atomic" code by A. Dal Corso  v.5.1
     Shape of augmentation charge: PSQ
     Using radial grid of 1135 points,  6 beta functions with:
                l(1) =   0
                l(2) =   0
                l(3) =   1
                l(4) =   1
                l(5) =   2
                l(6) =   2
     Q(r) pseudized with 0 coefficients

     PseudoPot. # 2 for Si read from file:
     /home/pragov/projects/rrg-bengioy-ad/pragov/crystal_structure_design/SSSP/Si.pbe-n-rrkjus_psl.1.0.0.UPF
     MD5 check sum: 0b0bb1205258b0d07b9f9672cf965d36
     Pseudo is Ultrasoft + core correction, Zval =  4.0
     Generated using "atomic" code by A. Dal Corso  v.5.1
     Using radial grid of 1141 points,  6 beta functions with:
                l(1) =   0
                l(2) =   0
                l(3) =   1
                l(4) =   1
                l(5) =   2
                l(6) =   2
     Q(r) pseudized with 0 coefficients

     PseudoPot. # 3 for Ag read from file:
     /home/pragov/projects/rrg-bengioy-ad/pragov/crystal_structure_design/SSSP/Ag_ONCV_PBE-1.0.oncvpsp.upf
     MD5 check sum: 94f47bd0669c641108e45594df92fabc
     Pseudo is Norm-conserving, Zval = 19.0
     Generated using ONCVPSP code by D. R. Hamann
     Using radial grid of 1398 points,  6 beta functions with:
                l(1) =   0
                l(2) =   0
                l(3) =   1
                l(4) =   1
                l(5) =   2
                l(6) =   2

     atomic species   valence    mass     pseudopotential
        Al             3.00    26.98154     Al( 1.00)
        Si             4.00    28.08500     Si( 1.00)
        Ag            19.00   107.86820     Ag( 1.00)

      2 Sym. Ops. (no inversion) found ( 1 have fractional translation)

                                    s                        frac. trans.

      isym =  1     identity

 cryst.   s( 1) = (     1          0          0      )
                  (     0          1          0      )
                  (     0          0          1      )

 cart.    s( 1) = (  1.0000000  0.0000000  0.0000000 )
                  (  0.0000000  1.0000000 -0.0000000 )
                  (  0.0000000  0.0000000  1.0000000 )

      isym =  2     180 deg rotation - cart. axis [1,0,0]

 cryst.   s( 2) = (     1          0          0      )    f =( -0.5000000 )
                  (     0         -1          0      )       ( -0.0000000 )
                  (     0          0         -1      )       (  0.0000000 )

 cart.    s( 2) = (  1.0000000  0.0000000  0.0000000 )    f =( -0.5000000 )
                  (  0.0000000 -1.0000000  0.0000000 )       ( -0.0000000 )
                  (  0.0000000  0.0000000 -1.0000000 )       (  0.0000000 )

   Cartesian axes

     site n.     atom                  positions (alat units)
         1           Al  tau(   1) = (   0.1921570   0.1964550   0.4402929  )
         2           Al  tau(   2) = (   0.6921570   0.8135225   0.5551648  )
         3           Al  tau(   3) = (   0.8148160   0.3255948   0.9311153  )
         4           Al  tau(   4) = (   0.3148160   0.6843828   0.0643424  )
         5           Si  tau(   5) = (   0.4371370   0.9330644   0.3107361  )
         6           Si  tau(   6) = (   0.9371370   0.0769132   0.6847216  )
         7           Ag  tau(   7) = (   0.9577100   0.7154036   0.8701505  )
         8           Ag  tau(   8) = (   0.6997660   0.6238172   0.2063574  )
         9           Ag  tau(   9) = (   0.6210200   0.9662063   0.9500768  )
        10           Ag  tau(  10) = (   0.4577100   0.2945739   0.1253072  )
        11           Ag  tau(  11) = (   0.1997660   0.3861604   0.7891003  )
        12           Ag  tau(  12) = (   0.1210200   0.0437712   0.0453809  )
        13           Ag  tau(  13) = (   0.0447300   0.7976688   0.3745101  )
        14           Ag  tau(  14) = (   0.2962400   0.8820402   0.7006310  )
        15           Ag  tau(  15) = (   0.3713970   0.5480242   0.4483880  )
        16           Ag  tau(  16) = (   0.5447300   0.2123088   0.6209476  )
        17           Ag  tau(  17) = (   0.7962400   0.1279373   0.2948267  )
        18           Ag  tau(  18) = (   0.8713970   0.4619534   0.5470697  )
        19           Ag  tau(  19) = (   0.5650270   0.5778348   0.8125623  )
        20           Ag  tau(  20) = (   0.0650270   0.4321427   0.1828954  )

   Crystallographic axes

     site n.     atom                  positions (cryst. coord.)
         1           Al  tau(   1) = (  0.1921570  0.1893590  0.4423020  )
         2           Al  tau(   2) = (  0.6921570  0.8106410  0.5576980  )
         3           Al  tau(   3) = (  0.8148160  0.3096250  0.9353640  )
         4           Al  tau(   4) = (  0.3148160  0.6903750  0.0646360  )
         5           Si  tau(   5) = (  0.4371370  0.9365730  0.3121540  )
         6           Si  tau(   6) = (  0.9371370  0.0634270  0.6878460  )
         7           Ag  tau(   7) = (  0.9577100  0.7048870  0.8741210  )
         8           Ag  tau(   8) = (  0.6997660  0.6261920  0.2072990  )
         9           Ag  tau(   9) = (  0.6210200  0.9567080  0.9544120  )
        10           Ag  tau(  10) = (  0.4577100  0.2951130  0.1258790  )
        11           Ag  tau(  11) = (  0.1997660  0.3738080  0.7927010  )
        12           Ag  tau(  12) = (  0.1210200  0.0432920  0.0455880  )
        13           Ag  tau(  13) = (  0.0447300  0.7983930  0.3762190  )
        14           Ag  tau(  14) = (  0.2962400  0.8768530  0.7038280  )
        15           Ag  tau(  15) = (  0.3713970  0.5445280  0.4504340  )
        16           Ag  tau(  16) = (  0.5447300  0.2016070  0.6237810  )
        17           Ag  tau(  17) = (  0.7962400  0.1231470  0.2961720  )
        18           Ag  tau(  18) = (  0.8713970  0.4554720  0.5495660  )
        19           Ag  tau(  19) = (  0.5650270  0.5670470  0.8162700  )
        20           Ag  tau(  20) = (  0.0650270  0.4329530  0.1837300  )

     number of k points=     1  Methfessel-Paxton smearing, width (Ry)=  0.0010
                       cart. coord. in units 2pi/alat
        k(    1) = (   0.0000000   0.0000000   0.0000000), wk =   2.0000000

                       cryst. coord.
        k(    1) = (   0.0000000   0.0000000   0.0000000), wk =   2.0000000

     Initial potential from superposition of free atoms

     starting charge     285.9856, renormalised to     286.0000
     Starting wfcs are  164 randomized atomic wfcs +    8 random wfcs
     Checking if some PAW data can be deallocated...

     Self-consistent Calculation

     iteration #  1     ecut=    30.00 Ry     beta= 0.70
     Davidson diagonalization with overlap

     ethr =  1.00E-02,  avg # of iterations =  5.0

     Threshold (ethr) on eigenvalues was too large:
     Diagonalizing with lowered threshold

     Davidson diagonalization with overlap

[...]

     total energy              =   -4200.21454224 Ry
     estimated scf accuracy    <       0.39256307 Ry

[...]

     c_bands:  2 eigenvalues not converged
     ethr =  3.18E-06,  avg # of iterations = 20.0

[...]

     total energy              =   -4200.28065377 Ry
     estimated scf accuracy    <       0.00003702 Ry

     iteration # 13     ecut=    30.00 Ry     beta= 0.70
     Davidson diagonalization with overlap

     ethr =  1.11E-08,  avg # of iterations =  1.0

     End of self-consistent calculation

          k = 0.0000 0.0000 0.0000 (  3239 PWs)   bands (ev):

   -79.0415 -79.0414 -78.6931 -78.6929 -78.5876 -78.5869 -78.5775 -78.5770
   -78.5703 -78.5698 -78.5631 -78.5627 -78.5417 -78.5414 -42.1356 -42.1354
   -42.1097 -42.1089 -41.9951 -41.9948 -41.7924 -41.7920 -41.7329 -41.7306
   -41.7047 -41.6968 -41.6784 -41.6739 -41.6734 -41.6646 -41.6538 -41.6501
   -41.6430 -41.6396 -41.6254 -41.6243 -41.6234 -41.6193 -41.6142 -41.6130
   -41.5987 -41.5945 -41.5901 -41.5848 -41.5767 -41.5756 -41.5718 -41.5684
   -41.5538 -41.5525 -41.5451 -41.5325 -41.5276 -41.5179 -41.5111 -41.5100
     4.7536   5.9711   7.4324   7.6574   7.9217   8.1159   8.6365   8.7047
     8.7512   8.7752   8.7887   8.8280   8.8625   8.9085   8.9535   9.0004
     9.0635   9.1102   9.2005   9.2163   9.2484   9.2889   9.2921   9.3476
     9.3929   9.4329   9.4346   9.5046   9.5175   9.5299   9.6097   9.6872
     9.7224   9.8023   9.8299   9.8551   9.8596   9.9543  10.0203  10.0303
    10.0685  10.1137  10.1489  10.1576  10.2144  10.2598  10.2793  10.2884
    10.3177  10.3334  10.3985  10.4183  10.4313  10.5314  10.5680  10.6158
    10.6847  10.7376  10.7473  10.7637  10.7780  10.8291  10.8620  10.8695
    10.9143  10.9501  10.9510  11.0341  11.0394  11.1320  11.2009  11.3839
    11.4232  11.4573  11.4852  11.5000  11.5670  12.3830  12.6028  12.8878
    13.0324  13.1406  13.3936  13.5101  13.6223  13.7512  14.6409  14.6540
    14.7700  15.8310  16.0136  16.3101  16.4429  16.8121  16.9861  17.2430
    17.4214  19.4449  19.8803  20.0956  20.1903  20.2736  20.4065  20.4280
    20.5610  20.5837  20.7721  21.2284  21.2368  21.7117  21.8767  22.0982
    22.2593  22.4655  22.6063  22.6265

     occupation numbers
     1.0000   1.0000   1.0000   1.0000   1.0000   1.0000   1.0000   1.0000
     1.0000   1.0000   1.0000   1.0000   1.0000   1.0000   1.0000   1.0000
     1.0000   1.0000   1.0000   1.0000   1.0000   1.0000   1.0000   1.0000
     1.0000   1.0000   1.0000   1.0000   1.0000   1.0000   1.0000   1.0000
     1.0000   1.0000   1.0000   1.0000   1.0000   1.0000   1.0000   1.0000
     1.0000   1.0000   1.0000   1.0000   1.0000   1.0000   1.0000   1.0000
     1.0000   1.0000   1.0000   1.0000   1.0000   1.0000   1.0000   1.0000
     1.0000   1.0000   1.0000   1.0000   1.0000   1.0000   1.0000   1.0000
     1.0000   1.0000   1.0000   1.0000   1.0000   1.0000   1.0000   1.0000
     1.0000   1.0000   1.0000   1.0000   1.0000   1.0000   1.0000   1.0000
     1.0000   1.0000   1.0000   1.0000   1.0000   1.0000   1.0000   1.0000
     1.0000   1.0000   1.0000   1.0000   1.0000   1.0000   1.0000   1.0000
     1.0000   1.0000   1.0000   1.0000   1.0000   1.0000   1.0000   1.0000
     1.0000   1.0000   1.0000   1.0000   1.0000   1.0000   1.0000   1.0000
     1.0000   1.0000   1.0000   1.0000   1.0000   1.0000   1.0000   1.0000
     1.0000   1.0000   1.0000   1.0000   1.0000   1.0000   1.0000   1.0000
     1.0000   1.0000   1.0000   1.0000   1.0000   1.0000   1.0000   1.0000
     1.0000   1.0000   1.0000   1.0000   1.0000   1.0000   0.8594   0.1406
    -0.0000  -0.0000  -0.0000  -0.0000  -0.0000  -0.0000  -0.0000  -0.0000
    -0.0000  -0.0000  -0.0000  -0.0000  -0.0000  -0.0000  -0.0000  -0.0000
    -0.0000  -0.0000  -0.0000  -0.0000  -0.0000  -0.0000  -0.0000  -0.0000
    -0.0000  -0.0000  -0.0000  -0.0000

     the Fermi energy is    14.6474 ev

!    total energy              =   -4200.28065555 Ry
     estimated scf accuracy    <       0.00000020 Ry
     smearing contrib. (-TS)   =      -0.00024067 Ry
     internal energy E=F+TS    =   -4200.28041487 Ry

     The total energy is F=E-TS. E is the sum of the following terms:
     one-electron contribution =   -2117.28244438 Ry
     hartree contribution      =    1169.33445766 Ry
     xc contribution           =    -400.92573017 Ry
     ewald contribution        =   -2712.72921443 Ry
     one-center paw contrib.   =    -138.67748356 Ry
      -> PAW hartree energy AE =       4.89960961 Ry
      -> PAW hartree energy PS =      -4.88246919 Ry
      -> PAW xc energy AE      =    -145.96875262 Ry
      -> PAW xc energy PS      =       7.27412865 Ry
      -> total E_H with PAW    =    1169.35159808 Ry
      -> total E_XC with PAW   =    -539.62035415 Ry

     convergence has been achieved in  13 iterations

     Forces acting on atoms (cartesian axes, Ry/au):

     atom    1 type  1   force =    -0.00576092   -0.00036210   -0.02081851
     atom    2 type  1   force =    -0.00576092    0.00036210    0.02081851
     atom    3 type  1   force =    -0.00510421    0.00586270   -0.00040490
     atom    4 type  1   force =    -0.00510421   -0.00586270    0.00040490
     atom    5 type  2   force =    -0.00515266    0.01153372    0.01623636
     atom    6 type  2   force =    -0.00515266   -0.01153372   -0.01623636
     atom    7 type  3   force =    -0.01162833   -0.01190764    0.00304105
     atom    8 type  3   force =    -0.01699670   -0.00306735   -0.00708384
     atom    9 type  3   force =     0.00533733   -0.00991696   -0.00321545
     atom   10 type  3   force =    -0.01162833    0.01190764   -0.00304105
     atom   11 type  3   force =    -0.01699670    0.00306735    0.00708384
     atom   12 type  3   force =     0.00533733    0.00991696    0.00321545
     atom   13 type  3   force =     0.01677319    0.00823602    0.00596927
     atom   14 type  3   force =    -0.00406924   -0.00260778   -0.01903329
     atom   15 type  3   force =     0.00034075    0.00795735   -0.01465684
     atom   16 type  3   force =     0.01677319   -0.00823602   -0.00596927
     atom   17 type  3   force =    -0.00406924    0.00260778    0.01903329
     atom   18 type  3   force =     0.00034075   -0.00795735    0.01465684
     atom   19 type  3   force =     0.02626079    0.01181099    0.01625051
     atom   20 type  3   force =     0.02626079   -0.01181099   -0.01625051
     The non-local contrib.  to forces
     atom    1 type  1   force =     0.00246861   -0.02652754   -0.01244616
     atom    2 type  1   force =     0.00246861    0.02652754    0.01244616
     atom    3 type  1   force =     0.01754006    0.00975361   -0.00998316
     atom    4 type  1   force =     0.01754006   -0.00975361    0.00998316
     atom    5 type  2   force =     0.00182040   -0.01387987    0.00677860
     atom    6 type  2   force =     0.00182040    0.01387987   -0.00677860
     atom    7 type  3   force =     0.05523870    0.09528609   -0.00031812
     atom    8 type  3   force =     0.11479990    0.07385147    0.07203186
     atom    9 type  3   force =    -0.01705803    0.05183812    0.02899082
     atom   10 type  3   force =     0.05523870   -0.09528609    0.00031812
     atom   11 type  3   force =     0.11479990   -0.07385147   -0.07203186
     atom   12 type  3   force =    -0.01705803   -0.05183812   -0.02899082
     atom   13 type  3   force =    -0.10833992   -0.02195694   -0.04702961
     atom   14 type  3   force =    -0.02760229   -0.01584579    0.06482409
     atom   15 type  3   force =     0.02007038   -0.03782731    0.08242815
     atom   16 type  3   force =    -0.10833992    0.02195694    0.04702961
     atom   17 type  3   force =    -0.02760229    0.01584579   -0.06482409
     atom   18 type  3   force =     0.02007038    0.03782731   -0.08242815
     atom   19 type  3   force =    -0.12994362   -0.00275922   -0.02993865
     atom   20 type  3   force =    -0.12994362    0.00275922    0.02993865
     The ionic contribution  to forces
     atom    1 type  1   force =    -0.15887390   -2.83233575    0.76641579
     atom    2 type  1   force =    -0.15887390    2.83233575   -0.76641579
     atom    3 type  1   force =     0.42790967   -2.20650098   -1.38816530
     atom    4 type  1   force =     0.42790967    2.20650098    1.38816530
     atom    5 type  2   force =    -0.69985453   -0.18856229    1.30161465
     atom    6 type  2   force =    -0.69985453    0.18856229   -1.30161465
     atom    7 type  3   force =     0.53000163    9.41062875   -6.30743826
     atom    8 type  3   force =    -8.36810032    9.85161170    6.12714545
     atom    9 type  3   force =     1.99288658    4.66818721   -0.94308089
     atom   10 type  3   force =     0.53000164   -9.41062875    6.30743826
     atom   11 type  3   force =    -8.36810032   -9.85161170   -6.12714545
     atom   12 type  3   force =     1.99288658   -4.66818721    0.94308089
     atom   13 type  3   force =     3.79545636   16.07602044    6.23041994
     atom   14 type  3   force =    -1.86652885    9.17179021   -8.86110264
     atom   15 type  3   force =     1.37170126    7.28313135   -6.08268254
     atom   16 type  3   force =     3.79545636  -16.07602044   -6.23041994
     atom   17 type  3   force =    -1.86652885   -9.17179021    8.86110265
     atom   18 type  3   force =     1.37170126   -7.28313135    6.08268254
     atom   19 type  3   force =     2.97540211    4.70326636   -0.60607666
     atom   20 type  3   force =     2.97540211   -4.70326636    0.60607666
     The local contribution  to forces
     atom    1 type  1   force =     0.15094736    2.85590777   -0.77619436
     atom    2 type  1   force =     0.15093552   -2.85593370    0.77611447
     atom    3 type  1   force =    -0.44890218    2.20381502    1.39696172
     atom    4 type  1   force =    -0.44893672   -2.20377250   -1.39689681
     atom    5 type  2   force =     0.69291835    0.21231836   -1.29135692
     atom    6 type  2   force =     0.69293261   -0.21235685    1.29128028
     atom    7 type  3   force =    -0.59708993   -9.51818857    6.31032381
     atom    8 type  3   force =     8.23587826   -9.92849614   -6.20648090
     atom    9 type  3   force =    -1.97072078   -4.73018651    0.91067294
     atom   10 type  3   force =    -0.59723433    9.51801513   -6.31000017
     atom   11 type  3   force =     8.23584676    9.92894347    6.20655913
     atom   12 type  3   force =    -1.97051015    4.72983976   -0.90999878
     atom   13 type  3   force =    -3.66933564  -16.04658451   -6.17737589
     atom   14 type  3   force =     1.88979976   -9.15932211    8.77641506
     atom   15 type  3   force =    -1.39175606   -7.23716368    5.98476963
     atom   16 type  3   force =    -3.66966866   16.04662080    6.17695392
     atom   17 type  3   force =     1.88981917    9.15906190   -8.77675045
     atom   18 type  3   force =    -1.39131409    7.23741982   -5.98489645
     atom   19 type  3   force =    -2.81817510   -4.68902678    0.65187281
     atom   20 type  3   force =    -2.81801668    4.68907601   -0.65167562
     The core correction contribution to forces
     atom    1 type  1   force =    -0.00029122    0.00261176    0.00130553
     atom    2 type  1   force =    -0.00029220   -0.00261414   -0.00130779
     atom    3 type  1   force =    -0.00166851   -0.00113160    0.00075068
     atom    4 type  1   force =    -0.00166983    0.00113212   -0.00074829
     atom    5 type  2   force =    -0.00012488    0.00163847   -0.00080628
     atom    6 type  2   force =    -0.00012867   -0.00163965    0.00080250
     atom    7 type  3   force =     0.00000000    0.00000000    0.00000000
     atom    8 type  3   force =     0.00000000    0.00000000    0.00000000
     atom    9 type  3   force =     0.00000000    0.00000000    0.00000000
     atom   10 type  3   force =     0.00000000    0.00000000    0.00000000
     atom   11 type  3   force =     0.00000000    0.00000000    0.00000000
     atom   12 type  3   force =     0.00000000    0.00000000    0.00000000
     atom   13 type  3   force =     0.00000000    0.00000000    0.00000000
     atom   14 type  3   force =     0.00000000    0.00000000    0.00000000
     atom   15 type  3   force =     0.00000000    0.00000000    0.00000000
     atom   16 type  3   force =     0.00000000    0.00000000    0.00000000
     atom   17 type  3   force =     0.00000000    0.00000000    0.00000000
     atom   18 type  3   force =     0.00000000    0.00000000    0.00000000
     atom   19 type  3   force =     0.00000000    0.00000000    0.00000000
     atom   20 type  3   force =     0.00000000    0.00000000    0.00000000
     The Hubbard contrib.    to forces
     atom    1 type  1   force =     0.00000000    0.00000000    0.00000000
     atom    2 type  1   force =     0.00000000    0.00000000    0.00000000
     atom    3 type  1   force =     0.00000000    0.00000000    0.00000000
     atom    4 type  1   force =     0.00000000    0.00000000    0.00000000
     atom    5 type  2   force =     0.00000000    0.00000000    0.00000000
     atom    6 type  2   force =     0.00000000    0.00000000    0.00000000
     atom    7 type  3   force =     0.00000000    0.00000000    0.00000000
     atom    8 type  3   force =     0.00000000    0.00000000    0.00000000
     atom    9 type  3   force =     0.00000000    0.00000000    0.00000000
     atom   10 type  3   force =     0.00000000    0.00000000    0.00000000
     atom   11 type  3   force =     0.00000000    0.00000000    0.00000000
     atom   12 type  3   force =     0.00000000    0.00000000    0.00000000
     atom   13 type  3   force =     0.00000000    0.00000000    0.00000000
     atom   14 type  3   force =     0.00000000    0.00000000    0.00000000
     atom   15 type  3   force =     0.00000000    0.00000000    0.00000000
     atom   16 type  3   force =     0.00000000    0.00000000    0.00000000
     atom   17 type  3   force =     0.00000000    0.00000000    0.00000000
     atom   18 type  3   force =     0.00000000    0.00000000    0.00000000
     atom   19 type  3   force =     0.00000000    0.00000000    0.00000000
     atom   20 type  3   force =     0.00000000    0.00000000    0.00000000
     The SCF correction term to forces
     atom    1 type  1   force =    -0.00001627   -0.00002821    0.00008944
     atom    2 type  1   force =    -0.00000608    0.00003677   -0.00002978
     atom    3 type  1   force =     0.00001891   -0.00006468    0.00004055
     atom    4 type  1   force =     0.00003884    0.00003896   -0.00008904
     atom    5 type  2   force =     0.00009355    0.00001187   -0.00001226
     atom    6 type  2   force =     0.00006037    0.00001345    0.00005553
     atom    7 type  3   force =     0.00021716    0.00035629    0.00044998
     atom    8 type  3   force =     0.00043103   -0.00000943    0.00021292
     atom    9 type  3   force =     0.00021211    0.00021909    0.00019821
     atom   10 type  3   force =     0.00035814   -0.00020246   -0.00082089
     atom   11 type  3   force =     0.00043979   -0.00038799   -0.00030483
     atom   12 type  3   force =     0.00002474    0.00007739   -0.00087933
     atom   13 type  3   force =    -0.00099733    0.00074640   -0.00003175
     atom   14 type  3   force =     0.00024782    0.00076228    0.00079110
     atom   15 type  3   force =     0.00029462   -0.00014853    0.00086752
     atom   16 type  3   force =    -0.00069648   -0.00080394    0.00048055
     atom   17 type  3   force =     0.00024544   -0.00051732   -0.00053392
     atom   18 type  3   force =    -0.00009786   -0.00003864   -0.00066151
     atom   19 type  3   force =    -0.00103171    0.00031738    0.00040658
     atom   20 type  3   force =    -0.00118351   -0.00039311   -0.00057662

     Total force =     0.087913     Total SCF correction =     0.003488

     Computing stress (Cartesian axis) and pressure

          total   stress  (Ry/bohr**3)                   (kbar)     P=    -1208.40
  -0.00810767   0.00000000   0.00000000        -1192.68        0.00        0.00
   0.00000000  -0.00826685   0.00028865            0.00    -1216.10       42.46
   0.00000000   0.00028865  -0.00826911            0.00       42.46    -1216.43

     kinetic stress (kbar)  56740.74      0.00      0.00
                                0.00  56643.54    132.02
                                0.00    132.02  56656.66

     local   stress (kbar) -16359.79      0.08     -0.01
                                0.08 -12057.72  -4362.33
                               -0.01  -4362.33 -15243.32

     nonloc. stress (kbar)  -2942.99      0.00      0.00
                                0.00  -2934.59    -12.74
                                0.00    -12.74  -2929.37

     hartree stress (kbar)  25581.79     -0.03     -0.01
                               -0.03  23406.49   2115.99
                               -0.01   2115.99  25025.24

     exc-cor stress (kbar)  -7133.37     -0.00     -0.00
                               -0.00  -7133.47      0.01
                               -0.00      0.01  -7133.54

     corecor stress (kbar)   -702.78      0.00      0.00
                                0.00   -702.79     -0.02
                                0.00     -0.02   -702.58

     ewald   stress (kbar) -56376.28     -0.00      0.00
                               -0.00 -58437.55   2169.53
                                0.00   2169.53 -56889.52

     hubbard stress (kbar)      0.00      0.00      0.00
                                0.00      0.00      0.00
                                0.00      0.00      0.00

     DFT-D   stress (kbar)      0.00      0.00      0.00
                                0.00      0.00      0.00
                                0.00      0.00      0.00

     XDM     stress (kbar)      0.00      0.00      0.00
                                0.00      0.00      0.00
                                0.00      0.00      0.00

     dft-nl  stress (kbar)      0.00      0.00      0.00
                                0.00      0.00      0.00
                                0.00      0.00      0.00

     TS-vdW  stress (kbar)      0.00      0.00      0.00
                                0.00      0.00      0.00
                                0.00      0.00      0.00

[...]

                                0.00      0.00      0.00

     Writing all to output data dir new_calculations/myprefix.save/

     General routines

     Parallel routines

     PAW routines

   This run was terminated on:   8:28:23  21May2023

   JOB DONE.