     Program PWSCF v.7.0 starts on 20May2023 at 13:44:25

     Reading input from espresso_12319.pwi
Warning: card &CELL ignored
Warning: card / ignored

     Current dimensions of program PWSCF are:
     Max number of different atomic species (ntypx) = 10
     Max number of k-points (npk) =  40000
     Max angular momentum in pseudopotentials (lmaxx) =  4

     gamma-point specific algorithms are used
     Message from routine setup:
     using ibrav=0 with symmetry is DISCOURAGED, use correct ibrav instead

     Subspace diagonalization in iterative solution of the eigenvalue problem:
     a serial algorithm will be used

     Using Slab Decomposition

     bravais-lattice index     =            0
     lattice parameter (alat)  =       7.7884  a.u.
     unit-cell volume          =     405.1811 (a.u.)^3
     number of atoms/cell      =            3
     number of atomic types    =            3
     number of electrons       =        33.00
     number of Kohn-Sham states=           21
     kinetic-energy cutoff     =      30.0000  Ry
     charge density cutoff     =     240.0000  Ry
     scf convergence threshold =      1.0E-06
     mixing beta               =       0.7000
     number of iterations used =            8  plain     mixing
     Exchange-correlation= PBE
                           (   1   4   3   4   0   0   0)

     celldm(1)=   7.788426  celldm(2)=   0.000000  celldm(3)=   0.000000
     celldm(4)=   0.000000  celldm(5)=   0.000000  celldm(6)=   0.000000

     crystal axes: (cart. coord. in units of alat)
               a(1) = (   1.000000   0.000000   0.000000 )
               a(2) = (   0.499757   0.866130   0.000000 )
               a(3) = (   0.000000   0.000000   0.990187 )

     reciprocal axes: (cart. coord. in units 2 pi/alat)
               b(1) = (  1.000000 -0.577001  0.000000 )
               b(2) = (  0.000000  1.154561  0.000000 )
               b(3) = (  0.000000  0.000000  1.009911 )

     PseudoPot. # 1 for Ca read from file:
     /home/pragov/projects/rrg-bengioy-ad/pragov/crystal_structure_design/SSSP/Ca_pbe_v1.uspp.F.UPF
     MD5 check sum: 403a4c14b9e4d4dfdc3024c9a3812218
     Pseudo is Ultrasoft + core correction, Zval = 10.0
     Generated by new atomic code, or converted to UPF format
     Using radial grid of  845 points,  6 beta functions with:
                l(1) =   0
                l(2) =   0
                l(3) =   1
                l(4) =   1
                l(5) =   2
                l(6) =   2
     Q(r) pseudized with  8 coefficients,  rinner =    1.500   1.500   1.500
                                                       1.500   1.500

     PseudoPot. # 2 for Cu read from file:
     /home/pragov/projects/rrg-bengioy-ad/pragov/crystal_structure_design/SSSP/Cu_pbe_v1.2.uspp.F.UPF
     MD5 check sum: 6e991ff952a84172a2a52a1c1e996048
     Pseudo is Ultrasoft + core correction, Zval = 19.0
     Generated by new atomic code, or converted to UPF format
     Using radial grid of  867 points,  6 beta functions with:
                l(1) =   0
                l(2) =   0
                l(3) =   1
                l(4) =   1
                l(5) =   2
                l(6) =   2
     Q(r) pseudized with  8 coefficients,  rinner =    1.150   1.150   1.150
                                                       1.150   1.150

     PseudoPot. # 3 for Si read from file:
     /home/pragov/projects/rrg-bengioy-ad/pragov/crystal_structure_design/SSSP/Si.pbe-n-rrkjus_psl.1.0.0.UPF
     MD5 check sum: 0b0bb1205258b0d07b9f9672cf965d36
     Pseudo is Ultrasoft + core correction, Zval =  4.0
     Generated using "atomic" code by A. Dal Corso  v.5.1
     Using radial grid of 1141 points,  6 beta functions with:
                l(1) =   0
                l(2) =   0
                l(3) =   1
                l(4) =   1
                l(5) =   2
                l(6) =   2
     Q(r) pseudized with 0 coefficients

     atomic species   valence    mass     pseudopotential
        Ca            10.00    40.07800     Ca( 1.00)
        Cu            19.00    63.54600     Cu( 1.00)
        Si             4.00    28.08500     Si( 1.00)

      2 Sym. Ops. (no inversion) found

                                    s                        frac. trans.

      isym =  1     identity

 cryst.   s( 1) = (     1          0          0      )
                  (     0          1          0      )
                  (     0          0          1      )

 cart.    s( 1) = (  1.0000000 -0.0000000  0.0000000 )
                  (  0.0000000  1.0000000  0.0000000 )
                  (  0.0000000  0.0000000  1.0000000 )

      isym =  2     inv. 180 deg rotation - cart. axis [0,0,1]

 cryst.   s( 2) = (     1          0          0      )
                  (     0          1          0      )
                  (     0          0         -1      )

 cart.    s( 2) = (  1.0000000 -0.0000000  0.0000000 )
                  (  0.0000000  1.0000000  0.0000000 )
                  (  0.0000000  0.0000000 -1.0000000 )

   Cartesian axes

     site n.     atom                  positions (alat units)
         1           Ca  tau(   1) = (   0.9997755   0.0000286   0.0000000  )
         2           Cu  tau(   2) = (   0.9998979   0.5770011   0.4950933  )
         3           Si  tau(   3) = (   0.4999840   0.2891003   0.4950933  )

   Crystallographic axes

     site n.     atom                  positions (cryst. coord.)
         1           Ca  tau(   1) = (  0.9997590  0.0000330  0.0000000  )
         2           Cu  tau(   2) = (  0.6669680  0.6661830  0.5000000  )
         3           Si  tau(   3) = (  0.3331730  0.3337840  0.5000000  )

     number of k points=     1  Methfessel-Paxton smearing, width (Ry)=  0.0010
                       cart. coord. in units 2pi/alat
        k(    1) = (   0.0000000   0.0000000   0.0000000), wk =   2.0000000

                       cryst. coord.
        k(    1) = (   0.0000000   0.0000000   0.0000000), wk =   2.0000000

     Check: negative core charge=   -0.000001

     Initial potential from superposition of free atoms

     starting charge      31.9940, renormalised to      33.0000
     Starting wfcs are   27 randomized atomic wfcs

     Self-consistent Calculation

     iteration #  1     ecut=    30.00 Ry     beta= 0.70
     Davidson diagonalization with overlap

     ethr =  1.00E-02,  avg # of iterations =  5.0

     total energy              =    -488.87031249 Ry
     estimated scf accuracy    <       1.09558603 Ry

[...]

     total energy              =    -489.56514351 Ry
     estimated scf accuracy    <       0.00000358 Ry

     iteration # 12     ecut=    30.00 Ry     beta= 0.70
     Davidson diagonalization with overlap

     ethr =  1.09E-08,  avg # of iterations =  5.0

     End of self-consistent calculation

          k = 0.0000 0.0000 0.0000 (   571 PWs)   bands (ev):

  -104.7864 -62.1913 -62.1840 -62.0557 -31.2192 -12.4995 -12.1543 -12.1532
    -0.3217   4.5634   4.5662   5.1388   5.3296   5.3354   8.9930   9.4612
     9.4618  10.5213  11.8777  13.2826  13.2958

     occupation numbers
     1.0000   1.0000   1.0000   1.0000   1.0000   1.0000   1.0000   1.0000
     1.0000   1.0000   1.0000   1.0000   1.0000   1.0000   1.0000   0.7670
     0.7330  -0.0000  -0.0000  -0.0000  -0.0000

     the Fermi energy is     9.4657 ev

!    total energy              =    -489.56514450 Ry
     estimated scf accuracy    <       0.00000100 Ry
     smearing contrib. (-TS)   =      -0.00041181 Ry
     internal energy E=F+TS    =    -489.56473270 Ry

     The total energy is F=E-TS. E is the sum of the following terms:
     one-electron contribution =    -416.10514918 Ry
     hartree contribution      =     218.86690999 Ry
     xc contribution           =     -56.89365423 Ry
     ewald contribution        =    -235.43283928 Ry

     convergence has been achieved in  12 iterations

     Forces acting on atoms (cartesian axes, Ry/au):

     atom    1 type  1   force =     0.00160033    0.00086754    0.00000000
     atom    2 type  2   force =    -0.00132171   -0.00435742    0.00000000
     atom    3 type  3   force =    -0.00027862    0.00348988    0.00000000
     The non-local contrib.  to forces
     atom    1 type  1   force =    -0.00016170   -0.00007365    0.00000000
     atom    2 type  2   force =    -0.01264053    0.03737867    0.00000000
     atom    3 type  3   force =    -0.00041866   -0.00156661    0.00000000
     The ionic contribution  to forces
     atom    1 type  1   force =     0.01081125   -0.00689404    0.00000000
     atom    2 type  2   force =    -0.00600029    0.03363635    0.00000000
     atom    3 type  3   force =    -0.00481096   -0.02674231   -0.00000000
     The local contribution  to forces
     atom    1 type  1   force =    -0.01047662    0.00711212   -0.00014460
     atom    2 type  2   force =     0.02148869   -0.07303869    0.00012259
     atom    3 type  3   force =     0.00323849    0.03077197    0.00007770
     The core correction contribution to forces
     atom    1 type  1   force =     0.00002184   -0.00000066   -0.00000125
     atom    2 type  2   force =     0.00002801   -0.00008594   -0.00000037
     atom    3 type  3   force =     0.00003557    0.00019412    0.00000265
     The Hubbard contrib.    to forces
     atom    1 type  1   force =     0.00000000    0.00000000    0.00000000
     atom    2 type  2   force =     0.00000000    0.00000000    0.00000000
     atom    3 type  3   force =     0.00000000    0.00000000    0.00000000
     The SCF correction term to forces
     atom    1 type  1   force =     0.00004974    0.00007323    0.00012785
     atom    2 type  2   force =    -0.00555341   -0.00289835   -0.00011886
     atom    3 type  3   force =     0.00032113    0.00018217   -0.00004104

     Total force =     0.006025     Total SCF correction =     0.006278
     SCF correction compared to forces is large: reduce conv_thr to get better values

     Computing stress (Cartesian axis) and pressure

          total   stress  (Ry/bohr**3)                   (kbar)     P=     -102.34
  -0.00103135  -0.00000911   0.00000000         -151.72       -1.34        0.00
  -0.00000911  -0.00112658   0.00000000           -1.34     -165.73        0.00
   0.00000000   0.00000000   0.00007075            0.00        0.00       10.41

     kinetic stress (kbar)  15905.64     -3.02      0.00
                               -3.02  15886.22      0.00
                                0.00      0.00  16154.30

     local   stress (kbar) -20246.76    -15.07      0.01
                              -15.07 -20182.40     -0.16
                                0.01     -0.16 -12263.70

     nonloc. stress (kbar)   9632.18     -1.37      0.00
                               -1.37   9622.48      0.00
                                0.00      0.00   9664.64

     hartree stress (kbar)  27256.17      5.67     -0.01
                                5.67  27234.67      0.08
                               -0.01      0.08  24970.99

     exc-cor stress (kbar)  -4089.70     -0.03     -0.00
                               -0.03  -4090.03      0.00
                               -0.00      0.00  -4100.33

     corecor stress (kbar)  -2061.81      0.08     -0.00
                                0.08  -2061.24     -0.00
                               -0.00     -0.00  -2062.12

     ewald   stress (kbar) -26547.43     12.40     -0.00
                               12.40 -26575.44     -0.00
                               -0.00     -0.00 -32353.38

     hubbard stress (kbar)      0.00      0.00      0.00
                                0.00      0.00      0.00
                                0.00      0.00      0.00

     DFT-D   stress (kbar)      0.00      0.00      0.00
                                0.00      0.00      0.00
                                0.00      0.00      0.00

     XDM     stress (kbar)      0.00      0.00      0.00
                                0.00      0.00      0.00
                                0.00      0.00      0.00

     dft-nl  stress (kbar)      0.00      0.00      0.00
                                0.00      0.00      0.00
                                0.00      0.00      0.00

     TS-vdW  stress (kbar)      0.00      0.00      0.00
                                0.00      0.00      0.00
                                0.00      0.00      0.00

[...]

                                0.00      0.00      0.00

     Writing all to output data dir new_calculations/myprefix.save/

     General routines

     Parallel routines

   This run was terminated on:  13:44:40  20May2023

   JOB DONE.