     Program PWSCF v.7.0 starts on 21May2023 at 17:19:43

     Reading input from espresso_20747.pwi
Warning: card &CELL ignored
Warning: card / ignored

     Current dimensions of program PWSCF are:
     Max number of different atomic species (ntypx) = 10
     Max number of k-points (npk) =  40000
     Max angular momentum in pseudopotentials (lmaxx) =  4

     gamma-point specific algorithms are used
     Message from routine setup:
     using ibrav=0 with symmetry is DISCOURAGED, use correct ibrav instead

     Subspace diagonalization in iterative solution of the eigenvalue problem:
     a serial algorithm will be used

     Using Slab Decomposition

     bravais-lattice index     =            0
     lattice parameter (alat)  =      10.5518  a.u.
     unit-cell volume          =    1585.4599 (a.u.)^3
     number of atoms/cell      =           19
     number of atomic types    =            3
     number of electrons       =       153.00
     number of Kohn-Sham states=           92
     kinetic-energy cutoff     =      30.0000  Ry
     charge density cutoff     =     240.0000  Ry
     scf convergence threshold =      1.0E-06
     mixing beta               =       0.7000
     number of iterations used =            8  plain     mixing
     Exchange-correlation= PBE
                           (   1   4   3   4   0   0   0)

     celldm(1)=  10.551841  celldm(2)=   0.000000  celldm(3)=   0.000000
     celldm(4)=   0.000000  celldm(5)=   0.000000  celldm(6)=   0.000000

     crystal axes: (cart. coord. in units of alat)
               a(1) = (   1.000000   0.000000   0.000000 )
               a(2) = (   0.674315   0.738444   0.000000 )
               a(3) = (   0.001828   0.000806   1.827483 )

     reciprocal axes: (cart. coord. in units 2 pi/alat)
               b(1) = (  1.000000 -0.913158 -0.000597 )
               b(2) = (  0.000000  1.354200 -0.000597 )
               b(3) = (  0.000000  0.000000  0.547201 )

     PseudoPot. # 1 for Zr read from file:
     /home/pragov/projects/rrg-bengioy-ad/pragov/crystal_structure_design/SSSP/Zr_pbe_v1.uspp.F.UPF
     MD5 check sum: 5db81b1e868ab7776c4564c113de050b
     Pseudo is Ultrasoft + core correction, Zval = 12.0
     Generated by new atomic code, or converted to UPF format
     Using radial grid of  887 points,  6 beta functions with:
                l(1) =   0
                l(2) =   0
                l(3) =   1
                l(4) =   1
                l(5) =   2
                l(6) =   2
     Q(r) pseudized with  6 coefficients,  rinner =    1.200   1.200   1.200
                                                       1.200   1.200

     PseudoPot. # 2 for Sc read from file:
     /home/pragov/projects/rrg-bengioy-ad/pragov/crystal_structure_design/SSSP/Sc_ONCV_PBE-1.0.oncvpsp.upf
     MD5 check sum: e21af8023abb52e52cb7cd3133e4a229
     Pseudo is Norm-conserving, Zval = 11.0
     Generated using ONCVPSP code by D. R. Hamann
     Using radial grid of 1662 points,  6 beta functions with:
                l(1) =   0
                l(2) =   0
                l(3) =   1
                l(4) =   1
                l(5) =   2
                l(6) =   2

     PseudoPot. # 3 for N  read from file:
     /home/pragov/projects/rrg-bengioy-ad/pragov/crystal_structure_design/SSSP/N.pbe-n-radius_5.UPF
     MD5 check sum: 16739722b17309cd8fe442a2ace49922
     Pseudo is Ultrasoft + core correction, Zval =  5.0
     Generated using "atomic" code by A. Dal Corso  v.5.1
     Using radial grid of 1085 points,  4 beta functions with:
                l(1) =   0
                l(2) =   0
                l(3) =   1
                l(4) =   1
     Q(r) pseudized with 0 coefficients

     atomic species   valence    mass     pseudopotential
        Zr            12.00    91.22400     Zr( 1.00)
        Sc            11.00    44.95591     Sc( 1.00)
        N              5.00    14.00700     N ( 1.00)

      2 Sym. Ops., with inversion, found

                                    s                        frac. trans.

      isym =  1     identity

 cryst.   s( 1) = (     1          0          0      )
                  (     0          1          0      )
                  (     0          0          1      )

 cart.    s( 1) = (  1.0000000 -0.0000000  0.0000000 )
                  (  0.0000000  1.0000000 -0.0000000 )
                  (  0.0000000  0.0000000  1.0000000 )

      isym =  2     inversion

 cryst.   s( 2) = (    -1          0          0      )
                  (     0         -1          0      )
                  (     0          0         -1      )

 cart.    s( 2) = ( -1.0000000  0.0000000 -0.0000000 )
                  (  0.0000000 -1.0000000  0.0000000 )
                  (  0.0000000  0.0000000 -1.0000000 )

   Cartesian axes

     site n.     atom                  positions (alat units)
         1           Zr  tau(   1) = (   1.1703981   0.5161948   0.1772402  )
         2           Zr  tau(   2) = (   0.6795121   0.2996934   0.3577553  )
         3           Zr  tau(   3) = (   0.9966313   0.4395563   1.4697273  )
         4           Zr  tau(   4) = (   0.5057452   0.2230549   1.6502423  )
         5           Sc  tau(   5) = (   0.1664855   0.0734271   0.5456296  )
         6           Sc  tau(   6) = (   1.3422863   0.5920047   0.7375701  )
         7           Sc  tau(   7) = (   0.8380717   0.3696249   0.9137413  )
         8           Sc  tau(   8) = (   0.3338571   0.1472450   1.0899124  )
         9           Sc  tau(   9) = (   1.5096578   0.6658226   1.2818529  )
        10           N   tau(  10) = (   0.6727006   0.2966893   1.2830079  )
        11           N   tau(  11) = (   0.5036773   0.2221429   0.7312032  )
        12           N   tau(  12) = (   0.1795710   0.0791984   1.4401622  )
        13           N   tau(  13) = (   0.0009140   0.0004031   0.9137413  )
        14           N   tau(  14) = (   1.1724660   0.5171069   1.0962794  )
        15           N   tau(  15) = (   1.4965724   0.6600514   0.3873203  )
        16           N   tau(  16) = (   1.0034428   0.4425605   0.5444747  )
        17           N   tau(  17) = (   1.3180228   0.5813035   1.6370424  )
        18           N   tau(  18) = (   0.8371577   0.3692218   0.0000000  )
        19           N   tau(  19) = (   0.3581206   0.1579463   0.1904401  )

   Crystallographic axes

     site n.     atom                  positions (cryst. coord.)
         1           Zr  tau(   1) = (  0.6989250  0.6989250  0.0969860  )
         2           Zr  tau(   2) = (  0.4056310  0.4056310  0.1957640  )
         3           Zr  tau(   3) = (  0.5943690  0.5943690  0.8042360  )
         4           Zr  tau(   4) = (  0.3010750  0.3010750  0.9030140  )
         5           Sc  tau(   5) = (  0.0991090  0.0991090  0.2985690  )
         6           Sc  tau(   6) = (  0.8012520  0.8012520  0.4035990  )
         7           Sc  tau(   7) = (  0.5000000  0.5000000  0.5000000  )
         8           Sc  tau(   8) = (  0.1987480  0.1987480  0.5964010  )
         9           Sc  tau(   9) = (  0.9008910  0.9008910  0.7014310  )
        10           N   tau(  10) = (  0.4010100  0.4010100  0.7020630  )
        11           N   tau(  11) = (  0.3003890  0.3003890  0.4001150  )
        12           N   tau(  12) = (  0.1063900  0.1063900  0.7880580  )
        13           N   tau(  13) = ( -0.0000000  0.0000000  0.5000000  )
        14           N   tau(  14) = (  0.6996110  0.6996110  0.5998850  )
        15           N   tau(  15) = (  0.8936100  0.8936100  0.2119420  )
        16           N   tau(  16) = (  0.5989900  0.5989900  0.2979370  )
        17           N   tau(  17) = (  0.7862230  0.7862230  0.8957910  )
        18           N   tau(  18) = (  0.5000000  0.5000000  0.0000000  )
        19           N   tau(  19) = (  0.2137770  0.2137770  0.1042090  )

     number of k points=     1  Methfessel-Paxton smearing, width (Ry)=  0.0010
                       cart. coord. in units 2pi/alat
        k(    1) = (   0.0000000   0.0000000   0.0000000), wk =   2.0000000

                       cryst. coord.
        k(    1) = (   0.0000000   0.0000000   0.0000000), wk =   2.0000000

     Check: negative core charge=   -0.000004

     Initial potential from superposition of free atoms

     starting charge     152.9781, renormalised to     153.0000

     negative rho (up, down):  2.429E-01 0.000E+00
     Starting wfcs are  142 randomized atomic wfcs

     Self-consistent Calculation

     iteration #  1     ecut=    30.00 Ry     beta= 0.70
     Davidson diagonalization with overlap

     ethr =  1.00E-02,  avg # of iterations =  2.0

     negative rho (up, down):  2.557E-01 0.000E+00

     total energy              =   -1054.28007675 Ry
     estimated scf accuracy    <       8.56470713 Ry

[...]

     ethr =  5.95E-07,  avg # of iterations =  7.0
     Minimization algorithm failed to find Fermi energy: reverting to bisection
     Possible cause: smearing is larger than the electronic band-gap.

[...]

     ethr =  1.64E-08,  avg # of iterations =  2.0
     Minimization algorithm failed to find Fermi energy: reverting to bisection
     Possible cause: smearing is larger than the electronic band-gap.

[...]

     total energy              =   -1058.80606391 Ry
     estimated scf accuracy    <       0.00000339 Ry

     iteration # 25     ecut=    30.00 Ry     beta= 0.70
     Davidson diagonalization with overlap

     ethr =  8.48E-10,  avg # of iterations =  2.0

[...]

     End of self-consistent calculation

          k = 0.0000 0.0000 0.0000 (  2212 PWs)   bands (ev):

   -35.9539 -35.9045 -35.8956 -35.7516 -35.7288 -35.7221 -35.6935 -35.6503
   -35.6342 -14.7541 -14.7189 -14.6960 -14.6407 -14.6355 -14.6183 -14.5685
   -14.5539 -14.5355 -14.4367 -14.3964 -14.3728 -14.3354 -14.3075 -14.2451
   -14.0830 -14.0409 -14.0356 -13.9604 -13.8843 -13.8049 -13.7819 -13.6700
   -13.6376 -13.5449 -13.5365 -13.5246  -1.2672  -0.5504  -0.4407  -0.2075
    -0.1564   0.0589   0.1903   0.2358   0.2622   0.3776   8.7278   9.0827
     9.1980   9.3540   9.4154   9.6130   9.6565   9.7476   9.8106   9.8202
     9.9655  10.0278  10.0428  10.2865  10.2962  10.3098  10.3966  10.4019
    10.5968  10.7823  10.8678  11.0785  11.1476  11.3931  11.7626  11.9322
    11.9341  12.6843  12.7373  12.7419  12.7445  14.3950  14.6608  14.6900
    14.7344  15.0240  15.1802  15.5596  15.6516  15.6959  15.8300  15.9373
    16.4325  16.6710  16.6755  16.7834

     occupation numbers
     1.0000   1.0000   1.0000   1.0000   1.0000   1.0000   1.0000   1.0000
     1.0000   1.0000   1.0000   1.0000   1.0000   1.0000   1.0000   1.0000
     1.0000   1.0000   1.0000   1.0000   1.0000   1.0000   1.0000   1.0000
     1.0000   1.0000   1.0000   1.0000   1.0000   1.0000   1.0000   1.0000
     1.0000   1.0000   1.0000   1.0000   1.0000   1.0000   1.0000   1.0000
     1.0000   1.0000   1.0000   1.0000   1.0000   1.0000   1.0000   1.0000
     1.0000   1.0000   1.0000   1.0000   1.0000   1.0000   1.0000   1.0000
     1.0000   1.0000   1.0000   1.0000   1.0000   1.0000   1.0000   1.0000
     1.0000   1.0000   1.0000   1.0000   1.0000   1.0000   1.0000   1.0000
     1.0000   1.0000   0.9806   0.8289   0.6906  -0.0000  -0.0000  -0.0000
    -0.0000  -0.0000  -0.0000  -0.0000  -0.0000  -0.0000  -0.0000  -0.0000
    -0.0000  -0.0000  -0.0000  -0.0000

     the Fermi energy is    12.7477 ev

!    total energy              =   -1058.80606377 Ry
     estimated scf accuracy    <       0.00000062 Ry
     smearing contrib. (-TS)   =      -0.00035983 Ry
     internal energy E=F+TS    =   -1058.80570394 Ry

     The total energy is F=E-TS. E is the sum of the following terms:
     one-electron contribution =    -199.35297357 Ry
     hartree contribution      =     176.74650158 Ry
     xc contribution           =    -185.90351205 Ry
     ewald contribution        =    -850.29571990 Ry

     convergence has been achieved in  25 iterations

     negative rho (up, down):  2.632E-01 0.000E+00

     Forces acting on atoms (cartesian axes, Ry/au):

     atom    1 type  1   force =    -0.06125115   -0.02701456   -0.02778981
     atom    2 type  1   force =     0.02005329    0.00884388   -0.09069787
     atom    3 type  1   force =    -0.02005329   -0.00884388    0.09069787
     atom    4 type  1   force =     0.06125115    0.02701456    0.02778981
     atom    5 type  2   force =     0.01136462    0.00501257    0.01182208
     atom    6 type  2   force =     0.02608212    0.01150345   -0.00737682
     atom    7 type  2   force =     0.00000000    0.00000000    0.00000000
     atom    8 type  2   force =    -0.02608212   -0.01150345    0.00737682
     atom    9 type  2   force =    -0.01136462   -0.00501257   -0.01182208
     atom   10 type  3   force =     0.02604484    0.01148654    0.01956806
     atom   11 type  3   force =    -0.00356087   -0.00156942    0.00256923
     atom   12 type  3   force =     0.06161085    0.02717321   -0.08984353
     atom   13 type  3   force =     0.00000000    0.00000000    0.00000000
     atom   14 type  3   force =     0.00356087    0.00156942   -0.00256923
     atom   15 type  3   force =    -0.06161085   -0.02717321    0.08984353
     atom   16 type  3   force =    -0.02604484   -0.01148654   -0.01956806
     atom   17 type  3   force =    -0.12541859   -0.05531456   -0.02666783
     atom   18 type  3   force =     0.00000000    0.00000000    0.00000000
     atom   19 type  3   force =     0.12541859    0.05531456    0.02666783
     The non-local contrib.  to forces
     atom    1 type  1   force =     0.08425421    0.03716002    0.03809167
     atom    2 type  1   force =    -0.05783450   -0.02550774    0.08990864
     atom    3 type  1   force =     0.05783450    0.02550774   -0.08990864
     atom    4 type  1   force =    -0.08425421   -0.03716002   -0.03809167
     atom    5 type  2   force =     0.00852645    0.00376043   -0.01219910
     atom    6 type  2   force =    -0.02081423   -0.00917953    0.00700332
     atom    7 type  2   force =     0.00000000    0.00000000    0.00000000
     atom    8 type  2   force =     0.02081423    0.00917953   -0.00700332
     atom    9 type  2   force =    -0.00852645   -0.00376043    0.01219910
     atom   10 type  3   force =     0.03173370    0.01399175    0.07756417
     atom   11 type  3   force =     0.02056410    0.00907504    0.00304101
     atom   12 type  3   force =    -0.02039042   -0.00899267    0.03016790
     atom   13 type  3   force =     0.00000000    0.00000000    0.00000000
     atom   14 type  3   force =    -0.02056410   -0.00907504   -0.00304101
     atom   15 type  3   force =     0.02039042    0.00899267   -0.03016790
     atom   16 type  3   force =    -0.03173370   -0.01399175   -0.07756417
     atom   17 type  3   force =    -0.10354498   -0.04566935   -0.00527283
     atom   18 type  3   force =     0.00000000    0.00000000    0.00000000
     atom   19 type  3   force =     0.10354498    0.04566935    0.00527283
     The ionic contribution  to forces
     atom    1 type  1   force =    -1.06705142   -0.47061458   -5.09848234
     atom    2 type  1   force =     1.89325091    0.83500332   -8.02871456
     atom    3 type  1   force =    -1.89325091   -0.83500332    8.02871456
     atom    4 type  1   force =     1.06705142    0.47061458    5.09848234
     atom    5 type  2   force =    -0.64464973   -0.28431766   -6.82467891
     atom    6 type  2   force =    -0.40348292   -0.17795295   -2.25136305
     atom    7 type  2   force =    -0.00000000   -0.00000000   -0.00000000
     atom    8 type  2   force =     0.40348292    0.17795295    2.25136306
     atom    9 type  2   force =     0.64464973    0.28431766    6.82467891
     atom   10 type  3   force =    -0.25125885   -0.11081573    1.93957168
     atom   11 type  3   force =    -0.07712534   -0.03401552   -1.32754477
     atom   12 type  3   force =    -1.81216745   -0.79924211    5.74282608
     atom   13 type  3   force =    -0.00000000   -0.00000000    0.00000000
     atom   14 type  3   force =     0.07712535    0.03401552    1.32754477
     atom   15 type  3   force =     1.81216745    0.79924211   -5.74282608
     atom   16 type  3   force =     0.25125885    0.11081573   -1.93957167
     atom   17 type  3   force =     3.48255669    1.53595405    2.92131449
     atom   18 type  3   force =    -0.00000000   -0.00000000   -0.00000000
     atom   19 type  3   force =    -3.48255669   -1.53595405   -2.92131449
     The local contribution  to forces
     atom    1 type  1   force =     0.92714974    0.40890899    5.03411542
     atom    2 type  1   force =    -1.81969057   -0.80256365    7.85262133
     atom    3 type  1   force =     1.81997283    0.80268521   -7.85254168
     atom    4 type  1   force =    -0.92724073   -0.40895471   -5.03447260
     atom    5 type  2   force =     0.64721360    0.28544299    6.84827892
     atom    6 type  2   force =     0.45042263    0.19865842    2.23672982
     atom    7 type  2   force =     0.00007749    0.00003621   -0.00001200
     atom    8 type  2   force =    -0.45051325   -0.19869751   -2.23652929
     atom    9 type  2   force =    -0.64731952   -0.28550056   -6.84792651
     atom   10 type  3   force =     0.24581368    0.10841937   -1.99698082
     atom   11 type  3   force =     0.05323235    0.02346824    1.32691050
     atom   12 type  3   force =     1.89360835    0.83515623   -5.86181865
     atom   13 type  3   force =     0.00000757    0.00000725   -0.00005545
     atom   14 type  3   force =    -0.05329117   -0.02350526   -1.32690857
     atom   15 type  3   force =    -1.89354217   -0.83513367    5.86194621
     atom   16 type  3   force =    -0.24582458   -0.10842098    1.99704176
     atom   17 type  3   force =    -3.50450828   -1.54563029   -2.94270407
     atom   18 type  3   force =     0.00000037    0.00000162   -0.00002494
     atom   19 type  3   force =     3.50458379    1.54566985    2.94265556
     The core correction contribution to forces
     atom    1 type  1   force =    -0.00558484   -0.00246329   -0.00179710
     atom    2 type  1   force =     0.00453751    0.00200120   -0.00466162
     atom    3 type  1   force =    -0.00453620   -0.00200065    0.00466243
     atom    4 type  1   force =     0.00558248    0.00246204    0.00179547
     atom    5 type  2   force =     0.00000000    0.00000000    0.00000000
     atom    6 type  2   force =     0.00000000    0.00000000    0.00000000
     atom    7 type  2   force =     0.00000000    0.00000000    0.00000000
     atom    8 type  2   force =     0.00000000    0.00000000    0.00000000
     atom    9 type  2   force =     0.00000000    0.00000000    0.00000000
     atom   10 type  3   force =    -0.00008755   -0.00003855   -0.00042488
     atom   11 type  3   force =    -0.00016124   -0.00007118   -0.00001997
     atom   12 type  3   force =     0.00047498    0.00020946   -0.00072025
     atom   13 type  3   force =    -0.00000007    0.00000007    0.00000004
     atom   14 type  3   force =     0.00016107    0.00007106    0.00001999
     atom   15 type  3   force =    -0.00047516   -0.00020957    0.00072048
     atom   16 type  3   force =     0.00008763    0.00003861    0.00042467
     atom   17 type  3   force =     0.00020372    0.00008988   -0.00002822
     atom   18 type  3   force =     0.00000018    0.00000009    0.00000000
     atom   19 type  3   force =    -0.00020359   -0.00008979    0.00002831
     The Hubbard contrib.    to forces
     atom    1 type  1   force =     0.00000000    0.00000000    0.00000000
     atom    2 type  1   force =     0.00000000    0.00000000    0.00000000
     atom    3 type  1   force =     0.00000000    0.00000000    0.00000000
     atom    4 type  1   force =     0.00000000    0.00000000    0.00000000
     atom    5 type  2   force =     0.00000000    0.00000000    0.00000000
     atom    6 type  2   force =     0.00000000    0.00000000    0.00000000
     atom    7 type  2   force =     0.00000000    0.00000000    0.00000000
     atom    8 type  2   force =     0.00000000    0.00000000    0.00000000
     atom    9 type  2   force =     0.00000000    0.00000000    0.00000000
     atom   10 type  3   force =     0.00000000    0.00000000    0.00000000
     atom   11 type  3   force =     0.00000000    0.00000000    0.00000000
     atom   12 type  3   force =     0.00000000    0.00000000    0.00000000
     atom   13 type  3   force =     0.00000000    0.00000000    0.00000000
     atom   14 type  3   force =     0.00000000    0.00000000    0.00000000
     atom   15 type  3   force =     0.00000000    0.00000000    0.00000000
     atom   16 type  3   force =     0.00000000    0.00000000    0.00000000
     atom   17 type  3   force =     0.00000000    0.00000000    0.00000000
     atom   18 type  3   force =     0.00000000    0.00000000    0.00000000
     atom   19 type  3   force =     0.00000000    0.00000000    0.00000000
     The SCF correction term to forces
     atom    1 type  1   force =    -0.00005190   -0.00002104    0.00026567
     atom    2 type  1   force =    -0.00019195   -0.00008267    0.00015018
     atom    3 type  1   force =    -0.00005542   -0.00002627   -0.00022696
     atom    4 type  1   force =     0.00007912    0.00003732    0.00005939
     atom    5 type  2   force =     0.00028164    0.00012841    0.00043772
     atom    6 type  2   force =    -0.00005420   -0.00003032    0.00026743
     atom    7 type  2   force =    -0.00007241   -0.00003403   -0.00000503
     atom    8 type  2   force =     0.00012314    0.00005376   -0.00043929
     atom    9 type  2   force =    -0.00016104   -0.00006763   -0.00075703
     atom   10 type  3   force =    -0.00015079   -0.00006595   -0.00016891
     atom   11 type  3   force =    -0.00008015   -0.00003270    0.00018858
     atom   12 type  3   force =     0.00008098    0.00003844   -0.00028012
     atom   13 type  3   force =    -0.00000957   -0.00000121    0.00006267
     atom   14 type  3   force =     0.00012032    0.00005643   -0.00017831
     atom   15 type  3   force =    -0.00015580   -0.00006861    0.00018931
     atom   16 type  3   force =     0.00017231    0.00007620    0.00009454
     atom   17 type  3   force =    -0.00010672   -0.00004873    0.00001906
     atom   18 type  3   force =     0.00001200    0.00000494    0.00002454
     atom   19 type  3   force =     0.00006912    0.00002932    0.00002187

     Total force =     0.311265     Total SCF correction =     0.001326

     Computing stress (Cartesian axis) and pressure

     negative rho (up, down):  2.632E-01 0.000E+00
          total   stress  (Ry/bohr**3)                   (kbar)     P=       12.78
  -0.00097328  -0.00182805  -0.00009316         -143.17     -268.92      -13.70
  -0.00182805   0.00236534  -0.00004108         -268.92      347.95       -6.04
  -0.00009316  -0.00004108  -0.00113140          -13.70       -6.04     -166.43

     kinetic stress (kbar)  23760.87    -42.87    -41.75
                              -42.87  23839.16    -18.41
                              -41.75    -18.41  23884.69

     local   stress (kbar)  -3618.21     56.66    -91.23
                               56.66  -3721.70    -40.23
                              -91.23    -40.23   -678.10

     nonloc. stress (kbar)   4840.79    -93.98     -1.64
                              -93.98   5012.44     -0.72
                               -1.64     -0.72   4750.21

     hartree stress (kbar)   5958.72    -31.76     20.74
                              -31.76   6016.71      9.15
                               20.74      9.15   4423.79

     exc-cor stress (kbar)  -2487.75      4.95     -0.33
                                4.95  -2496.79     -0.15
                               -0.33     -0.15  -2483.71

     corecor stress (kbar)  -2689.29      1.44      0.40
                                1.44  -2691.92      0.17
                                0.40      0.17  -2687.85

     ewald   stress (kbar) -25908.30   -163.36    100.11
                             -163.36 -25609.95     44.15
                              100.11     44.15 -27375.46

     hubbard stress (kbar)      0.00      0.00      0.00
                                0.00      0.00      0.00
                                0.00      0.00      0.00

     DFT-D   stress (kbar)      0.00      0.00      0.00
                                0.00      0.00      0.00
                                0.00      0.00      0.00

     XDM     stress (kbar)      0.00      0.00      0.00
                                0.00      0.00      0.00
                                0.00      0.00      0.00

     dft-nl  stress (kbar)      0.00      0.00      0.00
                                0.00      0.00      0.00
                                0.00      0.00      0.00

     TS-vdW  stress (kbar)      0.00      0.00      0.00
                                0.00      0.00      0.00
                                0.00      0.00      0.00

[...]

                                0.00      0.00      0.00

     Writing all to output data dir new_calculations/myprefix.save/

     General routines

     Parallel routines

   This run was terminated on:  17:20:47  21May2023

   JOB DONE.