     Program PWSCF v.7.0 starts on 20May2023 at 11:51: 1

     Reading input from espresso_6294.pwi
Warning: card &CELL ignored
Warning: card / ignored

     Current dimensions of program PWSCF are:
     Max number of different atomic species (ntypx) = 10
     Max number of k-points (npk) =  40000
     Max angular momentum in pseudopotentials (lmaxx) =  4
     file Mg.pbe-n-kjpaw_psl.0.3.0.UPF: wavefunction(s)  3S renormalized

     gamma-point specific algorithms are used
     Message from routine setup:
     using ibrav=0 with symmetry is DISCOURAGED, use correct ibrav instead

     Subspace diagonalization in iterative solution of the eigenvalue problem:
     a serial algorithm will be used

     Using Slab Decomposition

     bravais-lattice index     =            0
     lattice parameter (alat)  =       5.9381  a.u.
     unit-cell volume          =     985.9282 (a.u.)^3
     number of atoms/cell      =            6
     number of atomic types    =            2
     number of electrons       =        32.00
     number of Kohn-Sham states=           20
     kinetic-energy cutoff     =      30.0000  Ry
     charge density cutoff     =     240.0000  Ry
     scf convergence threshold =      1.0E-06
     mixing beta               =       0.7000
     number of iterations used =            8  plain     mixing
     Exchange-correlation= SLA  PW   PBX  PBC
                           (   1   4   3   4   0   0   0)

     celldm(1)=   5.938096  celldm(2)=   0.000000  celldm(3)=   0.000000
     celldm(4)=   0.000000  celldm(5)=   0.000000  celldm(6)=   0.000000

     crystal axes: (cart. coord. in units of alat)
               a(1) = (   1.000000   0.000000   0.000000 )
               a(2) = (  -0.500000   0.866026   0.000000 )
               a(3) = (   0.000000   0.000000   5.437169 )

     reciprocal axes: (cart. coord. in units 2 pi/alat)
               b(1) = (  1.000000  0.577350  0.000000 )
               b(2) = (  0.000000  1.154700  0.000000 )
               b(3) = (  0.000000  0.000000  0.183919 )

     PseudoPot. # 1 for Ce read from file:
     /home/pragov/projects/rrg-bengioy-ad/pragov/crystal_structure_design/SSSP/Ce.GGA-PBE-paw-v1.0.UPF
     MD5 check sum: f2b950f613061344c13339c8d844425d
     Pseudo is Projector augmented-wave + core cor, Zval = 12.0
     Generated using ATOMPAW code
     Shape of augmentation charge: BESSEL
     Using radial grid of 1102 points,  8 beta functions with:
                l(1) =   0
                l(2) =   0
                l(3) =   1
                l(4) =   1
                l(5) =   2
                l(6) =   2
                l(7) =   3
                l(8) =   3
     Q(r) pseudized with 0 coefficients

     PseudoPot. # 2 for Mg read from file:
     /home/pragov/projects/rrg-bengioy-ad/pragov/crystal_structure_design/SSSP/Mg.pbe-n-kjpaw_psl.0.3.0.UPF
     MD5 check sum: 24ecedc7f3e3cbe212e682f4413594e4
     Pseudo is Projector augmented-wave + core cor, Zval =  2.0
     Generated using "atomic" code by A. Dal Corso  v.5.0.99 svn rev. 10869
     Shape of augmentation charge: PSQ
     Using radial grid of 1129 points,  4 beta functions with:
                l(1) =   0
                l(2) =   0
                l(3) =   1
                l(4) =   1
     Q(r) pseudized with 0 coefficients

     atomic species   valence    mass     pseudopotential
        Ce            12.00   140.11600     Ce( 1.00)
        Mg             2.00    24.30500     Mg( 1.00)

     12 Sym. Ops. (no inversion) found

                                    s                        frac. trans.

      isym =  1     identity

 cryst.   s( 1) = (     1          0          0      )
                  (     0          1          0      )
                  (     0          0          1      )

 cart.    s( 1) = (  1.0000000  0.0000000  0.0000000 )
                  (  0.0000000  1.0000000  0.0000000 )
                  (  0.0000000  0.0000000  1.0000000 )

      isym =  2     180 deg rotation - cart. axis [0,1,0]

[...]

      isym =  3     120 deg rotation - cryst. axis [0,0,1]

[...]

      isym =  6     180 deg rotation - cryst. axis [2,1,0]

[...]

      isym =  7     inv. 180 deg rotation - cart. axis [0,0,1]

[...]

      isym =  8     inv. 180 deg rotation - cart. axis [1,0,0]

[...]

      isym =  9     inv.  60 deg rotation - cryst. axis [0,0,1]

 cryst.   s( 9) = (    -1         -1          0      )
                  (     1          0          0      )
                  (     0          0         -1      )

 cart.    s( 9) = ( -0.5000002  0.8660253  0.0000000 )
                  ( -0.8660255 -0.4999998  0.0000000 )
                  (  0.0000000  0.0000000 -1.0000000 )

[...]

 cryst.   s(10) = (     0          1          0      )
                  (    -1         -1          0      )
                  (     0          0         -1      )

 cart.    s(10) = ( -0.4999998 -0.8660253  0.0000000 )
                  (  0.8660255 -0.5000002  0.0000000 )
                  (  0.0000000  0.0000000 -1.0000000 )

[...]

      isym = 12     inv. 180 deg rotation - cryst. axis [1,1,0]

 cryst.   s(12) = (     0         -1          0      )
                  (    -1          0          0      )
                  (     0          0          1      )

 cart.    s(12) = (  0.4999998 -0.8660255  0.0000000 )
                  ( -0.8660255 -0.4999998  0.0000000 )
                  (  0.0000000  0.0000000  1.0000000 )

   Cartesian axes

     site n.     atom                  positions (alat units)
         1           Ce  tau(   1) = (   0.0000000   0.0000000   0.9399289  )
         2           Ce  tau(   2) = (   0.0000000   0.0000000   4.4972404  )
         3           Mg  tau(   3) = (   0.0000000   0.0000000   2.7185847  )
         4           Mg  tau(   4) = (   0.5000006   0.2886749   1.8697882  )
         5           Mg  tau(   5) = (   0.5000006   0.2886749   0.0000000  )
         6           Mg  tau(   6) = (   0.5000006   0.2886749   3.5673812  )

   Crystallographic axes

     site n.     atom                  positions (cryst. coord.)
         1           Ce  tau(   1) = (  0.0000000  0.0000000  0.1728710  )
         2           Ce  tau(   2) = (  0.0000000  0.0000000  0.8271290  )
         3           Mg  tau(   3) = (  0.0000000  0.0000000  0.5000000  )
         4           Mg  tau(   4) = (  0.6666670  0.3333330  0.3438900  )
         5           Mg  tau(   5) = (  0.6666670  0.3333330  0.0000000  )
         6           Mg  tau(   6) = (  0.6666670  0.3333330  0.6561100  )

     number of k points=     1  Methfessel-Paxton smearing, width (Ry)=  0.0010
                       cart. coord. in units 2pi/alat
        k(    1) = (   0.0000000   0.0000000   0.0000000), wk =   2.0000000

                       cryst. coord.
        k(    1) = (   0.0000000   0.0000000   0.0000000), wk =   2.0000000

     Initial potential from superposition of free atoms

     starting charge      31.9823, renormalised to      32.0000
     Starting wfcs are   80 randomized atomic wfcs
     Checking if some PAW data can be deallocated...

     Self-consistent Calculation

     iteration #  1     ecut=    30.00 Ry     beta= 0.70
     Davidson diagonalization with overlap

     ethr =  1.00E-02,  avg # of iterations =  2.0

     total energy              =   -1099.09824734 Ry
     estimated scf accuracy    <       0.35744552 Ry

[...]

     negative rho (up, down):  2.089E-04 0.000E+00

[...]

     c_bands:  4 eigenvalues not converged
     ethr =  1.12E-03,  avg # of iterations = 20.0

[...]

     total energy              =   -1099.38846772 Ry
     estimated scf accuracy    <       0.00001083 Ry

     iteration # 89     ecut=    30.00 Ry     beta= 0.70
     Davidson diagonalization with overlap

     ethr =  1.51E-08,  avg # of iterations =  1.0

     End of self-consistent calculation

          k = 0.0000 0.0000 0.0000 (  1349 PWs)   bands (ev):

   -27.3881 -27.3880 -10.3658 -10.3570  -8.1547  -8.1547  -8.1547  -8.1546
     2.0281   2.7386   2.8961   4.7016   5.3580   6.0874   6.6822   7.4699
     7.4716   7.4759   7.6042   7.7772

     occupation numbers
     1.0000   1.0000   1.0000   1.0000   1.0000   1.0000   1.0000   1.0000
     1.0000   1.0000   1.0000   1.0000   1.0000   1.0000   1.0000   0.4796
     0.3706   0.1498  -0.0000  -0.0000

     the Fermi energy is     7.4695 ev

!    total energy              =   -1099.38846770 Ry

     total all-electron energy =     -2567.605303 Ry
     estimated scf accuracy    <       0.00000012 Ry
     smearing contrib. (-TS)   =      -0.00067284 Ry
     internal energy E=F+TS    =   -1099.38779486 Ry

     The total energy is F=E-TS. E is the sum of the following terms:
     one-electron contribution =    -172.83736330 Ry
     hartree contribution      =     101.55880207 Ry
     xc contribution           =     -27.38579223 Ry
     ewald contribution        =     -58.76637315 Ry
     one-center paw contrib.   =    -941.95706825 Ry
      -> PAW hartree energy AE =      94.54755592 Ry
      -> PAW hartree energy PS =     -94.12148244 Ry
      -> PAW xc energy AE      =    -965.37159616 Ry
      -> PAW xc energy PS      =      22.98845444 Ry
      -> total E_H with PAW    =     101.98487555 Ry
      -> total E_XC with PAW   =    -969.76893396 Ry

     convergence has been achieved in  89 iterations

     Forces acting on atoms (cartesian axes, Ry/au):

     atom    1 type  1   force =     0.00000000   -0.00000000   -0.00093634
     atom    2 type  1   force =     0.00000000   -0.00000000    0.00093634
     atom    3 type  2   force =    -0.00000000   -0.00000000    0.00000000
     atom    4 type  2   force =     0.00000000    0.00000000    0.04311873
     atom    5 type  2   force =     0.00000000   -0.00000000    0.00000000
     atom    6 type  2   force =     0.00000000    0.00000000   -0.04311873
     The non-local contrib.  to forces
     atom    1 type  1   force =     0.00000000    0.00000000    0.00145533
     atom    2 type  1   force =     0.00000000    0.00000000   -0.00145533
     atom    3 type  2   force =    -0.00000000   -0.00000000    0.00000000
     atom    4 type  2   force =     0.00000000    0.00000000    0.05448819
     atom    5 type  2   force =     0.00000000    0.00000000    0.00000000
     atom    6 type  2   force =    -0.00000000   -0.00000000   -0.05448819
     The ionic contribution  to forces
     atom    1 type  1   force =     0.00000018   -0.00000010   14.50240422
     atom    2 type  1   force =     0.00000018   -0.00000010  -14.50240422
     atom    3 type  2   force =     0.00000005   -0.00000003    0.00000000
     atom    4 type  2   force =    -0.00000012    0.00000007    4.90664199
     atom    5 type  2   force =    -0.00000017    0.00000010   -0.00000000
     atom    6 type  2   force =    -0.00000012    0.00000007   -4.90664199
     The local contribution  to forces
     atom    1 type  1   force =     0.00000191    0.00008874  -14.50460748
     atom    2 type  1   force =    -0.00013305    0.00014944   14.50514845
     atom    3 type  2   force =    -0.00000006    0.00000004   -0.00010047
     atom    4 type  2   force =    -0.00000073   -0.00000007   -4.91289546
     atom    5 type  2   force =     0.00000080    0.00000024    0.00019561
     atom    6 type  2   force =    -0.00000043    0.00000111    4.91269982
     The core correction contribution to forces
     atom    1 type  1   force =    -0.00000002    0.00000008    0.00001317
     atom    2 type  1   force =    -0.00000009    0.00000011   -0.00001314
     atom    3 type  2   force =    -0.00000001    0.00000000    0.00000043
     atom    4 type  2   force =    -0.00000008    0.00000001   -0.00519482
     atom    5 type  2   force =     0.00000006    0.00000002    0.00000020
     atom    6 type  2   force =    -0.00000006    0.00000013    0.00519564
     The Hubbard contrib.    to forces
     atom    1 type  1   force =     0.00000000    0.00000000    0.00000000
     atom    2 type  1   force =     0.00000000    0.00000000    0.00000000
     atom    3 type  2   force =     0.00000000    0.00000000    0.00000000
     atom    4 type  2   force =     0.00000000    0.00000000    0.00000000
     atom    5 type  2   force =     0.00000000    0.00000000    0.00000000
     atom    6 type  2   force =     0.00000000    0.00000000    0.00000000
     The SCF correction term to forces
     atom    1 type  1   force =    -0.00002286   -0.00000055   -0.00019340
     atom    2 type  1   force =     0.00002488    0.00000397   -0.00033127
     atom    3 type  2   force =    -0.00000000    0.00000000    0.00010216
     atom    4 type  2   force =     0.00000012    0.00000000    0.00008104
     atom    5 type  2   force =    -0.00000006    0.00000008   -0.00019173
     atom    6 type  2   force =    -0.00000003   -0.00000000    0.00011821

     Total force =     0.060993     Total SCF correction =     0.000465

     Computing stress (Cartesian axis) and pressure

          total   stress  (Ry/bohr**3)                   (kbar)     P=      266.63
   0.00187877  -0.00000000   0.00000000          276.38       -0.00        0.00
  -0.00000000   0.00187877   0.00000000           -0.00      276.38        0.00
   0.00000000   0.00000000   0.00168003            0.00        0.00      247.14

     kinetic stress (kbar)   4785.98     -0.00      0.00
                               -0.00   4785.98      0.00
                                0.00      0.00   4529.04

     local   stress (kbar) -28948.76      0.01      0.07
                                0.01 -28948.76     -0.02
                                0.07     -0.02  27901.33

     nonloc. stress (kbar)   4519.70     -0.00      0.00
                               -0.00   4519.70      0.00
                                0.00      0.00   4773.00

     hartree stress (kbar)  13689.59     -0.00     -0.00
                               -0.00  13689.59      0.00
                               -0.00      0.00 -12226.14

     exc-cor stress (kbar)   -695.94      0.00      0.00
                                0.00   -695.94     -0.00
                                0.00     -0.00   -703.68

     corecor stress (kbar)   -469.46     -0.00     -0.00
                               -0.00   -469.46     -0.00
                               -0.00     -0.00   -467.65

     ewald   stress (kbar)   7395.27     -0.00      0.00
                               -0.00   7395.27      0.00
                                0.00      0.00 -23558.75

     hubbard stress (kbar)      0.00      0.00      0.00
                                0.00      0.00      0.00
                                0.00      0.00      0.00

     DFT-D   stress (kbar)      0.00      0.00      0.00
                                0.00      0.00      0.00
                                0.00      0.00      0.00

     XDM     stress (kbar)      0.00      0.00      0.00
                                0.00      0.00      0.00
                                0.00      0.00      0.00

     dft-nl  stress (kbar)      0.00      0.00      0.00
                                0.00      0.00      0.00
                                0.00      0.00      0.00

     TS-vdW  stress (kbar)      0.00      0.00      0.00
                                0.00      0.00      0.00
                                0.00      0.00      0.00

[...]

                                0.00      0.00      0.00

     Writing all to output data dir new_calculations/myprefix.save/

     General routines

     Parallel routines

     PAW routines

   This run was terminated on:  11:52:57  20May2023

   JOB DONE.