     Program PWSCF v.7.0 starts on 21May2023 at  1:35:32

     Reading input from espresso_3911.pwi
Warning: card &CELL ignored
Warning: card / ignored

     Current dimensions of program PWSCF are:
     Max number of different atomic species (ntypx) = 10
     Max number of k-points (npk) =  40000
     Max angular momentum in pseudopotentials (lmaxx) =  4

     gamma-point specific algorithms are used
     Message from routine setup:
     using ibrav=0 with symmetry is DISCOURAGED, use correct ibrav instead

     Subspace diagonalization in iterative solution of the eigenvalue problem:
     a serial algorithm will be used

     Using Slab Decomposition

     bravais-lattice index     =            0
     lattice parameter (alat)  =      11.0446  a.u.
     unit-cell volume          =     587.1463 (a.u.)^3
     number of atoms/cell      =            5
     number of atomic types    =            3
     number of electrons       =        57.00
     number of Kohn-Sham states=           35
     kinetic-energy cutoff     =      30.0000  Ry
     charge density cutoff     =     240.0000  Ry
     scf convergence threshold =      1.0E-06
     mixing beta               =       0.7000
     number of iterations used =            8  plain     mixing
     Exchange-correlation= PBE
                           (   1   4   3   4   0   0   0)

     celldm(1)=  11.044610  celldm(2)=   0.000000  celldm(3)=   0.000000
     celldm(4)=   0.000000  celldm(5)=   0.000000  celldm(6)=   0.000000

     crystal axes: (cart. coord. in units of alat)
               a(1) = (   1.000000   0.000000   0.000000 )
               a(2) = (   0.496120   0.868254   0.000000 )
               a(3) = (  -0.748060  -0.434127   0.501936 )

     reciprocal axes: (cart. coord. in units 2 pi/alat)
               b(1) = (  1.000000 -0.571400  0.996143 )
               b(2) = (  0.000000  1.151737  0.996143 )
               b(3) = (  0.000000  0.000000  1.992285 )

     PseudoPot. # 1 for La read from file:
     /home/pragov/projects/rrg-bengioy-ad/pragov/crystal_structure_design/SSSP/La.GGA-PBE-paw-v1.0.UPF
     MD5 check sum: 436541e95c1ad8901025bd0b0ed42ae2
     Pseudo is Projector augmented-wave + core cor, Zval = 11.0
     Generated using ATOMPAW code
     Shape of augmentation charge: BESSEL
     Using radial grid of 1101 points,  8 beta functions with:
                l(1) =   0
                l(2) =   0
                l(3) =   1
                l(4) =   1
                l(5) =   2
                l(6) =   2
                l(7) =   3
                l(8) =   3
     Q(r) pseudized with 0 coefficients

     PseudoPot. # 2 for Ni read from file:
     /home/pragov/projects/rrg-bengioy-ad/pragov/crystal_structure_design/SSSP/ni_pbe_v1.4.uspp.F.UPF
     MD5 check sum: 1ee80287db30b12d2bc1f57a5b5d6409
     Pseudo is Ultrasoft + core correction, Zval = 18.0
     Generated by new atomic code, or converted to UPF format
     Using radial grid of  865 points,  6 beta functions with:
                l(1) =   0
                l(2) =   0
                l(3) =   1
                l(4) =   1
                l(5) =   2
                l(6) =   2
     Q(r) pseudized with 10 coefficients,  rinner =    0.980   0.980   0.980
                                                       0.980   0.980

     PseudoPot. # 3 for As read from file:
     /home/pragov/projects/rrg-bengioy-ad/pragov/crystal_structure_design/SSSP/As.pbe-n-rrkjus_psl.0.2.UPF
     MD5 check sum: 767315de957beeeb34f87d97bf945c8f
     Pseudo is Ultrasoft + core correction, Zval =  5.0
     Generated using "atomic" code by A. Dal Corso  v.5.0.99 svn rev. 10869
     Using radial grid of 1209 points,  4 beta functions with:
                l(1) =   0
                l(2) =   0
                l(3) =   1
                l(4) =   1
     Q(r) pseudized with 0 coefficients

     atomic species   valence    mass     pseudopotential
        La            11.00   138.90547     La( 1.00)
        Ni            18.00    58.69340     Ni( 1.00)
        As             5.00    74.92159     As( 1.00)

      4 Sym. Ops., with inversion, found

                                    s                        frac. trans.

      isym =  1     identity

 cryst.   s( 1) = (     1          0          0      )
                  (     0          1          0      )
                  (     0          0          1      )

 cart.    s( 1) = (  1.0000000  0.0000000 -0.0000000 )
                  (  0.0000000  1.0000000  0.0000000 )
                  (  0.0000000  0.0000000  1.0000000 )

      isym =  2     180 deg rotation - cart. axis [0,0,1]

[...]

      isym =  3     inversion

[...]

      isym =  4     inv. 180 deg rotation - cart. axis [0,0,1]

 cryst.   s( 4) = (     1          0          0      )
                  (     0          1          0      )
                  (    -1         -1         -1      )

 cart.    s( 4) = (  1.0000000  0.0000000 -0.0000000 )
                  (  0.0000000  1.0000000 -0.0000000 )
                  (  0.0000000  0.0000000 -1.0000000 )

   Cartesian axes

     site n.     atom                  positions (alat units)
         1           La  tau(   1) = (   0.0000000   0.0000000   0.0000000  )
         2           Ni  tau(   2) = (   0.2480601   0.4341269   0.2509681  )
         3           Ni  tau(   3) = (   0.5000000   0.0000000   0.2509681  )
         4           As  tau(   4) = (   0.9487108   0.5505719   0.0000000  )
         5           As  tau(   5) = (   0.5474095   0.3176819   0.0000000  )

   Crystallographic axes

     site n.     atom                  positions (cryst. coord.)
         1           La  tau(   1) = (  0.0000000  0.0000000  0.0000000  )
         2           Ni  tau(   2) = (  0.2500000  0.7500000  0.5000000  )
         3           Ni  tau(   3) = (  0.7500000  0.2500000  0.5000000  )
         4           As  tau(   4) = (  0.6341140  0.6341140  0.0000000  )
         5           As  tau(   5) = (  0.3658860  0.3658860  0.0000000  )

     number of k points=     1  Methfessel-Paxton smearing, width (Ry)=  0.0010
                       cart. coord. in units 2pi/alat
        k(    1) = (   0.0000000   0.0000000   0.0000000), wk =   2.0000000

                       cryst. coord.
        k(    1) = (   0.0000000   0.0000000   0.0000000), wk =   2.0000000

     Check: negative core charge=   -0.000003

     Initial potential from superposition of free atoms

     starting charge      52.9910, renormalised to      57.0000
     Starting wfcs are   66 randomized atomic wfcs
     Checking if some PAW data can be deallocated...

     Self-consistent Calculation

     iteration #  1     ecut=    30.00 Ry     beta= 0.70
     Davidson diagonalization with overlap

     ethr =  1.00E-02,  avg # of iterations =  6.0

     total energy              =   -1089.98722095 Ry
     estimated scf accuracy    <     118.03507351 Ry

[...]

     negative rho (up, down):  3.059E-05 0.000E+00

[...]

     total energy              =   -1180.92066165 Ry
     estimated scf accuracy    <       0.00000187 Ry

     iteration # 36     ecut=    30.00 Ry     beta= 0.70
     Davidson diagonalization with overlap

     ethr =  3.29E-09,  avg # of iterations =  1.0

[...]

     End of self-consistent calculation

          k = 0.0000 0.0000 0.0000 (   827 PWs)   bands (ev):

   -90.6083 -90.6082 -51.0891 -51.0887 -50.9157 -50.9156 -50.8916 -50.8915
   -18.2869  -2.4951  -1.8642  -1.8641  -0.1330   2.6212   6.6776   9.3483
     9.3483   9.5868   9.5868  10.1390  10.1633  11.1797  11.3324  11.4245
    11.4246  11.4740  11.9566  13.2033  13.6832  13.6832  15.1514  16.1069
    16.3728  16.3977  16.4468

     occupation numbers
     1.0000   1.0000   1.0000   1.0000   1.0000   1.0000   1.0000   1.0000
     1.0000   1.0000   1.0000   1.0000   1.0000   1.0000   1.0000   1.0000
     1.0000   1.0000   1.0000   1.0000   1.0000   1.0000   1.0000   1.0000
     1.0000   1.0000   1.0000   1.0000   0.2507   0.2493  -0.0000  -0.0000
    -0.0000  -0.0000  -0.0000

     the Fermi energy is    13.6789 ev

!    total energy              =   -1180.92066172 Ry
     estimated scf accuracy    <       0.00000012 Ry
     smearing contrib. (-TS)   =      -0.00041261 Ry
     internal energy E=F+TS    =   -1180.92024911 Ry

     The total energy is F=E-TS. E is the sum of the following terms:
     one-electron contribution =    -603.91587413 Ry
     hartree contribution      =     332.56987254 Ry
     xc contribution           =     -98.55591956 Ry
     ewald contribution        =    -412.98455947 Ry
     one-center paw contrib.   =    -398.03376849 Ry
      -> PAW hartree energy AE =      35.78893905 Ry
      -> PAW hartree energy PS =     -35.80901878 Ry
      -> PAW xc energy AE      =    -405.42500598 Ry
      -> PAW xc energy PS      =       7.41131721 Ry
      -> total E_H with PAW    =     332.54979281 Ry
      -> total E_XC with PAW   =    -496.56960833 Ry

     convergence has been achieved in  36 iterations

     negative rho (up, down):  2.893E-06 0.000E+00

     Forces acting on atoms (cartesian axes, Ry/au):

     atom    1 type  1   force =     0.00000000    0.00000000    0.00000000
     atom    2 type  2   force =     0.00000000    0.00000000    0.00004663
     atom    3 type  2   force =     0.00000000    0.00000000   -0.00004663
     atom    4 type  3   force =     0.00564091    0.00327228   -0.00000000
     atom    5 type  3   force =    -0.00564091   -0.00327228    0.00000000
     The non-local contrib.  to forces
     atom    1 type  1   force =     0.00000000    0.00000000    0.00000000
     atom    2 type  2   force =     0.00000000    0.00000000    0.00000803
     atom    3 type  2   force =     0.00000000    0.00000000   -0.00000803
     atom    4 type  3   force =     0.15349562    0.08908360   -0.00000000
     atom    5 type  3   force =    -0.15349562   -0.08908360    0.00000000
     The ionic contribution  to forces
     atom    1 type  1   force =    -0.00000000   -0.00000000   -0.00000000
     atom    2 type  2   force =     0.00000000    0.00000000    0.00000000
     atom    3 type  2   force =     0.00000000   -0.00000000    0.00000000
     atom    4 type  3   force =    -8.54925818   -4.96144992    0.00000000
     atom    5 type  3   force =     8.54925818    4.96144992   -0.00000000
     The local contribution  to forces
     atom    1 type  1   force =     0.00042515    0.00027146   -0.00001704
     atom    2 type  2   force =    -0.00089133   -0.00058954   -0.00004314
     atom    3 type  2   force =    -0.00021948   -0.00002343    0.00005671
     atom    4 type  3   force =     8.40849036    4.87973284   -0.00003909
     atom    5 type  3   force =    -8.40852501   -4.87977260    0.00001367
     The core correction contribution to forces
     atom    1 type  1   force =     0.00000017    0.00000011   -0.00000001
     atom    2 type  2   force =    -0.00000896   -0.00000484   -0.00000003
     atom    3 type  2   force =     0.00000952    0.00000555   -0.00000021
     atom    4 type  3   force =    -0.00715806   -0.00415602   -0.00000336
     atom    5 type  3   force =     0.00715575    0.00415321    0.00000098
     The Hubbard contrib.    to forces
     atom    1 type  1   force =     0.00000000    0.00000000    0.00000000
     atom    2 type  2   force =     0.00000000    0.00000000    0.00000000
     atom    3 type  2   force =     0.00000000    0.00000000    0.00000000
     atom    4 type  3   force =     0.00000000    0.00000000    0.00000000
     atom    5 type  3   force =     0.00000000    0.00000000    0.00000000
     The SCF correction term to forces
     atom    1 type  1   force =    -0.00026382   -0.00017101    0.00000927
     atom    2 type  2   force =     0.00071284    0.00051466    0.00007808
     atom    3 type  2   force =     0.00032641    0.00004532   -0.00009880
     atom    4 type  3   force =     0.00006280    0.00005333    0.00002159
     atom    5 type  3   force =    -0.00004258   -0.00002767   -0.00000732

     Total force =     0.009223     Total SCF correction =     0.001003
     SCF correction compared to forces is large: reduce conv_thr to get better values

     Computing stress (Cartesian axis) and pressure

     negative rho (up, down):  2.893E-06 0.000E+00
          total   stress  (Ry/bohr**3)                   (kbar)     P=     -501.31
  -0.00400726  -0.00062747   0.00000000         -589.49      -92.30        0.00
  -0.00062747  -0.00329023   0.00000000          -92.30     -484.01        0.00
   0.00000000   0.00000000  -0.00292598            0.00        0.00     -430.43

     kinetic stress (kbar)  20399.00   -123.54     -0.00
                             -123.54  20540.17     -0.00
                               -0.00     -0.00  20611.88

     local   stress (kbar)   6494.66  24868.56     -0.59
                            24868.56 -21925.14      1.02
                               -0.59      1.02 -36357.19

     nonloc. stress (kbar)   9961.21   -121.27     -0.00
                             -121.27  10099.80     -0.00
                               -0.00     -0.00  10170.15

     hartree stress (kbar)  16640.23 -11654.91      0.20
                           -11654.91  29959.47     -0.35
                                0.20     -0.35  36723.18

     exc-cor stress (kbar)  -3166.22     -1.89      0.00
                               -1.89  -3164.06     -0.01
                                0.00     -0.01  -3162.96

     corecor stress (kbar)  -3941.60     11.55     -0.01
                               11.55  -3954.81      0.02
                               -0.01      0.02  -3961.51

     ewald   stress (kbar) -46976.76 -13070.80      0.00
                           -13070.80 -32039.44      0.00
                                0.00      0.00 -24453.97

     hubbard stress (kbar)      0.00      0.00      0.00
                                0.00      0.00      0.00
                                0.00      0.00      0.00

     DFT-D   stress (kbar)      0.00      0.00      0.00
                                0.00      0.00      0.00
                                0.00      0.00      0.00

     XDM     stress (kbar)      0.00      0.00      0.00
                                0.00      0.00      0.00
                                0.00      0.00      0.00

     dft-nl  stress (kbar)      0.00      0.00      0.00
                                0.00      0.00      0.00
                                0.00      0.00      0.00

     TS-vdW  stress (kbar)      0.00      0.00      0.00
                                0.00      0.00      0.00
                                0.00      0.00      0.00

[...]

                                0.00      0.00      0.00

     Writing all to output data dir new_calculations/myprefix.save/

     General routines

     Parallel routines

     PAW routines

   This run was terminated on:   1:36: 7  21May2023

   JOB DONE.