     Program PWSCF v.7.0 starts on 21May2023 at 10:16:15

     Reading input from espresso_24615.pwi
Warning: card &CELL ignored
Warning: card / ignored

     Current dimensions of program PWSCF are:
     Max number of different atomic species (ntypx) = 10
     Max number of k-points (npk) =  40000
     Max angular momentum in pseudopotentials (lmaxx) =  4
     file Pb.pbe-dn-kjpaw_psl.0.2.2.UPF: wavefunction(s)  6S renormalized

     gamma-point specific algorithms are used
     Message from routine setup:
     using ibrav=0 with symmetry is DISCOURAGED, use correct ibrav instead

     Subspace diagonalization in iterative solution of the eigenvalue problem:
     a serial algorithm will be used

     Using Slab Decomposition

     bravais-lattice index     =            0
     lattice parameter (alat)  =      18.2725  a.u.
     unit-cell volume          =    3827.3682 (a.u.)^3
     number of atoms/cell      =           16
     number of atomic types    =            2
     number of electrons       =       194.00
     number of Kohn-Sham states=          116
     kinetic-energy cutoff     =      30.0000  Ry
     charge density cutoff     =     240.0000  Ry
     scf convergence threshold =      1.0E-06
     mixing beta               =       0.7000
     number of iterations used =            8  plain     mixing
     Exchange-correlation= SLA  PW   PBX  PBC
                           (   1   4   3   4   0   0   0)

     celldm(1)=  18.272464  celldm(2)=   0.000000  celldm(3)=   0.000000
     celldm(4)=   0.000000  celldm(5)=   0.000000  celldm(6)=   0.000000

     crystal axes: (cart. coord. in units of alat)
               a(1) = (   1.000000   0.000000   0.000000 )
               a(2) = (  -0.500000   0.866025   0.000000 )
               a(3) = (   0.000000   0.000000   0.724400 )

     reciprocal axes: (cart. coord. in units 2 pi/alat)
               b(1) = (  1.000000  0.577350  0.000000 )
               b(2) = (  0.000000  1.154700  0.000000 )
               b(3) = (  0.000000  0.000000  1.380453 )

     PseudoPot. # 1 for La read from file:
     /home/pragov/projects/rrg-bengioy-ad/pragov/crystal_structure_design/SSSP/La.GGA-PBE-paw-v1.0.UPF
     MD5 check sum: 436541e95c1ad8901025bd0b0ed42ae2
     Pseudo is Projector augmented-wave + core cor, Zval = 11.0
     Generated using ATOMPAW code
     Shape of augmentation charge: BESSEL
     Using radial grid of 1101 points,  8 beta functions with:
                l(1) =   0
                l(2) =   0
                l(3) =   1
                l(4) =   1
                l(5) =   2
                l(6) =   2
                l(7) =   3
                l(8) =   3
     Q(r) pseudized with 0 coefficients

     PseudoPot. # 2 for Pb read from file:
     /home/pragov/projects/rrg-bengioy-ad/pragov/crystal_structure_design/SSSP/Pb.pbe-dn-kjpaw_psl.0.2.2.UPF
     MD5 check sum: 9d431e6316058b74ade52399a6cf67da
     Pseudo is Projector augmented-wave + core cor, Zval = 14.0
     Generated using "atomic" code by A. Dal Corso  v.5.0.99 svn rev. 10869
     Shape of augmentation charge: PSQ
     Using radial grid of 1281 points,  6 beta functions with:
                l(1) =   0
                l(2) =   0
                l(3) =   1
                l(4) =   1
                l(5) =   2
                l(6) =   2
     Q(r) pseudized with 0 coefficients

     atomic species   valence    mass     pseudopotential
        La            11.00   138.90547     La( 1.00)
        Pb            14.00   207.20000     Pb( 1.00)

     24 Sym. Ops., with inversion, found (12 have fractional translation)

                                    s                        frac. trans.

      isym =  1     identity

 cryst.   s( 1) = (     1          0          0      )
                  (     0          1          0      )
                  (     0          0          1      )

 cart.    s( 1) = (  1.0000000  0.0000000  0.0000000 )
                  (  0.0000000  1.0000000  0.0000000 )
                  (  0.0000000  0.0000000  1.0000000 )

      isym =  2     180 deg rotation - cart. axis [0,0,1]

 cryst.   s( 2) = (    -1          0          0      )    f =( -0.0000000 )
                  (     0         -1          0      )       ( -0.0000000 )
                  (     0          0          1      )       (  0.5000000 )

 cart.    s( 2) = ( -1.0000000 -0.0000000  0.0000000 )    f =( -0.0000000 )
                  (  0.0000000 -1.0000000  0.0000000 )       ( -0.0000000 )
                  (  0.0000000  0.0000000  1.0000000 )       (  0.3621999 )

[...]

      isym =  4     180 deg rotation - cart. axis [1,0,0]

[...]

      isym =  5      60 deg rotation - cryst. axis [0,0,1]

[...]

 cryst.   s( 6) = (     0         -1          0      )    f =(  0.0000000 )
                  (     1          1          0      )       (  0.0000010 )
                  (     0          0          1      )       (  0.5000000 )

 cart.    s( 6) = (  0.4999999  0.8660254  0.0000000 )    f =( -0.0000005 )
                  ( -0.8660254  0.5000001  0.0000000 )       (  0.0000009 )
                  (  0.0000000  0.0000000  1.0000000 )       (  0.3621999 )

[...]

 cryst.   s( 9) = (     0         -1          0      )
                  (    -1          0          0      )
                  (     0          0         -1      )

 cart.    s( 9) = (  0.4999999 -0.8660254  0.0000000 )
                  ( -0.8660254 -0.4999999  0.0000000 )
                  (  0.0000000  0.0000000 -1.0000000 )

[...]

 cryst.   s(10) = (     1          1          0      )
                  (     0         -1          0      )
                  (     0          0         -1      )

 cart.    s(10) = (  0.5000001  0.8660253  0.0000000 )
                  (  0.8660254 -0.5000001  0.0000000 )
                  (  0.0000000  0.0000000 -1.0000000 )

[...]

 cryst.   s(11) = (    -1         -1          0      )    f =( -0.0000000 )
                  (     0          1          0      )       (  0.0000010 )
                  (     0          0         -1      )       (  0.5000000 )

 cart.    s(11) = ( -0.5000001 -0.8660253  0.0000000 )    f =( -0.0000005 )
                  ( -0.8660254  0.5000001  0.0000000 )       (  0.0000009 )
                  (  0.0000000  0.0000000 -1.0000000 )       (  0.3621999 )

      isym = 12     180 deg rotation - cryst. axis [1,1,0]

[...]

      isym = 13     inversion

[...]

      isym = 14     inv. 180 deg rotation - cart. axis [0,0,1]

[...]

      isym = 16     inv. 180 deg rotation - cart. axis [1,0,0]

[...]

      isym = 17     inv.  60 deg rotation - cryst. axis [0,0,1]

[...]

 cryst.   s(22) = (    -1         -1          0      )
                  (     0          1          0      )
                  (     0          0          1      )

 cart.    s(22) = ( -0.5000001 -0.8660253  0.0000000 )
                  ( -0.8660254  0.5000001  0.0000000 )
                  (  0.0000000  0.0000000  1.0000000 )

[...]

      isym = 24     inv. 180 deg rotation - cryst. axis [1,1,0]

 cryst.   s(24) = (     0         -1          0      )    f =( -0.0000000 )
                  (    -1          0          0      )       ( -0.0000000 )
                  (     0          0          1      )       (  0.5000000 )

 cart.    s(24) = (  0.4999999 -0.8660254  0.0000000 )    f =( -0.0000000 )
                  ( -0.8660254 -0.4999999  0.0000000 )       ( -0.0000000 )
                  (  0.0000000  0.0000000  1.0000000 )       (  0.3621999 )

   Cartesian axes

     site n.     atom                  positions (alat units)
         1           La  tau(   1) = (   0.5000005   0.2886749   0.3621999  )
         2           La  tau(   2) = (  -0.0000005   0.5773506   0.3621999  )
         3           La  tau(   3) = (  -0.0000005   0.5773506   0.0000000  )
         4           La  tau(   4) = (   0.5000005   0.2886749   0.0000000  )
         5           La  tau(   5) = (   0.3766876   0.6524419   0.1810999  )
         6           La  tau(   6) = (   0.2466250   0.0000000   0.1810999  )
         7           La  tau(   7) = (   0.8766875   0.2135835   0.1810999  )
         8           La  tau(   8) = (   0.1233125   0.2135835   0.5432998  )
         9           La  tau(   9) = (   0.7533750   0.0000000   0.5432998  )
        10           La  tau(  10) = (  -0.3766874   0.6524419   0.5432998  )
        11           Pb  tau(  11) = (   0.1947100   0.3372476   0.1810999  )
        12           Pb  tau(  12) = (   0.6105800   0.0000000   0.1810999  )
        13           Pb  tau(  13) = (   0.6947100   0.5287778   0.1810999  )
        14           Pb  tau(  14) = (   0.3052900   0.5287778   0.5432998  )
        15           Pb  tau(  15) = (   0.3894200   0.0000000   0.5432998  )
        16           Pb  tau(  16) = (  -0.1947100   0.3372476   0.5432998  )

   Crystallographic axes

     site n.     atom                  positions (cryst. coord.)
         1           La  tau(   1) = (  0.6666670  0.3333330  0.5000000  )
         2           La  tau(   2) = (  0.3333330  0.6666670  0.5000000  )
         3           La  tau(   3) = (  0.3333330  0.6666670  0.0000000  )
         4           La  tau(   4) = (  0.6666670  0.3333330  0.0000000  )
         5           La  tau(   5) = (  0.7533750  0.7533750  0.2500000  )
         6           La  tau(   6) = (  0.2466250  0.0000000  0.2500000  )
         7           La  tau(   7) = (  1.0000000  0.2466250  0.2500000  )
         8           La  tau(   8) = (  0.2466250  0.2466250  0.7500000  )
         9           La  tau(   9) = (  0.7533750  0.0000000  0.7500000  )
        10           La  tau(  10) = (  0.0000000  0.7533750  0.7500000  )
        11           Pb  tau(  11) = (  0.3894200  0.3894200  0.2500000  )
        12           Pb  tau(  12) = (  0.6105800  0.0000000  0.2500000  )
        13           Pb  tau(  13) = (  1.0000000  0.6105800  0.2500000  )
        14           Pb  tau(  14) = (  0.6105800  0.6105800  0.7500000  )
        15           Pb  tau(  15) = (  0.3894200  0.0000000  0.7500000  )
        16           Pb  tau(  16) = ( -0.0000000  0.3894200  0.7500000  )

     number of k points=     1  Methfessel-Paxton smearing, width (Ry)=  0.0010
                       cart. coord. in units 2pi/alat
        k(    1) = (   0.0000000   0.0000000   0.0000000), wk =   2.0000000

                       cryst. coord.
        k(    1) = (   0.0000000   0.0000000   0.0000000), wk =   2.0000000

     Initial potential from superposition of free atoms

     starting charge     193.9006, renormalised to     194.0000
     Starting wfcs are  374 randomized atomic wfcs
     Checking if some PAW data can be deallocated...

     Self-consistent Calculation

     iteration #  1     ecut=    30.00 Ry     beta= 0.70
     Davidson diagonalization with overlap

     ethr =  1.00E-02,  avg # of iterations =  2.0

     Threshold (ethr) on eigenvalues was too large:
     Diagonalizing with lowered threshold

     Davidson diagonalization with overlap

[...]

     total energy              =   -9805.39524764 Ry
     estimated scf accuracy    <       1.10285668 Ry

[...]

     c_bands:  2 eigenvalues not converged
     ethr =  3.50E-05,  avg # of iterations = 20.0

[...]

     WARNING: integrated charge=   194.00029425, expected=   194.00000000

[...]

     c_bands:  1 eigenvalues not converged
     ethr =  2.17E-05,  avg # of iterations = 20.0

[...]

     WARNING: integrated charge=   194.00002017, expected=   194.00000000

[...]

     total energy              =   -9806.17955532 Ry
     estimated scf accuracy    <       0.00004316 Ry

     iteration # 62     ecut=    30.00 Ry     beta= 0.70
     Davidson diagonalization with overlap

     ethr =  5.29E-10,  avg # of iterations =  2.0

     End of self-consistent calculation

          k = 0.0000 0.0000 0.0000 (  5274 PWs)   bands (ev):

   -22.4502 -22.4261 -22.4260 -22.4196 -22.4121 -22.4120 -22.0870 -22.0859
   -21.9520 -21.9518  -6.4977  -6.4211  -6.3567  -6.3566  -6.3221  -6.3019
    -6.3019  -6.2549  -6.2524  -6.2523  -6.2330  -6.1642  -6.1641  -6.1484
    -6.1235  -6.0801  -6.0800  -6.0692  -6.0691  -5.9877  -5.8918  -5.8918
    -5.8876  -5.8875  -5.7850  -5.7850  -5.7780  -5.7780  -5.6121  -5.5513
    -5.5474  -5.5318  -5.5317  -5.5308  -5.5308  -5.5174  -5.5173  -5.4989
    -5.4974  -5.4736  -5.4733  -5.4430  -5.4417  -5.4417  -5.4291  -5.4289
    -5.4016  -5.4016  -5.3791  -5.3789  -5.3730  -5.3729  -5.3696  -5.3469
    -5.3468  -5.3002  -5.2807  -5.2805  -5.0911  -5.0184   1.9242   2.6224
     2.6225   2.8692   2.8693   2.8884   8.0795   8.2751   8.4953   8.4954
     8.7150   8.7150   8.8374   9.0990   9.0991   9.3477   9.3477   9.9511
    10.0229  10.0230  10.0265  10.0786  10.0787  10.4776  10.5011  10.5449
    10.5466  10.5466  10.6179  10.8745  10.8745  10.9847  11.1066  11.3314
    11.6582  11.6583  11.6773  11.6773  11.8519  11.8520  12.0043  12.0446
    12.0450  12.0889  12.0914  12.1299

     occupation numbers
     1.0000   1.0000   1.0000   1.0000   1.0000   1.0000   1.0000   1.0000
     1.0000   1.0000   1.0000   1.0000   1.0000   1.0000   1.0000   1.0000
     1.0000   1.0000   1.0000   1.0000   1.0000   1.0000   1.0000   1.0000
     1.0000   1.0000   1.0000   1.0000   1.0000   1.0000   1.0000   1.0000
     1.0000   1.0000   1.0000   1.0000   1.0000   1.0000   1.0000   1.0000
     1.0000   1.0000   1.0000   1.0000   1.0000   1.0000   1.0000   1.0000
     1.0000   1.0000   1.0000   1.0000   1.0000   1.0000   1.0000   1.0000
     1.0000   1.0000   1.0000   1.0000   1.0000   1.0000   1.0000   1.0000
     1.0000   1.0000   1.0000   1.0000   1.0000   1.0000   1.0000   1.0000
     1.0000   1.0000   1.0000   1.0000   1.0000   1.0000   1.0000   1.0000
     1.0000   1.0000   1.0000   1.0000   1.0000   1.0000   1.0000   1.0000
     1.0000   1.0000   1.0000   1.0000   1.0000   1.0000   1.0000   0.7310
     0.6348   0.6342  -0.0000  -0.0000  -0.0000  -0.0000  -0.0000  -0.0000
    -0.0000  -0.0000  -0.0000  -0.0000  -0.0000  -0.0000  -0.0000  -0.0000
    -0.0000  -0.0000  -0.0000  -0.0000

     the Fermi energy is    10.5488 ev

!    total energy              =   -9806.17955585 Ry

     total all-electron energy =   -255167.350350 Ry
     estimated scf accuracy    <       0.00000010 Ry
     smearing contrib. (-TS)   =      -0.00073875 Ry
     internal energy E=F+TS    =   -9806.17881710 Ry

     The total energy is F=E-TS. E is the sum of the following terms:
     one-electron contribution =    -301.10185656 Ry
     hartree contribution      =     280.00962369 Ry
     xc contribution           =    -353.58065236 Ry
     ewald contribution        =   -1080.02955933 Ry
     one-center paw contrib.   =   -8351.47637254 Ry
      -> PAW hartree energy AE =     963.66936955 Ry
      -> PAW hartree energy PS =    -962.87636835 Ry
      -> PAW xc energy AE      =   -8689.29595604 Ry
      -> PAW xc energy PS      =     337.02658230 Ry
      -> total E_H with PAW    =     280.80262489 Ry
      -> total E_XC with PAW   =   -8705.85002610 Ry

     convergence has been achieved in  62 iterations

     Forces acting on atoms (cartesian axes, Ry/au):

     atom    1 type  1   force =     0.00000000   -0.00000000   -0.00000000
     atom    2 type  1   force =     0.00000000    0.00000000   -0.00000000
     atom    3 type  1   force =    -0.00000000    0.00000000    0.00000000
     atom    4 type  1   force =     0.00000000   -0.00000000    0.00000000
     atom    5 type  1   force =    -0.00064739   -0.00112131    0.00000000
     atom    6 type  1   force =     0.00129478   -0.00000000    0.00000000
     atom    7 type  1   force =    -0.00064739    0.00112131    0.00000000
     atom    8 type  1   force =     0.00064739    0.00112131    0.00000000
     atom    9 type  1   force =    -0.00129478    0.00000000   -0.00000000
     atom   10 type  1   force =     0.00064739   -0.00112131    0.00000000
     atom   11 type  2   force =     0.01163191    0.02014706    0.00000000
     atom   12 type  2   force =    -0.02326382    0.00000000    0.00000000
     atom   13 type  2   force =     0.01163191   -0.02014706    0.00000000
     atom   14 type  2   force =    -0.01163191   -0.02014706    0.00000000
     atom   15 type  2   force =     0.02326382   -0.00000000    0.00000000
     atom   16 type  2   force =    -0.01163191    0.02014706   -0.00000000
     The non-local contrib.  to forces
     atom    1 type  1   force =    -0.00000000   -0.00000000   -0.00000000
     atom    2 type  1   force =     0.00000000   -0.00000000    0.00000000
     atom    3 type  1   force =     0.00000000    0.00000000   -0.00000000
     atom    4 type  1   force =    -0.00000000    0.00000000    0.00000000
     atom    5 type  1   force =    -0.01271058   -0.02201537   -0.00000000
     atom    6 type  1   force =     0.02542116   -0.00000000   -0.00000000
     atom    7 type  1   force =    -0.01271058    0.02201537    0.00000000
     atom    8 type  1   force =     0.01271058    0.02201537   -0.00000000
     atom    9 type  1   force =    -0.02542116    0.00000000    0.00000000
     atom   10 type  1   force =     0.01271058   -0.02201537   -0.00000000
     atom   11 type  2   force =    -0.02813609   -0.04873313   -0.00000000
     atom   12 type  2   force =     0.05627217   -0.00000000    0.00000000
     atom   13 type  2   force =    -0.02813609    0.04873313   -0.00000000
     atom   14 type  2   force =     0.02813609    0.04873313    0.00000000
     atom   15 type  2   force =    -0.05627217    0.00000000    0.00000000
     atom   16 type  2   force =     0.02813609   -0.04873313    0.00000000
     The ionic contribution  to forces
     atom    1 type  1   force =    -0.00005666    0.00003271   -0.00000000
     atom    2 type  1   force =     0.00005666   -0.00003271    0.00000000
     atom    3 type  1   force =     0.00005666   -0.00003271   -0.00000000
     atom    4 type  1   force =    -0.00005666    0.00003271    0.00000000
     atom    5 type  1   force =     2.82220566    4.88820314   -0.00000000
     atom    6 type  1   force =    -5.64445761    0.00002630   -0.00000000
     atom    7 type  1   force =     2.82225118   -4.88823076   -0.00000000
     atom    8 type  1   force =    -2.82220566   -4.88820314   -0.00000000
     atom    9 type  1   force =     5.64445761   -0.00002630   -0.00000000
     atom   10 type  1   force =    -2.82225118    4.88823076   -0.00000000
     atom   11 type  2   force =    -1.52303376   -2.63797161   -0.00000000
     atom   12 type  2   force =     3.04612519   -0.00003343   -0.00000000
     atom   13 type  2   force =    -1.52309133    2.63800521   -0.00000000
     atom   14 type  2   force =     1.52303376    2.63797161   -0.00000000
     atom   15 type  2   force =    -3.04612519    0.00003343   -0.00000000
     atom   16 type  2   force =     1.52309133   -2.63800521   -0.00000000
     The local contribution  to forces
     atom    1 type  1   force =     0.00019015    0.00024705   -0.00000954
     atom    2 type  1   force =    -0.00022297   -0.00052454    0.00000445
     atom    3 type  1   force =    -0.00018845   -0.00034178    0.00001600
     atom    4 type  1   force =     0.00018493    0.00040670    0.00003812
     atom    5 type  1   force =    -2.81011317   -4.86761688   -0.00016480
     atom    6 type  1   force =     5.62023739   -0.00008652   -0.00001573
     atom    7 type  1   force =    -2.81017023    4.86779759    0.00007714
     atom    8 type  1   force =     2.80997210    4.86769770   -0.00009530
     atom    9 type  1   force =    -5.62023503    0.00008602    0.00005425
     atom   10 type  1   force =     2.81024867   -4.86773792    0.00014076
     atom   11 type  2   force =     1.56295337    2.70765361    0.00000275
     atom   12 type  2   force =    -3.12632654    0.00019846   -0.00007500
     atom   13 type  2   force =     1.56338643   -2.70788479   -0.00013453
     atom   14 type  2   force =    -1.56308980   -2.70776957    0.00015357
     atom   15 type  2   force =     3.12631981   -0.00013899    0.00004741
     atom   16 type  2   force =    -1.56316589    2.70782928   -0.00001329
     The core correction contribution to forces
     atom    1 type  1   force =    -0.00000000    0.00000002    0.00000001
     atom    2 type  1   force =    -0.00000003   -0.00000012    0.00000001
     atom    3 type  1   force =    -0.00000001   -0.00000004    0.00000000
     atom    4 type  1   force =    -0.00000000    0.00000008    0.00000001
     atom    5 type  1   force =     0.00001147    0.00001982   -0.00000004
     atom    6 type  1   force =    -0.00002298   -0.00000001    0.00000001
     atom    7 type  1   force =     0.00001151   -0.00001981    0.00000004
     atom    8 type  1   force =    -0.00001151   -0.00001981   -0.00000005
     atom    9 type  1   force =     0.00002298   -0.00000001    0.00000000
     atom   10 type  1   force =    -0.00001147    0.00001983    0.00000004
     atom   11 type  2   force =    -0.00038436   -0.00066297    0.00000054
     atom   12 type  2   force =     0.00076416    0.00000036   -0.00000094
     atom   13 type  2   force =    -0.00038116    0.00066302   -0.00000120
     atom   14 type  2   force =     0.00038271    0.00066197    0.00000164
     atom   15 type  2   force =    -0.00076535   -0.00000136    0.00000052
     atom   16 type  2   force =     0.00038410   -0.00066189   -0.00000063
     The Hubbard contrib.    to forces
     atom    1 type  1   force =     0.00000000    0.00000000    0.00000000
     atom    2 type  1   force =     0.00000000    0.00000000    0.00000000
     atom    3 type  1   force =     0.00000000    0.00000000    0.00000000
     atom    4 type  1   force =     0.00000000    0.00000000    0.00000000
     atom    5 type  1   force =     0.00000000    0.00000000    0.00000000
     atom    6 type  1   force =     0.00000000    0.00000000    0.00000000
     atom    7 type  1   force =     0.00000000    0.00000000    0.00000000
     atom    8 type  1   force =     0.00000000    0.00000000    0.00000000
     atom    9 type  1   force =     0.00000000    0.00000000    0.00000000
     atom   10 type  1   force =     0.00000000    0.00000000    0.00000000
     atom   11 type  2   force =     0.00000000    0.00000000    0.00000000
     atom   12 type  2   force =     0.00000000    0.00000000    0.00000000
     atom   13 type  2   force =     0.00000000    0.00000000    0.00000000
     atom   14 type  2   force =     0.00000000    0.00000000    0.00000000
     atom   15 type  2   force =     0.00000000    0.00000000    0.00000000
     atom   16 type  2   force =     0.00000000    0.00000000    0.00000000
     The SCF correction term to forces
     atom    1 type  1   force =    -0.00015032   -0.00026734    0.00001982
     atom    2 type  1   force =     0.00013103    0.00042701    0.00000621
     atom    3 type  1   force =     0.00010685    0.00032762   -0.00001321
     atom    4 type  1   force =    -0.00014377   -0.00036407   -0.00003717
     atom    5 type  1   force =    -0.00003921    0.00025165    0.00014110
     atom    6 type  1   force =     0.00006899    0.00006527    0.00004629
     atom    7 type  1   force =     0.00003899   -0.00037343   -0.00001777
     atom    8 type  1   force =     0.00014723   -0.00032654    0.00002505
     atom    9 type  1   force =    -0.00006786   -0.00006981   -0.00006565
     atom   10 type  1   force =    -0.00003173    0.00036290   -0.00012187
     atom   11 type  2   force =     0.00020542   -0.00014719    0.00002435
     atom   12 type  2   force =    -0.00011038   -0.00015375    0.00009448
     atom   13 type  2   force =    -0.00013254    0.00032286    0.00014889
     atom   14 type  2   force =    -0.00008442    0.00022958   -0.00016836
     atom   15 type  2   force =     0.00008071    0.00008919   -0.00006644
     atom   16 type  2   force =    -0.00004443   -0.00026366   -0.00000392

     Total force =     0.057073     Total SCF correction =     0.001236

     Computing stress (Cartesian axis) and pressure

          total   stress  (Ry/bohr**3)                   (kbar)     P=       -5.97
   0.00003630  -0.00000000   0.00000000            5.34       -0.00        0.00
  -0.00000000   0.00003630  -0.00000000           -0.00        5.34       -0.00
   0.00000000   0.00000000  -0.00019434            0.00        0.00      -28.59

     kinetic stress (kbar)   9471.72     -0.00      0.00
                               -0.00   9471.72      0.00
                               -0.00     -0.00   9449.23

     local   stress (kbar)  -1168.62     -0.06      0.00
                               -0.06  -1168.49      0.00
                                0.00      0.00   -347.43

     nonloc. stress (kbar)   4574.53     -0.00      0.00
                               -0.00   4574.53     -0.00
                                0.00     -0.00   4549.19

     hartree stress (kbar)   3603.12      0.04     -0.00
                                0.04   3603.01     -0.00
                               -0.00     -0.00   3556.06

     exc-cor stress (kbar)   3737.06      0.00      0.00
                                0.00   3737.06     -0.00
                                0.00     -0.00   3734.55

     corecor stress (kbar)  -6628.10     -0.00      0.00
                               -0.00  -6628.10      0.00
                                0.00      0.00  -6627.96

     ewald   stress (kbar) -13584.39      0.01      0.00
                                0.01 -13584.38      0.00
                                0.00      0.00 -14342.22

     hubbard stress (kbar)      0.00      0.00      0.00
                                0.00      0.00      0.00
                                0.00      0.00      0.00

     DFT-D   stress (kbar)      0.00      0.00      0.00
                                0.00      0.00      0.00
                                0.00      0.00      0.00

     XDM     stress (kbar)      0.00      0.00      0.00
                                0.00      0.00      0.00
                                0.00      0.00      0.00

     dft-nl  stress (kbar)      0.00      0.00      0.00
                                0.00      0.00      0.00
                                0.00      0.00      0.00

     TS-vdW  stress (kbar)      0.00      0.00      0.00
                                0.00      0.00      0.00
                                0.00      0.00      0.00

[...]

                                0.00      0.00      0.00

     Writing all to output data dir new_calculations/myprefix.save/

     General routines

     Parallel routines

     PAW routines

   This run was terminated on:  10:23:33  21May2023

   JOB DONE.