     Program PWSCF v.7.0 starts on 20May2023 at 18:41:52

     Reading input from espresso_16545.pwi
Warning: card &CELL ignored
Warning: card / ignored

     Current dimensions of program PWSCF are:
     Max number of different atomic species (ntypx) = 10
     Max number of k-points (npk) =  40000
     Max angular momentum in pseudopotentials (lmaxx) =  4

     gamma-point specific algorithms are used
     Message from routine setup:
     using ibrav=0 with symmetry is DISCOURAGED, use correct ibrav instead

     Subspace diagonalization in iterative solution of the eigenvalue problem:
     a serial algorithm will be used

     Using Slab Decomposition

     bravais-lattice index     =            0
     lattice parameter (alat)  =       6.9948  a.u.
     unit-cell volume          =    1128.2733 (a.u.)^3
     number of atoms/cell      =           12
     number of atomic types    =            3
     number of electrons       =       140.00
     number of Kohn-Sham states=           84
     kinetic-energy cutoff     =      30.0000  Ry
     charge density cutoff     =     240.0000  Ry
     scf convergence threshold =      1.0E-06
     mixing beta               =       0.7000
     number of iterations used =            8  plain     mixing
     Exchange-correlation= PBE
                           (   1   4   3   4   0   0   0)

     celldm(1)=   6.994782  celldm(2)=   0.000000  celldm(3)=   0.000000
     celldm(4)=   0.000000  celldm(5)=   0.000000  celldm(6)=   0.000000

     crystal axes: (cart. coord. in units of alat)
               a(1) = (   1.000000   0.000000   0.000000 )
               a(2) = (   0.000000   1.707031   0.000000 )
               a(3) = (   0.000000   0.000000   1.931303 )

     reciprocal axes: (cart. coord. in units 2 pi/alat)
               b(1) = (  1.000000  0.000000  0.000000 )
               b(2) = (  0.000000  0.585812  0.000000 )
               b(3) = (  0.000000  0.000000  0.517785 )

     PseudoPot. # 1 for Hf read from file:
     /home/pragov/projects/rrg-bengioy-ad/pragov/crystal_structure_design/SSSP/Hf-sp.oncvpsp.upf
     MD5 check sum: 417ed15784afe83d2e06dacf143de3f8
     Pseudo is Norm-conserving + core correction, Zval = 12.0
     Generated using ONCVPSP code by D. R. Hamann
     Using radial grid of 1656 points,  8 beta functions with:
                l(1) =   0
                l(2) =   0
                l(3) =   1
                l(4) =   1
                l(5) =   2
                l(6) =   2
                l(7) =   3
                l(8) =   3

     PseudoPot. # 2 for Ni read from file:
     /home/pragov/projects/rrg-bengioy-ad/pragov/crystal_structure_design/SSSP/ni_pbe_v1.4.uspp.F.UPF
     MD5 check sum: 1ee80287db30b12d2bc1f57a5b5d6409
     Pseudo is Ultrasoft + core correction, Zval = 18.0
     Generated by new atomic code, or converted to UPF format
     Using radial grid of  865 points,  6 beta functions with:
                l(1) =   0
                l(2) =   0
                l(3) =   1
                l(4) =   1
                l(5) =   2
                l(6) =   2
     Q(r) pseudized with 10 coefficients,  rinner =    0.980   0.980   0.980
                                                       0.980   0.980

     PseudoPot. # 3 for P  read from file:
     /home/pragov/projects/rrg-bengioy-ad/pragov/crystal_structure_design/SSSP/P.pbe-n-rrkjus_psl.1.0.0.UPF
     MD5 check sum: 8b930f418f0a4573dca56cd030ffe088
     Pseudo is Ultrasoft + core correction, Zval =  5.0
     Generated using "atomic" code by A. Dal Corso  v.5.1
     Using radial grid of 1147 points,  6 beta functions with:
                l(1) =   0
                l(2) =   0
                l(3) =   1
                l(4) =   1
                l(5) =   2
                l(6) =   2
     Q(r) pseudized with 0 coefficients

     atomic species   valence    mass     pseudopotential
        Hf            12.00   178.49000     Hf( 1.00)
        Ni            18.00    58.69340     Ni( 1.00)
        P              5.00    30.97376     P ( 1.00)

      8 Sym. Ops., with inversion, found ( 6 have fractional translation)

                                    s                        frac. trans.

      isym =  1     identity

 cryst.   s( 1) = (     1          0          0      )
                  (     0          1          0      )
                  (     0          0          1      )

 cart.    s( 1) = (  1.0000000  0.0000000  0.0000000 )
                  (  0.0000000  1.0000000  0.0000000 )
                  (  0.0000000  0.0000000  1.0000000 )

      isym =  2     180 deg rotation - cart. axis [0,0,1]

 cryst.   s( 2) = (    -1          0          0      )    f =(  0.0000000 )
                  (     0         -1          0      )       (  0.5000000 )
                  (     0          0          1      )       (  0.5000000 )

 cart.    s( 2) = ( -1.0000000  0.0000000  0.0000000 )    f =(  0.0000000 )
                  (  0.0000000 -1.0000000  0.0000000 )       (  0.8535157 )
                  (  0.0000000  0.0000000  1.0000000 )       (  0.9656513 )

[...]

      isym =  4     180 deg rotation - cart. axis [1,0,0]

[...]

      isym =  5     inversion

 cryst.   s( 5) = (    -1          0          0      )
                  (     0         -1          0      )
                  (     0          0         -1      )

 cart.    s( 5) = ( -1.0000000  0.0000000  0.0000000 )
                  (  0.0000000 -1.0000000  0.0000000 )
                  (  0.0000000  0.0000000 -1.0000000 )

      isym =  6     inv. 180 deg rotation - cart. axis [0,0,1]

[...]

      isym =  8     inv. 180 deg rotation - cart. axis [1,0,0]

 cryst.   s( 8) = (    -1          0          0      )    f =(  0.5000000 )
                  (     0          1          0      )       (  0.0000000 )
                  (     0          0          1      )       (  0.0000000 )

 cart.    s( 8) = ( -1.0000000  0.0000000  0.0000000 )    f =(  0.5000000 )
                  (  0.0000000  1.0000000  0.0000000 )       (  0.0000000 )
                  (  0.0000000  0.0000000  1.0000000 )       (  0.0000000 )

   Cartesian axes

     site n.     atom                  positions (alat units)
         1           Hf  tau(   1) = (   0.2500000   0.0392259   1.5777255  )
         2           Hf  tau(   2) = (   0.2500000   0.8927416   1.3192284  )
         3           Hf  tau(   3) = (   0.7500000   1.6678056   0.3535771  )
         4           Hf  tau(   4) = (   0.7500000   0.8142898   0.6120742  )
         5           Ni  tau(   5) = (   0.2500000   0.2612680   0.8401514  )
         6           Ni  tau(   6) = (   0.2500000   1.1147837   0.1254999  )
         7           Ni  tau(   7) = (   0.7500000   1.4457634   1.0911512  )
         8           Ni  tau(   8) = (   0.7500000   0.5922477   1.8058027  )
         9           P   tau(   9) = (   0.2500000   1.3230398   0.7442506  )
        10           P   tau(  10) = (   0.2500000   0.4695241   0.2214007  )
        11           P   tau(  11) = (   0.7500000   0.3839916   1.1870520  )
        12           P   tau(  12) = (   0.7500000   1.2375073   1.7099019  )

   Crystallographic axes

     site n.     atom                  positions (cryst. coord.)
         1           Hf  tau(   1) = (  0.2500000  0.0229790  0.8169230  )
         2           Hf  tau(   2) = (  0.2500000  0.5229790  0.6830770  )
         3           Hf  tau(   3) = (  0.7500000  0.9770210  0.1830770  )
         4           Hf  tau(   4) = (  0.7500000  0.4770210  0.3169230  )
         5           Ni  tau(   5) = (  0.2500000  0.1530540  0.4350180  )
         6           Ni  tau(   6) = (  0.2500000  0.6530540  0.0649820  )
         7           Ni  tau(   7) = (  0.7500000  0.8469460  0.5649820  )
         8           Ni  tau(   8) = (  0.7500000  0.3469460  0.9350180  )
         9           P   tau(   9) = (  0.2500000  0.7750530  0.3853620  )
        10           P   tau(  10) = (  0.2500000  0.2750530  0.1146380  )
        11           P   tau(  11) = (  0.7500000  0.2249470  0.6146380  )
        12           P   tau(  12) = (  0.7500000  0.7249470  0.8853620  )

     number of k points=     1  Methfessel-Paxton smearing, width (Ry)=  0.0010
                       cart. coord. in units 2pi/alat
        k(    1) = (   0.0000000   0.0000000   0.0000000), wk =   2.0000000

                       cryst. coord.
        k(    1) = (   0.0000000   0.0000000   0.0000000), wk =   2.0000000

     Check: negative core charge=   -0.000004

     Initial potential from superposition of free atoms

     starting charge     131.9920, renormalised to     140.0000
     Starting wfcs are  108 randomized atomic wfcs

     Self-consistent Calculation

     iteration #  1     ecut=    30.00 Ry     beta= 0.70
     Davidson diagonalization with overlap

     ethr =  1.00E-02,  avg # of iterations =  4.0

     total energy              =   -1761.77341608 Ry
     estimated scf accuracy    <     156.96540732 Ry

[...]

     total energy              =   -1880.02278767 Ry
     estimated scf accuracy    <       0.00001007 Ry

     iteration # 24     ecut=    30.00 Ry     beta= 0.70
     Davidson diagonalization with overlap

     ethr =  7.19E-09,  avg # of iterations =  1.0

     End of self-consistent calculation

          k = 0.0000 0.0000 0.0000 (  1548 PWs)   bands (ev):

   -87.4005 -87.3952 -87.3944 -87.3935 -47.8818 -47.8760 -47.8705 -47.8692
   -47.8374 -47.8270 -47.8248 -47.8141 -47.4834 -47.4819 -47.4750 -47.4708
   -44.6310 -44.6139 -44.6040 -44.6033 -13.7883 -13.7569 -13.5722 -13.5140
   -13.5078 -13.5069 -13.3717 -13.3385 -13.2702 -13.2671 -13.2316 -13.2168
     3.3085   4.9606   5.1146   5.4180   9.5652   9.6138  10.8282  11.1731
    11.2019  11.7969  12.0679  12.1261  12.1266  12.4861  12.8528  12.9524
    12.9528  13.5301  13.7177  13.8787  13.9453  13.9493  13.9661  14.3713
    14.3896  14.4671  14.6361  14.7069  14.9872  15.0206  15.0957  15.2390
    15.5236  15.6086  15.9146  16.2010  17.1942  17.2537  17.3739  17.5570
    17.5653  17.7371  17.8224  18.5025  19.0334  19.1254  19.5277  19.8290
    19.8745  20.4655  20.5109  20.6654

     occupation numbers
     1.0000   1.0000   1.0000   1.0000   1.0000   1.0000   1.0000   1.0000
     1.0000   1.0000   1.0000   1.0000   1.0000   1.0000   1.0000   1.0000
     1.0000   1.0000   1.0000   1.0000   1.0000   1.0000   1.0000   1.0000
     1.0000   1.0000   1.0000   1.0000   1.0000   1.0000   1.0000   1.0000
     1.0000   1.0000   1.0000   1.0000   1.0000   1.0000   1.0000   1.0000
     1.0000   1.0000   1.0000   1.0000   1.0000   1.0000   1.0000   1.0000
     1.0000   1.0000   1.0000   1.0000   1.0000   1.0000   1.0000   1.0000
     1.0000   1.0000   1.0000   1.0000   1.0000   1.0000   1.0000   1.0000
     1.0000   1.0000   1.0000   1.0000   1.0000   1.0000  -0.0000  -0.0000
    -0.0000  -0.0000  -0.0000  -0.0000  -0.0000  -0.0000  -0.0000  -0.0000
    -0.0000  -0.0000  -0.0000  -0.0000

     the Fermi energy is    17.3138 ev

!    total energy              =   -1880.02278762 Ry
     estimated scf accuracy    <       0.00000082 Ry
     smearing contrib. (-TS)   =       0.00000000 Ry
     internal energy E=F+TS    =   -1880.02278762 Ry

     The total energy is F=E-TS. E is the sum of the following terms:
     one-electron contribution =   -1081.46331936 Ry
     hartree contribution      =     619.09632022 Ry
     xc contribution           =    -274.98176233 Ry
     ewald contribution        =   -1142.67402617 Ry

     convergence has been achieved in  24 iterations

     Forces acting on atoms (cartesian axes, Ry/au):

     atom    1 type  1   force =     0.00000000   -0.01629344   -0.05754884
     atom    2 type  1   force =     0.00000000   -0.01629344    0.05754884
     atom    3 type  1   force =     0.00000000    0.01629344    0.05754884
     atom    4 type  1   force =     0.00000000    0.01629344   -0.05754884
     atom    5 type  2   force =    -0.00000000    0.00834708   -0.03500001
     atom    6 type  2   force =    -0.00000000    0.00834708    0.03500001
     atom    7 type  2   force =     0.00000000   -0.00834708    0.03500001
     atom    8 type  2   force =     0.00000000   -0.00834708   -0.03500001
     atom    9 type  3   force =     0.00000000   -0.03060417   -0.09940593
     atom   10 type  3   force =     0.00000000   -0.03060417    0.09940593
     atom   11 type  3   force =    -0.00000000    0.03060417    0.09940593
     atom   12 type  3   force =     0.00000000    0.03060417   -0.09940593
     The non-local contrib.  to forces
     atom    1 type  1   force =     0.00000000   -0.00070109   -0.05203463
     atom    2 type  1   force =     0.00000000   -0.00070109    0.05203463
     atom    3 type  1   force =    -0.00000000    0.00070109    0.05203463
     atom    4 type  1   force =     0.00000000    0.00070109   -0.05203463
     atom    5 type  2   force =     0.00000000    0.17370315    0.53566663
     atom    6 type  2   force =    -0.00000000    0.17370315   -0.53566663
     atom    7 type  2   force =     0.00000000   -0.17370315   -0.53566663
     atom    8 type  2   force =     0.00000000   -0.17370315    0.53566663
     atom    9 type  3   force =     0.00000000   -0.01918083    0.03401600
     atom   10 type  3   force =     0.00000000   -0.01918083   -0.03401600
     atom   11 type  3   force =     0.00000000    0.01918083   -0.03401600
     atom   12 type  3   force =     0.00000000    0.01918083    0.03401600
     The ionic contribution  to forces
     atom    1 type  1   force =     0.00000000   -0.55561673    6.24140343
     atom    2 type  1   force =     0.00000000   -0.55561673   -6.24140343
     atom    3 type  1   force =     0.00000000    0.55561673   -6.24140343
     atom    4 type  1   force =    -0.00000000    0.55561673    6.24140343
     atom    5 type  2   force =     0.00000000    9.28707676   -4.21102365
     atom    6 type  2   force =     0.00000000    9.28707676    4.21102365
     atom    7 type  2   force =    -0.00000000   -9.28707676    4.21102365
     atom    8 type  2   force =     0.00000000   -9.28707676   -4.21102365
     atom    9 type  3   force =     0.00000000   -3.85661912   -1.64977907
     atom   10 type  3   force =     0.00000000   -3.85661912    1.64977907
     atom   11 type  3   force =    -0.00000000    3.85661912    1.64977907
     atom   12 type  3   force =     0.00000000    3.85661912   -1.64977907
     The local contribution  to forces
     atom    1 type  1   force =    -0.00000741    0.54110219   -6.25214455
     atom    2 type  1   force =     0.00000366    0.54118442    6.25291974
     atom    3 type  1   force =     0.00000331   -0.54087823    6.25178381
     atom    4 type  1   force =    -0.00000092   -0.54067670   -6.25213405
     atom    5 type  2   force =    -0.00000894   -9.44928607    3.65004957
     atom    6 type  2   force =     0.00000218   -9.44787589   -3.64998270
     atom    7 type  2   force =     0.00000204    9.44849008   -3.64785935
     atom    8 type  2   force =    -0.00000218    9.44664915    3.64826259
     atom    9 type  3   force =     0.00000517    3.84460222    1.51832476
     atom   10 type  3   force =     0.00000175    3.84416246   -1.51885817
     atom   11 type  3   force =     0.00000026   -3.84490333   -1.51759012
     atom   12 type  3   force =    -0.00000211   -3.84416931    1.51775566
     The core correction contribution to forces
     atom    1 type  1   force =    -0.00000047   -0.00094326    0.00515226
     atom    2 type  1   force =     0.00000039   -0.00095314   -0.00514310
     atom    3 type  1   force =     0.00000016    0.00094841   -0.00513956
     atom    4 type  1   force =     0.00000023    0.00094456    0.00515005
     atom    5 type  2   force =    -0.00000003   -0.00447554   -0.00861374
     atom    6 type  2   force =    -0.00000007   -0.00447623    0.00861461
     atom    7 type  2   force =    -0.00000012    0.00447176    0.00861389
     atom    8 type  2   force =    -0.00000002    0.00447088   -0.00861121
     atom    9 type  3   force =     0.00000017    0.00075847   -0.00179401
     atom   10 type  3   force =    -0.00000007    0.00075373    0.00178571
     atom   11 type  3   force =     0.00000010   -0.00076435    0.00178850
     atom   12 type  3   force =    -0.00000010   -0.00075950   -0.00178951
     The Hubbard contrib.    to forces
     atom    1 type  1   force =     0.00000000    0.00000000    0.00000000
     atom    2 type  1   force =     0.00000000    0.00000000    0.00000000
     atom    3 type  1   force =     0.00000000    0.00000000    0.00000000
     atom    4 type  1   force =     0.00000000    0.00000000    0.00000000
     atom    5 type  2   force =     0.00000000    0.00000000    0.00000000
     atom    6 type  2   force =     0.00000000    0.00000000    0.00000000
     atom    7 type  2   force =     0.00000000    0.00000000    0.00000000
     atom    8 type  2   force =     0.00000000    0.00000000    0.00000000
     atom    9 type  3   force =     0.00000000    0.00000000    0.00000000
     atom   10 type  3   force =     0.00000000    0.00000000    0.00000000
     atom   11 type  3   force =     0.00000000    0.00000000    0.00000000
     atom   12 type  3   force =     0.00000000    0.00000000    0.00000000
     The SCF correction term to forces
     atom    1 type  1   force =     0.00000386   -0.00012360    0.00011985
     atom    2 type  1   force =    -0.00000080   -0.00022351   -0.00086002
     atom    3 type  1   force =    -0.00000159   -0.00010234    0.00036167
     atom    4 type  1   force =     0.00000125   -0.00029012    0.00010842
     atom    5 type  2   force =     0.00001227    0.00122647   -0.00099262
     atom    6 type  2   force =    -0.00000300   -0.00004662    0.00102930
     atom    7 type  2   force =    -0.00000096   -0.00055577   -0.00104402
     atom    8 type  2   force =     0.00000190    0.00127136    0.00070518
     atom    9 type  3   force =    -0.00000162   -0.00016159   -0.00027243
     atom   10 type  3   force =    -0.00000089    0.00017667    0.00061883
     atom   11 type  3   force =     0.00000005    0.00034173   -0.00058015
     atom   12 type  3   force =     0.00000073   -0.00023641    0.00036868

     Total force =     0.250521     Total SCF correction =     0.003046

     Computing stress (Cartesian axis) and pressure

          total   stress  (Ry/bohr**3)                   (kbar)     P=     -736.87
  -0.00393905   0.00000000   0.00000000         -579.45        0.00        0.00
   0.00000000  -0.00617200   0.00000000            0.00     -907.93        0.00
   0.00000000   0.00000000  -0.00491642            0.00        0.00     -723.23

     kinetic stress (kbar)  28854.48      0.00      0.00
                                0.00  28851.22      0.00
                                0.00      0.00  28311.10

     local   stress (kbar) -14912.90     -0.00     -0.00
                               -0.00  -7778.22     -0.05
                               -0.00     -0.05  -6494.24

     nonloc. stress (kbar)  12701.69      0.00      0.00
                                0.00  12906.77      0.00
                                0.00      0.00  12784.93

     hartree stress (kbar)  29355.00      0.00      0.00
                                0.00  26217.55      0.09
                                0.00      0.09  25145.68

     exc-cor stress (kbar)    119.00     -0.00      0.00
                               -0.00    120.04     -0.00
                                0.00     -0.00    111.46

     corecor stress (kbar)  -9842.83     -0.00     -0.00
                               -0.00  -9846.44      0.00
                               -0.00      0.00  -9832.24

     ewald   stress (kbar) -46853.89      0.00      0.00
                                0.00 -51378.84      0.00
                                0.00      0.00 -50749.92

     hubbard stress (kbar)      0.00      0.00      0.00
                                0.00      0.00      0.00
                                0.00      0.00      0.00

     DFT-D   stress (kbar)      0.00      0.00      0.00
                                0.00      0.00      0.00
                                0.00      0.00      0.00

     XDM     stress (kbar)      0.00      0.00      0.00
                                0.00      0.00      0.00
                                0.00      0.00      0.00

     dft-nl  stress (kbar)      0.00      0.00      0.00
                                0.00      0.00      0.00
                                0.00      0.00      0.00

     TS-vdW  stress (kbar)      0.00      0.00      0.00
                                0.00      0.00      0.00
                                0.00      0.00      0.00

[...]

                                0.00      0.00      0.00

     Writing all to output data dir new_calculations/myprefix.save/

     General routines

     Parallel routines

   This run was terminated on:  18:42:25  20May2023

   JOB DONE.