     Program PWSCF v.7.0 starts on 20May2023 at 21:15:50

     Reading input from espresso_25108.pwi
Warning: card &CELL ignored
Warning: card / ignored

     Current dimensions of program PWSCF are:
     Max number of different atomic species (ntypx) = 10
     Max number of k-points (npk) =  40000
     Max angular momentum in pseudopotentials (lmaxx) =  4

     gamma-point specific algorithms are used
     Message from routine setup:
     using ibrav=0 with symmetry is DISCOURAGED, use correct ibrav instead

     Subspace diagonalization in iterative solution of the eigenvalue problem:
     a serial algorithm will be used

     Using Slab Decomposition

     bravais-lattice index     =            0
     lattice parameter (alat)  =      14.1862  a.u.
     unit-cell volume          =    1313.3087 (a.u.)^3
     number of atoms/cell      =            9
     number of atomic types    =            3
     number of electrons       =       156.00
     number of Kohn-Sham states=           94
     kinetic-energy cutoff     =      30.0000  Ry
     charge density cutoff     =     240.0000  Ry
     scf convergence threshold =      1.0E-06
     mixing beta               =       0.7000
     number of iterations used =            8  plain     mixing
     Exchange-correlation=  SLA  PW   PBX  PBC
                           (   1   4   3   4   0   0   0)

     celldm(1)=  14.186197  celldm(2)=   0.000000  celldm(3)=   0.000000
     celldm(4)=   0.000000  celldm(5)=   0.000000  celldm(6)=   0.000000

     crystal axes: (cart. coord. in units of alat)
               a(1) = (   1.000000   0.000000   0.000000 )
               a(2) = (  -0.500000   0.866025   0.000000 )
               a(3) = (   0.000000   0.000000   0.531176 )

     reciprocal axes: (cart. coord. in units 2 pi/alat)
               b(1) = (  1.000000  0.577350  0.000000 )
               b(2) = (  0.000000  1.154701  0.000000 )
               b(3) = (  0.000000  0.000000  1.882616 )

     PseudoPot. # 1 for Er read from file:
     /home/pragov/projects/rrg-bengioy-ad/pragov/crystal_structure_design/SSSP/Er.GGA-PBE-paw-v1.0.UPF
     MD5 check sum: 5952a841f12bc97f67d25f9d1b2e7e35
     Pseudo is Projector augmented-wave + core cor, Zval = 22.0
     Generated using ATOMPAW code
     Shape of augmentation charge: BESSEL
     Using radial grid of 1114 points,  8 beta functions with:
                l(1) =   0
                l(2) =   0
                l(3) =   1
                l(4) =   1
                l(5) =   2
                l(6) =   2
                l(7) =   3
                l(8) =   3
     Q(r) pseudized with 0 coefficients

     PseudoPot. # 2 for Sn read from file:
     /home/pragov/projects/rrg-bengioy-ad/pragov/crystal_structure_design/SSSP/Sn_pbe_v1.uspp.F.UPF
     MD5 check sum: 4cf58ce39ec5d5d420df3dd08604eb00
     Pseudo is Ultrasoft + core correction, Zval = 14.0
     Generated by new atomic code, or converted to UPF format
     Using radial grid of  891 points,  6 beta functions with:
                l(1) =   0
                l(2) =   0
                l(3) =   1
                l(4) =   1
                l(5) =   2
                l(6) =   2
     Q(r) pseudized with  6 coefficients,  rinner =    1.200   1.200   1.200
                                                       1.200   1.200

     PseudoPot. # 3 for Pt read from file:
     /home/pragov/projects/rrg-bengioy-ad/pragov/crystal_structure_design/SSSP/pt_pbe_v1.4.uspp.F.UPF
     MD5 check sum: f09d6de1a584b5a045c4fc126da2d0c4
     Pseudo is Ultrasoft + core correction, Zval = 16.0
     Generated by new atomic code, or converted to UPF format
     Using radial grid of  985 points,  6 beta functions with:
                l(1) =   0
                l(2) =   0
                l(3) =   1
                l(4) =   1
                l(5) =   2
                l(6) =   2
     Q(r) pseudized with  8 coefficients,  rinner =    1.300   1.300   1.300
                                                       1.300   1.300

     atomic species   valence    mass     pseudopotential
        Er            22.00   167.25900     Er( 1.00)
        Sn            14.00   118.71000     Sn( 1.00)
        Pt            16.00   195.08400     Pt( 1.00)

     12 Sym. Ops. (no inversion) found

                                    s                        frac. trans.

      isym =  1     identity

 cryst.   s( 1) = (     1          0          0      )
                  (     0          1          0      )
                  (     0          0          1      )

 cart.    s( 1) = (  1.0000000  0.0000000  0.0000000 )
                  (  0.0000000  1.0000000  0.0000000 )
                  (  0.0000000  0.0000000  1.0000000 )

      isym =  2     180 deg rotation - cart. axis [1,0,0]

[...]

      isym =  3     120 deg rotation - cryst. axis [0,0,1]

[...]

      isym =  6     180 deg rotation - cryst. axis [1,1,0]

[...]

      isym =  7     inv. 180 deg rotation - cart. axis [0,0,1]

[...]

      isym =  8     inv. 180 deg rotation - cart. axis [0,1,0]

[...]

      isym =  9     inv.  60 deg rotation - cryst. axis [0,0,1]

 cryst.   s( 9) = (    -1         -1          0      )
                  (     1          0          0      )
                  (     0          0         -1      )

 cart.    s( 9) = ( -0.5000000  0.8660254  0.0000000 )
                  ( -0.8660254 -0.5000000  0.0000000 )
                  (  0.0000000  0.0000000 -1.0000000 )

[...]

 cryst.   s(10) = (     0          1          0      )
                  (    -1         -1          0      )
                  (     0          0         -1      )

 cart.    s(10) = ( -0.5000000 -0.8660254  0.0000000 )
                  (  0.8660254 -0.5000000  0.0000000 )
                  (  0.0000000  0.0000000 -1.0000000 )

[...]

      isym = 12     inv. 180 deg rotation - cryst. axis [2,1,0]

 cryst.   s(12) = (    -1         -1          0      )
                  (     0          1          0      )
                  (     0          0          1      )

 cart.    s(12) = ( -0.5000000 -0.8660254  0.0000000 )
                  ( -0.8660254  0.5000000  0.0000000 )
                  (  0.0000000  0.0000000  1.0000000 )

   Cartesian axes

     site n.     atom                  positions (alat units)
         1           Er  tau(   1) = (   0.2038070   0.3530041   0.2655879  )
         2           Er  tau(   2) = (   0.5923860   0.0000000   0.2655879  )
         3           Er  tau(   3) = (   0.7038070   0.5130213   0.2655879  )
         4           Sn  tau(   4) = (   0.3709680   0.6425354   0.0000000  )
         5           Sn  tau(   5) = (   0.2580640   0.0000000   0.0000000  )
         6           Sn  tau(   6) = (  -0.1290320   0.2234900   0.0000000  )
         7           Pt  tau(   7) = (   0.5000005   0.2886748   0.0000000  )
         8           Pt  tau(   8) = (  -0.0000005   0.5773506   0.0000000  )
         9           Pt  tau(   9) = (   0.0000000   0.0000000   0.2655879  )

   Crystallographic axes

     site n.     atom                  positions (cryst. coord.)
         1           Er  tau(   1) = (  0.4076140  0.4076140  0.5000000  )
         2           Er  tau(   2) = (  0.5923860  0.0000000  0.5000000  )
         3           Er  tau(   3) = (  1.0000000  0.5923860  0.5000000  )
         4           Sn  tau(   4) = (  0.7419360  0.7419360  0.0000000  )
         5           Sn  tau(   5) = (  0.2580640  0.0000000  0.0000000  )
         6           Sn  tau(   6) = ( -0.0000000  0.2580640  0.0000000  )
         7           Pt  tau(   7) = (  0.6666670  0.3333330  0.0000000  )
         8           Pt  tau(   8) = (  0.3333330  0.6666670  0.0000000  )
         9           Pt  tau(   9) = (  0.0000000  0.0000000  0.5000000  )

     number of k points=     1  Methfessel-Paxton smearing, width (Ry)=  0.0010
                       cart. coord. in units 2pi/alat
        k(    1) = (   0.0000000   0.0000000   0.0000000), wk =   2.0000000

                       cryst. coord.
        k(    1) = (   0.0000000   0.0000000   0.0000000), wk =   2.0000000

     Initial potential from superposition of free atoms

     starting charge     151.4872, renormalised to     156.0000

     negative rho (up, down):  5.518E-01 0.000E+00
     Starting wfcs are  159 randomized atomic wfcs
     Checking if some PAW data can be deallocated...

     Self-consistent Calculation

     iteration #  1     ecut=    30.00 Ry     beta= 0.70
     Davidson diagonalization with overlap

     ethr =  1.00E-02,  avg # of iterations =  2.0

     negative rho (up, down):  4.908E-01 0.000E+00

     total energy              =   -3764.05950465 Ry
     estimated scf accuracy    <      16.83940808 Ry

[...]

     total energy              =   -3779.86433784 Ry
     estimated scf accuracy    <       0.00000283 Ry

     iteration # 49     ecut=    30.00 Ry     beta= 0.70
     Davidson diagonalization with overlap

     ethr =  1.81E-09,  avg # of iterations =  1.0

[...]

     End of self-consistent calculation

          k = 0.0000 0.0000 0.0000 (  1819 PWs)   bands (ev):

   -37.0840 -36.7330 -36.7330 -36.4934 -36.4932 -36.3781 -36.3781 -36.3773
   -36.3773 -31.2358 -31.2286 -31.2286  -5.8167  -5.8167  -5.7947  -5.7911
    -5.6866  -5.6866  -5.6345  -5.6337  -5.6337  -5.4308  -5.4132  -5.4132
    -5.3752  -5.3751  -5.3751  -5.3705  -5.3568  -5.3568  -5.3531  -5.3244
    -5.3243  -5.3119  -5.2994  -5.2994   5.7248   8.4111   8.4112   9.9289
    11.8732  11.8733  12.0267  12.0268  12.0532  12.2583  12.4234  12.5275
    12.5275  12.7237  12.9392  12.9392  13.2972  13.2973  13.3889  13.3889
    13.7102  13.7102  16.0233  16.8812  16.8812  16.8825  17.0468  17.0668
    17.0668  17.0727  17.0727  17.0758  17.1222  17.1709  17.1733  17.1807
    17.1807  17.1972  17.1972  17.2168  17.2168  17.2257  17.2258  17.4164
    17.4995  17.4995  17.9403  18.3488  18.6037  18.6959  18.6959  19.1705
    19.1705  19.5430  19.7514  20.7557  21.0836  21.0836

     occupation numbers
     1.0000   1.0000   1.0000   1.0000   1.0000   1.0000   1.0000   1.0000
     1.0000   1.0000   1.0000   1.0000   1.0000   1.0000   1.0000   1.0000
     1.0000   1.0000   1.0000   1.0000   1.0000   1.0000   1.0000   1.0000
     1.0000   1.0000   1.0000   1.0000   1.0000   1.0000   1.0000   1.0000
     1.0000   1.0000   1.0000   1.0000   1.0000   1.0000   1.0000   1.0000
     1.0000   1.0000   1.0000   1.0000   1.0000   1.0000   1.0000   1.0000
     1.0000   1.0000   1.0000   1.0000   1.0000   1.0000   1.0000   1.0000
     1.0000   1.0000   1.0000   1.0000   1.0000   1.0000   1.0000   1.0000
     1.0000   1.0000   1.0000   1.0000   1.0000   1.0000   1.0000   1.0000
     1.0000   1.0050   1.0050   0.9603   0.9602   0.5349   0.5345  -0.0000
    -0.0000  -0.0000  -0.0000  -0.0000  -0.0000  -0.0000  -0.0000  -0.0000
    -0.0000  -0.0000  -0.0000  -0.0000  -0.0000  -0.0000

     the Fermi energy is    17.2263 ev

!    total energy              =   -3779.86433773 Ry
     estimated scf accuracy    <       0.00000005 Ry
     smearing contrib. (-TS)   =      -0.00051954 Ry
     internal energy E=F+TS    =   -3779.86381819 Ry

     The total energy is F=E-TS. E is the sum of the following terms:
     one-electron contribution =    -953.55479531 Ry
     hartree contribution      =     551.19612601 Ry
     xc contribution           =    -412.85220154 Ry
     ewald contribution        =   -1507.11407373 Ry
     one-center paw contrib.   =   -1457.53887362 Ry
      -> PAW hartree energy AE =    1041.25748830 Ry
      -> PAW hartree energy PS =    -930.83079947 Ry
      -> PAW xc energy AE      =   -1663.76935894 Ry
      -> PAW xc energy PS      =      95.80379649 Ry
      -> total E_H with PAW    =     661.62281484 Ry
      -> total E_XC with PAW   =   -1980.81776399 Ry

     convergence has been achieved in  49 iterations

     negative rho (up, down):  5.077E-01 0.000E+00

     Forces acting on atoms (cartesian axes, Ry/au):

     atom    1 type  1   force =    -0.00388448   -0.00672812    0.00000000
     atom    2 type  1   force =     0.00776897   -0.00000000   -0.00000000
     atom    3 type  1   force =    -0.00388448    0.00672812   -0.00000000
     atom    4 type  2   force =    -0.01029805   -0.01783675    0.00000000
     atom    5 type  2   force =     0.02059610   -0.00000000   -0.00000000
     atom    6 type  2   force =    -0.01029805    0.01783675    0.00000000
     atom    7 type  3   force =     0.00000000   -0.00000000    0.00000000
     atom    8 type  3   force =    -0.00000000    0.00000000    0.00000000
     atom    9 type  3   force =    -0.00000000    0.00000000    0.00000000
     The non-local contrib.  to forces
     atom    1 type  1   force =     0.12328641    0.21353833    0.00000000
     atom    2 type  1   force =    -0.24657282    0.00000000    0.00000000
     atom    3 type  1   force =     0.12328641   -0.21353833   -0.00000000
     atom    4 type  2   force =     0.01986135    0.03440086    0.00000000
     atom    5 type  2   force =    -0.03972270    0.00000000    0.00000000
     atom    6 type  2   force =     0.01986135   -0.03440086    0.00000000
     atom    7 type  3   force =     0.00000000   -0.00000000    0.00000000
     atom    8 type  3   force =     0.00000000    0.00000000    0.00000000
     atom    9 type  3   force =     0.00000000    0.00000000    0.00000000
     The ionic contribution  to forces
     atom    1 type  1   force =    -0.43317142   -0.75027491   -0.00000000
     atom    2 type  1   force =     0.86644119   -0.00005710   -0.00000000
     atom    3 type  1   force =    -0.43327004    0.75033154    0.00000000
     atom    4 type  2   force =     0.64355925    1.11467730    0.00000000
     atom    5 type  2   force =    -1.28724318    0.00007220   -0.00000000
     atom    6 type  2   force =     0.64368411   -1.11474921   -0.00000000
     atom    7 type  3   force =    -0.00013726    0.00007927   -0.00000000
     atom    8 type  3   force =     0.00013728   -0.00007923   -0.00000000
     atom    9 type  3   force =     0.00000008    0.00000013   -0.00000000
     The local contribution  to forces
     atom    1 type  1   force =     0.30592558    0.52984220   -0.00000652
     atom    2 type  1   force =    -0.61207374    0.00041828   -0.00001316
     atom    3 type  1   force =     0.30623523   -0.53059029   -0.00000860
     atom    4 type  2   force =    -0.67276736   -1.16512474    0.00000096
     atom    5 type  2   force =     1.34549822    0.00015081    0.00000102
     atom    6 type  2   force =    -0.67273052    1.16515511   -0.00000045
     atom    7 type  3   force =     0.00002601   -0.00020256   -0.00000000
     atom    8 type  3   force =    -0.00000603   -0.00004234   -0.00000027
     atom    9 type  3   force =    -0.00005660    0.00028448   -0.00000141
     The core correction contribution to forces
     atom    1 type  1   force =    -0.00000096   -0.00000167   -0.00000000
     atom    2 type  1   force =     0.00000192    0.00000000   -0.00000000
     atom    3 type  1   force =    -0.00000096    0.00000166   -0.00000000
     atom    4 type  2   force =    -0.00108374   -0.00187745    0.00000002
     atom    5 type  2   force =     0.00216856    0.00000027    0.00000000
     atom    6 type  2   force =    -0.00108409    0.00187814   -0.00000001
     atom    7 type  3   force =    -0.00000022    0.00000040   -0.00000007
     atom    8 type  3   force =    -0.00000031    0.00000041    0.00000001
     atom    9 type  3   force =    -0.00000038    0.00000055   -0.00000007
     The Hubbard contrib.    to forces
     atom    1 type  1   force =     0.00000000    0.00000000    0.00000000
     atom    2 type  1   force =     0.00000000    0.00000000    0.00000000
     atom    3 type  1   force =     0.00000000    0.00000000    0.00000000
     atom    4 type  2   force =     0.00000000    0.00000000    0.00000000
     atom    5 type  2   force =     0.00000000    0.00000000    0.00000000
     atom    6 type  2   force =     0.00000000    0.00000000    0.00000000
     atom    7 type  3   force =     0.00000000    0.00000000    0.00000000
     atom    8 type  3   force =     0.00000000    0.00000000    0.00000000
     atom    9 type  3   force =     0.00000000    0.00000000    0.00000000
     The SCF correction term to forces
     atom    1 type  1   force =     0.00006521    0.00016428    0.00000281
     atom    2 type  1   force =    -0.00003396   -0.00035248    0.00000870
     atom    3 type  1   force =    -0.00013666    0.00052018    0.00000562
     atom    4 type  2   force =     0.00012257    0.00008839   -0.00000111
     atom    5 type  2   force =    -0.00010362   -0.00021490   -0.00000104
     atom    6 type  2   force =    -0.00002217   -0.00004850    0.00000034
     atom    7 type  3   force =     0.00010260    0.00012315   -0.00000017
     atom    8 type  3   force =    -0.00012184    0.00012780    0.00000030
     atom    9 type  3   force =     0.00006009   -0.00028924    0.00000133

     Total force =     0.038127     Total SCF correction =     0.000820

     Computing stress (Cartesian axis) and pressure

     negative rho (up, down):  5.077E-01 0.000E+00
          total   stress  (Ry/bohr**3)                   (kbar)     P=      -17.09
   0.00007308  -0.00000000   0.00000000           10.75       -0.00        0.00
  -0.00000000   0.00007308   0.00000000           -0.00       10.75        0.00
  -0.00000000  -0.00000000  -0.00049466           -0.00       -0.00      -72.77

     kinetic stress (kbar)  22503.17     -0.00     -0.00
                               -0.00  22503.17      0.00
                               -0.00      0.00  22285.53

     local   stress (kbar)  12688.83     -0.02      0.01
                               -0.02  12688.86     -0.01
                                0.01     -0.01  13365.41

     nonloc. stress (kbar)  10273.31     -0.00      0.00
                               -0.00  10273.31      0.00
                               -0.00     -0.00  10226.90

     hartree stress (kbar)  20574.95      0.00     -0.00
                                0.00  20574.95      0.00
                               -0.00      0.00  20590.15

     exc-cor stress (kbar)  12693.37      0.00     -0.00
                                0.00  12693.37      0.00
                               -0.00      0.00  12690.08

     corecor stress (kbar) -22623.63      0.00      0.00
                                0.00 -22623.63     -0.00
                                0.00     -0.00 -22615.95

     ewald   stress (kbar) -56099.27      0.01      0.00
                                0.01 -56099.26      0.00
                                0.00      0.00 -56614.88

     hubbard stress (kbar)      0.00      0.00      0.00
                                0.00      0.00      0.00
                                0.00      0.00      0.00

     DFT-D   stress (kbar)      0.00      0.00      0.00
                                0.00      0.00      0.00
                                0.00      0.00      0.00

     XDM     stress (kbar)      0.00      0.00      0.00
                                0.00      0.00      0.00
                                0.00      0.00      0.00

     dft-nl  stress (kbar)      0.00      0.00      0.00
                                0.00      0.00      0.00
                                0.00      0.00      0.00

     TS-vdW  stress (kbar)      0.00      0.00      0.00
                                0.00      0.00      0.00
                                0.00      0.00      0.00

[...]

                                0.00      0.00      0.00

     Writing all to output data dir new_calculations/myprefix.save/

     General routines

     Parallel routines

     PAW routines

   This run was terminated on:  21:18:39  20May2023

   JOB DONE.