     Program PWSCF v.7.0 starts on 20May2023 at 18: 5:18

     Reading input from espresso_697.pwi
Warning: card &CELL ignored
Warning: card / ignored

     Current dimensions of program PWSCF are:
     Max number of different atomic species (ntypx) = 10
     Max number of k-points (npk) =  40000
     Max angular momentum in pseudopotentials (lmaxx) =  4

     gamma-point specific algorithms are used
     Message from routine setup:
     using ibrav=0 with symmetry is DISCOURAGED, use correct ibrav instead

     Subspace diagonalization in iterative solution of the eigenvalue problem:
     a serial algorithm will be used

     Using Slab Decomposition

     bravais-lattice index     =            0
     lattice parameter (alat)  =      11.1533  a.u.
     unit-cell volume          =     620.0916 (a.u.)^3
     number of atoms/cell      =            5
     number of atomic types    =            4
     number of electrons       =        66.00
     number of Kohn-Sham states=           40
     kinetic-energy cutoff     =      30.0000  Ry
     charge density cutoff     =     240.0000  Ry
     scf convergence threshold =      1.0E-06
     mixing beta               =       0.7000
     number of iterations used =            8  plain     mixing
     Exchange-correlation= PBE
                           (   1   4   3   4   0   0   0)

     celldm(1)=  11.153324  celldm(2)=   0.000000  celldm(3)=   0.000000
     celldm(4)=   0.000000  celldm(5)=   0.000000  celldm(6)=   0.000000

     crystal axes: (cart. coord. in units of alat)
               a(1) = (   1.000000   0.000000   0.000000 )
               a(2) = (   0.480546   0.876969   0.000000 )
               a(3) = (  -0.740273  -0.438485   0.509634 )

     reciprocal axes: (cart. coord. in units 2 pi/alat)
               b(1) = (  1.000000 -0.547962  0.981096 )
               b(2) = (  0.000000  1.140291  0.981096 )
               b(3) = (  0.000000  0.000000  1.962192 )

     PseudoPot. # 1 for Ce read from file:
     /home/pragov/projects/rrg-bengioy-ad/pragov/crystal_structure_design/SSSP/Ce.GGA-PBE-paw-v1.0.UPF
     MD5 check sum: f2b950f613061344c13339c8d844425d
     Pseudo is Projector augmented-wave + core cor, Zval = 12.0
     Generated using ATOMPAW code
     Shape of augmentation charge: BESSEL
     Using radial grid of 1102 points,  8 beta functions with:
                l(1) =   0
                l(2) =   0
                l(3) =   1
                l(4) =   1
                l(5) =   2
                l(6) =   2
                l(7) =   3
                l(8) =   3
     Q(r) pseudized with 0 coefficients

     PseudoPot. # 2 for Si read from file:
     /home/pragov/projects/rrg-bengioy-ad/pragov/crystal_structure_design/SSSP/Si.pbe-n-rrkjus_psl.1.0.0.UPF
     MD5 check sum: 0b0bb1205258b0d07b9f9672cf965d36
     Pseudo is Ultrasoft + core correction, Zval =  4.0
     Generated using "atomic" code by A. Dal Corso  v.5.1
     Using radial grid of 1141 points,  6 beta functions with:
                l(1) =   0
                l(2) =   0
                l(3) =   1
                l(4) =   1
                l(5) =   2
                l(6) =   2
     Q(r) pseudized with 0 coefficients

     PseudoPot. # 3 for Ge read from file:
     /home/pragov/projects/rrg-bengioy-ad/pragov/crystal_structure_design/SSSP/ge_pbe_v1.4.uspp.F.UPF
     MD5 check sum: 9c9eaa91e581c3f09632fb3098b2c6b2
     Pseudo is Ultrasoft + core correction, Zval = 14.0
     Generated by new atomic code, or converted to UPF format
     Using radial grid of  873 points,  6 beta functions with:
                l(1) =   0
                l(2) =   0
                l(3) =   1
                l(4) =   1
                l(5) =   2
                l(6) =   2
     Q(r) pseudized with  8 coefficients,  rinner =    1.400   1.400   1.400
                                                       1.400   1.400

     PseudoPot. # 4 for Pd read from file:
     /home/pragov/projects/rrg-bengioy-ad/pragov/crystal_structure_design/SSSP/Pd_ONCV_PBE-1.0.oncvpsp.upf
     MD5 check sum: eb77f42b51d86fb18e25f68156a31cf1
     Pseudo is Norm-conserving, Zval = 18.0
     Generated using ONCVPSP code by D. R. Hamann
     Using radial grid of 1410 points,  6 beta functions with:
                l(1) =   0
                l(2) =   0
                l(3) =   1
                l(4) =   1
                l(5) =   2
                l(6) =   2

     atomic species   valence    mass     pseudopotential
        Ce            12.00   140.11600     Ce( 1.00)
        Si             4.00    28.08500     Si( 1.00)
        Ge            14.00    72.63000     Ge( 1.00)
        Pd            18.00   106.42000     Pd( 1.00)

      2 Sym. Ops. (no inversion) found

                                    s                        frac. trans.

      isym =  1     identity

 cryst.   s( 1) = (     1          0          0      )
                  (     0          1          0      )
                  (     0          0          1      )

 cart.    s( 1) = (  1.0000000  0.0000000  0.0000000 )
                  (  0.0000000  1.0000000  0.0000000 )
                  (  0.0000000  0.0000000  1.0000000 )

      isym =  2     inv. 180 deg rotation - cart. axis [0,0,1]

 cryst.   s( 2) = (     1          0          0      )
                  (     0          1          0      )
                  (    -1         -1         -1      )

 cart.    s( 2) = (  1.0000000  0.0000000 -0.0000000 )
                  (  0.0000000  1.0000000 -0.0000000 )
                  (  0.0000000  0.0000000 -1.0000000 )

   Cartesian axes

     site n.     atom                  positions (alat units)
         1           Ce  tau(   1) = (   1.4790331   0.8760732   0.0000000  )
         2           Si  tau(   2) = (   0.5567150   0.3297580   0.0000000  )
         3           Ge  tau(   3) = (   0.9080738   0.5378778   0.0000000  )
         4           Pd  tau(   4) = (   0.5086360   0.0051154   0.2548170  )
         5           Pd  tau(   5) = (   0.2489091   0.4436001   0.2548170  )

   Crystallographic axes

     site n.     atom                  positions (cryst. coord.)
         1           Ce  tau(   1) = (  0.9989780  0.9989780  0.0000000  )
         2           Si  tau(   2) = (  0.3760200  0.3760200  0.0000000  )
         3           Ge  tau(   3) = (  0.6133370  0.6133370  0.0000000  )
         4           Pd  tau(   4) = (  0.7558330  0.2558330  0.5000000  )
         5           Pd  tau(   5) = (  0.2558330  0.7558330  0.5000000  )

     number of k points=     1  Methfessel-Paxton smearing, width (Ry)=  0.0010
                       cart. coord. in units 2pi/alat
        k(    1) = (   0.0000000   0.0000000   0.0000000), wk =   2.0000000

                       cryst. coord.
        k(    1) = (   0.0000000   0.0000000   0.0000000), wk =   2.0000000

     Initial potential from superposition of free atoms

     starting charge      65.9909, renormalised to      66.0000
     Starting wfcs are   65 randomized atomic wfcs
     Checking if some PAW data can be deallocated...

     Self-consistent Calculation

     iteration #  1     ecut=    30.00 Ry     beta= 0.70
     Davidson diagonalization with overlap

     ethr =  1.00E-02,  avg # of iterations =  4.0

     total energy              =   -1210.71052257 Ry
     estimated scf accuracy    <       2.43570131 Ry

[...]

     total energy              =   -1213.70887649 Ry
     estimated scf accuracy    <       0.00002212 Ry

     iteration # 66     ecut=    30.00 Ry     beta= 0.70
     Davidson diagonalization with overlap

     ethr =  1.99E-09,  avg # of iterations =  1.0

     End of self-consistent calculation

          k = 0.0000 0.0000 0.0000 (   839 PWs)   bands (ev):

   -74.6519 -71.1300 -38.5341 -37.5899 -37.3161 -37.1973 -37.1309 -36.7707
   -19.5667  -9.8985  -9.8142  -9.6340  -9.4575  -9.3091  -2.6462  -2.3427
    -2.2881   4.1803   7.1294   8.7955  10.5686  10.6360  10.7220  11.9136
    11.9939  12.0455  12.0666  12.4169  12.8058  13.7276  13.8005  13.9749
    14.5977  14.6046  14.6296  14.8772  14.8952  14.9498  15.0972  15.4256

     occupation numbers
     1.0000   1.0000   1.0000   1.0000   1.0000   1.0000   1.0000   1.0000
     1.0000   1.0000   1.0000   1.0000   1.0000   1.0000   1.0000   1.0000
     1.0000   1.0000   1.0000   1.0000   1.0000   1.0000   1.0000   1.0000
     1.0000   1.0000   1.0000   1.0000   1.0000   1.0000   1.0000   1.0000
     0.7115   0.2946  -0.0061  -0.0000  -0.0000  -0.0000  -0.0000  -0.0000

     the Fermi energy is    14.6012 ev

!    total energy              =   -1213.70887572 Ry
     estimated scf accuracy    <       0.00000099 Ry
     smearing contrib. (-TS)   =      -0.00043135 Ry
     internal energy E=F+TS    =   -1213.70844437 Ry

     The total energy is F=E-TS. E is the sum of the following terms:
     one-electron contribution =    -394.18885808 Ry
     hartree contribution      =     238.76362504 Ry
     xc contribution           =    -124.20713704 Ry
     ewald contribution        =    -525.93369120 Ry
     one-center paw contrib.   =    -408.14238309 Ry
      -> PAW hartree energy AE =      43.43873242 Ry
      -> PAW hartree energy PS =     -43.17051448 Ry
      -> PAW xc energy AE      =    -416.92407108 Ry
      -> PAW xc energy PS      =       8.51347005 Ry
      -> total E_H with PAW    =     239.03184298 Ry
      -> total E_XC with PAW   =    -532.61773807 Ry

     convergence has been achieved in  66 iterations

     Forces acting on atoms (cartesian axes, Ry/au):

     atom    1 type  1   force =    -0.00140822    0.01534804   -0.00000000
     atom    2 type  2   force =    -0.10930818   -0.06979224    0.00000000
     atom    3 type  3   force =     0.15223703    0.06608471   -0.00000000
     atom    4 type  4   force =    -0.02076031   -0.00582026   -0.02840262
     atom    5 type  4   force =    -0.02076031   -0.00582026    0.02840262
     The non-local contrib.  to forces
     atom    1 type  1   force =     0.06051902   -0.01659293   -0.00000000
     atom    2 type  2   force =    -0.08224749   -0.05457551    0.00000000
     atom    3 type  3   force =     0.05823512    0.03747140   -0.00000000
     atom    4 type  4   force =    -0.00304345    0.00101815   -0.00156926
     atom    5 type  4   force =    -0.00304345    0.00101815    0.00156926
     The ionic contribution  to forces
     atom    1 type  1   force =    -1.40170686   -0.83027065    0.00000000
     atom    2 type  2   force =     4.04054309    2.39332804   -0.00000000
     atom    3 type  3   force =   -18.15146369  -10.75162573    0.00000000
     atom    4 type  4   force =     7.75631373    4.59428417   -0.00000000
     atom    5 type  4   force =     7.75631373    4.59428417   -0.00000000
     The local contribution  to forces
     atom    1 type  1   force =     1.34279462    0.86465983    0.00918698
     atom    2 type  2   force =    -4.07301840   -2.41202183   -0.00293637
     atom    3 type  3   force =    18.25019775   10.78349344   -0.02544085
     atom    4 type  4   force =    -7.77373557   -4.60552102   -0.01768357
     atom    5 type  4   force =    -7.76770933   -4.59100346    0.03579752
     The core correction contribution to forces
     atom    1 type  1   force =     0.00001295    0.00004912    0.00000372
     atom    2 type  2   force =     0.00847354    0.00623664    0.00135256
     atom    3 type  3   force =    -0.00161061   -0.00035340   -0.00127992
     atom    4 type  4   force =     0.00000000    0.00000000    0.00000000
     atom    5 type  4   force =     0.00000000    0.00000000    0.00000000
     The Hubbard contrib.    to forces
     atom    1 type  1   force =     0.00000000    0.00000000    0.00000000
     atom    2 type  2   force =     0.00000000    0.00000000    0.00000000
     atom    3 type  3   force =     0.00000000    0.00000000    0.00000000
     atom    4 type  4   force =     0.00000000    0.00000000    0.00000000
     atom    5 type  4   force =     0.00000000    0.00000000    0.00000000
     The SCF correction term to forces
     atom    1 type  1   force =     0.00007076    0.00024735   -0.00013789
     atom    2 type  2   force =     0.00003979   -0.00001491    0.00001391
     atom    3 type  3   force =    -0.00002284   -0.00015632    0.00012253
     atom    4 type  4   force =    -0.00024621   -0.00019105   -0.00007093
     atom    5 type  4   force =    -0.00017266   -0.00004028    0.00011469

     Total force =     0.217125     Total SCF correction =     0.000523

     Computing stress (Cartesian axis) and pressure

          total   stress  (Ry/bohr**3)                   (kbar)     P=     -607.14
  -0.00428477   0.00094173   0.00000000         -630.31      138.53        0.00
   0.00094173  -0.00399371   0.00000000          138.53     -587.49        0.00
   0.00000000   0.00000000  -0.00410321            0.00        0.00     -603.60

     kinetic stress (kbar)  33052.52    128.37     -0.00
                              128.37  32980.35     -0.00
                               -0.00     -0.00  33332.78

     local   stress (kbar)   3086.06  16461.12    -61.51
                            16461.12 -14742.88      7.57
                              -61.51      7.57 -24938.10

     nonloc. stress (kbar)   8266.15   -113.59     -0.00
                             -113.59   8289.61     -0.00
                               -0.00     -0.00   8291.84

     hartree stress (kbar)  11725.82  -7648.06      3.98
                            -7648.06  20119.80    -15.60
                                3.98    -15.60  24796.56

     exc-cor stress (kbar)   1064.92      2.66     -0.48
                                2.66   1064.25     -0.77
                               -0.48     -0.77   1065.00

     corecor stress (kbar)  -8168.68      1.25     -0.01
                                1.25  -8168.64      0.22
                               -0.01      0.22  -8170.93

     ewald   stress (kbar) -49657.11  -8693.21      0.00
                            -8693.21 -40130.01     -0.00
                                0.00     -0.00 -34980.77

     hubbard stress (kbar)      0.00      0.00      0.00
                                0.00      0.00      0.00
                                0.00      0.00      0.00

     DFT-D   stress (kbar)      0.00      0.00      0.00
                                0.00      0.00      0.00
                                0.00      0.00      0.00

     XDM     stress (kbar)      0.00      0.00      0.00
                                0.00      0.00      0.00
                                0.00      0.00      0.00

     dft-nl  stress (kbar)      0.00      0.00      0.00
                                0.00      0.00      0.00
                                0.00      0.00      0.00

     TS-vdW  stress (kbar)      0.00      0.00      0.00
                                0.00      0.00      0.00
                                0.00      0.00      0.00

[...]

                                0.00      0.00      0.00

     Writing all to output data dir new_calculations/myprefix.save/

     General routines

     Parallel routines

     PAW routines

   This run was terminated on:  18: 6:30  20May2023

   JOB DONE.