     Program PWSCF v.7.0 starts on 20May2023 at 15:34: 5

     Reading input from espresso_20047.pwi
Warning: card &CELL ignored
Warning: card / ignored

     Current dimensions of program PWSCF are:
     Max number of different atomic species (ntypx) = 10
     Max number of k-points (npk) =  40000
     Max angular momentum in pseudopotentials (lmaxx) =  4
     file Al.pbe-n-kjpaw_psl.1.0.0.UPF: wavefunction(s)  3S 3P renormalized

     gamma-point specific algorithms are used
     Message from routine setup:
     using ibrav=0 with symmetry is DISCOURAGED, use correct ibrav instead

     Subspace diagonalization in iterative solution of the eigenvalue problem:
     a serial algorithm will be used

     Using Slab Decomposition

     bravais-lattice index     =            0
     lattice parameter (alat)  =      10.7274  a.u.
     unit-cell volume          =     872.9053 (a.u.)^3
     number of atoms/cell      =            6
     number of atomic types    =            3
     number of electrons       =        35.00
     number of Kohn-Sham states=           22
     kinetic-energy cutoff     =      30.0000  Ry
     charge density cutoff     =     240.0000  Ry
     scf convergence threshold =      1.0E-06
     mixing beta               =       0.7000
     number of iterations used =            8  plain     mixing
     Exchange-correlation= SLA  PW   PBX  PBC
                           (   1   4   3   4   0   0   0)

     celldm(1)=  10.727389  celldm(2)=   0.000000  celldm(3)=   0.000000
     celldm(4)=   0.000000  celldm(5)=   0.000000  celldm(6)=   0.000000

     crystal axes: (cart. coord. in units of alat)
               a(1) = (   1.000000   0.000000   0.000000 )
               a(2) = (   0.500000   0.866025   0.000000 )
               a(3) = (   0.500000   0.288675   0.816497 )

     reciprocal axes: (cart. coord. in units 2 pi/alat)
               b(1) = (  1.000000 -0.577350 -0.408248 )
               b(2) = (  0.000000  1.154701 -0.408248 )
               b(3) = (  0.000000  0.000000  1.224745 )

     PseudoPot. # 1 for La read from file:
     /home/pragov/projects/rrg-bengioy-ad/pragov/crystal_structure_design/SSSP/La.GGA-PBE-paw-v1.0.UPF
     MD5 check sum: 436541e95c1ad8901025bd0b0ed42ae2
     Pseudo is Projector augmented-wave + core cor, Zval = 11.0
     Generated using ATOMPAW code
     Shape of augmentation charge: BESSEL
     Using radial grid of 1101 points,  8 beta functions with:
                l(1) =   0
                l(2) =   0
                l(3) =   1
                l(4) =   1
                l(5) =   2
                l(6) =   2
                l(7) =   3
                l(8) =   3
     Q(r) pseudized with 0 coefficients

     PseudoPot. # 2 for Ce read from file:
     /home/pragov/projects/rrg-bengioy-ad/pragov/crystal_structure_design/SSSP/Ce.GGA-PBE-paw-v1.0.UPF
     MD5 check sum: f2b950f613061344c13339c8d844425d
     Pseudo is Projector augmented-wave + core cor, Zval = 12.0
     Generated using ATOMPAW code
     Shape of augmentation charge: BESSEL
     Using radial grid of 1102 points,  8 beta functions with:
                l(1) =   0
                l(2) =   0
                l(3) =   1
                l(4) =   1
                l(5) =   2
                l(6) =   2
                l(7) =   3
                l(8) =   3
     Q(r) pseudized with 0 coefficients

     PseudoPot. # 3 for Al read from file:
     /home/pragov/projects/rrg-bengioy-ad/pragov/crystal_structure_design/SSSP/Al.pbe-n-kjpaw_psl.1.0.0.UPF
     MD5 check sum: cfc449ca30b5f3223ec38ddd88ac046d
     Pseudo is Projector augmented-wave + core cor, Zval =  3.0
     Generated using "atomic" code by A. Dal Corso  v.5.1
     Shape of augmentation charge: PSQ
     Using radial grid of 1135 points,  6 beta functions with:
                l(1) =   0
                l(2) =   0
                l(3) =   1
                l(4) =   1
                l(5) =   2
                l(6) =   2
     Q(r) pseudized with 0 coefficients

     atomic species   valence    mass     pseudopotential
        La            11.00   138.90547     La( 1.00)
        Ce            12.00   140.11600     Ce( 1.00)
        Al             3.00    26.98154     Al( 1.00)

      6 Sym. Ops. (no inversion) found

                                    s                        frac. trans.

      isym =  1     identity

 cryst.   s( 1) = (     1          0          0      )
                  (     0          1          0      )
                  (     0          0          1      )

 cart.    s( 1) = (  1.0000000  0.0000000  0.0000000 )
                  (  0.0000000  1.0000000  0.0000000 )
                  (  0.0000000  0.0000000  1.0000000 )

      isym =  2     120 deg rotation - cryst. axis [0,0,1]

[...]

      isym =  3     120 deg rotation - cryst. axis [0,0,-1]

[...]

      isym =  4     inv. 180 deg rotation - cart. axis [1,0,0]

[...]

      isym =  5     inv. 180 deg rotation - cryst. axis [0,1,0]

[...]

      isym =  6     inv. 180 deg rotation - cryst. axis [1,1,0]

 cryst.   s( 6) = (     1         -1          0      )
                  (     0         -1          0      )
                  (     0         -1          1      )

 cart.    s( 6) = (  0.5000000 -0.8660254  0.0000000 )
                  ( -0.8660254 -0.5000000  0.0000000 )
                  (  0.0000000  0.0000000  1.0000000 )

   Cartesian axes

     site n.     atom                  positions (alat units)
         1           La  tau(   1) = (   0.0000000   0.0000000   0.0000000  )
         2           Ce  tau(   2) = (   0.5000000   0.2886751   0.2041241  )
         3           Al  tau(   3) = (   1.0000000   0.5773503   0.1028973  )
         4           Al  tau(   4) = (   1.0000000   0.2894626   0.5100319  )
         5           Al  tau(   5) = (   0.7506820   0.7212941   0.5100319  )
         6           Al  tau(   6) = (   1.2493180   0.7212941   0.5100319  )

   Crystallographic axes

     site n.     atom                  positions (cryst. coord.)
         1           La  tau(   1) = (  0.0000000  0.0000000  0.0000000  )
         2           Ce  tau(   2) = (  0.2500000  0.2500000  0.2500000  )
         3           Al  tau(   3) = (  0.6246590  0.6246590  0.1260230  )
         4           Al  tau(   4) = (  0.6246590  0.1260230  0.6246590  )
         5           Al  tau(   5) = (  0.1260230  0.6246590  0.6246590  )
         6           Al  tau(   6) = (  0.6246590  0.6246590  0.6246590  )

     number of k points=     1  Methfessel-Paxton smearing, width (Ry)=  0.0010
                       cart. coord. in units 2pi/alat
        k(    1) = (   0.0000000   0.0000000   0.0000000), wk =   2.0000000

                       cryst. coord.
        k(    1) = (   0.0000000   0.0000000   0.0000000), wk =   2.0000000

     Initial potential from superposition of free atoms

     starting charge      34.9753, renormalised to      35.0000
     Starting wfcs are   80 randomized atomic wfcs
     Checking if some PAW data can be deallocated...

     Self-consistent Calculation

     iteration #  1     ecut=    30.00 Ry     beta= 0.70
     Davidson diagonalization with overlap

     ethr =  1.00E-02,  avg # of iterations =  2.0
     Minimization algorithm failed to find Fermi energy: reverting to bisection
     Possible cause: smearing is larger than the electronic band-gap.

     total energy              =   -1097.98826377 Ry
     estimated scf accuracy    <       0.84121732 Ry

[...]

     ethr =  2.40E-03,  avg # of iterations =  7.0

[...]

     negative rho (up, down):  4.514E-06 0.000E+00

[...]

     ethr =  2.18E-05,  avg # of iterations =  2.0

[...]

     total energy              =   -1098.75201825 Ry
     estimated scf accuracy    <       0.00003531 Ry

     iteration # 91     ecut=    30.00 Ry     beta= 0.70
     Davidson diagonalization with overlap

     ethr =  9.91E-09,  avg # of iterations =  7.0
     Minimization algorithm failed to find Fermi energy: reverting to bisection
     Possible cause: smearing is larger than the electronic band-gap.

[...]

     End of self-consistent calculation

          k = 0.0000 0.0000 0.0000 (  1211 PWs)   bands (ev):

   -25.5487 -22.5810  -8.1958  -8.1958  -8.1958  -6.3321  -6.3321  -6.3321
     1.8768   7.0740   7.4563   7.4563   7.4564   7.8370   7.8370   8.3350
     8.3350   8.3350   8.5959   8.6587   8.6587   8.6587

     occupation numbers
     1.0000   1.0000   1.0000   1.0000   1.0000   1.0000   1.0000   1.0000
     1.0000   1.0000   1.0000   1.0000   1.0000   1.0000   1.0000   0.8336
     0.8333   0.8331  -0.0000  -0.0000  -0.0000  -0.0000

     the Fermi energy is     8.3409 ev

!    total energy              =   -1098.75201951 Ry

     total all-electron energy =     -2883.323146 Ry
     estimated scf accuracy    <       0.00000028 Ry
     smearing contrib. (-TS)   =      -0.00043272 Ry
     internal energy E=F+TS    =   -1098.75158678 Ry

     The total energy is F=E-TS. E is the sum of the following terms:
     one-electron contribution =      -8.09634909 Ry
     hartree contribution      =      23.05844415 Ry
     xc contribution           =     -29.39881674 Ry
     ewald contribution        =    -139.40862173 Ry
     one-center paw contrib.   =    -944.90624336 Ry
      -> PAW hartree energy AE =      83.48535064 Ry
      -> PAW hartree energy PS =     -83.23547196 Ry
      -> PAW xc energy AE      =    -968.50979010 Ry
      -> PAW xc energy PS      =      23.35366807 Ry
      -> total E_H with PAW    =      23.30832282 Ry
      -> total E_XC with PAW   =    -974.55493878 Ry

     convergence has been achieved in  91 iterations

     negative rho (up, down):  2.184E-05 0.000E+00

     Forces acting on atoms (cartesian axes, Ry/au):

     atom    1 type  1   force =    -0.00000000   -0.00000000    0.00006605
     atom    2 type  2   force =     0.00000000    0.00000000   -0.00005723
     atom    3 type  3   force =     0.00000000    0.00000000    0.01132608
     atom    4 type  3   force =     0.00000000    0.01066870   -0.00377830
     atom    5 type  3   force =     0.00923937   -0.00533435   -0.00377830
     atom    6 type  3   force =    -0.00923937   -0.00533435   -0.00377830
     The non-local contrib.  to forces
     atom    1 type  1   force =     0.00000000    0.00000000   -0.00001605
     atom    2 type  2   force =     0.00000000    0.00000000    0.00029624
     atom    3 type  3   force =     0.00000000    0.00000000   -0.00779140
     atom    4 type  3   force =     0.00000000   -0.00734895    0.00260567
     atom    5 type  3   force =    -0.00636438    0.00367448    0.00260567
     atom    6 type  3   force =     0.00636438    0.00367448    0.00260567
     The ionic contribution  to forces
     atom    1 type  1   force =     0.00000000    0.00000000   -0.00000000
     atom    2 type  2   force =    -0.00000000    0.00000000    0.00000000
     atom    3 type  3   force =    -0.00000000   -0.00000000   -0.04703293
     atom    4 type  3   force =     0.00000000   -0.04434307    0.01567764
     atom    5 type  3   force =    -0.03840223    0.02217154    0.01567764
     atom    6 type  3   force =     0.03840223    0.02217154    0.01567764
     The local contribution  to forces
     atom    1 type  1   force =     0.00002169    0.00003913    0.00019096
     atom    2 type  2   force =     0.00025998    0.00032973   -0.00056290
     atom    3 type  3   force =     0.00001980   -0.00001236    0.06526828
     atom    4 type  3   force =    -0.00000609    0.06153453   -0.02178331
     atom    5 type  3   force =     0.05325955   -0.03079416   -0.02176441
     atom    6 type  3   force =    -0.05325296   -0.03078797   -0.02177997
     The core correction contribution to forces
     atom    1 type  1   force =     0.00000003    0.00000004    0.00000011
     atom    2 type  2   force =     0.00000017    0.00000014   -0.00000049
     atom    3 type  3   force =     0.00000141    0.00000052    0.00086067
     atom    4 type  3   force =     0.00000001    0.00081227   -0.00028828
     atom    5 type  3   force =     0.00070260   -0.00040638   -0.00028807
     atom    6 type  3   force =    -0.00070148   -0.00040769   -0.00028769
     The Hubbard contrib.    to forces
     atom    1 type  1   force =     0.00000000    0.00000000    0.00000000
     atom    2 type  2   force =     0.00000000    0.00000000    0.00000000
     atom    3 type  3   force =     0.00000000    0.00000000    0.00000000
     atom    4 type  3   force =     0.00000000    0.00000000    0.00000000
     atom    5 type  3   force =     0.00000000    0.00000000    0.00000000
     atom    6 type  3   force =     0.00000000    0.00000000    0.00000000
     The SCF correction term to forces
     atom    1 type  1   force =    -0.00000155    0.00001501   -0.00011176
     atom    2 type  2   force =    -0.00007866   -0.00021786    0.00020714
     atom    3 type  3   force =    -0.00000448    0.00001246    0.00001867
     atom    4 type  3   force =     0.00000554    0.00002144    0.00000538
     atom    5 type  3   force =     0.00003232    0.00000076   -0.00000726
     atom    6 type  3   force =    -0.00003161   -0.00000473    0.00000043

     Total force =     0.022640     Total SCF correction =     0.000335

     Computing stress (Cartesian axis) and pressure

     negative rho (up, down):  2.184E-05 0.000E+00
          total   stress  (Ry/bohr**3)                   (kbar)     P=      -80.48
  -0.00054709   0.00000000  -0.00000000          -80.48        0.00       -0.00
   0.00000000  -0.00054709  -0.00000000            0.00      -80.48       -0.00
   0.00000000   0.00000000  -0.00054718            0.00        0.00      -80.49

     kinetic stress (kbar)   5145.17     -0.00      0.00
                               -0.00   5145.17      0.00
                                0.00     -0.00   5145.03

     local   stress (kbar)  -2064.64      0.00      0.01
                                0.00  -2064.61     -0.03
                                0.01     -0.03  -2064.38

     nonloc. stress (kbar)   4766.21      0.00      0.00
                                0.00   4766.21      0.00
                               -0.00      0.00   4766.20

     hartree stress (kbar)   1295.33     -0.00      0.00
                               -0.00   1295.34     -0.00
                                0.00     -0.00   1295.22

     exc-cor stress (kbar)   -706.60      0.00      0.00
                                0.00   -706.60      0.00
                                0.00      0.00   -706.60

     corecor stress (kbar)   -684.76     -0.00      0.00
                               -0.00   -684.76     -0.00
                                0.00     -0.00   -684.76

     ewald   stress (kbar)  -7831.21     -0.00     -0.00
                               -0.00  -7831.21     -0.00
                               -0.00     -0.00  -7831.21

     hubbard stress (kbar)      0.00      0.00      0.00
                                0.00      0.00      0.00
                                0.00      0.00      0.00

     DFT-D   stress (kbar)      0.00      0.00      0.00
                                0.00      0.00      0.00
                                0.00      0.00      0.00

     XDM     stress (kbar)      0.00      0.00      0.00
                                0.00      0.00      0.00
                                0.00      0.00      0.00

     dft-nl  stress (kbar)      0.00      0.00      0.00
                                0.00      0.00      0.00
                                0.00      0.00      0.00

     TS-vdW  stress (kbar)      0.00      0.00      0.00
                                0.00      0.00      0.00
                                0.00      0.00      0.00

[...]

                                0.00      0.00      0.00

     Writing all to output data dir new_calculations/myprefix.save/

     General routines

     Parallel routines

     PAW routines

   This run was terminated on:  15:36:52  20May2023

   JOB DONE.