     Program PWSCF v.7.0 starts on 20May2023 at 10:52:58

     Reading input from espresso_11285.pwi
Warning: card &CELL ignored
Warning: card / ignored

     Current dimensions of program PWSCF are:
     Max number of different atomic species (ntypx) = 10
     Max number of k-points (npk) =  40000
     Max angular momentum in pseudopotentials (lmaxx) =  4

     gamma-point specific algorithms are used
     Message from routine setup:
     using ibrav=0 with symmetry is DISCOURAGED, use correct ibrav instead

     Subspace diagonalization in iterative solution of the eigenvalue problem:
     a serial algorithm will be used

     Using Slab Decomposition

     bravais-lattice index     =            0
     lattice parameter (alat)  =      10.3901  a.u.
     unit-cell volume          =     526.2500 (a.u.)^3
     number of atoms/cell      =            4
     number of atomic types    =            2
     number of electrons       =        56.00
     number of Kohn-Sham states=           34
     kinetic-energy cutoff     =      30.0000  Ry
     charge density cutoff     =     240.0000  Ry
     scf convergence threshold =      1.0E-06
     mixing beta               =       0.7000
     number of iterations used =            8  plain     mixing
     Exchange-correlation=  SLA  PW   PBX  PBC
                           (   1   4   3   4   0   0   0)

     celldm(1)=  10.390147  celldm(2)=   0.000000  celldm(3)=   0.000000
     celldm(4)=   0.000000  celldm(5)=   0.000000  celldm(6)=   0.000000

     crystal axes: (cart. coord. in units of alat)
               a(1) = (   1.000000   0.000000   0.000000 )
               a(2) = (  -0.804575   0.593851   0.000000 )
               a(3) = (   0.000000   0.000000   0.790041 )

     reciprocal axes: (cart. coord. in units 2 pi/alat)
               b(1) = (  1.000000  1.354845  0.000000 )
               b(2) = (  0.000000  1.683925  0.000000 )
               b(3) = (  0.000000  0.000000  1.265757 )

     PseudoPot. # 1 for Zr read from file:
     /home/pragov/projects/rrg-bengioy-ad/pragov/crystal_structure_design/SSSP/Zr_pbe_v1.uspp.F.UPF
     MD5 check sum: 5db81b1e868ab7776c4564c113de050b
     Pseudo is Ultrasoft + core correction, Zval = 12.0
     Generated by new atomic code, or converted to UPF format
     Using radial grid of  887 points,  6 beta functions with:
                l(1) =   0
                l(2) =   0
                l(3) =   1
                l(4) =   1
                l(5) =   2
                l(6) =   2
     Q(r) pseudized with  6 coefficients,  rinner =    1.200   1.200   1.200
                                                       1.200   1.200

     PseudoPot. # 2 for Pt read from file:
     /home/pragov/projects/rrg-bengioy-ad/pragov/crystal_structure_design/SSSP/pt_pbe_v1.4.uspp.F.UPF
     MD5 check sum: f09d6de1a584b5a045c4fc126da2d0c4
     Pseudo is Ultrasoft + core correction, Zval = 16.0
     Generated by new atomic code, or converted to UPF format
     Using radial grid of  985 points,  6 beta functions with:
                l(1) =   0
                l(2) =   0
                l(3) =   1
                l(4) =   1
                l(5) =   2
                l(6) =   2
     Q(r) pseudized with  8 coefficients,  rinner =    1.300   1.300   1.300
                                                       1.300   1.300

     atomic species   valence    mass     pseudopotential
        Zr            12.00    91.22400     Zr( 1.00)
        Pt            16.00   195.08400     Pt( 1.00)

      4 Sym. Ops., with inversion, found ( 2 have fractional translation)

                                    s                        frac. trans.

      isym =  1     identity

 cryst.   s( 1) = (     1          0          0      )
                  (     0          1          0      )
                  (     0          0          1      )

 cart.    s( 1) = (  1.0000000 -0.0000000  0.0000000 )
                  (  0.0000000  1.0000000  0.0000000 )
                  (  0.0000000  0.0000000  1.0000000 )

      isym =  2     180 deg rotation - cart. axis [0,0,1]

 cryst.   s( 2) = (    -1          0          0      )    f =(  0.0000000 )
                  (     0         -1          0      )       ( -0.0000000 )
                  (     0          0          1      )       (  0.5000000 )

 cart.    s( 2) = ( -1.0000000  0.0000000  0.0000000 )    f =(  0.0000000 )
                  (  0.0000000 -1.0000000  0.0000000 )       ( -0.0000000 )
                  (  0.0000000  0.0000000  1.0000000 )       (  0.3950207 )

      isym =  3     inversion

 cryst.   s( 3) = (    -1          0          0      )
                  (     0         -1          0      )
                  (     0          0         -1      )

 cart.    s( 3) = ( -1.0000000  0.0000000  0.0000000 )
                  (  0.0000000 -1.0000000  0.0000000 )
                  (  0.0000000  0.0000000 -1.0000000 )

      isym =  4     inv. 180 deg rotation - cart. axis [0,0,1]

 cryst.   s( 4) = (     1          0          0      )    f =(  0.0000000 )
                  (     0          1          0      )       (  0.0000000 )
                  (     0          0         -1      )       (  0.5000000 )

 cart.    s( 4) = (  1.0000000 -0.0000000  0.0000000 )    f =(  0.0000000 )
                  (  0.0000000  1.0000000  0.0000000 )       (  0.0000000 )
                  (  0.0000000  0.0000000 -1.0000000 )       (  0.3950207 )

   Cartesian axes

     site n.     atom                  positions (alat units)
         1           Zr  tau(   1) = (   0.7452066   0.0838476   0.5925310  )
         2           Zr  tau(   2) = (  -0.5497819   0.5100031   0.1975103  )
         3           Pt  tau(   3) = (   0.2628581   0.2425791   0.5925310  )
         4           Pt  tau(   4) = (  -0.0674334   0.3512716   0.1975103  )

   Crystallographic axes

     site n.     atom                  positions (cryst. coord.)
         1           Zr  tau(   1) = (  0.8588070  0.1411930  0.7500000  )
         2           Zr  tau(   2) = (  0.1411930  0.8588070  0.2500000  )
         3           Pt  tau(   3) = (  0.5915150  0.4084850  0.7500000  )
         4           Pt  tau(   4) = (  0.4084850  0.5915150  0.2500000  )

     number of k points=     1  Methfessel-Paxton smearing, width (Ry)=  0.0010
                       cart. coord. in units 2pi/alat
        k(    1) = (   0.0000000   0.0000000   0.0000000), wk =   2.0000000

                       cryst. coord.
        k(    1) = (   0.0000000   0.0000000   0.0000000), wk =   2.0000000

     Check: negative core charge=   -0.000002

     Initial potential from superposition of free atoms

     starting charge      54.9957, renormalised to      56.0000

     negative rho (up, down):  4.943E-01 0.000E+00
     Starting wfcs are   50 randomized atomic wfcs

     Self-consistent Calculation

     iteration #  1     ecut=    30.00 Ry     beta= 0.70
     Davidson diagonalization with overlap

     ethr =  1.00E-02,  avg # of iterations =  2.0

     negative rho (up, down):  4.445E-01 0.000E+00

     total energy              =    -617.00575838 Ry
     estimated scf accuracy    <       4.78860174 Ry

[...]

     total energy              =    -620.18116070 Ry
     estimated scf accuracy    <       0.00003943 Ry

     iteration # 18     ecut=    30.00 Ry     beta= 0.70
     Davidson diagonalization with overlap

     ethr =  2.82E-08,  avg # of iterations =  1.0

[...]

     End of self-consistent calculation

          k = 0.0000 0.0000 0.0000 (   720 PWs)   bands (ev):

   -35.8712 -35.7882 -35.5818 -35.5675 -35.3841 -35.3209 -31.8301 -31.7987
    -9.9795  -9.9529  -9.8076  -9.7671  -9.6695  -9.6237   9.3792  11.7898
    12.0571  12.1981  12.2651  12.8926  13.6347  14.0482  14.1221  14.7049
    14.8084  15.2289  16.7869  18.3536  18.3631  18.8827  19.0898  19.2453
    19.4848  20.4870

     occupation numbers
     1.0000   1.0000   1.0000   1.0000   1.0000   1.0000   1.0000   1.0000
     1.0000   1.0000   1.0000   1.0000   1.0000   1.0000   1.0000   1.0000
     1.0000   1.0000   1.0000   1.0000   1.0000   1.0000   1.0000   1.0000
     1.0000   1.0000   1.0000   0.7759   0.2241  -0.0000  -0.0000  -0.0000
    -0.0000  -0.0000

     the Fermi energy is    18.3584 ev

!    total energy              =    -620.18116153 Ry
     estimated scf accuracy    <       0.00000020 Ry
     smearing contrib. (-TS)   =      -0.00037846 Ry
     internal energy E=F+TS    =    -620.18078307 Ry

     The total energy is F=E-TS. E is the sum of the following terms:
     one-electron contribution =    -122.31433954 Ry
     hartree contribution      =      95.47247505 Ry
     xc contribution           =    -149.46625145 Ry
     ewald contribution        =    -443.87266713 Ry

     convergence has been achieved in  18 iterations

     negative rho (up, down):  4.662E-01 0.000E+00

     Forces acting on atoms (cartesian axes, Ry/au):

     atom    1 type  1   force =    -0.05767644    0.01898031    0.00000000
     atom    2 type  1   force =     0.05767644   -0.01898031    0.00000000
     atom    3 type  2   force =     0.08163536   -0.02686600    0.00000000
     atom    4 type  2   force =    -0.08163536    0.02686600    0.00000000
     The non-local contrib.  to forces
     atom    1 type  1   force =     0.20187892   -0.06643392    0.00000000
     atom    2 type  1   force =    -0.20187892    0.06643392    0.00000000
     atom    3 type  2   force =    -0.02679413    0.00881716   -0.00000000
     atom    4 type  2   force =     0.02679413   -0.00881716   -0.00000000
     The ionic contribution  to forces
     atom    1 type  1   force =    -5.29127874    1.74125694   -0.00000000
     atom    2 type  1   force =     5.29127874   -1.74125694   -0.00000000
     atom    3 type  2   force =     6.63715381   -2.18415826   -0.00000000
     atom    4 type  2   force =    -6.63715381    2.18415826    0.00000000
     The local contribution  to forces
     atom    1 type  1   force =     5.04225228   -1.65930674    0.00005110
     atom    2 type  1   force =    -5.04206142    1.65924780    0.00007609
     atom    3 type  2   force =    -6.51539865    2.14408549   -0.00001226
     atom    4 type  2   force =     6.51495405   -2.14395052    0.00002297
     The core correction contribution to forces
     atom    1 type  1   force =    -0.01099042    0.00361660    0.00000275
     atom    2 type  1   force =     0.01099233   -0.00361734    0.00000274
     atom    3 type  2   force =    -0.01284828    0.00422834   -0.00000392
     atom    4 type  2   force =     0.01285194   -0.00422932   -0.00000381
     The Hubbard contrib.    to forces
     atom    1 type  1   force =     0.00000000    0.00000000    0.00000000
     atom    2 type  1   force =     0.00000000    0.00000000    0.00000000
     atom    3 type  2   force =     0.00000000    0.00000000    0.00000000
     atom    4 type  2   force =     0.00000000    0.00000000    0.00000000
     The SCF correction term to forces
     atom    1 type  1   force =     0.00047468   -0.00015713    0.00000302
     atom    2 type  1   force =    -0.00064113    0.00020769   -0.00002137
     atom    3 type  2   force =    -0.00046080    0.00015895    0.00000483
     atom    4 type  2   force =     0.00093490   -0.00029757   -0.00003221

     Total force =     0.148815     Total SCF correction =     0.001381

     Computing stress (Cartesian axis) and pressure

     negative rho (up, down):  4.662E-01 0.000E+00
          total   stress  (Ry/bohr**3)                   (kbar)     P=     -127.48
   0.00146189  -0.00112892   0.00000000          215.05     -166.07        0.00
  -0.00112892  -0.00159717   0.00000000         -166.07     -234.95        0.00
   0.00000000   0.00000000  -0.00246458            0.00        0.00     -362.55

     kinetic stress (kbar)  31986.04   -109.42      0.00
                             -109.42  31689.55      0.00
                                0.00      0.00  30947.13

     local   stress (kbar)   4568.16   -148.84     -0.01
                             -148.84   4164.84     -0.03
                               -0.01     -0.03  -4125.43

     nonloc. stress (kbar)   8159.00   -109.58      0.00
                             -109.58   7862.07      0.00
                                0.00      0.00   7935.94

     hartree stress (kbar)   7469.83    242.46      0.00
                              242.46   8126.82      0.01
                                0.00      0.01  11091.21

     exc-cor stress (kbar)  16340.22      0.41      0.00
                                0.41  16341.34      0.00
                                0.00      0.00  16341.86

     corecor stress (kbar) -25093.69     10.91     -0.00
                               10.91 -25064.13     -0.00
                               -0.00     -0.00 -25045.44

     ewald   stress (kbar) -43214.51    -52.01     -0.00
                              -52.01 -43355.44     -0.00
                               -0.00     -0.00 -37507.82

     hubbard stress (kbar)      0.00      0.00      0.00
                                0.00      0.00      0.00
                                0.00      0.00      0.00

     DFT-D   stress (kbar)      0.00      0.00      0.00
                                0.00      0.00      0.00
                                0.00      0.00      0.00

     XDM     stress (kbar)      0.00      0.00      0.00
                                0.00      0.00      0.00
                                0.00      0.00      0.00

     dft-nl  stress (kbar)      0.00      0.00      0.00
                                0.00      0.00      0.00
                                0.00      0.00      0.00

     TS-vdW  stress (kbar)      0.00      0.00      0.00
                                0.00      0.00      0.00
                                0.00      0.00      0.00

[...]

                                0.00      0.00      0.00

     Writing all to output data dir new_calculations/myprefix.save/

     General routines

     Parallel routines

   This run was terminated on:  10:53: 6  20May2023

   JOB DONE.