     Program PWSCF v.7.0 starts on 20May2023 at 20:14:52

     Reading input from espresso_5664.pwi
Warning: card &CELL ignored
Warning: card / ignored

     Current dimensions of program PWSCF are:
     Max number of different atomic species (ntypx) = 10
     Max number of k-points (npk) =  40000
     Max angular momentum in pseudopotentials (lmaxx) =  4
     file Ba.pbe-spn-kjpaw_psl.1.0.0.UPF: wavefunction(s)  5S 6S renormalized
     file O.pbe-n-kjpaw_psl.0.1.UPF: wavefunction(s)  2P renormalized

     gamma-point specific algorithms are used
     Message from routine setup:
     using ibrav=0 with symmetry is DISCOURAGED, use correct ibrav instead

     Subspace diagonalization in iterative solution of the eigenvalue problem:
     a serial algorithm will be used

     Using Slab Decomposition

     bravais-lattice index     =            0
     lattice parameter (alat)  =      11.7481  a.u.
     unit-cell volume          =    2330.4589 (a.u.)^3
     number of atoms/cell      =           18
     number of atomic types    =            3
     number of electrons       =       151.00
     number of Kohn-Sham states=           91
     kinetic-energy cutoff     =      30.0000  Ry
     charge density cutoff     =     240.0000  Ry
     scf convergence threshold =      1.0E-06
     mixing beta               =       0.7000
     number of iterations used =            8  plain     mixing
     Exchange-correlation= SLA  PW   PBX  PBC
                           (   1   4   3   4   0   0   0)

     celldm(1)=  11.748107  celldm(2)=   0.000000  celldm(3)=   0.000000
     celldm(4)=   0.000000  celldm(5)=   0.000000  celldm(6)=   0.000000

     crystal axes: (cart. coord. in units of alat)
               a(1) = (   1.000000   0.000000   0.000000 )
               a(2) = (  -0.000111   1.000000   0.000000 )
               a(3) = (   0.000000   0.000000   1.437268 )

     reciprocal axes: (cart. coord. in units 2 pi/alat)
               b(1) = (  1.000000  0.000111  0.000000 )
               b(2) = (  0.000000  1.000000  0.000000 )
               b(3) = (  0.000000  0.000000  0.695764 )

     PseudoPot. # 1 for Ba read from file:
     /home/pragov/projects/rrg-bengioy-ad/pragov/crystal_structure_design/SSSP/Ba.pbe-spn-kjpaw_psl.1.0.0.UPF
     MD5 check sum: c432291d3e53af55f19d5e8866385beb
     Pseudo is Projector augmented-wave + core cor, Zval = 10.0
     Generated using "atomic" code by A. Dal Corso  v.5.1
     Shape of augmentation charge: PSQ
     Using radial grid of 1251 points,  7 beta functions with:
                l(1) =   0
                l(2) =   0
                l(3) =   0
                l(4) =   1
                l(5) =   1
                l(6) =   2
                l(7) =   2
     Q(r) pseudized with 0 coefficients

     PseudoPot. # 2 for Bi read from file:
     /home/pragov/projects/rrg-bengioy-ad/pragov/crystal_structure_design/SSSP/Bi_pbe_v1.uspp.F.UPF
     MD5 check sum: cceb9f28ec65b6d7ff33140f5b0b1758
     Pseudo is Ultrasoft + core correction, Zval = 15.0
     Generated by new atomic code, or converted to UPF format
     Using radial grid of  899 points,  6 beta functions with:
                l(1) =   0
                l(2) =   0
                l(3) =   1
                l(4) =   1
                l(5) =   2
                l(6) =   2
     Q(r) pseudized with  6 coefficients,  rinner =    1.000   1.000   1.000
                                                       1.000   1.000

     PseudoPot. # 3 for O  read from file:
     /home/pragov/projects/rrg-bengioy-ad/pragov/crystal_structure_design/SSSP/O.pbe-n-kjpaw_psl.0.1.UPF
     MD5 check sum: 0234752ac141de4415c5fc33072bef88
     Pseudo is Projector augmented-wave + core cor, Zval =  6.0
     Generated using "atomic" code by A. Dal Corso  v.5.0.99 svn rev. 10869
     Shape of augmentation charge: BESSEL
     Using radial grid of 1095 points,  4 beta functions with:
                l(1) =   0
                l(2) =   0
                l(3) =   1
                l(4) =   1
     Q(r) pseudized with 0 coefficients

     atomic species   valence    mass     pseudopotential
        Ba            10.00   137.32700     Ba( 1.00)
        Bi            15.00   208.98040     Bi( 1.00)
        O              6.00    15.99900     O ( 1.00)

      2 Sym. Ops. (no inversion) found

                                    s                        frac. trans.

      isym =  1     identity

 cryst.   s( 1) = (     1          0          0      )
                  (     0          1          0      )
                  (     0          0          1      )

 cart.    s( 1) = (  1.0000000  0.0000000  0.0000000 )
                  (  0.0000000  1.0000000  0.0000000 )
                  (  0.0000000  0.0000000  1.0000000 )

      isym =  2     inv. 180 deg rotation - cart. axis [0,0,1]

 cryst.   s( 2) = (     1          0          0      )
                  (     0          1          0      )
                  (     0          0         -1      )

 cart.    s( 2) = (  1.0000000  0.0000000  0.0000000 )
                  (  0.0000000  1.0000000  0.0000000 )
                  (  0.0000000  0.0000000 -1.0000000 )

   Cartesian axes

     site n.     atom                  positions (alat units)
         1           Ba  tau(   1) = (   0.5073812   0.9534790   0.3671803  )
         2           Ba  tau(   2) = (   0.5073812   0.9534790   1.0700878  )
         3           Ba  tau(   3) = (   0.0464663   0.4925130   1.0700878  )
         4           Ba  tau(   4) = (   0.0464663   0.4925130   0.3671803  )
         5           Bi  tau(   5) = (   0.0090380   0.9908520   0.0000000  )
         6           Bi  tau(   6) = (   0.0101851   0.9897050   0.7186340  )
         7           Bi  tau(   7) = (   0.5192946   0.4806520   0.7186340  )
         8           O   tau(   8) = (   0.0098481   0.9900420   0.3583929  )
         9           O   tau(   9) = (   0.0098481   0.9900420   1.0788752  )
        10           O   tau(  10) = (   0.2526727   0.2461620   0.7186340  )
        11           O   tau(  11) = (   0.7635128   0.2364610   0.7186340  )
        12           O   tau(  12) = (   0.1015001   0.3049990   0.0000000  )
        13           O   tau(  13) = (   0.5078034   0.4921420   0.3863204  )
        14           O   tau(  14) = (   0.5078034   0.4921420   1.0509477  )
        15           O   tau(  15) = (   0.6949013   0.8984660   0.0000000  )
        16           O   tau(  16) = (   0.7537550   0.7473000   0.7186340  )
        17           O   tau(  17) = (   0.2397886   0.7601270   0.0000000  )
        18           O   tau(  18) = (   0.2609920   0.7389260   0.7186340  )

   Crystallographic axes

     site n.     atom                  positions (cryst. coord.)
         1           Ba  tau(   1) = (  0.5074870  0.9534790  0.2554710  )
         2           Ba  tau(   2) = (  0.5074870  0.9534790  0.7445290  )
         3           Ba  tau(   3) = (  0.0465210  0.4925130  0.7445290  )
         4           Ba  tau(   4) = (  0.0465210  0.4925130  0.2554710  )
         5           Bi  tau(   5) = (  0.0091480  0.9908520  0.0000000  )
         6           Bi  tau(   6) = (  0.0102950  0.9897050  0.5000000  )
         7           Bi  tau(   7) = (  0.5193480  0.4806520  0.5000000  )
         8           O   tau(   8) = (  0.0099580  0.9900420  0.2493570  )
         9           O   tau(   9) = (  0.0099580  0.9900420  0.7506430  )
        10           O   tau(  10) = (  0.2527000  0.2461620  0.5000000  )
        11           O   tau(  11) = (  0.7635390  0.2364610  0.5000000  )
        12           O   tau(  12) = (  0.1015340  0.3049990  0.0000000  )
        13           O   tau(  13) = (  0.5078580  0.4921420  0.2687880  )
        14           O   tau(  14) = (  0.5078580  0.4921420  0.7312120  )
        15           O   tau(  15) = (  0.6950010  0.8984660  0.0000000  )
        16           O   tau(  16) = (  0.7538380  0.7473000  0.5000000  )
        17           O   tau(  17) = (  0.2398730  0.7601270  0.0000000  )
        18           O   tau(  18) = (  0.2610740  0.7389260  0.5000000  )

     number of k points=     1  Methfessel-Paxton smearing, width (Ry)=  0.0010
                       cart. coord. in units 2pi/alat
        k(    1) = (   0.0000000   0.0000000   0.0000000), wk =   2.0000000

                       cryst. coord.
        k(    1) = (   0.0000000   0.0000000   0.0000000), wk =   2.0000000

     Check: negative core charge=   -0.000009

     Initial potential from superposition of free atoms

     starting charge     147.9318, renormalised to     151.0000

     negative rho (up, down):  1.266E-01 0.000E+00
     Starting wfcs are   91 randomized atomic wfcs
     Checking if some PAW data can be deallocated...

     Self-consistent Calculation

     iteration #  1     ecut=    30.00 Ry     beta= 0.70
     Davidson diagonalization with overlap

     ethr =  1.00E-02,  avg # of iterations =  9.0

     negative rho (up, down):  1.754E-01 0.000E+00

     total energy              =   -2756.79244732 Ry
     estimated scf accuracy    <       3.91914713 Ry

[...]

     total energy              =   -2758.61868687 Ry
     estimated scf accuracy    <       0.00000177 Ry

     iteration # 23     ecut=    30.00 Ry     beta= 0.70
     Davidson diagonalization with overlap

     ethr =  1.17E-09,  avg # of iterations =  2.0

[...]

     End of self-consistent calculation

          k = 0.0000 0.0000 0.0000 (  3245 PWs)   bands (ev):

   -18.6697 -18.6386 -18.6154 -18.5912 -15.1955 -15.1455 -14.9702 -14.9275
   -14.8935 -14.8924 -14.8877 -14.8510 -14.8401 -14.8335 -14.6745 -14.6205
   -14.5962 -14.5457 -14.5418 -10.5935 -10.1609  -9.5065  -9.5025  -9.2179
    -9.0625  -8.7393  -8.7216  -8.5047  -8.3174  -8.0009  -4.0673  -4.0477
    -3.9715  -3.8933  -3.8345  -3.7949  -3.7645  -3.7483  -3.7383  -3.6606
    -3.6547  -3.6365  -3.1019  -1.0908   0.6421   2.2652   2.2755   2.5682
     3.7027   4.1969   4.5153   4.9699   5.2651   5.4348   5.4673   5.6855
     5.7145   5.8685   5.8874   5.9349   5.9870   6.0608   6.0858   6.1816
     6.1850   6.3326   6.3512   6.4865   6.6126   6.6347   6.6571   6.8040
     6.8634   6.9980   7.0898   7.3666   9.3081  10.6932  11.2266  11.2831
    11.4404  11.5552  11.9935  12.2136  12.4971  12.6138  13.1782  13.3876
    13.6166  13.6247  13.7444

     occupation numbers
     1.0000   1.0000   1.0000   1.0000   1.0000   1.0000   1.0000   1.0000
     1.0000   1.0000   1.0000   1.0000   1.0000   1.0000   1.0000   1.0000
     1.0000   1.0000   1.0000   1.0000   1.0000   1.0000   1.0000   1.0000
     1.0000   1.0000   1.0000   1.0000   1.0000   1.0000   1.0000   1.0000
     1.0000   1.0000   1.0000   1.0000   1.0000   1.0000   1.0000   1.0000
     1.0000   1.0000   1.0000   1.0000   1.0000   1.0000   1.0000   1.0000
     1.0000   1.0000   1.0000   1.0000   1.0000   1.0000   1.0000   1.0000
     1.0000   1.0000   1.0000   1.0000   1.0000   1.0000   1.0000   1.0000
     1.0000   1.0000   1.0000   1.0000   1.0000   1.0000   1.0000   1.0000
     1.0000   1.0000   1.0000   0.5000  -0.0000  -0.0000  -0.0000  -0.0000
    -0.0000  -0.0000  -0.0000  -0.0000  -0.0000  -0.0000  -0.0000  -0.0000
    -0.0000  -0.0000  -0.0000

     the Fermi energy is     7.3666 ev

!    total energy              =   -2758.61868679 Ry
     estimated scf accuracy    <       0.00000049 Ry
     smearing contrib. (-TS)   =      -0.00028209 Ry
     internal energy E=F+TS    =   -2758.61840469 Ry

     The total energy is F=E-TS. E is the sum of the following terms:
     one-electron contribution =    -441.17300234 Ry
     hartree contribution      =     316.48581248 Ry
     xc contribution           =    -357.30358884 Ry
     ewald contribution        =    -671.97279759 Ry
     one-center paw contrib.   =   -1604.65482841 Ry
      -> PAW hartree energy AE =     431.37608565 Ry
      -> PAW hartree energy PS =    -429.82616233 Ry
      -> PAW xc energy AE      =   -1764.40153109 Ry
      -> PAW xc energy PS      =     158.19677937 Ry
      -> total E_H with PAW    =     318.03573580 Ry
      -> total E_XC with PAW   =   -1963.50834057 Ry

     convergence has been achieved in  23 iterations

     negative rho (up, down):  1.289E-01 0.000E+00

     Forces acting on atoms (cartesian axes, Ry/au):

     atom    1 type  1   force =     0.00000220   -0.01601485   -0.00946973
     atom    2 type  1   force =     0.00000220   -0.01601485    0.00946973
     atom    3 type  1   force =     0.01600983   -0.00000182    0.00946865
     atom    4 type  1   force =     0.01600983   -0.00000182   -0.00946865
     atom    5 type  2   force =    -0.00444450    0.00444293    0.00000000
     atom    6 type  2   force =    -0.00045327    0.00045301    0.00000000
     atom    7 type  2   force =     0.00374067   -0.00373859    0.00000000
     atom    8 type  3   force =    -0.00437507    0.00437650   -0.00253195
     atom    9 type  3   force =    -0.00437507    0.00437650    0.00253195
     atom   10 type  3   force =    -0.00765094   -0.00420519    0.00000000
     atom   11 type  3   force =     0.00314962   -0.00314896    0.00000000
     atom   12 type  3   force =    -0.01816870   -0.01201418    0.00000000
     atom   13 type  3   force =    -0.00072745    0.00073021    0.03001847
     atom   14 type  3   force =    -0.00072745    0.00073021   -0.03001847
     atom   15 type  3   force =     0.01201344    0.01817024    0.00000000
     atom   16 type  3   force =     0.00420583    0.00765247    0.00000000
     atom   17 type  3   force =    -0.00527851    0.00527774    0.00000000
     atom   18 type  3   force =    -0.00893267    0.00893047    0.00000000
     The non-local contrib.  to forces
     atom    1 type  1   force =    -0.01416043    0.03750370    0.01589582
     atom    2 type  1   force =    -0.01416043    0.03750370   -0.01589582
     atom    3 type  1   force =    -0.03747332    0.01415613   -0.01590662
     atom    4 type  1   force =    -0.03747332    0.01415613    0.01590662
     atom    5 type  2   force =    -0.04659331    0.04658493    0.00000000
     atom    6 type  2   force =     0.00711987   -0.00711993    0.00000000
     atom    7 type  2   force =     0.00412074   -0.00412167    0.00000000
     atom    8 type  3   force =     0.02578300   -0.02578031   -0.02138314
     atom    9 type  3   force =     0.02578300   -0.02578031    0.02138314
     atom   10 type  3   force =    -0.00839694   -0.08528496    0.00000000
     atom   11 type  3   force =    -0.04498308    0.04497864    0.00000000
     atom   12 type  3   force =    -0.39154555   -0.93923816    0.00000000
     atom   13 type  3   force =    -0.03078168    0.03077954    0.85377410
     atom   14 type  3   force =    -0.03078168    0.03077954   -0.85377410
     atom   15 type  3   force =     0.93919300    0.39164847    0.00000000
     atom   16 type  3   force =     0.08528496    0.00840597    0.00000000
     atom   17 type  3   force =    -0.86991061    0.86981415    0.00000000
     atom   18 type  3   force =    -0.13695904    0.13694394    0.00000000
     The ionic contribution  to forces
     atom    1 type  1   force =     0.40232866    2.58971860   -8.04124198
     atom    2 type  1   force =     0.40232866    2.58971860    8.04124198
     atom    3 type  1   force =    -2.58967392   -0.40261615    8.04124198
     atom    4 type  1   force =    -2.58967392   -0.40261615   -8.04124198
     atom    5 type  2   force =    -1.89472884    1.89451852    0.00000000
     atom    6 type  2   force =    -0.22738706    0.22736182    0.00000000
     atom    7 type  2   force =     1.82180004   -1.82159782    0.00000000
     atom    8 type  3   force =    -0.55581504    0.55575334   -3.45592405
     atom    9 type  3   force =    -0.55581504    0.55575334    3.45592405
     atom   10 type  3   force =     0.42079124    0.12518682    0.00000000
     atom   11 type  3   force =    -0.38924134    0.38919813    0.00000000
     atom   12 type  3   force =     3.17401412    7.92482036    0.00000000
     atom   13 type  3   force =     1.46146409   -1.46130186  -14.66663569
     atom   14 type  3   force =     1.46146409   -1.46130186   14.66663569
     atom   15 type  3   force =    -7.92446796   -3.17489384    0.00000000
     atom   16 type  3   force =    -0.12514010   -0.42080513    0.00000000
     atom   17 type  3   force =     7.41264723   -7.41182439   -0.00000000
     atom   18 type  3   force =     0.29510508   -0.29507233    0.00000000
     The local contribution  to forces
     atom    1 type  1   force =    -0.38828723   -2.64267605    8.01623362
     atom    2 type  1   force =    -0.38827589   -2.64211158   -8.01556762
     atom    3 type  1   force =     2.64228780    0.38901986   -8.01633233
     atom    4 type  1   force =     2.64234987    0.38813215    8.01547690
     atom    5 type  2   force =     1.93378773   -1.93356904   -0.00006277
     atom    6 type  2   force =     0.21979558   -0.21976843    0.00005967
     atom    7 type  2   force =    -1.82348086    1.82327736    0.00017132
     atom    8 type  3   force =     0.52597452   -0.52591902    3.47464994
     atom    9 type  3   force =     0.52597257   -0.52590540   -3.47466071
     atom   10 type  3   force =    -0.42004298   -0.04514175    0.00002394
     atom   11 type  3   force =     0.43682384   -0.43677494    0.00001202
     atom   12 type  3   force =    -2.80450669   -7.00769401   -0.00002952
     atom   13 type  3   force =    -1.43164369    1.43149061   13.85156915
     atom   14 type  3   force =    -1.43163978    1.43147676  -13.85152445
     atom   15 type  3   force =     7.00738395    2.80528703   -0.00002619
     atom   16 type  3   force =     0.04509710    0.42004683    0.00000986
     atom   17 type  3   force =    -6.55722157    6.55649670   -0.00003595
     atom   18 type  3   force =    -0.16862146    0.16859722    0.00001392
     The core correction contribution to forces
     atom    1 type  1   force =     0.00008504   -0.00088083    0.00018595
     atom    2 type  1   force =     0.00008288   -0.00086729   -0.00017331
     atom    3 type  1   force =     0.00087349   -0.00007735   -0.00018769
     atom    4 type  1   force =     0.00087378   -0.00008914    0.00017322
     atom    5 type  2   force =     0.00311832   -0.00311789   -0.00000001
     atom    6 type  2   force =     0.00014086   -0.00014076   -0.00000013
     atom    7 type  2   force =     0.00115241   -0.00115203   -0.00000191
     atom    8 type  3   force =    -0.00030091    0.00030094    0.00026896
     atom    9 type  3   force =    -0.00030097    0.00030090   -0.00026914
     atom   10 type  3   force =     0.00002148    0.00106318   -0.00000024
     atom   11 type  3   force =     0.00053500   -0.00053495   -0.00000030
     atom   12 type  3   force =     0.00388660    0.01013005    0.00000010
     atom   13 type  3   force =     0.00021037   -0.00021042   -0.00852867
     atom   14 type  3   force =     0.00021042   -0.00021037    0.00852857
     atom   15 type  3   force =    -0.01012959   -0.00388770    0.00000002
     atom   16 type  3   force =    -0.00106318   -0.00002157   -0.00000022
     atom   17 type  3   force =     0.00923627   -0.00923524   -0.00000008
     atom   18 type  3   force =     0.00156239   -0.00156223   -0.00000018
     The Hubbard contrib.    to forces
     atom    1 type  1   force =     0.00000000    0.00000000    0.00000000
     atom    2 type  1   force =     0.00000000    0.00000000    0.00000000
     atom    3 type  1   force =     0.00000000    0.00000000    0.00000000
     atom    4 type  1   force =     0.00000000    0.00000000    0.00000000
     atom    5 type  2   force =     0.00000000    0.00000000    0.00000000
     atom    6 type  2   force =     0.00000000    0.00000000    0.00000000
     atom    7 type  2   force =     0.00000000    0.00000000    0.00000000
     atom    8 type  3   force =     0.00000000    0.00000000    0.00000000
     atom    9 type  3   force =     0.00000000    0.00000000    0.00000000
     atom   10 type  3   force =     0.00000000    0.00000000    0.00000000
     atom   11 type  3   force =     0.00000000    0.00000000    0.00000000
     atom   12 type  3   force =     0.00000000    0.00000000    0.00000000
     atom   13 type  3   force =     0.00000000    0.00000000    0.00000000
     atom   14 type  3   force =     0.00000000    0.00000000    0.00000000
     atom   15 type  3   force =     0.00000000    0.00000000    0.00000000
     atom   16 type  3   force =     0.00000000    0.00000000    0.00000000
     atom   17 type  3   force =     0.00000000    0.00000000    0.00000000
     atom   18 type  3   force =     0.00000000    0.00000000    0.00000000
     The SCF correction term to forces
     atom    1 type  1   force =     0.00003124    0.00006456   -0.00025127
     atom    2 type  1   force =     0.00002984   -0.00000278    0.00015637
     atom    3 type  1   force =    -0.00004141   -0.00008686    0.00027214
     atom    4 type  1   force =    -0.00003146    0.00001807   -0.00016457
     atom    5 type  2   force =    -0.00002944    0.00002658    0.00006787
     atom    6 type  2   force =    -0.00012355    0.00012049   -0.00006226
     atom    7 type  2   force =     0.00014730   -0.00014426   -0.00019451
     atom    8 type  3   force =    -0.00001628    0.00002445   -0.00015002
     atom    9 type  3   force =    -0.00001703    0.00000540    0.00014827
     atom   10 type  3   force =    -0.00002478   -0.00002831   -0.00003990
     atom   11 type  3   force =     0.00001418   -0.00001567   -0.00003418
     atom   12 type  3   force =    -0.00001821   -0.00003225    0.00003883
     atom   13 type  3   force =     0.00002040   -0.00002907   -0.00015402
     atom   14 type  3   force =     0.00002049   -0.00001213    0.00012221
     atom   15 type  3   force =     0.00003301    0.00001645    0.00002905
     atom   16 type  3   force =     0.00002602    0.00002655   -0.00002302
     atom   17 type  3   force =    -0.00003087    0.00002669    0.00003186
     atom   18 type  3   force =    -0.00002068    0.00002404   -0.00002461

     Total force =     0.068428     Total SCF correction =     0.000654

     Computing stress (Cartesian axis) and pressure

     negative rho (up, down):  1.289E-01 0.000E+00
          total   stress  (Ry/bohr**3)                   (kbar)     P=     -203.54
  -0.00116552   0.00000644   0.00000000         -171.45        0.95        0.00
   0.00000644  -0.00116551   0.00000000            0.95     -171.45        0.00
   0.00000000   0.00000000  -0.00181997            0.00        0.00     -267.73

     kinetic stress (kbar)  12728.48     11.60      0.00
                               11.60  12728.48      0.00
                                0.00      0.00  12533.40

     local   stress (kbar) -10485.67   -681.69      0.00
                             -681.69 -10485.82     -0.00
                                0.00     -0.00  -6134.46

     nonloc. stress (kbar)   8078.60     -2.96      0.00
                               -2.96   8078.60      0.00
                                0.00      0.00   8060.58

     hartree stress (kbar)   7430.63    299.69     -0.00
                              299.69   7430.70      0.00
                               -0.00      0.00   5116.14

     exc-cor stress (kbar)   8179.07      0.24     -0.00
                                0.24   8179.07     -0.00
                               -0.00     -0.00   8183.45

     corecor stress (kbar) -12606.05      0.09      0.00
                                0.09 -12606.05      0.00
                                0.00      0.00 -12603.00

     ewald   stress (kbar) -13496.53    373.98      0.00
                              373.98 -13496.44      0.00
                                0.00      0.00 -15423.83

     hubbard stress (kbar)      0.00      0.00      0.00
                                0.00      0.00      0.00
                                0.00      0.00      0.00

     DFT-D   stress (kbar)      0.00      0.00      0.00
                                0.00      0.00      0.00
                                0.00      0.00      0.00

     XDM     stress (kbar)      0.00      0.00      0.00
                                0.00      0.00      0.00
                                0.00      0.00      0.00

     dft-nl  stress (kbar)      0.00      0.00      0.00
                                0.00      0.00      0.00
                                0.00      0.00      0.00

     TS-vdW  stress (kbar)      0.00      0.00      0.00
                                0.00      0.00      0.00
                                0.00      0.00      0.00

[...]

                                0.00      0.00      0.00

     Writing all to output data dir new_calculations/myprefix.save/

     General routines

     Parallel routines

     PAW routines

   This run was terminated on:  20:15:56  20May2023

   JOB DONE.