     Program PWSCF v.7.0 starts on 20May2023 at 21:54:11

     Reading input from espresso_1758.pwi
Warning: card &CELL ignored
Warning: card / ignored

     Current dimensions of program PWSCF are:
     Max number of different atomic species (ntypx) = 10
     Max number of k-points (npk) =  40000
     Max angular momentum in pseudopotentials (lmaxx) =  4

     gamma-point specific algorithms are used
     Message from routine setup:
     using ibrav=0 with symmetry is DISCOURAGED, use correct ibrav instead

     Subspace diagonalization in iterative solution of the eigenvalue problem:
     a serial algorithm will be used

     Using Slab Decomposition

     bravais-lattice index     =            0
     lattice parameter (alat)  =      13.2489  a.u.
     unit-cell volume          =     995.9267 (a.u.)^3
     number of atoms/cell      =            9
     number of atomic types    =            3
     number of electrons       =       123.00
     number of Kohn-Sham states=           74
     kinetic-energy cutoff     =      30.0000  Ry
     charge density cutoff     =     240.0000  Ry
     scf convergence threshold =      1.0E-06
     mixing beta               =       0.7000
     number of iterations used =            8  plain     mixing
     Exchange-correlation= SLA  PW   PBE  PBE
                           (   1   4   3   4   0   0   0)

     celldm(1)=  13.248863  celldm(2)=   0.000000  celldm(3)=   0.000000
     celldm(4)=   0.000000  celldm(5)=   0.000000  celldm(6)=   0.000000

     crystal axes: (cart. coord. in units of alat)
               a(1) = (   1.000000   0.000000   0.000000 )
               a(2) = (  -0.500000   0.866025   0.000000 )
               a(3) = (   0.000000   0.000000   0.494494 )

     reciprocal axes: (cart. coord. in units 2 pi/alat)
               b(1) = (  1.000000  0.577350  0.000000 )
               b(2) = (  0.000000  1.154701  0.000000 )
               b(3) = (  0.000000  0.000000  2.022270 )

     PseudoPot. # 1 for Sc read from file:
     /home/pragov/projects/rrg-bengioy-ad/pragov/crystal_structure_design/SSSP/Sc_ONCV_PBE-1.0.oncvpsp.upf
     MD5 check sum: e21af8023abb52e52cb7cd3133e4a229
     Pseudo is Norm-conserving, Zval = 11.0
     Generated using ONCVPSP code by D. R. Hamann
     Using radial grid of 1662 points,  6 beta functions with:
                l(1) =   0
                l(2) =   0
                l(3) =   1
                l(4) =   1
                l(5) =   2
                l(6) =   2

     PseudoPot. # 2 for Ge read from file:
     /home/pragov/projects/rrg-bengioy-ad/pragov/crystal_structure_design/SSSP/ge_pbe_v1.4.uspp.F.UPF
     MD5 check sum: 9c9eaa91e581c3f09632fb3098b2c6b2
     Pseudo is Ultrasoft + core correction, Zval = 14.0
     Generated by new atomic code, or converted to UPF format
     Using radial grid of  873 points,  6 beta functions with:
                l(1) =   0
                l(2) =   0
                l(3) =   1
                l(4) =   1
                l(5) =   2
                l(6) =   2
     Q(r) pseudized with  8 coefficients,  rinner =    1.400   1.400   1.400
                                                       1.400   1.400

     PseudoPot. # 3 for Os read from file:
     /home/pragov/projects/rrg-bengioy-ad/pragov/crystal_structure_design/SSSP/Os_pbe_v1.2.uspp.F.UPF
     MD5 check sum: a3fb40a04f0c37c25c34bbc47164c9a8
     Pseudo is Ultrasoft + core correction, Zval = 16.0
     Generated by new atomic code, or converted to UPF format
     Using radial grid of  983 points,  8 beta functions with:
                l(1) =   0
                l(2) =   0
                l(3) =   1
                l(4) =   1
                l(5) =   2
                l(6) =   2
                l(7) =   3
                l(8) =   3
     Q(r) pseudized with  8 coefficients,  rinner =    1.150   1.150   1.150
                                                       1.150   1.150   1.150
                                                       1.150

     atomic species   valence    mass     pseudopotential
        Sc            11.00    44.95591     Sc( 1.00)
        Ge            14.00    72.63000     Ge( 1.00)
        Os            16.00   190.23000     Os( 1.00)

     12 Sym. Ops. (no inversion) found

                                    s                        frac. trans.

      isym =  1     identity

 cryst.   s( 1) = (     1          0          0      )
                  (     0          1          0      )
                  (     0          0          1      )

 cart.    s( 1) = (  1.0000000  0.0000000  0.0000000 )
                  (  0.0000000  1.0000000  0.0000000 )
                  (  0.0000000  0.0000000  1.0000000 )

      isym =  2     180 deg rotation - cart. axis [1,0,0]

[...]

      isym =  3     120 deg rotation - cryst. axis [0,0,1]

[...]

      isym =  6     180 deg rotation - cryst. axis [1,1,0]

[...]

      isym =  7     inv. 180 deg rotation - cart. axis [0,0,1]

[...]

      isym =  8     inv. 180 deg rotation - cart. axis [0,1,0]

[...]

      isym =  9     inv.  60 deg rotation - cryst. axis [0,0,1]

 cryst.   s( 9) = (    -1         -1          0      )
                  (     1          0          0      )
                  (     0          0         -1      )

 cart.    s( 9) = ( -0.5000000  0.8660254  0.0000000 )
                  ( -0.8660254 -0.5000000  0.0000000 )
                  (  0.0000000  0.0000000 -1.0000000 )

[...]

 cryst.   s(10) = (     0          1          0      )
                  (    -1         -1          0      )
                  (     0          0         -1      )

 cart.    s(10) = ( -0.5000000 -0.8660254  0.0000000 )
                  (  0.8660254 -0.5000000  0.0000000 )
                  (  0.0000000  0.0000000 -1.0000000 )

[...]

      isym = 12     inv. 180 deg rotation - cryst. axis [2,1,0]

 cryst.   s(12) = (    -1         -1          0      )
                  (     0          1          0      )
                  (     0          0          1      )

 cart.    s(12) = ( -0.5000000 -0.8660255  0.0000000 )
                  ( -0.8660254  0.5000000  0.0000000 )
                  (  0.0000000  0.0000000  1.0000000 )

   Cartesian axes

     site n.     atom                  positions (alat units)
         1           Sc  tau(   1) = (   0.2006780   0.3475845   0.2472470  )
         2           Sc  tau(   2) = (   0.5986440   0.0000000   0.2472470  )
         3           Sc  tau(   3) = (   0.7006780   0.5184409   0.2472470  )
         4           Ge  tau(   4) = (   0.5000005   0.2886748   0.0000000  )
         5           Ge  tau(   5) = (  -0.0000005   0.5773505   0.0000000  )
         6           Ge  tau(   6) = (   0.0000000   0.0000000   0.2472470  )
         7           Os  tau(   7) = (   0.3719465   0.6442302   0.0000000  )
         8           Os  tau(   8) = (   0.2561070   0.0000000   0.0000000  )
         9           Os  tau(   9) = (  -0.1280535   0.2217952   0.0000000  )

   Crystallographic axes

     site n.     atom                  positions (cryst. coord.)
         1           Sc  tau(   1) = (  0.4013560  0.4013560  0.5000000  )
         2           Sc  tau(   2) = (  0.5986440  0.0000000  0.5000000  )
         3           Sc  tau(   3) = (  1.0000000  0.5986440  0.5000000  )
         4           Ge  tau(   4) = (  0.6666670  0.3333330  0.0000000  )
         5           Ge  tau(   5) = (  0.3333330  0.6666670  0.0000000  )
         6           Ge  tau(   6) = (  0.0000000  0.0000000  0.5000000  )
         7           Os  tau(   7) = (  0.7438930  0.7438930  0.0000000  )
         8           Os  tau(   8) = (  0.2561070  0.0000000  0.0000000  )
         9           Os  tau(   9) = ( -0.0000000  0.2561070  0.0000000  )

     number of k points=     1  Methfessel-Paxton smearing, width (Ry)=  0.0010
                       cart. coord. in units 2pi/alat
        k(    1) = (   0.0000000   0.0000000   0.0000000), wk =   2.0000000

                       cryst. coord.
        k(    1) = (   0.0000000   0.0000000   0.0000000), wk =   2.0000000

     Check: negative core charge=   -0.000002

     Initial potential from superposition of free atoms

     starting charge     121.4894, renormalised to     123.0000

     negative rho (up, down):  3.743E-01 0.000E+00
     Starting wfcs are   96 randomized atomic wfcs

     Self-consistent Calculation

     iteration #  1     ecut=    30.00 Ry     beta= 0.70
     Davidson diagonalization with overlap

     ethr =  1.00E-02,  avg # of iterations =  2.0

     negative rho (up, down):  3.180E-01 0.000E+00

     total energy              =   -1510.47438255 Ry
     estimated scf accuracy    <       2.87845975 Ry

[...]

     total energy              =   -1512.38030607 Ry
     estimated scf accuracy    <       0.00000232 Ry

     iteration # 24     ecut=    30.00 Ry     beta= 0.70
     Davidson diagonalization with overlap

     ethr =  1.89E-09,  avg # of iterations =  1.0

[...]

     End of self-consistent calculation

          k = 0.0000 0.0000 0.0000 (  1371 PWs)   bands (ev):

   -68.6963 -68.6927 -68.6924 -32.6359 -32.6301 -32.6297 -28.2792 -28.2423
   -28.2421 -28.2007 -28.1797 -28.1795 -27.8382 -27.8258 -27.8254 -11.3891
   -11.3887 -11.3861 -11.3633 -11.2933 -11.2930 -11.1582 -11.1577 -11.1559
    -8.5941  -8.5823  -8.5526  -8.5526  -8.5345  -8.5345  -8.4740  -8.4740
    -8.4625  -8.4625  -7.8208  -7.8208  -7.8084  -7.8084  -7.8054   5.0619
     6.7143   7.0153  10.9941  10.9942  12.0633  12.0634  13.0156  13.0565
    13.0565  13.2523  14.0651  14.0652  14.5513  14.6320  15.3311  15.3312
    15.3351  15.3352  15.8206  15.8208  17.1026  17.4574  17.4605  17.6435
    17.6438  18.2424  18.7670  18.8086  18.8086  18.8272  18.8274  18.9338
    19.5139  19.5139

     occupation numbers
     1.0000   1.0000   1.0000   1.0000   1.0000   1.0000   1.0000   1.0000
     1.0000   1.0000   1.0000   1.0000   1.0000   1.0000   1.0000   1.0000
     1.0000   1.0000   1.0000   1.0000   1.0000   1.0000   1.0000   1.0000
     1.0000   1.0000   1.0000   1.0000   1.0000   1.0000   1.0000   1.0000
     1.0000   1.0000   1.0000   1.0000   1.0000   1.0000   1.0000   1.0000
     1.0000   1.0000   1.0000   1.0000   1.0000   1.0000   1.0000   1.0000
     1.0000   1.0000   1.0000   1.0000   1.0000   1.0000   1.0000   1.0000
     1.0000   1.0000   1.0000   1.0000   1.0000   0.3308   0.1692  -0.0000
    -0.0000  -0.0000  -0.0000  -0.0000  -0.0000  -0.0000  -0.0000  -0.0000
    -0.0000  -0.0000

     the Fermi energy is    17.4546 ev

!    total energy              =   -1512.38030606 Ry
     estimated scf accuracy    <       0.00000009 Ry
     smearing contrib. (-TS)   =      -0.00039433 Ry
     internal energy E=F+TS    =   -1512.37991174 Ry

     The total energy is F=E-TS. E is the sum of the following terms:
     one-electron contribution =    -537.00895647 Ry
     hartree contribution      =     353.44453356 Ry
     xc contribution           =    -323.77290814 Ry
     ewald contribution        =   -1005.04258068 Ry

     convergence has been achieved in  24 iterations

     negative rho (up, down):  3.478E-01 0.000E+00

     Forces acting on atoms (cartesian axes, Ry/au):

     atom    1 type  1   force =     0.03786858    0.06559031    0.00000000
     atom    2 type  1   force =    -0.07573717   -0.00000000    0.00000000
     atom    3 type  1   force =     0.03786858   -0.06559031    0.00000000
     atom    4 type  2   force =     0.00000000   -0.00000000    0.00000000
     atom    5 type  2   force =     0.00000000    0.00000000    0.00000000
     atom    6 type  2   force =    -0.00000000   -0.00000000    0.00000000
     atom    7 type  3   force =    -0.01900187   -0.03291220   -0.00000000
     atom    8 type  3   force =     0.03800374    0.00000000    0.00000000
     atom    9 type  3   force =    -0.01900187    0.03291220    0.00000000
     The non-local contrib.  to forces
     atom    1 type  1   force =     0.03577596    0.06196579    0.00000000
     atom    2 type  1   force =    -0.07155193   -0.00000000    0.00000000
     atom    3 type  1   force =     0.03577596   -0.06196579    0.00000000
     atom    4 type  2   force =    -0.00000000    0.00000000    0.00000000
     atom    5 type  2   force =     0.00000000    0.00000000   -0.00000000
     atom    6 type  2   force =     0.00000000    0.00000000    0.00000000
     atom    7 type  3   force =     0.03954005    0.06848537    0.00000000
     atom    8 type  3   force =    -0.07908009   -0.00000000    0.00000000
     atom    9 type  3   force =     0.03954005   -0.06848537   -0.00000000
     The ionic contribution  to forces
     atom    1 type  1   force =     1.65526397    2.86700147    0.00000000
     atom    2 type  1   force =    -3.31046729   -0.00003474    0.00000000
     atom    3 type  1   force =     1.65520370   -2.86696606    0.00000000
     atom    4 type  2   force =    -0.00013477    0.00007860    0.00000000
     atom    5 type  2   force =     0.00013545   -0.00007742    0.00000000
     atom    6 type  2   force =     0.00000036    0.00000062   -0.00000000
     atom    7 type  3   force =    -5.95585094  -10.31583704    0.00000000
     atom    8 type  3   force =    11.91155469    0.00008393   -0.00000000
     atom    9 type  3   force =    -5.95570519   10.31575063   -0.00000000
     The local contribution  to forces
     atom    1 type  1   force =    -1.65279342   -2.86321373   -0.00000155
     atom    2 type  1   force =     3.30600748    0.00012212   -0.00000348
     atom    3 type  1   force =    -1.65329883    2.86314780   -0.00000698
     atom    4 type  2   force =    -0.00019225    0.00032675   -0.00029117
     atom    5 type  2   force =    -0.00007817   -0.00020690    0.00031362
     atom    6 type  2   force =     0.00027314   -0.00016081   -0.00000730
     atom    7 type  3   force =     5.89980814   10.21769335    0.00000525
     atom    8 type  3   force =   -11.79908011    0.00015026    0.00000904
     atom    9 type  3   force =     5.89954972  -10.21793627    0.00000770
     The core correction contribution to forces
     atom    1 type  1   force =     0.00000000    0.00000000    0.00000000
     atom    2 type  1   force =     0.00000000    0.00000000    0.00000000
     atom    3 type  1   force =     0.00000000    0.00000000    0.00000000
     atom    4 type  2   force =     0.00000023    0.00000027   -0.00000650
     atom    5 type  2   force =    -0.00000087   -0.00000054    0.00000697
     atom    6 type  2   force =     0.00000102    0.00000004   -0.00000011
     atom    7 type  3   force =    -0.00235329   -0.00407944   -0.00000020
     atom    8 type  3   force =     0.00470481   -0.00000041    0.00000003
     atom    9 type  3   force =    -0.00235278    0.00407761    0.00000022
     The Hubbard contrib.    to forces
     atom    1 type  1   force =     0.00000000    0.00000000    0.00000000
     atom    2 type  1   force =     0.00000000    0.00000000    0.00000000
     atom    3 type  1   force =     0.00000000    0.00000000    0.00000000
     atom    4 type  2   force =     0.00000000    0.00000000    0.00000000
     atom    5 type  2   force =     0.00000000    0.00000000    0.00000000
     atom    6 type  2   force =     0.00000000    0.00000000    0.00000000
     atom    7 type  3   force =     0.00000000    0.00000000    0.00000000
     atom    8 type  3   force =     0.00000000    0.00000000    0.00000000
     atom    9 type  3   force =     0.00000000    0.00000000    0.00000000
     The SCF correction term to forces
     atom    1 type  1   force =    -0.00039325   -0.00017083    0.00000142
     atom    2 type  1   force =     0.00027522   -0.00007574    0.00000378
     atom    3 type  1   force =     0.00019957    0.00018337    0.00000708
     atom    4 type  2   force =     0.00038396   -0.00044681    0.00023139
     atom    5 type  2   force =    -0.00006403    0.00028768   -0.00026173
     atom    6 type  2   force =    -0.00033313    0.00016929    0.00001015
     atom    7 type  3   force =    -0.00014559    0.00083522   -0.00000347
     atom    8 type  3   force =    -0.00007226   -0.00022860   -0.00001052
     atom    9 type  3   force =    -0.00003308   -0.00051117   -0.00001001

     Total force =     0.146769     Total SCF correction =     0.001440

     Computing stress (Cartesian axis) and pressure

     negative rho (up, down):  3.478E-01 0.000E+00
          total   stress  (Ry/bohr**3)                   (kbar)     P=     -138.43
  -0.00122902  -0.00000000   0.00000000         -180.79       -0.00        0.00
  -0.00000000  -0.00122902   0.00000000           -0.00     -180.79        0.00
   0.00000000   0.00000000  -0.00036495            0.00        0.00      -53.69

     kinetic stress (kbar)  32528.54      0.00      0.00
                                0.00  32528.54      0.00
                                0.00      0.00  33418.04

     local   stress (kbar)  27206.68      0.02     -0.00
                                0.02  27206.65     -0.00
                               -0.00     -0.00  29778.54

     nonloc. stress (kbar) -18511.64     -0.00      0.00
                               -0.00 -18511.64     -0.00
                                0.00     -0.00 -18777.35

     hartree stress (kbar)  17677.95      0.02      0.00
                                0.02  17678.03      0.00
                                0.00      0.00  16850.16

     exc-cor stress (kbar)  11566.19     -0.00     -0.00
                               -0.00  11566.19      0.00
                               -0.00      0.00  11574.28

     corecor stress (kbar) -21912.29      0.00      0.00
                                0.00 -21912.29     -0.00
                                0.00     -0.00 -21918.31

     ewald   stress (kbar) -48736.24     -0.03     -0.00
                               -0.03 -48736.27     -0.00
                               -0.00     -0.00 -50979.04

     hubbard stress (kbar)      0.00      0.00      0.00
                                0.00      0.00      0.00
                                0.00      0.00      0.00

     DFT-D   stress (kbar)      0.00      0.00      0.00
                                0.00      0.00      0.00
                                0.00      0.00      0.00

     XDM     stress (kbar)      0.00      0.00      0.00
                                0.00      0.00      0.00
                                0.00      0.00      0.00

     dft-nl  stress (kbar)      0.00      0.00      0.00
                                0.00      0.00      0.00
                                0.00      0.00      0.00

     TS-vdW  stress (kbar)      0.00      0.00      0.00
                                0.00      0.00      0.00
                                0.00      0.00      0.00

[...]

                                0.00      0.00      0.00

     Writing all to output data dir new_calculations/myprefix.save/

     General routines

     Parallel routines

   This run was terminated on:  21:54:48  20May2023

   JOB DONE.