     Program PWSCF v.7.0 starts on 20May2023 at 20:51: 8

     Reading input from espresso_22226.pwi
Warning: card &CELL ignored
Warning: card / ignored

     Current dimensions of program PWSCF are:
     Max number of different atomic species (ntypx) = 10
     Max number of k-points (npk) =  40000
     Max angular momentum in pseudopotentials (lmaxx) =  4
     file O.pbe-n-kjpaw_psl.0.1.UPF: wavefunction(s)  2P renormalized

     gamma-point specific algorithms are used
     Message from routine setup:
     using ibrav=0 with symmetry is DISCOURAGED, use correct ibrav instead

     Subspace diagonalization in iterative solution of the eigenvalue problem:
     a serial algorithm will be used

     Using Slab Decomposition

     bravais-lattice index     =            0
     lattice parameter (alat)  =      10.6590  a.u.
     unit-cell volume          =    1363.1067 (a.u.)^3
     number of atoms/cell      =           15
     number of atomic types    =            3
     number of electrons       =       125.00
     number of Kohn-Sham states=           76
     kinetic-energy cutoff     =      30.0000  Ry
     charge density cutoff     =     240.0000  Ry
     scf convergence threshold =      1.0E-06
     mixing beta               =       0.7000
     number of iterations used =            8  plain     mixing
     Exchange-correlation= SLA  PW   PBX  PBC
                           (   1   4   3   4   0   0   0)

     celldm(1)=  10.659050  celldm(2)=   0.000000  celldm(3)=   0.000000
     celldm(4)=   0.000000  celldm(5)=   0.000000  celldm(6)=   0.000000

     crystal axes: (cart. coord. in units of alat)
               a(1) = (   1.000000   0.000000   0.000000 )
               a(2) = (  -0.008243   0.999966   0.000000 )
               a(3) = (   0.378016   0.381145   1.125613 )

     reciprocal axes: (cart. coord. in units 2 pi/alat)
               b(1) = (  1.000000  0.008243 -0.338622 )
               b(2) = (  0.000000  1.000034 -0.338622 )
               b(3) = (  0.000000  0.000000  0.888405 )

     PseudoPot. # 1 for La read from file:
     /home/pragov/projects/rrg-bengioy-ad/pragov/crystal_structure_design/SSSP/La.GGA-PBE-paw-v1.0.UPF
     MD5 check sum: 436541e95c1ad8901025bd0b0ed42ae2
     Pseudo is Projector augmented-wave + core cor, Zval = 11.0
     Generated using ATOMPAW code
     Shape of augmentation charge: BESSEL
     Using radial grid of 1101 points,  8 beta functions with:
                l(1) =   0
                l(2) =   0
                l(3) =   1
                l(4) =   1
                l(5) =   2
                l(6) =   2
                l(7) =   3
                l(8) =   3
     Q(r) pseudized with 0 coefficients

     PseudoPot. # 2 for Os read from file:
     /home/pragov/projects/rrg-bengioy-ad/pragov/crystal_structure_design/SSSP/Os_pbe_v1.2.uspp.F.UPF
     MD5 check sum: a3fb40a04f0c37c25c34bbc47164c9a8
     Pseudo is Ultrasoft + core correction, Zval = 16.0
     Generated by new atomic code, or converted to UPF format
     Using radial grid of  983 points,  8 beta functions with:
                l(1) =   0
                l(2) =   0
                l(3) =   1
                l(4) =   1
                l(5) =   2
                l(6) =   2
                l(7) =   3
                l(8) =   3
     Q(r) pseudized with  8 coefficients,  rinner =    1.150   1.150   1.150
                                                       1.150   1.150   1.150
                                                       1.150

     PseudoPot. # 3 for O  read from file:
     /home/pragov/projects/rrg-bengioy-ad/pragov/crystal_structure_design/SSSP/O.pbe-n-kjpaw_psl.0.1.UPF
     MD5 check sum: 0234752ac141de4415c5fc33072bef88
     Pseudo is Projector augmented-wave + core cor, Zval =  6.0
     Generated using "atomic" code by A. Dal Corso  v.5.0.99 svn rev. 10869
     Shape of augmentation charge: BESSEL
     Using radial grid of 1095 points,  4 beta functions with:
                l(1) =   0
                l(2) =   0
                l(3) =   1
                l(4) =   1
     Q(r) pseudized with 0 coefficients

     atomic species   valence    mass     pseudopotential
        La            11.00   138.90547     La( 1.00)
        Os            16.00   190.23000     Os( 1.00)
        O              6.00    15.99900     O ( 1.00)

      2 Sym. Ops., with inversion, found

                                    s                        frac. trans.

      isym =  1     identity

 cryst.   s( 1) = (     1          0          0      )
                  (     0          1          0      )
                  (     0          0          1      )

 cart.    s( 1) = (  1.0000000  0.0000000  0.0000000 )
                  (  0.0000000  1.0000000  0.0000000 )
                  (  0.0000000  0.0000000  1.0000000 )

      isym =  2     inversion

 cryst.   s( 2) = (    -1          0          0      )
                  (     0         -1          0      )
                  (     0          0         -1      )

 cart.    s( 2) = ( -1.0000000 -0.0000000 -0.0000000 )
                  (  0.0000000 -1.0000000 -0.0000000 )
                  (  0.0000000  0.0000000 -1.0000000 )

   Cartesian axes

     site n.     atom                  positions (alat units)
         1           La  tau(   1) = (   0.4958785   0.4999830   0.0000000  )
         2           La  tau(   2) = (   0.9432336   0.4343291   0.5628065  )
         3           La  tau(   3) = (   0.4265393   0.9467817   0.5628065  )
         4           Os  tau(   4) = (   0.4409778   0.4446279   0.9276087  )
         5           Os  tau(   5) = (   0.9287950   0.9364829   0.1980043  )
         6           O   tau(   6) = (   1.0017859   1.0100779   0.5321392  )
         7           O   tau(   7) = (   0.3679870   0.3710329   0.5934739  )
         8           O   tau(   8) = (   0.6989991   0.7047849   0.3189537  )
         9           O   tau(   9) = (   0.6707737   0.6763259   0.8066593  )
        10           O   tau(  10) = (   0.6675987   1.1994897   0.8881796  )
        11           O   tau(  11) = (   1.1883522   1.1981885   1.0109322  )
        12           O   tau(  12) = (   0.1814206   0.1829223   0.1146808  )
        13           O   tau(  13) = (   1.1939459   0.6774634   0.8881796  )
        14           O   tau(  14) = (   0.7021741   0.1816211   0.2374334  )
        15           O   tau(  15) = (   0.1758269   0.7036474   0.2374334  )

   Crystallographic axes

     site n.     atom                  positions (cryst. coord.)
         1           La  tau(   1) = (  0.5000000  0.5000000  0.0000000  )
         2           La  tau(   2) = (  0.7562350  0.2437650  0.5000000  )
         3           La  tau(   3) = (  0.2437650  0.7562350  0.5000000  )
         4           Os  tau(   4) = (  0.1305340  0.1305340  0.8240920  )
         5           Os  tau(   5) = (  0.8694660  0.8694660  0.1759080  )
         6           O   tau(   6) = (  0.8299180  0.8299180  0.4727550  )
         7           O   tau(   7) = (  0.1700820  0.1700820  0.5272450  )
         8           O   tau(   8) = (  0.5968040  0.5968040  0.2833600  )
         9           O   tau(   9) = (  0.4031960  0.4031960  0.7166400  )
        10           O   tau(  10) = (  0.3767290  0.8987730  0.7890630  )
        11           O   tau(  11) = (  0.8559050  0.8559050  0.8981170  )
        12           O   tau(  12) = (  0.1440950  0.1440950  0.1018830  )
        13           O   tau(  13) = (  0.8987730  0.3767290  0.7890630  )
        14           O   tau(  14) = (  0.6232710  0.1012270  0.2109370  )
        15           O   tau(  15) = (  0.1012270  0.6232710  0.2109370  )

     number of k points=     1  Methfessel-Paxton smearing, width (Ry)=  0.0010
                       cart. coord. in units 2pi/alat
        k(    1) = (   0.0000000   0.0000000   0.0000000), wk =   2.0000000

                       cryst. coord.
        k(    1) = (   0.0000000   0.0000000   0.0000000), wk =   2.0000000

     Check: negative core charge=   -0.000011

     Initial potential from superposition of free atoms

     starting charge     123.9743, renormalised to     125.0000

     negative rho (up, down):  2.444E-01 0.000E+00
     Starting wfcs are  162 randomized atomic wfcs
     Checking if some PAW data can be deallocated...

     Self-consistent Calculation

     iteration #  1     ecut=    30.00 Ry     beta= 0.70
     Davidson diagonalization with overlap

     ethr =  1.00E-02,  avg # of iterations =  2.0

     negative rho (up, down):  2.733E-01 0.000E+00

     total energy              =   -2186.08547369 Ry
     estimated scf accuracy    <       4.50629567 Ry

[...]

     c_bands:  1 eigenvalues not converged
     ethr =  2.80E-05,  avg # of iterations = 20.0

[...]

     c_bands:  1 eigenvalues not converged
     ethr =  7.06E-07,  avg # of iterations = 20.0

[...]

     total energy              =   -2188.81005058 Ry
     estimated scf accuracy    <       0.00003615 Ry

     iteration # 21     ecut=    30.00 Ry     beta= 0.70
     Davidson diagonalization with overlap

     ethr =  2.89E-08,  avg # of iterations =  1.0

[...]

     End of self-consistent calculation

          k = 0.0000 0.0000 0.0000 (  1903 PWs)   bands (ev):

   -76.6841 -76.6260 -36.3628 -36.0374 -35.9538 -35.8983 -35.8776 -35.6050
   -19.7219 -19.6360 -19.5739  -7.6821  -7.5391  -7.3001  -7.1653  -6.6577
    -6.5353  -6.4977  -6.3414  -6.1513  -6.0485  -3.4919  -3.4000  -3.3980
    -3.2035  -3.1612  -2.8928  -2.8732  -2.5033  -2.4001   4.5414   4.8505
     5.1135   5.1563   5.4674   5.5066   5.9882   6.1362   6.3080   6.4648
     6.7069   6.8229   7.2973   7.4702   7.8935   8.1385   8.2093   8.4502
     8.9164   9.0642   9.1492   9.3435   9.3538   9.5177   9.5829   9.6041
     9.9457  10.0405  10.0621  10.1774  10.1875  11.2280  11.9029  11.9106
    12.2254  13.4992  14.9204  15.0742  15.1594  15.2801  15.3020  15.3030
    15.3220  15.3268  15.3434  15.3879

     occupation numbers
     1.0000   1.0000   1.0000   1.0000   1.0000   1.0000   1.0000   1.0000
     1.0000   1.0000   1.0000   1.0000   1.0000   1.0000   1.0000   1.0000
     1.0000   1.0000   1.0000   1.0000   1.0000   1.0000   1.0000   1.0000
     1.0000   1.0000   1.0000   1.0000   1.0000   1.0000   1.0000   1.0000
     1.0000   1.0000   1.0000   1.0000   1.0000   1.0000   1.0000   1.0000
     1.0000   1.0000   1.0000   1.0000   1.0000   1.0000   1.0000   1.0000
     1.0000   1.0000   1.0000   1.0000   1.0000   1.0000   1.0000   1.0000
     1.0000   1.0000   1.0000   1.0000   1.0000   1.0000   0.4377   0.0623
    -0.0000  -0.0000  -0.0000  -0.0000  -0.0000  -0.0000  -0.0000  -0.0000
    -0.0000  -0.0000  -0.0000  -0.0000

     the Fermi energy is    11.9019 ev

!    total energy              =   -2188.81005091 Ry
     estimated scf accuracy    <       0.00000016 Ry
     smearing contrib. (-TS)   =      -0.00031069 Ry
     internal energy E=F+TS    =   -2188.80974022 Ry

     The total energy is F=E-TS. E is the sum of the following terms:
     one-electron contribution =    -297.77581647 Ry
     hartree contribution      =     226.52076131 Ry
     xc contribution           =    -175.53790075 Ry
     ewald contribution        =    -652.46730100 Ry
     one-center paw contrib.   =   -1289.54948331 Ry
      -> PAW hartree energy AE =     398.83481904 Ry
      -> PAW hartree energy PS =    -397.94427439 Ry
      -> PAW xc energy AE      =   -1387.46951444 Ry
      -> PAW xc energy PS      =      97.02948649 Ry
      -> total E_H with PAW    =     227.41130595 Ry
      -> total E_XC with PAW   =   -1465.97792870 Ry

     convergence has been achieved in  21 iterations

     negative rho (up, down):  2.549E-01 0.000E+00

     Forces acting on atoms (cartesian axes, Ry/au):

     atom    1 type  1   force =     0.00000000    0.00000000    0.00000000
     atom    2 type  1   force =    -0.00225397    0.00224046   -0.00000373
     atom    3 type  1   force =     0.00225397   -0.00224046    0.00000373
     atom    4 type  2   force =     0.01411959    0.01422783   -0.01058574
     atom    5 type  2   force =    -0.01411959   -0.01422783    0.01058574
     atom    6 type  3   force =     0.02003666    0.02020026   -0.04927858
     atom    7 type  3   force =    -0.02003666   -0.02020026    0.04927858
     atom    8 type  3   force =     0.00238202    0.00240997    0.02138409
     atom    9 type  3   force =    -0.00238202   -0.00240997   -0.02138409
     atom   10 type  3   force =    -0.00769321    0.00819202   -0.01212219
     atom   11 type  3   force =     0.02515020    0.02535746    0.04229891
     atom   12 type  3   force =    -0.02515020   -0.02535746   -0.04229891
     atom   13 type  3   force =     0.00824376   -0.00760400   -0.01214352
     atom   14 type  3   force =     0.00769321   -0.00819202    0.01212219
     atom   15 type  3   force =    -0.00824376    0.00760400    0.01214352
     The non-local contrib.  to forces
     atom    1 type  1   force =     0.00000000    0.00000000    0.00000000
     atom    2 type  1   force =    -0.00063151    0.00061401   -0.00000442
     atom    3 type  1   force =     0.00063151   -0.00061401    0.00000442
     atom    4 type  2   force =     0.02019704    0.02030639    0.06934793
     atom    5 type  2   force =    -0.02019704   -0.02030639   -0.06934793
     atom    6 type  3   force =    -0.01308590   -0.01320777   -0.91170833
     atom    7 type  3   force =     0.01308590    0.01320777    0.91170833
     atom    8 type  3   force =     0.51208961    0.51631302   -0.29531669
     atom    9 type  3   force =    -0.51208961   -0.51631302    0.29531669
     atom   10 type  3   force =    -0.55614902    0.55698455   -0.06167127
     atom   11 type  3   force =     0.77082684    0.77721997    0.62954893
     atom   12 type  3   force =    -0.77082684   -0.77721997   -0.62954893
     atom   13 type  3   force =     0.56152766   -0.55148084   -0.06170374
     atom   14 type  3   force =     0.55614902   -0.55698455    0.06167127
     atom   15 type  3   force =    -0.56152766    0.55148084    0.06170374
     The ionic contribution  to forces
     atom    1 type  1   force =     0.00000000    0.00000000   -0.00000000
     atom    2 type  1   force =    -0.24687779    0.24485110    0.00000000
     atom    3 type  1   force =     0.24687779   -0.24485110    0.00000000
     atom    4 type  2   force =     3.80536486    3.83686273   -8.39753781
     atom    5 type  2   force =    -3.80536486   -3.83686273    8.39753780
     atom    6 type  3   force =     0.65957116    0.66503058   11.01052197
     atom    7 type  3   force =    -0.65957116   -0.66503058  -11.01052197
     atom    8 type  3   force =    -6.68377977   -6.73910294    2.73250680
     atom    9 type  3   force =     6.68377977    6.73910294   -2.73250680
     atom   10 type  3   force =     8.78497409   -7.66918118   -1.31082855
     atom   11 type  3   force =    -9.88173512   -9.96352849   -6.34103002
     atom   12 type  3   force =     9.88173512    9.96352849    6.34103002
     atom   13 type  3   force =    -7.74133493    8.72145877   -1.31082855
     atom   14 type  3   force =    -8.78497409    7.66918118    1.31082855
     atom   15 type  3   force =     7.74133493   -8.72145877    1.31082855
     The local contribution  to forces
     atom    1 type  1   force =    -0.00001709   -0.00013669   -0.00024802
     atom    2 type  1   force =     0.24500386   -0.24302955    0.00023540
     atom    3 type  1   force =    -0.24502188    0.24301407    0.00024286
     atom    4 type  2   force =    -3.81381984   -3.84534882    8.32152178
     atom    5 type  2   force =     3.81397632    3.84570679   -8.32179544
     atom    6 type  3   force =    -0.62702976   -0.63222828  -10.15718888
     atom    7 type  3   force =     0.62707697    0.63217936   10.15753537
     atom    8 type  3   force =     6.17939807    6.23059169   -2.41870290
     atom    9 type  3   force =    -6.17952129   -6.23069453    2.41891526
     atom   10 type  3   force =    -8.24197196    7.12601089    1.35950297
     atom   11 type  3   force =     9.14416396    9.21985548    5.76022642
     atom   12 type  3   force =    -9.14412133   -9.21977461   -5.76058758
     atom   13 type  3   force =     7.19374260   -8.18292538    1.35954109
     atom   14 type  3   force =     8.24184581   -7.12595254   -1.35956596
     atom   15 type  3   force =    -7.19363845    8.18292151   -1.35957160
     The core correction contribution to forces
     atom    1 type  1   force =    -0.00000001   -0.00000003   -0.00000005
     atom    2 type  1   force =    -0.00000210    0.00000208    0.00000003
     atom    3 type  1   force =     0.00000210   -0.00000208    0.00000004
     atom    4 type  2   force =     0.00275558    0.00277895   -0.00395016
     atom    5 type  2   force =    -0.00276057   -0.00278007    0.00394597
     atom    6 type  3   force =     0.00049254    0.00049620    0.00919374
     atom    7 type  3   force =    -0.00049167   -0.00049675   -0.00919397
     atom    8 type  3   force =    -0.00539428   -0.00543882    0.00303492
     atom    9 type  3   force =     0.00539389    0.00543814   -0.00303447
     atom   10 type  3   force =     0.00535756   -0.00555278    0.00087596
     atom   11 type  3   force =    -0.00806935   -0.00813638   -0.00650302
     atom   12 type  3   force =     0.00806972    0.00813690    0.00650315
     atom   13 type  3   force =    -0.00559576    0.00531120    0.00087650
     atom   14 type  3   force =    -0.00535809    0.00555198   -0.00087668
     atom   15 type  3   force =     0.00559620   -0.00531080   -0.00087705
     The Hubbard contrib.    to forces
     atom    1 type  1   force =     0.00000000    0.00000000    0.00000000
     atom    2 type  1   force =     0.00000000    0.00000000    0.00000000
     atom    3 type  1   force =     0.00000000    0.00000000    0.00000000
     atom    4 type  2   force =     0.00000000    0.00000000    0.00000000
     atom    5 type  2   force =     0.00000000    0.00000000    0.00000000
     atom    6 type  3   force =     0.00000000    0.00000000    0.00000000
     atom    7 type  3   force =     0.00000000    0.00000000    0.00000000
     atom    8 type  3   force =     0.00000000    0.00000000    0.00000000
     atom    9 type  3   force =     0.00000000    0.00000000    0.00000000
     atom   10 type  3   force =     0.00000000    0.00000000    0.00000000
     atom   11 type  3   force =     0.00000000    0.00000000    0.00000000
     atom   12 type  3   force =     0.00000000    0.00000000    0.00000000
     atom   13 type  3   force =     0.00000000    0.00000000    0.00000000
     atom   14 type  3   force =     0.00000000    0.00000000    0.00000000
     atom   15 type  3   force =     0.00000000    0.00000000    0.00000000
     The SCF correction term to forces
     atom    1 type  1   force =     0.00001337    0.00010703    0.00024316
     atom    2 type  1   force =     0.00025950   -0.00019756   -0.00022802
     atom    3 type  1   force =    -0.00022961    0.00021228   -0.00023687
     atom    4 type  2   force =    -0.00035695   -0.00037559    0.00004396
     atom    5 type  2   force =     0.00024764    0.00001040    0.00025676
     atom    6 type  3   force =     0.00010935    0.00008672   -0.00011534
     atom    7 type  3   force =    -0.00011597   -0.00008287   -0.00026744
     atom    8 type  3   force =     0.00003689    0.00001456   -0.00011802
     atom    9 type  3   force =     0.00002371    0.00002404   -0.00005474
     atom   10 type  3   force =     0.00007800   -0.00009568    0.00001131
     atom   11 type  3   force =    -0.00003017   -0.00004241    0.00004980
     atom   12 type  3   force =    -0.00000092   -0.00001757    0.00029764
     atom   13 type  3   force =    -0.00008342    0.00004078   -0.00002619
     atom   14 type  3   force =     0.00001243   -0.00001429    0.00007763
     atom   15 type  3   force =     0.00000363   -0.00002025    0.00006250

     Total force =     0.125234     Total SCF correction =     0.001027

     Computing stress (Cartesian axis) and pressure

     negative rho (up, down):  2.549E-01 0.000E+00
          total   stress  (Ry/bohr**3)                   (kbar)     P=     -351.35
  -0.00224207  -0.00002463  -0.00005245         -329.82       -3.62       -7.72
  -0.00002463  -0.00224241  -0.00005284           -3.62     -329.87       -7.77
  -0.00005245  -0.00005284  -0.00268071           -7.72       -7.77     -394.35

     kinetic stress (kbar)  25327.36    -69.08    -34.47
                              -69.08  25326.23    -34.76
                              -34.47    -34.76  25063.19

     local   stress (kbar)    343.82   -716.09   2422.98
                             -716.09    332.02   2443.04
                             2422.98   2443.04  -7998.33

     nonloc. stress (kbar)  -2457.08     14.51     13.06
                               14.51  -2456.84     13.17
                               13.06     13.17  -2416.16

     hartree stress (kbar)   6864.93    416.32  -1099.63
                              416.32   6871.79  -1108.72
                            -1099.63  -1108.72  10709.17

     exc-cor stress (kbar)   -868.64     -3.08     -0.05
                               -3.08   -868.69     -0.05
                               -0.05     -0.05   -872.13

     corecor stress (kbar)  -4514.48     -0.59      1.40
                               -0.59  -4514.49      1.41
                                1.40      1.41  -4512.08

     ewald   stress (kbar) -25025.72    354.39  -1311.02
                              354.39 -25019.88  -1321.87
                            -1311.02  -1321.87 -20368.00

     hubbard stress (kbar)      0.00      0.00      0.00
                                0.00      0.00      0.00
                                0.00      0.00      0.00

     DFT-D   stress (kbar)      0.00      0.00      0.00
                                0.00      0.00      0.00
                                0.00      0.00      0.00

     XDM     stress (kbar)      0.00      0.00      0.00
                                0.00      0.00      0.00
                                0.00      0.00      0.00

     dft-nl  stress (kbar)      0.00      0.00      0.00
                                0.00      0.00      0.00
                                0.00      0.00      0.00

     TS-vdW  stress (kbar)      0.00      0.00      0.00
                                0.00      0.00      0.00
                                0.00      0.00      0.00

[...]

                                0.00      0.00      0.00

     Writing all to output data dir new_calculations/myprefix.save/

     General routines

     Parallel routines

     PAW routines

   This run was terminated on:  20:52: 6  20May2023

   JOB DONE.