     Program PWSCF v.7.0 starts on 20May2023 at 15: 4:49

     Reading input from espresso_18394.pwi
Warning: card &CELL ignored
Warning: card / ignored

     Current dimensions of program PWSCF are:
     Max number of different atomic species (ntypx) = 10
     Max number of k-points (npk) =  40000
     Max angular momentum in pseudopotentials (lmaxx) =  4
     file Ga.pbe-dn-kjpaw_psl.1.0.0.UPF: wavefunction(s)  4S renormalized

     gamma-point specific algorithms are used
     Message from routine setup:
     using ibrav=0 with symmetry is DISCOURAGED, use correct ibrav instead

     Subspace diagonalization in iterative solution of the eigenvalue problem:
     a serial algorithm will be used

     Using Slab Decomposition

     bravais-lattice index     =            0
     lattice parameter (alat)  =       8.2124  a.u.
     unit-cell volume          =     689.7922 (a.u.)^3
     number of atoms/cell      =            5
     number of atomic types    =            3
     number of electrons       =        70.00
     number of Kohn-Sham states=           42
     kinetic-energy cutoff     =      30.0000  Ry
     charge density cutoff     =     240.0000  Ry
     scf convergence threshold =      1.0E-06
     mixing beta               =       0.7000
     number of iterations used =            8  plain     mixing
     Exchange-correlation= PBE
                           (   1   4   3   4   0   0   0)

     celldm(1)=   8.212387  celldm(2)=   0.000000  celldm(3)=   0.000000
     celldm(4)=   0.000000  celldm(5)=   0.000000  celldm(6)=   0.000000

     crystal axes: (cart. coord. in units of alat)
               a(1) = (   1.000000   0.000000   0.000000 )
               a(2) = (   0.000000   1.000000   0.000000 )
               a(3) = (   0.500000   0.500000   1.245403 )

     reciprocal axes: (cart. coord. in units 2 pi/alat)
               b(1) = (  1.000000  0.000000 -0.401476 )
               b(2) = (  0.000000  1.000000 -0.401476 )
               b(3) = (  0.000000  0.000000  0.802953 )

     PseudoPot. # 1 for Ce read from file:
     /home/pragov/projects/rrg-bengioy-ad/pragov/crystal_structure_design/SSSP/Ce.GGA-PBE-paw-v1.0.UPF
     MD5 check sum: f2b950f613061344c13339c8d844425d
     Pseudo is Projector augmented-wave + core cor, Zval = 12.0
     Generated using ATOMPAW code
     Shape of augmentation charge: BESSEL
     Using radial grid of 1102 points,  8 beta functions with:
                l(1) =   0
                l(2) =   0
                l(3) =   1
                l(4) =   1
                l(5) =   2
                l(6) =   2
                l(7) =   3
                l(8) =   3
     Q(r) pseudized with 0 coefficients

     PseudoPot. # 2 for Ga read from file:
     /home/pragov/projects/rrg-bengioy-ad/pragov/crystal_structure_design/SSSP/Ga.pbe-dn-kjpaw_psl.1.0.0.UPF
     MD5 check sum: a27b4342b1af7e5f338de752e9ed7044
     Pseudo is Projector augmented-wave + core cor, Zval = 13.0
     Generated using "atomic" code by A. Dal Corso  v.5.1
     Shape of augmentation charge: PSQ
     Using radial grid of 1205 points,  6 beta functions with:
                l(1) =   0
                l(2) =   0
                l(3) =   1
                l(4) =   1
                l(5) =   2
                l(6) =   2
     Q(r) pseudized with 0 coefficients

     PseudoPot. # 3 for Ag read from file:
     /home/pragov/projects/rrg-bengioy-ad/pragov/crystal_structure_design/SSSP/Ag_ONCV_PBE-1.0.oncvpsp.upf
     MD5 check sum: 94f47bd0669c641108e45594df92fabc
     Pseudo is Norm-conserving, Zval = 19.0
     Generated using ONCVPSP code by D. R. Hamann
     Using radial grid of 1398 points,  6 beta functions with:
                l(1) =   0
                l(2) =   0
                l(3) =   1
                l(4) =   1
                l(5) =   2
                l(6) =   2

     atomic species   valence    mass     pseudopotential
        Ce            12.00   140.11600     Ce( 1.00)
        Ga            13.00    69.72300     Ga( 1.00)
        Ag            19.00   107.86820     Ag( 1.00)

      8 Sym. Ops. (no inversion) found

                                    s                        frac. trans.

      isym =  1     identity

 cryst.   s( 1) = (     1          0          0      )
                  (     0          1          0      )
                  (     0          0          1      )

 cart.    s( 1) = (  1.0000000  0.0000000 -0.0000000 )
                  (  0.0000000  1.0000000 -0.0000000 )
                  (  0.0000000  0.0000000  1.0000000 )

      isym =  2     180 deg rotation - cart. axis [0,0,1]

[...]

      isym =  4     180 deg rotation - cart. axis [1,-1,0]

[...]

      isym =  5     inv. 180 deg rotation - cart. axis [0,1,0]

[...]

      isym =  8     inv.  90 deg rotation - cart. axis [0,0,1]

 cryst.   s( 8) = (     0         -1          0      )
                  (     1          0          0      )
                  (     1          0         -1      )

 cart.    s( 8) = (  0.0000000  1.0000000  0.0000000 )
                  ( -1.0000000  0.0000000  0.0000000 )
                  (  0.0000000  0.0000000 -1.0000000 )

   Cartesian axes

     site n.     atom                  positions (alat units)
         1           Ce  tau(   1) = (   0.0000000   0.0000000   0.0000000  )
         2           Ga  tau(   2) = (   0.5000000   0.5000000   0.2821661  )
         3           Ga  tau(   3) = (   1.0000000   1.0000000   0.9632373  )
         4           Ga  tau(   4) = (   0.5000000   1.0000000   0.6227017  )
         5           Ag  tau(   5) = (   1.0000000   0.5000000   0.6227017  )

   Crystallographic axes

     site n.     atom                  positions (cryst. coord.)
         1           Ce  tau(   1) = (  0.0000000  0.0000000  0.0000000  )
         2           Ga  tau(   2) = (  0.3867170  0.3867170  0.2265660  )
         3           Ga  tau(   3) = (  0.6132830  0.6132830  0.7734340  )
         4           Ga  tau(   4) = (  0.2500000  0.7500000  0.5000000  )
         5           Ag  tau(   5) = (  0.7500000  0.2500000  0.5000000  )

     number of k points=     1  Methfessel-Paxton smearing, width (Ry)=  0.0010
                       cart. coord. in units 2pi/alat
        k(    1) = (   0.0000000   0.0000000   0.0000000), wk =   2.0000000

                       cryst. coord.
        k(    1) = (   0.0000000   0.0000000   0.0000000), wk =   2.0000000

     Check: negative core charge=   -0.000002

     Initial potential from superposition of free atoms

     starting charge      69.9839, renormalised to      70.0000
     Starting wfcs are   69 randomized atomic wfcs
     Checking if some PAW data can be deallocated...

     Self-consistent Calculation

     iteration #  1     ecut=    30.00 Ry     beta= 0.70
     Davidson diagonalization with overlap

     ethr =  1.00E-02,  avg # of iterations =  2.0

     Threshold (ethr) on eigenvalues was too large:
     Diagonalizing with lowered threshold

     Davidson diagonalization with overlap

[...]

     total energy              =   -1602.56771368 Ry
     estimated scf accuracy    <       0.22481317 Ry

[...]

     total energy              =   -1602.66652783 Ry
     estimated scf accuracy    <       0.00000206 Ry

     iteration # 15     ecut=    30.00 Ry     beta= 0.70
     Davidson diagonalization with overlap

     ethr =  2.94E-09,  avg # of iterations =  5.0

     End of self-consistent calculation

          k = 0.0000 0.0000 0.0000 (   949 PWs)   bands (ev):

   -81.6958 -44.7116 -44.7116 -44.6326 -21.7645  -4.6752  -4.4136  -4.4135
    -3.2751  -3.1032  -3.1032  -2.9723  -2.9649  -2.9437  -2.9280  -2.9280
    -2.9170  -2.8230  -1.6588  -1.6211  -1.6210  -1.6161  -1.6036   2.5256
     5.9859   6.4888   7.1037   7.1037   7.3622   8.5537   8.5957  11.0197
    11.0197  12.4992  12.5586  12.6530  12.6531  12.9360  13.0960  13.1355
    13.1356  13.8224

     occupation numbers
     1.0000   1.0000   1.0000   1.0000   1.0000   1.0000   1.0000   1.0000
     1.0000   1.0000   1.0000   1.0000   1.0000   1.0000   1.0000   1.0000
     1.0000   1.0000   1.0000   1.0000   1.0000   1.0000   1.0000   1.0000
     1.0000   1.0000   1.0000   1.0000   1.0000   1.0000   1.0000   1.0000
     1.0000   1.0000   1.0000  -0.0000  -0.0000  -0.0000  -0.0000  -0.0000
    -0.0000  -0.0000

     the Fermi energy is    12.6051 ev

!    total energy              =   -1602.66652807 Ry
     estimated scf accuracy    <       0.00000043 Ry
     smearing contrib. (-TS)   =       0.00000011 Ry
     internal energy E=F+TS    =   -1602.66652818 Ry

     The total energy is F=E-TS. E is the sum of the following terms:
     one-electron contribution =    -464.25191528 Ry
     hartree contribution      =     289.98111688 Ry
     xc contribution           =    -151.64279093 Ry
     ewald contribution        =    -535.73787972 Ry
     one-center paw contrib.   =    -741.01505913 Ry
      -> PAW hartree energy AE =     467.10229267 Ry
      -> PAW hartree energy PS =    -460.10825465 Ry
      -> PAW xc energy AE      =    -869.54539156 Ry
      -> PAW xc energy PS      =     121.53629440 Ry
      -> total E_H with PAW    =     296.97515490 Ry
      -> total E_XC with PAW   =    -899.65188808 Ry

     convergence has been achieved in  15 iterations

     Forces acting on atoms (cartesian axes, Ry/au):

     atom    1 type  1   force =     0.00000000    0.00000000    0.00000000
     atom    2 type  2   force =     0.00000000    0.00000000    0.11348323
     atom    3 type  2   force =     0.00000000    0.00000000   -0.11348323
     atom    4 type  2   force =     0.00000000    0.00000000    0.00000000
     atom    5 type  3   force =     0.00000000    0.00000000    0.00000000
     The non-local contrib.  to forces
     atom    1 type  1   force =     0.00000000    0.00000000   -0.00000000
     atom    2 type  2   force =     0.00000000    0.00000000   -0.14745085
     atom    3 type  2   force =     0.00000000    0.00000000    0.14745085
     atom    4 type  2   force =     0.00000000    0.00000000   -0.00000000
     atom    5 type  3   force =     0.00000000    0.00000000   -0.00000000
     The ionic contribution  to forces
     atom    1 type  1   force =     0.00000000   -0.00000000    0.00000000
     atom    2 type  2   force =    -0.00000000   -0.00000000  -10.47329553
     atom    3 type  2   force =     0.00000000    0.00000000   10.47329553
     atom    4 type  2   force =    -0.00000000    0.00000000   -0.00000000
     atom    5 type  3   force =     0.00000000   -0.00000000   -0.00000000
     The local contribution  to forces
     atom    1 type  1   force =    -0.00090370    0.00287843   -0.00008134
     atom    2 type  2   force =     0.00098219   -0.00049743   10.73647127
     atom    3 type  2   force =    -0.00005659   -0.00154400  -10.73641044
     atom    4 type  2   force =     0.00015927   -0.00004830   -0.00002029
     atom    5 type  3   force =    -0.00097468    0.00076754    0.00006564
     The core correction contribution to forces
     atom    1 type  1   force =    -0.00000059    0.00000188   -0.00000005
     atom    2 type  2   force =     0.00001009    0.00000123   -0.00268913
     atom    3 type  2   force =    -0.00000081   -0.00001751    0.00269012
     atom    4 type  2   force =    -0.00000094    0.00000121   -0.00000121
     atom    5 type  3   force =     0.00000000    0.00000000    0.00000000
     The Hubbard contrib.    to forces
     atom    1 type  1   force =     0.00000000    0.00000000    0.00000000
     atom    2 type  2   force =     0.00000000    0.00000000    0.00000000
     atom    3 type  2   force =     0.00000000    0.00000000    0.00000000
     atom    4 type  2   force =     0.00000000    0.00000000    0.00000000
     atom    5 type  3   force =     0.00000000    0.00000000    0.00000000
     The SCF correction term to forces
     atom    1 type  1   force =     0.00043082   -0.00136677    0.00003037
     atom    2 type  2   force =    -0.00113225    0.00040862    0.00046653
     atom    3 type  2   force =     0.00011685    0.00163229   -0.00049024
     atom    4 type  2   force =    -0.00012744   -0.00001651    0.00003324
     atom    5 type  3   force =     0.00090096   -0.00067472   -0.00010915

     Total force =     0.160490     Total SCF correction =     0.002817

     Computing stress (Cartesian axis) and pressure

          total   stress  (Ry/bohr**3)                   (kbar)     P=     -308.22
  -0.00182106   0.00000000  -0.00000000         -267.89        0.00       -0.00
   0.00000000  -0.00182106  -0.00000000            0.00     -267.89       -0.00
  -0.00000000  -0.00000000  -0.00264352           -0.00       -0.00     -388.88

     kinetic stress (kbar)  22845.69     -0.00      0.00
                               -0.00  22845.69      0.00
                                0.00      0.00  22544.86

     local   stress (kbar)  -6866.12      0.01      0.38
                                0.01  -6866.00     -0.05
                                0.38     -0.05   6967.46

     nonloc. stress (kbar)   4164.26      0.00      0.00
                                0.00   4164.26      0.00
                                0.00      0.00   4206.19

     hartree stress (kbar)  22918.23     -0.00      0.06
                               -0.00  22918.24      0.16
                                0.06      0.16  16004.90

     exc-cor stress (kbar)   1800.76      0.00      0.00
                                0.00   1800.76      0.00
                                0.00      0.00   1800.12

     corecor stress (kbar)  -9307.37     -0.00      0.00
                               -0.00  -9307.37     -0.00
                                0.00     -0.00  -9307.76

     ewald   stress (kbar) -35823.41      0.00      0.00
                                0.00 -35823.41      0.00
                                0.00      0.00 -42604.64

     hubbard stress (kbar)      0.00      0.00      0.00
                                0.00      0.00      0.00
                                0.00      0.00      0.00

     DFT-D   stress (kbar)      0.00      0.00      0.00
                                0.00      0.00      0.00
                                0.00      0.00      0.00

     XDM     stress (kbar)      0.00      0.00      0.00
                                0.00      0.00      0.00
                                0.00      0.00      0.00

     dft-nl  stress (kbar)      0.00      0.00      0.00
                                0.00      0.00      0.00
                                0.00      0.00      0.00

     TS-vdW  stress (kbar)      0.00      0.00      0.00
                                0.00      0.00      0.00
                                0.00      0.00      0.00

[...]

                                0.00      0.00      0.00

     Writing all to output data dir new_calculations/myprefix.save/

     General routines

     Parallel routines

     PAW routines

   This run was terminated on:  15: 5:27  20May2023

   JOB DONE.