     Program PWSCF v.7.0 starts on 20May2023 at  9:52: 7

     Reading input from espresso_4322.pwi
Warning: card &CELL ignored
Warning: card / ignored

     Current dimensions of program PWSCF are:
     Max number of different atomic species (ntypx) = 10
     Max number of k-points (npk) =  40000
     Max angular momentum in pseudopotentials (lmaxx) =  4
     file Ba.pbe-spn-kjpaw_psl.1.0.0.UPF: wavefunction(s)  5S 6S renormalized
     file O.pbe-n-kjpaw_psl.0.1.UPF: wavefunction(s)  2P renormalized

     gamma-point specific algorithms are used
     Message from routine setup:
     using ibrav=0 with symmetry is DISCOURAGED, use correct ibrav instead

     Subspace diagonalization in iterative solution of the eigenvalue problem:
     a serial algorithm will be used

     Using Slab Decomposition

     bravais-lattice index     =            0
     lattice parameter (alat)  =      14.0868  a.u.
     unit-cell volume          =     794.7907 (a.u.)^3
     number of atoms/cell      =            7
     number of atomic types    =            5
     number of electrons       =        64.00
     number of Kohn-Sham states=           38
     kinetic-energy cutoff     =      30.0000  Ry
     charge density cutoff     =     240.0000  Ry
     scf convergence threshold =      1.0E-06
     mixing beta               =       0.7000
     number of iterations used =            8  plain     mixing
     Exchange-correlation=  SLA  PW   PBX  PBC
                           (   1   4   3   4   0   0   0)

     celldm(1)=  14.086842  celldm(2)=   0.000000  celldm(3)=   0.000000
     celldm(4)=   0.000000  celldm(5)=   0.000000  celldm(6)=   0.000000

     crystal axes: (cart. coord. in units of alat)
               a(1) = (   1.000000   0.000000   0.000000 )
               a(2) = (   0.690768   0.723077   0.000000 )
               a(3) = (  -0.845384  -0.361538   0.393213 )

     reciprocal axes: (cart. coord. in units 2 pi/alat)
               b(1) = (  1.000000 -0.955317  1.271577 )
               b(2) = (  0.000000  1.382979  1.271577 )
               b(3) = (  0.000000  0.000000  2.543153 )

     PseudoPot. # 1 for Ba read from file:
     /home/pragov/projects/rrg-bengioy-ad/pragov/crystal_structure_design/SSSP/Ba.pbe-spn-kjpaw_psl.1.0.0.UPF
     MD5 check sum: c432291d3e53af55f19d5e8866385beb
     Pseudo is Projector augmented-wave + core cor, Zval = 10.0
     Generated using "atomic" code by A. Dal Corso  v.5.1
     Shape of augmentation charge: PSQ
     Using radial grid of 1251 points,  7 beta functions with:
                l(1) =   0
                l(2) =   0
                l(3) =   0
                l(4) =   1
                l(5) =   1
                l(6) =   2
                l(7) =   2
     Q(r) pseudized with 0 coefficients

     PseudoPot. # 2 for Sr read from file:
     /home/pragov/projects/rrg-bengioy-ad/pragov/crystal_structure_design/SSSP/Sr_pbe_v1.uspp.F.UPF
     MD5 check sum: 6b418c05fbe9db5448babca5e47b7a5b
     Pseudo is Ultrasoft + core correction, Zval = 10.0
     Generated by new atomic code, or converted to UPF format
     Using radial grid of  883 points,  6 beta functions with:
                l(1) =   0
                l(2) =   0
                l(3) =   1
                l(4) =   1
                l(5) =   2
                l(6) =   2
     Q(r) pseudized with  6 coefficients,  rinner =    1.400   1.400   1.400
                                                       1.400   1.400

     PseudoPot. # 3 for Pd read from file:
     /home/pragov/projects/rrg-bengioy-ad/pragov/crystal_structure_design/SSSP/Pd_ONCV_PBE-1.0.oncvpsp.upf
     MD5 check sum: eb77f42b51d86fb18e25f68156a31cf1
     Pseudo is Norm-conserving, Zval = 18.0
     Generated using ONCVPSP code by D. R. Hamann
     Using radial grid of 1410 points,  6 beta functions with:
                l(1) =   0
                l(2) =   0
                l(3) =   1
                l(4) =   1
                l(5) =   2
                l(6) =   2

     PseudoPot. # 4 for O  read from file:
     /home/pragov/projects/rrg-bengioy-ad/pragov/crystal_structure_design/SSSP/O.pbe-n-kjpaw_psl.0.1.UPF
     MD5 check sum: 0234752ac141de4415c5fc33072bef88
     Pseudo is Projector augmented-wave + core cor, Zval =  6.0
     Generated using "atomic" code by A. Dal Corso  v.5.0.99 svn rev. 10869
     Shape of augmentation charge: BESSEL
     Using radial grid of 1095 points,  4 beta functions with:
                l(1) =   0
                l(2) =   0
                l(3) =   1
                l(4) =   1
     Q(r) pseudized with 0 coefficients

     PseudoPot. # 5 for F  read from file:
     /home/pragov/projects/rrg-bengioy-ad/pragov/crystal_structure_design/SSSP/f_pbe_v1.4.uspp.F.UPF
     MD5 check sum: 4c38b6a325caf53ec0e86aed9459de46
     Pseudo is Ultrasoft, Zval =  7.0
     Generated by new atomic code, or converted to UPF format
     Using radial grid of  799 points,  4 beta functions with:
                l(1) =   0
                l(2) =   0
                l(3) =   1
                l(4) =   1
     Q(r) pseudized with  8 coefficients,  rinner =    0.950   0.950   0.950

     atomic species   valence    mass     pseudopotential
        Ba            10.00   137.32700     Ba( 1.00)
        Sr            10.00    87.62000     Sr( 1.00)
        Pd            18.00   106.42000     Pd( 1.00)
        O              6.00    15.99900     O ( 1.00)
        F              7.00    18.99840     F ( 1.00)

      2 Sym. Ops. (no inversion) found

                                    s                        frac. trans.

      isym =  1     identity

 cryst.   s( 1) = (     1          0          0      )
                  (     0          1          0      )
                  (     0          0          1      )

 cart.    s( 1) = (  1.0000000  0.0000000  0.0000000 )
                  (  0.0000000  1.0000000  0.0000000 )
                  (  0.0000000  0.0000000  1.0000000 )

      isym =  2     inv. 180 deg rotation - cart. axis [0,0,1]

 cryst.   s( 2) = (     1          0          0      )
                  (     0          1          0      )
                  (    -1         -1         -1      )

 cart.    s( 2) = (  1.0000000  0.0000000  0.0000000 )
                  (  0.0000000  1.0000000  0.0000000 )
                  (  0.0000000  0.0000000 -1.0000000 )

   Cartesian axes

     site n.     atom                  positions (alat units)
         1           Ba  tau(   1) = (   1.0771915   0.4606737   0.0000000  )
         2           Sr  tau(   2) = (   0.6159027   0.2633981   0.0000000  )
         3           Pd  tau(   3) = (   0.0099333   0.0042481   0.0000000  )
         4           O   tau(   4) = (   0.9013629   0.1716476   0.1966063  )
         5           O   tau(   5) = (   0.7467467   0.5331860   0.1966063  )
         6           F   tau(   6) = (   0.5152000   0.0065005   0.1966063  )
         7           F   tau(   7) = (   0.3605838   0.3680388   0.1966063  )

   Crystallographic axes

     site n.     atom                  positions (cryst. coord.)
         1           Ba  tau(   1) = (  0.6371020  0.6371020  0.0000000  )
         2           Sr  tau(   2) = (  0.3642740  0.3642740  0.0000000  )
         3           Pd  tau(   3) = (  0.0058750  0.0058750  0.0000000  )
         4           O   tau(   4) = (  0.9873850  0.4873850  0.5000000  )
         5           O   tau(   5) = (  0.4873850  0.9873850  0.5000000  )
         6           F   tau(   6) = (  0.7589900  0.2589900  0.5000000  )
         7           F   tau(   7) = (  0.2589900  0.7589900  0.5000000  )

     number of k points=     1  Methfessel-Paxton smearing, width (Ry)=  0.0010
                       cart. coord. in units 2pi/alat
        k(    1) = (   0.0000000   0.0000000   0.0000000), wk =   2.0000000

                       cryst. coord.
        k(    1) = (   0.0000000   0.0000000   0.0000000), wk =   2.0000000

     Check: negative core charge=   -0.000007

     Initial potential from superposition of free atoms

     starting charge      63.9490, renormalised to      64.0000

     negative rho (up, down):  6.326E-02 0.000E+00
     Starting wfcs are   44 randomized atomic wfcs
     Checking if some PAW data can be deallocated...

     Self-consistent Calculation

     iteration #  1     ecut=    30.00 Ry     beta= 0.70
     Davidson diagonalization with overlap

     ethr =  1.00E-02,  avg # of iterations =  4.0

     negative rho (up, down):  1.078E-01 0.000E+00

     total energy              =    -939.39020786 Ry
     estimated scf accuracy    <       1.74024160 Ry

[...]

     total energy              =    -940.26866326 Ry
     estimated scf accuracy    <       0.00000141 Ry

     iteration # 31     ecut=    30.00 Ry     beta= 0.70
     Davidson diagonalization with overlap

     ethr =  2.21E-09,  avg # of iterations =  1.0

[...]

     End of self-consistent calculation

          k = 0.0000 0.0000 0.0000 (  1118 PWs)   bands (ev):

   -77.2378 -43.1465 -43.0054 -42.0904 -24.5237 -17.3786 -13.9462 -13.7576
    -8.9100  -8.3129  -6.6347  -6.5916  -6.2138  -2.5058  -2.4982  -2.2577
     3.9955   4.2576   4.3218   4.3613   4.9319   4.9612   5.3193   5.3367
     5.7743   5.9200   5.9964   6.5737   6.5947   6.8331   7.5713   7.5714
     7.5885  11.0641  12.9561  14.0824  14.1623  15.6127

     occupation numbers
     1.0000   1.0000   1.0000   1.0000   1.0000   1.0000   1.0000   1.0000
     1.0000   1.0000   1.0000   1.0000   1.0000   1.0000   1.0000   1.0000
     1.0000   1.0000   1.0000   1.0000   1.0000   1.0000   1.0000   1.0000
     1.0000   1.0000   1.0000   1.0000   1.0000   1.0000   0.9563   0.9535
     0.0903  -0.0000  -0.0000  -0.0000  -0.0000  -0.0000

     the Fermi energy is     7.5807 ev

!    total energy              =    -940.26866275 Ry
     estimated scf accuracy    <       0.00000074 Ry
     smearing contrib. (-TS)   =      -0.00008805 Ry
     internal energy E=F+TS    =    -940.26857470 Ry

     The total energy is F=E-TS. E is the sum of the following terms:
     one-electron contribution =    -255.71244165 Ry
     hartree contribution      =     161.13716943 Ry
     xc contribution           =     -97.02799417 Ry
     ewald contribution        =    -354.66920659 Ry
     one-center paw contrib.   =    -393.99610172 Ry
      -> PAW hartree energy AE =      86.50016529 Ry
      -> PAW hartree energy PS =     -86.18212099 Ry
      -> PAW xc energy AE      =    -428.33259221 Ry
      -> PAW xc energy PS      =      34.01844619 Ry
      -> total E_H with PAW    =     161.45521373 Ry
      -> total E_XC with PAW   =    -491.34214019 Ry

     convergence has been achieved in  31 iterations

     negative rho (up, down):  6.492E-02 0.000E+00

     Forces acting on atoms (cartesian axes, Ry/au):

     atom    1 type  1   force =     0.01427914    0.00557860    0.00000000
     atom    2 type  2   force =     0.02130261    0.00534566    0.00000000
     atom    3 type  3   force =     0.07028118    0.04321487    0.00000000
     atom    4 type  4   force =    -0.03940451   -0.02025095   -0.00212021
     atom    5 type  4   force =    -0.03940451   -0.02025095    0.00212021
     atom    6 type  5   force =    -0.01352695   -0.00681861    0.00014181
     atom    7 type  5   force =    -0.01352695   -0.00681861   -0.00014181
     The non-local contrib.  to forces
     atom    1 type  1   force =     0.04404205    0.01951768    0.00000000
     atom    2 type  2   force =    -0.04676256   -0.01169236   -0.00000000
     atom    3 type  3   force =     0.21293188    0.10827048    0.00000000
     atom    4 type  4   force =     0.84744249    0.36186342   -0.02826966
     atom    5 type  4   force =     0.84744249    0.36186342    0.02826966
     atom    6 type  5   force =    -0.00451580    0.00015269    0.00113812
     atom    7 type  5   force =    -0.00451580    0.00015269   -0.00113812
     The ionic contribution  to forces
     atom    1 type  1   force =     6.08466683    2.60217963    0.00000000
     atom    2 type  2   force =    -6.51561925   -2.78648152   -0.00000000
     atom    3 type  3   force =     6.20857045    2.65516848    0.00000000
     atom    4 type  4   force =    -0.89012009   -0.38067037   -0.00000000
     atom    5 type  4   force =    -0.89012009   -0.38067037   -0.00000000
     atom    6 type  5   force =    -1.99868893   -0.85476293   -0.00000000
     atom    7 type  5   force =    -1.99868893   -0.85476293    0.00000000
     The local contribution  to forces
     atom    1 type  1   force =    -6.11021824   -2.61368776    0.00065668
     atom    2 type  2   force =     6.57887534    2.80674121    0.00509299
     atom    3 type  3   force =    -6.35071417   -2.71923238    0.00056626
     atom    4 type  4   force =     0.01365256    0.00720892    0.01946628
     atom    5 type  4   force =     0.01606078    0.00228813   -0.03177098
     atom    6 type  5   force =     1.98858250    0.84985535   -0.00139504
     atom    7 type  5   force =     1.98992119    0.84751091    0.00059073
     The core correction contribution to forces
     atom    1 type  1   force =    -0.00456772   -0.00155444   -0.00004453
     atom    2 type  2   force =     0.00444018   -0.00227601    0.00359844
     atom    3 type  3   force =     0.00000000    0.00000000    0.00000000
     atom    4 type  4   force =    -0.01147530   -0.00491236    0.00022978
     atom    5 type  4   force =    -0.01146743   -0.00496148   -0.00045615
     atom    6 type  5   force =     0.00000000    0.00000000    0.00000000
     atom    7 type  5   force =     0.00000000    0.00000000    0.00000000
     The Hubbard contrib.    to forces
     atom    1 type  1   force =     0.00000000    0.00000000    0.00000000
     atom    2 type  2   force =     0.00000000    0.00000000    0.00000000
     atom    3 type  3   force =     0.00000000    0.00000000    0.00000000
     atom    4 type  4   force =     0.00000000    0.00000000    0.00000000
     atom    5 type  4   force =     0.00000000    0.00000000    0.00000000
     atom    6 type  5   force =     0.00000000    0.00000000    0.00000000
     atom    7 type  5   force =     0.00000000    0.00000000    0.00000000
     The SCF correction term to forces
     atom    1 type  1   force =     0.00008527    0.00007958   -0.00004844
     atom    2 type  2   force =     0.00009795    0.00001044    0.00000201
     atom    3 type  3   force =    -0.00077793   -0.00003560   -0.00000361
     atom    4 type  4   force =    -0.00036759   -0.00030114    0.00020116
     atom    5 type  4   force =    -0.00039875   -0.00029786   -0.00017454
     atom    6 type  5   force =     0.00014723    0.00005858   -0.00000485
     atom    7 type  5   force =     0.00016276    0.00007065    0.00000201

     Total force =     0.109169     Total SCF correction =     0.001110

     Computing stress (Cartesian axis) and pressure

     negative rho (up, down):  6.492E-02 0.000E+00
          total   stress  (Ry/bohr**3)                   (kbar)     P=     -355.64
  -0.00288679  -0.00037309  -0.00000000         -424.66      -54.88       -0.00
  -0.00037309  -0.00222339  -0.00000000          -54.88     -327.07       -0.00
  -0.00000000  -0.00000000  -0.00214258           -0.00       -0.00     -315.18

     kinetic stress (kbar)  23945.95     80.28      0.00
                               80.28  23831.82      0.00
                                0.00      0.00  23796.35

     local   stress (kbar)   2834.86  11592.15     -1.78
                            11592.15 -19384.91      0.46
                               -1.78      0.46 -24341.30

     nonloc. stress (kbar)   6148.69    -40.40      0.00
                              -40.40   6245.87      0.00
                                0.00      0.00   6253.59

     hartree stress (kbar)   2661.61  -5137.57      1.00
                            -5137.57  12483.51      0.06
                                1.00      0.06  14679.20

     exc-cor stress (kbar)   -466.15     -4.25      0.01
                               -4.25   -458.27      0.05
                                0.01      0.05   -456.59

     corecor stress (kbar)  -4397.32      0.64      0.32
                                0.64  -4399.31     -0.34
                                0.32     -0.34  -4400.03

     ewald   stress (kbar) -31152.31  -6545.75     -0.00
                            -6545.75 -18645.78     -0.00
                               -0.00     -0.00 -15846.41

     hubbard stress (kbar)      0.00      0.00      0.00
                                0.00      0.00      0.00
                                0.00      0.00      0.00

     DFT-D   stress (kbar)      0.00      0.00      0.00
                                0.00      0.00      0.00
                                0.00      0.00      0.00

     XDM     stress (kbar)      0.00      0.00      0.00
                                0.00      0.00      0.00
                                0.00      0.00      0.00

     dft-nl  stress (kbar)      0.00      0.00      0.00
                                0.00      0.00      0.00
                                0.00      0.00      0.00

     TS-vdW  stress (kbar)      0.00      0.00      0.00
                                0.00      0.00      0.00
                                0.00      0.00      0.00

[...]

                                0.00      0.00      0.00

     Writing all to output data dir new_calculations/myprefix.save/

     General routines

     Parallel routines

     PAW routines

   This run was terminated on:   9:52:34  20May2023

   JOB DONE.