     Program PWSCF v.7.0 starts on 20May2023 at  6:58:38

     Reading input from espresso_9196.pwi
Warning: card &CELL ignored
Warning: card / ignored

     Current dimensions of program PWSCF are:
     Max number of different atomic species (ntypx) = 10
     Max number of k-points (npk) =  40000
     Max angular momentum in pseudopotentials (lmaxx) =  4
     file Al.pbe-n-kjpaw_psl.1.0.0.UPF: wavefunction(s)  3S 3P renormalized
     file O.pbe-n-kjpaw_psl.0.1.UPF: wavefunction(s)  2P renormalized

     gamma-point specific algorithms are used

     Subspace diagonalization in iterative solution of the eigenvalue problem:
     a serial algorithm will be used

     Using Slab Decomposition

     bravais-lattice index     =            0
     lattice parameter (alat)  =      15.5948  a.u.
     unit-cell volume          =    1519.4370 (a.u.)^3
     number of atoms/cell      =           18
     number of atomic types    =            4
     number of electrons       =       130.00
     number of Kohn-Sham states=           78
     kinetic-energy cutoff     =      30.0000  Ry
     charge density cutoff     =     240.0000  Ry
     scf convergence threshold =      1.0E-06
     mixing beta               =       0.7000
     number of iterations used =            8  plain     mixing
     Exchange-correlation= SLA  PW   PBX  PBC
                           (   1   4   3   4   0   0   0)

     celldm(1)=  15.594819  celldm(2)=   0.000000  celldm(3)=   0.000000
     celldm(4)=   0.000000  celldm(5)=   0.000000  celldm(6)=   0.000000

     crystal axes: (cart. coord. in units of alat)
               a(1) = (   1.000000   0.000000   0.000000 )
               a(2) = (   0.543316   0.839528   0.000000 )
               a(3) = (  -0.759797  -0.441569   0.477206 )

     reciprocal axes: (cart. coord. in units 2 pi/alat)
               b(1) = (  1.000000 -0.647168  0.993338 )
               b(2) = (  0.000000  1.191145  1.102191 )
               b(3) = (  0.000000  0.000000  2.095529 )

     PseudoPot. # 1 for Ca read from file:
     /home/pragov/projects/rrg-bengioy-ad/pragov/crystal_structure_design/SSSP/Ca_pbe_v1.uspp.F.UPF
     MD5 check sum: 403a4c14b9e4d4dfdc3024c9a3812218
     Pseudo is Ultrasoft + core correction, Zval = 10.0
     Generated by new atomic code, or converted to UPF format
     Using radial grid of  845 points,  6 beta functions with:
                l(1) =   0
                l(2) =   0
                l(3) =   1
                l(4) =   1
                l(5) =   2
                l(6) =   2
     Q(r) pseudized with  8 coefficients,  rinner =    1.500   1.500   1.500
                                                       1.500   1.500

     PseudoPot. # 2 for Ti read from file:
     /home/pragov/projects/rrg-bengioy-ad/pragov/crystal_structure_design/SSSP/ti_pbe_v1.4.uspp.F.UPF
     MD5 check sum: 88a00a6731bd790ddea75d31a80cb452
     Pseudo is Ultrasoft + core correction, Zval = 12.0
     Generated by new atomic code, or converted to UPF format
     Using radial grid of  851 points,  6 beta functions with:
                l(1) =   0
                l(2) =   0
                l(3) =   1
                l(4) =   1
                l(5) =   2
                l(6) =   2
     Q(r) pseudized with  6 coefficients,  rinner =    1.000   1.000   1.000
                                                       1.000   1.000

     PseudoPot. # 3 for Al read from file:
     /home/pragov/projects/rrg-bengioy-ad/pragov/crystal_structure_design/SSSP/Al.pbe-n-kjpaw_psl.1.0.0.UPF
     MD5 check sum: cfc449ca30b5f3223ec38ddd88ac046d
     Pseudo is Projector augmented-wave + core cor, Zval =  3.0
     Generated using "atomic" code by A. Dal Corso  v.5.1
     Shape of augmentation charge: PSQ
     Using radial grid of 1135 points,  6 beta functions with:
                l(1) =   0
                l(2) =   0
                l(3) =   1
                l(4) =   1
                l(5) =   2
                l(6) =   2
     Q(r) pseudized with 0 coefficients

     PseudoPot. # 4 for O  read from file:
     /home/pragov/projects/rrg-bengioy-ad/pragov/crystal_structure_design/SSSP/O.pbe-n-kjpaw_psl.0.1.UPF
     MD5 check sum: 0234752ac141de4415c5fc33072bef88
     Pseudo is Projector augmented-wave + core cor, Zval =  6.0
     Generated using "atomic" code by A. Dal Corso  v.5.0.99 svn rev. 10869
     Shape of augmentation charge: BESSEL
     Using radial grid of 1095 points,  4 beta functions with:
                l(1) =   0
                l(2) =   0
                l(3) =   1
                l(4) =   1
     Q(r) pseudized with 0 coefficients

     atomic species   valence    mass     pseudopotential
        Ca            10.00    40.07800     Ca( 1.00)
        Ti            12.00    47.86700     Ti( 1.00)
        Al             3.00    26.98154     Al( 1.00)
        O              6.00    15.99900     O ( 1.00)

     No symmetry found

                                    s                        frac. trans.

      isym =  1     identity

 cryst.   s( 1) = (     1          0          0      )
                  (     0          1          0      )
                  (     0          0          1      )

 cart.    s( 1) = (  1.0000000  0.0000000  0.0000000 )
                  (  0.0000000  1.0000000 -0.0000000 )
                  (  0.0000000  0.0000000  1.0000000 )

   Cartesian axes

     site n.     atom                  positions (alat units)
         1           Ca  tau(   1) = (   0.4988990   0.5151761   0.2594094  )
         2           Ca  tau(   2) = (   0.0680932   0.2808276   0.2594094  )
         3           Ca  tau(   3) = (   0.2802912  -0.1092606   0.2273383  )
         4           Ca  tau(   4) = (   0.7110970   0.1250879   0.2273383  )
         5           Ti  tau(   5) = (   0.0123297  -0.0226659   0.4761738  )
         6           Ti  tau(   6) = (  -0.2160124   0.3970984   0.4761738  )
         7           Al  tau(   7) = (   1.1676500   0.6109632   0.0547594  )
         8           Al  tau(   8) = (  -0.4006272  -0.1826783   0.4588111  )
         9           O   tau(   9) = (   0.5707338  -0.1300291   0.2461856  )
        10           O   tau(  10) = (   0.2706038   0.4217020   0.1035681  )
        11           O   tau(  11) = (   0.5677919   0.2529814   0.0207346  )
        12           O   tau(  12) = (   0.2280722   0.1222841   0.4292587  )
        13           O   tau(  13) = (   0.5450826   0.2947300   0.4292587  )
        14           O   tau(  14) = (   0.2507815   0.0805355   0.0207346  )
        15           O   tau(  15) = (   0.9064802   0.2195163   0.0048751  )
        16           O   tau(  16) = (  -0.0164105  -0.0174300   0.2374532  )
        17           O   tau(  17) = (   0.6381785   0.6175434   0.0048751  )
        18           O   tau(  18) = (   0.7952069   0.4240713   0.2374532  )

   Crystallographic axes

     site n.     atom                  positions (cryst. coord.)
         1           Ca  tau(   1) = (  0.4231750  0.8995680  0.5436000  )
         2           Ca  tau(   2) = (  0.1440320  0.6204250  0.5436000  )
         3           Ca  tau(   3) = (  0.5768250  0.1204250  0.4763940  )
         4           Ca  tau(   4) = (  0.8559680  0.3995680  0.4763940  )
         5           Ti  tau(   5) = (  0.5000000  0.4978360  0.9978360  )
         6           Ti  tau(   6) = (  0.0000000  0.9978360  0.9978360  )
         7           Al  tau(   7) = (  0.8266490  0.7881010  0.1147500  )
         8           Al  tau(   8) = (  0.1733510  0.2881010  0.9614520  )
         9           O   tau(   9) = (  0.8994300  0.1164600  0.5158890  )
        10           O   tau(  10) = (  0.1005700  0.6164600  0.2170300  )
        11           O   tau(  11) = (  0.4246670  0.3241910  0.0434500  )
        12           O   tau(  12) = (  0.5753330  0.6187830  0.8995240  )
        13           O   tau(  13) = (  0.7807420  0.8241910  0.8995240  )
        14           O   tau(  14) = (  0.2192580  0.1187830  0.0434500  )
        15           O   tau(  15) = (  0.7692590  0.2668490  0.0102160  )
        16           O   tau(  16) = (  0.2307410  0.2409570  0.4975900  )
        17           O   tau(  17) = (  0.2433670  0.7409570  0.0102160  )
        18           O   tau(  18) = (  0.7566330  0.7668490  0.4975900  )

     number of k points=     1  Methfessel-Paxton smearing, width (Ry)=  0.0010
                       cart. coord. in units 2pi/alat
        k(    1) = (   0.0000000   0.0000000   0.0000000), wk =   2.0000000

                       cryst. coord.
        k(    1) = (   0.0000000   0.0000000   0.0000000), wk =   2.0000000

     Check: negative core charge=   -0.000012

     Initial potential from superposition of free atoms

     starting charge     127.9735, renormalised to     130.0000

     negative rho (up, down):  2.618E-03 0.000E+00
     Starting wfcs are  108 randomized atomic wfcs
     Checking if some PAW data can be deallocated...

     Self-consistent Calculation

     iteration #  1     ecut=    30.00 Ry     beta= 0.70
     Davidson diagonalization with overlap

     ethr =  1.00E-02,  avg # of iterations =  2.0

     negative rho (up, down):  1.554E-03 0.000E+00

     total energy              =   -1033.94083375 Ry
     estimated scf accuracy    <       3.60939222 Ry

[...]

     c_bands:  1 eigenvalues not converged
     ethr =  4.64E-06,  avg # of iterations = 20.0

[...]

     total energy              =   -1035.55829249 Ry
     estimated scf accuracy    <       0.00000159 Ry

     iteration # 12     ecut=    30.00 Ry     beta= 0.70
     Davidson diagonalization with overlap

     ethr =  1.22E-09,  avg # of iterations =  2.0

[...]

     End of self-consistent calculation

          k = 0.0000 0.0000 0.0000 (  2108 PWs)   bands (ev):

   -47.3590 -47.3561 -30.7518 -30.7333 -30.7226 -30.7096 -24.0746 -24.0706
   -23.5452 -23.4853 -23.4764 -23.4072 -12.3018 -11.9956 -11.9635 -11.9457
   -11.9368 -11.9279 -11.8754 -11.7748 -11.7608 -11.7435 -11.7282 -11.7190
   -10.1744  -9.4670  -9.0157  -8.9060  -8.7467  -8.7171  -8.5322  -8.3501
    -7.9585  -7.8468   1.9941   3.3900   3.4673   3.7082   3.9004   3.9138
     4.1610   4.5257   4.6081   4.6627   4.7292   4.7605   4.9888   5.1517
     5.3063   5.3901   5.6091   5.6947   6.0802   6.1011   6.2135   6.2804
     6.4129   6.4259   6.4942   6.6750   6.8608   7.2800   7.7084   7.8290
    10.6669  10.9284  10.9484  11.2485  12.1350  12.4294  12.8484  13.0073
    13.1584  13.2721  13.4734  13.6249  14.0525  14.0631

     occupation numbers
     1.0000   1.0000   1.0000   1.0000   1.0000   1.0000   1.0000   1.0000
     1.0000   1.0000   1.0000   1.0000   1.0000   1.0000   1.0000   1.0000
     1.0000   1.0000   1.0000   1.0000   1.0000   1.0000   1.0000   1.0000
     1.0000   1.0000   1.0000   1.0000   1.0000   1.0000   1.0000   1.0000
     1.0000   1.0000   1.0000   1.0000   1.0000   1.0000   1.0000   1.0000
     1.0000   1.0000   1.0000   1.0000   1.0000   1.0000   1.0000   1.0000
     1.0000   1.0000   1.0000   1.0000   1.0000   1.0000   1.0000   1.0000
     1.0000   1.0000   1.0000   1.0000   1.0000   1.0000   1.0000   1.0000
     1.0000  -0.0000  -0.0000  -0.0000  -0.0000  -0.0000  -0.0000  -0.0000
    -0.0000  -0.0000  -0.0000  -0.0000  -0.0000  -0.0000

     the Fermi energy is    10.8253 ev

!    total energy              =   -1035.55829275 Ry
     estimated scf accuracy    <       0.00000028 Ry
     smearing contrib. (-TS)   =       0.00000000 Ry
     internal energy E=F+TS    =   -1035.55829275 Ry

     The total energy is F=E-TS. E is the sum of the following terms:
     one-electron contribution =    -367.29954636 Ry
     hartree contribution      =     250.21552718 Ry
     xc contribution           =    -164.70895149 Ry
     ewald contribution        =    -589.26978194 Ry
     one-center paw contrib.   =    -164.49554013 Ry
      -> PAW hartree energy AE =     308.82537502 Ry
      -> PAW hartree energy PS =    -307.71189206 Ry
      -> PAW xc energy AE      =    -247.10407089 Ry
      -> PAW xc energy PS      =      81.49504781 Ry
      -> total E_H with PAW    =     251.32901013 Ry
      -> total E_XC with PAW   =    -330.31797458 Ry

     convergence has been achieved in  12 iterations

     negative rho (up, down):  1.751E-03 0.000E+00

     Forces acting on atoms (cartesian axes, Ry/au):

     atom    1 type  1   force =     0.03875253    0.02560313   -0.00320199
     atom    2 type  1   force =    -0.04258482   -0.01857202   -0.00323182
     atom    3 type  1   force =    -0.03901009   -0.02513437    0.00382890
     atom    4 type  1   force =     0.04228357    0.01913572    0.00383085
     atom    5 type  2   force =    -0.00614209    0.01127824    0.01338917
     atom    6 type  2   force =    -0.00608724    0.01118988    0.01354774
     atom    7 type  3   force =    -0.00153580    0.00285841    0.00434706
     atom    8 type  3   force =    -0.00200568    0.00366065    0.00346670
     atom    9 type  4   force =    -0.00098221    0.00180110   -0.00416078
     atom   10 type  4   force =     0.00204530   -0.00375297    0.00182914
     atom   11 type  4   force =     0.01453679    0.00944122   -0.00061480
     atom   12 type  4   force =    -0.01485666   -0.00886365    0.00131903
     atom   13 type  4   force =     0.01548196    0.00764273    0.00131529
     atom   14 type  4   force =    -0.01580651   -0.00706119   -0.00061973
     atom   15 type  4   force =     0.01546379   -0.00080135   -0.00897282
     atom   16 type  4   force =    -0.00750872   -0.01381227   -0.00855153
     atom   17 type  4   force =    -0.00772606   -0.01341761   -0.00897777
     atom   18 type  4   force =     0.01568195   -0.00119567   -0.00854264
     The non-local contrib.  to forces
     atom    1 type  1   force =    -0.01669286    0.01115290   -0.02088893
     atom    2 type  1   force =    -0.00033148    0.02016245   -0.02093708
     atom    3 type  1   force =     0.01864000   -0.01471847    0.01670958
     atom    4 type  1   force =     0.00220867   -0.02359709    0.01671023
     atom    5 type  2   force =     0.00370914   -0.00681949   -0.00828606
     atom    6 type  2   force =     0.00375135   -0.00688999   -0.00815982
     atom    7 type  3   force =     0.00576138   -0.01052024    0.05608383
     atom    8 type  3   force =    -0.02708063    0.04973915   -0.00906615
     atom    9 type  4   force =     0.20968895   -0.38549028    0.11967808
     atom   10 type  4   force =    -0.06799449    0.12500828   -0.43202120
     atom   11 type  4   force =    -0.40921463    0.20708187   -0.12457401
     atom   12 type  4   force =     0.29768977   -0.00205163    0.37051076
     atom   13 type  4   force =    -0.16004978   -0.25098349    0.37042369
     atom   14 type  4   force =     0.04850256    0.45605650   -0.12459611
     atom   15 type  4   force =    -0.05099651   -0.02035755   -0.05394242
     atom   16 type  4   force =     0.07379375   -0.02157327    0.00369215
     atom   17 type  4   force =     0.04478227    0.03176904   -0.05394395
     atom   18 type  4   force =    -0.02199648   -0.07367357    0.00369659
     The ionic contribution  to forces
     atom    1 type  1   force =   -12.51211008   -5.57654294   -1.11174344
     atom    2 type  1   force =    11.47965853    7.47445409   -1.11174747
     atom    3 type  1   force =    12.55333178    5.50090917    1.02102192
     atom    4 type  1   force =   -11.43846260   -7.55001093    1.02100412
     atom    5 type  2   force =    -0.14741716    0.27100782    0.32500346
     atom    6 type  2   force =    -0.14741695    0.27103003    0.32498459
     atom    7 type  3   force =    -0.05681683    0.10443568   -0.21694149
     atom    8 type  3   force =     0.10645308   -0.19574816    0.10744712
     atom    9 type  4   force =    -0.10701023    0.19644320   -0.12229119
     atom   10 type  4   force =     0.06390411   -0.11751275    0.21705114
     atom   11 type  4   force =    -8.64616335   -5.10779507   -0.04262973
     atom   12 type  4   force =     8.82747631    4.77450509   -0.35702198
     atom   13 type  4   force =    -8.80451321   -4.81688382   -0.35701913
     atom   14 type  4   force =     8.98582090    4.48359810   -0.04262747
     atom   15 type  4   force =     2.81450824    1.39014153    0.28176812
     atom   16 type  4   force =    -2.89292101   -1.24605607   -0.10896366
     atom   17 type  4   force =    -2.69622225   -1.60760121    0.28169905
     atom   18 type  4   force =     2.61790071    1.75162625   -0.10899396
     The local contribution  to forces
     atom    1 type  1   force =    12.56781157    5.59051146    1.12993094
     atom    2 type  1   force =   -11.52185300   -7.51319618    1.12967401
     atom    3 type  1   force =   -12.61106320   -5.51110654   -1.03414194
     atom    4 type  1   force =    11.47826587    7.59318807   -1.03416167
     atom    5 type  2   force =     0.13823189   -0.25412852   -0.30402337
     atom    6 type  2   force =     0.13793872   -0.25364739   -0.30486981
     atom    7 type  3   force =     0.05031582   -0.09237667    0.17207251
     atom    8 type  3   force =    -0.08474609    0.15573906   -0.09609537
     atom    9 type  4   force =    -0.10162236    0.18704296   -0.00021977
     atom   10 type  4   force =     0.00537480   -0.00988937    0.21255843
     atom   11 type  4   force =     9.06659691    4.91254435    0.16532409
     atom   12 type  4   force =    -9.13767290   -4.78180699   -0.00846493
     atom   13 type  4   force =     8.97924418    5.07338927   -0.00851475
     atom   14 type  4   force =    -9.05036078   -4.94256477    0.16521997
     atom   15 type  4   force =    -2.74827805   -1.37059108   -0.23742326
     atom   16 type  4   force =     2.81206858    1.25335912    0.09677442
     atom   17 type  4   force =     2.64378375    1.56265381   -0.23732844
     atom   18 type  4   force =    -2.58011854   -1.67979061    0.09690889
     The core correction contribution to forces
     atom    1 type  1   force =    -0.00010921    0.00046118   -0.00045320
     atom    2 type  1   force =    -0.00032917    0.00034521   -0.00045515
     atom    3 type  1   force =     0.00011952   -0.00047952    0.00043516
     atom    4 type  1   force =     0.00033657   -0.00035936    0.00043538
     atom    5 type  2   force =    -0.00052146    0.00095905    0.00115818
     atom    6 type  2   force =    -0.00052465    0.00096363    0.00114803
     atom    7 type  3   force =    -0.00073663    0.00134693   -0.00688060
     atom    8 type  3   force =     0.00332351   -0.00610539    0.00117605
     atom    9 type  4   force =    -0.00203812    0.00374695   -0.00128798
     atom   10 type  4   force =     0.00072032   -0.00132441    0.00419275
     atom   11 type  4   force =     0.00342182   -0.00226863    0.00122137
     atom   12 type  4   force =    -0.00236137    0.00031908   -0.00356015
     atom   13 type  4   force =     0.00101575    0.00215526   -0.00355909
     atom   14 type  4   force =     0.00004500   -0.00410536    0.00122158
     atom   15 type  4   force =     0.00030097    0.00000864    0.00060457
     atom   16 type  4   force =    -0.00052763    0.00040843   -0.00010498
     atom   17 type  4   force =    -0.00017063   -0.00024804    0.00060462
     atom   18 type  4   force =    -0.00005602    0.00066490   -0.00010476
     The Hubbard contrib.    to forces
     atom    1 type  1   force =     0.00000000    0.00000000    0.00000000
     atom    2 type  1   force =     0.00000000    0.00000000    0.00000000
     atom    3 type  1   force =     0.00000000    0.00000000    0.00000000
     atom    4 type  1   force =     0.00000000    0.00000000    0.00000000
     atom    5 type  2   force =     0.00000000    0.00000000    0.00000000
     atom    6 type  2   force =     0.00000000    0.00000000    0.00000000
     atom    7 type  3   force =     0.00000000    0.00000000    0.00000000
     atom    8 type  3   force =     0.00000000    0.00000000    0.00000000
     atom    9 type  4   force =     0.00000000    0.00000000    0.00000000
     atom   10 type  4   force =     0.00000000    0.00000000    0.00000000
     atom   11 type  4   force =     0.00000000    0.00000000    0.00000000
     atom   12 type  4   force =     0.00000000    0.00000000    0.00000000
     atom   13 type  4   force =     0.00000000    0.00000000    0.00000000
     atom   14 type  4   force =     0.00000000    0.00000000    0.00000000
     atom   15 type  4   force =     0.00000000    0.00000000    0.00000000
     atom   16 type  4   force =     0.00000000    0.00000000    0.00000000
     atom   17 type  4   force =     0.00000000    0.00000000    0.00000000
     atom   18 type  4   force =     0.00000000    0.00000000    0.00000000
     The SCF correction term to forces
     atom    1 type  1   force =    -0.00014621    0.00002166   -0.00004644
     atom    2 type  1   force =     0.00027098   -0.00033648    0.00023479
     atom    3 type  1   force =    -0.00003752    0.00026210   -0.00019489
     atom    4 type  1   force =    -0.00006426   -0.00008385   -0.00015628
     atom    5 type  2   force =    -0.00014382    0.00026049   -0.00046211
     atom    6 type  2   force =     0.00016495   -0.00026528    0.00044568
     atom    7 type  3   force =    -0.00005886   -0.00002617    0.00001373
     atom    8 type  3   force =     0.00004513    0.00003711    0.00000597
     atom    9 type  4   force =     0.00000022    0.00005938   -0.00003899
     atom   10 type  4   force =     0.00004122   -0.00003360    0.00004894
     atom   11 type  4   force =    -0.00010328   -0.00012019    0.00004441
     atom   12 type  4   force =     0.00001219    0.00017192   -0.00014374
     atom   13 type  4   force =    -0.00021431   -0.00003336   -0.00001451
     atom   14 type  4   force =     0.00018647   -0.00004455    0.00016323
     atom   15 type  4   force =    -0.00007020   -0.00000178    0.00002109
     atom   16 type  4   force =     0.00007825    0.00005064    0.00005147
     atom   17 type  4   force =     0.00010147    0.00000990   -0.00000813
     atom   18 type  4   force =    -0.00004705   -0.00002152   -0.00004847

     Total force =     0.109308     Total SCF correction =     0.001116

     Computing stress (Cartesian axis) and pressure

     negative rho (up, down):  1.751E-03 0.000E+00
          total   stress  (Ry/bohr**3)                   (kbar)     P=     -307.87
  -0.00235985  -0.00025628   0.00000684         -347.15      -37.70        1.01
  -0.00025628  -0.00202830  -0.00001245          -37.70     -298.37       -1.83
   0.00000684  -0.00001245  -0.00189034            1.01       -1.83     -278.08

     kinetic stress (kbar)  19754.35   -226.70     -3.52
                             -226.70  20047.71      6.52
                               -3.52      6.52  20171.81

     local   stress (kbar)   2887.41  11877.76   -347.64
                            11877.76 -12486.38    638.98
                             -347.64    638.98 -18871.93

     nonloc. stress (kbar)   4991.00    -16.05      5.09
                              -16.05   5011.75     -9.34
                                5.09     -9.34   5019.38

     hartree stress (kbar)   2380.47  -5461.03    111.04
                            -5461.03   9448.89   -204.12
                              111.04   -204.12  12395.38

     exc-cor stress (kbar)  -2910.55     -4.06      1.15
                               -4.06  -2905.30     -2.11
                                1.15     -2.11  -2903.34

     corecor stress (kbar)  -1966.42      1.47     -0.36
                                1.47  -1968.32      0.65
                               -0.36      0.65  -1969.05

     ewald   stress (kbar) -25483.40  -6209.10    235.23
                            -6209.10 -17446.72   -432.42
                              235.23   -432.42 -14120.34

     hubbard stress (kbar)      0.00      0.00      0.00
                                0.00      0.00      0.00
                                0.00      0.00      0.00

     DFT-D   stress (kbar)      0.00      0.00      0.00
                                0.00      0.00      0.00
                                0.00      0.00      0.00

     XDM     stress (kbar)      0.00      0.00      0.00
                                0.00      0.00      0.00
                                0.00      0.00      0.00

     dft-nl  stress (kbar)      0.00      0.00      0.00
                                0.00      0.00      0.00
                                0.00      0.00      0.00

     TS-vdW  stress (kbar)      0.00      0.00      0.00
                                0.00      0.00      0.00
                                0.00      0.00      0.00

[...]

                                0.00      0.00      0.00

     Writing all to output data dir new_calculations/myprefix.save/

     General routines

     Parallel routines

     PAW routines

   This run was terminated on:   6:59:20  20May2023

   JOB DONE.