     Program PWSCF v.7.1 starts on 16Jul2023 at 17:10:50

     Reading input from espresso_15891.pwi
Warning: card &CELL ignored
Warning: card / ignored

     Current dimensions of program PWSCF are:
     Max number of different atomic species (ntypx) = 10
     Max number of k-points (npk) =  40000
     Max angular momentum in pseudopotentials (lmaxx) =  4
     Message from routine setup:
     using ibrav=0 with symmetry is DISCOURAGED, use correct ibrav instead

     K-points division:     npool     =       2
     R & G space division:  proc/nbgrp/npool/nimage =       4
     Subspace diagonalization in iterative solution of the eigenvalue problem:
     a serial algorithm will be used

     Using Slab Decomposition

     bravais-lattice index     =            0
     lattice parameter (alat)  =       9.4339  a.u.
     unit-cell volume          =    1132.8857 (a.u.)^3
     number of atoms/cell      =           12
     number of atomic types    =            3
     number of electrons       =       164.00
     number of Kohn-Sham states=           98
     kinetic-energy cutoff     =      30.0000  Ry
     charge density cutoff     =     240.0000  Ry
     scf convergence threshold =      1.0E-06
     mixing beta               =       0.7000
     number of iterations used =            8  plain     mixing
     Exchange-correlation=  SLA  PW   PBX  PBC
                           (   1   4   3   4   0   0   0)

     celldm(1)=   9.433874  celldm(2)=   0.000000  celldm(3)=   0.000000
     celldm(4)=   0.000000  celldm(5)=   0.000000  celldm(6)=   0.000000

     crystal axes: (cart. coord. in units of alat)
               a(1) = (   1.000000   0.000000   0.000000 )
               a(2) = (  -0.500000   0.866026   0.000000 )
               a(3) = (   0.000000   0.000000   1.558064 )

     reciprocal axes: (cart. coord. in units 2 pi/alat)
               b(1) = (  1.000000  0.577350  0.000000 )
               b(2) = (  0.000000  1.154700  0.000000 )
               b(3) = (  0.000000  0.000000  0.641822 )

     PseudoPot. # 1 for Hf read from file:
     /lustre07/scratch/pragov/crystal_structure_design/utils/SSSP/Hf-sp.oncvpsp.upf
     MD5 check sum: 417ed15784afe83d2e06dacf143de3f8
     Pseudo is Norm-conserving + core correction, Zval = 12.0
     Generated using ONCVPSP code by D. R. Hamann
     Using radial grid of 1656 points,  8 beta functions with:
                l(1) =   0
                l(2) =   0
                l(3) =   1
                l(4) =   1
                l(5) =   2
                l(6) =   2
                l(7) =   3
                l(8) =   3

     PseudoPot. # 2 for Si read from file:
     /lustre07/scratch/pragov/crystal_structure_design/utils/SSSP/Si.pbe-n-rrkjus_psl.1.0.0.UPF
     MD5 check sum: 0b0bb1205258b0d07b9f9672cf965d36
     Pseudo is Ultrasoft + core correction, Zval =  4.0
     Generated using "atomic" code by A. Dal Corso  v.5.1
     Using radial grid of 1141 points,  6 beta functions with:
                l(1) =   0
                l(2) =   0
                l(3) =   1
                l(4) =   1
                l(5) =   2
                l(6) =   2
     Q(r) pseudized with 0 coefficients

     PseudoPot. # 3 for Ni read from file:
     /lustre07/scratch/pragov/crystal_structure_design/utils/SSSP/ni_pbe_v1.4.uspp.F.UPF
     MD5 check sum: 1ee80287db30b12d2bc1f57a5b5d6409
     Pseudo is Ultrasoft + core correction, Zval = 18.0
     Generated by new atomic code, or converted to UPF format
     Using radial grid of  865 points,  6 beta functions with:
                l(1) =   0
                l(2) =   0
                l(3) =   1
                l(4) =   1
                l(5) =   2
                l(6) =   2
     Q(r) pseudized with 10 coefficients,  rinner =    0.980   0.980   0.980
                                                       0.980   0.980

     atomic species   valence    mass     pseudopotential
        Hf            12.00   178.49000     Hf( 1.00)
        Si             4.00    28.08500     Si( 1.00)
        Ni            18.00    58.69340     Ni( 1.00)

     24 Sym. Ops., with inversion, found (12 have fractional translation)

                                    s                        frac. trans.

      isym =  1     identity

 cryst.   s( 1) = (     1          0          0      )
                  (     0          1          0      )
                  (     0          0          1      )

 cart.    s( 1) = (  1.0000000  0.0000000  0.0000000 )
                  (  0.0000000  1.0000000  0.0000000 )
                  (  0.0000000  0.0000000  1.0000000 )

      isym =  2     180 deg rotation - cart. axis [0,0,1]

 cryst.   s( 2) = (    -1          0          0      )    f =(  0.0000000 )
                  (     0         -1          0      )       ( -0.0000000 )
                  (     0          0          1      )       ( -0.5000000 )

 cart.    s( 2) = ( -1.0000000  0.0000000  0.0000000 )    f =(  0.0000000 )
                  (  0.0000000 -1.0000000  0.0000000 )       ( -0.0000000 )
                  (  0.0000000  0.0000000  1.0000000 )       ( -0.7790319 )

[...]

      isym =  4     180 deg rotation - cart. axis [1,0,0]

[...]

      isym =  5      60 deg rotation - cryst. axis [0,0,1]

[...]

 cryst.   s( 8) = (    -1         -1          0      )
                  (     1          0          0      )
                  (     0          0          1      )

 cart.    s( 8) = ( -0.5000002  0.8660253  0.0000000 )
                  ( -0.8660255 -0.4999998  0.0000000 )
                  (  0.0000000  0.0000000  1.0000000 )

[...]

 cryst.   s( 9) = (     0         -1          0      )    f =(  0.0000000 )
                  (    -1          0          0      )       (  0.0000000 )
                  (     0          0         -1      )       (  0.5000000 )

 cart.    s( 9) = (  0.4999998 -0.8660255  0.0000000 )    f =(  0.0000000 )
                  ( -0.8660255 -0.4999998  0.0000000 )       (  0.0000000 )
                  (  0.0000000  0.0000000 -1.0000000 )       (  0.7790319 )

[...]

 cryst.   s(10) = (     1          1          0      )    f =(  0.0000000 )
                  (     0         -1          0      )       ( -0.0000010 )
                  (     0          0         -1      )       (  0.5000000 )

 cart.    s(10) = (  0.5000002  0.8660251  0.0000000 )    f =(  0.0000005 )
                  (  0.8660255 -0.5000002  0.0000000 )       ( -0.0000009 )
                  (  0.0000000  0.0000000 -1.0000000 )       (  0.7790319 )

[...]

 cryst.   s(11) = (    -1         -1          0      )
                  (     0          1          0      )
                  (     0          0         -1      )

 cart.    s(11) = ( -0.5000002 -0.8660251  0.0000000 )
                  ( -0.8660255  0.5000002  0.0000000 )
                  (  0.0000000  0.0000000 -1.0000000 )

      isym = 12     180 deg rotation - cryst. axis [1,1,0]

[...]

      isym = 13     inversion

[...]

      isym = 14     inv. 180 deg rotation - cart. axis [0,0,1]

[...]

      isym = 16     inv. 180 deg rotation - cart. axis [1,0,0]

[...]

      isym = 17     inv.  60 deg rotation - cryst. axis [0,0,1]

[...]

 cryst.   s(22) = (    -1         -1          0      )    f =(  0.0000000 )
                  (     0          1          0      )       ( -0.0000010 )
                  (     0          0          1      )       ( -0.5000000 )

 cart.    s(22) = ( -0.5000002 -0.8660251  0.0000000 )    f =(  0.0000005 )
                  ( -0.8660255  0.5000002  0.0000000 )       ( -0.0000009 )
                  (  0.0000000  0.0000000  1.0000000 )       ( -0.7790319 )

[...]

      isym = 24     inv. 180 deg rotation - cryst. axis [1,1,0]

 cryst.   s(24) = (     0         -1          0      )
                  (    -1          0          0      )
                  (     0          0          1      )

 cart.    s(24) = (  0.4999998 -0.8660255  0.0000000 )
                  ( -0.8660255 -0.4999998  0.0000000 )
                  (  0.0000000  0.0000000  1.0000000 )

   Cartesian axes

     site n.     atom                  positions (alat units)
         1           Hf  tau(   1) = (  -0.0000004   0.5773506   0.6941844  )
         2           Hf  tau(   2) = (   0.5000006   0.2886749   0.8638794  )
         3           Hf  tau(   3) = (   0.5000006   0.2886749   1.4732163  )
         4           Hf  tau(   4) = (  -0.0000004   0.5773506   0.0848475  )
         5           Si  tau(   5) = (   0.0000000   0.0000000   0.7790319  )
         6           Si  tau(   6) = (   0.0000000   0.0000000   0.0000000  )
         7           Ni  tau(   7) = (   0.7491940   0.1448029   0.3895159  )
         8           Ni  tau(   8) = (   0.5000001   0.5764197   0.3895159  )
         9           Ni  tau(   9) = (   0.2508060   0.1448029   0.3895159  )
        10           Ni  tau(  10) = (  -0.2491938   0.7212226   1.1685478  )
        11           Ni  tau(  11) = (   0.0000001   0.2896059   1.1685478  )
        12           Ni  tau(  12) = (   0.2491942   0.7212226   1.1685478  )

   Crystallographic axes

     site n.     atom                  positions (cryst. coord.)
         1           Hf  tau(   1) = (  0.3333330  0.6666670  0.4455430  )
         2           Hf  tau(   2) = (  0.6666670  0.3333330  0.5544570  )
         3           Hf  tau(   3) = (  0.6666670  0.3333330  0.9455430  )
         4           Hf  tau(   4) = (  0.3333330  0.6666670  0.0544570  )
         5           Si  tau(   5) = (  0.0000000  0.0000000  0.5000000  )
         6           Si  tau(   6) = (  0.0000000  0.0000000  0.0000000  )
         7           Ni  tau(   7) = (  0.8327960  0.1672040  0.2500000  )
         8           Ni  tau(   8) = (  0.8327960  0.6655920  0.2500000  )
         9           Ni  tau(   9) = (  0.3344080  0.1672040  0.2500000  )
        10           Ni  tau(  10) = (  0.1672040  0.8327960  0.7500000  )
        11           Ni  tau(  11) = (  0.1672040  0.3344080  0.7500000  )
        12           Ni  tau(  12) = (  0.6655920  0.8327960  0.7500000  )

     number of k points=     6  Gaussian smearing, width (Ry)=  0.0010
                       cart. coord. in units 2pi/alat
        k(    1) = (   0.0000000   0.0000000   0.0000000), wk =   0.0740741
        k(    2) = (   0.0000000   0.0000000   0.2139408), wk =   0.1481481
        k(    3) = (   0.0000000   0.3849001   0.0000000), wk =   0.4444444
        k(    4) = (   0.0000000   0.3849001   0.2139408), wk =   0.8888889
        k(    5) = (   0.3333333   0.5773501   0.0000000), wk =   0.1481481
        k(    6) = (   0.3333333   0.5773501   0.2139408), wk =   0.2962963

                       cryst. coord.
        k(    1) = (   0.0000000   0.0000000   0.0000000), wk =   0.0740741
        k(    2) = (   0.0000000   0.0000000   0.3333333), wk =   0.1481481
        k(    3) = (   0.0000000   0.3333333   0.0000000), wk =   0.4444444
        k(    4) = (   0.0000000   0.3333333   0.3333333), wk =   0.8888889
        k(    5) = (   0.3333333   0.3333333   0.0000000), wk =   0.1481481
        k(    6) = (   0.3333333   0.3333333   0.3333333), wk =   0.2962963

     Check: negative core charge=   -0.000006

     Initial potential from superposition of free atoms

     starting charge     151.9915, renormalised to     164.0000
     Starting wfcs are  126 randomized atomic wfcs

     Self-consistent Calculation

     iteration #  1     ecut=    30.00 Ry     beta= 0.70
     Davidson diagonalization with overlap

     ethr =  1.00E-02,  avg # of iterations =  4.3

     total energy              =   -2344.49326543 Ry
     estimated scf accuracy    <     261.72246275 Ry

[...]

     total energy              =   -2533.13191019 Ry
     estimated scf accuracy    <       0.00000828 Ry

     iteration # 31     ecut=    30.00 Ry     beta= 0.70
     Davidson diagonalization with overlap

     ethr =  4.38E-09,  avg # of iterations =  1.0

     End of self-consistent calculation

          k = 0.0000 0.0000 0.0000 (  3127 PWs)   bands (ev):

   -87.1020 -87.1009 -87.0927 -87.0926 -87.0915 -87.0914 -47.5472 -47.5404
   -47.4514 -47.4373 -47.4330 -47.4330 -47.4273 -47.4273 -47.4225 -47.4224
   -47.4207 -47.4207 -47.3297 -47.3297 -47.3210 -47.3210 -47.3182 -47.3129
   -45.0642 -45.0594 -45.0182 -45.0167 -14.0646 -14.0646 -14.0344 -14.0344
   -13.9667 -13.9336 -13.6409 -13.6409 -13.6383 -13.6224 -13.6107 -13.6107
     6.1448   7.6364   9.8508  11.6864  11.6864  12.1195  12.5605  12.6891
    12.7677  12.9233  12.9544  12.9544  13.1192  13.1192  13.9045  13.9046
    13.9369  13.9899  13.9899  14.2354  14.2354  14.3698  14.3698  14.9016
    15.0896  15.0897  15.3010  15.3228  15.3269  15.3269  15.3304  15.3304
    15.3345  15.3830  15.3831  15.3898  15.3898  15.4144  16.2302  16.2672
    16.6776  16.6776  16.7516  16.7516  16.8573  16.8573  17.3154  17.3155
    17.6649  18.7312  19.1244  20.4256  20.4257  20.7980  20.9253  20.9254
    21.2646  21.2646

     occupation numbers
     1.0000   1.0000   1.0000   1.0000   1.0000   1.0000   1.0000   1.0000
     1.0000   1.0000   1.0000   1.0000   1.0000   1.0000   1.0000   1.0000
     1.0000   1.0000   1.0000   1.0000   1.0000   1.0000   1.0000   1.0000
     1.0000   1.0000   1.0000   1.0000   1.0000   1.0000   1.0000   1.0000
     1.0000   1.0000   1.0000   1.0000   1.0000   1.0000   1.0000   1.0000
     1.0000   1.0000   1.0000   1.0000   1.0000   1.0000   1.0000   1.0000
     1.0000   1.0000   1.0000   1.0000   1.0000   1.0000   1.0000   1.0000
     1.0000   1.0000   1.0000   1.0000   1.0000   1.0000   1.0000   1.0000
     1.0000   1.0000   1.0000   1.0000   1.0000   1.0000   1.0000   1.0000
     1.0000   1.0000   1.0000   1.0000   1.0000   1.0000   1.0000   1.0000
     1.0000   1.0000   1.0000   1.0000   0.2459   0.2450   0.0000   0.0000
     0.0000   0.0000   0.0000   0.0000   0.0000   0.0000   0.0000   0.0000
     0.0000   0.0000

[...]

          k = 0.3333 0.5774 0.2139 (  3141 PWs)   bands (ev):

   -87.0994 -87.0994 -87.0992 -87.0990 -87.0922 -87.0922 -47.4764 -47.4764
   -47.4753 -47.4723 -47.4356 -47.4356 -47.4346 -47.4317 -47.4233 -47.4233
   -47.3937 -47.3937 -47.3784 -47.3784 -47.3433 -47.3403 -47.3403 -47.3394
   -45.0487 -45.0486 -45.0446 -45.0445 -14.1286 -14.1110 -14.0145 -14.0145
   -13.9040 -13.9039 -13.7648 -13.7647 -13.5805 -13.5805 -13.5697 -13.5540
     7.4971   7.9784  10.9788  10.9789  11.2320  11.6765  11.6766  12.3100
    12.7364  12.7364  13.3081  13.3081  13.6145  13.6404  13.8563  13.8564
    13.8839  13.9912  13.9912  14.0925  14.2730  14.3155  14.3155  14.3538
    14.3538  14.4075  14.5208  14.5208  14.7537  14.7694  14.7694  14.9229
    15.0335  15.0335  15.3262  15.5192  15.5192  16.0000  16.0438  16.0438
    16.8429  16.8429  17.0917  17.0917  17.1368  17.4716  17.5245  17.5246
    18.1776  18.1777  18.6229  19.6205  19.7526  19.9262  19.9262  20.6770
    21.4815  21.4815

     occupation numbers
     1.0000   1.0000   1.0000   1.0000   1.0000   1.0000   1.0000   1.0000
     1.0000   1.0000   1.0000   1.0000   1.0000   1.0000   1.0000   1.0000
     1.0000   1.0000   1.0000   1.0000   1.0000   1.0000   1.0000   1.0000
     1.0000   1.0000   1.0000   1.0000   1.0000   1.0000   1.0000   1.0000
     1.0000   1.0000   1.0000   1.0000   1.0000   1.0000   1.0000   1.0000
     1.0000   1.0000   1.0000   1.0000   1.0000   1.0000   1.0000   1.0000
     1.0000   1.0000   1.0000   1.0000   1.0000   1.0000   1.0000   1.0000
     1.0000   1.0000   1.0000   1.0000   1.0000   1.0000   1.0000   1.0000
     1.0000   1.0000   1.0000   1.0000   1.0000   1.0000   1.0000   1.0000
     1.0000   1.0000   1.0000   1.0000   1.0000   1.0000   1.0000   1.0000
     0.7907   0.7904   0.0000   0.0000   0.0000   0.0000   0.0000   0.0000
     0.0000   0.0000   0.0000   0.0000   0.0000   0.0000   0.0000   0.0000
     0.0000   0.0000

     the Fermi energy is    16.8507 ev

!    total energy              =   -2533.13191049 Ry
     estimated scf accuracy    <          2.7E-09 Ry
     smearing contrib. (-TS)   =      -0.00051974 Ry
     internal energy E=F+TS    =   -2533.13139075 Ry

     The total energy is F=E-TS. E is the sum of the following terms:
     one-electron contribution =   -1571.22108419 Ry
     hartree contribution      =     875.37723183 Ry
     xc contribution           =    -339.87064685 Ry
     ewald contribution        =   -1497.41689154 Ry

     convergence has been achieved in  31 iterations

     Writing all to output data dir energy_m/myprefix.save/

     General routines

     Parallel routines

   This run was terminated on:  17:11:14  16Jul2023

   JOB DONE.