     Program PWSCF v.7.0 starts on 21May2023 at  3:40:36

     Reading input from espresso_2909.pwi
Warning: card &CELL ignored
Warning: card / ignored

     Current dimensions of program PWSCF are:
     Max number of different atomic species (ntypx) = 10
     Max number of k-points (npk) =  40000
     Max angular momentum in pseudopotentials (lmaxx) =  4

     gamma-point specific algorithms are used
     Message from routine setup:
     using ibrav=0 with symmetry is DISCOURAGED, use correct ibrav instead

     Subspace diagonalization in iterative solution of the eigenvalue problem:
     a serial algorithm will be used

     Using Slab Decomposition

     bravais-lattice index     =            0
     lattice parameter (alat)  =      10.5512  a.u.
     unit-cell volume          =     861.9627 (a.u.)^3
     number of atoms/cell      =            7
     number of atomic types    =            3
     number of electrons       =        91.00
     number of Kohn-Sham states=           55
     kinetic-energy cutoff     =      30.0000  Ry
     charge density cutoff     =     240.0000  Ry
     scf convergence threshold =      1.0E-06
     mixing beta               =       0.7000
     number of iterations used =            8  plain     mixing
     Exchange-correlation=  SLA  PW   PBX  PBC
                           (   1   4   3   4   0   0   0)

     celldm(1)=  10.551238  celldm(2)=   0.000000  celldm(3)=   0.000000
     celldm(4)=   0.000000  celldm(5)=   0.000000  celldm(6)=   0.000000

     crystal axes: (cart. coord. in units of alat)
               a(1) = (   1.000000   0.000000   0.000000 )
               a(2) = (   0.474335   0.880344   0.000000 )
               a(3) = (   0.474335   0.283232   0.833538 )

     reciprocal axes: (cart. coord. in units 2 pi/alat)
               b(1) = (  1.000000 -0.538806 -0.385979 )
               b(2) = (  0.000000  1.135919 -0.385979 )
               b(3) = (  0.000000  0.000000  1.199705 )

     PseudoPot. # 1 for Sn read from file:
     /home/pragov/projects/rrg-bengioy-ad/pragov/crystal_structure_design/SSSP/Sn_pbe_v1.uspp.F.UPF
     MD5 check sum: 4cf58ce39ec5d5d420df3dd08604eb00
     Pseudo is Ultrasoft + core correction, Zval = 14.0
     Generated by new atomic code, or converted to UPF format
     Using radial grid of  891 points,  6 beta functions with:
                l(1) =   0
                l(2) =   0
                l(3) =   1
                l(4) =   1
                l(5) =   2
                l(6) =   2
     Q(r) pseudized with  6 coefficients,  rinner =    1.200   1.200   1.200
                                                       1.200   1.200

     PseudoPot. # 2 for Rh read from file:
     /home/pragov/projects/rrg-bengioy-ad/pragov/crystal_structure_design/SSSP/Rh_ONCV_PBE-1.0.oncvpsp.upf
     MD5 check sum: ba07c69523b14cacd10683cd4c4284c1
     Pseudo is Norm-conserving, Zval = 17.0
     Generated using ONCVPSP code by D. R. Hamann
     Using radial grid of 1442 points,  6 beta functions with:
                l(1) =   0
                l(2) =   0
                l(3) =   1
                l(4) =   1
                l(5) =   2
                l(6) =   2

     PseudoPot. # 3 for S  read from file:
     /home/pragov/projects/rrg-bengioy-ad/pragov/crystal_structure_design/SSSP/s_pbe_v1.4.uspp.F.UPF
     MD5 check sum: 88d86576ff6df21479756cfb9bdac1df
     Pseudo is Ultrasoft + core correction, Zval =  6.0
     Generated by new atomic code, or converted to UPF format
     Using radial grid of  907 points,  6 beta functions with:
                l(1) =   0
                l(2) =   0
                l(3) =   1
                l(4) =   1
                l(5) =   2
                l(6) =   2
     Q(r) pseudized with  8 coefficients,  rinner =    1.300   1.300   1.300
                                                       1.300   1.300

     atomic species   valence    mass     pseudopotential
        Sn            14.00   118.71000     Sn( 1.00)
        Rh            17.00   102.90550     Rh( 1.00)
        S              6.00    32.06000     S ( 1.00)

      2 Sym. Ops., with inversion, found

                                    s                        frac. trans.

      isym =  1     identity

 cryst.   s( 1) = (     1          0          0      )
                  (     0          1          0      )
                  (     0          0          1      )

 cart.    s( 1) = (  1.0000000  0.0000000 -0.0000000 )
                  (  0.0000000  1.0000000 -0.0000000 )
                  (  0.0000000  0.0000000  1.0000000 )

      isym =  2     inversion

 cryst.   s( 2) = (    -1          0          0      )
                  (     0         -1          0      )
                  (     0          0         -1      )

 cart.    s( 2) = ( -1.0000000 -0.0000000  0.0000000 )
                  (  0.0000000 -1.0000000  0.0000000 )
                  (  0.0000000  0.0000000 -1.0000000 )

   Cartesian axes

     site n.     atom                  positions (alat units)
         1           Sn  tau(   1) = (   0.0000000   0.0000000   0.0000000  )
         2           Sn  tau(   2) = (   0.9743349   0.5817880   0.4167692  )
         3           Rh  tau(   3) = (   0.2371675   0.1416158   0.4167692  )
         4           Rh  tau(   4) = (   0.5000000   0.0000000   0.0000000  )
         5           Rh  tau(   5) = (   0.2371674   0.4401722   0.0000000  )
         6           S   tau(   6) = (   1.3875055   0.8284976   0.5935018  )
         7           S   tau(   7) = (   0.5611643   0.3350785   0.2400365  )

   Crystallographic axes

     site n.     atom                  positions (cryst. coord.)
         1           Sn  tau(   1) = (  0.0000000  0.0000000  0.0000000  )
         2           Sn  tau(   2) = (  0.5000000  0.5000000  0.5000000  )
         3           Rh  tau(   3) = ( -0.0000000  0.0000000  0.5000000  )
         4           Rh  tau(   4) = (  0.5000000  0.0000000  0.0000000  )
         5           Rh  tau(   5) = (  0.0000000  0.5000000  0.0000000  )
         6           S   tau(   6) = (  0.7120270  0.7120270  0.7120270  )
         7           S   tau(   7) = (  0.2879730  0.2879730  0.2879730  )

     number of k points=     1  Methfessel-Paxton smearing, width (Ry)=  0.0010
                       cart. coord. in units 2pi/alat
        k(    1) = (   0.0000000   0.0000000   0.0000000), wk =   2.0000000

                       cryst. coord.
        k(    1) = (   0.0000000   0.0000000   0.0000000), wk =   2.0000000

     Check: negative core charge=   -0.000001

     Initial potential from superposition of free atoms

     starting charge      88.9985, renormalised to      91.0000
     Starting wfcs are   56 randomized atomic wfcs

     Self-consistent Calculation

     iteration #  1     ecut=    30.00 Ry     beta= 0.70
     Davidson diagonalization with overlap

     ethr =  1.00E-02,  avg # of iterations =  3.0

     Threshold (ethr) on eigenvalues was too large:
     Diagonalizing with lowered threshold

     Davidson diagonalization with overlap

[...]

     total energy              =   -1024.98740296 Ry
     estimated scf accuracy    <       0.79725074 Ry

[...]

     total energy              =   -1025.24913951 Ry
     estimated scf accuracy    <       0.00000365 Ry

     iteration # 11     ecut=    30.00 Ry     beta= 0.70
     Davidson diagonalization with overlap

     ethr =  4.01E-09,  avg # of iterations =  2.0

     End of self-consistent calculation

          k = 0.0000 0.0000 0.0000 (  1187 PWs)   bands (ev):

   -65.1580 -65.1330 -65.1326 -33.4389 -33.2829 -33.2826 -32.9389 -32.9039
   -32.9038 -32.7909 -32.7908 -32.7821  -7.0674  -7.0163  -7.0163  -6.9520
    -6.9520  -6.8611  -6.8611  -6.8000  -6.7920  -6.7920  -0.5988   0.9514
     5.5555   6.8591   7.7774   7.8257   7.8257   9.5776  10.0191  10.0191
    10.7225  10.7225  10.8525  11.3342  11.3342  11.9696  11.9697  12.3531
    12.3799  12.3800  12.5570  12.5570  12.5882  13.6992  13.9779  14.2770
    14.2770  15.2196  16.8687  16.8687  18.1046  19.0670  19.0670

     occupation numbers
     1.0000   1.0000   1.0000   1.0000   1.0000   1.0000   1.0000   1.0000
     1.0000   1.0000   1.0000   1.0000   1.0000   1.0000   1.0000   1.0000
     1.0000   1.0000   1.0000   1.0000   1.0000   1.0000   1.0000   1.0000
     1.0000   1.0000   1.0000   1.0000   1.0000   1.0000   1.0000   1.0000
     1.0000   1.0000   1.0000   1.0000   1.0000   1.0000   1.0000   1.0000
     1.0000   1.0000   1.0000   1.0000   1.0000   0.5000  -0.0000  -0.0000
    -0.0000  -0.0000  -0.0000  -0.0000  -0.0000  -0.0000  -0.0000

     the Fermi energy is    13.6992 ev

!    total energy              =   -1025.24914003 Ry
     estimated scf accuracy    <       0.00000042 Ry
     smearing contrib. (-TS)   =      -0.00028209 Ry
     internal energy E=F+TS    =   -1025.24885793 Ry

     The total energy is F=E-TS. E is the sum of the following terms:
     one-electron contribution =    -413.28134157 Ry
     hartree contribution      =     257.92308236 Ry
     xc contribution           =    -177.92231546 Ry
     ewald contribution        =    -691.96828326 Ry

     convergence has been achieved in  11 iterations

     Forces acting on atoms (cartesian axes, Ry/au):

     atom    1 type  1   force =     0.00000000    0.00000000    0.00000000
     atom    2 type  1   force =     0.00000000    0.00000000    0.00000000
     atom    3 type  2   force =     0.00000000    0.00000000    0.00000000
     atom    4 type  2   force =     0.00000000    0.00000000    0.00000000
     atom    5 type  2   force =     0.00000000    0.00000000    0.00000000
     atom    6 type  3   force =     0.06973089    0.04163755    0.02982598
     atom    7 type  3   force =    -0.06973089   -0.04163755   -0.02982598
     The non-local contrib.  to forces
     atom    1 type  1   force =     0.00000000    0.00000000    0.00000000
     atom    2 type  1   force =     0.00000000    0.00000000    0.00000000
     atom    3 type  2   force =     0.00000000    0.00000000    0.00000000
     atom    4 type  2   force =     0.00000000    0.00000000    0.00000000
     atom    5 type  2   force =     0.00000000    0.00000000    0.00000000
     atom    6 type  3   force =     0.21301384    0.12720436    0.09114410
     atom    7 type  3   force =    -0.21301384   -0.12720436   -0.09114410
     The ionic contribution  to forces
     atom    1 type  1   force =     0.00000000    0.00000000    0.00000000
     atom    2 type  1   force =     0.00000000   -0.00000000   -0.00000000
     atom    3 type  2   force =    -0.00000000    0.00000000   -0.00000000
     atom    4 type  2   force =    -0.00000000   -0.00000000    0.00000000
     atom    5 type  2   force =    -0.00000000    0.00000000    0.00000000
     atom    6 type  3   force =    -9.03764533   -5.39649541   -3.86582666
     atom    7 type  3   force =     9.03764533    5.39649541    3.86582666
     The local contribution  to forces
     atom    1 type  1   force =     0.00000897    0.00000402    0.00000218
     atom    2 type  1   force =    -0.00004064   -0.00002732   -0.00001611
     atom    3 type  2   force =     0.00010487    0.00007543   -0.00009403
     atom    4 type  2   force =    -0.00000242    0.00010365    0.00005784
     atom    5 type  2   force =     0.00012008   -0.00006301    0.00010814
     atom    6 type  3   force =     8.90550053    5.31756377    3.80916701
     atom    7 type  3   force =    -8.90552191   -5.31755919   -3.80916607
     The core correction contribution to forces
     atom    1 type  1   force =     0.00000003   -0.00000013   -0.00000016
     atom    2 type  1   force =    -0.00000074   -0.00000034   -0.00000020
     atom    3 type  2   force =     0.00000000    0.00000000    0.00000000
     atom    4 type  2   force =     0.00000000    0.00000000    0.00000000
     atom    5 type  2   force =     0.00000000    0.00000000    0.00000000
     atom    6 type  3   force =    -0.01086811   -0.00648992   -0.00465094
     atom    7 type  3   force =     0.01086735    0.00649011    0.00465091
     The Hubbard contrib.    to forces
     atom    1 type  1   force =     0.00000000    0.00000000    0.00000000
     atom    2 type  1   force =     0.00000000    0.00000000    0.00000000
     atom    3 type  2   force =     0.00000000    0.00000000    0.00000000
     atom    4 type  2   force =     0.00000000    0.00000000    0.00000000
     atom    5 type  2   force =     0.00000000    0.00000000    0.00000000
     atom    6 type  3   force =     0.00000000    0.00000000    0.00000000
     atom    7 type  3   force =     0.00000000    0.00000000    0.00000000
     The SCF correction term to forces
     atom    1 type  1   force =    -0.00001145   -0.00000198   -0.00000624
     atom    2 type  1   force =     0.00004230    0.00002842    0.00001767
     atom    3 type  2   force =    -0.00010555   -0.00008187    0.00009853
     atom    4 type  2   force =     0.00001658   -0.00010409   -0.00005832
     atom    5 type  2   force =    -0.00011297    0.00006933   -0.00010875
     atom    6 type  3   force =    -0.00027235   -0.00014287   -0.00000619
     atom    7 type  3   force =     0.00028989    0.00014285    0.00000795

     Total force =     0.122357     Total SCF correction =     0.000523

     Computing stress (Cartesian axis) and pressure

          total   stress  (Ry/bohr**3)                   (kbar)     P=      -23.03
  -0.00018798  -0.00003852  -0.00002744          -27.65       -5.67       -4.04
  -0.00003852  -0.00014630  -0.00001624           -5.67      -21.52       -2.39
  -0.00002744  -0.00001624  -0.00013543           -4.04       -2.39      -19.92

     kinetic stress (kbar)  30178.30    -82.52    -59.12
                              -82.52  30267.20    -35.30
                              -59.12    -35.30  30291.18

     local   stress (kbar)   4412.58  13267.16   9504.10
                            13267.16  -9884.25   5675.06
                             9504.10   5675.06 -13741.13

     nonloc. stress (kbar)   7834.21     -8.31     -5.95
                               -8.31   7843.16     -3.55
                               -5.95     -3.55   7845.57

     hartree stress (kbar)   9754.13  -6032.64  -4321.56
                            -6032.64  16254.98  -2580.48
                            -4321.56  -2580.48  18008.80

     exc-cor stress (kbar)   4141.39      3.37      2.41
                                3.37   4137.76      1.44
                                2.41      1.44   4136.78

     corecor stress (kbar) -11152.83     -0.85     -0.61
                               -0.85 -11151.91     -0.36
                               -0.61     -0.36 -11151.67

     ewald   stress (kbar) -45195.42  -7151.88  -5123.32
                            -7151.88 -37488.46  -3059.20
                            -5123.32  -3059.20 -35409.46

     hubbard stress (kbar)      0.00      0.00      0.00
                                0.00      0.00      0.00
                                0.00      0.00      0.00

     DFT-D   stress (kbar)      0.00      0.00      0.00
                                0.00      0.00      0.00
                                0.00      0.00      0.00

     XDM     stress (kbar)      0.00      0.00      0.00
                                0.00      0.00      0.00
                                0.00      0.00      0.00

     dft-nl  stress (kbar)      0.00      0.00      0.00
                                0.00      0.00      0.00
                                0.00      0.00      0.00

     TS-vdW  stress (kbar)      0.00      0.00      0.00
                                0.00      0.00      0.00
                                0.00      0.00      0.00

[...]

                                0.00      0.00      0.00

     Writing all to output data dir new_calculations/myprefix.save/

     General routines

     Parallel routines

   This run was terminated on:   3:41:40  21May2023

   JOB DONE.