     Program PWSCF v.7.0 starts on 21May2023 at 17:57:40

     Reading input from espresso_21157.pwi
Warning: card &CELL ignored
Warning: card / ignored

     Current dimensions of program PWSCF are:
     Max number of different atomic species (ntypx) = 10
     Max number of k-points (npk) =  40000
     Max angular momentum in pseudopotentials (lmaxx) =  4
     file Al.pbe-n-kjpaw_psl.1.0.0.UPF: wavefunction(s)  3S 3P renormalized

     gamma-point specific algorithms are used
     Message from routine setup:
     using ibrav=0 with symmetry is DISCOURAGED, use correct ibrav instead

     Subspace diagonalization in iterative solution of the eigenvalue problem:
     a serial algorithm will be used

     Using Slab Decomposition

     bravais-lattice index     =            0
     lattice parameter (alat)  =      14.9479  a.u.
     unit-cell volume          =    1328.8219 (a.u.)^3
     number of atoms/cell      =           10
     number of atomic types    =            2
     number of electrons       =        56.00
     number of Kohn-Sham states=           34
     kinetic-energy cutoff     =      30.0000  Ry
     charge density cutoff     =     240.0000  Ry
     scf convergence threshold =      1.0E-06
     mixing beta               =       0.7000
     number of iterations used =            8  plain     mixing
     Exchange-correlation= SLA  PW   PBX  PBC
                           (   1   4   3   4   0   0   0)

     celldm(1)=  14.947926  celldm(2)=   0.000000  celldm(3)=   0.000000
     celldm(4)=   0.000000  celldm(5)=   0.000000  celldm(6)=   0.000000

     crystal axes: (cart. coord. in units of alat)
               a(1) = (   1.000000   0.000000   0.000000 )
               a(2) = (   0.513392   0.858154   0.000000 )
               a(3) = (  -0.673624  -0.575578   0.463616 )

     reciprocal axes: (cart. coord. in units 2 pi/alat)
               b(1) = (  1.000000 -0.598252  0.710249 )
               b(2) = (  0.000000  1.165292  1.446706 )
               b(3) = (  0.000000  0.000000  2.156956 )

     PseudoPot. # 1 for Sm read from file:
     /home/pragov/projects/rrg-bengioy-ad/pragov/crystal_structure_design/SSSP/Sm.GGA-PBE-paw-v1.0.UPF
     MD5 check sum: 886f70968969f895acf876f5617e0641
     Pseudo is Projector augmented-wave + core cor, Zval = 16.0
     Generated using ATOMPAW code
     Shape of augmentation charge: BESSEL
     Using radial grid of 1107 points,  8 beta functions with:
                l(1) =   0
                l(2) =   0
                l(3) =   1
                l(4) =   1
                l(5) =   2
                l(6) =   2
                l(7) =   3
                l(8) =   3
     Q(r) pseudized with 0 coefficients

     PseudoPot. # 2 for Al read from file:
     /home/pragov/projects/rrg-bengioy-ad/pragov/crystal_structure_design/SSSP/Al.pbe-n-kjpaw_psl.1.0.0.UPF
     MD5 check sum: cfc449ca30b5f3223ec38ddd88ac046d
     Pseudo is Projector augmented-wave + core cor, Zval =  3.0
     Generated using "atomic" code by A. Dal Corso  v.5.1
     Shape of augmentation charge: PSQ
     Using radial grid of 1135 points,  6 beta functions with:
                l(1) =   0
                l(2) =   0
                l(3) =   1
                l(4) =   1
                l(5) =   2
                l(6) =   2
     Q(r) pseudized with 0 coefficients

     atomic species   valence    mass     pseudopotential
        Sm            16.00   150.36000     Sm( 1.00)
        Al             3.00    26.98154     Al( 1.00)

      2 Sym. Ops., with inversion, found

                                    s                        frac. trans.

      isym =  1     identity

 cryst.   s( 1) = (     1          0          0      )
                  (     0          1          0      )
                  (     0          0          1      )

 cart.    s( 1) = (  1.0000000 -0.0000000 -0.0000000 )
                  (  0.0000000  1.0000000  0.0000000 )
                  (  0.0000000  0.0000000  1.0000000 )

      isym =  2     inversion

 cryst.   s( 2) = (    -1          0          0      )
                  (     0         -1          0      )
                  (     0          0         -1      )

 cart.    s( 2) = ( -1.0000000  0.0000000  0.0000000 )
                  (  0.0000000 -1.0000000 -0.0000000 )
                  (  0.0000000  0.0000000 -1.0000000 )

   Cartesian axes

     site n.     atom                  positions (alat units)
         1           Sm  tau(   1) = (   0.4228153   0.6166315   0.1159041  )
         2           Sm  tau(   2) = (   0.4169530  -0.3340558   0.3477123  )
         3           Al  tau(   3) = (   0.7566962   0.4290770   0.0000000  )
         4           Al  tau(   4) = (   0.9198841   0.1412879   0.2318082  )
         5           Al  tau(   5) = (   0.2528177  -0.0468039   0.1159041  )
         6           Al  tau(   6) = (   0.5869506   0.3293796   0.3477123  )
         7           Al  tau(   7) = (   0.3703179   0.0460674   0.4455210  )
         8           Al  tau(   8) = (   0.4694504   0.2365083   0.0180954  )
         9           Al  tau(   9) = (   0.6071607  -0.0063500   0.2137128  )
        10           Al  tau(  10) = (   0.2326076   0.2889257   0.2499036  )

   Crystallographic axes

     site n.     atom                  positions (cryst. coord.)
         1           Sm  tau(   1) = (  0.1362350  0.8862350  0.2500000  )
         2           Sm  tau(   2) = (  0.8637650  0.1137650  0.7500000  )
         3           Al  tau(   3) = (  0.5000000  0.5000000  0.0000000  )
         4           Al  tau(   4) = (  1.0000000  0.5000000  0.5000000  )
         5           Al  tau(   5) = (  0.3631390  0.1131390  0.2500000  )
         6           Al  tau(   6) = (  0.6368610  0.8868610  0.7500000  )
         7           Al  tau(   7) = (  0.6591890  0.6982200  0.9609690  )
         8           Al  tau(   8) = (  0.3408110  0.3017800  0.0390310  )
         9           Al  tau(   9) = (  0.7627490  0.3017800  0.4609690  )
        10           Al  tau(  10) = (  0.2372510  0.6982200  0.5390310  )

     number of k points=     1  Methfessel-Paxton smearing, width (Ry)=  0.0010
                       cart. coord. in units 2pi/alat
        k(    1) = (   0.0000000   0.0000000   0.0000000), wk =   2.0000000

                       cryst. coord.
        k(    1) = (   0.0000000   0.0000000   0.0000000), wk =   2.0000000

     Initial potential from superposition of free atoms

     starting charge      55.9705, renormalised to      56.0000
     Starting wfcs are   96 randomized atomic wfcs
     Checking if some PAW data can be deallocated...

     Self-consistent Calculation

     iteration #  1     ecut=    30.00 Ry     beta= 0.70
     Davidson diagonalization with overlap

     ethr =  1.00E-02,  avg # of iterations =  2.0
     Minimization algorithm failed to find Fermi energy: reverting to bisection
     Possible cause: smearing is larger than the electronic band-gap.

     total energy              =   -1494.38867388 Ry
     estimated scf accuracy    <      26.31799528 Ry

[...]

     ethr =  1.00E-02,  avg # of iterations =  9.0

[...]

     WARNING: integrated charge=    55.99849665, expected=    56.00000000

[...]

     WARNING: integrated charge=    55.99998058, expected=    56.00000000

[...]

     total energy              =   -1523.81160335 Ry
     estimated scf accuracy    <       0.00000345 Ry

     iteration # 88     ecut=    30.00 Ry     beta= 0.70
     Davidson diagonalization with overlap

     ethr =  2.06E-09,  avg # of iterations =  1.0

     End of self-consistent calculation

          k = 0.0000 0.0000 0.0000 (  1840 PWs)   bands (ev):

   -30.1725 -30.1664 -10.0373 -10.0027  -9.9767  -9.8995  -9.7896  -9.7763
    -0.5937   2.2389   2.9139   3.3209   4.3967   5.2360   5.5236   6.3911
     7.2485   7.6005   7.6741   7.8743   8.2438   8.5973   8.8004   8.8798
     8.8934   8.9014   8.9501   9.0223   9.0296   9.0713   9.1231   9.2419
     9.3846   9.4156

     occupation numbers
     1.0000   1.0000   1.0000   1.0000   1.0000   1.0000   1.0000   1.0000
     1.0000   1.0000   1.0000   1.0000   1.0000   1.0000   1.0000   1.0000
     1.0000   1.0000   1.0000   1.0000   1.0000   1.0000   1.0000   1.0000
     1.0000   1.0000   1.0000   0.7185   0.2816  -0.0000  -0.0000  -0.0000
    -0.0000  -0.0000

     the Fermi energy is     9.0260 ev

!    total energy              =   -1523.81160248 Ry

     total all-electron energy =     -5092.953855 Ry
     estimated scf accuracy    <       0.00000076 Ry
     smearing contrib. (-TS)   =      -0.00044911 Ry
     internal energy E=F+TS    =   -1523.81115337 Ry

     The total energy is F=E-TS. E is the sum of the following terms:
     one-electron contribution =    -156.49741121 Ry
     hartree contribution      =     116.72637250 Ry
     xc contribution           =     -56.74454072 Ry
     ewald contribution        =    -250.30604448 Ry
     one-center paw contrib.   =   -1176.98952946 Ry
      -> PAW hartree energy AE =     270.43166461 Ry
      -> PAW hartree energy PS =    -264.73611921 Ry
      -> PAW xc energy AE      =   -1231.74761080 Ry
      -> PAW xc energy PS      =      49.06253594 Ry
      -> total E_H with PAW    =     122.42191790 Ry
      -> total E_XC with PAW   =   -1239.42961557 Ry

     convergence has been achieved in  88 iterations

     Forces acting on atoms (cartesian axes, Ry/au):

     atom    1 type  1   force =     0.02742482    0.01572939   -0.00004269
     atom    2 type  1   force =    -0.02742482   -0.01572939    0.00004269
     atom    3 type  2   force =     0.00000000    0.00000000    0.00000000
     atom    4 type  2   force =     0.00000000    0.00000000    0.00000000
     atom    5 type  2   force =    -0.00309077   -0.00175921    0.00000320
     atom    6 type  2   force =     0.00309077    0.00175921   -0.00000320
     atom    7 type  2   force =    -0.00151169   -0.00268273    0.00110034
     atom    8 type  2   force =     0.00151169    0.00268273   -0.00110034
     atom    9 type  2   force =     0.00307716   -0.00008145    0.00109516
     atom   10 type  2   force =    -0.00307716    0.00008145   -0.00109516
     The non-local contrib.  to forces
     atom    1 type  1   force =    -0.15039036   -0.08517240   -0.00027474
     atom    2 type  1   force =     0.15039036    0.08517240    0.00027474
     atom    3 type  2   force =     0.00000000    0.00000000    0.00000000
     atom    4 type  2   force =     0.00000000    0.00000000    0.00000000
     atom    5 type  2   force =     0.01781269    0.01011879    0.00000769
     atom    6 type  2   force =    -0.01781269   -0.01011879   -0.00000769
     atom    7 type  2   force =     0.03619456   -0.02221619    0.02609251
     atom    8 type  2   force =    -0.03619456    0.02221619   -0.02609251
     atom    9 type  2   force =     0.00048907   -0.04248510    0.02606757
     atom   10 type  2   force =    -0.00048907    0.04248510   -0.02606757
     The ionic contribution  to forces
     atom    1 type  1   force =     0.95864857    0.54359199    0.00000000
     atom    2 type  1   force =    -0.95864857   -0.54359199    0.00000000
     atom    3 type  2   force =    -0.00000000    0.00000000   -0.00000000
     atom    4 type  2   force =     0.00000000   -0.00000000    0.00000000
     atom    5 type  2   force =     0.72859372    0.41314172    0.00000000
     atom    6 type  2   force =    -0.72859372   -0.41314172    0.00000000
     atom    7 type  2   force =    -0.68596482    1.19211024   -0.96367321
     atom    8 type  2   force =     0.68596482   -1.19211024    0.96367321
     atom    9 type  2   force =    -0.67084491    1.20068384   -0.96367321
     atom   10 type  2   force =     0.67084491   -1.20068384    0.96367321
     The local contribution  to forces
     atom    1 type  1   force =    -0.78062252   -0.44285424    0.00039915
     atom    2 type  1   force =     0.78049265    0.44281252   -0.00041881
     atom    3 type  2   force =     0.00011428   -0.00002136    0.00004302
     atom    4 type  2   force =     0.00004166    0.00010573   -0.00004349
     atom    5 type  2   force =    -0.74819345   -0.42428695    0.00001648
     atom    6 type  2   force =     0.74827708    0.42433988   -0.00001324
     atom    7 type  2   force =     0.65196282   -1.17549865    0.94172137
     atom    8 type  2   force =    -0.65205734    1.17538354   -0.94169490
     atom    9 type  2   force =     0.67387288   -1.16297976    0.94172741
     atom   10 type  2   force =    -0.67401170    1.16295803   -0.94175714
     The core correction contribution to forces
     atom    1 type  1   force =     0.00000784    0.00000444    0.00000002
     atom    2 type  1   force =    -0.00000785   -0.00000444   -0.00000002
     atom    3 type  2   force =     0.00000024   -0.00000000   -0.00000013
     atom    4 type  2   force =     0.00000001    0.00000013    0.00000041
     atom    5 type  2   force =    -0.00117056   -0.00066560   -0.00000039
     atom    6 type  2   force =     0.00117082    0.00066597    0.00000062
     atom    7 type  2   force =    -0.00377712    0.00294361   -0.00310434
     atom    8 type  2   force =     0.00377726   -0.00294399    0.00310400
     atom    9 type  2   force =    -0.00058775    0.00475497   -0.00310161
     atom   10 type  2   force =     0.00058793   -0.00475467    0.00310141
     The Hubbard contrib.    to forces
     atom    1 type  1   force =     0.00000000    0.00000000    0.00000000
     atom    2 type  1   force =     0.00000000    0.00000000    0.00000000
     atom    3 type  2   force =     0.00000000    0.00000000    0.00000000
     atom    4 type  2   force =     0.00000000    0.00000000    0.00000000
     atom    5 type  2   force =     0.00000000    0.00000000    0.00000000
     atom    6 type  2   force =     0.00000000    0.00000000    0.00000000
     atom    7 type  2   force =     0.00000000    0.00000000    0.00000000
     atom    8 type  2   force =     0.00000000    0.00000000    0.00000000
     atom    9 type  2   force =     0.00000000    0.00000000    0.00000000
     atom   10 type  2   force =     0.00000000    0.00000000    0.00000000
     The SCF correction term to forces
     atom    1 type  1   force =    -0.00022721    0.00015515   -0.00017555
     atom    2 type  1   force =     0.00034009   -0.00012230    0.00017836
     atom    3 type  2   force =    -0.00010555    0.00001609   -0.00004246
     atom    4 type  2   force =    -0.00004221   -0.00009760    0.00004491
     atom    5 type  2   force =    -0.00012873   -0.00006328   -0.00001906
     atom    6 type  2   force =     0.00005372    0.00001777    0.00001864
     atom    7 type  2   force =     0.00007333   -0.00002793    0.00006432
     atom    8 type  2   force =     0.00002196    0.00013106   -0.00008984
     atom    9 type  2   force =     0.00014625   -0.00005282    0.00007349
     atom   10 type  2   force =    -0.00001085    0.00007941   -0.00004659

     Total force =     0.045465     Total SCF correction =     0.000628

     Computing stress (Cartesian axis) and pressure

          total   stress  (Ry/bohr**3)                   (kbar)     P=       -2.13
  -0.00051834  -0.00029343  -0.00043479          -76.25      -43.16      -63.96
  -0.00029343  -0.00016605   0.00076841          -43.16      -24.43      113.04
  -0.00043479   0.00076841   0.00064095          -63.96      113.04       94.29

     kinetic stress (kbar)   3797.84    -63.67    -68.65
                              -63.67   3874.27    121.38
                              -68.65    121.38   4011.51

     local   stress (kbar)  -1315.53   -618.05    689.68
                             -618.05   -576.37  -1216.93
                              689.68  -1216.93  -1240.43

     nonloc. stress (kbar)   3870.09     24.41    -12.05
                               24.41   3841.06     21.61
                              -12.05     21.61   3844.02

     hartree stress (kbar)   4444.06    306.16   -336.91
                              306.16   4077.84    594.37
                             -336.91    594.37   4400.11

     exc-cor stress (kbar)   -909.91      0.16     -0.27
                                0.16   -910.10      0.48
                               -0.27      0.48   -909.79

     corecor stress (kbar)   -865.92     -1.36      1.08
                               -1.36   -864.29     -1.91
                                1.08     -1.91   -865.11

     ewald   stress (kbar)  -9096.89    309.19   -336.84
                              309.19  -9466.83    594.04
                             -336.84    594.04  -9146.01

     hubbard stress (kbar)      0.00      0.00      0.00
                                0.00      0.00      0.00
                                0.00      0.00      0.00

     DFT-D   stress (kbar)      0.00      0.00      0.00
                                0.00      0.00      0.00
                                0.00      0.00      0.00

     XDM     stress (kbar)      0.00      0.00      0.00
                                0.00      0.00      0.00
                                0.00      0.00      0.00

     dft-nl  stress (kbar)      0.00      0.00      0.00
                                0.00      0.00      0.00
                                0.00      0.00      0.00

     TS-vdW  stress (kbar)      0.00      0.00      0.00
                                0.00      0.00      0.00
                                0.00      0.00      0.00

[...]

                                0.00      0.00      0.00

     Writing all to output data dir new_calculations/myprefix.save/

     General routines

     Parallel routines

     PAW routines

   This run was terminated on:  18: 0:43  21May2023

   JOB DONE.