     Program PWSCF v.7.0 starts on 21May2023 at  2:44:21

     Reading input from espresso_25264.pwi
Warning: card &CELL ignored
Warning: card / ignored

     Current dimensions of program PWSCF are:
     Max number of different atomic species (ntypx) = 10
     Max number of k-points (npk) =  40000
     Max angular momentum in pseudopotentials (lmaxx) =  4
     file Ba.pbe-spn-kjpaw_psl.1.0.0.UPF: wavefunction(s)  5S 6S renormalized
     file O.pbe-n-kjpaw_psl.0.1.UPF: wavefunction(s)  2P renormalized

     gamma-point specific algorithms are used
     Message from routine setup:
     using ibrav=0 with symmetry is DISCOURAGED, use correct ibrav instead

     Subspace diagonalization in iterative solution of the eigenvalue problem:
     a serial algorithm will be used

     Using Slab Decomposition

     bravais-lattice index     =            0
     lattice parameter (alat)  =      14.7074  a.u.
     unit-cell volume          =    1371.8360 (a.u.)^3
     number of atoms/cell      =           14
     number of atomic types    =            3
     number of electrons       =       114.00
     number of Kohn-Sham states=           68
     kinetic-energy cutoff     =      30.0000  Ry
     charge density cutoff     =     240.0000  Ry
     scf convergence threshold =      1.0E-06
     mixing beta               =       0.7000
     number of iterations used =            8  plain     mixing
     Exchange-correlation= SLA  PW   PBX  PBC
                           (   1   4   3   4   0   0   0)

     celldm(1)=  14.707384  celldm(2)=   0.000000  celldm(3)=   0.000000
     celldm(4)=   0.000000  celldm(5)=   0.000000  celldm(6)=   0.000000

     crystal axes: (cart. coord. in units of alat)
               a(1) = (   1.000000   0.000000   0.000000 )
               a(2) = (   0.724443   0.689335   0.000000 )
               a(3) = (   0.724443   0.289591   0.625555 )

     reciprocal axes: (cart. coord. in units 2 pi/alat)
               b(1) = (  1.000000 -1.050930 -0.671567 )
               b(2) = (  0.000000  1.450674 -0.671567 )
               b(3) = (  0.000000  0.000000  1.598580 )

     PseudoPot. # 1 for Ba read from file:
     /home/pragov/projects/rrg-bengioy-ad/pragov/crystal_structure_design/SSSP/Ba.pbe-spn-kjpaw_psl.1.0.0.UPF
     MD5 check sum: c432291d3e53af55f19d5e8866385beb
     Pseudo is Projector augmented-wave + core cor, Zval = 10.0
     Generated using "atomic" code by A. Dal Corso  v.5.1
     Shape of augmentation charge: PSQ
     Using radial grid of 1251 points,  7 beta functions with:
                l(1) =   0
                l(2) =   0
                l(3) =   0
                l(4) =   1
                l(5) =   1
                l(6) =   2
                l(7) =   2
     Q(r) pseudized with 0 coefficients

     PseudoPot. # 2 for Re read from file:
     /home/pragov/projects/rrg-bengioy-ad/pragov/crystal_structure_design/SSSP/Re_pbe_v1.2.uspp.F.UPF
     MD5 check sum: 85f993410f3e006da9d71c142b4ad953
     Pseudo is Ultrasoft + core correction, Zval = 15.0
     Generated by new atomic code, or converted to UPF format
     Using radial grid of  981 points,  8 beta functions with:
                l(1) =   0
                l(2) =   0
                l(3) =   1
                l(4) =   1
                l(5) =   2
                l(6) =   2
                l(7) =   3
                l(8) =   3
     Q(r) pseudized with  8 coefficients,  rinner =    1.150   1.150   1.150
                                                       1.150   1.150   1.150
                                                       1.150

     PseudoPot. # 3 for O  read from file:
     /home/pragov/projects/rrg-bengioy-ad/pragov/crystal_structure_design/SSSP/O.pbe-n-kjpaw_psl.0.1.UPF
     MD5 check sum: 0234752ac141de4415c5fc33072bef88
     Pseudo is Projector augmented-wave + core cor, Zval =  6.0
     Generated using "atomic" code by A. Dal Corso  v.5.0.99 svn rev. 10869
     Shape of augmentation charge: BESSEL
     Using radial grid of 1095 points,  4 beta functions with:
                l(1) =   0
                l(2) =   0
                l(3) =   1
                l(4) =   1
     Q(r) pseudized with 0 coefficients

     atomic species   valence    mass     pseudopotential
        Ba            10.00   137.32700     Ba( 1.00)
        Re            15.00   186.20700     Re( 1.00)
        O              6.00    15.99900     O ( 1.00)

      2 Sym. Ops., with inversion, found

                                    s                        frac. trans.

      isym =  1     identity

 cryst.   s( 1) = (     1          0          0      )
                  (     0          1          0      )
                  (     0          0          1      )

 cart.    s( 1) = (  1.0000000 -0.0000000  0.0000000 )
                  (  0.0000000  1.0000000 -0.0000000 )
                  (  0.0000000  0.0000000  1.0000000 )

      isym =  2     inversion

 cryst.   s( 2) = (    -1          0          0      )
                  (     0         -1          0      )
                  (     0          0         -1      )

 cart.    s( 2) = ( -1.0000000  0.0000000 -0.0000000 )
                  (  0.0000000 -1.0000000  0.0000000 )
                  (  0.0000000  0.0000000 -1.0000000 )

   Cartesian axes

     site n.     atom                  positions (alat units)
         1           Ba  tau(   1) = (   0.0000000   0.0000000   0.0000000  )
         2           Ba  tau(   2) = (   0.5171189   0.2067149   0.1320954  )
         3           Ba  tau(   3) = (   1.9317667   0.7722112   0.4934599  )
         4           Re  tau(   4) = (   0.9582318   0.3830470   0.2447754  )
         5           Re  tau(   5) = (   1.4906538   0.5958792   0.3807798  )
         6           O   tau(   6) = (   0.8622214   0.3446674   0.0000000  )
         7           O   tau(   7) = (   0.7244428   0.4894631   0.3127776  )
         8           O   tau(   8) = (   0.8622214   0.1447957   0.3127776  )
         9           O   tau(   9) = (   1.0275082   0.6001934   0.1747670  )
        10           O   tau(  10) = (   1.1581052   0.2734914   0.1747670  )
        11           O   tau(  11) = (   1.0275082   0.4107397   0.4712414  )
        12           O   tau(  12) = (   1.4213775   0.5681864   0.1543138  )
        13           O   tau(  13) = (   1.2907804   0.7054347   0.4507882  )
        14           O   tau(  14) = (   1.4213774   0.3787328   0.4507882  )

   Crystallographic axes

     site n.     atom                  positions (cryst. coord.)
         1           Ba  tau(   1) = (  0.0000000  0.0000000  0.0000000  )
         2           Ba  tau(   2) = (  0.2111650  0.2111650  0.2111650  )
         3           Ba  tau(   3) = (  0.7888350  0.7888350  0.7888350  )
         4           Re  tau(   4) = (  0.3912930  0.3912930  0.3912930  )
         5           Re  tau(   5) = (  0.6087070  0.6087070  0.6087070  )
         6           O   tau(   6) = (  0.5000000  0.5000000  0.0000000  )
         7           O   tau(   7) = (  0.0000000  0.5000000  0.5000000  )
         8           O   tau(   8) = (  0.5000000 -0.0000000  0.5000000  )
         9           O   tau(   9) = (  0.2793790  0.7533170  0.2793790  )
        10           O   tau(  10) = (  0.7533170  0.2793790  0.2793790  )
        11           O   tau(  11) = (  0.2793790  0.2793790  0.7533170  )
        12           O   tau(  12) = (  0.7206210  0.7206210  0.2466830  )
        13           O   tau(  13) = (  0.2466830  0.7206210  0.7206210  )
        14           O   tau(  14) = (  0.7206210  0.2466830  0.7206210  )

     number of k points=     1  Methfessel-Paxton smearing, width (Ry)=  0.0010
                       cart. coord. in units 2pi/alat
        k(    1) = (   0.0000000   0.0000000   0.0000000), wk =   2.0000000

                       cryst. coord.
        k(    1) = (   0.0000000   0.0000000   0.0000000), wk =   2.0000000

     Check: negative core charge=   -0.000009

     Initial potential from superposition of free atoms

     starting charge     112.9489, renormalised to     114.0000

     negative rho (up, down):  2.585E-01 0.000E+00
     Starting wfcs are   77 randomized atomic wfcs
     Checking if some PAW data can be deallocated...

     Self-consistent Calculation

     iteration #  1     ecut=    30.00 Ry     beta= 0.70
     Davidson diagonalization with overlap

     ethr =  1.00E-02,  avg # of iterations =  6.0

     negative rho (up, down):  3.143E-01 0.000E+00

     total energy              =   -2062.48693396 Ry
     estimated scf accuracy    <       4.44194685 Ry

[...]

     c_bands:  2 eigenvalues not converged
     ethr =  2.60E-06,  avg # of iterations = 20.0

[...]

     total energy              =   -2065.01318442 Ry
     estimated scf accuracy    <       0.00000299 Ry

     iteration # 24     ecut=    30.00 Ry     beta= 0.70
     Davidson diagonalization with overlap

     ethr =  2.40E-09,  avg # of iterations =  2.0

[...]

     End of self-consistent calculation

          k = 0.0000 0.0000 0.0000 (  1917 PWs)   bands (ev):

   -70.7290 -70.7286 -32.6928 -32.6928 -32.6868 -32.6868 -32.2122 -32.2047
   -16.0796 -15.9247 -15.2849  -7.7457  -7.3191  -7.0158  -7.0157  -6.9611
    -6.9610  -6.5030  -6.3949  -6.3948  -1.5704  -1.5704  -1.2754  -1.2754
    -1.2058  -1.0588  -0.7001  -0.7001  -0.4130   4.6747   4.6747   4.7489
     5.7751   5.7789   5.7790   5.8768   6.2871   6.2871   6.4040   6.4566
     6.4567   7.1954   7.1954   7.3519   8.4423   8.4932   8.4932   8.6795
     8.6795   9.0121   9.2946   9.3103   9.3103   9.5982   9.7451   9.7451
    11.5381  11.8080  11.8080  12.9281  12.9281  13.3072  14.8843  14.8843
    15.8079  15.8079  16.0240  16.1151

     occupation numbers
     1.0000   1.0000   1.0000   1.0000   1.0000   1.0000   1.0000   1.0000
     1.0000   1.0000   1.0000   1.0000   1.0000   1.0000   1.0000   1.0000
     1.0000   1.0000   1.0000   1.0000   1.0000   1.0000   1.0000   1.0000
     1.0000   1.0000   1.0000   1.0000   1.0000   1.0000   1.0000   1.0000
     1.0000   1.0000   1.0000   1.0000   1.0000   1.0000   1.0000   1.0000
     1.0000   1.0000   1.0000   1.0000   1.0000   1.0000   1.0000   1.0000
     1.0000   1.0000   1.0000   1.0000   1.0000   1.0000   1.0000   1.0000
     1.0000  -0.0000  -0.0000  -0.0000  -0.0000  -0.0000  -0.0000  -0.0000
    -0.0000  -0.0000  -0.0000  -0.0000

     the Fermi energy is    11.6572 ev

!    total energy              =   -2065.01318433 Ry
     estimated scf accuracy    <       0.00000078 Ry
     smearing contrib. (-TS)   =       0.00000000 Ry
     internal energy E=F+TS    =   -2065.01318433 Ry

     The total energy is F=E-TS. E is the sum of the following terms:
     one-electron contribution =    -256.31661695 Ry
     hartree contribution      =     196.71232269 Ry
     xc contribution           =    -233.00788815 Ry
     ewald contribution        =    -561.83870044 Ry
     one-center paw contrib.   =   -1210.56230148 Ry
      -> PAW hartree energy AE =     352.63901890 Ry
      -> PAW hartree energy PS =    -351.32124168 Ry
      -> PAW xc energy AE      =   -1337.22694109 Ry
      -> PAW xc energy PS      =     125.34686239 Ry
      -> total E_H with PAW    =     198.03009991 Ry
      -> total E_XC with PAW   =   -1444.88796684 Ry

     convergence has been achieved in  24 iterations

     negative rho (up, down):  2.711E-01 0.000E+00

     Forces acting on atoms (cartesian axes, Ry/au):

     atom    1 type  1   force =     0.00000000    0.00000000    0.00000000
     atom    2 type  1   force =    -0.01643202   -0.00657542   -0.00419140
     atom    3 type  1   force =     0.01643202    0.00657542    0.00419140
     atom    4 type  2   force =     0.02314451    0.00927888    0.00587570
     atom    5 type  2   force =    -0.02314451   -0.00927888   -0.00587570
     atom    6 type  3   force =     0.00000000    0.00000000    0.00000000
     atom    7 type  3   force =     0.00000000    0.00000000    0.00000000
     atom    8 type  3   force =     0.00000000    0.00000000    0.00000000
     atom    9 type  3   force =    -0.03241561   -0.04670421    0.00734535
     atom   10 type  3   force =    -0.05567241    0.01149356    0.00734533
     atom   11 type  3   force =    -0.03239558   -0.01294560   -0.04543742
     atom   12 type  3   force =     0.03239558    0.01294560    0.04543742
     atom   13 type  3   force =     0.05567241   -0.01149356   -0.00734533
     atom   14 type  3   force =     0.03241561    0.04670421   -0.00734535
     The non-local contrib.  to forces
     atom    1 type  1   force =     0.00000000    0.00000000    0.00000000
     atom    2 type  1   force =     0.06086087    0.02433677    0.01554990
     atom    3 type  1   force =    -0.06086087   -0.02433677   -0.01554990
     atom    4 type  2   force =    -0.13009065   -0.05197752   -0.03325575
     atom    5 type  2   force =     0.13009065    0.05197752    0.03325575
     atom    6 type  3   force =     0.00000000    0.00000000    0.00000000
     atom    7 type  3   force =     0.00000000    0.00000000    0.00000000
     atom    8 type  3   force =     0.00000000    0.00000000    0.00000000
     atom    9 type  3   force =    -0.19219335   -0.78478035    0.27864401
     atom   10 type  3   force =    -0.68022780    0.43605627    0.27865246
     atom   11 type  3   force =    -0.19219690   -0.07683027   -0.82923957
     atom   12 type  3   force =     0.19219690    0.07683027    0.82923957
     atom   13 type  3   force =     0.68022780   -0.43605627   -0.27865246
     atom   14 type  3   force =     0.19219335    0.78478035   -0.27864401
     The ionic contribution  to forces
     atom    1 type  1   force =    -0.00000000   -0.00000000    0.00000000
     atom    2 type  1   force =    -4.42960311   -1.77070510   -1.13151968
     atom    3 type  1   force =     4.42960311    1.77070510    1.13151968
     atom    4 type  2   force =     1.94066552    0.77576845    0.49573365
     atom    5 type  2   force =    -1.94066552   -0.77576845   -0.49573365
     atom    6 type  3   force =     0.00000000    0.00000000    0.00000000
     atom    7 type  3   force =    -0.00000000    0.00000000   -0.00000000
     atom    8 type  3   force =    -0.00000000   -0.00000000   -0.00000000
     atom    9 type  3   force =     5.26492634   11.53540101   -3.02093817
     atom   10 type  3   force =    11.76589222   -4.72744182   -3.02093817
     atom   11 type  3   force =     5.26492588    2.10461995   11.73721461
     atom   12 type  3   force =    -5.26492587   -2.10461995  -11.73721461
     atom   13 type  3   force =   -11.76589222    4.72744182    3.02093817
     atom   14 type  3   force =    -5.26492634  -11.53540102    3.02093817
     The local contribution  to forces
     atom    1 type  1   force =    -0.00090272    0.00049694   -0.00069863
     atom    2 type  1   force =     4.35916198    1.74205449    1.11372010
     atom    3 type  1   force =    -4.35839133   -1.74269221   -1.11311780
     atom    4 type  2   force =    -1.77952621   -0.71132106   -0.45461885
     atom    5 type  2   force =     1.77950010    0.71128634    0.45460922
     atom    6 type  3   force =    -0.00009700   -0.00003008   -0.00019595
     atom    7 type  3   force =    -0.00020002    0.00007479    0.00004610
     atom    8 type  3   force =    -0.00008263   -0.00017844    0.00004326
     atom    9 type  3   force =    -5.10593676  -10.80368998    2.75222737
     atom   10 type  3   force =   -11.14629052    4.30694187    2.75221850
     atom   11 type  3   force =    -5.10588475   -2.04104518  -10.96023065
     atom   12 type  3   force =     5.10600016    2.04109321   10.96043634
     atom   13 type  3   force =    11.14647962   -4.30701637   -2.75226735
     atom   14 type  3   force =     5.10603906   10.80390052   -2.75227732
     The core correction contribution to forces
     atom    1 type  1   force =    -0.00001356    0.00001371   -0.00001280
     atom    2 type  1   force =    -0.00649813   -0.00260450   -0.00165339
     atom    3 type  1   force =     0.00651213    0.00259708    0.00166880
     atom    4 type  2   force =    -0.00788298   -0.00314894   -0.00201463
     atom    5 type  2   force =     0.00788080    0.00314730    0.00201377
     atom    6 type  3   force =     0.00000020    0.00000007    0.00000029
     atom    7 type  3   force =     0.00000035   -0.00000004    0.00000004
     atom    8 type  3   force =     0.00000022    0.00000032   -0.00000004
     atom    9 type  3   force =     0.00088689    0.00649240   -0.00261491
     atom   10 type  3   force =     0.00511833   -0.00409223   -0.00261503
     atom   11 type  3   force =     0.00088715    0.00035465    0.00699067
     atom   12 type  3   force =    -0.00088704   -0.00035457   -0.00699099
     atom   13 type  3   force =    -0.00511840    0.00409243    0.00261522
     atom   14 type  3   force =    -0.00088691   -0.00649265    0.00261504
     The Hubbard contrib.    to forces
     atom    1 type  1   force =     0.00000000    0.00000000    0.00000000
     atom    2 type  1   force =     0.00000000    0.00000000    0.00000000
     atom    3 type  1   force =     0.00000000    0.00000000    0.00000000
     atom    4 type  2   force =     0.00000000    0.00000000    0.00000000
     atom    5 type  2   force =     0.00000000    0.00000000    0.00000000
     atom    6 type  3   force =     0.00000000    0.00000000    0.00000000
     atom    7 type  3   force =     0.00000000    0.00000000    0.00000000
     atom    8 type  3   force =     0.00000000    0.00000000    0.00000000
     atom    9 type  3   force =     0.00000000    0.00000000    0.00000000
     atom   10 type  3   force =     0.00000000    0.00000000    0.00000000
     atom   11 type  3   force =     0.00000000    0.00000000    0.00000000
     atom   12 type  3   force =     0.00000000    0.00000000    0.00000000
     atom   13 type  3   force =     0.00000000    0.00000000    0.00000000
     atom   14 type  3   force =     0.00000000    0.00000000    0.00000000
     The SCF correction term to forces
     atom    1 type  1   force =     0.00019336   -0.00002040    0.00010251
     atom    2 type  1   force =    -0.00004902    0.00004535   -0.00002573
     atom    3 type  1   force =    -0.00012640    0.00000467   -0.00006677
     atom    4 type  2   force =    -0.00000774   -0.00004203    0.00003094
     atom    5 type  2   force =     0.00006288    0.00007840   -0.00002113
     atom    6 type  3   force =     0.00011444    0.00003526    0.00021357
     atom    7 type  3   force =     0.00022539   -0.00007860   -0.00004371
     atom    8 type  3   force =     0.00009965    0.00019787   -0.00004723
     atom    9 type  3   force =    -0.00010070   -0.00013772    0.00003130
     atom   10 type  3   force =    -0.00017884    0.00003885    0.00003331
     atom   11 type  3   force =    -0.00012854   -0.00004379   -0.00018720
     atom   12 type  3   force =     0.00000984   -0.00000241   -0.00004762
     atom   13 type  3   force =    -0.00003857    0.00005421    0.00002681
     atom   14 type  3   force =    -0.00000553   -0.00009342    0.00002701

     Total force =     0.147243     Total SCF correction =     0.000627

     Computing stress (Cartesian axis) and pressure

     negative rho (up, down):  2.711E-01 0.000E+00
          total   stress  (Ry/bohr**3)                   (kbar)     P=     -275.73
  -0.00251121  -0.00043032  -0.00027501         -369.41      -63.30      -40.46
  -0.00043032  -0.00160675  -0.00010990          -63.30     -236.36      -16.17
  -0.00027501  -0.00010990  -0.00150519          -40.46      -16.17     -221.42

     kinetic stress (kbar)  22114.65     53.53     34.21
                               53.53  22002.15     13.67
                               34.21     13.67  21989.51

     local   stress (kbar)   -897.00   1997.89   1276.66
                             1997.89  -5096.25    510.34
                             1276.66    510.34  -5568.89

     nonloc. stress (kbar)     26.81    -30.77    -19.66
                              -30.77     91.47     -7.86
                              -19.66     -7.86     98.73

     hartree stress (kbar)   5958.18   -725.05   -463.30
                             -725.05   7482.08   -185.20
                             -463.30   -185.20   7653.65

     exc-cor stress (kbar)   6834.33      0.67      0.43
                                0.67   6832.91      0.17
                                0.43      0.17   6832.75

     corecor stress (kbar) -12314.86     -2.15     -1.37
                               -2.15 -12310.35     -0.55
                               -1.37     -0.55 -12309.84

     ewald   stress (kbar) -22091.52  -1357.43   -867.43
                            -1357.43 -19238.38   -346.75
                             -867.43   -346.75 -18917.34

     hubbard stress (kbar)      0.00      0.00      0.00
                                0.00      0.00      0.00
                                0.00      0.00      0.00

     DFT-D   stress (kbar)      0.00      0.00      0.00
                                0.00      0.00      0.00
                                0.00      0.00      0.00

     XDM     stress (kbar)      0.00      0.00      0.00
                                0.00      0.00      0.00
                                0.00      0.00      0.00

     dft-nl  stress (kbar)      0.00      0.00      0.00
                                0.00      0.00      0.00
                                0.00      0.00      0.00

     TS-vdW  stress (kbar)      0.00      0.00      0.00
                                0.00      0.00      0.00
                                0.00      0.00      0.00

[...]

                                0.00      0.00      0.00

     Writing all to output data dir new_calculations/myprefix.save/

     General routines

     Parallel routines

     PAW routines

   This run was terminated on:   2:45:35  21May2023

   JOB DONE.