     Program PWSCF v.7.0 starts on 20May2023 at 23:46:12

     Reading input from espresso_23214.pwi
Warning: card &CELL ignored
Warning: card / ignored

     Current dimensions of program PWSCF are:
     Max number of different atomic species (ntypx) = 10
     Max number of k-points (npk) =  40000
     Max angular momentum in pseudopotentials (lmaxx) =  4
     file Mg.pbe-n-kjpaw_psl.0.3.0.UPF: wavefunction(s)  3S renormalized

     gamma-point specific algorithms are used
     Message from routine setup:
     using ibrav=0 with symmetry is DISCOURAGED, use correct ibrav instead

     Subspace diagonalization in iterative solution of the eigenvalue problem:
     a serial algorithm will be used

     Using Slab Decomposition

     bravais-lattice index     =            0
     lattice parameter (alat)  =       5.7787  a.u.
     unit-cell volume          =     302.3011 (a.u.)^3
     number of atoms/cell      =            2
     number of atomic types    =            2
     number of electrons       =        14.00
     number of Kohn-Sham states=           11
     kinetic-energy cutoff     =      30.0000  Ry
     charge density cutoff     =     240.0000  Ry
     scf convergence threshold =      1.0E-06
     mixing beta               =       0.7000
     number of iterations used =            8  plain     mixing
     Exchange-correlation= SLA  PW   PBE  PBE
                           (   1   4   3   4   0   0   0)

     celldm(1)=   5.778722  celldm(2)=   0.000000  celldm(3)=   0.000000
     celldm(4)=   0.000000  celldm(5)=   0.000000  celldm(6)=   0.000000

     crystal axes: (cart. coord. in units of alat)
               a(1) = (   1.000000   0.000000   0.000000 )
               a(2) = (  -0.500000   0.866025   0.000000 )
               a(3) = (   0.000000   0.000000   1.808897 )

     reciprocal axes: (cart. coord. in units 2 pi/alat)
               b(1) = (  1.000000  0.577350  0.000000 )
               b(2) = (  0.000000  1.154701  0.000000 )
               b(3) = (  0.000000  0.000000  0.552823 )

     PseudoPot. # 1 for Mg read from file:
     /home/pragov/projects/rrg-bengioy-ad/pragov/crystal_structure_design/SSSP/Mg.pbe-n-kjpaw_psl.0.3.0.UPF
     MD5 check sum: 24ecedc7f3e3cbe212e682f4413594e4
     Pseudo is Projector augmented-wave + core cor, Zval =  2.0
     Generated using "atomic" code by A. Dal Corso  v.5.0.99 svn rev. 10869
     Shape of augmentation charge: PSQ
     Using radial grid of 1129 points,  4 beta functions with:
                l(1) =   0
                l(2) =   0
                l(3) =   1
                l(4) =   1
     Q(r) pseudized with 0 coefficients

     PseudoPot. # 2 for Zr read from file:
     /home/pragov/projects/rrg-bengioy-ad/pragov/crystal_structure_design/SSSP/Zr_pbe_v1.uspp.F.UPF
     MD5 check sum: 5db81b1e868ab7776c4564c113de050b
     Pseudo is Ultrasoft + core correction, Zval = 12.0
     Generated by new atomic code, or converted to UPF format
     Using radial grid of  887 points,  6 beta functions with:
                l(1) =   0
                l(2) =   0
                l(3) =   1
                l(4) =   1
                l(5) =   2
                l(6) =   2
     Q(r) pseudized with  6 coefficients,  rinner =    1.200   1.200   1.200
                                                       1.200   1.200

     atomic species   valence    mass     pseudopotential
        Mg             2.00    24.30500     Mg( 1.00)
        Zr            12.00    91.22400     Zr( 1.00)

     12 Sym. Ops. (no inversion) found

                                    s                        frac. trans.

      isym =  1     identity

 cryst.   s( 1) = (     1          0          0      )
                  (     0          1          0      )
                  (     0          0          1      )

 cart.    s( 1) = (  1.0000000  0.0000000  0.0000000 )
                  (  0.0000000  1.0000000  0.0000000 )
                  (  0.0000000  0.0000000  1.0000000 )

      isym =  2     180 deg rotation - cart. axis [0,1,0]

[...]

      isym =  3     120 deg rotation - cryst. axis [0,0,1]

[...]

      isym =  6     180 deg rotation - cryst. axis [2,1,0]

[...]

      isym =  7     inv. 180 deg rotation - cart. axis [0,0,1]

[...]

      isym =  8     inv. 180 deg rotation - cart. axis [1,0,0]

[...]

      isym =  9     inv.  60 deg rotation - cryst. axis [0,0,1]

 cryst.   s( 9) = (    -1         -1          0      )
                  (     1          0          0      )
                  (     0          0         -1      )

 cart.    s( 9) = ( -0.5000000  0.8660254  0.0000000 )
                  ( -0.8660254 -0.5000000  0.0000000 )
                  (  0.0000000  0.0000000 -1.0000000 )

[...]

 cryst.   s(10) = (     0          1          0      )
                  (    -1         -1          0      )
                  (     0          0         -1      )

 cart.    s(10) = ( -0.5000000 -0.8660254  0.0000000 )
                  (  0.8660254 -0.5000000  0.0000000 )
                  (  0.0000000  0.0000000 -1.0000000 )

[...]

      isym = 12     inv. 180 deg rotation - cryst. axis [1,1,0]

 cryst.   s(12) = (     0         -1          0      )
                  (    -1          0          0      )
                  (     0          0          1      )

 cart.    s(12) = (  0.5000000 -0.8660254  0.0000000 )
                  ( -0.8660254 -0.5000000  0.0000000 )
                  (  0.0000000  0.0000000  1.0000000 )

   Cartesian axes

     site n.     atom                  positions (alat units)
         1           Mg  tau(   1) = (   0.0000000   0.0000000   0.0000000  )
         2           Zr  tau(   2) = (   0.5000005   0.2886748   0.9044483  )

   Crystallographic axes

     site n.     atom                  positions (cryst. coord.)
         1           Mg  tau(   1) = (  0.0000000  0.0000000  0.0000000  )
         2           Zr  tau(   2) = (  0.6666670  0.3333330  0.5000000  )

     number of k points=     1  Methfessel-Paxton smearing, width (Ry)=  0.0010
                       cart. coord. in units 2pi/alat
        k(    1) = (   0.0000000   0.0000000   0.0000000), wk =   2.0000000

                       cryst. coord.
        k(    1) = (   0.0000000   0.0000000   0.0000000), wk =   2.0000000

     Check: negative core charge=   -0.000002

     Initial potential from superposition of free atoms

     starting charge      13.9969, renormalised to      14.0000

     negative rho (up, down):  5.949E-02 0.000E+00
     Starting wfcs are   17 randomized atomic wfcs
     Checking if some PAW data can be deallocated...

     Self-consistent Calculation

     iteration #  1     ecut=    30.00 Ry     beta= 0.70
     Davidson diagonalization with overlap

     ethr =  1.00E-02,  avg # of iterations =  1.0

     negative rho (up, down):  6.443E-02 0.000E+00

     total energy              =    -133.12310934 Ry
     estimated scf accuracy    <       0.14718974 Ry

[...]

     total energy              =    -133.16237546 Ry
     estimated scf accuracy    <       0.00001317 Ry

     iteration # 53     ecut=    30.00 Ry     beta= 0.70
     Davidson diagonalization with overlap

     ethr =  1.24E-08,  avg # of iterations =  1.0

[...]

     End of self-consistent calculation

          k = 0.0000 0.0000 0.0000 (   418 PWs)   bands (ev):

   -42.0459 -19.6316 -19.6315 -19.5069   2.7733   5.3921   8.2689   8.2872
     8.2872  11.5447  11.5448

     occupation numbers
     1.0000   1.0000   1.0000   1.0000   1.0000   1.0000   0.9321   0.0342
     0.0337  -0.0000  -0.0000

     the Fermi energy is     8.2775 ev

!    total energy              =    -133.16237546 Ry
     estimated scf accuracy    <       0.00000007 Ry
     smearing contrib. (-TS)   =      -0.00002976 Ry
     internal energy E=F+TS    =    -133.16234569 Ry

     The total energy is F=E-TS. E is the sum of the following terms:
     one-electron contribution =     -48.08298573 Ry
     hartree contribution      =      26.59468569 Ry
     xc contribution           =     -19.31982628 Ry
     ewald contribution        =     -61.04448543 Ry
     one-center paw contrib.   =     -31.30973394 Ry
      -> PAW hartree energy AE =       1.17131371 Ry
      -> PAW hartree energy PS =      -1.16882621 Ry
      -> PAW xc energy AE      =     -32.81518775 Ry
      -> PAW xc energy PS      =       1.50296631 Ry
      -> total E_H with PAW    =      26.59717319 Ry
      -> total E_XC with PAW   =     -50.63204772 Ry

     convergence has been achieved in  53 iterations

     negative rho (up, down):  6.732E-02 0.000E+00

     Forces acting on atoms (cartesian axes, Ry/au):

     atom    1 type  1   force =     0.00000000    0.00000000    0.00000000
     atom    2 type  2   force =     0.00000000    0.00000000    0.00000000
     The non-local contrib.  to forces
     atom    1 type  1   force =     0.00000000   -0.00000000    0.00000000
     atom    2 type  2   force =     0.00000000    0.00000000    0.00000000
     The ionic contribution  to forces
     atom    1 type  1   force =     0.00000015   -0.00000009    0.00000000
     atom    2 type  2   force =    -0.00000015    0.00000009    0.00000000
     The local contribution  to forces
     atom    1 type  1   force =     0.00000142    0.00000123   -0.00000073
     atom    2 type  2   force =    -0.00001418    0.00000616   -0.00001883
     The core correction contribution to forces
     atom    1 type  1   force =     0.00000002    0.00000008   -0.00000013
     atom    2 type  2   force =    -0.00000132   -0.00000015   -0.00000048
     The Hubbard contrib.    to forces
     atom    1 type  1   force =     0.00000000    0.00000000    0.00000000
     atom    2 type  2   force =     0.00000000    0.00000000    0.00000000
     The SCF correction term to forces
     atom    1 type  1   force =    -0.00000038   -0.00000018   -0.00000040
     atom    2 type  2   force =     0.00000145   -0.00000341    0.00001342

     Total force =     0.000000     Total SCF correction =     0.000014

     Computing stress (Cartesian axis) and pressure

     negative rho (up, down):  6.732E-02 0.000E+00
          total   stress  (Ry/bohr**3)                   (kbar)     P=      123.26
  -0.00001419  -0.00000000   0.00000000           -2.09       -0.00        0.00
  -0.00000000  -0.00001419   0.00000000           -0.00       -2.09        0.00
   0.00000000   0.00000000   0.00254214            0.00        0.00      373.96

     kinetic stress (kbar)   8968.29      0.00      0.00
                                0.00   8968.29      0.00
                                0.00      0.00   9588.80

     local   stress (kbar) -18984.27     -0.18      0.00
                               -0.18 -18984.17     -0.00
                                0.00     -0.00  13401.95

     nonloc. stress (kbar)   7012.37      0.00      0.00
                                0.00   7012.37     -0.00
                                0.00      0.00   7915.41

     hartree stress (kbar)   8898.18      0.08      0.00
                                0.08   8898.11      0.00
                                0.00      0.00  -4854.84

     exc-cor stress (kbar)    854.23      0.00      0.00
                                0.00    854.22     -0.00
                                0.00     -0.00    846.33

     corecor stress (kbar)  -3426.86      0.00      0.00
                                0.00  -3426.86     -0.00
                                0.00     -0.00  -3466.43

     ewald   stress (kbar)  -3324.03     -0.00     -0.00
                               -0.00  -3324.03      0.00
                               -0.00      0.00 -23057.26

     hubbard stress (kbar)      0.00      0.00      0.00
                                0.00      0.00      0.00
                                0.00      0.00      0.00

     DFT-D   stress (kbar)      0.00      0.00      0.00
                                0.00      0.00      0.00
                                0.00      0.00      0.00

     XDM     stress (kbar)      0.00      0.00      0.00
                                0.00      0.00      0.00
                                0.00      0.00      0.00

     dft-nl  stress (kbar)      0.00      0.00      0.00
                                0.00      0.00      0.00
                                0.00      0.00      0.00

     TS-vdW  stress (kbar)      0.00      0.00      0.00
                                0.00      0.00      0.00
                                0.00      0.00      0.00

[...]

                                0.00      0.00      0.00

     Writing all to output data dir new_calculations/myprefix.save/

     General routines

     Parallel routines

     PAW routines

   This run was terminated on:  23:47:17  20May2023

   JOB DONE.