     Program PWSCF v.7.0 starts on 21May2023 at  1: 6: 3

     Reading input from espresso_22353.pwi
Warning: card &CELL ignored
Warning: card / ignored

     Current dimensions of program PWSCF are:
     Max number of different atomic species (ntypx) = 10
     Max number of k-points (npk) =  40000
     Max angular momentum in pseudopotentials (lmaxx) =  4

     gamma-point specific algorithms are used
     Message from routine setup:
     using ibrav=0 with symmetry is DISCOURAGED, use correct ibrav instead

     Subspace diagonalization in iterative solution of the eigenvalue problem:
     a serial algorithm will be used

     Using Slab Decomposition

     bravais-lattice index     =            0
     lattice parameter (alat)  =      13.4217  a.u.
     unit-cell volume          =    1313.9231 (a.u.)^3
     number of atoms/cell      =            8
     number of atomic types    =            3
     number of electrons       =        67.00
     number of Kohn-Sham states=           41
     kinetic-energy cutoff     =      30.0000  Ry
     charge density cutoff     =     240.0000  Ry
     scf convergence threshold =      1.0E-06
     mixing beta               =       0.7000
     number of iterations used =            8  plain     mixing
     Exchange-correlation= SLA  PW   PBE  PBE
                           (   1   4   3   4   0   0   0)

     celldm(1)=  13.421737  celldm(2)=   0.000000  celldm(3)=   0.000000
     celldm(4)=   0.000000  celldm(5)=   0.000000  celldm(6)=   0.000000

     crystal axes: (cart. coord. in units of alat)
               a(1) = (   1.000000   0.000000   0.000000 )
               a(2) = (   0.334803   0.942288   0.000000 )
               a(3) = (  -0.667402  -0.471144   0.576713 )

     reciprocal axes: (cart. coord. in units 2 pi/alat)
               b(1) = (  1.000000 -0.355309  0.866982 )
               b(2) = (  0.000000  1.061247  0.866982 )
               b(3) = (  0.000000  0.000000  1.733963 )

     PseudoPot. # 1 for Y  read from file:
     /home/pragov/projects/rrg-bengioy-ad/pragov/crystal_structure_design/SSSP/Y_pbe_v1.uspp.F.UPF
     MD5 check sum: 2cf71db95cafeb975fc457bd7f14888e
     Pseudo is Ultrasoft + core correction, Zval = 11.0
     Generated by new atomic code, or converted to UPF format
     Using radial grid of  885 points,  6 beta functions with:
                l(1) =   0
                l(2) =   0
                l(3) =   1
                l(4) =   1
                l(5) =   2
                l(6) =   2
     Q(r) pseudized with  6 coefficients,  rinner =    1.200   1.200   1.200
                                                       1.200   1.200

     PseudoPot. # 2 for As read from file:
     /home/pragov/projects/rrg-bengioy-ad/pragov/crystal_structure_design/SSSP/As.pbe-n-rrkjus_psl.0.2.UPF
     MD5 check sum: 767315de957beeeb34f87d97bf945c8f
     Pseudo is Ultrasoft + core correction, Zval =  5.0
     Generated using "atomic" code by A. Dal Corso  v.5.0.99 svn rev. 10869
     Using radial grid of 1209 points,  4 beta functions with:
                l(1) =   0
                l(2) =   0
                l(3) =   1
                l(4) =   1
     Q(r) pseudized with 0 coefficients

     PseudoPot. # 3 for Se read from file:
     /home/pragov/projects/rrg-bengioy-ad/pragov/crystal_structure_design/SSSP/Se_pbe_v1.uspp.F.UPF
     MD5 check sum: 1b3568f3a8ae88f9a2a0ad0698632c85
     Pseudo is Ultrasoft + core correction, Zval =  6.0
     Generated by new atomic code, or converted to UPF format
     Using radial grid of  877 points,  6 beta functions with:
                l(1) =   0
                l(2) =   0
                l(3) =   1
                l(4) =   1
                l(5) =   2
                l(6) =   2
     Q(r) pseudized with  8 coefficients,  rinner =    1.300   1.300   1.300
                                                       1.300   1.300

     atomic species   valence    mass     pseudopotential
        Y             11.00    88.90584     Y ( 1.00)
        As             5.00    74.92159     As( 1.00)
        Se             6.00    78.97100     Se( 1.00)

      4 Sym. Ops., with inversion, found

                                    s                        frac. trans.

      isym =  1     identity

 cryst.   s( 1) = (     1          0          0      )
                  (     0          1          0      )
                  (     0          0          1      )

 cart.    s( 1) = (  1.0000000  0.0000000 -0.0000000 )
                  (  0.0000000  1.0000000 -0.0000000 )
                  (  0.0000000  0.0000000  1.0000000 )

      isym =  2     180 deg rotation - cart. axis [0,0,1]

[...]

      isym =  3     inversion

[...]

      isym =  4     inv. 180 deg rotation - cart. axis [0,0,1]

 cryst.   s( 4) = (     1          0          0      )
                  (     0          1          0      )
                  (    -1         -1         -1      )

 cart.    s( 4) = (  1.0000000  0.0000000 -0.0000000 )
                  (  0.0000000  1.0000000 -0.0000000 )
                  (  0.0000000  0.0000000 -1.0000000 )

   Cartesian axes

     site n.     atom                  positions (alat units)
         1           Y   tau(   1) = (   0.3250072   0.2294349   0.0000000  )
         2           Y   tau(   2) = (   1.0097960   0.7128532   0.0000000  )
         3           Y   tau(   3) = (   0.1662992  -0.2355720   0.2883567  )
         4           Y   tau(   4) = (  -0.1662992   0.2355720   0.2883567  )
         5           As  tau(   5) = (   0.0000000   0.0000000   0.0000000  )
         6           Se  tau(   6) = (   0.5000000   0.0000000   0.2883567  )
         7           Se  tau(   7) = (   0.1674016   0.4711440   0.2883567  )
         8           Se  tau(   8) = (   0.6674016   0.4711440   0.0000000  )

   Crystallographic axes

     site n.     atom                  positions (cryst. coord.)
         1           Y   tau(   1) = (  0.2434870  0.2434870  0.0000000  )
         2           Y   tau(   2) = (  0.7565130  0.7565130  0.0000000  )
         3           Y   tau(   3) = (  0.5000000  0.0000000  0.5000000  )
         4           Y   tau(   4) = ( -0.0000000  0.5000000  0.5000000  )
         5           As  tau(   5) = (  0.0000000  0.0000000  0.0000000  )
         6           Se  tau(   6) = (  0.7500000  0.2500000  0.5000000  )
         7           Se  tau(   7) = (  0.2500000  0.7500000  0.5000000  )
         8           Se  tau(   8) = (  0.5000000  0.5000000  0.0000000  )

     number of k points=     1  Methfessel-Paxton smearing, width (Ry)=  0.0010
                       cart. coord. in units 2pi/alat
        k(    1) = (   0.0000000   0.0000000   0.0000000), wk =   2.0000000

                       cryst. coord.
        k(    1) = (   0.0000000   0.0000000   0.0000000), wk =   2.0000000

     Check: negative core charge=   -0.000003

     Initial potential from superposition of free atoms

     starting charge      66.9817, renormalised to      67.0000

     negative rho (up, down):  1.761E-01 0.000E+00
     Starting wfcs are   68 randomized atomic wfcs

     Self-consistent Calculation

     iteration #  1     ecut=    30.00 Ry     beta= 0.70
     Davidson diagonalization with overlap

     ethr =  1.00E-02,  avg # of iterations =  2.0

     Threshold (ethr) on eigenvalues was too large:
     Diagonalizing with lowered threshold

     Davidson diagonalization with overlap

[...]

     negative rho (up, down):  1.697E-01 0.000E+00

     total energy              =    -499.55886805 Ry
     estimated scf accuracy    <       0.52356776 Ry

[...]

     total energy              =    -499.74334447 Ry
     estimated scf accuracy    <       0.00000281 Ry

     iteration #  9     ecut=    30.00 Ry     beta= 0.70
     Davidson diagonalization with overlap

     ethr =  4.20E-09,  avg # of iterations =  4.0

[...]

     End of self-consistent calculation

          k = 0.0000 0.0000 0.0000 (  1834 PWs)   bands (ev):

   -33.6369 -33.2998 -33.2043 -32.8933 -13.6535 -13.5716 -13.4769 -13.3710
   -13.3017 -13.2954 -13.2475 -13.1951 -13.0445 -12.9960 -12.8704 -12.8669
    -3.2596  -2.7607  -2.4371   0.1090   6.1675   6.2334   6.3506   6.3855
     6.9033   6.9097   7.2036   7.8717   7.9168   9.0565   9.3181   9.3273
     9.3389  10.6960  10.8274  10.8538  11.5167  11.6298  11.7692  11.8858
    12.2315

     occupation numbers
     1.0000   1.0000   1.0000   1.0000   1.0000   1.0000   1.0000   1.0000
     1.0000   1.0000   1.0000   1.0000   1.0000   1.0000   1.0000   1.0000
     1.0000   1.0000   1.0000   1.0000   1.0000   1.0000   1.0000   1.0000
     1.0000   1.0000   1.0000   1.0000   1.0000   1.0000   1.0000   1.0000
     1.0000   0.5000  -0.0000  -0.0000  -0.0000  -0.0000  -0.0000  -0.0000
    -0.0000

     the Fermi energy is    10.6960 ev

!    total energy              =    -499.74334449 Ry
     estimated scf accuracy    <       0.00000041 Ry
     smearing contrib. (-TS)   =      -0.00028209 Ry
     internal energy E=F+TS    =    -499.74306240 Ry

     The total energy is F=E-TS. E is the sum of the following terms:
     one-electron contribution =     -60.57691028 Ry
     hartree contribution      =      56.47748144 Ry
     xc contribution           =    -187.12693236 Ry
     ewald contribution        =    -308.51670119 Ry

     convergence has been achieved in   9 iterations

     negative rho (up, down):  1.664E-01 0.000E+00

     Forces acting on atoms (cartesian axes, Ry/au):

     atom    1 type  1   force =    -0.03850402   -0.01730799    0.00000000
     atom    2 type  1   force =     0.03850402    0.01730799   -0.00000000
     atom    3 type  1   force =     0.00000000    0.00000000   -0.00000000
     atom    4 type  1   force =     0.00000000   -0.00000000   -0.00000000
     atom    5 type  2   force =     0.00000000    0.00000000    0.00000000
     atom    6 type  3   force =     0.00000000    0.00000000    0.00686874
     atom    7 type  3   force =     0.00000000    0.00000000   -0.00686874
     atom    8 type  3   force =     0.00000000    0.00000000    0.00000000
     The non-local contrib.  to forces
     atom    1 type  1   force =     0.02676968    0.01788246   -0.00000000
     atom    2 type  1   force =    -0.02676968   -0.01788246    0.00000000
     atom    3 type  1   force =     0.00000000    0.00000000    0.00000000
     atom    4 type  1   force =    -0.00000000   -0.00000000   -0.00000000
     atom    5 type  2   force =     0.00000000    0.00000000    0.00000000
     atom    6 type  3   force =     0.00000000    0.00000000   -0.00240569
     atom    7 type  3   force =     0.00000000    0.00000000    0.00240569
     atom    8 type  3   force =     0.00000000    0.00000000    0.00000000
     The ionic contribution  to forces
     atom    1 type  1   force =     0.04382018    0.03093433   -0.00000000
     atom    2 type  1   force =    -0.04382018   -0.03093433    0.00000000
     atom    3 type  1   force =    -0.00000000   -0.00000000    0.00000000
     atom    4 type  1   force =    -0.00000000   -0.00000000    0.00000000
     atom    5 type  2   force =    -0.00000000   -0.00000000   -0.00000000
     atom    6 type  3   force =     0.00000000   -0.00000000    0.00000000
     atom    7 type  3   force =     0.00000000    0.00000000    0.00000000
     atom    8 type  3   force =    -0.00000000   -0.00000000   -0.00000000
     The local contribution  to forces
     atom    1 type  1   force =    -0.10866755   -0.06833419    0.00089800
     atom    2 type  1   force =     0.10846704    0.06824748   -0.00085820
     atom    3 type  1   force =    -0.00014384    0.00020484    0.00036886
     atom    4 type  1   force =     0.00037698   -0.00013753   -0.00045161
     atom    5 type  2   force =    -0.00016571    0.00009601    0.00012457
     atom    6 type  3   force =    -0.00041660   -0.00159867    0.00799518
     atom    7 type  3   force =     0.00032445    0.00151202   -0.00799092
     atom    8 type  3   force =     0.00023237   -0.00004606   -0.00014399
     The core correction contribution to forces
     atom    1 type  1   force =    -0.00055295    0.00173779    0.00106305
     atom    2 type  1   force =     0.00054832   -0.00174321   -0.00106260
     atom    3 type  1   force =    -0.00000398    0.00000210    0.00000493
     atom    4 type  1   force =     0.00000660   -0.00000114   -0.00000897
     atom    5 type  2   force =    -0.00000698    0.00000471    0.00000546
     atom    6 type  3   force =     0.00031918   -0.00005920    0.00112330
     atom    7 type  3   force =    -0.00032124    0.00005595   -0.00111864
     atom    8 type  3   force =     0.00000430   -0.00000033   -0.00000492
     The Hubbard contrib.    to forces
     atom    1 type  1   force =     0.00000000    0.00000000    0.00000000
     atom    2 type  1   force =     0.00000000    0.00000000    0.00000000
     atom    3 type  1   force =     0.00000000    0.00000000    0.00000000
     atom    4 type  1   force =     0.00000000    0.00000000    0.00000000
     atom    5 type  2   force =     0.00000000    0.00000000    0.00000000
     atom    6 type  3   force =     0.00000000    0.00000000    0.00000000
     atom    7 type  3   force =     0.00000000    0.00000000    0.00000000
     atom    8 type  3   force =     0.00000000    0.00000000    0.00000000
     The SCF correction term to forces
     atom    1 type  1   force =     0.00011493    0.00044988   -0.00035008
     atom    2 type  1   force =     0.00006682   -0.00040124    0.00031913
     atom    3 type  1   force =     0.00012438   -0.00020226   -0.00034343
     atom    4 type  1   force =    -0.00033685    0.00013198    0.00037808
     atom    5 type  2   force =     0.00013049   -0.00008836   -0.00010701
     atom    6 type  3   force =     0.00009207   -0.00010838    0.00016205
     atom    7 type  3   force =    -0.00001671    0.00018553   -0.00015878
     atom    8 type  3   force =    -0.00020988    0.00004322    0.00012471

     Total force =     0.060486     Total SCF correction =     0.001121

     Computing stress (Cartesian axis) and pressure

     negative rho (up, down):  1.664E-01 0.000E+00
          total   stress  (Ry/bohr**3)                   (kbar)     P=      192.89
  -0.00003525  -0.00127580   0.00000000           -5.18     -187.68        0.00
  -0.00127580   0.00151526   0.00000000         -187.68      222.90        0.00
   0.00000000   0.00000000   0.00245364            0.00        0.00      360.94

     kinetic stress (kbar)   8382.74   -112.28     -0.00
                             -112.28   8601.11     -0.00
                               -0.00     -0.00   8616.53

     local   stress (kbar)  -4093.90      1.61    -88.70
                                1.61  -4191.85     70.32
                              -88.70     70.32  -4096.19

     nonloc. stress (kbar)   8154.16    -72.73     -0.00
                              -72.73   8233.52     -0.00
                               -0.00     -0.00   8273.81

     hartree stress (kbar)   2110.81     18.90     30.06
                               18.90   2121.29    -23.20
                               30.06    -23.20   2091.04

     exc-cor stress (kbar)  11605.31      1.46      1.21
                                1.46  11605.63     -0.72
                                1.21     -0.72  11603.51

     corecor stress (kbar) -14629.36      5.32     -1.39
                                5.32 -14633.14      2.89
                               -1.39      2.89 -14635.23

     ewald   stress (kbar) -11534.95    -29.96      0.00
                              -29.96 -11513.66      0.00
                                0.00      0.00 -11492.51

     hubbard stress (kbar)      0.00      0.00      0.00
                                0.00      0.00      0.00
                                0.00      0.00      0.00

     DFT-D   stress (kbar)      0.00      0.00      0.00
                                0.00      0.00      0.00
                                0.00      0.00      0.00

     XDM     stress (kbar)      0.00      0.00      0.00
                                0.00      0.00      0.00
                                0.00      0.00      0.00

     dft-nl  stress (kbar)      0.00      0.00      0.00
                                0.00      0.00      0.00
                                0.00      0.00      0.00

     TS-vdW  stress (kbar)      0.00      0.00      0.00
                                0.00      0.00      0.00
                                0.00      0.00      0.00

[...]

                                0.00      0.00      0.00

     Writing all to output data dir new_calculations/myprefix.save/

     General routines

     Parallel routines

   This run was terminated on:   1: 6:23  21May2023

   JOB DONE.