     Program PWSCF v.7.0 starts on 21May2023 at  1:10:30

     Reading input from espresso_7824.pwi
Warning: card &CELL ignored
Warning: card / ignored

     Current dimensions of program PWSCF are:
     Max number of different atomic species (ntypx) = 10
     Max number of k-points (npk) =  40000
     Max angular momentum in pseudopotentials (lmaxx) =  4
     file C.pbe-n-kjpaw_psl.1.0.0.UPF: wavefunction(s)  2S 2P renormalized

     gamma-point specific algorithms are used
     Message from routine setup:
     using ibrav=0 with symmetry is DISCOURAGED, use correct ibrav instead

     Subspace diagonalization in iterative solution of the eigenvalue problem:
     a serial algorithm will be used

     Using Slab Decomposition

     bravais-lattice index     =            0
     lattice parameter (alat)  =       5.9988  a.u.
     unit-cell volume          =     812.7361 (a.u.)^3
     number of atoms/cell      =            8
     number of atomic types    =            3
     number of electrons       =        84.00
     number of Kohn-Sham states=           50
     kinetic-energy cutoff     =      30.0000  Ry
     charge density cutoff     =     240.0000  Ry
     scf convergence threshold =      1.0E-06
     mixing beta               =       0.7000
     number of iterations used =            8  plain     mixing
     Exchange-correlation= SLA  PW   PBX  PBC
                           (   1   4   3   4   0   0   0)

     celldm(1)=   5.998790  celldm(2)=   0.000000  celldm(3)=   0.000000
     celldm(4)=   0.000000  celldm(5)=   0.000000  celldm(6)=   0.000000

     crystal axes: (cart. coord. in units of alat)
               a(1) = (   1.000000   0.000000   0.000000 )
               a(2) = (  -0.500000   0.866025   0.000000 )
               a(3) = (   0.000000   0.000000   4.347385 )

     reciprocal axes: (cart. coord. in units 2 pi/alat)
               b(1) = (  1.000000  0.577351  0.000000 )
               b(2) = (  0.000000  1.154701  0.000000 )
               b(3) = (  0.000000  0.000000  0.230023 )

     PseudoPot. # 1 for Ti read from file:
     /home/pragov/projects/rrg-bengioy-ad/pragov/crystal_structure_design/SSSP/ti_pbe_v1.4.uspp.F.UPF
     MD5 check sum: 88a00a6731bd790ddea75d31a80cb452
     Pseudo is Ultrasoft + core correction, Zval = 12.0
     Generated by new atomic code, or converted to UPF format
     Using radial grid of  851 points,  6 beta functions with:
                l(1) =   0
                l(2) =   0
                l(3) =   1
                l(4) =   1
                l(5) =   2
                l(6) =   2
     Q(r) pseudized with  6 coefficients,  rinner =    1.000   1.000   1.000
                                                       1.000   1.000

     PseudoPot. # 2 for Sn read from file:
     /home/pragov/projects/rrg-bengioy-ad/pragov/crystal_structure_design/SSSP/Sn_pbe_v1.uspp.F.UPF
     MD5 check sum: 4cf58ce39ec5d5d420df3dd08604eb00
     Pseudo is Ultrasoft + core correction, Zval = 14.0
     Generated by new atomic code, or converted to UPF format
     Using radial grid of  891 points,  6 beta functions with:
                l(1) =   0
                l(2) =   0
                l(3) =   1
                l(4) =   1
                l(5) =   2
                l(6) =   2
     Q(r) pseudized with  6 coefficients,  rinner =    1.200   1.200   1.200
                                                       1.200   1.200

     PseudoPot. # 3 for C  read from file:
     /home/pragov/projects/rrg-bengioy-ad/pragov/crystal_structure_design/SSSP/C.pbe-n-kjpaw_psl.1.0.0.UPF
     MD5 check sum: 5d2aebdfa2cae82b50a7e79e9516da0f
     Pseudo is Projector augmented-wave + core cor, Zval =  4.0
     Generated using "atomic" code by A. Dal Corso  v.5.1
     Shape of augmentation charge: PSQ
     Using radial grid of 1073 points,  4 beta functions with:
                l(1) =   0
                l(2) =   0
                l(3) =   1
                l(4) =   1
     Q(r) pseudized with 0 coefficients

     atomic species   valence    mass     pseudopotential
        Ti            12.00    47.86700     Ti( 1.00)
        Sn            14.00   118.71000     Sn( 1.00)
        C              4.00    12.01100     C ( 1.00)

     24 Sym. Ops., with inversion, found (12 have fractional translation)

                                    s                        frac. trans.

      isym =  1     identity

 cryst.   s( 1) = (     1          0          0      )
                  (     0          1          0      )
                  (     0          0          1      )

 cart.    s( 1) = (  1.0000000  0.0000000  0.0000000 )
                  (  0.0000000  1.0000000  0.0000000 )
                  (  0.0000000  0.0000000  1.0000000 )

      isym =  2     180 deg rotation - cart. axis [0,0,1]

 cryst.   s( 2) = (    -1          0          0      )    f =(  0.0000000 )
                  (     0         -1          0      )       (  0.0000000 )
                  (     0          0          1      )       ( -0.5000000 )

 cart.    s( 2) = ( -1.0000000 -0.0000000  0.0000000 )    f =(  0.0000000 )
                  (  0.0000000 -1.0000000  0.0000000 )       (  0.0000000 )
                  (  0.0000000  0.0000000  1.0000000 )       ( -2.1736925 )

[...]

      isym =  4     180 deg rotation - cart. axis [1,0,0]

[...]

      isym =  5      60 deg rotation - cryst. axis [0,0,1]

[...]

 cryst.   s( 8) = (    -1         -1          0      )
                  (     1          0          0      )
                  (     0          0          1      )

 cart.    s( 8) = ( -0.4999998  0.8660255  0.0000000 )
                  ( -0.8660253 -0.5000002  0.0000000 )
                  (  0.0000000  0.0000000  1.0000000 )

[...]

 cryst.   s( 9) = (     0         -1          0      )    f =( -0.0000000 )
                  (    -1          0          0      )       ( -0.0000000 )
                  (     0          0         -1      )       (  0.5000000 )

 cart.    s( 9) = (  0.5000002 -0.8660253  0.0000000 )    f =( -0.0000000 )
                  ( -0.8660253 -0.5000002  0.0000000 )       ( -0.0000000 )
                  (  0.0000000  0.0000000 -1.0000000 )       (  2.1736925 )

[...]

 cryst.   s(10) = (     1          1          0      )    f =(  0.0000000 )
                  (     0         -1          0      )       ( -0.0000010 )
                  (     0          0         -1      )       (  0.5000000 )

 cart.    s(10) = (  0.4999998  0.8660258  0.0000000 )    f =(  0.0000005 )
                  (  0.8660253 -0.4999998  0.0000000 )       ( -0.0000009 )
                  (  0.0000000  0.0000000 -1.0000000 )       (  2.1736925 )

[...]

 cryst.   s(11) = (    -1         -1          0      )
                  (     0          1          0      )
                  (     0          0         -1      )

 cart.    s(11) = ( -0.4999998 -0.8660258  0.0000000 )
                  ( -0.8660253  0.4999998  0.0000000 )
                  (  0.0000000  0.0000000 -1.0000000 )

      isym = 12     180 deg rotation - cryst. axis [1,1,0]

[...]

      isym = 13     inversion

[...]

      isym = 14     inv. 180 deg rotation - cart. axis [0,0,1]

[...]

      isym = 16     inv. 180 deg rotation - cart. axis [1,0,0]

[...]

      isym = 17     inv.  60 deg rotation - cryst. axis [0,0,1]

[...]

 cryst.   s(22) = (    -1         -1          0      )    f =(  0.0000000 )
                  (     0          1          0      )       ( -0.0000010 )
                  (     0          0          1      )       ( -0.5000000 )

 cart.    s(22) = ( -0.4999998 -0.8660258  0.0000000 )    f =(  0.0000005 )
                  ( -0.8660253  0.4999998  0.0000000 )       ( -0.0000009 )
                  (  0.0000000  0.0000000  1.0000000 )       ( -2.1736925 )

[...]

      isym = 24     inv. 180 deg rotation - cryst. axis [1,1,0]

 cryst.   s(24) = (     0         -1          0      )
                  (    -1          0          0      )
                  (     0          0          1      )

 cart.    s(24) = (  0.5000002 -0.8660253  0.0000000 )
                  ( -0.8660253 -0.5000002  0.0000000 )
                  (  0.0000000  0.0000000  1.0000000 )

   Cartesian axes

     site n.     atom                  positions (alat units)
         1           Ti  tau(   1) = (  -0.0000007   0.5773505   0.3514252  )
         2           Ti  tau(   2) = (  -0.0000007   0.5773505   1.8222673  )
         3           Ti  tau(   3) = (   0.5000004   0.2886748   2.5251177  )
         4           Ti  tau(   4) = (   0.5000004   0.2886748   3.9959598  )
         5           Sn  tau(   5) = (  -0.0000007   0.5773505   3.2605388  )
         6           Sn  tau(   6) = (   0.5000004   0.2886748   1.0868463  )
         7           C   tau(   7) = (   0.0000000   0.0000000   0.0000000  )
         8           C   tau(   8) = (   0.0000000   0.0000000   2.1736925  )

   Crystallographic axes

     site n.     atom                  positions (cryst. coord.)
         1           Ti  tau(   1) = (  0.3333330  0.6666670  0.0808360  )
         2           Ti  tau(   2) = (  0.3333330  0.6666670  0.4191640  )
         3           Ti  tau(   3) = (  0.6666670  0.3333330  0.5808360  )
         4           Ti  tau(   4) = (  0.6666670  0.3333330  0.9191640  )
         5           Sn  tau(   5) = (  0.3333330  0.6666670  0.7500000  )
         6           Sn  tau(   6) = (  0.6666670  0.3333330  0.2500000  )
         7           C   tau(   7) = (  0.0000000  0.0000000  0.0000000  )
         8           C   tau(   8) = (  0.0000000  0.0000000  0.5000000  )

     number of k points=     1  Methfessel-Paxton smearing, width (Ry)=  0.0010
                       cart. coord. in units 2pi/alat
        k(    1) = (   0.0000000   0.0000000   0.0000000), wk =   2.0000000

                       cryst. coord.
        k(    1) = (   0.0000000   0.0000000   0.0000000), wk =   2.0000000

     Check: negative core charge=   -0.000013

     Initial potential from superposition of free atoms

     starting charge      77.9996, renormalised to      84.0000

     negative rho (up, down):  7.554E-03 0.000E+00
     Starting wfcs are   66 randomized atomic wfcs
     Checking if some PAW data can be deallocated...

     Self-consistent Calculation

     iteration #  1     ecut=    30.00 Ry     beta= 0.70
     Davidson diagonalization with overlap

     ethr =  1.00E-02,  avg # of iterations =  3.0

     negative rho (up, down):  6.544E-03 0.000E+00

     total energy              =    -836.26278455 Ry
     estimated scf accuracy    <       7.79755753 Ry

[...]

     total energy              =    -840.32483747 Ry
     estimated scf accuracy    <       0.00000126 Ry

     iteration # 41     ecut=    30.00 Ry     beta= 0.70
     Davidson diagonalization with overlap

     ethr =  1.50E-09,  avg # of iterations =  5.0

[...]

     End of self-consistent calculation

          k = 0.0000 0.0000 0.0000 (  1127 PWs)   bands (ev):

   -39.3048 -39.3046 -39.2288 -39.2285 -16.1231 -16.1157 -15.7435 -15.7352
   -15.4583 -15.4583 -15.4582 -15.4582 -15.3962 -15.3962 -15.3961 -15.3961
   -11.6634 -11.6634 -11.6632 -11.6632 -11.1481 -11.1479 -11.0856 -11.0856
   -11.0854 -11.0853   0.4916   0.5528   4.8691   5.2629   8.3371   9.3715
    11.4464  12.5692  13.7542  13.7542  13.8123  13.8123  16.5496  17.1222
    17.2587  17.2587  17.3474  17.3474  17.5357  17.5357  18.3296  18.3296
    18.8248  18.8249

     occupation numbers
     1.0000   1.0000   1.0000   1.0000   1.0000   1.0000   1.0000   1.0000
     1.0000   1.0000   1.0000   1.0000   1.0000   1.0000   1.0000   1.0000
     1.0000   1.0000   1.0000   1.0000   1.0000   1.0000   1.0000   1.0000
     1.0000   1.0000   1.0000   1.0000   1.0000   1.0000   1.0000   1.0000
     1.0000   1.0000   1.0000   1.0000   1.0000   1.0000   1.0000   1.0000
     1.0000   1.0000  -0.0000  -0.0000  -0.0000  -0.0000  -0.0000  -0.0000
    -0.0000  -0.0000

     the Fermi energy is    17.3031 ev

!    total energy              =    -840.32483748 Ry
     estimated scf accuracy    <       0.00000006 Ry
     smearing contrib. (-TS)   =       0.00000055 Ry
     internal energy E=F+TS    =    -840.32483803 Ry

     The total energy is F=E-TS. E is the sum of the following terms:
     one-electron contribution =    -240.63286281 Ry
     hartree contribution      =     170.97484504 Ry
     xc contribution           =    -177.51250432 Ry
     ewald contribution        =    -580.81692330 Ry
     one-center paw contrib.   =     -12.33739265 Ry
      -> PAW hartree energy AE =      14.41930896 Ry
      -> PAW hartree energy PS =     -14.40257455 Ry
      -> PAW xc energy AE      =     -20.22965875 Ry
      -> PAW xc energy PS      =       7.87553169 Ry
      -> total E_H with PAW    =     170.99157945 Ry
      -> total E_XC with PAW   =    -189.86663138 Ry

     convergence has been achieved in  41 iterations

     negative rho (up, down):  3.695E-03 0.000E+00

     Forces acting on atoms (cartesian axes, Ry/au):

     atom    1 type  1   force =     0.00000000    0.00000000   -0.18468365
     atom    2 type  1   force =     0.00000000    0.00000000    0.18468365
     atom    3 type  1   force =     0.00000000    0.00000000   -0.18468365
     atom    4 type  1   force =     0.00000000   -0.00000000    0.18468365
     atom    5 type  2   force =    -0.00000000    0.00000000   -0.00000000
     atom    6 type  2   force =    -0.00000000   -0.00000000    0.00000000
     atom    7 type  3   force =     0.00000000    0.00000000   -0.00000000
     atom    8 type  3   force =     0.00000000    0.00000000    0.00000000
     The non-local contrib.  to forces
     atom    1 type  1   force =     0.00000000    0.00000000   -0.02004332
     atom    2 type  1   force =     0.00000000    0.00000000    0.02004332
     atom    3 type  1   force =     0.00000000    0.00000000   -0.02004332
     atom    4 type  1   force =    -0.00000000   -0.00000000    0.02004332
     atom    5 type  2   force =     0.00000000    0.00000000    0.00000000
     atom    6 type  2   force =     0.00000000   -0.00000000    0.00000000
     atom    7 type  3   force =    -0.00000000   -0.00000000    0.00000000
     atom    8 type  3   force =    -0.00000000   -0.00000000    0.00000000
     The ionic contribution  to forces
     atom    1 type  1   force =     0.00001214   -0.00000701    8.07243632
     atom    2 type  1   force =     0.00001214   -0.00000701   -8.07243632
     atom    3 type  1   force =    -0.00001214    0.00000701    8.07243632
     atom    4 type  1   force =    -0.00001214    0.00000701   -8.07243632
     atom    5 type  2   force =     0.00000824   -0.00000476    0.00000000
     atom    6 type  2   force =    -0.00000824    0.00000476    0.00000000
     atom    7 type  3   force =    -0.00000000   -0.00000000    0.00000000
     atom    8 type  3   force =    -0.00000000   -0.00000000    0.00000000
     The local contribution  to forces
     atom    1 type  1   force =    -0.00001196   -0.00000240   -8.26092665
     atom    2 type  1   force =    -0.00001253    0.00001131    8.26033053
     atom    3 type  1   force =     0.00001240   -0.00001701   -8.25947573
     atom    4 type  1   force =     0.00000897   -0.00000485    8.26056613
     atom    5 type  2   force =    -0.00000790    0.00000290    0.00055895
     atom    6 type  2   force =     0.00000562   -0.00000367   -0.00105476
     atom    7 type  3   force =     0.00000314   -0.00000158   -0.00001045
     atom    8 type  3   force =    -0.00000113   -0.00000001    0.00023605
     The core correction contribution to forces
     atom    1 type  1   force =     0.00000035   -0.00000021    0.02325427
     atom    2 type  1   force =     0.00000007    0.00000027   -0.02325335
     atom    3 type  1   force =     0.00000008   -0.00000052    0.02325441
     atom    4 type  1   force =    -0.00000004    0.00000056   -0.02325522
     atom    5 type  2   force =     0.00000010   -0.00000009   -0.00000053
     atom    6 type  2   force =    -0.00000013    0.00000013   -0.00000090
     atom    7 type  3   force =     0.00000001   -0.00000004    0.00000098
     atom    8 type  3   force =     0.00000004    0.00000005    0.00000102
     The Hubbard contrib.    to forces
     atom    1 type  1   force =     0.00000000    0.00000000    0.00000000
     atom    2 type  1   force =     0.00000000    0.00000000    0.00000000
     atom    3 type  1   force =     0.00000000    0.00000000    0.00000000
     atom    4 type  1   force =     0.00000000    0.00000000    0.00000000
     atom    5 type  2   force =     0.00000000    0.00000000    0.00000000
     atom    6 type  2   force =     0.00000000    0.00000000    0.00000000
     atom    7 type  3   force =     0.00000000    0.00000000    0.00000000
     atom    8 type  3   force =     0.00000000    0.00000000    0.00000000
     The SCF correction term to forces
     atom    1 type  1   force =     0.00000163    0.00000513    0.00055226
     atom    2 type  1   force =    -0.00000001   -0.00000333    0.00001148
     atom    3 type  1   force =     0.00000046    0.00001012   -0.00076908
     atom    4 type  1   force =    -0.00000011   -0.00000151   -0.00020348
     atom    5 type  2   force =     0.00000002    0.00000016   -0.00052528
     atom    6 type  2   force =     0.00000462   -0.00000011    0.00097605
     atom    7 type  3   force =    -0.00000161   -0.00000035    0.00003864
     atom    8 type  3   force =     0.00000111   -0.00000008   -0.00020618

     Total force =     0.369367     Total SCF correction =     0.001487

     Computing stress (Cartesian axis) and pressure

     negative rho (up, down):  3.695E-03 0.000E+00
          total   stress  (Ry/bohr**3)                   (kbar)     P=      -66.18
  -0.00170468  -0.00000000  -0.00000000         -250.77       -0.00       -0.00
  -0.00000000  -0.00170469  -0.00000000           -0.00     -250.77       -0.00
  -0.00000000  -0.00000000   0.00205967           -0.00       -0.00      302.99

     kinetic stress (kbar)  19245.11      0.01      0.00
                                0.01  19245.12      0.00
                                0.00      0.00  19179.45

     local   stress (kbar)   4435.15     -0.01     -0.04
                               -0.01   4435.15      0.05
                               -0.04      0.05   6323.57

     nonloc. stress (kbar)   7686.53      0.00      0.00
                                0.00   7686.54      0.00
                                0.00      0.00   8155.22

     hartree stress (kbar)  10766.08      0.01      0.01
                                0.01  10766.08     -0.02
                                0.01     -0.02   9414.25

     exc-cor stress (kbar)   6007.52     -0.00      0.00
                               -0.00   6007.52     -0.00
                                0.00     -0.00   5996.58

     corecor stress (kbar) -13467.75      0.00     -0.00
                                0.00 -13467.75      0.00
                               -0.00      0.00 -13485.16

     ewald   stress (kbar) -34923.42      0.01      0.00
                                0.01 -34923.41      0.00
                                0.00      0.00 -35280.92

     hubbard stress (kbar)      0.00      0.00      0.00
                                0.00      0.00      0.00
                                0.00      0.00      0.00

     DFT-D   stress (kbar)      0.00      0.00      0.00
                                0.00      0.00      0.00
                                0.00      0.00      0.00

     XDM     stress (kbar)      0.00      0.00      0.00
                                0.00      0.00      0.00
                                0.00      0.00      0.00

     dft-nl  stress (kbar)      0.00      0.00      0.00
                                0.00      0.00      0.00
                                0.00      0.00      0.00

     TS-vdW  stress (kbar)      0.00      0.00      0.00
                                0.00      0.00      0.00
                                0.00      0.00      0.00

[...]

                                0.00      0.00      0.00

     Writing all to output data dir new_calculations/myprefix.save/

     General routines

     Parallel routines

     PAW routines

   This run was terminated on:   1:11:15  21May2023

   JOB DONE.