     Program PWSCF v.7.0 starts on 21May2023 at 13:23:23

     Reading input from espresso_21942.pwi
Warning: card &CELL ignored
Warning: card / ignored

     Current dimensions of program PWSCF are:
     Max number of different atomic species (ntypx) = 10
     Max number of k-points (npk) =  40000
     Max angular momentum in pseudopotentials (lmaxx) =  4

     gamma-point specific algorithms are used
     Message from routine setup:
     using ibrav=0 with symmetry is DISCOURAGED, use correct ibrav instead

     Subspace diagonalization in iterative solution of the eigenvalue problem:
     a serial algorithm will be used

     Using Slab Decomposition

     bravais-lattice index     =            0
     lattice parameter (alat)  =      11.8353  a.u.
     unit-cell volume          =     851.0663 (a.u.)^3
     number of atoms/cell      =            9
     number of atomic types    =            3
     number of electrons       =        99.00
     number of Kohn-Sham states=           60
     kinetic-energy cutoff     =      30.0000  Ry
     charge density cutoff     =     240.0000  Ry
     scf convergence threshold =      1.0E-06
     mixing beta               =       0.7000
     number of iterations used =            8  plain     mixing
     Exchange-correlation= SLA  PW   PBE  PBE
                           (   1   4   3   4   0   0   0)

     celldm(1)=  11.835283  celldm(2)=   0.000000  celldm(3)=   0.000000
     celldm(4)=   0.000000  celldm(5)=   0.000000  celldm(6)=   0.000000

     crystal axes: (cart. coord. in units of alat)
               a(1) = (   1.000000   0.000000   0.000000 )
               a(2) = (  -0.500000   0.866025   0.000000 )
               a(3) = (   0.000000   0.000000   0.592785 )

     reciprocal axes: (cart. coord. in units 2 pi/alat)
               b(1) = (  1.000000  0.577350  0.000000 )
               b(2) = (  0.000000  1.154701  0.000000 )
               b(3) = (  0.000000  0.000000  1.686954 )

     PseudoPot. # 1 for Ti read from file:
     /home/pragov/projects/rrg-bengioy-ad/pragov/crystal_structure_design/SSSP/ti_pbe_v1.4.uspp.F.UPF
     MD5 check sum: 88a00a6731bd790ddea75d31a80cb452
     Pseudo is Ultrasoft + core correction, Zval = 12.0
     Generated by new atomic code, or converted to UPF format
     Using radial grid of  851 points,  6 beta functions with:
                l(1) =   0
                l(2) =   0
                l(3) =   1
                l(4) =   1
                l(5) =   2
                l(6) =   2
     Q(r) pseudized with  6 coefficients,  rinner =    1.000   1.000   1.000
                                                       1.000   1.000

     PseudoPot. # 2 for P  read from file:
     /home/pragov/projects/rrg-bengioy-ad/pragov/crystal_structure_design/SSSP/P.pbe-n-rrkjus_psl.1.0.0.UPF
     MD5 check sum: 8b930f418f0a4573dca56cd030ffe088
     Pseudo is Ultrasoft + core correction, Zval =  5.0
     Generated using "atomic" code by A. Dal Corso  v.5.1
     Using radial grid of 1147 points,  6 beta functions with:
                l(1) =   0
                l(2) =   0
                l(3) =   1
                l(4) =   1
                l(5) =   2
                l(6) =   2
     Q(r) pseudized with 0 coefficients

     PseudoPot. # 3 for Os read from file:
     /home/pragov/projects/rrg-bengioy-ad/pragov/crystal_structure_design/SSSP/Os_pbe_v1.2.uspp.F.UPF
     MD5 check sum: a3fb40a04f0c37c25c34bbc47164c9a8
     Pseudo is Ultrasoft + core correction, Zval = 16.0
     Generated by new atomic code, or converted to UPF format
     Using radial grid of  983 points,  8 beta functions with:
                l(1) =   0
                l(2) =   0
                l(3) =   1
                l(4) =   1
                l(5) =   2
                l(6) =   2
                l(7) =   3
                l(8) =   3
     Q(r) pseudized with  8 coefficients,  rinner =    1.150   1.150   1.150
                                                       1.150   1.150   1.150
                                                       1.150

     atomic species   valence    mass     pseudopotential
        Ti            12.00    47.86700     Ti( 1.00)
        P              5.00    30.97376     P ( 1.00)
        Os            16.00   190.23000     Os( 1.00)

     12 Sym. Ops. (no inversion) found

                                    s                        frac. trans.

      isym =  1     identity

 cryst.   s( 1) = (     1          0          0      )
                  (     0          1          0      )
                  (     0          0          1      )

 cart.    s( 1) = (  1.0000000  0.0000000  0.0000000 )
                  (  0.0000000  1.0000000  0.0000000 )
                  (  0.0000000  0.0000000  1.0000000 )

      isym =  2     180 deg rotation - cart. axis [1,0,0]

[...]

      isym =  3     120 deg rotation - cryst. axis [0,0,1]

[...]

      isym =  6     180 deg rotation - cryst. axis [1,1,0]

[...]

      isym =  7     inv. 180 deg rotation - cart. axis [0,0,1]

[...]

      isym =  8     inv. 180 deg rotation - cart. axis [0,1,0]

[...]

      isym =  9     inv.  60 deg rotation - cryst. axis [0,0,1]

 cryst.   s( 9) = (    -1         -1          0      )
                  (     1          0          0      )
                  (     0          0         -1      )

 cart.    s( 9) = ( -0.5000000  0.8660254  0.0000000 )
                  ( -0.8660254 -0.5000000  0.0000000 )
                  (  0.0000000  0.0000000 -1.0000000 )

[...]

 cryst.   s(10) = (     0          1          0      )
                  (    -1         -1          0      )
                  (     0          0         -1      )

 cart.    s(10) = ( -0.5000000 -0.8660254  0.0000000 )
                  (  0.8660254 -0.5000000  0.0000000 )
                  (  0.0000000  0.0000000 -1.0000000 )

[...]

      isym = 12     inv. 180 deg rotation - cryst. axis [2,1,0]

 cryst.   s(12) = (    -1         -1          0      )
                  (     0          1          0      )
                  (     0          0          1      )

 cart.    s(12) = ( -0.5000000 -0.8660254  0.0000000 )
                  ( -0.8660254  0.5000000  0.0000000 )
                  (  0.0000000  0.0000000  1.0000000 )

   Cartesian axes

     site n.     atom                  positions (alat units)
         1           Ti  tau(   1) = (   0.2073020   0.3590576   0.2963923  )
         2           Ti  tau(   2) = (   0.5853960   0.0000000   0.2963923  )
         3           Ti  tau(   3) = (  -0.2926980   0.5069678   0.2963923  )
         4           P   tau(   4) = (   0.5000005   0.2886749   0.0000000  )
         5           P   tau(   5) = (  -0.0000005   0.5773506   0.0000000  )
         6           P   tau(   6) = (   0.0000000   0.0000000   0.2963923  )
         7           Os  tau(   7) = (   0.3735590   0.6470232   0.0000000  )
         8           Os  tau(   8) = (   0.2528820   0.0000000   0.0000000  )
         9           Os  tau(   9) = (  -0.1264410   0.2190022   0.0000000  )

   Crystallographic axes

     site n.     atom                  positions (cryst. coord.)
         1           Ti  tau(   1) = (  0.4146040  0.4146040  0.5000000  )
         2           Ti  tau(   2) = (  0.5853960  0.0000000  0.5000000  )
         3           Ti  tau(   3) = ( -0.0000000  0.5853960  0.5000000  )
         4           P   tau(   4) = (  0.6666670  0.3333330  0.0000000  )
         5           P   tau(   5) = (  0.3333330  0.6666670  0.0000000  )
         6           P   tau(   6) = (  0.0000000  0.0000000  0.5000000  )
         7           Os  tau(   7) = (  0.7471180  0.7471180  0.0000000  )
         8           Os  tau(   8) = (  0.2528820  0.0000000  0.0000000  )
         9           Os  tau(   9) = (  0.0000000  0.2528820  0.0000000  )

     number of k points=     1  Methfessel-Paxton smearing, width (Ry)=  0.0010
                       cart. coord. in units 2pi/alat
        k(    1) = (   0.0000000   0.0000000   0.0000000), wk =   2.0000000

                       cryst. coord.
        k(    1) = (   0.0000000   0.0000000   0.0000000), wk =   2.0000000

     Check: negative core charge=   -0.000004

     Initial potential from superposition of free atoms

     starting charge      94.4993, renormalised to      99.0000

     negative rho (up, down):  3.868E-01 0.000E+00
     Starting wfcs are   81 randomized atomic wfcs

     Self-consistent Calculation

     iteration #  1     ecut=    30.00 Ry     beta= 0.70
     Davidson diagonalization with overlap

     ethr =  1.00E-02,  avg # of iterations =  4.0

     negative rho (up, down):  4.144E-01 0.000E+00

     total energy              =    -988.67052160 Ry
     estimated scf accuracy    <      10.41525744 Ry

[...]

     ethr =  1.56E-05,  avg # of iterations =  1.0
     Minimization algorithm failed to find Fermi energy: reverting to bisection
     Possible cause: smearing is larger than the electronic band-gap.

[...]

     ethr =  4.14E-08,  avg # of iterations =  1.0

[...]

     total energy              =    -996.02620696 Ry
     estimated scf accuracy    <       0.00000145 Ry

     iteration # 29     ecut=    30.00 Ry     beta= 0.70
     Davidson diagonalization with overlap

     ethr =  1.47E-09,  avg # of iterations =  2.0
     Minimization algorithm failed to find Fermi energy: reverting to bisection
     Possible cause: smearing is larger than the electronic band-gap.

[...]

     End of self-consistent calculation

          k = 0.0000 0.0000 0.0000 (  1156 PWs)   bands (ev):

   -67.9386 -67.9170 -67.9169 -38.1705 -38.1549 -38.1547 -27.6522 -27.4113
   -27.4112 -27.3307 -27.2852 -27.2850 -27.2344 -27.2344 -27.1842 -14.6648
   -14.5965 -14.5791 -14.5790 -14.5336 -14.5334 -14.2621 -14.2618 -14.2263
     4.6922   6.4757   6.9363  11.4973  11.4973  11.7466  12.2474  12.2474
    13.2692  13.6269  13.6269  13.6981  14.4185  14.4185  15.2824  15.2825
    15.5625  15.7889  16.1684  16.1684  16.5933  16.5933  18.2693  18.7076
    18.7077  19.1071  19.1132  19.1133  19.3447  19.4830  20.0114  20.0114
    20.4473  20.6042  20.6116  20.6117

     occupation numbers
     1.0000   1.0000   1.0000   1.0000   1.0000   1.0000   1.0000   1.0000
     1.0000   1.0000   1.0000   1.0000   1.0000   1.0000   1.0000   1.0000
     1.0000   1.0000   1.0000   1.0000   1.0000   1.0000   1.0000   1.0000
     1.0000   1.0000   1.0000   1.0000   1.0000   1.0000   1.0000   1.0000
     1.0000   1.0000   1.0000   1.0000   1.0000   1.0000   1.0000   1.0000
     1.0000   1.0000   1.0000   1.0000   1.0000   1.0000   1.0000   1.0000
     1.0000   0.3591   0.0716   0.0694  -0.0000  -0.0000  -0.0000  -0.0000
    -0.0000  -0.0000  -0.0000  -0.0000

     the Fermi energy is    19.1048 ev

!    total energy              =    -996.02620615 Ry
     estimated scf accuracy    <       0.00000093 Ry
     smearing contrib. (-TS)   =      -0.00034539 Ry
     internal energy E=F+TS    =    -996.02586076 Ry

     The total energy is F=E-TS. E is the sum of the following terms:
     one-electron contribution =    -238.45191110 Ry
     hartree contribution      =     172.62724943 Ry
     xc contribution           =    -180.75705298 Ry
     ewald contribution        =    -749.44414611 Ry

     convergence has been achieved in  29 iterations

     negative rho (up, down):  3.525E-01 0.000E+00

     Forces acting on atoms (cartesian axes, Ry/au):

     atom    1 type  1   force =     0.02876577    0.04982377    0.00000000
     atom    2 type  1   force =    -0.05753154    0.00000000    0.00000000
     atom    3 type  1   force =     0.02876577   -0.04982377    0.00000000
     atom    4 type  2   force =     0.00000000   -0.00000000    0.00000000
     atom    5 type  2   force =     0.00000000   -0.00000000   -0.00000000
     atom    6 type  2   force =    -0.00000000    0.00000000    0.00000000
     atom    7 type  3   force =     0.00908850    0.01574174    0.00000000
     atom    8 type  3   force =    -0.01817700    0.00000000   -0.00000000
     atom    9 type  3   force =     0.00908850   -0.01574174    0.00000000
     The non-local contrib.  to forces
     atom    1 type  1   force =     0.04949570    0.08572906    0.00000000
     atom    2 type  1   force =    -0.09899140    0.00000000   -0.00000000
     atom    3 type  1   force =     0.04949570   -0.08572906    0.00000000
     atom    4 type  2   force =    -0.00000000    0.00000000    0.00000000
     atom    5 type  2   force =    -0.00000000    0.00000000   -0.00000000
     atom    6 type  2   force =     0.00000000   -0.00000000    0.00000000
     atom    7 type  3   force =     0.04043951    0.07004329    0.00000000
     atom    8 type  3   force =    -0.08087903    0.00000000    0.00000000
     atom    9 type  3   force =     0.04043951   -0.07004329   -0.00000000
     The ionic contribution  to forces
     atom    1 type  1   force =     1.18826559    2.05813630    0.00000000
     atom    2 type  1   force =    -2.37651325   -0.00001001    0.00000000
     atom    3 type  1   force =     1.18824789   -2.05812589    0.00000000
     atom    4 type  2   force =    -0.00003941    0.00002246   -0.00000000
     atom    5 type  2   force =     0.00003915   -0.00002290   -0.00000000
     atom    6 type  2   force =    -0.00000001   -0.00000002    0.00000000
     atom    7 type  3   force =    -4.38535025   -7.59564918   -0.00000000
     atom    8 type  3   force =     8.77064012    0.00003463   -0.00000000
     atom    9 type  3   force =    -4.38528984    7.59561461   -0.00000000
     The local contribution  to forces
     atom    1 type  1   force =    -1.20626275   -2.08918167   -0.00000123
     atom    2 type  1   force =     2.41156150    0.00009227   -0.00000313
     atom    3 type  1   force =    -1.20592631    2.08908057    0.00000180
     atom    4 type  2   force =     0.00029773    0.00066447    0.00000006
     atom    5 type  2   force =    -0.00082340   -0.00043166   -0.00000125
     atom    6 type  2   force =     0.00044771   -0.00010520   -0.00000060
     atom    7 type  3   force =     4.35931847    7.54669708    0.00000359
     atom    8 type  3   force =    -8.71617313   -0.00082896    0.00000590
     atom    9 type  3   force =     4.35786302   -7.54579841    0.00000236
     The core correction contribution to forces
     atom    1 type  1   force =    -0.00295138   -0.00510933   -0.00000004
     atom    2 type  1   force =     0.00589950   -0.00000027   -0.00000010
     atom    3 type  1   force =    -0.00295062    0.00510949    0.00000002
     atom    4 type  2   force =     0.00000245    0.00000208   -0.00000002
     atom    5 type  2   force =    -0.00000306   -0.00000013   -0.00000004
     atom    6 type  2   force =    -0.00000181    0.00000131    0.00000008
     atom    7 type  3   force =    -0.00363813   -0.00630243    0.00000021
     atom    8 type  3   force =     0.00729162   -0.00000828    0.00000005
     atom    9 type  3   force =    -0.00364234    0.00628972   -0.00000007
     The Hubbard contrib.    to forces
     atom    1 type  1   force =     0.00000000    0.00000000    0.00000000
     atom    2 type  1   force =     0.00000000    0.00000000    0.00000000
     atom    3 type  1   force =     0.00000000    0.00000000    0.00000000
     atom    4 type  2   force =     0.00000000    0.00000000    0.00000000
     atom    5 type  2   force =     0.00000000    0.00000000    0.00000000
     atom    6 type  2   force =     0.00000000    0.00000000    0.00000000
     atom    7 type  3   force =     0.00000000    0.00000000    0.00000000
     atom    8 type  3   force =     0.00000000    0.00000000    0.00000000
     atom    9 type  3   force =     0.00000000    0.00000000    0.00000000
     The SCF correction term to forces
     atom    1 type  1   force =     0.00019980    0.00019850    0.00000140
     atom    2 type  1   force =     0.00045539   -0.00008554    0.00000287
     atom    3 type  1   force =    -0.00011064   -0.00016078   -0.00000201
     atom    4 type  2   force =    -0.00017556   -0.00054583   -0.00000019
     atom    5 type  2   force =     0.00062731    0.00040205    0.00000025
     atom    6 type  2   force =    -0.00043151    0.00011291    0.00000206
     atom    7 type  3   force =    -0.00162547    0.00090547   -0.00000408
     atom    8 type  3   force =     0.00078908    0.00087806   -0.00000901
     atom    9 type  3   force =    -0.00020717   -0.00159842   -0.00000316

     Total force =     0.104503     Total SCF correction =     0.002978

     Computing stress (Cartesian axis) and pressure

     negative rho (up, down):  3.525E-01 0.000E+00
          total   stress  (Ry/bohr**3)                   (kbar)     P=     -127.24
  -0.00084356   0.00000000   0.00000000         -124.09        0.00        0.00
   0.00000000  -0.00084356   0.00000000            0.00     -124.09        0.00
   0.00000000   0.00000000  -0.00090770            0.00        0.00     -133.53

     kinetic stress (kbar)  32664.05     -0.00      0.00
                               -0.00  32664.05     -0.00
                                0.00     -0.00  32528.12

     local   stress (kbar)  23400.92      0.13     -0.00
                                0.13  23400.78      0.00
                               -0.00      0.00  26183.52

     nonloc. stress (kbar) -15532.20      0.00     -0.00
                                0.00 -15532.20      0.00
                               -0.00      0.00 -15525.55

     hartree stress (kbar)  10118.85     -0.24      0.00
                               -0.24  10119.40     -0.00
                                0.00     -0.00   9600.02

     exc-cor stress (kbar)   3828.00      0.00      0.00
                                0.00   3828.00     -0.00
                                0.00     -0.00   3821.33

     corecor stress (kbar) -12137.44     -0.00     -0.00
                               -0.00 -12137.42      0.00
                               -0.00      0.00 -12134.05

     ewald   stress (kbar) -42466.47     -0.01      0.00
                               -0.01 -42466.49     -0.00
                                0.00     -0.00 -44606.93

     hubbard stress (kbar)      0.00      0.00      0.00
                                0.00      0.00      0.00
                                0.00      0.00      0.00

     DFT-D   stress (kbar)      0.00      0.00      0.00
                                0.00      0.00      0.00
                                0.00      0.00      0.00

     XDM     stress (kbar)      0.00      0.00      0.00
                                0.00      0.00      0.00
                                0.00      0.00      0.00

     dft-nl  stress (kbar)      0.00      0.00      0.00
                                0.00      0.00      0.00
                                0.00      0.00      0.00

     TS-vdW  stress (kbar)      0.00      0.00      0.00
                                0.00      0.00      0.00
                                0.00      0.00      0.00

[...]

                                0.00      0.00      0.00

     Writing all to output data dir new_calculations/myprefix.save/

     General routines

     Parallel routines

   This run was terminated on:  13:23:43  21May2023

   JOB DONE.