     Program PWSCF v.7.0 starts on 21May2023 at  2:11:39

     Reading input from espresso_9885.pwi
Warning: card &CELL ignored
Warning: card / ignored

     Current dimensions of program PWSCF are:
     Max number of different atomic species (ntypx) = 10
     Max number of k-points (npk) =  40000
     Max angular momentum in pseudopotentials (lmaxx) =  4

     gamma-point specific algorithms are used
     Message from routine setup:
     using ibrav=0 with symmetry is DISCOURAGED, use correct ibrav instead

     Subspace diagonalization in iterative solution of the eigenvalue problem:
     a serial algorithm will be used

     Using Slab Decomposition

     bravais-lattice index     =            0
     lattice parameter (alat)  =       6.7195  a.u.
     unit-cell volume          =     697.9578 (a.u.)^3
     number of atoms/cell      =            6
     number of atomic types    =            3
     number of electrons       =        44.00
     number of Kohn-Sham states=           26
     kinetic-energy cutoff     =      30.0000  Ry
     charge density cutoff     =     240.0000  Ry
     scf convergence threshold =      1.0E-06
     mixing beta               =       0.7000
     number of iterations used =            8  plain     mixing
     Exchange-correlation=  SLA  PW   PBX  PBC
                           (   1   4   3   4   0   0   0)

     celldm(1)=   6.719488  celldm(2)=   0.000000  celldm(3)=   0.000000
     celldm(4)=   0.000000  celldm(5)=   0.000000  celldm(6)=   0.000000

     crystal axes: (cart. coord. in units of alat)
               a(1) = (   1.000000   0.000000   0.000000 )
               a(2) = (   0.000000   1.000000   0.000000 )
               a(3) = (   0.000000   0.000000   2.300491 )

     reciprocal axes: (cart. coord. in units 2 pi/alat)
               b(1) = (  1.000000  0.000000  0.000000 )
               b(2) = (  0.000000  1.000000  0.000000 )
               b(3) = (  0.000000  0.000000  0.434690 )

     PseudoPot. # 1 for Zr read from file:
     /home/pragov/projects/rrg-bengioy-ad/pragov/crystal_structure_design/SSSP/Zr_pbe_v1.uspp.F.UPF
     MD5 check sum: 5db81b1e868ab7776c4564c113de050b
     Pseudo is Ultrasoft + core correction, Zval = 12.0
     Generated by new atomic code, or converted to UPF format
     Using radial grid of  887 points,  6 beta functions with:
                l(1) =   0
                l(2) =   0
                l(3) =   1
                l(4) =   1
                l(5) =   2
                l(6) =   2
     Q(r) pseudized with  6 coefficients,  rinner =    1.200   1.200   1.200
                                                       1.200   1.200

     PseudoPot. # 2 for Si read from file:
     /home/pragov/projects/rrg-bengioy-ad/pragov/crystal_structure_design/SSSP/Si.pbe-n-rrkjus_psl.1.0.0.UPF
     MD5 check sum: 0b0bb1205258b0d07b9f9672cf965d36
     Pseudo is Ultrasoft + core correction, Zval =  4.0
     Generated using "atomic" code by A. Dal Corso  v.5.1
     Using radial grid of 1141 points,  6 beta functions with:
                l(1) =   0
                l(2) =   0
                l(3) =   1
                l(4) =   1
                l(5) =   2
                l(6) =   2
     Q(r) pseudized with 0 coefficients

     PseudoPot. # 3 for S  read from file:
     /home/pragov/projects/rrg-bengioy-ad/pragov/crystal_structure_design/SSSP/s_pbe_v1.4.uspp.F.UPF
     MD5 check sum: 88d86576ff6df21479756cfb9bdac1df
     Pseudo is Ultrasoft + core correction, Zval =  6.0
     Generated by new atomic code, or converted to UPF format
     Using radial grid of  907 points,  6 beta functions with:
                l(1) =   0
                l(2) =   0
                l(3) =   1
                l(4) =   1
                l(5) =   2
                l(6) =   2
     Q(r) pseudized with  8 coefficients,  rinner =    1.300   1.300   1.300
                                                       1.300   1.300

     atomic species   valence    mass     pseudopotential
        Zr            12.00    91.22400     Zr( 1.00)
        Si             4.00    28.08500     Si( 1.00)
        S              6.00    32.06000     S ( 1.00)

     16 Sym. Ops., with inversion, found ( 8 have fractional translation)

                                    s                        frac. trans.

      isym =  1     identity

 cryst.   s( 1) = (     1          0          0      )
                  (     0          1          0      )
                  (     0          0          1      )

 cart.    s( 1) = (  1.0000000  0.0000000  0.0000000 )
                  (  0.0000000  1.0000000  0.0000000 )
                  (  0.0000000  0.0000000  1.0000000 )

      isym =  2     180 deg rotation - cart. axis [0,0,1]

[...]

 cryst.   s( 3) = (    -1          0          0      )    f =(  0.5000000 )
                  (     0          1          0      )       (  0.5000000 )
                  (     0          0         -1      )       (  0.0000000 )

 cart.    s( 3) = ( -1.0000000  0.0000000  0.0000000 )    f =(  0.5000000 )
                  (  0.0000000  1.0000000  0.0000000 )       (  0.5000000 )
                  (  0.0000000  0.0000000 -1.0000000 )       (  0.0000000 )

[...]

 cryst.   s( 6) = (     0         -1          0      )
                  (    -1          0          0      )
                  (     0          0         -1      )

 cart.    s( 6) = (  0.0000000 -1.0000000  0.0000000 )
                  ( -1.0000000  0.0000000  0.0000000 )
                  (  0.0000000  0.0000000 -1.0000000 )

[...]

      isym =  8      90 deg rotation - cart. axis [0,0,1]

[...]

      isym =  9     inversion

 cryst.   s( 9) = (    -1          0          0      )    f =(  0.5000000 )
                  (     0         -1          0      )       (  0.5000000 )
                  (     0          0         -1      )       (  0.0000000 )

 cart.    s( 9) = ( -1.0000000  0.0000000  0.0000000 )    f =(  0.5000000 )
                  (  0.0000000 -1.0000000  0.0000000 )       (  0.5000000 )
                  (  0.0000000  0.0000000 -1.0000000 )       (  0.0000000 )

      isym = 10     inv. 180 deg rotation - cart. axis [0,0,1]

 cryst.   s(10) = (     1          0          0      )    f =( -0.5000000 )
                  (     0          1          0      )       (  0.5000000 )
                  (     0          0         -1      )       (  0.0000000 )

 cart.    s(10) = (  1.0000000  0.0000000  0.0000000 )    f =( -0.5000000 )
                  (  0.0000000  1.0000000  0.0000000 )       (  0.5000000 )
                  (  0.0000000  0.0000000 -1.0000000 )       (  0.0000000 )

[...]

 cryst.   s(11) = (     1          0          0      )
                  (     0         -1          0      )
                  (     0          0          1      )

 cart.    s(11) = (  1.0000000  0.0000000  0.0000000 )
                  (  0.0000000 -1.0000000  0.0000000 )
                  (  0.0000000  0.0000000  1.0000000 )

[...]

 cryst.   s(14) = (     0          1          0      )    f =( -0.5000000 )
                  (     1          0          0      )       (  0.5000000 )
                  (     0          0          1      )       (  0.0000000 )

 cart.    s(14) = (  0.0000000  1.0000000  0.0000000 )    f =( -0.5000000 )
                  (  1.0000000  0.0000000  0.0000000 )       (  0.5000000 )
                  (  0.0000000  0.0000000  1.0000000 )       (  0.0000000 )

[...]

      isym = 16     inv.  90 deg rotation - cart. axis [0,0,1]

 cryst.   s(16) = (     0         -1          0      )
                  (     1          0          0      )
                  (     0          0         -1      )

 cart.    s(16) = (  0.0000000  1.0000000  0.0000000 )
                  ( -1.0000000  0.0000000  0.0000000 )
                  (  0.0000000  0.0000000 -1.0000000 )

   Cartesian axes

     site n.     atom                  positions (alat units)
         1           Zr  tau(   1) = (   0.0000000   0.5000000   1.6839619  )
         2           Zr  tau(   2) = (   0.5000000   0.0000000   0.6165294  )
         3           Si  tau(   3) = (   0.0000000   0.0000000   0.0000000  )
         4           Si  tau(   4) = (   0.5000000   0.5000000   0.0000000  )
         5           S   tau(   5) = (   0.5000000   0.0000000   1.4311264  )
         6           S   tau(   6) = (   0.0000000   0.5000000   0.8693649  )

   Crystallographic axes

     site n.     atom                  positions (cryst. coord.)
         1           Zr  tau(   1) = (  0.0000000  0.5000000  0.7320010  )
         2           Zr  tau(   2) = (  0.5000000  0.0000000  0.2679990  )
         3           Si  tau(   3) = (  0.0000000  0.0000000  0.0000000  )
         4           Si  tau(   4) = (  0.5000000  0.5000000  0.0000000  )
         5           S   tau(   5) = (  0.5000000  0.0000000  0.6220960  )
         6           S   tau(   6) = (  0.0000000  0.5000000  0.3779040  )

     number of k points=     1  Methfessel-Paxton smearing, width (Ry)=  0.0010
                       cart. coord. in units 2pi/alat
        k(    1) = (   0.0000000   0.0000000   0.0000000), wk =   2.0000000

                       cryst. coord.
        k(    1) = (   0.0000000   0.0000000   0.0000000), wk =   2.0000000

     Check: negative core charge=   -0.000002

     Initial potential from superposition of free atoms

     starting charge      43.9945, renormalised to      44.0000

     negative rho (up, down):  1.200E-01 0.000E+00
     Starting wfcs are   42 randomized atomic wfcs

     Self-consistent Calculation

     iteration #  1     ecut=    30.00 Ry     beta= 0.70
     Davidson diagonalization with overlap

     ethr =  1.00E-02,  avg # of iterations =  4.0

     Threshold (ethr) on eigenvalues was too large:
     Diagonalizing with lowered threshold

     Davidson diagonalization with overlap

[...]

     negative rho (up, down):  1.220E-01 0.000E+00

     total energy              =    -268.86384634 Ry
     estimated scf accuracy    <       0.33404984 Ry

[...]

     total energy              =    -268.97426123 Ry
     estimated scf accuracy    <       0.00000139 Ry

     iteration # 11     ecut=    30.00 Ry     beta= 0.70
     Davidson diagonalization with overlap

     ethr =  3.16E-09,  avg # of iterations =  4.0

[...]

     End of self-consistent calculation

          k = 0.0000 0.0000 0.0000 (   972 PWs)   bands (ev):

   -36.7440 -36.7426 -15.0273 -14.9794 -14.6356 -14.6356 -14.6309 -14.6308
    -1.5911  -0.1339   0.3988   7.1275   7.3052   9.1495   9.1495   9.3513
     9.7873   9.7873  10.5671  11.1664  11.1665  11.2860  12.7130  13.2886
    13.8327  13.8330

     occupation numbers
     1.0000   1.0000   1.0000   1.0000   1.0000   1.0000   1.0000   1.0000
     1.0000   1.0000   1.0000   1.0000   1.0000   1.0000   1.0000   1.0000
     1.0000   1.0000   1.0000   1.0000   1.0000   1.0000  -0.0000  -0.0000
    -0.0000  -0.0000

     the Fermi energy is    12.3800 ev

!    total energy              =    -268.97426156 Ry
     estimated scf accuracy    <       0.00000006 Ry
     smearing contrib. (-TS)   =       0.00000000 Ry
     internal energy E=F+TS    =    -268.97426156 Ry

     The total energy is F=E-TS. E is the sum of the following terms:
     one-electron contribution =     -34.26374158 Ry
     hartree contribution      =      39.09981170 Ry
     xc contribution           =     -65.36003648 Ry
     ewald contribution        =    -208.45029519 Ry

     convergence has been achieved in  11 iterations

     negative rho (up, down):  1.225E-01 0.000E+00

     Forces acting on atoms (cartesian axes, Ry/au):

     atom    1 type  1   force =     0.00000000    0.00000000    0.14153363
     atom    2 type  1   force =     0.00000000    0.00000000   -0.14153363
     atom    3 type  2   force =     0.00000000    0.00000000    0.00000000
     atom    4 type  2   force =     0.00000000    0.00000000    0.00000000
     atom    5 type  3   force =     0.00000000    0.00000000    0.04064107
     atom    6 type  3   force =     0.00000000    0.00000000   -0.04064107
     The non-local contrib.  to forces
     atom    1 type  1   force =     0.00000000    0.00000000   -0.28184965
     atom    2 type  1   force =     0.00000000    0.00000000    0.28184965
     atom    3 type  2   force =     0.00000000    0.00000000    0.00000000
     atom    4 type  2   force =     0.00000000    0.00000000    0.00000000
     atom    5 type  3   force =     0.00000000    0.00000000    0.38825029
     atom    6 type  3   force =     0.00000000    0.00000000   -0.38825029
     The ionic contribution  to forces
     atom    1 type  1   force =     0.00000000   -0.00000000    4.47927484
     atom    2 type  1   force =    -0.00000000    0.00000000   -4.47927484
     atom    3 type  2   force =     0.00000000    0.00000000   -0.00000000
     atom    4 type  2   force =    -0.00000000   -0.00000000   -0.00000000
     atom    5 type  3   force =    -0.00000000    0.00000000    0.04617193
     atom    6 type  3   force =     0.00000000   -0.00000000   -0.04617193
     The local contribution  to forces
     atom    1 type  1   force =     0.00005083   -0.00003672   -4.07081006
     atom    2 type  1   force =    -0.00000345    0.00003028    4.07060943
     atom    3 type  2   force =     0.00001334    0.00000660    0.00020015
     atom    4 type  2   force =    -0.00001193   -0.00000587    0.00019422
     atom    5 type  3   force =    -0.00000923    0.00003588   -0.37258567
     atom    6 type  3   force =    -0.00003424   -0.00001703    0.37199848
     The core correction contribution to forces
     atom    1 type  1   force =     0.00000107   -0.00000005    0.01427945
     atom    2 type  1   force =    -0.00000107    0.00000084   -0.01427984
     atom    3 type  2   force =     0.00000073    0.00000027    0.00000159
     atom    4 type  2   force =    -0.00000045   -0.00000027    0.00000162
     atom    5 type  3   force =    -0.00000111    0.00000128   -0.02166154
     atom    6 type  3   force =    -0.00000114   -0.00000082    0.02165432
     The Hubbard contrib.    to forces
     atom    1 type  1   force =     0.00000000    0.00000000    0.00000000
     atom    2 type  1   force =     0.00000000    0.00000000    0.00000000
     atom    3 type  2   force =     0.00000000    0.00000000    0.00000000
     atom    4 type  2   force =     0.00000000    0.00000000    0.00000000
     atom    5 type  3   force =     0.00000000    0.00000000    0.00000000
     atom    6 type  3   force =     0.00000000    0.00000000    0.00000000
     The SCF correction term to forces
     atom    1 type  1   force =    -0.00004465    0.00003167    0.00061852
     atom    2 type  1   force =     0.00001159   -0.00002825   -0.00045857
     atom    3 type  2   force =    -0.00000736   -0.00000375   -0.00018202
     atom    4 type  2   force =     0.00000761    0.00000367   -0.00017871
     atom    5 type  3   force =     0.00002148   -0.00001546    0.00039989
     atom    6 type  3   force =    -0.00000677    0.00001658    0.00006220

     Total force =     0.208247     Total SCF correction =     0.000909

     Computing stress (Cartesian axis) and pressure

     negative rho (up, down):  1.225E-01 0.000E+00
          total   stress  (Ry/bohr**3)                   (kbar)     P=      185.48
   0.00149071   0.00000000   0.00000000          219.29        0.00        0.00
   0.00000000   0.00149071   0.00000000            0.00      219.29        0.00
   0.00000000   0.00000000   0.00080122            0.00        0.00      117.86

     kinetic stress (kbar)  11272.42      0.00      0.00
                                0.00  11272.42      0.00
                                0.00      0.00  10729.40

     local   stress (kbar)  -6617.55     -0.03     -0.04
                               -0.03  -6617.53      0.00
                               -0.04      0.00    508.44

     nonloc. stress (kbar)   8526.96      0.00      0.00
                                0.00   8526.96      0.00
                                0.00      0.00   8425.31

     hartree stress (kbar)   3731.48      0.01      0.01
                                0.01   3731.47      0.00
                                0.01      0.00    777.92

     exc-cor stress (kbar)   2575.60      0.00      0.00
                                0.00   2575.60     -0.00
                                0.00     -0.00   2566.35

     corecor stress (kbar)  -5836.23      0.00     -0.00
                                0.00  -5836.23     -0.00
                               -0.00     -0.00  -5822.32

     ewald   stress (kbar) -13433.40     -0.00     -0.00
                               -0.00 -13433.40      0.00
                               -0.00      0.00 -17067.23

     hubbard stress (kbar)      0.00      0.00      0.00
                                0.00      0.00      0.00
                                0.00      0.00      0.00

     DFT-D   stress (kbar)      0.00      0.00      0.00
                                0.00      0.00      0.00
                                0.00      0.00      0.00

     XDM     stress (kbar)      0.00      0.00      0.00
                                0.00      0.00      0.00
                                0.00      0.00      0.00

     dft-nl  stress (kbar)      0.00      0.00      0.00
                                0.00      0.00      0.00
                                0.00      0.00      0.00

     TS-vdW  stress (kbar)      0.00      0.00      0.00
                                0.00      0.00      0.00
                                0.00      0.00      0.00

[...]

                                0.00      0.00      0.00

     Writing all to output data dir new_calculations/myprefix.save/

     General routines

     Parallel routines

   This run was terminated on:   2:11:47  21May2023

   JOB DONE.