     Program PWSCF v.7.0 starts on 21May2023 at  3:34:32

     Reading input from espresso_21516.pwi
Warning: card &CELL ignored
Warning: card / ignored

     Current dimensions of program PWSCF are:
     Max number of different atomic species (ntypx) = 10
     Max number of k-points (npk) =  40000
     Max angular momentum in pseudopotentials (lmaxx) =  4
     file Nb.pbe-spn-kjpaw_psl.0.3.0.UPF: wavefunction(s)  4S 4P renormalized

     gamma-point specific algorithms are used
     Message from routine setup:
     using ibrav=0 with symmetry is DISCOURAGED, use correct ibrav instead

     Subspace diagonalization in iterative solution of the eigenvalue problem:
     a serial algorithm will be used

     Using Slab Decomposition

     bravais-lattice index     =            0
     lattice parameter (alat)  =       9.1046  a.u.
     unit-cell volume          =     898.5532 (a.u.)^3
     number of atoms/cell      =            9
     number of atomic types    =            2
     number of electrons       =        63.00
     number of Kohn-Sham states=           38
     kinetic-energy cutoff     =      30.0000  Ry
     charge density cutoff     =     240.0000  Ry
     scf convergence threshold =      1.0E-06
     mixing beta               =       0.7000
     number of iterations used =            8  plain     mixing
     Exchange-correlation= PBE
                           (   1   4   3   4   0   0   0)

     celldm(1)=   9.104617  celldm(2)=   0.000000  celldm(3)=   0.000000
     celldm(4)=   0.000000  celldm(5)=   0.000000  celldm(6)=   0.000000

     crystal axes: (cart. coord. in units of alat)
               a(1) = (   1.000000   0.000000   0.000000 )
               a(2) = (  -0.500000   0.866025   0.000000 )
               a(3) = (   0.000000   0.000000   1.374764 )

     reciprocal axes: (cart. coord. in units 2 pi/alat)
               b(1) = (  1.000000  0.577350  0.000000 )
               b(2) = (  0.000000  1.154700  0.000000 )
               b(3) = (  0.000000  0.000000  0.727398 )

     PseudoPot. # 1 for Nb read from file:
     /home/pragov/projects/rrg-bengioy-ad/pragov/crystal_structure_design/SSSP/Nb.pbe-spn-kjpaw_psl.0.3.0.UPF
     MD5 check sum: 411d72ad547312f8017e2943ceca08cc
     Pseudo is Projector augmented-wave + core cor, Zval = 13.0
     Generated using "atomic" code by A. Dal Corso  v.5.0.99 svn rev. 10869
     Shape of augmentation charge: PSQ
     Using radial grid of 1227 points,  6 beta functions with:
                l(1) =   0
                l(2) =   0
                l(3) =   1
                l(4) =   1
                l(5) =   2
                l(6) =   2
     Q(r) pseudized with 0 coefficients

     PseudoPot. # 2 for Si read from file:
     /home/pragov/projects/rrg-bengioy-ad/pragov/crystal_structure_design/SSSP/Si.pbe-n-rrkjus_psl.1.0.0.UPF
     MD5 check sum: 0b0bb1205258b0d07b9f9672cf965d36
     Pseudo is Ultrasoft + core correction, Zval =  4.0
     Generated using "atomic" code by A. Dal Corso  v.5.1
     Using radial grid of 1141 points,  6 beta functions with:
                l(1) =   0
                l(2) =   0
                l(3) =   1
                l(4) =   1
                l(5) =   2
                l(6) =   2
     Q(r) pseudized with 0 coefficients

     atomic species   valence    mass     pseudopotential
        Nb            13.00    92.90637     Nb( 1.00)
        Si             4.00    28.08500     Si( 1.00)

     12 Sym. Ops. (no inversion) found ( 8 have fractional translation)

                                    s                        frac. trans.

      isym =  1     identity

 cryst.   s( 1) = (     1          0          0      )
                  (     0          1          0      )
                  (     0          0          1      )

 cart.    s( 1) = (  1.0000000 -0.0000000  0.0000000 )
                  (  0.0000000  1.0000000  0.0000000 )
                  (  0.0000000  0.0000000  1.0000000 )

      isym =  2     180 deg rotation - cart. axis [0,0,1]

[...]

      isym =  4     180 deg rotation - cart. axis [1,0,0]

 cryst.   s( 4) = (     1          0          0      )
                  (    -1         -1          0      )
                  (     0          0         -1      )

 cart.    s( 4) = (  1.0000000 -0.0000001  0.0000000 )
                  (  0.0000000 -1.0000000  0.0000000 )
                  (  0.0000000  0.0000000 -1.0000000 )

      isym =  5      60 deg rotation - cryst. axis [0,0,1]

 cryst.   s( 5) = (     1          1          0      )    f =(  0.0000000 )
                  (    -1          0          0      )       ( -0.0000000 )
                  (     0          0          1      )       (  0.3333340 )

 cart.    s( 5) = (  0.5000001 -0.8660254  0.0000000 )    f =(  0.0000000 )
                  (  0.8660254  0.4999999  0.0000000 )       ( -0.0000000 )
                  (  0.0000000  0.0000000  1.0000000 )       (  0.4582556 )

[...]

 cryst.   s( 9) = (     0         -1          0      )    f =(  0.0000000 )
                  (    -1          0          0      )       (  0.0000000 )
                  (     0          0         -1      )       ( -0.3333330 )

 cart.    s( 9) = (  0.4999999 -0.8660254  0.0000000 )    f =(  0.0000000 )
                  ( -0.8660254 -0.4999999  0.0000000 )       (  0.0000000 )
                  (  0.0000000  0.0000000 -1.0000000 )       ( -0.4582542 )

[...]

 cryst.   s(10) = (     1          1          0      )    f =(  0.0000000 )
                  (     0         -1          0      )       (  0.0000000 )
                  (     0          0         -1      )       (  0.3333340 )

 cart.    s(10) = (  0.5000001  0.8660253  0.0000000 )    f =( -0.0000000 )
                  (  0.8660254 -0.5000001  0.0000000 )       (  0.0000000 )
                  (  0.0000000  0.0000000 -1.0000000 )       (  0.4582556 )

[...]

      isym = 12     180 deg rotation - cryst. axis [1,1,0]

 cryst.   s(12) = (     0          1          0      )    f =(  0.0000000 )
                  (     1          0          0      )       (  0.0000000 )
                  (     0          0         -1      )       ( -0.3333330 )

 cart.    s(12) = ( -0.4999999  0.8660254  0.0000000 )    f =(  0.0000000 )
                  (  0.8660254  0.4999999  0.0000000 )       (  0.0000000 )
                  (  0.0000000  0.0000000 -1.0000000 )       ( -0.4582542 )

   Cartesian axes

     site n.     atom                  positions (alat units)
         1           Nb  tau(   1) = (  -0.2500000   0.4330127   0.4582542  )
         2           Nb  tau(   2) = (   0.2500000   0.4330127   0.9165098  )
         3           Nb  tau(   3) = (   0.5000000   0.0000000   0.0000000  )
         4           Si  tau(   4) = (   0.5000005   0.5902370   0.0000000  )
         5           Si  tau(   5) = (  -0.2611610   0.7281317   0.9165098  )
         6           Si  tau(   6) = (   0.2611600   0.7281317   0.4582542  )
         7           Si  tau(   7) = (  -0.0000005   0.2757884   0.0000000  )
         8           Si  tau(   8) = (   0.7611610   0.1378938   0.9165098  )
         9           Si  tau(   9) = (   0.2388400   0.1378938   0.4582542  )

   Crystallographic axes

     site n.     atom                  positions (cryst. coord.)
         1           Nb  tau(   1) = ( -0.0000000  0.5000000  0.3333330  )
         2           Nb  tau(   2) = (  0.5000000  0.5000000  0.6666670  )
         3           Nb  tau(   3) = (  0.5000000  0.0000000  0.0000000  )
         4           Si  tau(   4) = (  0.8407740  0.6815470  0.0000000  )
         5           Si  tau(   5) = (  0.1592260  0.8407740  0.6666670  )
         6           Si  tau(   6) = (  0.6815470  0.8407740  0.3333330  )
         7           Si  tau(   7) = (  0.1592260  0.3184530  0.0000000  )
         8           Si  tau(   8) = (  0.8407740  0.1592260  0.6666670  )
         9           Si  tau(   9) = (  0.3184530  0.1592260  0.3333330  )

     number of k points=     1  Methfessel-Paxton smearing, width (Ry)=  0.0010
                       cart. coord. in units 2pi/alat
        k(    1) = (   0.0000000   0.0000000   0.0000000), wk =   2.0000000

                       cryst. coord.
        k(    1) = (   0.0000000   0.0000000   0.0000000), wk =   2.0000000

     Check: negative core charge=   -0.000010

     Initial potential from superposition of free atoms

     starting charge      62.9903, renormalised to      63.0000
     Starting wfcs are   54 randomized atomic wfcs
     Checking if some PAW data can be deallocated...

     Self-consistent Calculation

     iteration #  1     ecut=    30.00 Ry     beta= 0.70
     Davidson diagonalization with overlap

     ethr =  1.00E-02,  avg # of iterations =  3.0

     total energy              =   -1071.36258322 Ry
     estimated scf accuracy    <       1.11495315 Ry

[...]

     total energy              =   -1071.90701651 Ry
     estimated scf accuracy    <       0.00000813 Ry

     iteration # 11     ecut=    30.00 Ry     beta= 0.70
     Davidson diagonalization with overlap

     ethr =  1.29E-08,  avg # of iterations =  5.0

     End of self-consistent calculation

          k = 0.0000 0.0000 0.0000 (  1250 PWs)   bands (ev):

   -41.0100 -40.9776 -40.9756 -17.2412 -17.1681 -17.1669 -17.0778 -17.0760
   -17.0596 -17.0575 -17.0563 -16.8991   1.7741   4.8436   4.8437   8.1818
     8.7743   8.7747   8.9808   8.9810   9.7902  10.7469  10.7469  11.0779
    12.0223  12.0226  12.0817  12.0821  12.2555  12.2561  12.3264  13.2311
    14.8909  17.1852  17.3868  17.4272  17.4275  17.5085

     occupation numbers
     1.0000   1.0000   1.0000   1.0000   1.0000   1.0000   1.0000   1.0000
     1.0000   1.0000   1.0000   1.0000   1.0000   1.0000   1.0000   1.0000
     1.0000   1.0000   1.0000   1.0000   1.0000   1.0000   1.0000   1.0000
     1.0000   1.0000   1.0000   1.0000   1.0000   1.0000   1.0000   0.5000
    -0.0000  -0.0000  -0.0000  -0.0000  -0.0000  -0.0000

     the Fermi energy is    13.2311 ev

!    total energy              =   -1071.90701838 Ry
     estimated scf accuracy    <       0.00000087 Ry
     smearing contrib. (-TS)   =      -0.00028209 Ry
     internal energy E=F+TS    =   -1071.90673629 Ry

     The total energy is F=E-TS. E is the sum of the following terms:
     one-electron contribution =     -65.21415713 Ry
     hartree contribution      =      68.84267835 Ry
     xc contribution           =    -124.31022918 Ry
     ewald contribution        =    -325.78199575 Ry
     one-center paw contrib.   =    -625.44303258 Ry
      -> PAW hartree energy AE =     205.08799009 Ry
      -> PAW hartree energy PS =    -203.98478067 Ry
      -> PAW xc energy AE      =    -707.51478860 Ry
      -> PAW xc energy PS      =      80.96854661 Ry
      -> total E_H with PAW    =      69.94588776 Ry
      -> total E_XC with PAW   =    -750.85647117 Ry

     convergence has been achieved in  11 iterations

     Forces acting on atoms (cartesian axes, Ry/au):

     atom    1 type  1   force =    -0.00000000   -0.00000000    0.00000000
     atom    2 type  1   force =     0.00000000    0.00000000    0.00000000
     atom    3 type  1   force =     0.00000000   -0.00000000    0.00000000
     atom    4 type  2   force =    -0.00000000   -0.02240580   -0.00000000
     atom    5 type  2   force =     0.01940399   -0.01120290    0.00000000
     atom    6 type  2   force =    -0.01940399   -0.01120290   -0.00000000
     atom    7 type  2   force =     0.00000000    0.02240580   -0.00000000
     atom    8 type  2   force =    -0.01940399    0.01120290    0.00000000
     atom    9 type  2   force =     0.01940399    0.01120290    0.00000000
     The non-local contrib.  to forces
     atom    1 type  1   force =     0.00000000    0.00000000    0.00000000
     atom    2 type  1   force =    -0.00000000    0.00000000    0.00000000
     atom    3 type  1   force =     0.00000000    0.00000000    0.00000000
     atom    4 type  2   force =    -0.00000000    0.01157047    0.00000000
     atom    5 type  2   force =    -0.01002033    0.00578524    0.00000000
     atom    6 type  2   force =     0.01002033    0.00578524    0.00000000
     atom    7 type  2   force =    -0.00000000   -0.01157047    0.00000000
     atom    8 type  2   force =     0.01002033   -0.00578524    0.00000000
     atom    9 type  2   force =    -0.01002033   -0.00578524   -0.00000000
     The ionic contribution  to forces
     atom    1 type  1   force =     0.00000000    0.00000000    0.00009002
     atom    2 type  1   force =    -0.00000000    0.00000000   -0.00007685
     atom    3 type  1   force =    -0.00000000   -0.00000000   -0.00001317
     atom    4 type  2   force =    -0.00001251    0.46797814   -0.00000228
     atom    5 type  2   force =    -0.40526839    0.23397478   -0.00002952
     atom    6 type  2   force =     0.40528722    0.23397115    0.00003180
     atom    7 type  2   force =     0.00001251   -0.46797814   -0.00000228
     atom    8 type  2   force =     0.40526839   -0.23397478   -0.00002952
     atom    9 type  2   force =    -0.40528722   -0.23397115    0.00003180
     The local contribution  to forces
     atom    1 type  1   force =    -0.00004025    0.00030808    0.00112329
     atom    2 type  1   force =     0.00027199   -0.00003145   -0.00081142
     atom    3 type  1   force =    -0.00029858   -0.00010427   -0.00025522
     atom    4 type  2   force =    -0.00012610   -0.50054088   -0.00014782
     atom    5 type  2   force =     0.43345542   -0.25022804   -0.00021404
     atom    6 type  2   force =    -0.43341646   -0.25039188    0.00038411
     atom    7 type  2   force =     0.00019034    0.50052717   -0.00014050
     atom    8 type  2   force =    -0.43350051    0.25024869   -0.00021054
     atom    9 type  2   force =     0.43346642    0.25034787    0.00035010
     The core correction contribution to forces
     atom    1 type  1   force =    -0.00000037    0.00000366    0.00000635
     atom    2 type  1   force =     0.00000582    0.00000101   -0.00000162
     atom    3 type  1   force =    -0.00000044    0.00000014    0.00000394
     atom    4 type  2   force =     0.00000032   -0.00138587    0.00000590
     atom    5 type  2   force =     0.00120687   -0.00069479    0.00000178
     atom    6 type  2   force =    -0.00120232   -0.00069093   -0.00000420
     atom    7 type  2   force =     0.00000028    0.00138323    0.00000537
     atom    8 type  2   force =    -0.00120856    0.00069633    0.00000080
     atom    9 type  2   force =     0.00120477    0.00069082   -0.00000624
     The Hubbard contrib.    to forces
     atom    1 type  1   force =     0.00000000    0.00000000    0.00000000
     atom    2 type  1   force =     0.00000000    0.00000000    0.00000000
     atom    3 type  1   force =     0.00000000    0.00000000    0.00000000
     atom    4 type  2   force =     0.00000000    0.00000000    0.00000000
     atom    5 type  2   force =     0.00000000    0.00000000    0.00000000
     atom    6 type  2   force =     0.00000000    0.00000000    0.00000000
     atom    7 type  2   force =     0.00000000    0.00000000    0.00000000
     atom    8 type  2   force =     0.00000000    0.00000000    0.00000000
     atom    9 type  2   force =     0.00000000    0.00000000    0.00000000
     The SCF correction term to forces
     atom    1 type  1   force =     0.00003418   -0.00025814   -0.00115638
     atom    2 type  1   force =    -0.00023603    0.00002665    0.00086930
     atom    3 type  1   force =     0.00028406    0.00009580    0.00026738
     atom    4 type  2   force =     0.00012072    0.00000151    0.00017904
     atom    5 type  2   force =     0.00006665   -0.00004833    0.00024022
     atom    6 type  2   force =    -0.00006985    0.00012781   -0.00041895
     atom    7 type  2   force =    -0.00017216   -0.00000278    0.00016612
     atom    8 type  2   force =    -0.00004087    0.00004112    0.00023510
     atom    9 type  2   force =     0.00004866   -0.00009128   -0.00040180

     Total force =     0.054883     Total SCF correction =     0.001725

     Computing stress (Cartesian axis) and pressure

          total   stress  (Ry/bohr**3)                   (kbar)     P=      -72.44
  -0.00040106   0.00000000   0.00000000          -59.00        0.00        0.00
   0.00000000  -0.00040106   0.00000000            0.00      -59.00        0.00
   0.00000000   0.00000000  -0.00067509            0.00        0.00      -99.31

     kinetic stress (kbar)  16083.28     -0.00      0.00
                               -0.00  16083.28      0.00
                                0.00      0.00  16477.86

     local   stress (kbar)  -4005.18      0.03      0.04
                                0.03  -4005.15      0.01
                                0.04      0.01  -7396.42

     nonloc. stress (kbar)   6781.55     -0.00      0.00
                               -0.00   6781.55      0.00
                                0.00      0.00   6681.22

     hartree stress (kbar)   3372.62     -0.09     -0.02
                               -0.09   3372.52     -0.01
                               -0.02     -0.01   4525.32

     exc-cor stress (kbar)   7142.45      0.00     -0.00
                                0.00   7142.45     -0.00
                               -0.00     -0.00   7152.92

     corecor stress (kbar) -11022.13     -0.00      0.00
                               -0.00 -11022.13      0.00
                                0.00      0.00 -11028.47

     ewald   stress (kbar) -18411.56      0.02      0.00
                                0.02 -18411.54      0.00
                                0.00      0.00 -16511.74

     hubbard stress (kbar)      0.00      0.00      0.00
                                0.00      0.00      0.00
                                0.00      0.00      0.00

     DFT-D   stress (kbar)      0.00      0.00      0.00
                                0.00      0.00      0.00
                                0.00      0.00      0.00

     XDM     stress (kbar)      0.00      0.00      0.00
                                0.00      0.00      0.00
                                0.00      0.00      0.00

     dft-nl  stress (kbar)      0.00      0.00      0.00
                                0.00      0.00      0.00
                                0.00      0.00      0.00

     TS-vdW  stress (kbar)      0.00      0.00      0.00
                                0.00      0.00      0.00
                                0.00      0.00      0.00

[...]

                                0.00      0.00      0.00

     Writing all to output data dir new_calculations/myprefix.save/

     General routines

     Parallel routines

     PAW routines

   This run was terminated on:   3:34:45  21May2023

   JOB DONE.