     Program PWSCF v.7.0 starts on 20May2023 at 10:55:11

     Reading input from espresso_13332.pwi
Warning: card &CELL ignored
Warning: card / ignored

     Current dimensions of program PWSCF are:
     Max number of different atomic species (ntypx) = 10
     Max number of k-points (npk) =  40000
     Max angular momentum in pseudopotentials (lmaxx) =  4
     file O.pbe-n-kjpaw_psl.0.1.UPF: wavefunction(s)  2P renormalized

     gamma-point specific algorithms are used
     Message from routine setup:
     using ibrav=0 with symmetry is DISCOURAGED, use correct ibrav instead

     Subspace diagonalization in iterative solution of the eigenvalue problem:
     a serial algorithm will be used

     Using Slab Decomposition

     bravais-lattice index     =            0
     lattice parameter (alat)  =       9.5288  a.u.
     unit-cell volume          =     477.7728 (a.u.)^3
     number of atoms/cell      =            7
     number of atomic types    =            2
     number of electrons       =        60.00
     number of Kohn-Sham states=           36
     kinetic-energy cutoff     =      30.0000  Ry
     charge density cutoff     =     240.0000  Ry
     scf convergence threshold =      1.0E-06
     mixing beta               =       0.7000
     number of iterations used =            8  plain     mixing
     Exchange-correlation= SLA  PW   PBX  PBC
                           (   1   4   3   4   0   0   0)

     celldm(1)=   9.528757  celldm(2)=   0.000000  celldm(3)=   0.000000
     celldm(4)=   0.000000  celldm(5)=   0.000000  celldm(6)=   0.000000

     crystal axes: (cart. coord. in units of alat)
               a(1) = (   1.000000   0.000000   0.000000 )
               a(2) = (   0.320355   0.947298   0.000000 )
               a(3) = (  -0.660177  -0.473649   0.582943 )

     reciprocal axes: (cart. coord. in units 2 pi/alat)
               b(1) = (  1.000000 -0.338177  0.857717 )
               b(2) = (  0.000000  1.055634  0.857717 )
               b(3) = (  0.000000  0.000000  1.715433 )

     PseudoPot. # 1 for Ti read from file:
     /home/pragov/projects/rrg-bengioy-ad/pragov/crystal_structure_design/SSSP/ti_pbe_v1.4.uspp.F.UPF
     MD5 check sum: 88a00a6731bd790ddea75d31a80cb452
     Pseudo is Ultrasoft + core correction, Zval = 12.0
     Generated by new atomic code, or converted to UPF format
     Using radial grid of  851 points,  6 beta functions with:
                l(1) =   0
                l(2) =   0
                l(3) =   1
                l(4) =   1
                l(5) =   2
                l(6) =   2
     Q(r) pseudized with  6 coefficients,  rinner =    1.000   1.000   1.000
                                                       1.000   1.000

     PseudoPot. # 2 for O  read from file:
     /home/pragov/projects/rrg-bengioy-ad/pragov/crystal_structure_design/SSSP/O.pbe-n-kjpaw_psl.0.1.UPF
     MD5 check sum: 0234752ac141de4415c5fc33072bef88
     Pseudo is Projector augmented-wave + core cor, Zval =  6.0
     Generated using "atomic" code by A. Dal Corso  v.5.0.99 svn rev. 10869
     Shape of augmentation charge: BESSEL
     Using radial grid of 1095 points,  4 beta functions with:
                l(1) =   0
                l(2) =   0
                l(3) =   1
                l(4) =   1
     Q(r) pseudized with 0 coefficients

     atomic species   valence    mass     pseudopotential
        Ti            12.00    47.86700     Ti( 1.00)
        O              6.00    15.99900     O ( 1.00)

      4 Sym. Ops., with inversion, found

                                    s                        frac. trans.

      isym =  1     identity

 cryst.   s( 1) = (     1          0          0      )
                  (     0          1          0      )
                  (     0          0          1      )

 cart.    s( 1) = (  1.0000000  0.0000000 -0.0000000 )
                  (  0.0000000  1.0000000 -0.0000000 )
                  (  0.0000000  0.0000000  1.0000000 )

      isym =  2     180 deg rotation - cart. axis [0,0,1]

[...]

      isym =  3     inversion

[...]

      isym =  4     inv. 180 deg rotation - cart. axis [0,0,1]

 cryst.   s( 4) = (     1          0          0      )
                  (     0          1          0      )
                  (    -1         -1         -1      )

 cart.    s( 4) = (  1.0000000  0.0000000  0.0000000 )
                  (  0.0000000  1.0000000  0.0000000 )
                  (  0.0000000  0.0000000 -1.0000000 )

   Cartesian axes

     site n.     atom                  positions (alat units)
         1           Ti  tau(   1) = (   0.1601773   0.4736489   0.2914716  )
         2           Ti  tau(   2) = (   0.6601773   0.4736489   0.0000000  )
         3           Ti  tau(   3) = (   0.5000000   0.0000000   0.2914716  )
         4           O   tau(   4) = (  -0.1699114   0.2368244   0.2914716  )
         5           O   tau(   5) = (   0.3185118   0.2285185   0.0000000  )
         6           O   tau(   6) = (   0.1699114  -0.2368244   0.2914716  )
         7           O   tau(   7) = (   1.0018428   0.7187792   0.0000000  )

   Crystallographic axes

     site n.     atom                  positions (cryst. coord.)
         1           Ti  tau(   1) = (  0.2500000  0.7500000  0.5000000  )
         2           Ti  tau(   2) = (  0.5000000  0.5000000  0.0000000  )
         3           Ti  tau(   3) = (  0.7500000  0.2500000  0.5000000  )
         4           O   tau(   4) = ( -0.0000000  0.5000000  0.5000000  )
         5           O   tau(   5) = (  0.2412320  0.2412320  0.0000000  )
         6           O   tau(   6) = (  0.5000000 -0.0000000  0.5000000  )
         7           O   tau(   7) = (  0.7587680  0.7587680  0.0000000  )

     number of k points=     1  Methfessel-Paxton smearing, width (Ry)=  0.0010
                       cart. coord. in units 2pi/alat
        k(    1) = (   0.0000000   0.0000000   0.0000000), wk =   2.0000000

                       cryst. coord.
        k(    1) = (   0.0000000   0.0000000   0.0000000), wk =   2.0000000

     Check: negative core charge=   -0.000018

     Initial potential from superposition of free atoms

     starting charge      56.9999, renormalised to      60.0000

     negative rho (up, down):  3.069E-03 0.000E+00
     Starting wfcs are   46 randomized atomic wfcs
     Checking if some PAW data can be deallocated...

     Self-consistent Calculation

     iteration #  1     ecut=    30.00 Ry     beta= 0.70
     Davidson diagonalization with overlap

     ethr =  1.00E-02,  avg # of iterations =  2.0

     negative rho (up, down):  2.986E-03 0.000E+00

     total energy              =    -523.73964672 Ry
     estimated scf accuracy    <       1.00735268 Ry

[...]

     total energy              =    -524.20744831 Ry
     estimated scf accuracy    <       0.00000172 Ry

     iteration # 24     ecut=    30.00 Ry     beta= 0.70
     Davidson diagonalization with overlap

     ethr =  2.86E-09,  avg # of iterations =  5.0

[...]

     End of self-consistent calculation

          k = 0.0000 0.0000 0.0000 (   657 PWs)   bands (ev):

   -44.6592 -44.5380 -44.5337 -21.0641 -21.0113 -21.0113 -20.9366 -20.9219
   -20.9218 -20.6047 -20.6047 -20.4897  -6.1812  -5.2519  -5.0686  -4.8525
     7.8550   8.1494   8.3126   8.3127   8.6076   8.6076   9.3518  10.1701
    10.1701  11.1857  11.1857  11.1940  11.4146  13.3508  13.3508  14.0726
    14.5850  14.5850  14.6225  14.9796

     occupation numbers
     1.0000   1.0000   1.0000   1.0000   1.0000   1.0000   1.0000   1.0000
     1.0000   1.0000   1.0000   1.0000   1.0000   1.0000   1.0000   1.0000
     1.0000   1.0000   1.0000   1.0000   1.0000   1.0000   1.0000   1.0000
     1.0000   1.0000   1.0000   1.0000   1.0000   0.5002   0.4998  -0.0000
    -0.0000  -0.0000  -0.0000  -0.0000

     the Fermi energy is    13.3508 ev

!    total energy              =    -524.20744811 Ry
     estimated scf accuracy    <       0.00000030 Ry
     smearing contrib. (-TS)   =      -0.00056419 Ry
     internal energy E=F+TS    =    -524.20688392 Ry

     The total energy is F=E-TS. E is the sum of the following terms:
     one-electron contribution =    -134.67588641 Ry
     hartree contribution      =     100.74836359 Ry
     xc contribution           =     -84.39040467 Ry
     ewald contribution        =    -367.89952029 Ry
     one-center paw contrib.   =     -37.98943615 Ry
      -> PAW hartree energy AE =     124.99375445 Ry
      -> PAW hartree energy PS =    -124.50051235 Ry
      -> PAW xc energy AE      =     -69.62533508 Ry
      -> PAW xc energy PS      =      31.14265684 Ry
      -> total E_H with PAW    =     101.24160569 Ry
      -> total E_XC with PAW   =    -122.87308291 Ry

     convergence has been achieved in  24 iterations

     negative rho (up, down):  2.532E-03 0.000E+00

     Forces acting on atoms (cartesian axes, Ry/au):

     atom    1 type  1   force =     0.00000000    0.00000000    0.00000136
     atom    2 type  1   force =     0.00000000    0.00000000    0.00000000
     atom    3 type  1   force =     0.00000000    0.00000000   -0.00000136
     atom    4 type  2   force =     0.00000000    0.00000000    0.00000000
     atom    5 type  2   force =     0.04631254    0.03322751    0.00000000
     atom    6 type  2   force =     0.00000000   -0.00000000    0.00000000
     atom    7 type  2   force =    -0.04631254   -0.03322751   -0.00000000
     The non-local contrib.  to forces
     atom    1 type  1   force =     0.00000000    0.00000000   -0.00000005
     atom    2 type  1   force =     0.00000000    0.00000000    0.00000000
     atom    3 type  1   force =     0.00000000    0.00000000    0.00000005
     atom    4 type  2   force =    -0.00000000   -0.00000000    0.00000000
     atom    5 type  2   force =     0.65321012    0.46865387    0.00000000
     atom    6 type  2   force =     0.00000000    0.00000000    0.00000000
     atom    7 type  2   force =    -0.65321012   -0.46865387   -0.00000000
     The ionic contribution  to forces
     atom    1 type  1   force =    -0.00000000   -0.00000000    0.00000000
     atom    2 type  1   force =     0.00000000    0.00000000   -0.00000000
     atom    3 type  1   force =    -0.00000000   -0.00000000   -0.00000000
     atom    4 type  2   force =     0.00000000    0.00000000   -0.00000000
     atom    5 type  2   force =    -4.39723861   -3.15482981    0.00000000
     atom    6 type  2   force =     0.00000000    0.00000000    0.00000000
     atom    7 type  2   force =     4.39723861    3.15482981   -0.00000000
     The local contribution  to forces
     atom    1 type  1   force =     0.00005590    0.00003967    0.00000100
     atom    2 type  1   force =     0.00001606    0.00001245   -0.00000003
     atom    3 type  1   force =    -0.00008604   -0.00006011   -0.00000266
     atom    4 type  2   force =    -0.00001709   -0.00001348   -0.00000134
     atom    5 type  2   force =     3.79746897    2.72451518    0.00000017
     atom    6 type  2   force =     0.00003387    0.00002546   -0.00000034
     atom    7 type  2   force =    -3.79744150   -2.72449967   -0.00000102
     The core correction contribution to forces
     atom    1 type  1   force =     0.00000054    0.00000044    0.00000003
     atom    2 type  1   force =     0.00000137    0.00000098    0.00000012
     atom    3 type  1   force =    -0.00000157   -0.00000105   -0.00000002
     atom    4 type  2   force =     0.00000022    0.00000016   -0.00000001
     atom    5 type  2   force =    -0.00690287   -0.00495259   -0.00000000
     atom    6 type  2   force =    -0.00000007   -0.00000006    0.00000000
     atom    7 type  2   force =     0.00690329    0.00495286   -0.00000001
     The Hubbard contrib.    to forces
     atom    1 type  1   force =     0.00000000    0.00000000    0.00000000
     atom    2 type  1   force =     0.00000000    0.00000000    0.00000000
     atom    3 type  1   force =     0.00000000    0.00000000    0.00000000
     atom    4 type  2   force =     0.00000000    0.00000000    0.00000000
     atom    5 type  2   force =     0.00000000    0.00000000    0.00000000
     atom    6 type  2   force =     0.00000000    0.00000000    0.00000000
     atom    7 type  2   force =     0.00000000    0.00000000    0.00000000
     The SCF correction term to forces
     atom    1 type  1   force =    -0.00002431   -0.00001673   -0.00000012
     atom    2 type  1   force =    -0.00001857   -0.00001368   -0.00000042
     atom    3 type  1   force =     0.00005807    0.00003990    0.00000076
     atom    4 type  2   force =     0.00002823    0.00002139    0.00000110
     atom    5 type  2   force =    -0.00020828   -0.00014879    0.00000051
     atom    6 type  2   force =    -0.00003974   -0.00002979   -0.00000068
     atom    7 type  2   force =     0.00021399    0.00015369    0.00000033

     Total force =     0.080609     Total SCF correction =     0.000381

     Computing stress (Cartesian axis) and pressure

     negative rho (up, down):  2.532E-03 0.000E+00
          total   stress  (Ry/bohr**3)                   (kbar)     P=     -154.85
  -0.00326824  -0.00321085  -0.00000000         -480.78     -472.33       -0.00
  -0.00321085  -0.00109660  -0.00000000         -472.33     -161.32       -0.00
  -0.00000000  -0.00000000   0.00120680           -0.00       -0.00      177.53

     kinetic stress (kbar)  29579.29   -318.54      0.00
                             -318.54  29794.74      0.00
                                0.00      0.00  30023.16

     local   stress (kbar)  -2391.93    873.49      0.25
                              873.49  -2982.73     -0.34
                                0.25     -0.34  -3609.28

     nonloc. stress (kbar)   8283.42   -124.98      0.00
                             -124.98   8367.95      0.00
                                0.00      0.00   8457.59

     hartree stress (kbar)  10072.02   -388.44     -0.09
                             -388.44  10334.75      0.13
                               -0.09      0.13  10613.42

     exc-cor stress (kbar)  -3997.84      8.51     -0.00
                                8.51  -4003.60      0.00
                               -0.00      0.00  -4009.70

     corecor stress (kbar)  -3903.78      4.39      0.00
                                4.39  -3906.76     -0.00
                                0.00     -0.00  -3909.91

     ewald   stress (kbar) -38121.95   -526.76      0.00
                             -526.76 -37765.67     -0.00
                                0.00     -0.00 -37387.75

     hubbard stress (kbar)      0.00      0.00      0.00
                                0.00      0.00      0.00
                                0.00      0.00      0.00

     DFT-D   stress (kbar)      0.00      0.00      0.00
                                0.00      0.00      0.00
                                0.00      0.00      0.00

     XDM     stress (kbar)      0.00      0.00      0.00
                                0.00      0.00      0.00
                                0.00      0.00      0.00

     dft-nl  stress (kbar)      0.00      0.00      0.00
                                0.00      0.00      0.00
                                0.00      0.00      0.00

     TS-vdW  stress (kbar)      0.00      0.00      0.00
                                0.00      0.00      0.00
                                0.00      0.00      0.00

[...]

                                0.00      0.00      0.00

     Writing all to output data dir new_calculations/myprefix.save/

     General routines

     Parallel routines

     PAW routines

   This run was terminated on:  10:55:22  20May2023

   JOB DONE.