     Program PWSCF v.7.1 starts on 16Jul2023 at 17:11: 7

     Reading input from espresso_15895.pwi
Warning: card &CELL ignored
Warning: card / ignored

     Current dimensions of program PWSCF are:
     Max number of different atomic species (ntypx) = 10
     Max number of k-points (npk) =  40000
     Max angular momentum in pseudopotentials (lmaxx) =  4
     Message from routine setup:
     using ibrav=0 with symmetry is DISCOURAGED, use correct ibrav instead

     K-points division:     npool     =       2
     R & G space division:  proc/nbgrp/npool/nimage =       4
     Subspace diagonalization in iterative solution of the eigenvalue problem:
     a serial algorithm will be used

     Using Slab Decomposition

     bravais-lattice index     =            0
     lattice parameter (alat)  =      10.1690  a.u.
     unit-cell volume          =     745.7167 (a.u.)^3
     number of atoms/cell      =            7
     number of atomic types    =            3
     number of electrons       =        91.00
     number of Kohn-Sham states=           55
     kinetic-energy cutoff     =      30.0000  Ry
     charge density cutoff     =     240.0000  Ry
     scf convergence threshold =      1.0E-06
     mixing beta               =       0.7000
     number of iterations used =            8  plain     mixing
     Exchange-correlation=  SLA  PW   PBX  PBC
                           (   1   4   3   4   0   0   0)

     celldm(1)=  10.168968  celldm(2)=   0.000000  celldm(3)=   0.000000
     celldm(4)=   0.000000  celldm(5)=   0.000000  celldm(6)=   0.000000

     crystal axes: (cart. coord. in units of alat)
               a(1) = (   1.000000   0.000000   0.000000 )
               a(2) = (   0.498063   0.867141   0.000000 )
               a(3) = (   0.498063   0.288300   0.817812 )

     reciprocal axes: (cart. coord. in units 2 pi/alat)
               b(1) = (  1.000000 -0.574374 -0.406538 )
               b(2) = (  0.000000  1.153215 -0.406538 )
               b(3) = (  0.000000  0.000000  1.222775 )

     PseudoPot. # 1 for Co read from file:
     /lustre07/scratch/pragov/crystal_structure_design/utils/SSSP/Co_pbe_v1.2.uspp.F.UPF
     MD5 check sum: 5f91765df6ddd3222702df6e7b74a16d
     Pseudo is Ultrasoft + core correction, Zval = 17.0
     Generated by new atomic code, or converted to UPF format
     Using radial grid of  863 points,  6 beta functions with:
                l(1) =   0
                l(2) =   0
                l(3) =   1
                l(4) =   1
                l(5) =   2
                l(6) =   2
     Q(r) pseudized with  8 coefficients,  rinner =    1.200   1.200   1.200
                                                       1.200   1.200

     PseudoPot. # 2 for Sn read from file:
     /lustre07/scratch/pragov/crystal_structure_design/utils/SSSP/Sn_pbe_v1.uspp.F.UPF
     MD5 check sum: 4cf58ce39ec5d5d420df3dd08604eb00
     Pseudo is Ultrasoft + core correction, Zval = 14.0
     Generated by new atomic code, or converted to UPF format
     Using radial grid of  891 points,  6 beta functions with:
                l(1) =   0
                l(2) =   0
                l(3) =   1
                l(4) =   1
                l(5) =   2
                l(6) =   2
     Q(r) pseudized with  6 coefficients,  rinner =    1.200   1.200   1.200
                                                       1.200   1.200

     PseudoPot. # 3 for S  read from file:
     /lustre07/scratch/pragov/crystal_structure_design/utils/SSSP/s_pbe_v1.4.uspp.F.UPF
     MD5 check sum: 88d86576ff6df21479756cfb9bdac1df
     Pseudo is Ultrasoft + core correction, Zval =  6.0
     Generated by new atomic code, or converted to UPF format
     Using radial grid of  907 points,  6 beta functions with:
                l(1) =   0
                l(2) =   0
                l(3) =   1
                l(4) =   1
                l(5) =   2
                l(6) =   2
     Q(r) pseudized with  8 coefficients,  rinner =    1.300   1.300   1.300
                                                       1.300   1.300

     atomic species   valence    mass     pseudopotential
        Co            17.00    58.93319     Co( 1.00)
        Sn            14.00   118.71000     Sn( 1.00)
        S              6.00    32.06000     S ( 1.00)

      2 Sym. Ops., with inversion, found

                                    s                        frac. trans.

      isym =  1     identity

 cryst.   s( 1) = (     1          0          0      )
                  (     0          1          0      )
                  (     0          0          1      )

 cart.    s( 1) = (  1.0000000  0.0000000  0.0000000 )
                  (  0.0000000  1.0000000  0.0000000 )
                  (  0.0000000  0.0000000  1.0000000 )

      isym =  2     inversion

 cryst.   s( 2) = (    -1          0          0      )
                  (     0         -1          0      )
                  (     0          0         -1      )

 cart.    s( 2) = ( -1.0000000  0.0000000  0.0000000 )
                  (  0.0000000 -1.0000000  0.0000000 )
                  (  0.0000000  0.0000000 -1.0000000 )

   Cartesian axes

     site n.     atom                  positions (alat units)
         1           Co  tau(   1) = (   0.5000000   0.0000000   0.0000000  )
         2           Co  tau(   2) = (   0.2490315   0.4335704   0.0000000  )
         3           Co  tau(   3) = (   0.2490315   0.1441498   0.4089060  )
         4           Sn  tau(   4) = (   0.9980630   0.5777202   0.4089060  )
         5           Sn  tau(   5) = (   0.0000000   0.0000000   0.0000000  )
         6           S   tau(   6) = (   1.4362326   0.8313509   0.5884239  )
         7           S   tau(   7) = (   0.5598934   0.3240895   0.2293881  )

   Crystallographic axes

     site n.     atom                  positions (cryst. coord.)
         1           Co  tau(   1) = (  0.5000000  0.0000000  0.0000000  )
         2           Co  tau(   2) = ( -0.0000000  0.5000000  0.0000000  )
         3           Co  tau(   3) = ( -0.0000000  0.0000000  0.5000000  )
         4           Sn  tau(   4) = (  0.5000000  0.5000000  0.5000000  )
         5           Sn  tau(   5) = (  0.0000000  0.0000000  0.0000000  )
         6           S   tau(   6) = (  0.7195100  0.7195100  0.7195100  )
         7           S   tau(   7) = (  0.2804900  0.2804900  0.2804900  )

     number of k points=    14  Gaussian smearing, width (Ry)=  0.0010
                       cart. coord. in units 2pi/alat
        k(    1) = (   0.0000000   0.0000000   0.0000000), wk =   0.0740741
        k(    2) = (   0.0000000   0.0000000   0.4075916), wk =   0.1481481
        k(    3) = (   0.0000000   0.3844050  -0.1355125), wk =   0.1481481
        k(    4) = (   0.0000000   0.3844050   0.2720791), wk =   0.1481481
        k(    5) = (   0.0000000   0.3844050  -0.5431042), wk =   0.1481481
        k(    6) = (   0.3333333  -0.1914579  -0.1355125), wk =   0.1481481
        k(    7) = (   0.3333333  -0.1914579   0.2720791), wk =   0.1481481
        k(    8) = (   0.3333333  -0.1914579  -0.5431042), wk =   0.1481481
        k(    9) = (   0.3333333   0.1929471  -0.2710251), wk =   0.1481481
        k(   10) = (   0.3333333   0.1929471   0.1365665), wk =   0.1481481
        k(   11) = (   0.3333333   0.1929471  -0.6786167), wk =   0.1481481
        k(   12) = (   0.3333333  -0.5758629   0.0000000), wk =   0.1481481
        k(   13) = (   0.3333333  -0.5758629   0.4075916), wk =   0.1481481
        k(   14) = (   0.3333333  -0.5758629  -0.4075916), wk =   0.1481481

                       cryst. coord.
        k(    1) = (   0.0000000   0.0000000   0.0000000), wk =   0.0740741
        k(    2) = (   0.0000000   0.0000000   0.3333333), wk =   0.1481481
        k(    3) = (   0.0000000   0.3333333   0.0000000), wk =   0.1481481
        k(    4) = (   0.0000000   0.3333333   0.3333333), wk =   0.1481481
        k(    5) = (   0.0000000   0.3333333  -0.3333333), wk =   0.1481481
        k(    6) = (   0.3333333   0.0000000   0.0000000), wk =   0.1481481
        k(    7) = (   0.3333333   0.0000000   0.3333333), wk =   0.1481481
        k(    8) = (   0.3333333   0.0000000  -0.3333333), wk =   0.1481481
        k(    9) = (   0.3333333   0.3333333   0.0000000), wk =   0.1481481
        k(   10) = (   0.3333333   0.3333333   0.3333333), wk =   0.1481481
        k(   11) = (   0.3333333   0.3333333  -0.3333333), wk =   0.1481481
        k(   12) = (   0.3333333  -0.3333333   0.0000000), wk =   0.1481481
        k(   13) = (   0.3333333  -0.3333333   0.3333333), wk =   0.1481481
        k(   14) = (   0.3333333  -0.3333333  -0.3333333), wk =   0.1481481

     Check: negative core charge=   -0.000012

     Initial potential from superposition of free atoms

     starting charge      85.9998, renormalised to      91.0000
     Starting wfcs are   65 randomized atomic wfcs

     Self-consistent Calculation

     iteration #  1     ecut=    30.00 Ry     beta= 0.70
     Davidson diagonalization with overlap

     ethr =  1.00E-02,  avg # of iterations =  5.3

     total energy              =   -1222.02291605 Ry
     estimated scf accuracy    <      65.36352197 Ry

[...]

     total energy              =   -1270.18587276 Ry
     estimated scf accuracy    <       0.00000166 Ry

     iteration # 16     ecut=    30.00 Ry     beta= 0.70
     Davidson diagonalization with overlap

     ethr =  1.82E-09,  avg # of iterations =  2.0

     End of self-consistent calculation

          k = 0.0000 0.0000 0.0000 (  2085 PWs)   bands (ev):

   -81.2020 -81.1923 -81.1920 -44.8462 -44.7937 -44.7935 -44.3711 -44.3347
   -44.3345 -44.2907 -44.2905 -44.2636  -7.9790  -7.9790  -7.9516  -7.9007
    -7.9006  -7.8533  -7.8533  -7.8416  -7.7677  -7.7677  -1.3703   0.4240
     5.3221   7.1040   7.6325   7.7678   7.7678   9.0076   9.8002   9.8002
    11.0208  11.1412  11.1412  11.2394  11.2395  11.6708  12.0046  12.0047
    12.4474  12.4476  12.8392  12.9455  12.9457  13.7385  13.9807  13.9870
    13.9870  14.4976  17.0570  17.0570  17.6299  17.6299  17.7929

     occupation numbers
     1.0000   1.0000   1.0000   1.0000   1.0000   1.0000   1.0000   1.0000
     1.0000   1.0000   1.0000   1.0000   1.0000   1.0000   1.0000   1.0000
     1.0000   1.0000   1.0000   1.0000   1.0000   1.0000   1.0000   1.0000
     1.0000   1.0000   1.0000   1.0000   1.0000   1.0000   1.0000   1.0000
     1.0000   1.0000   1.0000   1.0000   1.0000   1.0000   1.0000   1.0000
     1.0000   1.0000   1.0000   1.0000   1.0000   0.7102   0.0000   0.0000
     0.0000   0.0000   0.0000   0.0000   0.0000   0.0000   0.0000

[...]

          k = 0.3333-0.5759-0.4076 (  2079 PWs)   bands (ev):

   -81.1995 -81.1937 -81.1918 -44.8340 -44.8017 -44.7891 -44.3599 -44.3384
   -44.3303 -44.2923 -44.2852 -44.2665  -7.9762  -7.9720  -7.9451  -7.8869
    -7.8865  -7.8595  -7.8590  -7.8384  -7.7708  -7.7668  -0.4235  -0.3387
     4.7859   5.2542   7.4171   8.3501   8.8973   9.0153   9.2802   9.8139
     9.8959  10.8483  11.0942  11.4663  11.7082  11.7622  12.2820  12.3250
    12.6681  12.6807  12.7322  13.0310  13.0433  14.0270  14.1098  14.9717
    15.5909  16.3312  16.9424  17.5499  17.9746  19.2096  19.8582

     occupation numbers
     1.0000   1.0000   1.0000   1.0000   1.0000   1.0000   1.0000   1.0000
     1.0000   1.0000   1.0000   1.0000   1.0000   1.0000   1.0000   1.0000
     1.0000   1.0000   1.0000   1.0000   1.0000   1.0000   1.0000   1.0000
     1.0000   1.0000   1.0000   1.0000   1.0000   1.0000   1.0000   1.0000
     1.0000   1.0000   1.0000   1.0000   1.0000   1.0000   1.0000   1.0000
     1.0000   1.0000   1.0000   1.0000   1.0000   0.0000   0.0000   0.0000
     0.0000   0.0000   0.0000   0.0000   0.0000   0.0000   0.0000

     the Fermi energy is    13.7438 ev

!    total energy              =   -1270.18587282 Ry
     estimated scf accuracy    <       0.00000016 Ry
     smearing contrib. (-TS)   =      -0.00009239 Ry
     internal energy E=F+TS    =   -1270.18578043 Ry

     The total energy is F=E-TS. E is the sum of the following terms:
     one-electron contribution =    -796.88421016 Ry
     hartree contribution      =     455.37511805 Ry
     xc contribution           =    -210.42918968 Ry
     ewald contribution        =    -718.24749864 Ry

     convergence has been achieved in  16 iterations

     Writing all to output data dir energy_m/myprefix.save/

     General routines

     Parallel routines

   This run was terminated on:  17:11:16  16Jul2023

   JOB DONE.