     Program PWSCF v.7.0 starts on 21May2023 at 14:13:52

     Reading input from espresso_25624.pwi
Warning: card &CELL ignored
Warning: card / ignored

     Current dimensions of program PWSCF are:
     Max number of different atomic species (ntypx) = 10
     Max number of k-points (npk) =  40000
     Max angular momentum in pseudopotentials (lmaxx) =  4
     file Pb.pbe-dn-kjpaw_psl.0.2.2.UPF: wavefunction(s)  6S renormalized

     gamma-point specific algorithms are used
     Message from routine setup:
     using ibrav=0 with symmetry is DISCOURAGED, use correct ibrav instead

     Subspace diagonalization in iterative solution of the eigenvalue problem:
     a serial algorithm will be used

     Using Slab Decomposition

     bravais-lattice index     =            0
     lattice parameter (alat)  =      16.7000  a.u.
     unit-cell volume          =    2718.5956 (a.u.)^3
     number of atoms/cell      =           18
     number of atomic types    =            3
     number of electrons       =       244.00
     number of Kohn-Sham states=          146
     kinetic-energy cutoff     =      30.0000  Ry
     charge density cutoff     =     240.0000  Ry
     scf convergence threshold =      1.0E-06
     mixing beta               =       0.7000
     number of iterations used =            8  plain     mixing
     Exchange-correlation= SLA  PW   PBX  PBC
                           (   1   4   3   4   0   0   0)

     celldm(1)=  16.700035  celldm(2)=   0.000000  celldm(3)=   0.000000
     celldm(4)=   0.000000  celldm(5)=   0.000000  celldm(6)=   0.000000

     crystal axes: (cart. coord. in units of alat)
               a(1) = (   1.000000   0.000000   0.000000 )
               a(2) = (  -0.500000   0.866025   0.000000 )
               a(3) = (   0.000000   0.000000   0.674003 )

     reciprocal axes: (cart. coord. in units 2 pi/alat)
               b(1) = (  1.000000  0.577350  0.000000 )
               b(2) = (  0.000000  1.154701  0.000000 )
               b(3) = (  0.000000  0.000000  1.483673 )

     PseudoPot. # 1 for Zr read from file:
     /home/pragov/projects/rrg-bengioy-ad/pragov/crystal_structure_design/SSSP/Zr_pbe_v1.uspp.F.UPF
     MD5 check sum: 5db81b1e868ab7776c4564c113de050b
     Pseudo is Ultrasoft + core correction, Zval = 12.0
     Generated by new atomic code, or converted to UPF format
     Using radial grid of  887 points,  6 beta functions with:
                l(1) =   0
                l(2) =   0
                l(3) =   1
                l(4) =   1
                l(5) =   2
                l(6) =   2
     Q(r) pseudized with  6 coefficients,  rinner =    1.200   1.200   1.200
                                                       1.200   1.200

     PseudoPot. # 2 for Zn read from file:
     /home/pragov/projects/rrg-bengioy-ad/pragov/crystal_structure_design/SSSP/Zn_pbe_v1.uspp.F.UPF
     MD5 check sum: df62231357ef9e81f77b2b3087fa5675
     Pseudo is Ultrasoft, Zval = 20.0
     Generated by new atomic code, or converted to UPF format
     Using radial grid of  943 points,  6 beta functions with:
                l(1) =   0
                l(2) =   0
                l(3) =   1
                l(4) =   1
                l(5) =   2
                l(6) =   2
     Q(r) pseudized with  8 coefficients,  rinner =    1.100   1.100   1.100
                                                       1.100   1.100

     PseudoPot. # 3 for Pb read from file:
     /home/pragov/projects/rrg-bengioy-ad/pragov/crystal_structure_design/SSSP/Pb.pbe-dn-kjpaw_psl.0.2.2.UPF
     MD5 check sum: 9d431e6316058b74ade52399a6cf67da
     Pseudo is Projector augmented-wave + core cor, Zval = 14.0
     Generated using "atomic" code by A. Dal Corso  v.5.0.99 svn rev. 10869
     Shape of augmentation charge: PSQ
     Using radial grid of 1281 points,  6 beta functions with:
                l(1) =   0
                l(2) =   0
                l(3) =   1
                l(4) =   1
                l(5) =   2
                l(6) =   2
     Q(r) pseudized with 0 coefficients

     atomic species   valence    mass     pseudopotential
        Zr            12.00    91.22400     Zr( 1.00)
        Zn            20.00    65.38000     Zn( 1.00)
        Pb            14.00   207.20000     Pb( 1.00)

     24 Sym. Ops., with inversion, found (12 have fractional translation)

                                    s                        frac. trans.

      isym =  1     identity

 cryst.   s( 1) = (     1          0          0      )
                  (     0          1          0      )
                  (     0          0          1      )

 cart.    s( 1) = (  1.0000000 -0.0000000  0.0000000 )
                  (  0.0000000  1.0000000  0.0000000 )
                  (  0.0000000  0.0000000  1.0000000 )

      isym =  2     180 deg rotation - cart. axis [0,0,1]

 cryst.   s( 2) = (    -1          0          0      )    f =(  0.0000000 )
                  (     0         -1          0      )       ( -0.0000000 )
                  (     0          0          1      )       ( -0.5000000 )

 cart.    s( 2) = ( -1.0000000  0.0000000  0.0000000 )    f =(  0.0000000 )
                  (  0.0000000 -1.0000000  0.0000000 )       ( -0.0000000 )
                  (  0.0000000  0.0000000  1.0000000 )       ( -0.3370015 )

[...]

      isym =  4     180 deg rotation - cart. axis [1,0,0]

[...]

      isym =  5      60 deg rotation - cryst. axis [0,0,1]

[...]

 cryst.   s( 6) = (     0         -1          0      )    f =(  0.0000000 )
                  (     1          1          0      )       ( -0.0000010 )
                  (     0          0          1      )       ( -0.5000000 )

 cart.    s( 6) = (  0.5000000  0.8660254  0.0000000 )    f =(  0.0000005 )
                  ( -0.8660254  0.5000000  0.0000000 )       ( -0.0000009 )
                  (  0.0000000  0.0000000  1.0000000 )       ( -0.3370015 )

[...]

 cryst.   s( 9) = (     0         -1          0      )
                  (    -1          0          0      )
                  (     0          0         -1      )

 cart.    s( 9) = (  0.5000000 -0.8660254  0.0000000 )
                  ( -0.8660254 -0.5000000  0.0000000 )
                  (  0.0000000  0.0000000 -1.0000000 )

[...]

 cryst.   s(10) = (     1          1          0      )
                  (     0         -1          0      )
                  (     0          0         -1      )

 cart.    s(10) = (  0.5000000  0.8660254  0.0000000 )
                  (  0.8660254 -0.5000000  0.0000000 )
                  (  0.0000000  0.0000000 -1.0000000 )

[...]

 cryst.   s(11) = (    -1         -1          0      )    f =(  0.0000000 )
                  (     0          1          0      )       ( -0.0000010 )
                  (     0          0         -1      )       (  0.5000000 )

 cart.    s(11) = ( -0.5000000 -0.8660254  0.0000000 )    f =(  0.0000005 )
                  ( -0.8660254  0.5000000  0.0000000 )       ( -0.0000009 )
                  (  0.0000000  0.0000000 -1.0000000 )       (  0.3370015 )

      isym = 12     180 deg rotation - cryst. axis [1,1,0]

[...]

      isym = 13     inversion

[...]

      isym = 14     inv. 180 deg rotation - cart. axis [0,0,1]

[...]

      isym = 16     inv. 180 deg rotation - cart. axis [1,0,0]

[...]

      isym = 17     inv.  60 deg rotation - cryst. axis [0,0,1]

[...]

 cryst.   s(22) = (    -1         -1          0      )
                  (     0          1          0      )
                  (     0          0          1      )

 cart.    s(22) = ( -0.5000000 -0.8660254  0.0000000 )
                  ( -0.8660254  0.5000000  0.0000000 )
                  (  0.0000000  0.0000000  1.0000000 )

[...]

      isym = 24     inv. 180 deg rotation - cryst. axis [1,1,0]

 cryst.   s(24) = (     0         -1          0      )    f =( -0.0000000 )
                  (    -1          0          0      )       ( -0.0000000 )
                  (     0          0          1      )       ( -0.5000000 )

 cart.    s(24) = (  0.5000000 -0.8660254  0.0000000 )    f =( -0.0000000 )
                  ( -0.8660254 -0.5000000  0.0000000 )       ( -0.0000000 )
                  (  0.0000000  0.0000000  1.0000000 )       ( -0.3370015 )

   Cartesian axes

     site n.     atom                  positions (alat units)
         1           Zr  tau(   1) = (  -0.0000005   0.5773506   0.0000000  )
         2           Zr  tau(   2) = (   0.5000005   0.2886749   0.3370015  )
         3           Zr  tau(   3) = (   0.5000005   0.2886749   0.0000000  )
         4           Zr  tau(   4) = (  -0.0000005   0.5773506   0.3370015  )
         5           Zr  tau(   5) = (   0.2665990   0.0000000   0.1685008  )
         6           Zr  tau(   6) = (   0.1332995   0.2308815   0.5055023  )
         7           Zr  tau(   7) = (  -0.3667005   0.6351439   0.5055023  )
         8           Zr  tau(   8) = (  -0.1332995   0.2308815   0.1685008  )
         9           Zr  tau(   9) = (   0.3667005   0.6351439   0.1685008  )
        10           Zr  tau(  10) = (   0.7334010   0.0000000   0.5055023  )
        11           Zn  tau(  11) = (   0.0000000   0.0000000   0.0000000  )
        12           Zn  tau(  12) = (   0.0000000   0.0000000   0.3370015  )
        13           Pb  tau(  13) = (   0.6159420   0.0000000   0.1685008  )
        14           Pb  tau(  14) = (   0.3079710   0.5334214   0.5055023  )
        15           Pb  tau(  15) = (   0.8079710   0.3326040   0.5055023  )
        16           Pb  tau(  16) = (  -0.3079710   0.5334214   0.1685008  )
        17           Pb  tau(  17) = (   0.1920290   0.3326040   0.1685008  )
        18           Pb  tau(  18) = (   0.3840580   0.0000000   0.5055023  )

   Crystallographic axes

     site n.     atom                  positions (cryst. coord.)
         1           Zr  tau(   1) = (  0.3333330  0.6666670  0.0000000  )
         2           Zr  tau(   2) = (  0.6666670  0.3333330  0.5000000  )
         3           Zr  tau(   3) = (  0.6666670  0.3333330  0.0000000  )
         4           Zr  tau(   4) = (  0.3333330  0.6666670  0.5000000  )
         5           Zr  tau(   5) = (  0.2665990  0.0000000  0.2500000  )
         6           Zr  tau(   6) = (  0.2665990  0.2665990  0.7500000  )
         7           Zr  tau(   7) = (  0.0000000  0.7334010  0.7500000  )
         8           Zr  tau(   8) = (  0.0000000  0.2665990  0.2500000  )
         9           Zr  tau(   9) = (  0.7334010  0.7334010  0.2500000  )
        10           Zr  tau(  10) = (  0.7334010  0.0000000  0.7500000  )
        11           Zn  tau(  11) = (  0.0000000  0.0000000  0.0000000  )
        12           Zn  tau(  12) = (  0.0000000  0.0000000  0.5000000  )
        13           Pb  tau(  13) = (  0.6159420  0.0000000  0.2500000  )
        14           Pb  tau(  14) = (  0.6159420  0.6159420  0.7500000  )
        15           Pb  tau(  15) = (  1.0000000  0.3840580  0.7500000  )
        16           Pb  tau(  16) = (  0.0000000  0.6159420  0.2500000  )
        17           Pb  tau(  17) = (  0.3840580  0.3840580  0.2500000  )
        18           Pb  tau(  18) = (  0.3840580  0.0000000  0.7500000  )

[...]

     iteration # 26     ecut=    30.00 Ry     beta= 0.70
     Davidson diagonalization with overlap

     ethr =  6.06E-10,  avg # of iterations =  2.0

[...]

     End of self-consistent calculation

          k = 0.0000 0.0000 0.0000 (  3793 PWs)   bands (ev):

  -111.4052-111.4049 -65.5135 -65.5135 -65.5119 -65.5119 -65.4275 -65.4215
   -34.7412 -34.7362 -34.7360 -34.7310 -34.7308 -34.7296 -34.4536 -34.4531
   -34.3496 -34.3494 -12.8511 -12.8509 -12.8507 -12.8242 -12.8208 -12.8207
   -12.8204 -12.8202 -12.8095 -12.7787 -12.7758 -12.7665 -12.7663 -12.7475
   -12.7474 -12.7458 -12.7457 -12.7294 -12.6675 -12.6653 -12.5872 -12.5872
   -12.5761 -12.5761 -12.5030 -12.5030 -12.4991 -12.4991 -11.7703 -11.7688
    -2.1774  -2.1710  -2.1708  -2.1681  -2.1671  -2.1636  -2.1568  -2.1567
    -2.1519  -2.1517  -2.1395  -2.1393  -2.1339  -2.1323  -2.1322  -2.1131
    -2.1130  -2.1068  -2.0982  -2.0961  -2.0959  -2.0905  -2.0904  -2.0766
    -2.0764  -2.0653  -2.0652  -2.0404  -2.0403  -2.0335   4.1017   5.2241
     5.2242   5.9431   5.9432   6.2484   7.5128   7.6004   7.6004   7.6964
     7.6964   7.7031   7.7031   7.9124   7.9124   7.9756   9.1034   9.9986
    10.7214  10.9300  10.9300  11.4576  11.5262  11.5262  11.8394  11.8394
    12.0842  12.0843  12.1211  12.6449  12.6449  12.9361  13.0185  13.0186
    13.3289  13.3809  13.4517  13.4518  13.5502  13.7706  13.8233  13.8737
    13.8738  13.8994  13.8994  14.5595  14.5595  14.9557  15.3283  15.3283
    15.9524  16.2960  16.2961  16.3937  16.3938  16.3940  16.4830  16.4831
    16.5558  16.7929  16.7929  16.9523  16.9524  17.0729  17.2171  17.2171
    17.2556  17.2708

     occupation numbers
     1.0000   1.0000   1.0000   1.0000   1.0000   1.0000   1.0000   1.0000
     1.0000   1.0000   1.0000   1.0000   1.0000   1.0000   1.0000   1.0000
     1.0000   1.0000   1.0000   1.0000   1.0000   1.0000   1.0000   1.0000
     1.0000   1.0000   1.0000   1.0000   1.0000   1.0000   1.0000   1.0000
     1.0000   1.0000   1.0000   1.0000   1.0000   1.0000   1.0000   1.0000
     1.0000   1.0000   1.0000   1.0000   1.0000   1.0000   1.0000   1.0000
     1.0000   1.0000   1.0000   1.0000   1.0000   1.0000   1.0000   1.0000
     1.0000   1.0000   1.0000   1.0000   1.0000   1.0000   1.0000   1.0000
     1.0000   1.0000   1.0000   1.0000   1.0000   1.0000   1.0000   1.0000
     1.0000   1.0000   1.0000   1.0000   1.0000   1.0000   1.0000   1.0000
     1.0000   1.0000   1.0000   1.0000   1.0000   1.0000   1.0000   1.0000
     1.0000   1.0000   1.0000   1.0000   1.0000   1.0000   1.0000   1.0000
     1.0000   1.0000   1.0000   1.0000   1.0000   1.0000   1.0000   1.0000
     1.0000   1.0000   1.0000   1.0000   1.0000   1.0000   1.0000   1.0000
     1.0000   1.0000   1.0000   1.0000   1.0000   1.0000   1.0000   1.0118
     1.0119   0.4903   0.4861  -0.0000  -0.0000  -0.0000  -0.0000  -0.0000
    -0.0000  -0.0000  -0.0000  -0.0000  -0.0000  -0.0000  -0.0000  -0.0000
    -0.0000  -0.0000  -0.0000  -0.0000  -0.0000  -0.0000  -0.0000  -0.0000
    -0.0000  -0.0000

     the Fermi energy is    13.8992 ev

!    total energy              =   -7138.42671597 Ry
     estimated scf accuracy    <       0.00000087 Ry
     smearing contrib. (-TS)   =      -0.00046177 Ry
     internal energy E=F+TS    =   -7138.42625420 Ry

     The total energy is F=E-TS. E is the sum of the following terms:
     one-electron contribution =   -1231.36576985 Ry
     hartree contribution      =     764.85235149 Ry
     xc contribution           =    -529.25864111 Ry
     ewald contribution        =   -1771.70669132 Ry
     one-center paw contrib.   =   -4370.94750341 Ry
      -> PAW hartree energy AE =     625.75425948 Ry
      -> PAW hartree energy PS =    -624.61669959 Ry
      -> PAW xc energy AE      =   -4636.94449365 Ry
      -> PAW xc energy PS      =     264.85943035 Ry
      -> total E_H with PAW    =     765.98991138 Ry
      -> total E_XC with PAW   =   -4901.34370441 Ry

     convergence has been achieved in  26 iterations

     negative rho (up, down):  6.072E-01 0.000E+00

     Forces acting on atoms (cartesian axes, Ry/au):

     atom    1 type  1   force =     0.00000000   -0.00000000    0.00000000
     atom    2 type  1   force =     0.00000000    0.00000000    0.00000000
     atom    3 type  1   force =     0.00000000    0.00000000    0.00000000
     atom    4 type  1   force =    -0.00000000    0.00000000    0.00000000
     atom    5 type  1   force =    -0.03943612    0.00000000    0.00000000
     atom    6 type  1   force =    -0.01971806   -0.03415268    0.00000000
     atom    7 type  1   force =    -0.01971806    0.03415268    0.00000000
     atom    8 type  1   force =     0.01971806   -0.03415268    0.00000000
     atom    9 type  1   force =     0.01971806    0.03415268    0.00000000
     atom   10 type  1   force =     0.03943612   -0.00000000   -0.00000000
     atom   11 type  2   force =     0.00000000   -0.00000000    0.00000000
     atom   12 type  2   force =     0.00000000    0.00000000    0.00000000
     atom   13 type  3   force =    -0.02699086    0.00000000   -0.00000000
     atom   14 type  3   force =    -0.01349543   -0.02337477    0.00000000
     atom   15 type  3   force =    -0.01349543    0.02337477   -0.00000000
     atom   16 type  3   force =     0.01349543   -0.02337477   -0.00000000
     atom   17 type  3   force =     0.01349543    0.02337477   -0.00000000
     atom   18 type  3   force =     0.02699086   -0.00000000    0.00000000
     The non-local contrib.  to forces
     atom    1 type  1   force =     0.00000000    0.00000000    0.00000000
     atom    2 type  1   force =     0.00000000    0.00000000    0.00000000
     atom    3 type  1   force =     0.00000000   -0.00000000    0.00000000
     atom    4 type  1   force =    -0.00000000   -0.00000000    0.00000000
     atom    5 type  1   force =     0.06101949   -0.00000000   -0.00000000
     atom    6 type  1   force =     0.03050975    0.05284443   -0.00000000
     atom    7 type  1   force =     0.03050975   -0.05284443    0.00000000
     atom    8 type  1   force =    -0.03050975    0.05284443   -0.00000000
     atom    9 type  1   force =    -0.03050975   -0.05284443    0.00000000
     atom   10 type  1   force =    -0.06101949    0.00000000    0.00000000
     atom   11 type  2   force =     0.00000000    0.00000000    0.00000000
     atom   12 type  2   force =    -0.00000000    0.00000000    0.00000000
     atom   13 type  3   force =     0.07384333   -0.00000000    0.00000000
     atom   14 type  3   force =     0.03692166    0.06395019    0.00000000
     atom   15 type  3   force =     0.03692166   -0.06395020   -0.00000000
     atom   16 type  3   force =    -0.03692166    0.06395020    0.00000000
     atom   17 type  3   force =    -0.03692166   -0.06395019   -0.00000000
     atom   18 type  3   force =    -0.07384333    0.00000000   -0.00000000
     The ionic contribution  to forces
     atom    1 type  1   force =     0.00010611   -0.00006126    0.00000000
     atom    2 type  1   force =    -0.00010611    0.00006126    0.00000000
     atom    3 type  1   force =    -0.00010611    0.00006126   -0.00000000
     atom    4 type  1   force =     0.00010611   -0.00006126   -0.00000000
     atom    5 type  1   force =    15.66513114    0.00004357    0.00000000
     atom    6 type  1   force =     7.83260340   13.56646661    0.00000000
     atom    7 type  1   force =     7.83252746  -13.56642352    0.00000000
     atom    8 type  1   force =    -7.83252746   13.56642352    0.00000000
     atom    9 type  1   force =    -7.83260340  -13.56646661   -0.00000000
     atom   10 type  1   force =   -15.66513114   -0.00004357    0.00000000
     atom   11 type  2   force =    -0.00000000   -0.00000000   -0.00000000
     atom   12 type  2   force =    -0.00000000   -0.00000000    0.00000000
     atom   13 type  3   force =    -7.31415628   -0.00004950    0.00000000
     atom   14 type  3   force =    -3.65712091   -6.33431902    0.00000000
     atom   15 type  3   force =    -3.65703509    6.33427000    0.00000000
     atom   16 type  3   force =     3.65703509   -6.33427000    0.00000000
     atom   17 type  3   force =     3.65712091    6.33431902    0.00000000
     atom   18 type  3   force =     7.31415628    0.00004950    0.00000000
     The local contribution  to forces
     atom    1 type  1   force =    -0.00050236   -0.00052863   -0.00027945
     atom    2 type  1   force =     0.00018250    0.00070932    0.00028477
     atom    3 type  1   force =     0.00017479    0.00071982   -0.00027989
     atom    4 type  1   force =    -0.00052052   -0.00052991    0.00027921
     atom    5 type  1   force =   -15.76309079   -0.00025405    0.00020767
     atom    6 type  1   force =    -7.88164192  -13.65066921   -0.00019772
     atom    7 type  1   force =    -7.88172678   13.65046654   -0.00021704
     atom    8 type  1   force =     7.88150799  -13.65065667    0.00021117
     atom    9 type  1   force =     7.88238322   13.65039958    0.00019913
     atom   10 type  1   force =    15.76302458    0.00045765   -0.00020023
     atom   11 type  2   force =     0.00025185   -0.00054391   -0.00083475
     atom   12 type  2   force =     0.00024858   -0.00055379    0.00082371
     atom   13 type  3   force =     7.21667658    0.00080030    0.00026928
     atom   14 type  3   force =     3.60962670    6.24914367   -0.00027080
     atom   15 type  3   force =     3.60817164   -6.24934027   -0.00028291
     atom   16 type  3   force =    -3.60894126    6.24950006    0.00027822
     atom   17 type  3   force =    -3.60861247   -6.24950223    0.00026249
     atom   18 type  3   force =    -7.21697733   -0.00026848   -0.00027037
     The core correction contribution to forces
     atom    1 type  1   force =     0.00000326    0.00000398   -0.00000048
     atom    2 type  1   force =    -0.00000395   -0.00000342    0.00000058
     atom    3 type  1   force =    -0.00000422   -0.00000288   -0.00000046
     atom    4 type  1   force =     0.00000316    0.00000396    0.00000050
     atom    5 type  1   force =    -0.00289253    0.00000431   -0.00000058
     atom    6 type  1   force =    -0.00144178   -0.00250817    0.00000064
     atom    7 type  1   force =    -0.00144618    0.00250843    0.00000036
     atom    8 type  1   force =     0.00144690   -0.00250908   -0.00000040
     atom    9 type  1   force =     0.00144257    0.00250793   -0.00000082
     atom   10 type  1   force =     0.00289162   -0.00000328    0.00000048
     atom   11 type  2   force =     0.00000000    0.00000000    0.00000000
     atom   12 type  2   force =     0.00000000    0.00000000    0.00000000
     atom   13 type  3   force =    -0.00331582   -0.00000075    0.00000092
     atom   14 type  3   force =    -0.00165779   -0.00286873   -0.00000077
     atom   15 type  3   force =    -0.00165574    0.00286583   -0.00000119
     atom   16 type  3   force =     0.00165785   -0.00286938    0.00000101
     atom   17 type  3   force =     0.00166115    0.00286812    0.00000077
     atom   18 type  3   force =     0.00331307    0.00000264   -0.00000061
     The Hubbard contrib.    to forces
     atom    1 type  1   force =     0.00000000    0.00000000    0.00000000
     atom    2 type  1   force =     0.00000000    0.00000000    0.00000000
     atom    3 type  1   force =     0.00000000    0.00000000    0.00000000
     atom    4 type  1   force =     0.00000000    0.00000000    0.00000000
     atom    5 type  1   force =     0.00000000    0.00000000    0.00000000
     atom    6 type  1   force =     0.00000000    0.00000000    0.00000000
     atom    7 type  1   force =     0.00000000    0.00000000    0.00000000
     atom    8 type  1   force =     0.00000000    0.00000000    0.00000000
     atom    9 type  1   force =     0.00000000    0.00000000    0.00000000
     atom   10 type  1   force =     0.00000000    0.00000000    0.00000000
     atom   11 type  2   force =     0.00000000    0.00000000    0.00000000
     atom   12 type  2   force =     0.00000000    0.00000000    0.00000000
     atom   13 type  3   force =     0.00000000    0.00000000    0.00000000
     atom   14 type  3   force =     0.00000000    0.00000000    0.00000000
     atom   15 type  3   force =     0.00000000    0.00000000    0.00000000
     atom   16 type  3   force =     0.00000000    0.00000000    0.00000000
     atom   17 type  3   force =     0.00000000    0.00000000    0.00000000
     atom   18 type  3   force =     0.00000000    0.00000000    0.00000000
     The SCF correction term to forces
     atom    1 type  1   force =     0.00043757    0.00062907    0.00027026
     atom    2 type  1   force =    -0.00013631   -0.00080201   -0.00027441
     atom    3 type  1   force =    -0.00013296   -0.00080603    0.00027248
     atom    4 type  1   force =     0.00044834    0.00063023   -0.00026805
     atom    5 type  1   force =     0.00040748    0.00024961   -0.00021125
     atom    6 type  1   force =     0.00028587   -0.00027863    0.00020155
     atom    7 type  1   force =     0.00039680    0.00045866    0.00021433
     atom    8 type  1   force =    -0.00016025   -0.00030370   -0.00021073
     atom    9 type  1   force =    -0.00098603    0.00054744   -0.00020453
     atom   10 type  1   force =    -0.00037549   -0.00040767    0.00020193
     atom   11 type  2   force =    -0.00024282    0.00056351    0.00095829
     atom   12 type  2   force =    -0.00023804    0.00057040   -0.00093803
     atom   13 type  3   force =    -0.00005912   -0.00072389   -0.00028286
     atom   14 type  3   force =    -0.00125006    0.00071217    0.00027740
     atom   15 type  3   force =     0.00010823   -0.00048078    0.00028917
     atom   16 type  3   force =     0.00064069    0.00031697   -0.00028759
     atom   17 type  3   force =     0.00022204   -0.00032774   -0.00027608
     atom   18 type  3   force =     0.00033459    0.00020062    0.00028161

     Total force =     0.117057     Total SCF correction =     0.003495

     Computing stress (Cartesian axis) and pressure

     negative rho (up, down):  6.072E-01 0.000E+00
          total   stress  (Ry/bohr**3)                   (kbar)     P=      -70.78
  -0.00049669   0.00000000   0.00000000          -73.07        0.00        0.00
   0.00000000  -0.00049669   0.00000000            0.00      -73.07        0.00
   0.00000000   0.00000000  -0.00045002            0.00        0.00      -66.20

     kinetic stress (kbar)  19696.68     -0.00      0.00
                               -0.00  19696.68     -0.00
                                0.00      0.00  19896.47

     local   stress (kbar)    708.11      0.06      0.00
                                0.06    707.96      0.00
                                0.00      0.00  -9850.42

     nonloc. stress (kbar)   7919.27     -0.00      0.00
                               -0.00   7919.27      0.00
                                0.00      0.00   7924.63

     hartree stress (kbar)  12009.05     -0.19     -0.00
                               -0.19  12009.63     -0.00
                               -0.00     -0.00  17368.01

     exc-cor stress (kbar)   5923.49      0.00     -0.00
                                0.00   5923.48     -0.00
                               -0.00     -0.00   5924.48

     corecor stress (kbar) -12706.49     -0.00     -0.00
                               -0.00 -12706.48     -0.00
                               -0.00     -0.00 -12707.90

     ewald   stress (kbar) -33623.39     -0.01      0.00
                               -0.01 -33623.40      0.00
                                0.00      0.00 -28621.48

     hubbard stress (kbar)      0.00      0.00      0.00
                                0.00      0.00      0.00
                                0.00      0.00      0.00

     DFT-D   stress (kbar)      0.00      0.00      0.00
                                0.00      0.00      0.00
                                0.00      0.00      0.00

     XDM     stress (kbar)      0.00      0.00      0.00
                                0.00      0.00      0.00
                                0.00      0.00      0.00

     dft-nl  stress (kbar)      0.00      0.00      0.00
                                0.00      0.00      0.00
                                0.00      0.00      0.00

     TS-vdW  stress (kbar)      0.00      0.00      0.00
                                0.00      0.00      0.00
                                0.00      0.00      0.00

[...]

                                0.00      0.00      0.00

     Writing all to output data dir new_calculations/myprefix.save/

     General routines

     Parallel routines

     PAW routines

   This run was terminated on:  14:17:18  21May2023

   JOB DONE.