     Program PWSCF v.7.0 starts on 20May2023 at  4:49:34

     Reading input from espresso_17040.pwi
Warning: card &CELL ignored
Warning: card / ignored

     Current dimensions of program PWSCF are:
     Max number of different atomic species (ntypx) = 10
     Max number of k-points (npk) =  40000
     Max angular momentum in pseudopotentials (lmaxx) =  4
     file Mg.pbe-n-kjpaw_psl.0.3.0.UPF: wavefunction(s)  3S renormalized

     gamma-point specific algorithms are used
     Message from routine setup:
     using ibrav=0 with symmetry is DISCOURAGED, use correct ibrav instead

     Subspace diagonalization in iterative solution of the eigenvalue problem:
     a serial algorithm will be used

     Using Slab Decomposition

     bravais-lattice index     =            0
     lattice parameter (alat)  =       7.3485  a.u.
     unit-cell volume          =     606.6140 (a.u.)^3
     number of atoms/cell      =            4
     number of atomic types    =            3
     number of electrons       =        26.00
     number of Kohn-Sham states=           17
     kinetic-energy cutoff     =      30.0000  Ry
     charge density cutoff     =     240.0000  Ry
     scf convergence threshold =      1.0E-06
     mixing beta               =       0.7000
     number of iterations used =            8  plain     mixing
     Exchange-correlation= PBE
                           (   1   4   3   4   0   0   0)

     celldm(1)=   7.348463  celldm(2)=   0.000000  celldm(3)=   0.000000
     celldm(4)=   0.000000  celldm(5)=   0.000000  celldm(6)=   0.000000

     crystal axes: (cart. coord. in units of alat)
               a(1) = (   1.000000   0.000000   0.000000 )
               a(2) = (   0.000000   1.000000   0.000000 )
               a(3) = (   0.000000   0.000000   1.528702 )

     reciprocal axes: (cart. coord. in units 2 pi/alat)
               b(1) = (  1.000000  0.000000  0.000000 )
               b(2) = (  0.000000  1.000000  0.000000 )
               b(3) = (  0.000000  0.000000  0.654150 )

     PseudoPot. # 1 for Mg read from file:
     /home/pragov/projects/rrg-bengioy-ad/pragov/crystal_structure_design/SSSP/Mg.pbe-n-kjpaw_psl.0.3.0.UPF
     MD5 check sum: 24ecedc7f3e3cbe212e682f4413594e4
     Pseudo is Projector augmented-wave + core cor, Zval =  2.0
     Generated using "atomic" code by A. Dal Corso  v.5.0.99 svn rev. 10869
     Shape of augmentation charge: PSQ
     Using radial grid of 1129 points,  4 beta functions with:
                l(1) =   0
                l(2) =   0
                l(3) =   1
                l(4) =   1
     Q(r) pseudized with 0 coefficients

     PseudoPot. # 2 for Ge read from file:
     /home/pragov/projects/rrg-bengioy-ad/pragov/crystal_structure_design/SSSP/ge_pbe_v1.4.uspp.F.UPF
     MD5 check sum: 9c9eaa91e581c3f09632fb3098b2c6b2
     Pseudo is Ultrasoft + core correction, Zval = 14.0
     Generated by new atomic code, or converted to UPF format
     Using radial grid of  873 points,  6 beta functions with:
                l(1) =   0
                l(2) =   0
                l(3) =   1
                l(4) =   1
                l(5) =   2
                l(6) =   2
     Q(r) pseudized with  8 coefficients,  rinner =    1.400   1.400   1.400
                                                       1.400   1.400

     PseudoPot. # 3 for P  read from file:
     /home/pragov/projects/rrg-bengioy-ad/pragov/crystal_structure_design/SSSP/P.pbe-n-rrkjus_psl.1.0.0.UPF
     MD5 check sum: 8b930f418f0a4573dca56cd030ffe088
     Pseudo is Ultrasoft + core correction, Zval =  5.0
     Generated using "atomic" code by A. Dal Corso  v.5.1
     Using radial grid of 1147 points,  6 beta functions with:
                l(1) =   0
                l(2) =   0
                l(3) =   1
                l(4) =   1
                l(5) =   2
                l(6) =   2
     Q(r) pseudized with 0 coefficients

     atomic species   valence    mass     pseudopotential
        Mg             2.00    24.30500     Mg( 1.00)
        Ge            14.00    72.63000     Ge( 1.00)
        P              5.00    30.97376     P ( 1.00)

      8 Sym. Ops. (no inversion) found

                                    s                        frac. trans.

      isym =  1     identity

 cryst.   s( 1) = (     1          0          0      )
                  (     0          1          0      )
                  (     0          0          1      )

 cart.    s( 1) = (  1.0000000  0.0000000  0.0000000 )
                  (  0.0000000  1.0000000  0.0000000 )
                  (  0.0000000  0.0000000  1.0000000 )

      isym =  2     180 deg rotation - cart. axis [0,0,1]

[...]

      isym =  4     180 deg rotation - cart. axis [1,-1,0]

[...]

      isym =  5     inv. 180 deg rotation - cart. axis [0,1,0]

[...]

      isym =  8     inv.  90 deg rotation - cart. axis [0,0,1]

 cryst.   s( 8) = (     0         -1          0      )
                  (     1          0          0      )
                  (     0          0         -1      )

 cart.    s( 8) = (  0.0000000  1.0000000  0.0000000 )
                  ( -1.0000000  0.0000000  0.0000000 )
                  (  0.0000000  0.0000000 -1.0000000 )

   Cartesian axes

     site n.     atom                  positions (alat units)
         1           Mg  tau(   1) = (   0.0000000   0.0000000   0.0000000  )
         2           Ge  tau(   2) = (   0.5000000   0.5000000   0.7643512  )
         3           P   tau(   3) = (   0.0000000   0.5000000   0.4096907  )
         4           P   tau(   4) = (   0.5000000   0.0000000   1.1190117  )

   Crystallographic axes

     site n.     atom                  positions (cryst. coord.)
         1           Mg  tau(   1) = (  0.0000000  0.0000000  0.0000000  )
         2           Ge  tau(   2) = (  0.5000000  0.5000000  0.5000000  )
         3           P   tau(   3) = (  0.0000000  0.5000000  0.2679990  )
         4           P   tau(   4) = (  0.5000000  0.0000000  0.7320010  )

     number of k points=     1  Methfessel-Paxton smearing, width (Ry)=  0.0010
                       cart. coord. in units 2pi/alat
        k(    1) = (   0.0000000   0.0000000   0.0000000), wk =   2.0000000

                       cryst. coord.
        k(    1) = (   0.0000000   0.0000000   0.0000000), wk =   2.0000000

     Initial potential from superposition of free atoms

     starting charge      25.9979, renormalised to      26.0000
     Starting wfcs are   21 randomized atomic wfcs
     Checking if some PAW data can be deallocated...

     Self-consistent Calculation

     iteration #  1     ecut=    30.00 Ry     beta= 0.70
     Davidson diagonalization with overlap

     ethr =  1.00E-02,  avg # of iterations =  4.0

     total energy              =    -274.47038797 Ry
     estimated scf accuracy    <       0.49613720 Ry

[...]

     total energy              =    -274.61359974 Ry
     estimated scf accuracy    <       0.00000243 Ry

     iteration # 17     ecut=    30.00 Ry     beta= 0.70
     Davidson diagonalization with overlap

     ethr =  9.35E-09,  avg # of iterations =  1.0

     End of self-consistent calculation

          k = 0.0000 0.0000 0.0000 (   862 PWs)   bands (ev):

   -19.5114 -19.4766 -19.4763 -19.3825 -19.3372  -6.6626  -3.6862  -0.6064
     3.0307   3.0360   5.2038   5.8496   5.8832   5.9106   6.6766   9.4523
     9.5557

     occupation numbers
     1.0000   1.0000   1.0000   1.0000   1.0000   1.0000   1.0000   1.0000
     1.0000   1.0000   1.0000   1.0000   1.0258  -0.0258  -0.0000  -0.0000
    -0.0000

     the Fermi energy is     5.8969 ev

!    total energy              =    -274.61359954 Ry
     estimated scf accuracy    <       0.00000036 Ry
     smearing contrib. (-TS)   =       0.00021013 Ry
     internal energy E=F+TS    =    -274.61380967 Ry

     The total energy is F=E-TS. E is the sum of the following terms:
     one-electron contribution =    -183.35561424 Ry
     hartree contribution      =     109.32687760 Ry
     xc contribution           =     -68.96042032 Ry
     ewald contribution        =    -100.35246906 Ry
     one-center paw contrib.   =     -31.27218365 Ry
      -> PAW hartree energy AE =       0.58332649 Ry
      -> PAW hartree energy PS =      -0.58198114 Ry
      -> PAW xc energy AE      =     -32.47204471 Ry
      -> PAW xc energy PS      =       1.19851570 Ry
      -> total E_H with PAW    =     109.32822296 Ry
      -> total E_XC with PAW   =    -100.23394933 Ry

     convergence has been achieved in  17 iterations

     Forces acting on atoms (cartesian axes, Ry/au):

     atom    1 type  1   force =     0.00000000    0.00000000    0.00000000
     atom    2 type  2   force =     0.00000000    0.00000000    0.00000000
     atom    3 type  3   force =     0.00000000    0.00000000    0.00161027
     atom    4 type  3   force =     0.00000000    0.00000000   -0.00161027
     The non-local contrib.  to forces
     atom    1 type  1   force =     0.00000000    0.00000000    0.00000000
     atom    2 type  2   force =     0.00000000    0.00000000    0.00000000
     atom    3 type  3   force =     0.00000000    0.00000000    0.24754226
     atom    4 type  3   force =     0.00000000    0.00000000   -0.24754226
     The ionic contribution  to forces
     atom    1 type  1   force =     0.00000000    0.00000000   -0.00000000
     atom    2 type  2   force =     0.00000000    0.00000000    0.00000000
     atom    3 type  3   force =     0.00000000   -0.00000000   -6.13511938
     atom    4 type  3   force =    -0.00000000    0.00000000    6.13511938
     The local contribution  to forces
     atom    1 type  1   force =    -0.00000279   -0.00001043    0.00391979
     atom    2 type  2   force =    -0.00001604   -0.00005706   -0.01301886
     atom    3 type  3   force =    -0.00000753   -0.00020868    5.89759173
     atom    4 type  3   force =    -0.00004821   -0.00006742   -5.90462453
     The core correction contribution to forces
     atom    1 type  1   force =    -0.00000038   -0.00000160    0.00010504
     atom    2 type  2   force =    -0.00000047   -0.00000151   -0.00024241
     atom    3 type  3   force =    -0.00000076   -0.00000903   -0.01233784
     atom    4 type  3   force =    -0.00000240   -0.00000424    0.01201658
     The Hubbard contrib.    to forces
     atom    1 type  1   force =     0.00000000    0.00000000    0.00000000
     atom    2 type  2   force =     0.00000000    0.00000000    0.00000000
     atom    3 type  3   force =     0.00000000    0.00000000    0.00000000
     atom    4 type  3   force =     0.00000000    0.00000000    0.00000000
     The SCF correction term to forces
     atom    1 type  1   force =    -0.00000033   -0.00000192   -0.00015703
     atom    2 type  2   force =     0.00001364    0.00002719    0.00105656
     atom    3 type  3   force =    -0.00000132    0.00003973    0.00036546
     atom    4 type  3   force =     0.00000857    0.00000878   -0.00014748

     Total force =     0.002277     Total SCF correction =     0.001140
     SCF correction compared to forces is large: reduce conv_thr to get better values

     Computing stress (Cartesian axis) and pressure

          total   stress  (Ry/bohr**3)                   (kbar)     P=      111.07
   0.00099952   0.00000000   0.00000000          147.03        0.00        0.00
  -0.00000000   0.00099952   0.00000000           -0.00      147.03        0.00
   0.00000000   0.00000000   0.00026604            0.00        0.00       39.14

     kinetic stress (kbar)   4760.39      0.00      0.00
                                0.00   4760.39      0.00
                                0.00      0.00   4399.98

     local   stress (kbar)  -8519.71     -0.00     -0.01
                               -0.00  -8535.47      0.02
                               -0.01      0.02   5673.46

     nonloc. stress (kbar)   1760.13      0.00      0.00
                                0.00   1760.13      0.00
                                0.00      0.00   1637.01

     hartree stress (kbar)  11110.46      0.00      0.00
                                0.00  11112.56     -0.00
                                0.00     -0.00   4288.96

     exc-cor stress (kbar)   4942.96      0.00      0.00
                                0.00   4942.93     -0.00
                                0.00     -0.00   4941.82

     corecor stress (kbar)  -8125.42      0.00     -0.00
                                0.00  -8125.83      0.00
                               -0.00      0.00  -8115.88

     ewald   stress (kbar)  -5774.73      0.00     -0.00
                                0.00  -5774.73      0.00
                               -0.00      0.00 -12786.21

     hubbard stress (kbar)      0.00      0.00      0.00
                                0.00      0.00      0.00
                                0.00      0.00      0.00

     DFT-D   stress (kbar)      0.00      0.00      0.00
                                0.00      0.00      0.00
                                0.00      0.00      0.00

     XDM     stress (kbar)      0.00      0.00      0.00
                                0.00      0.00      0.00
                                0.00      0.00      0.00

     dft-nl  stress (kbar)      0.00      0.00      0.00
                                0.00      0.00      0.00
                                0.00      0.00      0.00

     TS-vdW  stress (kbar)      0.00      0.00      0.00
                                0.00      0.00      0.00
                                0.00      0.00      0.00

[...]

                                0.00      0.00      0.00

     Writing all to output data dir new_calculations/myprefix.save/

     General routines

     Parallel routines

     PAW routines

   This run was terminated on:   4:49:45  20May2023

   JOB DONE.