     Program PWSCF v.7.0 starts on 21May2023 at  9:30:41

     Reading input from espresso_24581.pwi
Warning: card &CELL ignored
Warning: card / ignored

     Current dimensions of program PWSCF are:
     Max number of different atomic species (ntypx) = 10
     Max number of k-points (npk) =  40000
     Max angular momentum in pseudopotentials (lmaxx) =  4

     gamma-point specific algorithms are used
     Message from routine setup:
     using ibrav=0 with symmetry is DISCOURAGED, use correct ibrav instead

     Subspace diagonalization in iterative solution of the eigenvalue problem:
     a serial algorithm will be used

     Using Slab Decomposition

     bravais-lattice index     =            0
     lattice parameter (alat)  =      15.2104  a.u.
     unit-cell volume          =    3391.7421 (a.u.)^3
     number of atoms/cell      =           20
     number of atomic types    =            3
     number of electrons       =       168.00
     number of Kohn-Sham states=          101
     kinetic-energy cutoff     =      30.0000  Ry
     charge density cutoff     =     240.0000  Ry
     scf convergence threshold =      1.0E-06
     mixing beta               =       0.7000
     number of iterations used =            8  plain     mixing
     Exchange-correlation= SLA  PW   PBE  PBE
                           (   1   4   3   4   0   0   0)

     celldm(1)=  15.210381  celldm(2)=   0.000000  celldm(3)=   0.000000
     celldm(4)=   0.000000  celldm(5)=   0.000000  celldm(6)=   0.000000

     crystal axes: (cart. coord. in units of alat)
               a(1) = (   1.000000   0.000000   0.000000 )
               a(2) = (   0.901424   0.432937   0.000000 )
               a(3) = (   0.763702   0.173888   2.226271 )

     reciprocal axes: (cart. coord. in units 2 pi/alat)
               b(1) = (  1.000000 -2.082115 -0.180413 )
               b(2) = (  0.000000  2.309806 -0.180413 )
               b(3) = (  0.000000  0.000000  0.449182 )

     PseudoPot. # 1 for Ta read from file:
     /home/pragov/projects/rrg-bengioy-ad/pragov/crystal_structure_design/SSSP/Ta_pbe_v1.uspp.F.UPF
     MD5 check sum: f8bbe9446314a3b8ea5d9f3e3836c939
     Pseudo is Ultrasoft + core correction, Zval = 13.0
     Generated by new atomic code, or converted to UPF format
     Using radial grid of  921 points,  7 beta functions with:
                l(1) =   0
                l(2) =   0
                l(3) =   1
                l(4) =   1
                l(5) =   2
                l(6) =   2
                l(7) =   3
     Q(r) pseudized with  6 coefficients,  rinner =    1.300   1.300   1.300
                                                       1.300   1.300   1.300
                                                       1.300

     PseudoPot. # 2 for Pt read from file:
     /home/pragov/projects/rrg-bengioy-ad/pragov/crystal_structure_design/SSSP/pt_pbe_v1.4.uspp.F.UPF
     MD5 check sum: f09d6de1a584b5a045c4fc126da2d0c4
     Pseudo is Ultrasoft + core correction, Zval = 16.0
     Generated by new atomic code, or converted to UPF format
     Using radial grid of  985 points,  6 beta functions with:
                l(1) =   0
                l(2) =   0
                l(3) =   1
                l(4) =   1
                l(5) =   2
                l(6) =   2
     Q(r) pseudized with  8 coefficients,  rinner =    1.300   1.300   1.300
                                                       1.300   1.300

     PseudoPot. # 3 for Se read from file:
     /home/pragov/projects/rrg-bengioy-ad/pragov/crystal_structure_design/SSSP/Se_pbe_v1.uspp.F.UPF
     MD5 check sum: 1b3568f3a8ae88f9a2a0ad0698632c85
     Pseudo is Ultrasoft + core correction, Zval =  6.0
     Generated by new atomic code, or converted to UPF format
     Using radial grid of  877 points,  6 beta functions with:
                l(1) =   0
                l(2) =   0
                l(3) =   1
                l(4) =   1
                l(5) =   2
                l(6) =   2
     Q(r) pseudized with  8 coefficients,  rinner =    1.300   1.300   1.300
                                                       1.300   1.300

     atomic species   valence    mass     pseudopotential
        Ta            13.00   180.94788     Ta( 1.00)
        Pt            16.00   195.08400     Pt( 1.00)
        Se             6.00    78.97100     Se( 1.00)

      2 Sym. Ops., with inversion, found

                                    s                        frac. trans.

      isym =  1     identity

 cryst.   s( 1) = (     1          0          0      )
                  (     0          1          0      )
                  (     0          0          1      )

 cart.    s( 1) = (  1.0000000 -0.0000000 -0.0000000 )
                  (  0.0000000  1.0000000 -0.0000000 )
                  (  0.0000000  0.0000000  1.0000000 )

      isym =  2     inversion

 cryst.   s( 2) = (    -1          0          0      )
                  (     0         -1          0      )
                  (     0          0         -1      )

 cart.    s( 2) = ( -1.0000000  0.0000000  0.0000000 )
                  (  0.0000000 -1.0000000  0.0000000 )
                  (  0.0000000  0.0000000 -1.0000000 )

   Cartesian axes

     site n.     atom                  positions (alat units)
         1           Ta  tau(   1) = (   1.8998997   0.4325896   0.8870400  )
         2           Ta  tau(   2) = (   0.7652267   0.1742351   1.3392313  )
         3           Ta  tau(   3) = (   1.1390842   0.2593590   2.0189386  )
         4           Ta  tau(   4) = (   1.5260421   0.3474657   0.2073326  )
         5           Pt  tau(   5) = (   0.7342056   0.1671718   0.4688839  )
         6           Pt  tau(   6) = (   1.9309207   0.4396528   1.7573873  )
         7           Se  tau(   7) = (   1.0368316   0.2360770   1.5428972  )
         8           Se  tau(   8) = (   1.6282947   0.3707477   0.6833740  )
         9           Se  tau(   9) = (   0.7330784   0.1669152   0.9972292  )
        10           Se  tau(  10) = (   1.9320480   0.4399095   1.2290420  )
        11           Se  tau(  11) = (   1.4835603   0.3377930   1.2961863  )
        12           Se  tau(  12) = (   1.1815660   0.2690317   0.9300849  )
        13           Se  tau(  13) = (   1.2485277   0.2842782   0.0221915  )
        14           Se  tau(  14) = (   1.4165986   0.3225464   2.2040797  )
        15           Se  tau(  15) = (   1.0103226   0.2300411   0.6530611  )
        16           Se  tau(  16) = (   1.6548037   0.3767835   1.5732101  )
        17           Se  tau(  17) = (   1.8190744   0.4141865   0.2889233  )
        18           Se  tau(  18) = (   0.8460520   0.1926382   1.9373480  )
        19           Se  tau(  19) = (   0.4261458   0.0970295   0.3801247  )
        20           Se  tau(  20) = (   2.2389805   0.5097952   1.8461465  )

   Crystallographic axes

     site n.     atom                  positions (cryst. coord.)
         1           Ta  tau(   1) = (  0.8391650  0.8391650  0.3984420  )
         2           Ta  tau(   2) = (  0.1608350  0.1608350  0.6015580  )
         3           Ta  tau(   3) = (  0.2348270  0.2348270  0.9068700  )
         4           Ta  tau(   4) = (  0.7651730  0.7651730  0.0931300  )
         5           Pt  tau(   5) = (  0.3015420  0.3015420  0.2106140  )
         6           Pt  tau(   6) = (  0.6984580  0.6984580  0.7893860  )
         7           Se  tau(   7) = (  0.2669340  0.2669340  0.6930410  )
         8           Se  tau(   8) = (  0.7330660  0.7330660  0.3069590  )
         9           Se  tau(   9) = (  0.2056290  0.2056290  0.4479370  )
        10           Se  tau(  10) = (  0.7943710  0.7943710  0.5520630  )
        11           Se  tau(  11) = (  0.5463880  0.5463880  0.5822230  )
        12           Se  tau(  12) = (  0.4536120  0.4536120  0.4177770  )
        13           Se  tau(  13) = (  0.6526240  0.6526240  0.0099680  )
        14           Se  tau(  14) = (  0.3473760  0.3473760  0.9900320  )
        15           Se  tau(  15) = (  0.4135300  0.4135300  0.2933430  )
        16           Se  tau(  16) = (  0.5864700  0.5864700  0.7066570  )
        17           Se  tau(  17) = (  0.9045650  0.9045650  0.1297790  )
        18           Se  tau(  18) = (  0.0954350  0.0954350  0.8702210  )
        19           Se  tau(  19) = (  0.1555400  0.1555400  0.1707450  )
        20           Se  tau(  20) = (  0.8444600  0.8444600  0.8292550  )

     number of k points=     1  Methfessel-Paxton smearing, width (Ry)=  0.0010
                       cart. coord. in units 2pi/alat
        k(    1) = (   0.0000000   0.0000000   0.0000000), wk =   2.0000000

                       cryst. coord.
        k(    1) = (   0.0000000   0.0000000   0.0000000), wk =   2.0000000

     Initial potential from superposition of free atoms

     starting charge     166.9946, renormalised to     168.0000

     negative rho (up, down):  7.464E-01 0.000E+00
     Starting wfcs are  132 randomized atomic wfcs

     Self-consistent Calculation

     iteration #  1     ecut=    30.00 Ry     beta= 0.70
     Davidson diagonalization with overlap

     ethr =  1.00E-02,  avg # of iterations =  2.0

     negative rho (up, down):  7.164E-01 0.000E+00

     total energy              =   -1587.90504116 Ry
     estimated scf accuracy    <      13.21604463 Ry

[...]

     total energy              =   -1598.58645077 Ry
     estimated scf accuracy    <       0.00000373 Ry

     iteration # 43     ecut=    30.00 Ry     beta= 0.70
     Davidson diagonalization with overlap

     ethr =  2.22E-09,  avg # of iterations =  2.0

[...]

     End of self-consistent calculation

          k = 0.0000 0.0000 0.0000 (  4686 PWs)   bands (ev):

   -60.8802 -60.8798 -60.5051 -60.5038 -45.9594 -45.9591 -45.6563 -45.6560
   -45.5072 -45.5069 -27.4743 -27.4667 -27.4097 -27.4026 -27.1932 -27.1879
   -27.1040 -27.1015 -27.0117 -27.0069 -26.6615 -26.6596  -7.0432  -6.8895
    -6.3473  -6.0999  -5.7526  -5.6619  -5.5982  -5.4561  -5.2479  -4.8499
    -4.6798  -4.4462  -4.3372  -4.2949   1.2360   1.3752   1.7958   1.9602
     2.1563   2.1585   2.3436   2.3444   2.5245   2.7809   3.1284   3.1519
     3.3029   3.6860   3.7541   3.7627   3.9523   4.2921   4.3503   4.4332
     4.6710   4.8389   4.8710   4.9763   5.0406   5.1690   5.1699   5.3127
     5.4611   5.5553   5.6400   5.7341   5.7676   5.9437   6.1467   6.2185
     6.2321   6.3030   6.5285   6.5667   6.5804   6.8318   6.9942   7.0163
     7.3175   7.5571   7.7515   7.8832   7.9084   7.9444   8.4099   8.6918
     8.8018   8.8521   9.0727   9.2142   9.2318   9.4461   9.6625   9.9587
    10.2755  10.3391  10.4290  10.8413  10.9705

     occupation numbers
     1.0000   1.0000   1.0000   1.0000   1.0000   1.0000   1.0000   1.0000
     1.0000   1.0000   1.0000   1.0000   1.0000   1.0000   1.0000   1.0000
     1.0000   1.0000   1.0000   1.0000   1.0000   1.0000   1.0000   1.0000
     1.0000   1.0000   1.0000   1.0000   1.0000   1.0000   1.0000   1.0000
     1.0000   1.0000   1.0000   1.0000   1.0000   1.0000   1.0000   1.0000
     1.0000   1.0000   1.0000   1.0000   1.0000   1.0000   1.0000   1.0000
     1.0000   1.0000   1.0000   1.0000   1.0000   1.0000   1.0000   1.0000
     1.0000   1.0000   1.0000   1.0000   1.0000   1.0000   1.0000   1.0000
     1.0000   1.0000   1.0000   1.0000   1.0000   1.0000   1.0000   1.0000
     1.0000   1.0000   1.0000   1.0000   1.0000   1.0000   1.0000   1.0000
     1.0000   1.0000   1.0000   1.0154  -0.0154  -0.0000  -0.0000  -0.0000
    -0.0000  -0.0000  -0.0000  -0.0000  -0.0000  -0.0000  -0.0000  -0.0000
    -0.0000  -0.0000  -0.0000  -0.0000  -0.0000

     the Fermi energy is     7.8958 ev

!    total energy              =   -1598.58645079 Ry
     estimated scf accuracy    <       0.00000029 Ry
     smearing contrib. (-TS)   =       0.00017034 Ry
     internal energy E=F+TS    =   -1598.58662112 Ry

     The total energy is F=E-TS. E is the sum of the following terms:
     one-electron contribution =    -715.39543479 Ry
     hartree contribution      =     420.83701951 Ry
     xc contribution           =    -699.00820832 Ry
     ewald contribution        =    -605.01999751 Ry

     convergence has been achieved in  43 iterations

     negative rho (up, down):  7.268E-01 0.000E+00

     Forces acting on atoms (cartesian axes, Ry/au):

     atom    1 type  1   force =     0.06890505    0.01568919   -0.04150067
     atom    2 type  1   force =    -0.06890505   -0.01568919    0.04150067
     atom    3 type  1   force =    -0.00480910   -0.00109485   -0.00146696
     atom    4 type  1   force =     0.00480910    0.00109485    0.00146696
     atom    5 type  2   force =     0.00287669    0.00065491    0.04221267
     atom    6 type  2   force =    -0.00287669   -0.00065491   -0.04221267
     atom    7 type  3   force =    -0.00283616   -0.00064632   -0.00538418
     atom    8 type  3   force =     0.00283616    0.00064632    0.00538418
     atom    9 type  3   force =     0.02466300    0.00561532    0.02493192
     atom   10 type  3   force =    -0.02466300   -0.00561532   -0.02493192
     atom   11 type  3   force =     0.04392268    0.01000083    0.01079839
     atom   12 type  3   force =    -0.04392268   -0.01000083   -0.01079839
     atom   13 type  3   force =     0.02763266    0.00629152   -0.04441161
     atom   14 type  3   force =    -0.02763266   -0.00629152    0.04441161
     atom   15 type  3   force =    -0.02191985   -0.00499086    0.05429362
     atom   16 type  3   force =     0.02191985    0.00499086   -0.05429362
     atom   17 type  3   force =    -0.00966948   -0.00220152   -0.02966520
     atom   18 type  3   force =     0.00966948    0.00220152    0.02966520
     atom   19 type  3   force =     0.04038583    0.00919551   -0.05195843
     atom   20 type  3   force =    -0.04038583   -0.00919551    0.05195843
     The non-local contrib.  to forces
     atom    1 type  1   force =     0.11584317    0.02637652   -0.12695942
     atom    2 type  1   force =    -0.11584317   -0.02637652    0.12695942
     atom    3 type  1   force =    -0.00960677   -0.00218699   -0.07671011
     atom    4 type  1   force =     0.00960677    0.00218699    0.07671011
     atom    5 type  2   force =    -0.00931710   -0.00212114   -0.01374573
     atom    6 type  2   force =     0.00931710    0.00212114    0.01374573
     atom    7 type  3   force =    -0.17382964   -0.03957941    0.21156487
     atom    8 type  3   force =     0.17382964    0.03957941   -0.21156487
     atom    9 type  3   force =     0.20801042    0.04736214    0.12873471
     atom   10 type  3   force =    -0.20801042   -0.04736214   -0.12873471
     atom   11 type  3   force =     0.10273250    0.02339126    0.08375351
     atom   12 type  3   force =    -0.10273250   -0.02339126   -0.08375351
     atom   13 type  3   force =     0.12595687    0.02867921   -0.04329580
     atom   14 type  3   force =    -0.12595687   -0.02867921    0.04329580
     atom   15 type  3   force =    -0.11468966   -0.02611386    0.09510578
     atom   16 type  3   force =     0.11468966    0.02611386   -0.09510578
     atom   17 type  3   force =    -0.17235453   -0.03924325    0.20570520
     atom   18 type  3   force =     0.17235453    0.03924325   -0.20570520
     atom   19 type  3   force =     0.16895213    0.03846916    0.05412376
     atom   20 type  3   force =    -0.16895213   -0.03846916   -0.05412376
     The ionic contribution  to forces
     atom    1 type  1   force =     7.33182253    1.66938837    4.22514609
     atom    2 type  1   force =    -7.33182253   -1.66938837   -4.22514609
     atom    3 type  1   force =     5.49787483    1.25181540    6.02518406
     atom    4 type  1   force =    -5.49787483   -1.25181540   -6.02518406
     atom    5 type  2   force =     3.68682541    0.83945614    8.31570753
     atom    6 type  2   force =    -3.68682541   -0.83945614   -8.31570754
     atom    7 type  3   force =     8.67026383    1.97413911   -9.15789781
     atom    8 type  3   force =    -8.67026383   -1.97413911    9.15789781
     atom    9 type  3   force =    -8.87445207   -2.02063089    0.63862390
     atom   10 type  3   force =     8.87445207    2.02063089   -0.63862390
     atom   11 type  3   force =   -10.54035322   -2.39994122   -2.81903559
     atom   12 type  3   force =    10.54035322    2.39994122    2.81903559
     atom   13 type  3   force =    -8.14372398   -1.85425084    6.17863894
     atom   14 type  3   force =     8.14372398    1.85425084   -6.17863894
     atom   15 type  3   force =     9.74625889    2.21913326   -3.00069525
     atom   16 type  3   force =    -9.74625889   -2.21913326    3.00069525
     atom   17 type  3   force =    13.07413045    2.97685893   -6.49686940
     atom   18 type  3   force =   -13.07413045   -2.97685893    6.49686940
     atom   19 type  3   force =   -12.72800144   -2.89804854    6.40677654
     atom   20 type  3   force =    12.72800144    2.89804854   -6.40677654
     The local contribution  to forces
     atom    1 type  1   force =    -7.38012798   -1.68038696   -4.13697240
     atom    2 type  1   force =     7.38017954    1.68039835    4.13827981
     atom    3 type  1   force =    -5.49101638   -1.25025392   -5.94838466
     atom    4 type  1   force =     5.49071236    1.25018421    5.94730384
     atom    5 type  2   force =    -3.66414275   -0.83428669   -8.25905131
     atom    6 type  2   force =     3.66414673    0.83429276    8.25895826
     atom    7 type  3   force =    -8.51892174   -1.93968007    8.96650403
     atom    8 type  3   force =     8.51871223    1.93963236   -8.96649426
     atom    9 type  3   force =     8.71353477    1.98399135   -0.72590061
     atom   10 type  3   force =    -8.71383182   -1.98405898    0.72689512
     atom   11 type  3   force =    10.49033502    2.38855244    2.75576745
     atom   12 type  3   force =   -10.49006703   -2.38849173   -2.75512674
     atom   13 type  3   force =     8.05784010    1.83469629   -6.18321397
     atom   14 type  3   force =    -8.05805522   -1.83474444    6.18225303
     atom   15 type  3   force =    -9.66655100   -2.20098428    2.96852096
     atom   16 type  3   force =     9.66663885    2.20100436   -2.96864225
     atom   17 type  3   force =   -12.92765089   -2.94350788    6.28691804
     atom   18 type  3   force =    12.92794462    2.94357352   -6.28727070
     atom   19 type  3   force =    12.61700002    2.87277435   -6.50271106
     atom   20 type  3   force =   -12.61714411   -2.87280716    6.50250383
     The core correction contribution to forces
     atom    1 type  1   force =     0.00157872    0.00035947   -0.00245125
     atom    2 type  1   force =    -0.00158050   -0.00035984    0.00244782
     atom    3 type  1   force =    -0.00243300   -0.00055397   -0.00228988
     atom    4 type  1   force =     0.00243225    0.00055375    0.00229599
     atom    5 type  2   force =    -0.01037827   -0.00236262   -0.00103146
     atom    6 type  2   force =     0.01037587    0.00236270    0.00102868
     atom    7 type  3   force =     0.01950499    0.00444097   -0.02534413
     atom    8 type  3   force =    -0.01950571   -0.00444101    0.02533158
     atom    9 type  3   force =    -0.02260611   -0.00514728   -0.01608388
     atom   10 type  3   force =     0.02260485    0.00514709    0.01608206
     atom   11 type  3   force =    -0.00866084   -0.00197197   -0.00926189
     atom   12 type  3   force =     0.00865647    0.00197102    0.00926603
     atom   13 type  3   force =    -0.01263561   -0.00287710    0.00295074
     atom   14 type  3   force =     0.01262741    0.00287523   -0.00295515
     atom   15 type  3   force =     0.01308339    0.00297896   -0.00879537
     atom   16 type  3   force =    -0.01308790   -0.00298009    0.00879963
     atom   17 type  3   force =     0.01631653    0.00371502   -0.02553514
     atom   18 type  3   force =    -0.01631290   -0.00371434    0.02553249
     atom   19 type  3   force =    -0.01756669   -0.00399983   -0.01023648
     atom   20 type  3   force =     0.01757110    0.00400080    0.01023207
     The Hubbard contrib.    to forces
     atom    1 type  1   force =     0.00000000    0.00000000    0.00000000
     atom    2 type  1   force =     0.00000000    0.00000000    0.00000000
     atom    3 type  1   force =     0.00000000    0.00000000    0.00000000
     atom    4 type  1   force =     0.00000000    0.00000000    0.00000000
     atom    5 type  2   force =     0.00000000    0.00000000    0.00000000
     atom    6 type  2   force =     0.00000000    0.00000000    0.00000000
     atom    7 type  3   force =     0.00000000    0.00000000    0.00000000
     atom    8 type  3   force =     0.00000000    0.00000000    0.00000000
     atom    9 type  3   force =     0.00000000    0.00000000    0.00000000
     atom   10 type  3   force =     0.00000000    0.00000000    0.00000000
     atom   11 type  3   force =     0.00000000    0.00000000    0.00000000
     atom   12 type  3   force =     0.00000000    0.00000000    0.00000000
     atom   13 type  3   force =     0.00000000    0.00000000    0.00000000
     atom   14 type  3   force =     0.00000000    0.00000000    0.00000000
     atom   15 type  3   force =     0.00000000    0.00000000    0.00000000
     atom   16 type  3   force =     0.00000000    0.00000000    0.00000000
     atom   17 type  3   force =     0.00000000    0.00000000    0.00000000
     atom   18 type  3   force =     0.00000000    0.00000000    0.00000000
     atom   19 type  3   force =     0.00000000    0.00000000    0.00000000
     atom   20 type  3   force =     0.00000000    0.00000000    0.00000000
     The SCF correction term to forces
     atom    1 type  1   force =    -0.00021882   -0.00005009   -0.00029242
     atom    2 type  1   force =     0.00015418    0.00003533   -0.00106904
     atom    3 type  1   force =     0.00039190    0.00008914    0.00075373
     atom    4 type  1   force =    -0.00004778   -0.00001020    0.00036120
     atom    5 type  2   force =    -0.00009786   -0.00002824    0.00036096
     atom    6 type  2   force =     0.00012175    0.00002717   -0.00021046
     atom    7 type  3   force =     0.00014379    0.00003274   -0.00025556
     atom    8 type  3   force =     0.00006123    0.00001434    0.00016949
     atom    9 type  3   force =     0.00016078    0.00003661   -0.00045663
     atom   10 type  3   force =     0.00010713    0.00002442   -0.00056493
     atom   11 type  3   force =    -0.00014294   -0.00003250   -0.00042056
     atom   12 type  3   force =    -0.00014500   -0.00003291   -0.00021521
     atom   13 type  3   force =     0.00016474    0.00003722    0.00048756
     atom   14 type  3   force =    -0.00000250   -0.00000069    0.00043596
     atom   15 type  3   force =    -0.00003961   -0.00000911    0.00017517
     atom   16 type  3   force =    -0.00008003   -0.00001818   -0.00002280
     atom   17 type  3   force =    -0.00008807   -0.00001948    0.00011967
     atom   18 type  3   force =    -0.00016333   -0.00003712    0.00024279
     atom   19 type  3   force =     0.00001006    0.00000221    0.00008409
     atom   20 type  3   force =     0.00014610    0.00003331    0.00011809

     Total force =     0.217258     Total SCF correction =     0.001992

     Computing stress (Cartesian axis) and pressure

     negative rho (up, down):  7.268E-01 0.000E+00
          total   stress  (Ry/bohr**3)                   (kbar)     P=       62.45
  -0.00000810  -0.00032236   0.00015202           -1.19      -47.42       22.36
  -0.00032236   0.00133430   0.00003461          -47.42      196.28        5.09
   0.00015202   0.00003461  -0.00005261           22.36        5.09       -7.74

     kinetic stress (kbar)  10530.62    -54.96    -11.90
                              -54.96  10759.48     -2.71
                              -11.90     -2.71  10482.30

     local   stress (kbar)  14219.13   8104.91 -12959.57
                             8104.91 -19531.59  -2950.78
                           -12959.57  -2950.78  -8589.07

     nonloc. stress (kbar)    299.84     -2.17    -32.88
                               -2.17    308.90     -7.49
                              -32.88     -7.49    265.06

     hartree stress (kbar)  -2356.06  -3619.97   5835.37
                            -3619.97  12718.33   1328.66
                             5835.37   1328.66   7890.08

     exc-cor stress (kbar)  20075.66     -0.67      0.52
                               -0.67  20078.46      0.12
                                0.52      0.12  20078.23

     corecor stress (kbar) -23598.53      3.10      4.79
                                3.10 -23611.43      1.09
                                4.79      1.09 -23591.42

     ewald   stress (kbar) -19171.86  -4477.66   7186.04
                            -4477.66   -525.86   1636.20
                             7186.04   1636.20  -6542.93

     hubbard stress (kbar)      0.00      0.00      0.00
                                0.00      0.00      0.00
                                0.00      0.00      0.00

     DFT-D   stress (kbar)      0.00      0.00      0.00
                                0.00      0.00      0.00
                                0.00      0.00      0.00

     XDM     stress (kbar)      0.00      0.00      0.00
                                0.00      0.00      0.00
                                0.00      0.00      0.00

     dft-nl  stress (kbar)      0.00      0.00      0.00
                                0.00      0.00      0.00
                                0.00      0.00      0.00

     TS-vdW  stress (kbar)      0.00      0.00      0.00
                                0.00      0.00      0.00
                                0.00      0.00      0.00

[...]

                                0.00      0.00      0.00

     Writing all to output data dir new_calculations/myprefix.save/

     General routines

     Parallel routines

   This run was terminated on:   9:32:34  21May2023

   JOB DONE.