     Program PWSCF v.7.0 starts on 20May2023 at 16:31:34

     Reading input from espresso_15239.pwi
Warning: card &CELL ignored
Warning: card / ignored

     Current dimensions of program PWSCF are:
     Max number of different atomic species (ntypx) = 10
     Max number of k-points (npk) =  40000
     Max angular momentum in pseudopotentials (lmaxx) =  4
     file Al.pbe-n-kjpaw_psl.1.0.0.UPF: wavefunction(s)  3S 3P renormalized

     gamma-point specific algorithms are used
     Message from routine setup:
     using ibrav=0 with symmetry is DISCOURAGED, use correct ibrav instead

     Subspace diagonalization in iterative solution of the eigenvalue problem:
     a serial algorithm will be used

     Using Slab Decomposition

     bravais-lattice index     =            0
     lattice parameter (alat)  =      10.4586  a.u.
     unit-cell volume          =     814.7666 (a.u.)^3
     number of atoms/cell      =            8
     number of atomic types    =            2
     number of electrons       =       102.00
     number of Kohn-Sham states=           61
     kinetic-energy cutoff     =      30.0000  Ry
     charge density cutoff     =     240.0000  Ry
     scf convergence threshold =      1.0E-06
     mixing beta               =       0.7000
     number of iterations used =            8  plain     mixing
     Exchange-correlation=  SLA  PW   PBX  PBC
                           (   1   4   3   4   0   0   0)

     celldm(1)=  10.458574  celldm(2)=   0.000000  celldm(3)=   0.000000
     celldm(4)=   0.000000  celldm(5)=   0.000000  celldm(6)=   0.000000

     crystal axes: (cart. coord. in units of alat)
               a(1) = (   1.000000   0.000000   0.000000 )
               a(2) = (   0.000000   1.000000   0.000000 )
               a(3) = (   0.000000   0.000000   0.712223 )

     reciprocal axes: (cart. coord. in units 2 pi/alat)
               b(1) = (  1.000000  0.000000  0.000000 )
               b(2) = (  0.000000  1.000000  0.000000 )
               b(3) = (  0.000000  0.000000  1.404055 )

     PseudoPot. # 1 for Al read from file:
     /home/pragov/projects/rrg-bengioy-ad/pragov/crystal_structure_design/SSSP/Al.pbe-n-kjpaw_psl.1.0.0.UPF
     MD5 check sum: cfc449ca30b5f3223ec38ddd88ac046d
     Pseudo is Projector augmented-wave + core cor, Zval =  3.0
     Generated using "atomic" code by A. Dal Corso  v.5.1
     Shape of augmentation charge: PSQ
     Using radial grid of 1135 points,  6 beta functions with:
                l(1) =   0
                l(2) =   0
                l(3) =   1
                l(4) =   1
                l(5) =   2
                l(6) =   2
     Q(r) pseudized with 0 coefficients

     PseudoPot. # 2 for Pt read from file:
     /home/pragov/projects/rrg-bengioy-ad/pragov/crystal_structure_design/SSSP/pt_pbe_v1.4.uspp.F.UPF
     MD5 check sum: f09d6de1a584b5a045c4fc126da2d0c4
     Pseudo is Ultrasoft + core correction, Zval = 16.0
     Generated by new atomic code, or converted to UPF format
     Using radial grid of  985 points,  6 beta functions with:
                l(1) =   0
                l(2) =   0
                l(3) =   1
                l(4) =   1
                l(5) =   2
                l(6) =   2
     Q(r) pseudized with  8 coefficients,  rinner =    1.300   1.300   1.300
                                                       1.300   1.300

     atomic species   valence    mass     pseudopotential
        Al             3.00    26.98154     Al( 1.00)
        Pt            16.00   195.08400     Pt( 1.00)

     16 Sym. Ops., with inversion, found ( 8 have fractional translation)

                                    s                        frac. trans.

      isym =  1     identity

 cryst.   s( 1) = (     1          0          0      )
                  (     0          1          0      )
                  (     0          0          1      )

 cart.    s( 1) = (  1.0000000  0.0000000  0.0000000 )
                  (  0.0000000  1.0000000  0.0000000 )
                  (  0.0000000  0.0000000  1.0000000 )

      isym =  2     180 deg rotation - cart. axis [0,0,1]

[...]

 cryst.   s( 3) = (    -1          0          0      )    f =(  0.5000000 )
                  (     0          1          0      )       (  0.5000000 )
                  (     0          0         -1      )       (  0.0000000 )

 cart.    s( 3) = ( -1.0000000  0.0000000  0.0000000 )    f =(  0.5000000 )
                  (  0.0000000  1.0000000  0.0000000 )       (  0.5000000 )
                  (  0.0000000  0.0000000 -1.0000000 )       (  0.0000000 )

[...]

 cryst.   s( 6) = (     0         -1          0      )    f =(  0.5000000 )
                  (    -1          0          0      )       (  0.5000000 )
                  (     0          0         -1      )       (  0.0000000 )

 cart.    s( 6) = (  0.0000000 -1.0000000  0.0000000 )    f =(  0.5000000 )
                  ( -1.0000000  0.0000000  0.0000000 )       (  0.5000000 )
                  (  0.0000000  0.0000000 -1.0000000 )       (  0.0000000 )

[...]

      isym =  8      90 deg rotation - cart. axis [0,0,1]

[...]

      isym =  9     inversion

 cryst.   s( 9) = (    -1          0          0      )
                  (     0         -1          0      )
                  (     0          0         -1      )

 cart.    s( 9) = ( -1.0000000  0.0000000  0.0000000 )
                  (  0.0000000 -1.0000000  0.0000000 )
                  (  0.0000000  0.0000000 -1.0000000 )

      isym = 10     inv. 180 deg rotation - cart. axis [0,0,1]

 cryst.   s(10) = (     1          0          0      )
                  (     0          1          0      )
                  (     0          0         -1      )

 cart.    s(10) = (  1.0000000  0.0000000  0.0000000 )
                  (  0.0000000  1.0000000  0.0000000 )
                  (  0.0000000  0.0000000 -1.0000000 )

[...]

 cryst.   s(11) = (     1          0          0      )    f =( -0.5000000 )
                  (     0         -1          0      )       (  0.5000000 )
                  (     0          0          1      )       (  0.0000000 )

 cart.    s(11) = (  1.0000000  0.0000000  0.0000000 )    f =( -0.5000000 )
                  (  0.0000000 -1.0000000  0.0000000 )       (  0.5000000 )
                  (  0.0000000  0.0000000  1.0000000 )       (  0.0000000 )

[...]

 cryst.   s(14) = (     0          1          0      )    f =( -0.5000000 )
                  (     1          0          0      )       (  0.5000000 )
                  (     0          0          1      )       (  0.0000000 )

 cart.    s(14) = (  0.0000000  1.0000000  0.0000000 )    f =( -0.5000000 )
                  (  1.0000000  0.0000000  0.0000000 )       (  0.5000000 )
                  (  0.0000000  0.0000000  1.0000000 )       (  0.0000000 )

[...]

      isym = 16     inv.  90 deg rotation - cart. axis [0,0,1]

 cryst.   s(16) = (     0         -1          0      )
                  (     1          0          0      )
                  (     0          0         -1      )

 cart.    s(16) = (  0.0000000  1.0000000  0.0000000 )
                  ( -1.0000000  0.0000000  0.0000000 )
                  (  0.0000000  0.0000000 -1.0000000 )

   Cartesian axes

     site n.     atom                  positions (alat units)
         1           Al  tau(   1) = (   0.0000000   0.5000000   0.3561113  )
         2           Al  tau(   2) = (   0.5000000   0.0000000   0.3561113  )
         3           Pt  tau(   3) = (   0.7630860   0.2630860   0.0000000  )
         4           Pt  tau(   4) = (   0.2369140   0.7369140   0.0000000  )
         5           Pt  tau(   5) = (   0.2630860   0.2369140   0.0000000  )
         6           Pt  tau(   6) = (   0.7369140   0.7630860   0.0000000  )
         7           Pt  tau(   7) = (   0.5000000   0.5000000   0.3561113  )
         8           Pt  tau(   8) = (   0.0000000   0.0000000   0.3561113  )

   Crystallographic axes

     site n.     atom                  positions (cryst. coord.)
         1           Al  tau(   1) = (  0.0000000  0.5000000  0.5000000  )
         2           Al  tau(   2) = (  0.5000000  0.0000000  0.5000000  )
         3           Pt  tau(   3) = (  0.7630860  0.2630860  0.0000000  )
         4           Pt  tau(   4) = (  0.2369140  0.7369140  0.0000000  )
         5           Pt  tau(   5) = (  0.2630860  0.2369140  0.0000000  )
         6           Pt  tau(   6) = (  0.7369140  0.7630860  0.0000000  )
         7           Pt  tau(   7) = (  0.5000000  0.5000000  0.5000000  )
         8           Pt  tau(   8) = (  0.0000000  0.0000000  0.5000000  )

     number of k points=     1  Methfessel-Paxton smearing, width (Ry)=  0.0010
                       cart. coord. in units 2pi/alat
        k(    1) = (   0.0000000   0.0000000   0.0000000), wk =   2.0000000

                       cryst. coord.
        k(    1) = (   0.0000000   0.0000000   0.0000000), wk =   2.0000000

     Initial potential from superposition of free atoms

     starting charge      98.9954, renormalised to     102.0000

     negative rho (up, down):  1.107E+00 0.000E+00
     Starting wfcs are   80 randomized atomic wfcs
     Checking if some PAW data can be deallocated...

     Self-consistent Calculation

     iteration #  1     ecut=    30.00 Ry     beta= 0.70
     Davidson diagonalization with overlap

     ethr =  1.00E-02,  avg # of iterations =  3.0

     negative rho (up, down):  9.941E-01 0.000E+00

     total energy              =   -1338.55270953 Ry
     estimated scf accuracy    <       9.39784769 Ry

[...]

     c_bands:  1 eigenvalues not converged
     ethr =  1.15E-06,  avg # of iterations = 20.0

[...]

     total energy              =   -1342.83828966 Ry
     estimated scf accuracy    <       0.00002237 Ry

     iteration # 48     ecut=    30.00 Ry     beta= 0.70
     Davidson diagonalization with overlap

     ethr =  6.43E-09,  avg # of iterations =  1.0

[...]

     End of self-consistent calculation

          k = 0.0000 0.0000 0.0000 (  1137 PWs)   bands (ev):

   -34.1725 -34.1000 -34.0884 -34.0884 -33.9811 -33.9810 -33.9574 -33.9004
   -33.8820 -33.8482 -33.7509 -33.7032 -33.7031 -33.6091 -33.3390 -33.3389
   -33.3180 -33.3179   8.5132  11.6035  12.6708  12.6708  12.6800  13.0963
    13.0963  13.1090  13.2029  13.3994  13.8239  14.0184  14.1480  14.3696
    14.3697  15.5253  15.5254  16.2902  16.2902  16.5068  16.5069  16.6696
    16.7354  16.9080  17.0233  17.2747  17.7368  17.8554  18.4705  19.0684
    19.2178  19.3027  19.3851  19.3851  19.3867  19.3868  20.4155  20.4155
    24.9952  25.7585  25.8186  25.9894  27.2970

     occupation numbers
     1.0000   1.0000   1.0000   1.0000   1.0000   1.0000   1.0000   1.0000
     1.0000   1.0000   1.0000   1.0000   1.0000   1.0000   1.0000   1.0000
     1.0000   1.0000   1.0000   1.0000   1.0000   1.0000   1.0000   1.0000
     1.0000   1.0000   1.0000   1.0000   1.0000   1.0000   1.0000   1.0000
     1.0000   1.0000   1.0000   1.0000   1.0000   1.0000   1.0000   1.0000
     1.0000   1.0000   1.0000   1.0000   1.0000   1.0000   1.0000   1.0000
     1.0000   1.0000   0.2945   0.2926   0.2073   0.2056  -0.0000  -0.0000
    -0.0000  -0.0000  -0.0000  -0.0000  -0.0000

     the Fermi energy is    19.3816 ev

!    total energy              =   -1342.83828932 Ry
     estimated scf accuracy    <       0.00000079 Ry
     smearing contrib. (-TS)   =      -0.00081464 Ry
     internal energy E=F+TS    =   -1342.83747469 Ry

     The total energy is F=E-TS. E is the sum of the following terms:
     one-electron contribution =    -250.91683255 Ry
     hartree contribution      =     206.27298811 Ry
     xc contribution           =    -347.02001055 Ry
     ewald contribution        =    -881.85531291 Ry
     one-center paw contrib.   =     -69.31830680 Ry
      -> PAW hartree energy AE =       2.79537939 Ry
      -> PAW hartree energy PS =      -2.78780963 Ry
      -> PAW xc energy AE      =     -73.13317650 Ry
      -> PAW xc energy PS      =       3.80729994 Ry
      -> total E_H with PAW    =     206.28055787 Ry
      -> total E_XC with PAW   =    -416.34588710 Ry

     convergence has been achieved in  48 iterations

     negative rho (up, down):  1.035E+00 0.000E+00

     Forces acting on atoms (cartesian axes, Ry/au):

     atom    1 type  1   force =     0.00000000    0.00000000    0.00000000
     atom    2 type  1   force =     0.00000000    0.00000000    0.00000000
     atom    3 type  2   force =     0.03420549    0.03420549    0.00000000
     atom    4 type  2   force =    -0.03420549   -0.03420549    0.00000000
     atom    5 type  2   force =     0.03420549   -0.03420549   -0.00000000
     atom    6 type  2   force =    -0.03420549    0.03420549    0.00000000
     atom    7 type  2   force =     0.00000000    0.00000000    0.00000000
     atom    8 type  2   force =     0.00000000    0.00000000    0.00000000
     The non-local contrib.  to forces
     atom    1 type  1   force =     0.00000000    0.00000000   -0.00000000
     atom    2 type  1   force =     0.00000000    0.00000000    0.00000000
     atom    3 type  2   force =     0.00248882    0.00248882    0.00000000
     atom    4 type  2   force =    -0.00248882   -0.00248882   -0.00000000
     atom    5 type  2   force =     0.00248882   -0.00248882    0.00000000
     atom    6 type  2   force =    -0.00248882    0.00248882    0.00000000
     atom    7 type  2   force =     0.00000000    0.00000000    0.00000000
     atom    8 type  2   force =     0.00000000    0.00000000    0.00000000
     The ionic contribution  to forces
     atom    1 type  1   force =    -0.00000000    0.00000000    0.00000000
     atom    2 type  1   force =    -0.00000000   -0.00000000    0.00000000
     atom    3 type  2   force =     0.75829226    0.75829226   -0.00000000
     atom    4 type  2   force =    -0.75829226   -0.75829226   -0.00000000
     atom    5 type  2   force =     0.75829226   -0.75829226   -0.00000000
     atom    6 type  2   force =    -0.75829226    0.75829226   -0.00000000
     atom    7 type  2   force =     0.00000000    0.00000000    0.00000000
     atom    8 type  2   force =     0.00000000   -0.00000000    0.00000000
     The local contribution  to forces
     atom    1 type  1   force =    -0.00008085    0.00005612    0.00000011
     atom    2 type  1   force =     0.00008357   -0.00005778   -0.00000004
     atom    3 type  2   force =    -0.73100211   -0.73166742   -0.00003425
     atom    4 type  2   force =     0.73095460    0.73165846    0.00001840
     atom    5 type  2   force =    -0.73266589    0.73206512    0.00002049
     atom    6 type  2   force =     0.73273170   -0.73214789   -0.00002186
     atom    7 type  2   force =     0.00043548    0.00040369   -0.00002456
     atom    8 type  2   force =    -0.00045374   -0.00040290   -0.00002955
     The core correction contribution to forces
     atom    1 type  1   force =    -0.00000033    0.00000020   -0.00000004
     atom    2 type  1   force =     0.00000015    0.00000013   -0.00000004
     atom    3 type  2   force =     0.00526193    0.00523055    0.00000237
     atom    4 type  2   force =    -0.00526966   -0.00521508    0.00000226
     atom    5 type  2   force =     0.00525761   -0.00522083    0.00000143
     atom    6 type  2   force =    -0.00526258    0.00523458    0.00000180
     atom    7 type  2   force =    -0.00000084    0.00000095    0.00000489
     atom    8 type  2   force =     0.00000170   -0.00000251    0.00000420
     The Hubbard contrib.    to forces
     atom    1 type  1   force =     0.00000000    0.00000000    0.00000000
     atom    2 type  1   force =     0.00000000    0.00000000    0.00000000
     atom    3 type  2   force =     0.00000000    0.00000000    0.00000000
     atom    4 type  2   force =     0.00000000    0.00000000    0.00000000
     atom    5 type  2   force =     0.00000000    0.00000000    0.00000000
     atom    6 type  2   force =     0.00000000    0.00000000    0.00000000
     atom    7 type  2   force =     0.00000000    0.00000000    0.00000000
     atom    8 type  2   force =     0.00000000    0.00000000    0.00000000
     The SCF correction term to forces
     atom    1 type  1   force =     0.00007195   -0.00004885    0.00000012
     atom    2 type  1   force =    -0.00007576    0.00005328    0.00000028
     atom    3 type  2   force =    -0.00080003   -0.00016151    0.00002877
     atom    4 type  2   force =     0.00085380    0.00016003   -0.00001872
     atom    5 type  2   force =     0.00085356   -0.00024241   -0.00001881
     atom    6 type  2   force =    -0.00090760    0.00030743    0.00001644
     atom    7 type  2   force =    -0.00043903   -0.00039813    0.00002204
     atom    8 type  2   force =     0.00045340    0.00038732    0.00002483

     Total force =     0.096748     Total SCF correction =     0.001963

     Computing stress (Cartesian axis) and pressure

     negative rho (up, down):  1.035E+00 0.000E+00
          total   stress  (Ry/bohr**3)                   (kbar)     P=       97.39
   0.00124599   0.00000000   0.00000000          183.29        0.00        0.00
   0.00000000   0.00124599   0.00000000            0.00      183.29        0.00
   0.00000000   0.00000000  -0.00050587            0.00        0.00      -74.42

     kinetic stress (kbar)  42083.91      0.00      0.00
                                0.00  42083.91      0.00
                                0.00      0.00  41221.31

     local   stress (kbar)  10243.68      0.72      0.06
                                0.72  10243.13      0.18
                                0.06      0.18  11449.17

     nonloc. stress (kbar)     20.17      0.00      0.00
                                0.00     20.17      0.00
                                0.00      0.00     89.65

     hartree stress (kbar)  12533.77     -0.39     -0.02
                               -0.39  12533.40     -0.05
                               -0.02     -0.05  12175.15

     exc-cor stress (kbar)  30370.62     -0.00     -0.00
                               -0.00  30370.64     -0.00
                               -0.00     -0.00  30367.38

     corecor stress (kbar) -42111.36      0.02      0.00
                                0.02 -42111.43      0.01
                                0.00      0.01 -42073.25

     ewald   stress (kbar) -52957.02     -0.00      0.00
                               -0.00 -52957.02      0.00
                                0.00      0.00 -53303.82

     hubbard stress (kbar)      0.00      0.00      0.00
                                0.00      0.00      0.00
                                0.00      0.00      0.00

     DFT-D   stress (kbar)      0.00      0.00      0.00
                                0.00      0.00      0.00
                                0.00      0.00      0.00

     XDM     stress (kbar)      0.00      0.00      0.00
                                0.00      0.00      0.00
                                0.00      0.00      0.00

     dft-nl  stress (kbar)      0.00      0.00      0.00
                                0.00      0.00      0.00
                                0.00      0.00      0.00

     TS-vdW  stress (kbar)      0.00      0.00      0.00
                                0.00      0.00      0.00
                                0.00      0.00      0.00

[...]

                                0.00      0.00      0.00

     Writing all to output data dir new_calculations/myprefix.save/

     General routines

     Parallel routines

     PAW routines

   This run was terminated on:  16:32: 2  20May2023

   JOB DONE.