     Program PWSCF v.7.0 starts on 20May2023 at 23:33:35

     Reading input from espresso_25176.pwi
Warning: card &CELL ignored
Warning: card / ignored

     Current dimensions of program PWSCF are:
     Max number of different atomic species (ntypx) = 10
     Max number of k-points (npk) =  40000
     Max angular momentum in pseudopotentials (lmaxx) =  4

     gamma-point specific algorithms are used
     Message from routine setup:
     using ibrav=0 with symmetry is DISCOURAGED, use correct ibrav instead

     Subspace diagonalization in iterative solution of the eigenvalue problem:
     a serial algorithm will be used

     Using Slab Decomposition

     bravais-lattice index     =            0
     lattice parameter (alat)  =       6.3308  a.u.
     unit-cell volume          =     650.3389 (a.u.)^3
     number of atoms/cell      =            8
     number of atomic types    =            2
     number of electrons       =        88.00
     number of Kohn-Sham states=           53
     kinetic-energy cutoff     =      30.0000  Ry
     charge density cutoff     =     240.0000  Ry
     scf convergence threshold =      1.0E-06
     mixing beta               =       0.7000
     number of iterations used =            8  plain     mixing
     Exchange-correlation=  SLA  PW   PBX  PBC
                           (   1   4   3   4   0   0   0)

     celldm(1)=   6.330821  celldm(2)=   0.000000  celldm(3)=   0.000000
     celldm(4)=   0.000000  celldm(5)=   0.000000  celldm(6)=   0.000000

     crystal axes: (cart. coord. in units of alat)
               a(1) = (   1.000000   0.000000   0.000000 )
               a(2) = (   0.000000   1.538637   0.000000 )
               a(3) = (   0.000000   0.000000   1.665802 )

     reciprocal axes: (cart. coord. in units 2 pi/alat)
               b(1) = (  1.000000  0.000000  0.000000 )
               b(2) = (  0.000000  0.649926  0.000000 )
               b(3) = (  0.000000  0.000000  0.600311 )

     PseudoPot. # 1 for Si read from file:
     /home/pragov/projects/rrg-bengioy-ad/pragov/crystal_structure_design/SSSP/Si.pbe-n-rrkjus_psl.1.0.0.UPF
     MD5 check sum: 0b0bb1205258b0d07b9f9672cf965d36
     Pseudo is Ultrasoft + core correction, Zval =  4.0
     Generated using "atomic" code by A. Dal Corso  v.5.1
     Using radial grid of 1141 points,  6 beta functions with:
                l(1) =   0
                l(2) =   0
                l(3) =   1
                l(4) =   1
                l(5) =   2
                l(6) =   2
     Q(r) pseudized with 0 coefficients

     PseudoPot. # 2 for Ni read from file:
     /home/pragov/projects/rrg-bengioy-ad/pragov/crystal_structure_design/SSSP/ni_pbe_v1.4.uspp.F.UPF
     MD5 check sum: 1ee80287db30b12d2bc1f57a5b5d6409
     Pseudo is Ultrasoft + core correction, Zval = 18.0
     Generated by new atomic code, or converted to UPF format
     Using radial grid of  865 points,  6 beta functions with:
                l(1) =   0
                l(2) =   0
                l(3) =   1
                l(4) =   1
                l(5) =   2
                l(6) =   2
     Q(r) pseudized with 10 coefficients,  rinner =    0.980   0.980   0.980
                                                       0.980   0.980

     atomic species   valence    mass     pseudopotential
        Si             4.00    28.08500     Si( 1.00)
        Ni            18.00    58.69340     Ni( 1.00)

      8 Sym. Ops., with inversion, found ( 6 have fractional translation)

                                    s                        frac. trans.

      isym =  1     identity

 cryst.   s( 1) = (     1          0          0      )
                  (     0          1          0      )
                  (     0          0          1      )

 cart.    s( 1) = (  1.0000000  0.0000000  0.0000000 )
                  (  0.0000000  1.0000000  0.0000000 )
                  (  0.0000000  0.0000000  1.0000000 )

      isym =  2     180 deg rotation - cart. axis [0,0,1]

 cryst.   s( 2) = (    -1          0          0      )    f =(  0.0000000 )
                  (     0         -1          0      )       (  0.5000000 )
                  (     0          0          1      )       ( -0.5000000 )

 cart.    s( 2) = ( -1.0000000  0.0000000  0.0000000 )    f =(  0.0000000 )
                  (  0.0000000 -1.0000000  0.0000000 )       (  0.7693185 )
                  (  0.0000000  0.0000000  1.0000000 )       ( -0.8329012 )

[...]

      isym =  4     180 deg rotation - cart. axis [1,0,0]

[...]

      isym =  5     inversion

 cryst.   s( 5) = (    -1          0          0      )
                  (     0         -1          0      )
                  (     0          0         -1      )

 cart.    s( 5) = ( -1.0000000  0.0000000  0.0000000 )
                  (  0.0000000 -1.0000000  0.0000000 )
                  (  0.0000000  0.0000000 -1.0000000 )

      isym =  6     inv. 180 deg rotation - cart. axis [0,0,1]

[...]

      isym =  8     inv. 180 deg rotation - cart. axis [1,0,0]

 cryst.   s( 8) = (    -1          0          0      )    f =(  0.5000000 )
                  (     0          1          0      )       (  0.0000000 )
                  (     0          0          1      )       (  0.0000000 )

 cart.    s( 8) = ( -1.0000000  0.0000000  0.0000000 )    f =(  0.5000000 )
                  (  0.0000000  1.0000000  0.0000000 )       (  0.0000000 )
                  (  0.0000000  0.0000000  1.0000000 )       (  0.0000000 )

   Cartesian axes

     site n.     atom                  positions (alat units)
         1           Si  tau(   1) = (   0.7500000   0.4947934   1.5268112  )
         2           Si  tau(   2) = (   0.7500000   1.2641119   0.9718924  )
         3           Si  tau(   3) = (   0.2500000   1.0438437   0.1389912  )
         4           Si  tau(   4) = (   0.2500000   0.2745252   0.6939100  )
         5           Ni  tau(   5) = (   0.2500000   0.0141447   1.3525666  )
         6           Ni  tau(   6) = (   0.2500000   0.7834632   1.1461370  )
         7           Ni  tau(   7) = (   0.7500000   1.5244924   0.3132358  )
         8           Ni  tau(   8) = (   0.7500000   0.7551738   0.5196654  )

   Crystallographic axes

     site n.     atom                  positions (cryst. coord.)
         1           Si  tau(   1) = (  0.7500000  0.3215790  0.9165620  )
         2           Si  tau(   2) = (  0.7500000  0.8215790  0.5834380  )
         3           Si  tau(   3) = (  0.2500000  0.6784210  0.0834380  )
         4           Si  tau(   4) = (  0.2500000  0.1784210  0.4165620  )
         5           Ni  tau(   5) = (  0.2500000  0.0091930  0.8119610  )
         6           Ni  tau(   6) = (  0.2500000  0.5091930  0.6880390  )
         7           Ni  tau(   7) = (  0.7500000  0.9908070  0.1880390  )
         8           Ni  tau(   8) = (  0.7500000  0.4908070  0.3119610  )

     number of k points=     1  Methfessel-Paxton smearing, width (Ry)=  0.0010
                       cart. coord. in units 2pi/alat
        k(    1) = (   0.0000000   0.0000000   0.0000000), wk =   2.0000000

                       cryst. coord.
        k(    1) = (   0.0000000   0.0000000   0.0000000), wk =   2.0000000

     Check: negative core charge=   -0.000006

     Initial potential from superposition of free atoms

     starting charge      79.9978, renormalised to      88.0000
     Starting wfcs are   68 randomized atomic wfcs

     Self-consistent Calculation

     iteration #  1     ecut=    30.00 Ry     beta= 0.70
     Davidson diagonalization with overlap

     ethr =  1.00E-02,  avg # of iterations =  6.0

     total energy              =   -1272.01669644 Ry
     estimated scf accuracy    <     216.42393024 Ry

[...]

     total energy              =   -1418.43665275 Ry
     estimated scf accuracy    <       0.00000324 Ry

     iteration # 21     ecut=    30.00 Ry     beta= 0.70
     Davidson diagonalization with overlap

     ethr =  3.69E-09,  avg # of iterations =  2.0

     End of self-consistent calculation

          k = 0.0000 0.0000 0.0000 (   901 PWs)   bands (ev):

   -89.2803 -89.2752 -89.2744 -89.2712 -49.7303 -49.7181 -49.7148 -49.7029
   -49.7007 -49.6987 -49.6579 -49.6522 -49.4502 -49.4498 -49.4485 -49.4158
     1.5320   4.8028   6.2958   6.7644   8.2372   8.6474  10.3330  10.8031
    10.8720  10.8739  10.8761  10.9217  11.1549  11.6063  11.8076  11.8141
    12.1086  12.3349  12.5690  12.6109  12.7848  12.7996  12.8904  12.9485
    13.0879  13.5525  13.7283  13.9211  15.2799  16.0712  17.9123  18.6079
    18.7198  19.2208  19.5736  20.6897  21.5237

     occupation numbers
     1.0000   1.0000   1.0000   1.0000   1.0000   1.0000   1.0000   1.0000
     1.0000   1.0000   1.0000   1.0000   1.0000   1.0000   1.0000   1.0000
     1.0000   1.0000   1.0000   1.0000   1.0000   1.0000   1.0000   1.0000
     1.0000   1.0000   1.0000   1.0000   1.0000   1.0000   1.0000   1.0000
     1.0000   1.0000   1.0000   1.0000   1.0000   1.0000   1.0000   1.0000
     1.0000   1.0000   1.0000   1.0000  -0.0000  -0.0000  -0.0000  -0.0000
    -0.0000  -0.0000  -0.0000  -0.0000  -0.0000

     the Fermi energy is    14.7175 ev

!    total energy              =   -1418.43665279 Ry
     estimated scf accuracy    <       0.00000041 Ry
     smearing contrib. (-TS)   =       0.00000000 Ry
     internal energy E=F+TS    =   -1418.43665279 Ry

     The total energy is F=E-TS. E is the sum of the following terms:
     one-electron contribution =   -1046.77651626 Ry
     hartree contribution      =     571.83664413 Ry
     xc contribution           =    -167.36448254 Ry
     ewald contribution        =    -776.13229811 Ry

     convergence has been achieved in  21 iterations

     Forces acting on atoms (cartesian axes, Ry/au):

     atom    1 type  1   force =     0.00000000   -0.02616256   -0.00061626
     atom    2 type  1   force =     0.00000000   -0.02616256    0.00061626
     atom    3 type  1   force =     0.00000000    0.02616256    0.00061626
     atom    4 type  1   force =     0.00000000    0.02616256   -0.00061626
     atom    5 type  2   force =     0.00000000   -0.01806959   -0.03820420
     atom    6 type  2   force =     0.00000000   -0.01806959    0.03820420
     atom    7 type  2   force =    -0.00000000    0.01806959    0.03820420
     atom    8 type  2   force =     0.00000000    0.01806959   -0.03820420
     The non-local contrib.  to forces
     atom    1 type  1   force =    -0.00000000    0.05306007    0.05918239
     atom    2 type  1   force =     0.00000000    0.05306007   -0.05918239
     atom    3 type  1   force =     0.00000000   -0.05306007   -0.05918239
     atom    4 type  1   force =     0.00000000   -0.05306007    0.05918239
     atom    5 type  2   force =    -0.00000000    0.03957030   -0.27140857
     atom    6 type  2   force =     0.00000000    0.03957030    0.27140857
     atom    7 type  2   force =     0.00000000   -0.03957030    0.27140857
     atom    8 type  2   force =     0.00000000   -0.03957030   -0.27140857
     The ionic contribution  to forces
     atom    1 type  1   force =    -0.00000000    2.37871449    0.03578919
     atom    2 type  1   force =    -0.00000000    2.37871449   -0.03578919
     atom    3 type  1   force =    -0.00000000   -2.37871449   -0.03578919
     atom    4 type  1   force =    -0.00000000   -2.37871449    0.03578919
     atom    5 type  2   force =    -0.00000000    0.86452699   -6.46350871
     atom    6 type  2   force =    -0.00000000    0.86452699    6.46350871
     atom    7 type  2   force =    -0.00000000   -0.86452699    6.46350871
     atom    8 type  2   force =     0.00000000   -0.86452699   -6.46350871
     The local contribution  to forces
     atom    1 type  1   force =    -0.00000782   -2.45231315   -0.08907978
     atom    2 type  1   force =    -0.00000341   -2.45215789    0.08905478
     atom    3 type  1   force =     0.00000743    2.45228590    0.08928900
     atom    4 type  1   force =     0.00000460    2.45220984   -0.08916584
     atom    5 type  2   force =     0.00000907   -0.92204583    6.69530861
     atom    6 type  2   force =     0.00002904   -0.92207559   -6.69622888
     atom    7 type  2   force =    -0.00003457    0.92196932   -6.69499273
     atom    8 type  2   force =    -0.00003589    0.92185514    6.69578155
     The core correction contribution to forces
     atom    1 type  1   force =    -0.00000043   -0.00575973   -0.00645352
     atom    2 type  1   force =    -0.00000009   -0.00576296    0.00645255
     atom    3 type  1   force =     0.00000040    0.00576182    0.00645423
     atom    4 type  1   force =     0.00000016    0.00575877   -0.00645426
     atom    5 type  2   force =     0.00000003   -0.00019414    0.00163533
     atom    6 type  2   force =    -0.00000000   -0.00019494   -0.00163497
     atom    7 type  2   force =     0.00000004    0.00019438   -0.00163563
     atom    8 type  2   force =     0.00000009    0.00019445    0.00163318
     The Hubbard contrib.    to forces
     atom    1 type  1   force =     0.00000000    0.00000000    0.00000000
     atom    2 type  1   force =     0.00000000    0.00000000    0.00000000
     atom    3 type  1   force =     0.00000000    0.00000000    0.00000000
     atom    4 type  1   force =     0.00000000    0.00000000    0.00000000
     atom    5 type  2   force =     0.00000000    0.00000000    0.00000000
     atom    6 type  2   force =     0.00000000    0.00000000    0.00000000
     atom    7 type  2   force =     0.00000000    0.00000000    0.00000000
     atom    8 type  2   force =     0.00000000    0.00000000    0.00000000
     The SCF correction term to forces
     atom    1 type  1   force =     0.00000355    0.00014901   -0.00005638
     atom    2 type  1   force =     0.00000222   -0.00003732    0.00006136
     atom    3 type  1   force =    -0.00000392   -0.00009564   -0.00014531
     atom    4 type  1   force =    -0.00000300   -0.00005423    0.00002502
     atom    5 type  2   force =    -0.00001491    0.00013699   -0.00026828
     atom    6 type  2   force =    -0.00003616    0.00007826    0.00117363
     atom    7 type  2   force =     0.00005926    0.00002665   -0.00024375
     atom    8 type  2   force =     0.00005236    0.00013232   -0.00080041

     Total force =     0.099417     Total SCF correction =     0.001505

     Computing stress (Cartesian axis) and pressure

          total   stress  (Ry/bohr**3)                   (kbar)     P=     -996.44
  -0.00802461   0.00000000   0.00000000        -1180.46        0.00        0.00
   0.00000000  -0.00606620   0.00000000            0.00     -892.37        0.00
   0.00000000   0.00000000  -0.00623021            0.00        0.00     -916.50

     kinetic stress (kbar)  30358.70      0.00      0.00
                                0.00  30676.77      0.00
                                0.00      0.00  31102.24

     local   stress (kbar) -12586.41     -0.00     -0.00
                               -0.00 -27146.05     -0.02
                               -0.00     -0.02 -16124.67

     nonloc. stress (kbar)  13350.14      0.00      0.00
                                0.00  13357.09      0.00
                                0.00      0.00  13373.40

     hartree stress (kbar)  40861.15      0.00      0.00
                                0.00  46741.37      0.02
                                0.00      0.02  41745.55

     exc-cor stress (kbar)  -6149.03      0.00      0.00
                                0.00  -6148.31      0.00
                                0.00      0.00  -6141.90

     corecor stress (kbar)  -4905.25     -0.00      0.00
                               -0.00  -4897.62     -0.00
                                0.00     -0.00  -4897.22

     ewald   stress (kbar) -62109.76      0.00     -0.00
                                0.00 -53475.61     -0.00
                               -0.00     -0.00 -59973.89

     hubbard stress (kbar)      0.00      0.00      0.00
                                0.00      0.00      0.00
                                0.00      0.00      0.00

     DFT-D   stress (kbar)      0.00      0.00      0.00
                                0.00      0.00      0.00
                                0.00      0.00      0.00

     XDM     stress (kbar)      0.00      0.00      0.00
                                0.00      0.00      0.00
                                0.00      0.00      0.00

     dft-nl  stress (kbar)      0.00      0.00      0.00
                                0.00      0.00      0.00
                                0.00      0.00      0.00

     TS-vdW  stress (kbar)      0.00      0.00      0.00
                                0.00      0.00      0.00
                                0.00      0.00      0.00

[...]

                                0.00      0.00      0.00

     Writing all to output data dir new_calculations/myprefix.save/

     General routines

     Parallel routines

   This run was terminated on:  23:34:33  20May2023

   JOB DONE.