     Program PWSCF v.7.1 starts on 16Jul2023 at 17: 3: 5

     Reading input from espresso_15711.pwi
Warning: card &CELL ignored
Warning: card / ignored

     Current dimensions of program PWSCF are:
     Max number of different atomic species (ntypx) = 10
     Max number of k-points (npk) =  40000
     Max angular momentum in pseudopotentials (lmaxx) =  4
     file O.pbe-n-kjpaw_psl.0.1.UPF: wavefunction(s)  2P renormalized
     Message from routine setup:
     using ibrav=0 with symmetry is DISCOURAGED, use correct ibrav instead

     K-points division:     npool     =       2
     R & G space division:  proc/nbgrp/npool/nimage =       4
     Subspace diagonalization in iterative solution of the eigenvalue problem:
     a serial algorithm will be used

     Using Slab Decomposition

     bravais-lattice index     =            0
     lattice parameter (alat)  =      12.9416  a.u.
     unit-cell volume          =     566.9906 (a.u.)^3
     number of atoms/cell      =            4
     number of atomic types    =            3
     number of electrons       =        36.00
     number of Kohn-Sham states=           22
     kinetic-energy cutoff     =      30.0000  Ry
     charge density cutoff     =     240.0000  Ry
     scf convergence threshold =      1.0E-06
     mixing beta               =       0.7000
     number of iterations used =            8  plain     mixing
     Exchange-correlation= SLA  PW   PBX  PBC
                           (   1   4   3   4   0   0   0)

     celldm(1)=  12.941637  celldm(2)=   0.000000  celldm(3)=   0.000000
     celldm(4)=   0.000000  celldm(5)=   0.000000  celldm(6)=   0.000000

     crystal axes: (cart. coord. in units of alat)
               a(1) = (   1.000000   0.000000   0.000000 )
               a(2) = (   0.717603   0.696452   0.000000 )
               a(3) = (  -0.854536  -0.358747   0.375592 )

     reciprocal axes: (cart. coord. in units 2 pi/alat)
               b(1) = (  1.000000 -1.030369  1.291011 )
               b(2) = (  0.000000  1.435848  1.371450 )
               b(3) = (  0.000000  0.000000  2.662461 )

     PseudoPot. # 1 for Ru read from file:
     /lustre07/scratch/pragov/crystal_structure_design/utils/SSSP/Ru_ONCV_PBE-1.0.oncvpsp.upf
     MD5 check sum: be037bb81c227cfb9b1461a9f099f4bd
     Pseudo is Norm-conserving, Zval = 16.0
     Generated using ONCVPSP code by D. R. Hamann
     Using radial grid of 1458 points,  6 beta functions with:
                l(1) =   0
                l(2) =   0
                l(3) =   1
                l(4) =   1
                l(5) =   2
                l(6) =   2

     PseudoPot. # 2 for Cl read from file:
     /lustre07/scratch/pragov/crystal_structure_design/utils/SSSP/cl_pbe_v1.4.uspp.F.UPF
     MD5 check sum: fc6f6913ecf08c9257cb748ef0700058
     Pseudo is Ultrasoft + core correction, Zval =  7.0
     Generated by new atomic code, or converted to UPF format
     Using radial grid of  909 points,  6 beta functions with:
                l(1) =   0
                l(2) =   0
                l(3) =   1
                l(4) =   1
                l(5) =   2
                l(6) =   2
     Q(r) pseudized with  8 coefficients,  rinner =    1.300   1.300   1.300
                                                       1.300   1.300

     PseudoPot. # 3 for O  read from file:
     /lustre07/scratch/pragov/crystal_structure_design/utils/SSSP/O.pbe-n-kjpaw_psl.0.1.UPF
     MD5 check sum: 0234752ac141de4415c5fc33072bef88
     Pseudo is Projector augmented-wave + core cor, Zval =  6.0
     Generated using "atomic" code by A. Dal Corso  v.5.0.99 svn rev. 10869
     Shape of augmentation charge: BESSEL
     Using radial grid of 1095 points,  4 beta functions with:
                l(1) =   0
                l(2) =   0
                l(3) =   1
                l(4) =   1
     Q(r) pseudized with 0 coefficients

     atomic species   valence    mass     pseudopotential
        Ru            16.00   101.07000     Ru( 1.00)
        Cl             7.00    35.45000     Cl( 1.00)
        O              6.00    15.99900     O ( 1.00)

      2 Sym. Ops., with inversion, found

                                    s                        frac. trans.

      isym =  1     identity

 cryst.   s( 1) = (     1          0          0      )
                  (     0          1          0      )
                  (     0          0          1      )

 cart.    s( 1) = (  1.0000000  0.0000000  0.0000000 )
                  (  0.0000000  1.0000000  0.0000000 )
                  (  0.0000000  0.0000000  1.0000000 )

      isym =  2     inversion

 cryst.   s( 2) = (    -1          0          0      )
                  (     0         -1          0      )
                  (     0          0         -1      )

 cart.    s( 2) = ( -1.0000000  0.0000000  0.0000000 )
                  (  0.0000000 -1.0000000  0.0000000 )
                  (  0.0000000  0.0000000 -1.0000000 )

   Cartesian axes

     site n.     atom                  positions (alat units)
         1           Ru  tau(   1) = (   0.0000000   0.0000000   0.0000000  )
         2           Cl  tau(   2) = (   0.7128485   0.0801805   0.1877962  )
         3           Cl  tau(   3) = (   0.1502189   0.2575251   0.1877962  )
         4           O   tau(   4) = (   0.0727322  -0.1793734   0.1877962  )

   Crystallographic axes

     site n.     atom                  positions (cryst. coord.)
         1           Ru  tau(   1) = (  0.0000000  0.0000000  0.0000000  )
         2           Cl  tau(   2) = (  0.8726800  0.3726800  0.5000000  )
         3           Cl  tau(   3) = (  0.1273200  0.6273200  0.5000000  )
         4           O   tau(   4) = (  0.5000000 -0.0000000  0.5000000  )

     number of k points=    14  Gaussian smearing, width (Ry)=  0.0010
                       cart. coord. in units 2pi/alat
        k(    1) = (   0.0000000   0.0000000   0.0000000), wk =   0.0740741
        k(    2) = (   0.0000000   0.0000000   0.8874870), wk =   0.1481481
        k(    3) = (   0.0000000   0.4786161   0.4571499), wk =   0.1481481
        k(    4) = (   0.0000000   0.4786161   1.3446369), wk =   0.1481481
        k(    5) = (   0.0000000   0.4786161  -0.4303371), wk =   0.1481481
        k(    6) = (   0.3333333  -0.3434563   0.4303371), wk =   0.1481481
        k(    7) = (   0.3333333  -0.3434563   1.3178240), wk =   0.1481481
        k(    8) = (   0.3333333  -0.3434563  -0.4571499), wk =   0.1481481
        k(    9) = (   0.3333333   0.1351598   0.8874870), wk =   0.1481481
        k(   10) = (   0.3333333   0.1351598   1.7749739), wk =   0.1481481
        k(   11) = (   0.3333333   0.1351598  -0.0000000), wk =   0.1481481
        k(   12) = (   0.3333333  -0.8220724  -0.0268128), wk =   0.1481481
        k(   13) = (   0.3333333  -0.8220724   0.8606741), wk =   0.1481481
        k(   14) = (   0.3333333  -0.8220724  -0.9142998), wk =   0.1481481

                       cryst. coord.
        k(    1) = (   0.0000000   0.0000000   0.0000000), wk =   0.0740741
        k(    2) = (   0.0000000   0.0000000   0.3333333), wk =   0.1481481
        k(    3) = (   0.0000000   0.3333333   0.0000000), wk =   0.1481481
        k(    4) = (   0.0000000   0.3333333   0.3333333), wk =   0.1481481
        k(    5) = (   0.0000000   0.3333333  -0.3333333), wk =   0.1481481
        k(    6) = (   0.3333333  -0.0000000   0.0000000), wk =   0.1481481
        k(    7) = (   0.3333333  -0.0000000   0.3333333), wk =   0.1481481
        k(    8) = (   0.3333333  -0.0000000  -0.3333333), wk =   0.1481481
        k(    9) = (   0.3333333   0.3333333   0.0000000), wk =   0.1481481
        k(   10) = (   0.3333333   0.3333333   0.3333333), wk =   0.1481481
        k(   11) = (   0.3333333   0.3333333  -0.3333333), wk =   0.1481481
        k(   12) = (   0.3333333  -0.3333333  -0.0000000), wk =   0.1481481
        k(   13) = (   0.3333333  -0.3333333   0.3333333), wk =   0.1481481
        k(   14) = (   0.3333333  -0.3333333  -0.3333333), wk =   0.1481481

     Check: negative core charge=   -0.000006

     Initial potential from superposition of free atoms

     starting charge      35.9994, renormalised to      36.0000

     negative rho (up, down):  2.987E-02 0.000E+00
     Starting wfcs are   22 randomized atomic wfcs
     Checking if some PAW data can be deallocated...

     Self-consistent Calculation

     iteration #  1     ecut=    30.00 Ry     beta= 0.70
     Davidson diagonalization with overlap

     ethr =  1.00E-02,  avg # of iterations =  5.0

     negative rho (up, down):  3.016E-02 0.000E+00

     total energy              =    -296.56189485 Ry
     estimated scf accuracy    <       0.36313669 Ry

[...]

     total energy              =    -296.77057620 Ry
     estimated scf accuracy    <       0.00000204 Ry

     iteration # 14     ecut=    30.00 Ry     beta= 0.70
     Davidson diagonalization with overlap

     ethr =  5.67E-09,  avg # of iterations =  1.0

     negative rho (up, down):  2.993E-02 0.000E+00

     End of self-consistent calculation

          k = 0.0000 0.0000 0.0000 (  1563 PWs)   bands (ev):

   -68.4333 -38.7779 -38.2011 -38.1799 -14.2428 -10.3858  -9.7919  -0.5048
     0.0017   1.1695   1.5346   1.7347   1.9642   3.0849   3.1019   3.3661
     3.4057   3.6264   4.7073   6.6195   6.7124  10.9040

     occupation numbers
     1.0000   1.0000   1.0000   1.0000   1.0000   1.0000   1.0000   1.0000
     1.0000   1.0000   1.0000   1.0000   1.0000   1.0000   1.0000   1.0000
     1.0000   1.0000   1.0000   0.0000   0.0000   0.0000

[...]

          k = 0.3333-0.8221-0.9143 (  1566 PWs)   bands (ev):

   -68.4325 -38.7767 -38.2014 -38.1980 -14.1847 -10.0152  -9.9297  -0.1096
    -0.0023   0.4838   1.3189   1.3875   2.0361   2.4271   2.6419   2.9589
     4.0169   4.4503   4.5738   6.1893   6.6575  13.2556

     occupation numbers
     1.0000   1.0000   1.0000   1.0000   1.0000   1.0000   1.0000   1.0000
     1.0000   1.0000   1.0000   1.0000   1.0000   1.0000   1.0000   1.0000
     1.0000   1.0000   1.0000   0.0000   0.0000   0.0000

     the Fermi energy is     6.0421 ev

!    total energy              =    -296.77057626 Ry
     estimated scf accuracy    <          6.7E-09 Ry
     smearing contrib. (-TS)   =      -0.00037070 Ry
     internal energy E=F+TS    =    -296.77020556 Ry

     The total energy is F=E-TS. E is the sum of the following terms:
     one-electron contribution =    -219.65026698 Ry
     hartree contribution      =     120.51769115 Ry
     xc contribution           =     -45.87172990 Ry
     ewald contribution        =    -142.23815485 Ry
     one-center paw contrib.   =      -9.52774498 Ry
      -> PAW hartree energy AE =       0.00000000 Ry
      -> PAW hartree energy PS =       0.00000000 Ry
      -> PAW xc energy AE      =       0.00000000 Ry
      -> PAW xc energy PS      =       0.00000000 Ry
      -> total E_H with PAW    =     120.51769115 Ry
      -> total E_XC with PAW   =     -45.87172990 Ry

     convergence has been achieved in  14 iterations

     Writing all to output data dir energy_m/myprefix.save/

     General routines

     Parallel routines

     PAW routines

   This run was terminated on:  17: 3: 9  16Jul2023

   JOB DONE.