     Program PWSCF v.7.0 starts on 20May2023 at  4:22:43

     Reading input from espresso_209.pwi
Warning: card &CELL ignored
Warning: card / ignored

     Current dimensions of program PWSCF are:
     Max number of different atomic species (ntypx) = 10
     Max number of k-points (npk) =  40000
     Max angular momentum in pseudopotentials (lmaxx) =  4

     gamma-point specific algorithms are used

     Subspace diagonalization in iterative solution of the eigenvalue problem:
     a serial algorithm will be used

     Using Slab Decomposition

     bravais-lattice index     =            0
     lattice parameter (alat)  =      16.2193  a.u.
     unit-cell volume          =    1507.5398 (a.u.)^3
     number of atoms/cell      =           10
     number of atomic types    =            4
     number of electrons       =       112.00
     number of Kohn-Sham states=           67
     kinetic-energy cutoff     =      30.0000  Ry
     charge density cutoff     =     240.0000  Ry
     scf convergence threshold =      1.0E-06
     mixing beta               =       0.7000
     number of iterations used =            8  plain     mixing
     Exchange-correlation= PBE
                           (   1   4   3   4   0   0   0)

     celldm(1)=  16.219350  celldm(2)=   0.000000  celldm(3)=   0.000000
     celldm(4)=   0.000000  celldm(5)=   0.000000  celldm(6)=   0.000000

     crystal axes: (cart. coord. in units of alat)
               a(1) = (   1.000000   0.000000   0.000000 )
               a(2) = (   0.884161   0.467183   0.000000 )
               a(3) = (   0.346782   0.085986   0.756278 )

     reciprocal axes: (cart. coord. in units 2 pi/alat)
               b(1) = (  1.000000 -1.892535 -0.243365 )
               b(2) = (  0.000000  2.140488 -0.243365 )
               b(3) = (  0.000000  0.000000  1.322266 )

     PseudoPot. # 1 for Na read from file:
     /home/pragov/projects/rrg-bengioy-ad/pragov/crystal_structure_design/SSSP/na_pbe_v1.5.uspp.F.UPF
     MD5 check sum: 44600605ef58000f06b90626533354dc
     Pseudo is Ultrasoft, Zval =  9.0
     Generated by new atomic code, or converted to UPF format
     Using radial grid of  819 points,  5 beta functions with:
                l(1) =   0
                l(2) =   0
                l(3) =   1
                l(4) =   1
                l(5) =   2
     Q(r) pseudized with  8 coefficients,  rinner =    1.250   1.250   1.250
                                                       1.250   1.250

     PseudoPot. # 2 for Zn read from file:
     /home/pragov/projects/rrg-bengioy-ad/pragov/crystal_structure_design/SSSP/Zn_pbe_v1.uspp.F.UPF
     MD5 check sum: df62231357ef9e81f77b2b3087fa5675
     Pseudo is Ultrasoft, Zval = 20.0
     Generated by new atomic code, or converted to UPF format
     Using radial grid of  943 points,  6 beta functions with:
                l(1) =   0
                l(2) =   0
                l(3) =   1
                l(4) =   1
                l(5) =   2
                l(6) =   2
     Q(r) pseudized with  8 coefficients,  rinner =    1.100   1.100   1.100
                                                       1.100   1.100

     PseudoPot. # 3 for Ge read from file:
     /home/pragov/projects/rrg-bengioy-ad/pragov/crystal_structure_design/SSSP/ge_pbe_v1.4.uspp.F.UPF
     MD5 check sum: 9c9eaa91e581c3f09632fb3098b2c6b2
     Pseudo is Ultrasoft + core correction, Zval = 14.0
     Generated by new atomic code, or converted to UPF format
     Using radial grid of  873 points,  6 beta functions with:
                l(1) =   0
                l(2) =   0
                l(3) =   1
                l(4) =   1
                l(5) =   2
                l(6) =   2
     Q(r) pseudized with  8 coefficients,  rinner =    1.400   1.400   1.400
                                                       1.400   1.400

     PseudoPot. # 4 for As read from file:
     /home/pragov/projects/rrg-bengioy-ad/pragov/crystal_structure_design/SSSP/As.pbe-n-rrkjus_psl.0.2.UPF
     MD5 check sum: 767315de957beeeb34f87d97bf945c8f
     Pseudo is Ultrasoft + core correction, Zval =  5.0
     Generated using "atomic" code by A. Dal Corso  v.5.0.99 svn rev. 10869
     Using radial grid of 1209 points,  4 beta functions with:
                l(1) =   0
                l(2) =   0
                l(3) =   1
                l(4) =   1
     Q(r) pseudized with 0 coefficients

     atomic species   valence    mass     pseudopotential
        Na             9.00    22.98977     Na( 1.00)
        Zn            20.00    65.38000     Zn( 1.00)
        Ge            14.00    72.63000     Ge( 1.00)
        As             5.00    74.92159     As( 1.00)

     No symmetry found

                                    s                        frac. trans.

      isym =  1     identity

 cryst.   s( 1) = (     1          0          0      )
                  (     0          1          0      )
                  (     0          0          1      )

 cart.    s( 1) = (  1.0000000  0.0000000 -0.0000000 )
                  (  0.0000000  1.0000000 -0.0000000 )
                  (  0.0000000  0.0000000  1.0000000 )

   Cartesian axes

     site n.     atom                  positions (alat units)
         1           Na  tau(   1) = (   1.1284283   0.2797972   0.3723404  )
         2           Na  tau(   2) = (   0.3526690   0.0874453   0.7518503  )
         3           Zn  tau(   3) = (   1.6920812   0.4195566   0.3920611  )
         4           Zn  tau(   4) = (   1.6064532   0.3983249   0.7400977  )
         5           Zn  tau(   5) = (   0.5143608   0.1275373   0.3779066  )
         6           Ge  tau(   6) = (   0.6010137   0.1490232   0.0229787  )
         7           As  tau(   7) = (   1.4257427   0.3535172   0.5289481  )
         8           As  tau(   8) = (   0.3432699   0.0851148   0.1437563  )
         9           As  tau(   9) = (   0.8020248   0.1988645   0.2280691  )
        10           As  tau(  10) = (   1.9088904   0.4733151   0.6015182  )

   Crystallographic axes

     site n.     atom                  positions (cryst. coord.)
         1           Na  tau(   1) = (  0.5082880  0.5082880  0.4923330  )
         2           Na  tau(   2) = (  0.0042020  0.0042020  0.9941460  )
         3           Zn  tau(   3) = (  0.8026420  0.8026420  0.5184090  )
         4           Zn  tau(   4) = (  0.6724960  0.6724960  0.9786060  )
         5           Zn  tau(   5) = (  0.1810230  0.1810230  0.4996930  )
         6           Ge  tau(   6) = (  0.3133900  0.3133900  0.0303840  )
         7           As  tau(   7) = (  0.6279720  0.6279720  0.6994100  )
         8           As  tau(   8) = (  0.1472020  0.1472020  0.1900840  )
         9           As  tau(   9) = (  0.3701630  0.3701630  0.3015680  )
        10           As  tau(  10) = (  0.8667370  0.8667370  0.7953670  )

     number of k points=     1  Methfessel-Paxton smearing, width (Ry)=  0.0010
                       cart. coord. in units 2pi/alat
        k(    1) = (   0.0000000   0.0000000   0.0000000), wk =   2.0000000

                       cryst. coord.
        k(    1) = (   0.0000000   0.0000000   0.0000000), wk =   2.0000000

     Initial potential from superposition of free atoms

     starting charge     111.9852, renormalised to     112.0000
     Starting wfcs are   74 randomized atomic wfcs

     Self-consistent Calculation

     iteration #  1     ecut=    30.00 Ry     beta= 0.70
     Davidson diagonalization with overlap

     ethr =  1.00E-02,  avg # of iterations =  4.0

     Threshold (ethr) on eigenvalues was too large:
     Diagonalizing with lowered threshold

     Davidson diagonalization with overlap

[...]

     total energy              =   -1860.27839837 Ry
     estimated scf accuracy    <       0.99253706 Ry

[...]

     total energy              =   -1860.80271395 Ry
     estimated scf accuracy    <       0.00000113 Ry

     iteration # 16     ecut=    30.00 Ry     beta= 0.70
     Davidson diagonalization with overlap

     ethr =  1.01E-09,  avg # of iterations =  2.0

     End of self-consistent calculation

          k = 0.0000 0.0000 0.0000 (  2099 PWs)   bands (ev):

  -120.2606-120.0048-119.8591 -74.4019 -74.3488 -74.3421 -74.1505 -74.0938
   -74.0756 -74.0011 -73.9535 -73.9253 -46.4436 -45.7755 -18.3614 -18.3446
   -18.3380 -17.6972 -17.6807 -17.6763 -17.0860 -17.0792 -17.0730 -17.0690
   -17.0550  -5.4616  -4.5001  -4.1320  -3.4376  -1.2948  -1.2731  -1.1963
    -1.1573  -1.1000  -0.9832  -0.9431  -0.8372  -0.8175  -0.7794  -0.7656
    -0.7462  -0.6605  -0.5960  -0.5822   0.0841   1.2357   1.5364   4.0775
     4.2595   5.2748   5.2821   5.8497   5.8771   6.1806   6.4420   6.7240
     6.7361   7.4486   8.0421   8.2015   8.5186   9.5353  10.0328  10.2778
    10.5802  11.2620  11.3659

     occupation numbers
     1.0000   1.0000   1.0000   1.0000   1.0000   1.0000   1.0000   1.0000
     1.0000   1.0000   1.0000   1.0000   1.0000   1.0000   1.0000   1.0000
     1.0000   1.0000   1.0000   1.0000   1.0000   1.0000   1.0000   1.0000
     1.0000   1.0000   1.0000   1.0000   1.0000   1.0000   1.0000   1.0000
     1.0000   1.0000   1.0000   1.0000   1.0000   1.0000   1.0000   1.0000
     1.0000   1.0000   1.0000   1.0000   1.0000   1.0000   1.0000   1.0000
     1.0000   1.0000   1.0000   1.0000   1.0000   1.0000   1.0000   0.8391
     0.1609  -0.0000  -0.0000  -0.0000  -0.0000  -0.0000  -0.0000  -0.0000
    -0.0000  -0.0000  -0.0000

     the Fermi energy is     6.7300 ev

!    total energy              =   -1860.80271377 Ry
     estimated scf accuracy    <       0.00000043 Ry
     smearing contrib. (-TS)   =      -0.00027833 Ry
     internal energy E=F+TS    =   -1860.80243544 Ry

     The total energy is F=E-TS. E is the sum of the following terms:
     one-electron contribution =   -1851.72151804 Ry
     hartree contribution      =     960.18183024 Ry
     xc contribution           =    -250.62612103 Ry
     ewald contribution        =    -718.63662660 Ry

     convergence has been achieved in  16 iterations

     Forces acting on atoms (cartesian axes, Ry/au):

     atom    1 type  1   force =    -0.00991376   -0.00245388    0.00175535
     atom    2 type  1   force =    -0.00719475   -0.00176715    0.00528194
     atom    3 type  2   force =     0.00846610    0.00225814    0.05148107
     atom    4 type  2   force =     0.03288191    0.00790870   -0.03969338
     atom    5 type  2   force =     0.01599932    0.00379819   -0.05452168
     atom    6 type  3   force =    -0.01044044   -0.00244087    0.00077366
     atom    7 type  4   force =    -0.01329019   -0.00330391    0.01606315
     atom    8 type  4   force =     0.02728126    0.00674983    0.02493621
     atom    9 type  4   force =    -0.00031025   -0.00002902   -0.01759337
     atom   10 type  4   force =    -0.04347919   -0.01072003    0.01151705
     The non-local contrib.  to forces
     atom    1 type  1   force =     0.09894193    0.02451312   -0.05536102
     atom    2 type  1   force =     0.07980383    0.01979198    0.01770309
     atom    3 type  2   force =    -0.19181315   -0.04737706   -0.44329128
     atom    4 type  2   force =    -0.21680511   -0.05402564    0.36500757
     atom    5 type  2   force =     0.04752092    0.01160389    0.55126453
     atom    6 type  3   force =    -0.10541966   -0.02591034    0.34840709
     atom    7 type  4   force =     0.19130369    0.04748661   -0.05735042
     atom    8 type  4   force =     0.05334681    0.01325248   -0.02275397
     atom    9 type  4   force =    -0.16068094   -0.03993201    0.12057118
     atom   10 type  4   force =    -0.08116412   -0.02018071   -0.02799723
     The ionic contribution  to forces
     atom    1 type  1   force =    -4.60911418   -1.14284373    2.18346447
     atom    2 type  1   force =    -5.15419846   -1.27799902    2.40214364
     atom    3 type  2   force =    29.34077132    7.27513254  -11.46308211
     atom    4 type  2   force =   -11.69838945   -2.90065087   15.03225429
     atom    5 type  2   force =   -23.25143974   -5.76526445    2.36265056
     atom    6 type  3   force =    15.66451290    3.88406311  -10.41613234
     atom    7 type  4   force =   -11.19227941   -2.77515936    4.64456328
     atom    8 type  4   force =    -7.20726140   -1.78706215    4.06493930
     atom    9 type  4   force =     9.38249104    2.32641689   -6.03978884
     atom   10 type  4   force =     8.72490737    2.16336704   -2.77101225
     The local contribution  to forces
     atom    1 type  1   force =     4.50123328    1.11611793   -2.12652201
     atom    2 type  1   force =     5.06793212    1.25658559   -2.41526904
     atom    3 type  2   force =   -29.14169341   -7.22611951   11.95862821
     atom    4 type  2   force =    11.94774225    2.96301131  -15.43548723
     atom    5 type  2   force =    23.21794693    5.75734574   -2.96817779
     atom    6 type  3   force =   -15.57273871   -3.86173480   10.07368034
     atom    7 type  4   force =    11.00448204    2.72851906   -4.57746444
     atom    8 type  4   force =     7.17676442    1.77943870   -4.01425292
     atom    9 type  4   force =    -9.23369966   -2.28937977    5.92114850
     atom   10 type  4   force =    -8.69332671   -2.15539519    2.79889841
     The core correction contribution to forces
     atom    1 type  1   force =     0.00000000    0.00000000    0.00000000
     atom    2 type  1   force =     0.00000000    0.00000000    0.00000000
     atom    3 type  2   force =     0.00000000    0.00000000    0.00000000
     atom    4 type  2   force =     0.00000000    0.00000000    0.00000000
     atom    5 type  2   force =     0.00000000    0.00000000    0.00000000
     atom    6 type  3   force =     0.00264704    0.00065454   -0.00580600
     atom    7 type  4   force =    -0.01672780   -0.00415752    0.00623158
     atom    8 type  4   force =     0.00457540    0.00112865   -0.00303251
     atom    9 type  4   force =     0.01179582    0.00294278   -0.01973299
     atom   10 type  4   force =     0.00643316    0.00160902    0.01164953
     The Hubbard contrib.    to forces
     atom    1 type  1   force =     0.00000000    0.00000000    0.00000000
     atom    2 type  1   force =     0.00000000    0.00000000    0.00000000
     atom    3 type  2   force =     0.00000000    0.00000000    0.00000000
     atom    4 type  2   force =     0.00000000    0.00000000    0.00000000
     atom    5 type  2   force =     0.00000000    0.00000000    0.00000000
     atom    6 type  3   force =     0.00000000    0.00000000    0.00000000
     atom    7 type  4   force =     0.00000000    0.00000000    0.00000000
     atom    8 type  4   force =     0.00000000    0.00000000    0.00000000
     atom    9 type  4   force =     0.00000000    0.00000000    0.00000000
     atom   10 type  4   force =     0.00000000    0.00000000    0.00000000
     The SCF correction term to forces
     atom    1 type  1   force =    -0.00076564   -0.00019653    0.00008815
     atom    2 type  1   force =    -0.00052310   -0.00010103    0.00061847
     atom    3 type  2   force =     0.00141048    0.00066684   -0.00085952
     atom    4 type  2   force =     0.00054338   -0.00038143   -0.00155379
     atom    5 type  2   force =     0.00218035    0.00015767   -0.00034475
     atom    6 type  3   force =     0.00076714    0.00053129    0.00053879
     atom    7 type  4   force =     0.00014044    0.00005197   -0.00000263
     atom    8 type  4   force =     0.00006517    0.00003682   -0.00004946
     atom    9 type  4   force =    -0.00000735   -0.00003224    0.00012300
     atom   10 type  4   force =    -0.00011973   -0.00007552   -0.00010719

     Total force =     0.115326     Total SCF correction =     0.003669

     Computing stress (Cartesian axis) and pressure

          total   stress  (Ry/bohr**3)                   (kbar)     P=      -53.12
  -0.00091483  -0.00026329   0.00005570         -134.58      -38.73        8.19
  -0.00026329   0.00008256   0.00001370          -38.73       12.15        2.02
   0.00005570   0.00001370  -0.00025109            8.19        2.02      -36.94

     kinetic stress (kbar)  12456.68     -9.90     -7.12
                               -9.90  12494.31     -1.64
                               -7.12     -1.64  12496.36

     local   stress (kbar)   8643.04   6728.64 -11128.79
                             6728.64 -16825.04  -2759.71
                           -11128.79  -2759.71  -9407.85

     nonloc. stress (kbar)  -8058.57     -8.75     24.76
                               -8.75  -8025.49      6.16
                               24.76      6.16  -8090.88

     hartree stress (kbar)  24351.08  -3201.66   5309.03
                            -3201.66  36469.27   1316.53
                             5309.03   1316.53  32873.77

     exc-cor stress (kbar)  -1098.58      0.13      1.80
                                0.13  -1099.08      0.45
                                1.80      0.45  -1098.61

     corecor stress (kbar)  -5371.45      0.25     -0.52
                                0.25  -5372.40     -0.14
                               -0.52     -0.14  -5371.70

     ewald   stress (kbar) -31056.78  -3547.45   5809.03
                            -3547.45 -17629.43   1440.37
                             5809.03   1440.37 -21438.03

     hubbard stress (kbar)      0.00      0.00      0.00
                                0.00      0.00      0.00
                                0.00      0.00      0.00

     DFT-D   stress (kbar)      0.00      0.00      0.00
                                0.00      0.00      0.00
                                0.00      0.00      0.00

     XDM     stress (kbar)      0.00      0.00      0.00
                                0.00      0.00      0.00
                                0.00      0.00      0.00

     dft-nl  stress (kbar)      0.00      0.00      0.00
                                0.00      0.00      0.00
                                0.00      0.00      0.00

     TS-vdW  stress (kbar)      0.00      0.00      0.00
                                0.00      0.00      0.00
                                0.00      0.00      0.00

[...]

                                0.00      0.00      0.00

     Writing all to output data dir new_calculations/myprefix.save/

     General routines

     Parallel routines

   This run was terminated on:   4:23:35  20May2023

   JOB DONE.