     Program PWSCF v.7.0 starts on 20May2023 at 17: 7:52

     Reading input from espresso_8654.pwi
Warning: card &CELL ignored
Warning: card / ignored

     Current dimensions of program PWSCF are:
     Max number of different atomic species (ntypx) = 10
     Max number of k-points (npk) =  40000
     Max angular momentum in pseudopotentials (lmaxx) =  4
     file Al.pbe-n-kjpaw_psl.1.0.0.UPF: wavefunction(s)  3S 3P renormalized

     gamma-point specific algorithms are used
     Message from routine setup:
     using ibrav=0 with symmetry is DISCOURAGED, use correct ibrav instead

     Subspace diagonalization in iterative solution of the eigenvalue problem:
     a serial algorithm will be used

     Using Slab Decomposition

     bravais-lattice index     =            0
     lattice parameter (alat)  =      10.3275  a.u.
     unit-cell volume          =     763.8310 (a.u.)^3
     number of atoms/cell      =            8
     number of atomic types    =            2
     number of electrons       =       108.00
     number of Kohn-Sham states=           65
     kinetic-energy cutoff     =      30.0000  Ry
     charge density cutoff     =     240.0000  Ry
     scf convergence threshold =      1.0E-06
     mixing beta               =       0.7000
     number of iterations used =            8  plain     mixing
     Exchange-correlation= PBE
                           (   1   4   3   4   0   0   0)

     celldm(1)=  10.327542  celldm(2)=   0.000000  celldm(3)=   0.000000
     celldm(4)=   0.000000  celldm(5)=   0.000000  celldm(6)=   0.000000

     crystal axes: (cart. coord. in units of alat)
               a(1) = (   1.000000   0.000000   0.000000 )
               a(2) = (  -0.500000   0.866025   0.000000 )
               a(3) = (   0.000000   0.000000   0.800711 )

     reciprocal axes: (cart. coord. in units 2 pi/alat)
               b(1) = (  1.000000  0.577350  0.000000 )
               b(2) = (  0.000000  1.154700  0.000000 )
               b(3) = (  0.000000  0.000000  1.248890 )

     PseudoPot. # 1 for Al read from file:
     /home/pragov/projects/rrg-bengioy-ad/pragov/crystal_structure_design/SSSP/Al.pbe-n-kjpaw_psl.1.0.0.UPF
     MD5 check sum: cfc449ca30b5f3223ec38ddd88ac046d
     Pseudo is Projector augmented-wave + core cor, Zval =  3.0
     Generated using "atomic" code by A. Dal Corso  v.5.1
     Shape of augmentation charge: PSQ
     Using radial grid of 1135 points,  6 beta functions with:
                l(1) =   0
                l(2) =   0
                l(3) =   1
                l(4) =   1
                l(5) =   2
                l(6) =   2
     Q(r) pseudized with 0 coefficients

     PseudoPot. # 2 for Rh read from file:
     /home/pragov/projects/rrg-bengioy-ad/pragov/crystal_structure_design/SSSP/Rh_ONCV_PBE-1.0.oncvpsp.upf
     MD5 check sum: ba07c69523b14cacd10683cd4c4284c1
     Pseudo is Norm-conserving, Zval = 17.0
     Generated using ONCVPSP code by D. R. Hamann
     Using radial grid of 1442 points,  6 beta functions with:
                l(1) =   0
                l(2) =   0
                l(3) =   1
                l(4) =   1
                l(5) =   2
                l(6) =   2

     atomic species   valence    mass     pseudopotential
        Al             3.00    26.98154     Al( 1.00)
        Rh            17.00   102.90550     Rh( 1.00)

     24 Sym. Ops., with inversion, found (12 have fractional translation)

                                    s                        frac. trans.

      isym =  1     identity

 cryst.   s( 1) = (     1          0          0      )
                  (     0          1          0      )
                  (     0          0          1      )

 cart.    s( 1) = (  1.0000000  0.0000000  0.0000000 )
                  (  0.0000000  1.0000000  0.0000000 )
                  (  0.0000000  0.0000000  1.0000000 )

      isym =  2     180 deg rotation - cart. axis [0,0,1]

 cryst.   s( 2) = (    -1          0          0      )    f =(  0.0000000 )
                  (     0         -1          0      )       ( -0.0000000 )
                  (     0          0          1      )       (  0.5000000 )

 cart.    s( 2) = ( -1.0000000 -0.0000000  0.0000000 )    f =(  0.0000000 )
                  (  0.0000000 -1.0000000  0.0000000 )       ( -0.0000000 )
                  (  0.0000000  0.0000000  1.0000000 )       (  0.4003555 )

[...]

      isym =  4     180 deg rotation - cart. axis [1,0,0]

[...]

      isym =  5      60 deg rotation - cryst. axis [0,0,1]

[...]

 cryst.   s( 8) = (    -1         -1          0      )
                  (     1          0          0      )
                  (     0          0          1      )

 cart.    s( 8) = ( -0.5000001  0.8660254  0.0000000 )
                  ( -0.8660254 -0.4999999  0.0000000 )
                  (  0.0000000  0.0000000  1.0000000 )

[...]

 cryst.   s( 9) = (     0         -1          0      )    f =( -0.0000000 )
                  (    -1          0          0      )       ( -0.0000000 )
                  (     0          0         -1      )       (  0.5000000 )

 cart.    s( 9) = (  0.4999999 -0.8660254  0.0000000 )    f =( -0.0000000 )
                  ( -0.8660254 -0.4999999  0.0000000 )       ( -0.0000000 )
                  (  0.0000000  0.0000000 -1.0000000 )       (  0.4003555 )

[...]

 cryst.   s(10) = (     1          1          0      )    f =(  0.0000000 )
                  (     0         -1          0      )       ( -0.0000010 )
                  (     0          0         -1      )       (  0.5000000 )

 cart.    s(10) = (  0.5000001  0.8660253  0.0000000 )    f =(  0.0000005 )
                  (  0.8660254 -0.5000001  0.0000000 )       ( -0.0000009 )
                  (  0.0000000  0.0000000 -1.0000000 )       (  0.4003555 )

[...]

 cryst.   s(11) = (    -1         -1          0      )
                  (     0          1          0      )
                  (     0          0         -1      )

 cart.    s(11) = ( -0.5000001 -0.8660253  0.0000000 )
                  ( -0.8660254  0.5000001  0.0000000 )
                  (  0.0000000  0.0000000 -1.0000000 )

      isym = 12     180 deg rotation - cryst. axis [1,1,0]

[...]

      isym = 13     inversion

[...]

      isym = 14     inv. 180 deg rotation - cart. axis [0,0,1]

[...]

      isym = 16     inv. 180 deg rotation - cart. axis [1,0,0]

[...]

      isym = 17     inv.  60 deg rotation - cryst. axis [0,0,1]

[...]

 cryst.   s(22) = (    -1         -1          0      )    f =(  0.0000000 )
                  (     0          1          0      )       ( -0.0000010 )
                  (     0          0          1      )       (  0.5000000 )

 cart.    s(22) = ( -0.5000001 -0.8660253  0.0000000 )    f =(  0.0000005 )
                  ( -0.8660254  0.5000001  0.0000000 )       ( -0.0000009 )
                  (  0.0000000  0.0000000  1.0000000 )       (  0.4003555 )

[...]

      isym = 24     inv. 180 deg rotation - cryst. axis [1,1,0]

 cryst.   s(24) = (     0         -1          0      )
                  (    -1          0          0      )
                  (     0          0          1      )

 cart.    s(24) = (  0.4999999 -0.8660254  0.0000000 )
                  ( -0.8660254 -0.4999999  0.0000000 )
                  (  0.0000000  0.0000000  1.0000000 )

   Cartesian axes

     site n.     atom                  positions (alat units)
         1           Al  tau(   1) = (  -0.0000005   0.5773506   0.6005332  )
         2           Al  tau(   2) = (   0.5000005   0.2886749   0.2001777  )
         3           Rh  tau(   3) = (  -0.0000005   0.2904779   0.2001777  )
         4           Rh  tau(   4) = (   0.2484386   0.7207869   0.2001777  )
         5           Rh  tau(   5) = (  -0.2484394   0.7207869   0.2001777  )
         6           Rh  tau(   6) = (   0.5000005   0.5755475   0.6005332  )
         7           Rh  tau(   7) = (   0.2515615   0.1452385   0.6005332  )
         8           Rh  tau(   8) = (   0.7484395   0.1452385   0.6005332  )

   Crystallographic axes

     site n.     atom                  positions (cryst. coord.)
         1           Al  tau(   1) = (  0.3333330  0.6666670  0.7500000  )
         2           Al  tau(   2) = (  0.6666670  0.3333330  0.2500000  )
         3           Rh  tau(   3) = (  0.1677070  0.3354150  0.2500000  )
         4           Rh  tau(   4) = (  0.6645850  0.8322930  0.2500000  )
         5           Rh  tau(   5) = (  0.1677070  0.8322930  0.2500000  )
         6           Rh  tau(   6) = (  0.8322930  0.6645850  0.7500000  )
         7           Rh  tau(   7) = (  0.3354150  0.1677070  0.7500000  )
         8           Rh  tau(   8) = (  0.8322930  0.1677070  0.7500000  )

     number of k points=     1  Methfessel-Paxton smearing, width (Ry)=  0.0010
                       cart. coord. in units 2pi/alat
        k(    1) = (   0.0000000   0.0000000   0.0000000), wk =   2.0000000

                       cryst. coord.
        k(    1) = (   0.0000000   0.0000000   0.0000000), wk =   2.0000000

     Initial potential from superposition of free atoms

     starting charge     107.9928, renormalised to     108.0000
     Starting wfcs are   68 randomized atomic wfcs
     Checking if some PAW data can be deallocated...

     Self-consistent Calculation

     iteration #  1     ecut=    30.00 Ry     beta= 0.70
     Davidson diagonalization with overlap

     ethr =  1.00E-02,  avg # of iterations =  3.0

     Threshold (ethr) on eigenvalues was too large:
     Diagonalizing with lowered threshold

     Davidson diagonalization with overlap

[...]

     total energy              =   -1380.41145736 Ry
     estimated scf accuracy    <       0.26813446 Ry

[...]

     total energy              =   -1380.48298505 Ry
     estimated scf accuracy    <       0.00000330 Ry

     iteration # 13     ecut=    30.00 Ry     beta= 0.70
     Davidson diagonalization with overlap

     ethr =  3.05E-09,  avg # of iterations =  1.0

     End of self-consistent calculation

          k = 0.0000 0.0000 0.0000 (  1049 PWs)   bands (ev):

   -59.6066 -59.5424 -59.5421 -59.5368 -59.5082 -59.5079 -27.8220 -27.7133
   -27.5861 -27.5860 -27.5724 -27.5724 -27.5431 -27.4248 -27.3763 -27.3761
   -27.3234 -27.3233 -27.2937 -27.2937 -27.2612 -27.1554 -27.1552 -27.0864
    10.1133  12.3434  13.5353  13.6119  13.8876  14.0935  14.0935  14.2878
    14.2879  15.0594  15.0595  16.0116  16.0205  16.0205  16.1378  16.4296
    16.4297  16.6424  16.6839  16.6839  17.7061  17.7062  17.8039  17.8040
    18.4122  18.4123  18.5233  18.5233  18.5259  19.4056  19.4121  19.7136
    19.9556  20.7961  20.9282  20.9282  22.2569  22.2569  24.1275  25.7762
    26.4234

     occupation numbers
     1.0000   1.0000   1.0000   1.0000   1.0000   1.0000   1.0000   1.0000
     1.0000   1.0000   1.0000   1.0000   1.0000   1.0000   1.0000   1.0000
     1.0000   1.0000   1.0000   1.0000   1.0000   1.0000   1.0000   1.0000
     1.0000   1.0000   1.0000   1.0000   1.0000   1.0000   1.0000   1.0000
     1.0000   1.0000   1.0000   1.0000   1.0000   1.0000   1.0000   1.0000
     1.0000   1.0000   1.0000   1.0000   1.0000   1.0000   1.0000   1.0000
     1.0000   1.0000   1.0000   1.0000   1.0000   0.6967   0.3033  -0.0000
    -0.0000  -0.0000  -0.0000  -0.0000  -0.0000  -0.0000  -0.0000  -0.0000
    -0.0000

     the Fermi energy is    19.4089 ev

!    total energy              =   -1380.48298467 Ry
     estimated scf accuracy    <       0.00000083 Ry
     smearing contrib. (-TS)   =      -0.00047132 Ry
     internal energy E=F+TS    =   -1380.48251335 Ry

     The total energy is F=E-TS. E is the sum of the following terms:
     one-electron contribution =    -446.51790226 Ry
     hartree contribution      =     284.66933161 Ry
     xc contribution           =    -137.31139249 Ry
     ewald contribution        =   -1011.99029663 Ry
     one-center paw contrib.   =     -69.33225357 Ry
      -> PAW hartree energy AE =       2.96008573 Ry
      -> PAW hartree energy PS =      -2.95175169 Ry
      -> PAW xc energy AE      =     -73.21943876 Ry
      -> PAW xc energy PS      =       3.87885115 Ry
      -> total E_H with PAW    =     284.67766565 Ry
      -> total E_XC with PAW   =    -206.65198011 Ry

     convergence has been achieved in  13 iterations

     Forces acting on atoms (cartesian axes, Ry/au):

     atom    1 type  1   force =     0.00000000    0.00000000    0.00000000
     atom    2 type  1   force =     0.00000000    0.00000000    0.00000000
     atom    3 type  2   force =    -0.00000000   -0.00368314    0.00000000
     atom    4 type  2   force =     0.00318969    0.00184157   -0.00000000
     atom    5 type  2   force =    -0.00318969    0.00184157    0.00000000
     atom    6 type  2   force =     0.00000000    0.00368314   -0.00000000
     atom    7 type  2   force =    -0.00318969   -0.00184157   -0.00000000
     atom    8 type  2   force =     0.00318969   -0.00184157   -0.00000000
     The non-local contrib.  to forces
     atom    1 type  1   force =    -0.00000000   -0.00000000    0.00000000
     atom    2 type  1   force =     0.00000000    0.00000000    0.00000000
     atom    3 type  2   force =    -0.00000000    0.17286499    0.00000000
     atom    4 type  2   force =    -0.14970548   -0.08643249    0.00000000
     atom    5 type  2   force =     0.14970548   -0.08643251    0.00000000
     atom    6 type  2   force =    -0.00000000   -0.17286499   -0.00000000
     atom    7 type  2   force =     0.14970548    0.08643249    0.00000000
     atom    8 type  2   force =    -0.14970548    0.08643251   -0.00000000
     The ionic contribution  to forces
     atom    1 type  1   force =     0.00003924   -0.00002265   -0.00000000
     atom    2 type  1   force =    -0.00003924    0.00002265    0.00000000
     atom    3 type  2   force =     0.00010366   10.98790591   -0.00000000
     atom    4 type  2   force =    -9.51575426   -5.49404197   -0.00000000
     atom    5 type  2   force =     9.51576542   -5.49393023   -0.00000000
     atom    6 type  2   force =    -0.00010366  -10.98790591    0.00000000
     atom    7 type  2   force =     9.51575426    5.49404197   -0.00000000
     atom    8 type  2   force =    -9.51576543    5.49393024    0.00000000
     The local contribution  to forces
     atom    1 type  1   force =    -0.00000486   -0.00006061    0.00000172
     atom    2 type  1   force =     0.00008915   -0.00005372   -0.00000081
     atom    3 type  2   force =     0.00002195  -11.16424515   -0.00000801
     atom    4 type  2   force =     9.66795315    5.58278973    0.00000105
     atom    5 type  2   force =    -9.66850616    5.58154914   -0.00000226
     atom    6 type  2   force =     0.00043968   11.16424386   -0.00000774
     atom    7 type  2   force =    -9.66928119   -5.58146729    0.00000862
     atom    8 type  2   force =     9.66875947   -5.58230540   -0.00001241
     The core correction contribution to forces
     atom    1 type  1   force =    -0.00000023    0.00000047    0.00000015
     atom    2 type  1   force =     0.00000040    0.00000004   -0.00000009
     atom    3 type  2   force =     0.00000000    0.00000000    0.00000000
     atom    4 type  2   force =     0.00000000    0.00000000    0.00000000
     atom    5 type  2   force =     0.00000000    0.00000000    0.00000000
     atom    6 type  2   force =     0.00000000    0.00000000    0.00000000
     atom    7 type  2   force =     0.00000000    0.00000000    0.00000000
     atom    8 type  2   force =     0.00000000    0.00000000    0.00000000
     The Hubbard contrib.    to forces
     atom    1 type  1   force =     0.00000000    0.00000000    0.00000000
     atom    2 type  1   force =     0.00000000    0.00000000    0.00000000
     atom    3 type  2   force =     0.00000000    0.00000000    0.00000000
     atom    4 type  2   force =     0.00000000    0.00000000    0.00000000
     atom    5 type  2   force =     0.00000000    0.00000000    0.00000000
     atom    6 type  2   force =     0.00000000    0.00000000    0.00000000
     atom    7 type  2   force =     0.00000000    0.00000000    0.00000000
     atom    8 type  2   force =     0.00000000    0.00000000    0.00000000
     The SCF correction term to forces
     atom    1 type  1   force =    -0.00003529    0.00007964   -0.00000069
     atom    2 type  1   force =    -0.00004392    0.00002987    0.00000045
     atom    3 type  2   force =     0.00026603   -0.00019602    0.00000619
     atom    4 type  2   force =     0.00048122   -0.00009328   -0.00000083
     atom    5 type  2   force =    -0.00036336    0.00028750    0.00000250
     atom    6 type  2   force =     0.00010563    0.00024202    0.00000345
     atom    7 type  2   force =     0.00042989   -0.00050063   -0.00001153
     atom    8 type  2   force =    -0.00032426   -0.00024772    0.00000671

     Total force =     0.009022     Total SCF correction =     0.001116
     SCF correction compared to forces is large: reduce conv_thr to get better values

     Computing stress (Cartesian axis) and pressure

          total   stress  (Ry/bohr**3)                   (kbar)     P=      -49.54
  -0.00024440   0.00000000   0.00000000          -35.95        0.00        0.00
   0.00000000  -0.00024440   0.00000000            0.00      -35.95        0.00
   0.00000000  -0.00000000  -0.00052150            0.00       -0.00      -76.72

     kinetic stress (kbar)  53932.73     -0.00      0.00
                               -0.00  53932.72      0.00
                                0.00      0.00  54734.00

     local   stress (kbar)  -4985.27      0.03     -0.00
                                0.03  -4985.38     -0.00
                               -0.00     -0.00 -12333.43

     nonloc. stress (kbar)   8131.85     -0.00      0.00
                               -0.00   8131.85      0.00
                                0.00     -0.00   8086.50

     hartree stress (kbar)  17196.69     -0.02      0.00
                               -0.02  17196.82      0.00
                                0.00      0.00  20430.54

     exc-cor stress (kbar)  -7871.83     -0.00      0.00
                               -0.00  -7871.83      0.00
                                0.00      0.00  -7855.45

     corecor stress (kbar)   -372.64      0.00     -0.00
                                0.00   -372.64     -0.00
                               -0.00     -0.00   -376.14

     ewald   stress (kbar) -66067.49     -0.01     -0.00
                               -0.01 -66067.50     -0.00
                               -0.00     -0.00 -62762.73

     hubbard stress (kbar)      0.00      0.00      0.00
                                0.00      0.00      0.00
                                0.00      0.00      0.00

     DFT-D   stress (kbar)      0.00      0.00      0.00
                                0.00      0.00      0.00
                                0.00      0.00      0.00

     XDM     stress (kbar)      0.00      0.00      0.00
                                0.00      0.00      0.00
                                0.00      0.00      0.00

     dft-nl  stress (kbar)      0.00      0.00      0.00
                                0.00      0.00      0.00
                                0.00      0.00      0.00

     TS-vdW  stress (kbar)      0.00      0.00      0.00
                                0.00      0.00      0.00
                                0.00      0.00      0.00

[...]

                                0.00      0.00      0.00

     Writing all to output data dir new_calculations/myprefix.save/

     General routines

     Parallel routines

     PAW routines

   This run was terminated on:  17: 8: 4  20May2023

   JOB DONE.