     Program PWSCF v.7.0 starts on 20May2023 at  5:54:29

     Reading input from espresso_10162.pwi
Warning: card &CELL ignored
Warning: card / ignored

     Current dimensions of program PWSCF are:
     Max number of different atomic species (ntypx) = 10
     Max number of k-points (npk) =  40000
     Max angular momentum in pseudopotentials (lmaxx) =  4

     gamma-point specific algorithms are used
     Message from routine setup:
     using ibrav=0 with symmetry is DISCOURAGED, use correct ibrav instead

     Subspace diagonalization in iterative solution of the eigenvalue problem:
     a serial algorithm will be used

     Using Slab Decomposition

     bravais-lattice index     =            0
     lattice parameter (alat)  =       7.7517  a.u.
     unit-cell volume          =    1157.4363 (a.u.)^3
     number of atoms/cell      =            8
     number of atomic types    =            3
     number of electrons       =        82.00
     number of Kohn-Sham states=           49
     kinetic-energy cutoff     =      30.0000  Ry
     charge density cutoff     =     240.0000  Ry
     scf convergence threshold =      1.0E-06
     mixing beta               =       0.7000
     number of iterations used =            8  plain     mixing
     Exchange-correlation= PBE
                           (   1   4   3   4   0   0   0)

     celldm(1)=   7.751696  celldm(2)=   0.000000  celldm(3)=   0.000000
     celldm(4)=   0.000000  celldm(5)=   0.000000  celldm(6)=   0.000000

     crystal axes: (cart. coord. in units of alat)
               a(1) = (   1.000000   0.000000   0.000000 )
               a(2) = (   0.000000   1.000000   0.000000 )
               a(3) = (   0.000000   0.000000   2.484888 )

     reciprocal axes: (cart. coord. in units 2 pi/alat)
               b(1) = (  1.000000  0.000000  0.000000 )
               b(2) = (  0.000000  1.000000  0.000000 )
               b(3) = (  0.000000  0.000000  0.402433 )

     PseudoPot. # 1 for Ce read from file:
     /home/pragov/projects/rrg-bengioy-ad/pragov/crystal_structure_design/SSSP/Ce.GGA-PBE-paw-v1.0.UPF
     MD5 check sum: f2b950f613061344c13339c8d844425d
     Pseudo is Projector augmented-wave + core cor, Zval = 12.0
     Generated using ATOMPAW code
     Shape of augmentation charge: BESSEL
     Using radial grid of 1102 points,  8 beta functions with:
                l(1) =   0
                l(2) =   0
                l(3) =   1
                l(4) =   1
                l(5) =   2
                l(6) =   2
                l(7) =   3
                l(8) =   3
     Q(r) pseudized with 0 coefficients

     PseudoPot. # 2 for Ag read from file:
     /home/pragov/projects/rrg-bengioy-ad/pragov/crystal_structure_design/SSSP/Ag_ONCV_PBE-1.0.oncvpsp.upf
     MD5 check sum: 94f47bd0669c641108e45594df92fabc
     Pseudo is Norm-conserving, Zval = 19.0
     Generated using ONCVPSP code by D. R. Hamann
     Using radial grid of 1398 points,  6 beta functions with:
                l(1) =   0
                l(2) =   0
                l(3) =   1
                l(4) =   1
                l(5) =   2
                l(6) =   2

     PseudoPot. # 3 for As read from file:
     /home/pragov/projects/rrg-bengioy-ad/pragov/crystal_structure_design/SSSP/As.pbe-n-rrkjus_psl.0.2.UPF
     MD5 check sum: 767315de957beeeb34f87d97bf945c8f
     Pseudo is Ultrasoft + core correction, Zval =  5.0
     Generated using "atomic" code by A. Dal Corso  v.5.0.99 svn rev. 10869
     Using radial grid of 1209 points,  4 beta functions with:
                l(1) =   0
                l(2) =   0
                l(3) =   1
                l(4) =   1
     Q(r) pseudized with 0 coefficients

     atomic species   valence    mass     pseudopotential
        Ce            12.00   140.11600     Ce( 1.00)
        Ag            19.00   107.86820     Ag( 1.00)
        As             5.00    74.92159     As( 1.00)

     16 Sym. Ops., with inversion, found ( 8 have fractional translation)

                                    s                        frac. trans.

      isym =  1     identity

 cryst.   s( 1) = (     1          0          0      )
                  (     0          1          0      )
                  (     0          0          1      )

 cart.    s( 1) = (  1.0000000  0.0000000  0.0000000 )
                  (  0.0000000  1.0000000  0.0000000 )
                  (  0.0000000  0.0000000  1.0000000 )

      isym =  2     180 deg rotation - cart. axis [0,0,1]

[...]

 cryst.   s( 3) = (    -1          0          0      )    f =(  0.5000000 )
                  (     0          1          0      )       ( -0.5000000 )
                  (     0          0         -1      )       (  0.0000000 )

 cart.    s( 3) = ( -1.0000000  0.0000000  0.0000000 )    f =(  0.5000000 )
                  (  0.0000000  1.0000000  0.0000000 )       ( -0.5000000 )
                  (  0.0000000  0.0000000 -1.0000000 )       (  0.0000000 )

[...]

 cryst.   s( 6) = (     0         -1          0      )
                  (    -1          0          0      )
                  (     0          0         -1      )

 cart.    s( 6) = (  0.0000000 -1.0000000  0.0000000 )
                  ( -1.0000000  0.0000000  0.0000000 )
                  (  0.0000000  0.0000000 -1.0000000 )

[...]

      isym =  8      90 deg rotation - cart. axis [0,0,1]

[...]

      isym =  9     inversion

 cryst.   s( 9) = (    -1          0          0      )    f =(  0.5000000 )
                  (     0         -1          0      )       (  0.5000000 )
                  (     0          0         -1      )       (  0.0000000 )

 cart.    s( 9) = ( -1.0000000  0.0000000  0.0000000 )    f =(  0.5000000 )
                  (  0.0000000 -1.0000000  0.0000000 )       (  0.5000000 )
                  (  0.0000000  0.0000000 -1.0000000 )       (  0.0000000 )

      isym = 10     inv. 180 deg rotation - cart. axis [0,0,1]

 cryst.   s(10) = (     1          0          0      )    f =(  0.5000000 )
                  (     0          1          0      )       ( -0.5000000 )
                  (     0          0         -1      )       (  0.0000000 )

 cart.    s(10) = (  1.0000000  0.0000000  0.0000000 )    f =(  0.5000000 )
                  (  0.0000000  1.0000000  0.0000000 )       ( -0.5000000 )
                  (  0.0000000  0.0000000 -1.0000000 )       (  0.0000000 )

[...]

 cryst.   s(11) = (     1          0          0      )
                  (     0         -1          0      )
                  (     0          0          1      )

 cart.    s(11) = (  1.0000000  0.0000000  0.0000000 )
                  (  0.0000000 -1.0000000  0.0000000 )
                  (  0.0000000  0.0000000  1.0000000 )

[...]

 cryst.   s(14) = (     0          1          0      )    f =(  0.5000000 )
                  (     1          0          0      )       ( -0.5000000 )
                  (     0          0          1      )       (  0.0000000 )

 cart.    s(14) = (  0.0000000  1.0000000  0.0000000 )    f =(  0.5000000 )
                  (  1.0000000  0.0000000  0.0000000 )       ( -0.5000000 )
                  (  0.0000000  0.0000000  1.0000000 )       (  0.0000000 )

[...]

      isym = 16     inv.  90 deg rotation - cart. axis [0,0,1]

 cryst.   s(16) = (     0         -1          0      )
                  (     1          0          0      )
                  (     0          0         -1      )

 cart.    s(16) = (  0.0000000  1.0000000  0.0000000 )
                  ( -1.0000000  0.0000000  0.0000000 )
                  (  0.0000000  0.0000000 -1.0000000 )

   Cartesian axes

     site n.     atom                  positions (alat units)
         1           Ce  tau(   1) = (   0.5000000   0.0000000   1.9352534  )
         2           Ce  tau(   2) = (   0.0000000   0.5000000   0.5496349  )
         3           Ag  tau(   3) = (   0.5000000   0.5000000   1.2424442  )
         4           Ag  tau(   4) = (   0.0000000   0.0000000   1.2424442  )
         5           As  tau(   5) = (   0.5000000   0.0000000   0.7740526  )
         6           As  tau(   6) = (   0.0000000   0.5000000   1.7108357  )
         7           As  tau(   7) = (   0.5000000   0.5000000   0.0000000  )
         8           As  tau(   8) = (   0.0000000   0.0000000   0.0000000  )

   Crystallographic axes

     site n.     atom                  positions (cryst. coord.)
         1           Ce  tau(   1) = (  0.5000000  0.0000000  0.7788090  )
         2           Ce  tau(   2) = (  0.0000000  0.5000000  0.2211910  )
         3           Ag  tau(   3) = (  0.5000000  0.5000000  0.5000000  )
         4           Ag  tau(   4) = (  0.0000000  0.0000000  0.5000000  )
         5           As  tau(   5) = (  0.5000000  0.0000000  0.3115040  )
         6           As  tau(   6) = (  0.0000000  0.5000000  0.6884960  )
         7           As  tau(   7) = (  0.5000000  0.5000000  0.0000000  )
         8           As  tau(   8) = (  0.0000000  0.0000000  0.0000000  )

     number of k points=     1  Methfessel-Paxton smearing, width (Ry)=  0.0010
                       cart. coord. in units 2pi/alat
        k(    1) = (   0.0000000   0.0000000   0.0000000), wk =   2.0000000

                       cryst. coord.
        k(    1) = (   0.0000000   0.0000000   0.0000000), wk =   2.0000000

     Initial potential from superposition of free atoms

     starting charge      81.9845, renormalised to      82.0000
     Starting wfcs are  100 randomized atomic wfcs
     Checking if some PAW data can be deallocated...

     Self-consistent Calculation

     iteration #  1     ecut=    30.00 Ry     beta= 0.70
     Davidson diagonalization with overlap

     ethr =  1.00E-02,  avg # of iterations =  2.0

     Threshold (ethr) on eigenvalues was too large:
     Diagonalizing with lowered threshold

     Davidson diagonalization with overlap

[...]

     total energy              =   -1610.65232075 Ry
     estimated scf accuracy    <       0.59793892 Ry

[...]

     total energy              =   -1610.96210935 Ry
     estimated scf accuracy    <       0.00000154 Ry

     iteration # 44     ecut=    30.00 Ry     beta= 0.70
     Davidson diagonalization with overlap

     ethr =  1.87E-09,  avg # of iterations =  7.0

     End of self-consistent calculation

          k = 0.0000 0.0000 0.0000 (  1629 PWs)   bands (ev):

   -81.1355 -81.1252 -44.2594 -44.2593 -44.1888 -44.1888 -44.1818 -44.1689
   -21.7305 -21.7277  -5.2060  -4.9407  -4.3790  -4.3789  -4.3660  -4.3659
    -0.4975   1.4958   1.6549   3.8549   6.0598   6.0755   6.2756   6.7337
     6.7337   7.9115   7.9582   7.9582   8.2896   8.2896   8.3208   8.4341
     8.6799   9.1098  10.4951  11.0595  11.0731  11.0731  12.1379  12.1379
    12.8905  12.9038  12.9406  13.0893  13.1817  13.1817  13.1961  13.1962
    13.3332

     occupation numbers
     1.0000   1.0000   1.0000   1.0000   1.0000   1.0000   1.0000   1.0000
     1.0000   1.0000   1.0000   1.0000   1.0000   1.0000   1.0000   1.0000
     1.0000   1.0000   1.0000   1.0000   1.0000   1.0000   1.0000   1.0000
     1.0000   1.0000   1.0000   1.0000   1.0000   1.0000   1.0000   1.0000
     1.0000   1.0000   1.0000   1.0000   1.0000   1.0000   1.0000   1.0000
     0.8643   0.1358  -0.0000  -0.0000  -0.0000  -0.0000  -0.0000  -0.0000
    -0.0000

     the Fermi energy is    12.8972 ev

!    total energy              =   -1610.96210932 Ry
     estimated scf accuracy    <       0.00000031 Ry
     smearing contrib. (-TS)   =      -0.00023106 Ry
     internal energy E=F+TS    =   -1610.96187826 Ry

     The total energy is F=E-TS. E is the sum of the following terms:
     one-electron contribution =    -599.08468914 Ry
     hartree contribution      =     339.19625857 Ry
     xc contribution           =    -111.88500803 Ry
     ewald contribution        =    -422.55176719 Ry
     one-center paw contrib.   =    -816.63667247 Ry
      -> PAW hartree energy AE =      88.83318807 Ry
      -> PAW hartree energy PS =     -88.27976919 Ry
      -> PAW xc energy AE      =    -834.42311229 Ry
      -> PAW xc energy PS      =      17.23302094 Ry
      -> total E_H with PAW    =     339.74967746 Ry
      -> total E_XC with PAW   =    -929.07509939 Ry

     convergence has been achieved in  44 iterations

     Forces acting on atoms (cartesian axes, Ry/au):

     atom    1 type  1   force =     0.00000000    0.00000000    0.02443419
     atom    2 type  1   force =     0.00000000    0.00000000   -0.02443419
     atom    3 type  2   force =     0.00000000    0.00000000    0.00000000
     atom    4 type  2   force =     0.00000000    0.00000000    0.00000000
     atom    5 type  3   force =     0.00000000    0.00000000   -0.01014079
     atom    6 type  3   force =     0.00000000    0.00000000    0.01014079
     atom    7 type  3   force =     0.00000000    0.00000000    0.00000000
     atom    8 type  3   force =     0.00000000    0.00000000    0.00000000
     The non-local contrib.  to forces
     atom    1 type  1   force =     0.00000000    0.00000000   -0.27183854
     atom    2 type  1   force =     0.00000000    0.00000000    0.27183854
     atom    3 type  2   force =     0.00000000    0.00000000    0.00000000
     atom    4 type  2   force =     0.00000000    0.00000000    0.00000000
     atom    5 type  3   force =     0.00000000    0.00000000    0.19180446
     atom    6 type  3   force =     0.00000000    0.00000000   -0.19180446
     atom    7 type  3   force =     0.00000000    0.00000000    0.00000000
     atom    8 type  3   force =     0.00000000    0.00000000    0.00000000
     The ionic contribution  to forces
     atom    1 type  1   force =    -0.00000000    0.00000000   29.99356826
     atom    2 type  1   force =     0.00000000   -0.00000000  -29.99356826
     atom    3 type  2   force =    -0.00000000   -0.00000000    0.00000000
     atom    4 type  2   force =    -0.00000000   -0.00000000    0.00000000
     atom    5 type  3   force =     0.00000000   -0.00000000  -16.48775871
     atom    6 type  3   force =    -0.00000000   -0.00000000   16.48775871
     atom    7 type  3   force =     0.00000000    0.00000000   -0.00000000
     atom    8 type  3   force =    -0.00000000   -0.00000000   -0.00000000
     The local contribution  to forces
     atom    1 type  1   force =    -0.00000202    0.00004894  -29.69904022
     atom    2 type  1   force =    -0.00001390   -0.00002242   29.69920641
     atom    3 type  2   force =     0.00000192   -0.00001384    0.00004840
     atom    4 type  2   force =    -0.00001063    0.00001988    0.00001576
     atom    5 type  3   force =     0.00000736   -0.00000113   16.31300587
     atom    6 type  3   force =     0.00001042   -0.00000262  -16.31295473
     atom    7 type  3   force =    -0.00000628    0.00000297   -0.00006662
     atom    8 type  3   force =     0.00000276   -0.00000376   -0.00007059
     The core correction contribution to forces
     atom    1 type  1   force =     0.00000000    0.00000003    0.00030983
     atom    2 type  1   force =    -0.00000001   -0.00000002   -0.00030974
     atom    3 type  2   force =     0.00000000    0.00000000    0.00000000
     atom    4 type  2   force =     0.00000000    0.00000000    0.00000000
     atom    5 type  3   force =     0.00000088   -0.00000031   -0.02684499
     atom    6 type  3   force =     0.00000116    0.00000033    0.02684429
     atom    7 type  3   force =    -0.00000072    0.00000025    0.00000135
     atom    8 type  3   force =     0.00000021   -0.00000042    0.00000021
     The Hubbard contrib.    to forces
     atom    1 type  1   force =     0.00000000    0.00000000    0.00000000
     atom    2 type  1   force =     0.00000000    0.00000000    0.00000000
     atom    3 type  2   force =     0.00000000    0.00000000    0.00000000
     atom    4 type  2   force =     0.00000000    0.00000000    0.00000000
     atom    5 type  3   force =     0.00000000    0.00000000    0.00000000
     atom    6 type  3   force =     0.00000000    0.00000000    0.00000000
     atom    7 type  3   force =     0.00000000    0.00000000    0.00000000
     atom    8 type  3   force =     0.00000000    0.00000000    0.00000000
     The SCF correction term to forces
     atom    1 type  1   force =     0.00000143   -0.00001799    0.00146715
     atom    2 type  1   force =     0.00000302    0.00000901   -0.00156884
     atom    3 type  2   force =    -0.00000201    0.00000708   -0.00000220
     atom    4 type  2   force =     0.00001268   -0.00001523   -0.00000973
     atom    5 type  3   force =    -0.00000252   -0.00000127   -0.00035508
     atom    6 type  3   force =    -0.00000196    0.00000329    0.00028933
     atom    7 type  3   force =     0.00000234   -0.00000102    0.00007086
     atom    8 type  3   force =    -0.00000151    0.00000067    0.00006831

     Total force =     0.037413     Total SCF correction =     0.002199

     Computing stress (Cartesian axis) and pressure

          total   stress  (Ry/bohr**3)                   (kbar)     P=     -269.53
  -0.00169959   0.00000000   0.00000000         -250.02        0.00        0.00
   0.00000000  -0.00169959   0.00000000            0.00     -250.02        0.00
   0.00000000   0.00000000  -0.00209750            0.00        0.00     -308.55

     kinetic stress (kbar)  21507.08      0.00      0.00
                                0.00  21507.08      0.00
                                0.00      0.00  21337.60

     local   stress (kbar) -46312.50     -0.00     -0.01
                               -0.00 -46312.55      0.01
                               -0.01      0.01  39883.65

     nonloc. stress (kbar)   3179.89      0.00      0.00
                                0.00   3179.89      0.00
                                0.00      0.00   3181.95

     hartree stress (kbar)  28400.43      0.00      0.00
                                0.00  28400.44     -0.00
                                0.00     -0.00 -13690.52

     exc-cor stress (kbar)   -681.33      0.00      0.00
                                0.00   -681.33     -0.00
                                0.00     -0.00   -683.04

     corecor stress (kbar)  -3108.85     -0.00     -0.00
                               -0.00  -3108.85      0.00
                               -0.00      0.00  -3103.19

     ewald   stress (kbar)  -3234.73     -0.00     -0.00
                               -0.00  -3234.73     -0.00
                               -0.00     -0.00 -47235.02

     hubbard stress (kbar)      0.00      0.00      0.00
                                0.00      0.00      0.00
                                0.00      0.00      0.00

     DFT-D   stress (kbar)      0.00      0.00      0.00
                                0.00      0.00      0.00
                                0.00      0.00      0.00

     XDM     stress (kbar)      0.00      0.00      0.00
                                0.00      0.00      0.00
                                0.00      0.00      0.00

     dft-nl  stress (kbar)      0.00      0.00      0.00
                                0.00      0.00      0.00
                                0.00      0.00      0.00

     TS-vdW  stress (kbar)      0.00      0.00      0.00
                                0.00      0.00      0.00
                                0.00      0.00      0.00

[...]

                                0.00      0.00      0.00

     Writing all to output data dir new_calculations/myprefix.save/

     General routines

     Parallel routines

     PAW routines

   This run was terminated on:   5:55:40  20May2023

   JOB DONE.