     Program PWSCF v.7.0 starts on 21May2023 at 19:28:58

     Reading input from espresso_26992.pwi
Warning: card &CELL ignored
Warning: card / ignored

     Current dimensions of program PWSCF are:
     Max number of different atomic species (ntypx) = 10
     Max number of k-points (npk) =  40000
     Max angular momentum in pseudopotentials (lmaxx) =  4
     file Ga.pbe-dn-kjpaw_psl.1.0.0.UPF: wavefunction(s)  4S renormalized

     gamma-point specific algorithms are used
     Message from routine setup:
     using ibrav=0 with symmetry is DISCOURAGED, use correct ibrav instead

     Subspace diagonalization in iterative solution of the eigenvalue problem:
     a serial algorithm will be used

     Using Slab Decomposition

     bravais-lattice index     =            0
     lattice parameter (alat)  =       7.6302  a.u.
     unit-cell volume          =     697.1822 (a.u.)^3
     number of atoms/cell      =            4
     number of atomic types    =            3
     number of electrons       =        44.00
     number of Kohn-Sham states=           26
     kinetic-energy cutoff     =      30.0000  Ry
     charge density cutoff     =     240.0000  Ry
     scf convergence threshold =      1.0E-06
     mixing beta               =       0.7000
     number of iterations used =            8  plain     mixing
     Exchange-correlation= SLA  PW   PBE  PBE
                           (   1   4   3   4   0   0   0)

     celldm(1)=   7.630177  celldm(2)=   0.000000  celldm(3)=   0.000000
     celldm(4)=   0.000000  celldm(5)=   0.000000  celldm(6)=   0.000000

     crystal axes: (cart. coord. in units of alat)
               a(1) = (   1.000000   0.000000   0.000000 )
               a(2) = (   0.000000   1.000000   0.000000 )
               a(3) = (   0.000000   0.000000   1.569432 )

     reciprocal axes: (cart. coord. in units 2 pi/alat)
               b(1) = (  1.000000  0.000000  0.000000 )
               b(2) = (  0.000000  1.000000  0.000000 )
               b(3) = (  0.000000  0.000000  0.637173 )

     PseudoPot. # 1 for Ga read from file:
     /home/pragov/projects/rrg-bengioy-ad/pragov/crystal_structure_design/SSSP/Ga.pbe-dn-kjpaw_psl.1.0.0.UPF
     MD5 check sum: a27b4342b1af7e5f338de752e9ed7044
     Pseudo is Projector augmented-wave + core cor, Zval = 13.0
     Generated using "atomic" code by A. Dal Corso  v.5.1
     Shape of augmentation charge: PSQ
     Using radial grid of 1205 points,  6 beta functions with:
                l(1) =   0
                l(2) =   0
                l(3) =   1
                l(4) =   1
                l(5) =   2
                l(6) =   2
     Q(r) pseudized with 0 coefficients

     PseudoPot. # 2 for Ag read from file:
     /home/pragov/projects/rrg-bengioy-ad/pragov/crystal_structure_design/SSSP/Ag_ONCV_PBE-1.0.oncvpsp.upf
     MD5 check sum: 94f47bd0669c641108e45594df92fabc
     Pseudo is Norm-conserving, Zval = 19.0
     Generated using ONCVPSP code by D. R. Hamann
     Using radial grid of 1398 points,  6 beta functions with:
                l(1) =   0
                l(2) =   0
                l(3) =   1
                l(4) =   1
                l(5) =   2
                l(6) =   2

     PseudoPot. # 3 for Se read from file:
     /home/pragov/projects/rrg-bengioy-ad/pragov/crystal_structure_design/SSSP/Se_pbe_v1.uspp.F.UPF
     MD5 check sum: 1b3568f3a8ae88f9a2a0ad0698632c85
     Pseudo is Ultrasoft + core correction, Zval =  6.0
     Generated by new atomic code, or converted to UPF format
     Using radial grid of  877 points,  6 beta functions with:
                l(1) =   0
                l(2) =   0
                l(3) =   1
                l(4) =   1
                l(5) =   2
                l(6) =   2
     Q(r) pseudized with  8 coefficients,  rinner =    1.300   1.300   1.300
                                                       1.300   1.300

     atomic species   valence    mass     pseudopotential
        Ga            13.00    69.72300     Ga( 1.00)
        Ag            19.00   107.86820     Ag( 1.00)
        Se             6.00    78.97100     Se( 1.00)

      8 Sym. Ops. (no inversion) found

                                    s                        frac. trans.

      isym =  1     identity

 cryst.   s( 1) = (     1          0          0      )
                  (     0          1          0      )
                  (     0          0          1      )

 cart.    s( 1) = (  1.0000000  0.0000000  0.0000000 )
                  (  0.0000000  1.0000000  0.0000000 )
                  (  0.0000000  0.0000000  1.0000000 )

      isym =  2     180 deg rotation - cart. axis [0,0,1]

[...]

      isym =  4     180 deg rotation - cart. axis [1,-1,0]

[...]

      isym =  5     inv. 180 deg rotation - cart. axis [0,1,0]

[...]

      isym =  8     inv.  90 deg rotation - cart. axis [0,0,1]

 cryst.   s( 8) = (     0         -1          0      )
                  (     1          0          0      )
                  (     0          0         -1      )

 cart.    s( 8) = (  0.0000000  1.0000000  0.0000000 )
                  ( -1.0000000  0.0000000  0.0000000 )
                  (  0.0000000  0.0000000 -1.0000000 )

   Cartesian axes

     site n.     atom                  positions (alat units)
         1           Ga  tau(   1) = (   0.5000000   0.5000000   0.7847158  )
         2           Ag  tau(   2) = (   0.0000000   0.0000000   0.0000000  )
         3           Se  tau(   3) = (   0.0000000   0.5000000   0.4268132  )
         4           Se  tau(   4) = (   0.5000000   0.0000000   1.1426184  )

   Crystallographic axes

     site n.     atom                  positions (cryst. coord.)
         1           Ga  tau(   1) = (  0.5000000  0.5000000  0.5000000  )
         2           Ag  tau(   2) = (  0.0000000  0.0000000  0.0000000  )
         3           Se  tau(   3) = (  0.0000000  0.5000000  0.2719540  )
         4           Se  tau(   4) = (  0.5000000  0.0000000  0.7280460  )

     number of k points=     1  Methfessel-Paxton smearing, width (Ry)=  0.0010
                       cart. coord. in units 2pi/alat
        k(    1) = (   0.0000000   0.0000000   0.0000000), wk =   2.0000000

                       cryst. coord.
        k(    1) = (   0.0000000   0.0000000   0.0000000), wk =   2.0000000

     Initial potential from superposition of free atoms

     starting charge      43.9966, renormalised to      44.0000
     Starting wfcs are   27 randomized atomic wfcs
     Checking if some PAW data can be deallocated...

     Self-consistent Calculation

     iteration #  1     ecut=    30.00 Ry     beta= 0.70
     Davidson diagonalization with overlap

     ethr =  1.00E-02,  avg # of iterations =  4.0

     Threshold (ethr) on eigenvalues was too large:
     Diagonalizing with lowered threshold

     Davidson diagonalization with overlap

[...]

     total energy              =    -651.48141386 Ry
     estimated scf accuracy    <       0.40006578 Ry

[...]

     total energy              =    -651.66507997 Ry
     estimated scf accuracy    <       0.00000688 Ry

     iteration # 17     ecut=    30.00 Ry     beta= 0.70
     Davidson diagonalization with overlap

     ethr =  1.56E-08,  avg # of iterations =  1.0

     End of self-consistent calculation

          k = 0.0000 0.0000 0.0000 (   975 PWs)   bands (ev):

   -86.7670 -49.8756 -49.7534 -49.7534  -7.8860  -7.8346  -7.8346  -7.8285
    -7.6797  -6.8680  -5.7227   0.7536   1.6159   1.6159   1.7632   2.1186
     2.4324   4.0315   4.0316   6.0350   6.4369   6.4979   6.4979   8.9849
     9.9652  11.6491

     occupation numbers
     1.0000   1.0000   1.0000   1.0000   1.0000   1.0000   1.0000   1.0000
     1.0000   1.0000   1.0000   1.0000   1.0000   1.0000   1.0000   1.0000
     1.0000   1.0000   1.0000   1.0000   1.0000   0.5006   0.4994  -0.0000
    -0.0000  -0.0000

     the Fermi energy is     6.4979 ev

!    total energy              =    -651.66507988 Ry
     estimated scf accuracy    <       0.00000024 Ry
     smearing contrib. (-TS)   =      -0.00056419 Ry
     internal energy E=F+TS    =    -651.66451569 Ry

     The total energy is F=E-TS. E is the sum of the following terms:
     one-electron contribution =    -329.38855954 Ry
     hartree contribution      =     185.42165393 Ry
     xc contribution           =    -124.62381516 Ry
     ewald contribution        =    -272.09024827 Ry
     one-center paw contrib.   =    -110.98354664 Ry
      -> PAW hartree energy AE =     140.64443556 Ry
      -> PAW hartree energy PS =    -138.48355057 Ry
      -> PAW xc energy AE      =    -150.80790118 Ry
      -> PAW xc energy PS      =      37.66346955 Ry
      -> total E_H with PAW    =     187.58253892 Ry
      -> total E_XC with PAW   =    -237.76824680 Ry

     convergence has been achieved in  17 iterations

     Forces acting on atoms (cartesian axes, Ry/au):

     atom    1 type  1   force =     0.00000000    0.00000000    0.00000000
     atom    2 type  2   force =     0.00000000    0.00000000    0.00000000
     atom    3 type  3   force =     0.00000000    0.00000000    0.00060638
     atom    4 type  3   force =     0.00000000    0.00000000   -0.00060638
     The non-local contrib.  to forces
     atom    1 type  1   force =     0.00000000    0.00000000    0.00000000
     atom    2 type  2   force =     0.00000000    0.00000000    0.00000000
     atom    3 type  3   force =     0.00000000    0.00000000   -0.36283135
     atom    4 type  3   force =     0.00000000    0.00000000    0.36283135
     The ionic contribution  to forces
     atom    1 type  1   force =     0.00000000    0.00000000    0.00000000
     atom    2 type  2   force =     0.00000000    0.00000000   -0.00000000
     atom    3 type  3   force =     0.00000000   -0.00000000    1.83657853
     atom    4 type  3   force =    -0.00000000    0.00000000   -1.83657853
     The local contribution  to forces
     atom    1 type  1   force =     0.00001258   -0.00015016   -0.00059299
     atom    2 type  2   force =     0.00004770   -0.00050949    0.00194594
     atom    3 type  3   force =     0.00005138   -0.00105600   -1.52068496
     atom    4 type  3   force =     0.00011176   -0.00057851    1.52062444
     The core correction contribution to forces
     atom    1 type  1   force =     0.00000013   -0.00000420    0.00000566
     atom    2 type  2   force =     0.00000000    0.00000000    0.00000000
     atom    3 type  3   force =     0.00000730   -0.00012858    0.04761506
     atom    4 type  3   force =     0.00001450   -0.00007655   -0.04761485
     The Hubbard contrib.    to forces
     atom    1 type  1   force =     0.00000000    0.00000000    0.00000000
     atom    2 type  2   force =     0.00000000    0.00000000    0.00000000
     atom    3 type  3   force =     0.00000000    0.00000000    0.00000000
     atom    4 type  3   force =     0.00000000    0.00000000    0.00000000
     The SCF correction term to forces
     atom    1 type  1   force =    -0.00002793    0.00010988    0.00056518
     atom    2 type  2   force =    -0.00002516    0.00040047   -0.00179277
     atom    3 type  3   force =    -0.00000600    0.00017042   -0.00005340
     atom    4 type  3   force =    -0.00001825    0.00008778    0.00014871

     Total force =     0.000858     Total SCF correction =     0.001941
     SCF correction compared to forces is large: reduce conv_thr to get better values

     Computing stress (Cartesian axis) and pressure

          total   stress  (Ry/bohr**3)                   (kbar)     P=      -49.24
  -0.00025542   0.00000000   0.00000000          -37.57        0.00        0.00
   0.00000000  -0.00025542   0.00000000            0.00      -37.57        0.00
   0.00000000   0.00000000  -0.00049326            0.00        0.00      -72.56

     kinetic stress (kbar)  17365.04      0.00      0.00
                                0.00  17365.04      0.00
                                0.00      0.00  17286.97

     local   stress (kbar)  -8973.00     -0.00     -0.01
                               -0.00  -8974.86     -0.19
                               -0.01     -0.19  -9941.13

     nonloc. stress (kbar)   2365.04     -0.00      0.00
                               -0.00   2365.04      0.00
                                0.00      0.00   2323.61

     hartree stress (kbar)  13046.28      0.01      0.01
                                0.01  13046.79      0.14
                                0.01      0.14  13030.80

     exc-cor stress (kbar)   9327.55     -0.00     -0.00
                               -0.00   9327.57      0.00
                               -0.00      0.00   9332.09

     corecor stress (kbar) -13676.28      0.00      0.00
                                0.00 -13676.34      0.00
                                0.00      0.00 -13677.04

     ewald   stress (kbar) -19491.52      0.00     -0.00
                                0.00 -19491.52      0.00
                               -0.00      0.00 -18427.86

     hubbard stress (kbar)      0.00      0.00      0.00
                                0.00      0.00      0.00
                                0.00      0.00      0.00

     DFT-D   stress (kbar)      0.00      0.00      0.00
                                0.00      0.00      0.00
                                0.00      0.00      0.00

     XDM     stress (kbar)      0.00      0.00      0.00
                                0.00      0.00      0.00
                                0.00      0.00      0.00

     dft-nl  stress (kbar)      0.00      0.00      0.00
                                0.00      0.00      0.00
                                0.00      0.00      0.00

     TS-vdW  stress (kbar)      0.00      0.00      0.00
                                0.00      0.00      0.00
                                0.00      0.00      0.00

[...]

                                0.00      0.00      0.00

     Writing all to output data dir new_calculations/myprefix.save/

     General routines

     Parallel routines

     PAW routines

   This run was terminated on:  19:29:12  21May2023

   JOB DONE.