     Program PWSCF v.7.0 starts on 20May2023 at 18:19:57

     Reading input from espresso_23037.pwi
Warning: card &CELL ignored
Warning: card / ignored

     Current dimensions of program PWSCF are:
     Max number of different atomic species (ntypx) = 10
     Max number of k-points (npk) =  40000
     Max angular momentum in pseudopotentials (lmaxx) =  4

     gamma-point specific algorithms are used
     Message from routine setup:
     using ibrav=0 with symmetry is DISCOURAGED, use correct ibrav instead

     Subspace diagonalization in iterative solution of the eigenvalue problem:
     a serial algorithm will be used

     Using Slab Decomposition

     bravais-lattice index     =            0
     lattice parameter (alat)  =      20.2734  a.u.
     unit-cell volume          =    1100.5071 (a.u.)^3
     number of atoms/cell      =            3
     number of atomic types    =            1
     number of electrons       =        30.00
     number of Kohn-Sham states=           19
     kinetic-energy cutoff     =      30.0000  Ry
     charge density cutoff     =     240.0000  Ry
     scf convergence threshold =      1.0E-06
     mixing beta               =       0.7000
     number of iterations used =            8  plain     mixing
     Exchange-correlation= SLA  PW   PBE  PBE
                           (   1   4   3   4   0   0   0)

     celldm(1)=  20.273430  celldm(2)=   0.000000  celldm(3)=   0.000000
     celldm(4)=   0.000000  celldm(5)=   0.000000  celldm(6)=   0.000000

     crystal axes: (cart. coord. in units of alat)
               a(1) = (   1.000000   0.000000   0.000000 )
               a(2) = (   0.921676   0.387961   0.000000 )
               a(3) = (   0.921676   0.186074   0.340426 )

     reciprocal axes: (cart. coord. in units 2 pi/alat)
               b(1) = (  1.000000 -2.375693 -1.408883 )
               b(2) = (  0.000000  2.577579 -1.408883 )
               b(3) = (  0.000000  0.000000  2.937493 )

     PseudoPot. # 1 for Sr read from file:
     /home/pragov/projects/rrg-bengioy-ad/pragov/crystal_structure_design/SSSP/Sr_pbe_v1.uspp.F.UPF
     MD5 check sum: 6b418c05fbe9db5448babca5e47b7a5b
     Pseudo is Ultrasoft + core correction, Zval = 10.0
     Generated by new atomic code, or converted to UPF format
     Using radial grid of  883 points,  6 beta functions with:
                l(1) =   0
                l(2) =   0
                l(3) =   1
                l(4) =   1
                l(5) =   2
                l(6) =   2
     Q(r) pseudized with  6 coefficients,  rinner =    1.400   1.400   1.400
                                                       1.400   1.400

     atomic species   valence    mass     pseudopotential
        Sr            10.00    87.62000     Sr( 1.00)

      2 Sym. Ops., with inversion, found

                                    s                        frac. trans.

      isym =  1     identity

 cryst.   s( 1) = (     1          0          0      )
                  (     0          1          0      )
                  (     0          0          1      )

 cart.    s( 1) = (  1.0000000 -0.0000000  0.0000000 )
                  (  0.0000000  1.0000000 -0.0000000 )
                  (  0.0000000  0.0000000  1.0000000 )

      isym =  2     inversion

 cryst.   s( 2) = (    -1          0          0      )
                  (     0         -1          0      )
                  (     0          0         -1      )

 cart.    s( 2) = ( -1.0000000  0.0000000 -0.0000000 )
                  (  0.0000000 -1.0000000  0.0000000 )
                  (  0.0000000  0.0000000 -1.0000000 )

   Cartesian axes

     site n.     atom                  positions (alat units)
         1           Sr  tau(   1) = (   0.0000000   0.0000000   0.0000000  )
         2           Sr  tau(   2) = (   0.6323131   0.1276556   0.0757050  )
         3           Sr  tau(   3) = (   2.2110386   0.4463794   0.2647213  )

   Crystallographic axes

     site n.     atom                  positions (cryst. coord.)
         1           Sr  tau(   1) = (  0.0000000  0.0000000  0.0000000  )
         2           Sr  tau(   2) = (  0.2223830  0.2223830  0.2223830  )
         3           Sr  tau(   3) = (  0.7776170  0.7776170  0.7776170  )

     number of k points=     1  Methfessel-Paxton smearing, width (Ry)=  0.0010
                       cart. coord. in units 2pi/alat
        k(    1) = (   0.0000000   0.0000000   0.0000000), wk =   2.0000000

                       cryst. coord.
        k(    1) = (   0.0000000   0.0000000   0.0000000), wk =   2.0000000

     Check: negative core charge=   -0.000004

     Initial potential from superposition of free atoms

     starting charge      29.8990, renormalised to      30.0000

     negative rho (up, down):  1.914E-01 0.000E+00
     Starting wfcs are   39 randomized atomic wfcs

     Self-consistent Calculation

     iteration #  1     ecut=    30.00 Ry     beta= 0.70
     Davidson diagonalization with overlap

     ethr =  1.00E-02,  avg # of iterations =  2.0

     Threshold (ethr) on eigenvalues was too large:
     Diagonalizing with lowered threshold

     Davidson diagonalization with overlap

[...]

     negative rho (up, down):  1.983E-01 0.000E+00

     total energy              =    -210.97761749 Ry
     estimated scf accuracy    <       0.07676186 Ry

[...]

     total energy              =    -210.98558239 Ry
     estimated scf accuracy    <       0.00000180 Ry

     iteration #  6     ecut=    30.00 Ry     beta= 0.70
     Davidson diagonalization with overlap

     ethr =  6.01E-09,  avg # of iterations =  4.0

[...]

     End of self-consistent calculation

          k = 0.0000 0.0000 0.0000 (  1515 PWs)   bands (ev):

   -31.4310 -31.4207 -31.4196 -13.5170 -13.5139 -13.3638 -13.3082 -13.3082
   -13.3065 -13.3064 -13.2866 -13.2866   1.5502   3.1300   3.1352   5.9524
     5.9547   7.4824   7.4825

     occupation numbers
     1.0000   1.0000   1.0000   1.0000   1.0000   1.0000   1.0000   1.0000
     1.0000   1.0000   1.0000   1.0000   1.0000   1.0000   1.0000  -0.0000
    -0.0000  -0.0000  -0.0000

     the Fermi energy is     5.1695 ev

!    total energy              =    -210.98558335 Ry
     estimated scf accuracy    <       0.00000029 Ry
     smearing contrib. (-TS)   =       0.00000000 Ry
     internal energy E=F+TS    =    -210.98558335 Ry

     The total energy is F=E-TS. E is the sum of the following terms:
     one-electron contribution =     -76.59755220 Ry
     hartree contribution      =      41.03628931 Ry
     xc contribution           =     -54.38595579 Ry
     ewald contribution        =    -121.03836467 Ry

     convergence has been achieved in   6 iterations

     negative rho (up, down):  2.050E-01 0.000E+00

     Forces acting on atoms (cartesian axes, Ry/au):

     atom    1 type  1   force =     0.00000000    0.00000000    0.00000000
     atom    2 type  1   force =    -0.00090490   -0.00017421   -0.00009087
     atom    3 type  1   force =     0.00090490    0.00017421    0.00009087
     The non-local contrib.  to forces
     atom    1 type  1   force =     0.00000000    0.00000000    0.00000000
     atom    2 type  1   force =    -0.00061968   -0.00012039   -0.00010152
     atom    3 type  1   force =     0.00061968    0.00012039    0.00010152
     The ionic contribution  to forces
     atom    1 type  1   force =    -0.00000000    0.00000000   -0.00000000
     atom    2 type  1   force =    -0.05790789   -0.01169084   -0.00693287
     atom    3 type  1   force =     0.05790789    0.01169084    0.00693287
     The local contribution  to forces
     atom    1 type  1   force =    -0.00200118   -0.00038131   -0.00022276
     atom    2 type  1   force =     0.05826701    0.01182257    0.00697024
     atom    3 type  1   force =    -0.05656439   -0.01140661   -0.00705946
     The core correction contribution to forces
     atom    1 type  1   force =    -0.00005754   -0.00001128   -0.00000639
     atom    2 type  1   force =     0.00005265    0.00001071    0.00000689
     atom    3 type  1   force =    -0.00000516   -0.00000060   -0.00001093
     The Hubbard contrib.    to forces
     atom    1 type  1   force =     0.00000000    0.00000000    0.00000000
     atom    2 type  1   force =     0.00000000    0.00000000    0.00000000
     atom    3 type  1   force =     0.00000000    0.00000000    0.00000000
     The SCF correction term to forces
     atom    1 type  1   force =     0.00142829    0.00027753    0.00016250
     atom    2 type  1   force =    -0.00045433   -0.00013483   -0.00004996
     atom    3 type  1   force =    -0.00081046   -0.00016838    0.00011053

     Total force =     0.001310     Total SCF correction =     0.001752
     SCF correction compared to forces is large: reduce conv_thr to get better values

     Computing stress (Cartesian axis) and pressure

     negative rho (up, down):  2.050E-01 0.000E+00
          total   stress  (Ry/bohr**3)                   (kbar)     P=       -6.12
   0.00034388   0.00012004   0.00007120           50.59       17.66       10.47
   0.00012004  -0.00022644   0.00001438           17.66      -33.31        2.12
   0.00007120   0.00001438  -0.00024220           10.47        2.12      -35.63

     kinetic stress (kbar)   5432.95     -3.96     -2.35
                               -3.96   5451.74     -0.47
                               -2.35     -0.47   5452.26

     local   stress (kbar)  -4993.50     39.01     23.14
                               39.01  -5178.84      4.67
                               23.14      4.67  -5183.95

     nonloc. stress (kbar)   4915.98     17.45     10.35
                               17.45   4833.08      2.09
                               10.35      2.09   4830.80

     hartree stress (kbar)   1734.55    -29.24    -17.34
                              -29.24   1873.48     -3.50
                              -17.34     -3.50   1877.31

     exc-cor stress (kbar)   2388.60     -0.50     -0.30
                               -0.50   2390.99     -0.06
                               -0.30     -0.06   2391.06

     corecor stress (kbar)  -4021.75     -1.00     -0.59
                               -1.00  -4017.00     -0.12
                               -0.59     -0.12  -4016.87

     ewald   stress (kbar)  -5406.24     -4.10     -2.43
                               -4.10  -5386.76     -0.49
                               -2.43     -0.49  -5386.23

     hubbard stress (kbar)      0.00      0.00      0.00
                                0.00      0.00      0.00
                                0.00      0.00      0.00

     DFT-D   stress (kbar)      0.00      0.00      0.00
                                0.00      0.00      0.00
                                0.00      0.00      0.00

     XDM     stress (kbar)      0.00      0.00      0.00
                                0.00      0.00      0.00
                                0.00      0.00      0.00

     dft-nl  stress (kbar)      0.00      0.00      0.00
                                0.00      0.00      0.00
                                0.00      0.00      0.00

     TS-vdW  stress (kbar)      0.00      0.00      0.00
                                0.00      0.00      0.00
                                0.00      0.00      0.00

[...]

                                0.00      0.00      0.00

     Writing all to output data dir new_calculations/myprefix.save/

     General routines

     Parallel routines

   This run was terminated on:  18:20:21  20May2023

   JOB DONE.