     Program PWSCF v.7.0 starts on 21May2023 at  3:43:12

     Reading input from espresso_4886.pwi
Warning: card &CELL ignored
Warning: card / ignored

     Current dimensions of program PWSCF are:
     Max number of different atomic species (ntypx) = 10
     Max number of k-points (npk) =  40000
     Max angular momentum in pseudopotentials (lmaxx) =  4

     gamma-point specific algorithms are used
     Message from routine setup:
     using ibrav=0 with symmetry is DISCOURAGED, use correct ibrav instead

     Subspace diagonalization in iterative solution of the eigenvalue problem:
     a serial algorithm will be used

     Using Slab Decomposition

     bravais-lattice index     =            0
     lattice parameter (alat)  =      13.4767  a.u.
     unit-cell volume          =    1945.4143 (a.u.)^3
     number of atoms/cell      =           14
     number of atomic types    =            4
     number of electrons       =       138.00
     number of Kohn-Sham states=           83
     kinetic-energy cutoff     =      30.0000  Ry
     charge density cutoff     =     240.0000  Ry
     scf convergence threshold =      1.0E-06
     mixing beta               =       0.7000
     number of iterations used =            8  plain     mixing
     Exchange-correlation=  SLA  PW   PBX  PBC
                           (   1   4   3   4   0   0   0)

     celldm(1)=  13.476731  celldm(2)=   0.000000  celldm(3)=   0.000000
     celldm(4)=   0.000000  celldm(5)=   0.000000  celldm(6)=   0.000000

     crystal axes: (cart. coord. in units of alat)
               a(1) = (   1.000000   0.000000   0.000000 )
               a(2) = (   0.000000   0.865223   0.000000 )
               a(3) = (   0.000000   0.023273   0.918609 )

     reciprocal axes: (cart. coord. in units 2 pi/alat)
               b(1) = (  1.000000  0.000000  0.000000 )
               b(2) = (  0.000000  1.155772 -0.029281 )
               b(3) = (  0.000000  0.000000  1.088603 )

     PseudoPot. # 1 for Hf read from file:
     /home/pragov/projects/rrg-bengioy-ad/pragov/crystal_structure_design/SSSP/Hf-sp.oncvpsp.upf
     MD5 check sum: 417ed15784afe83d2e06dacf143de3f8
     Pseudo is Norm-conserving + core correction, Zval = 12.0
     Generated using ONCVPSP code by D. R. Hamann
     Using radial grid of 1656 points,  8 beta functions with:
                l(1) =   0
                l(2) =   0
                l(3) =   1
                l(4) =   1
                l(5) =   2
                l(6) =   2
                l(7) =   3
                l(8) =   3

     PseudoPot. # 2 for Cr read from file:
     /home/pragov/projects/rrg-bengioy-ad/pragov/crystal_structure_design/SSSP/cr_pbe_v1.5.uspp.F.UPF
     MD5 check sum: 0d52af634a40206e4dee301ad30da4bf
     Pseudo is Ultrasoft + core correction, Zval = 14.0
     Generated by new atomic code, or converted to UPF format
     Using radial grid of  857 points,  6 beta functions with:
                l(1) =   0
                l(2) =   0
                l(3) =   1
                l(4) =   1
                l(5) =   2
                l(6) =   2
     Q(r) pseudized with  8 coefficients,  rinner =    0.950   0.950   0.950
                                                       0.950   0.950

     PseudoPot. # 3 for Ag read from file:
     /home/pragov/projects/rrg-bengioy-ad/pragov/crystal_structure_design/SSSP/Ag_ONCV_PBE-1.0.oncvpsp.upf
     MD5 check sum: 94f47bd0669c641108e45594df92fabc
     Pseudo is Norm-conserving, Zval = 19.0
     Generated using ONCVPSP code by D. R. Hamann
     Using radial grid of 1398 points,  6 beta functions with:
                l(1) =   0
                l(2) =   0
                l(3) =   1
                l(4) =   1
                l(5) =   2
                l(6) =   2

     PseudoPot. # 4 for S  read from file:
     /home/pragov/projects/rrg-bengioy-ad/pragov/crystal_structure_design/SSSP/s_pbe_v1.4.uspp.F.UPF
     MD5 check sum: 88d86576ff6df21479756cfb9bdac1df
     Pseudo is Ultrasoft + core correction, Zval =  6.0
     Generated by new atomic code, or converted to UPF format
     Using radial grid of  907 points,  6 beta functions with:
                l(1) =   0
                l(2) =   0
                l(3) =   1
                l(4) =   1
                l(5) =   2
                l(6) =   2
     Q(r) pseudized with  8 coefficients,  rinner =    1.300   1.300   1.300
                                                       1.300   1.300

     atomic species   valence    mass     pseudopotential
        Hf            12.00   178.49000     Hf( 1.00)
        Cr            14.00    51.99610     Cr( 1.00)
        Ag            19.00   107.86820     Ag( 1.00)
        S              6.00    32.06000     S ( 1.00)

      2 Sym. Ops. (no inversion) found

                                    s                        frac. trans.

      isym =  1     identity

 cryst.   s( 1) = (     1          0          0      )
                  (     0          1          0      )
                  (     0          0          1      )

 cart.    s( 1) = (  1.0000000  0.0000000  0.0000000 )
                  (  0.0000000  1.0000000  0.0000000 )
                  (  0.0000000  0.0000000  1.0000000 )

      isym =  2     180 deg rotation - cart. axis [1,0,0]

 cryst.   s( 2) = (     1          0          0      )
                  (     0         -1          0      )
                  (     0          0         -1      )

 cart.    s( 2) = (  1.0000000  0.0000000  0.0000000 )
                  (  0.0000000 -1.0000000 -0.0000000 )
                  (  0.0000000  0.0000000 -1.0000000 )

   Cartesian axes

     site n.     atom                  positions (alat units)
         1           Hf  tau(   1) = (   0.2393340   0.0116363   0.4593044  )
         2           Hf  tau(   2) = (   0.5121310   0.4442476   0.4593044  )
         3           Cr  tau(   3) = (   0.7505540   0.0116363   0.4593044  )
         4           Cr  tau(   4) = (   0.0002250   0.4442476   0.4593044  )
         5           Ag  tau(   5) = (   0.9959510   0.4326113   0.0000000  )
         6           Ag  tau(   6) = (   0.5036230   0.4326113   0.0000000  )
         7           S   tau(   7) = (   0.9871270   0.7261937   0.6514553  )
         8           S   tau(   8) = (   0.5071110   0.7401994   0.6604825  )
         9           S   tau(   9) = (   0.2425000   0.3060575   0.6633871  )
        10           S   tau(  10) = (   0.7623620   0.2921001   0.6554421  )
        11           S   tau(  11) = (   0.2425000   0.5824377   0.2552217  )
        12           S   tau(  12) = (   0.7623620   0.5963952   0.2631667  )
        13           S   tau(  13) = (   0.5071110   0.1482959   0.2581263  )
        14           S   tau(  14) = (   0.9871270   0.1623015   0.2671535  )

   Crystallographic axes

     site n.     atom                  positions (cryst. coord.)
         1           Hf  tau(   1) = (  0.2393340  0.0000000  0.5000000  )
         2           Hf  tau(   2) = (  0.5121310  0.5000000  0.5000000  )
         3           Cr  tau(   3) = (  0.7505540  0.0000000  0.5000000  )
         4           Cr  tau(   4) = (  0.0002250  0.5000000  0.5000000  )
         5           Ag  tau(   5) = (  0.9959510  0.5000000  0.0000000  )
         6           Ag  tau(   6) = (  0.5036230  0.5000000  0.0000000  )
         7           S   tau(   7) = (  0.9871270  0.8202390  0.7091760  )
         8           S   tau(   8) = (  0.5071110  0.8361620  0.7190030  )
         9           S   tau(   9) = (  0.2425000  0.3343080  0.7221650  )
        10           S   tau(  10) = (  0.7623620  0.3184090  0.7135160  )
        11           S   tau(  11) = (  0.2425000  0.6656920  0.2778350  )
        12           S   tau(  12) = (  0.7623620  0.6815910  0.2864840  )
        13           S   tau(  13) = (  0.5071110  0.1638380  0.2809970  )
        14           S   tau(  14) = (  0.9871270  0.1797610  0.2908240  )

     number of k points=     1  Methfessel-Paxton smearing, width (Ry)=  0.0010
                       cart. coord. in units 2pi/alat
        k(    1) = (   0.0000000   0.0000000   0.0000000), wk =   2.0000000

                       cryst. coord.
        k(    1) = (   0.0000000   0.0000000   0.0000000), wk =   2.0000000

     Check: negative core charge=   -0.000004

     Initial potential from superposition of free atoms

     starting charge     135.9954, renormalised to     138.0000

     negative rho (up, down):  4.560E-03 0.000E+00
     Starting wfcs are   92 randomized atomic wfcs

     Self-consistent Calculation

     iteration #  1     ecut=    30.00 Ry     beta= 0.70
     Davidson diagonalization with overlap

     ethr =  1.00E-02,  avg # of iterations =  3.0

     total energy              =   -1298.37239073 Ry
     estimated scf accuracy    <      54.61599484 Ry

[...]

     negative rho (up, down):  4.140E-04 0.000E+00

[...]

     total energy              =   -1344.10500954 Ry
     estimated scf accuracy    <       0.00000306 Ry

     iteration # 27     ecut=    30.00 Ry     beta= 0.70
     Davidson diagonalization with overlap

     ethr =  2.22E-09,  avg # of iterations =  1.0

[...]

     End of self-consistent calculation

          k = 0.0000 0.0000 0.0000 (  2694 PWs)   bands (ev):

   -83.9819 -83.9550 -63.2708 -63.2267 -53.7530 -53.6200 -47.0710 -47.0619
   -46.9827 -46.9798 -46.9474 -46.9466 -34.6839 -34.6763 -34.6684 -34.5916
   -34.4158 -34.3507 -22.5437 -22.4408 -22.4317 -22.3727 -22.3460 -22.3203
    -5.0550  -3.7753  -3.7235  -3.6522  -3.6009  -3.5462  -3.4797  -3.2850
     2.6083   3.0706   3.1955   3.6950   3.8584   4.0532   4.1880   4.2683
     4.3850   4.4517   4.5221   4.5527   4.7781   4.9319   5.0119   5.1988
     5.3949   5.4325   5.5717   5.6150   5.6784   5.8215   5.8238   5.9261
     6.0911   6.1587   6.2961   6.4274   6.4437   6.8073   7.3576   7.3889
     8.0424   8.1131   8.5527   8.6260   8.6810   8.8176   8.8986   8.9724
     9.8117  10.0449  10.6430  10.6685  10.7778  11.1646  11.3371  11.3835
    11.6749  11.8641  11.9211

     occupation numbers
     1.0000   1.0000   1.0000   1.0000   1.0000   1.0000   1.0000   1.0000
     1.0000   1.0000   1.0000   1.0000   1.0000   1.0000   1.0000   1.0000
     1.0000   1.0000   1.0000   1.0000   1.0000   1.0000   1.0000   1.0000
     1.0000   1.0000   1.0000   1.0000   1.0000   1.0000   1.0000   1.0000
     1.0000   1.0000   1.0000   1.0000   1.0000   1.0000   1.0000   1.0000
     1.0000   1.0000   1.0000   1.0000   1.0000   1.0000   1.0000   1.0000
     1.0000   1.0000   1.0000   1.0000   1.0000   1.0000   1.0000   1.0000
     1.0000   1.0000   1.0000   1.0000   1.0000   1.0000   1.0000   1.0000
     1.0000   1.0000   1.0000   1.0000   1.0000  -0.0000  -0.0000  -0.0000
    -0.0000  -0.0000  -0.0000  -0.0000  -0.0000  -0.0000  -0.0000  -0.0000
    -0.0000  -0.0000  -0.0000

     the Fermi energy is     8.7464 ev

!    total energy              =   -1344.10500922 Ry
     estimated scf accuracy    <       0.00000068 Ry
     smearing contrib. (-TS)   =       0.00000000 Ry
     internal energy E=F+TS    =   -1344.10500922 Ry

     The total energy is F=E-TS. E is the sum of the following terms:
     one-electron contribution =    -764.67144607 Ry
     hartree contribution      =     424.65899845 Ry
     xc contribution           =    -223.42986171 Ry
     ewald contribution        =    -780.66269989 Ry

     convergence has been achieved in  27 iterations

     negative rho (up, down):  4.462E-03 0.000E+00

     Forces acting on atoms (cartesian axes, Ry/au):

     atom    1 type  1   force =    -0.00797280    0.00000000    0.00000000
     atom    2 type  1   force =     0.00845504    0.00000000    0.00000000
     atom    3 type  2   force =     0.02580123    0.00000000    0.00000000
     atom    4 type  2   force =    -0.03038994    0.00000000    0.00000000
     atom    5 type  3   force =     0.00101420    0.00000000    0.00000000
     atom    6 type  3   force =    -0.00205112    0.00000000    0.00000000
     atom    7 type  4   force =    -0.00305496   -0.01533845   -0.01371686
     atom    8 type  4   force =     0.00194662    0.00088340   -0.00294975
     atom    9 type  4   force =     0.00102218    0.00892824    0.00223558
     atom   10 type  4   force =     0.00265785   -0.00568330   -0.01323807
     atom   11 type  4   force =     0.00102218   -0.00892824   -0.00223558
     atom   12 type  4   force =     0.00265785    0.00568330    0.01323807
     atom   13 type  4   force =     0.00194662   -0.00088340    0.00294975
     atom   14 type  4   force =    -0.00305496    0.01533845    0.01371686
     The non-local contrib.  to forces
     atom    1 type  1   force =     0.01581869    0.00000000    0.00000000
     atom    2 type  1   force =    -0.02331487    0.00000000    0.00000000
     atom    3 type  2   force =    -0.02765824    0.00000000    0.00000000
     atom    4 type  2   force =     0.02101648    0.00000000    0.00000000
     atom    5 type  3   force =    -0.00123136    0.00000000    0.00000000
     atom    6 type  3   force =    -0.00313559    0.00000000    0.00000000
     atom    7 type  4   force =    -0.03944596   -0.10562193   -0.07356650
     atom    8 type  4   force =     0.02628199   -0.07972709   -0.05944570
     atom    9 type  4   force =    -0.00175506    0.08182508   -0.03179414
     atom   10 type  4   force =     0.01932094    0.03969633   -0.04994759
     atom   11 type  4   force =    -0.00175506   -0.08182508    0.03179414
     atom   12 type  4   force =     0.01932094   -0.03969633    0.04994759
     atom   13 type  4   force =     0.02628199    0.07972709    0.05944570
     atom   14 type  4   force =    -0.03944596    0.10562193    0.07356650
     The ionic contribution  to forces
     atom    1 type  1   force =     2.41616769   -0.00000000   -0.00000000
     atom    2 type  1   force =    -2.59893423   -0.00000000   -0.00000000
     atom    3 type  2   force =    -2.33531910    0.00000000    0.00000000
     atom    4 type  2   force =     2.59142614   -0.00000000   -0.00000000
     atom    5 type  3   force =     1.99860622    0.00000000    0.00000000
     atom    6 type  3   force =    -2.01202292   -0.00000000    0.00000000
     atom    7 type  4   force =     1.34942972    5.31061849    7.03413242
     atom    8 type  4   force =    -1.70505818    4.50008844    6.12595788
     atom    9 type  4   force =     1.78748222   -5.12065658    3.72361595
     atom   10 type  4   force =    -1.46181566   -4.55915879    5.14085009
     atom   11 type  4   force =     1.78748222    5.12065658   -3.72361595
     atom   12 type  4   force =    -1.46181566    4.55915879   -5.14085009
     atom   13 type  4   force =    -1.70505818   -4.50008844   -6.12595788
     atom   14 type  4   force =     1.34942972   -5.31061849   -7.03413242
     The local contribution  to forces
     atom    1 type  1   force =    -2.43988924    0.00000702   -0.00001556
     atom    2 type  1   force =     2.62971341    0.00002581   -0.00002238
     atom    3 type  2   force =     2.38846214   -0.00001887   -0.00001970
     atom    4 type  2   force =    -2.64109118    0.00000701   -0.00003936
     atom    5 type  3   force =    -1.99567080    0.00001164    0.00004393
     atom    6 type  3   force =     2.01249642   -0.00001342    0.00003480
     atom    7 type  4   force =    -1.31509356   -5.22653819   -6.97790974
     atom    8 type  4   force =     1.68199942   -4.42359456   -6.07195984
     atom    9 type  4   force =    -1.78558902    5.05233691   -3.69080659
     atom   10 type  4   force =     1.44719763    4.51568382   -5.10625066
     atom   11 type  4   force =    -1.78560243   -5.05233809    3.69080789
     atom   12 type  4   force =     1.44720670   -4.51569451    5.10626020
     atom   13 type  4   force =     1.68198941    4.42359043    6.07194664
     atom   14 type  4   force =    -1.31509106    5.22653007    6.97789953
     The core correction contribution to forces
     atom    1 type  1   force =    -0.00087173    0.00000032   -0.00000011
     atom    2 type  1   force =     0.00039415    0.00000049   -0.00000064
     atom    3 type  2   force =     0.00149798    0.00000031   -0.00000023
     atom    4 type  2   force =    -0.00095097   -0.00000000   -0.00000025
     atom    5 type  3   force =     0.00000000    0.00000000    0.00000000
     atom    6 type  3   force =     0.00000000    0.00000000    0.00000000
     atom    7 type  4   force =     0.00253609    0.00616079    0.00349342
     atom    8 type  4   force =    -0.00171644    0.00427193    0.00262722
     atom    9 type  4   force =     0.00035244   -0.00474169    0.00113183
     atom   10 type  4   force =    -0.00148359   -0.00190620    0.00224914
     atom   11 type  4   force =     0.00035169    0.00474189   -0.00113176
     atom   12 type  4   force =    -0.00148325    0.00190592   -0.00224866
     atom   13 type  4   force =    -0.00171661   -0.00427218   -0.00262680
     atom   14 type  4   force =     0.00253615   -0.00616095   -0.00349356
     The Hubbard contrib.    to forces
     atom    1 type  1   force =     0.00000000    0.00000000    0.00000000
     atom    2 type  1   force =     0.00000000    0.00000000    0.00000000
     atom    3 type  2   force =     0.00000000    0.00000000    0.00000000
     atom    4 type  2   force =     0.00000000    0.00000000    0.00000000
     atom    5 type  3   force =     0.00000000    0.00000000    0.00000000
     atom    6 type  3   force =     0.00000000    0.00000000    0.00000000
     atom    7 type  4   force =     0.00000000    0.00000000    0.00000000
     atom    8 type  4   force =     0.00000000    0.00000000    0.00000000
     atom    9 type  4   force =     0.00000000    0.00000000    0.00000000
     atom   10 type  4   force =     0.00000000    0.00000000    0.00000000
     atom   11 type  4   force =     0.00000000    0.00000000    0.00000000
     atom   12 type  4   force =     0.00000000    0.00000000    0.00000000
     atom   13 type  4   force =     0.00000000    0.00000000    0.00000000
     atom   14 type  4   force =     0.00000000    0.00000000    0.00000000
     The SCF correction term to forces
     atom    1 type  1   force =     0.00079730   -0.00000426    0.00001401
     atom    2 type  1   force =     0.00059209   -0.00002488    0.00002198
     atom    3 type  2   force =    -0.00118605    0.00002403    0.00001717
     atom    4 type  2   force =    -0.00079491   -0.00000727    0.00004000
     atom    5 type  3   force =    -0.00069437   -0.00001814   -0.00005023
     atom    6 type  3   force =     0.00060647    0.00001942   -0.00004655
     atom    7 type  4   force =    -0.00048644    0.00004149    0.00013130
     atom    8 type  4   force =     0.00043515   -0.00016110   -0.00013026
     atom    9 type  4   force =     0.00053084    0.00016555    0.00008913
     atom   10 type  4   force =    -0.00056824   -0.00000170   -0.00013670
     atom   11 type  4   force =     0.00053752   -0.00016252   -0.00008931
     atom   12 type  4   force =    -0.00057310    0.00000617    0.00013139
     atom   13 type  4   force =     0.00044570    0.00015392    0.00014113
     atom   14 type  4   force =    -0.00048761   -0.00003503   -0.00012543

     Total force =     0.056765     Total SCF correction =     0.002489

     Computing stress (Cartesian axis) and pressure

     negative rho (up, down):  4.462E-03 0.000E+00
          total   stress  (Ry/bohr**3)                   (kbar)     P=     -305.37
  -0.00179182   0.00000000   0.00000000         -263.59        0.00        0.00
   0.00000000  -0.00225824  -0.00000944            0.00     -332.20       -1.39
   0.00000000  -0.00000944  -0.00217751            0.00       -1.39     -320.32

     kinetic stress (kbar)  19627.22      0.00      0.00
                                0.00  19508.34    -36.20
                                0.00    -36.20  19474.10

     local   stress (kbar) -18388.38     -0.01      0.00
                               -0.01  -1760.59     40.55
                                0.00     40.55 -13178.70

     nonloc. stress (kbar)   4554.67      0.00      0.00
                                0.00   4557.03    -27.44
                                0.00    -27.44   4575.92

     hartree stress (kbar)  14026.09      0.00     -0.00
                                0.00   6419.04     12.54
                               -0.00     12.54  11666.02

     exc-cor stress (kbar)    848.85      0.00     -0.00
                                0.00    848.47     -0.78
                               -0.00     -0.78    849.41

     corecor stress (kbar)  -5172.88     -0.00     -0.00
                               -0.00  -5169.86      1.08
                               -0.00      1.08  -5170.03

     ewald   stress (kbar) -15759.16     -0.00      0.00
                               -0.00 -24734.63      8.86
                                0.00      8.86 -18537.04

     hubbard stress (kbar)      0.00      0.00      0.00
                                0.00      0.00      0.00
                                0.00      0.00      0.00

     DFT-D   stress (kbar)      0.00      0.00      0.00
                                0.00      0.00      0.00
                                0.00      0.00      0.00

     XDM     stress (kbar)      0.00      0.00      0.00
                                0.00      0.00      0.00
                                0.00      0.00      0.00

     dft-nl  stress (kbar)      0.00      0.00      0.00
                                0.00      0.00      0.00
                                0.00      0.00      0.00

     TS-vdW  stress (kbar)      0.00      0.00      0.00
                                0.00      0.00      0.00
                                0.00      0.00      0.00

[...]

                                0.00      0.00      0.00

     Writing all to output data dir new_calculations/myprefix.save/

     General routines

     Parallel routines

   This run was terminated on:   3:44:24  21May2023

   JOB DONE.