     Program PWSCF v.7.0 starts on 20May2023 at  5:40:52

     Reading input from espresso_17074.pwi
Warning: card &CELL ignored
Warning: card / ignored

     Current dimensions of program PWSCF are:
     Max number of different atomic species (ntypx) = 10
     Max number of k-points (npk) =  40000
     Max angular momentum in pseudopotentials (lmaxx) =  4

     gamma-point specific algorithms are used
     Message from routine setup:
     using ibrav=0 with symmetry is DISCOURAGED, use correct ibrav instead

     Subspace diagonalization in iterative solution of the eigenvalue problem:
     a serial algorithm will be used

     Using Slab Decomposition

     bravais-lattice index     =            0
     lattice parameter (alat)  =      18.0978  a.u.
     unit-cell volume          =    1570.3205 (a.u.)^3
     number of atoms/cell      =           12
     number of atomic types    =            2
     number of electrons       =        74.00
     number of Kohn-Sham states=           44
     kinetic-energy cutoff     =      30.0000  Ry
     charge density cutoff     =     240.0000  Ry
     scf convergence threshold =      1.0E-06
     mixing beta               =       0.7000
     number of iterations used =            8  plain     mixing
     Exchange-correlation= PBE
                           (   1   4   3   4   0   0   0)

     celldm(1)=  18.097765  celldm(2)=   0.000000  celldm(3)=   0.000000
     celldm(4)=   0.000000  celldm(5)=   0.000000  celldm(6)=   0.000000

     crystal axes: (cart. coord. in units of alat)
               a(1) = (   1.000000   0.000000   0.000000 )
               a(2) = (   0.000000   0.481146   0.000000 )
               a(3) = (   0.000000   0.188918   0.550600 )

     reciprocal axes: (cart. coord. in units 2 pi/alat)
               b(1) = (  1.000000  0.000000  0.000000 )
               b(2) = (  0.000000  2.078370 -0.713114 )
               b(3) = (  0.000000  0.000000  1.816200 )

     PseudoPot. # 1 for Ce read from file:
     /home/pragov/projects/rrg-bengioy-ad/pragov/crystal_structure_design/SSSP/Ce.GGA-PBE-paw-v1.0.UPF
     MD5 check sum: f2b950f613061344c13339c8d844425d
     Pseudo is Projector augmented-wave + core cor, Zval = 12.0
     Generated using ATOMPAW code
     Shape of augmentation charge: BESSEL
     Using radial grid of 1102 points,  8 beta functions with:
                l(1) =   0
                l(2) =   0
                l(3) =   1
                l(4) =   1
                l(5) =   2
                l(6) =   2
                l(7) =   3
                l(8) =   3
     Q(r) pseudized with 0 coefficients

     PseudoPot. # 2 for P  read from file:
     /home/pragov/projects/rrg-bengioy-ad/pragov/crystal_structure_design/SSSP/P.pbe-n-rrkjus_psl.1.0.0.UPF
     MD5 check sum: 8b930f418f0a4573dca56cd030ffe088
     Pseudo is Ultrasoft + core correction, Zval =  5.0
     Generated using "atomic" code by A. Dal Corso  v.5.1
     Using radial grid of 1147 points,  6 beta functions with:
                l(1) =   0
                l(2) =   0
                l(3) =   1
                l(4) =   1
                l(5) =   2
                l(6) =   2
     Q(r) pseudized with 0 coefficients

     atomic species   valence    mass     pseudopotential
        Ce            12.00   140.11600     Ce( 1.00)
        P              5.00    30.97376     P ( 1.00)

      4 Sym. Ops., with inversion, found ( 2 have fractional translation)

                                    s                        frac. trans.

      isym =  1     identity

 cryst.   s( 1) = (     1          0          0      )
                  (     0          1          0      )
                  (     0          0          1      )

 cart.    s( 1) = (  1.0000000  0.0000000  0.0000000 )
                  (  0.0000000  1.0000000 -0.0000000 )
                  (  0.0000000  0.0000000  1.0000000 )

      isym =  2     180 deg rotation - cart. axis [1,0,0]

 cryst.   s( 2) = (     1          0          0      )    f =( -0.5000000 )
                  (     0         -1          0      )       (  0.0000000 )
                  (     0          0         -1      )       ( -0.0000000 )

 cart.    s( 2) = (  1.0000000  0.0000000  0.0000000 )    f =( -0.5000000 )
                  (  0.0000000 -1.0000000  0.0000000 )       ( -0.0000000 )
                  (  0.0000000  0.0000000 -1.0000000 )       ( -0.0000000 )

      isym =  3     inversion

 cryst.   s( 3) = (    -1          0          0      )
                  (     0         -1          0      )
                  (     0          0         -1      )

 cart.    s( 3) = ( -1.0000000  0.0000000  0.0000000 )
                  (  0.0000000 -1.0000000  0.0000000 )
                  (  0.0000000  0.0000000 -1.0000000 )

      isym =  4     inv. 180 deg rotation - cart. axis [1,0,0]

 cryst.   s( 4) = (    -1          0          0      )    f =(  0.5000000 )
                  (     0          1          0      )       (  0.0000000 )
                  (     0          0          1      )       (  0.0000000 )

 cart.    s( 4) = ( -1.0000000  0.0000000  0.0000000 )    f =(  0.5000000 )
                  (  0.0000000  1.0000000 -0.0000000 )       (  0.0000000 )
                  (  0.0000000  0.0000000  1.0000000 )       (  0.0000000 )

   Cartesian axes

     site n.     atom                  positions (alat units)
         1           Ce  tau(   1) = (   0.2500000   0.3051563   0.0520631  )
         2           Ce  tau(   2) = (   0.7500000   0.3649074   0.4985371  )
         3           P   tau(   3) = (   0.2500000   0.4721982   0.3047308  )
         4           P   tau(   4) = (   0.7500000   0.1978655   0.2458694  )
         5           P   tau(   5) = (   0.9055110   0.5079076   0.2645596  )
         6           P   tau(   6) = (   0.4055110   0.1621561   0.2860407  )
         7           P   tau(   7) = (   0.0944890   0.1621561   0.2860407  )
         8           P   tau(   8) = (   0.5944890   0.5079076   0.2645596  )
         9           P   tau(   9) = (   0.9429350   0.4015952   0.0615632  )
        10           P   tau(  10) = (   0.4429350   0.2684685   0.4890371  )
        11           P   tau(  11) = (   0.0570650   0.2684685   0.4890371  )
        12           P   tau(  12) = (   0.5570650   0.4015952   0.0615632  )

   Crystallographic axes

     site n.     atom                  positions (cryst. coord.)
         1           Ce  tau(   1) = (  0.2500000  0.5971010  0.0945570  )
         2           Ce  tau(   2) = (  0.7500000  0.4028990  0.9054430  )
         3           P   tau(   3) = (  0.2500000  0.7640950  0.5534520  )
         4           P   tau(   4) = (  0.7500000  0.2359050  0.4465480  )
         5           P   tau(   5) = (  0.9055110  0.8669590  0.4804930  )
         6           P   tau(   6) = (  0.4055110  0.1330410  0.5195070  )
         7           P   tau(   7) = (  0.0944890  0.1330410  0.5195070  )
         8           P   tau(   8) = (  0.5944890  0.8669590  0.4804930  )
         9           P   tau(   9) = (  0.9429350  0.7907620  0.1118110  )
        10           P   tau(  10) = (  0.4429350  0.2092380  0.8881890  )
        11           P   tau(  11) = (  0.0570650  0.2092380  0.8881890  )
        12           P   tau(  12) = (  0.5570650  0.7907620  0.1118110  )

     number of k points=     1  Methfessel-Paxton smearing, width (Ry)=  0.0010
                       cart. coord. in units 2pi/alat
        k(    1) = (   0.0000000   0.0000000   0.0000000), wk =   2.0000000

                       cryst. coord.
        k(    1) = (   0.0000000   0.0000000   0.0000000), wk =   2.0000000

     Initial potential from superposition of free atoms

     starting charge      73.9844, renormalised to      74.0000
     Starting wfcs are  104 randomized atomic wfcs
     Checking if some PAW data can be deallocated...

     Self-consistent Calculation

     iteration #  1     ecut=    30.00 Ry     beta= 0.70
     Davidson diagonalization with overlap

     ethr =  1.00E-02,  avg # of iterations =  2.0

     Threshold (ethr) on eigenvalues was too large:
     Diagonalizing with lowered threshold

     Davidson diagonalization with overlap

[...]

     total energy              =   -1104.81644204 Ry
     estimated scf accuracy    <       0.45612902 Ry

[...]

     c_bands:  4 eigenvalues not converged
     ethr =  1.61E-06,  avg # of iterations = 20.0

[...]

     total energy              =   -1105.14901569 Ry
     estimated scf accuracy    <       0.00000209 Ry

     iteration # 28     ecut=    30.00 Ry     beta= 0.70
     Davidson diagonalization with overlap

     ethr =  2.82E-09,  avg # of iterations =  8.0

     End of self-consistent calculation

          k = 0.0000 0.0000 0.0000 (  2187 PWs)   bands (ev):

   -24.8840 -24.8822  -7.8843  -7.7838  -7.7801  -7.7086  -7.6591  -7.6576
    -4.9926  -3.8658  -3.2194  -1.7972  -0.8449  -0.7078   0.2045   1.1444
     2.7907   2.9281   3.9799   4.3798   4.5523   4.7726   4.8873   5.4071
     6.0678   6.2280   6.2996   6.4450   7.0673   7.3430   7.4623   7.5457
     8.1673   8.3389   8.8985   8.9290   9.7925   9.8044   9.9058   9.9821
    10.0560  10.1032  10.1034  10.1465

     occupation numbers
     1.0000   1.0000   1.0000   1.0000   1.0000   1.0000   1.0000   1.0000
     1.0000   1.0000   1.0000   1.0000   1.0000   1.0000   1.0000   1.0000
     1.0000   1.0000   1.0000   1.0000   1.0000   1.0000   1.0000   1.0000
     1.0000   1.0000   1.0000   1.0000   1.0000   1.0000   1.0000   1.0000
     1.0000   1.0000   1.0000   1.0000   0.8340   0.1660  -0.0000  -0.0000
    -0.0000  -0.0000  -0.0000  -0.0000

     the Fermi energy is     9.7984 ev

!    total energy              =   -1105.14901571 Ry
     estimated scf accuracy    <       0.00000024 Ry
     smearing contrib. (-TS)   =      -0.00028724 Ry
     internal energy E=F+TS    =   -1105.14872847 Ry

     The total energy is F=E-TS. E is the sum of the following terms:
     one-electron contribution =      20.66714108 Ry
     hartree contribution      =      31.37349678 Ry
     xc contribution           =     -64.41059074 Ry
     ewald contribution        =    -276.13701859 Ry
     one-center paw contrib.   =    -816.64175699 Ry
      -> PAW hartree energy AE =      87.24393674 Ry
      -> PAW hartree energy PS =     -86.69796292 Ry
      -> PAW xc energy AE      =    -834.23588589 Ry
      -> PAW xc energy PS      =      17.04815507 Ry
      -> total E_H with PAW    =      31.91947060 Ry
      -> total E_XC with PAW   =    -881.59832155 Ry

     convergence has been achieved in  28 iterations

     Forces acting on atoms (cartesian axes, Ry/au):

     atom    1 type  1   force =     0.00000000   -0.05405639    0.01986843
     atom    2 type  1   force =     0.00000000    0.05405639   -0.01986843
     atom    3 type  2   force =    -0.00000000    0.04655515   -0.01985897
     atom    4 type  2   force =    -0.00000000   -0.04655515    0.01985897
     atom    5 type  2   force =    -0.03570148   -0.00397011    0.02903640
     atom    6 type  2   force =    -0.03570148    0.00397011   -0.02903640
     atom    7 type  2   force =     0.03570148    0.00397011   -0.02903640
     atom    8 type  2   force =     0.03570148   -0.00397011    0.02903640
     atom    9 type  2   force =     0.01902995    0.00423004   -0.03232340
     atom   10 type  2   force =     0.01902995   -0.00423004    0.03232340
     atom   11 type  2   force =    -0.01902995   -0.00423004    0.03232340
     atom   12 type  2   force =    -0.01902995    0.00423004   -0.03232340
     The non-local contrib.  to forces
     atom    1 type  1   force =     0.00000000    0.29305899   -0.16858298
     atom    2 type  1   force =     0.00000000   -0.29305899    0.16858298
     atom    3 type  2   force =     0.00000000    0.08242702    0.06487388
     atom    4 type  2   force =     0.00000000   -0.08242702   -0.06487388
     atom    5 type  2   force =     0.03166236    0.17558428   -0.15682414
     atom    6 type  2   force =     0.03166236   -0.17558428    0.15682414
     atom    7 type  2   force =    -0.03166236   -0.17558428    0.15682414
     atom    8 type  2   force =    -0.03166236    0.17558428   -0.15682414
     atom    9 type  2   force =     0.04134399    0.16607127    0.03669974
     atom   10 type  2   force =     0.04134399   -0.16607127   -0.03669974
     atom   11 type  2   force =    -0.04134399   -0.16607127   -0.03669974
     atom   12 type  2   force =    -0.04134399    0.16607127    0.03669974
     The ionic contribution  to forces
     atom    1 type  1   force =     0.00000000   -0.09962421    0.22538981
     atom    2 type  1   force =     0.00000000    0.09962421   -0.22538981
     atom    3 type  2   force =    -0.00000000   -1.43545923   -0.13229207
     atom    4 type  2   force =     0.00000000    1.43545923    0.13229207
     atom    5 type  2   force =     0.47425441   -0.87138637    0.58957662
     atom    6 type  2   force =     0.47425441    0.87138637   -0.58957662
     atom    7 type  2   force =    -0.47425441    0.87138637   -0.58957662
     atom    8 type  2   force =    -0.47425441   -0.87138637    0.58957662
     atom    9 type  2   force =    -0.30374927   -1.14201193    0.14527074
     atom   10 type  2   force =    -0.30374927    1.14201193   -0.14527074
     atom   11 type  2   force =     0.30374927    1.14201193   -0.14527074
     atom   12 type  2   force =     0.30374927   -1.14201193    0.14527074
     The local contribution  to forces
     atom    1 type  1   force =    -0.00023042   -0.24736802   -0.03696914
     atom    2 type  1   force =     0.00017358    0.24724411    0.03695847
     atom    3 type  2   force =     0.00000240    1.39947401    0.05102066
     atom    4 type  2   force =    -0.00000131   -1.39947031   -0.05093775
     atom    5 type  2   force =    -0.54018775    0.69886190   -0.40982162
     atom    6 type  2   force =    -0.54026886   -0.69879515    0.40981816
     atom    7 type  2   force =     0.54026700   -0.69882595    0.40981673
     atom    8 type  2   force =     0.54016205    0.69887173   -0.40982297
     atom    9 type  2   force =     0.28250268    0.98558322   -0.21300712
     atom   10 type  2   force =     0.28233133   -0.98560258    0.21295253
     atom   11 type  2   force =    -0.28234786   -0.98556848    0.21300164
     atom   12 type  2   force =    -0.28246839    0.98559837   -0.21296639
     The core correction contribution to forces
     atom    1 type  1   force =    -0.00000013   -0.00023497    0.00004600
     atom    2 type  1   force =     0.00000009    0.00023491   -0.00004598
     atom    3 type  2   force =     0.00000025    0.00009698   -0.00340916
     atom    4 type  2   force =    -0.00000010   -0.00009670    0.00341054
     atom    5 type  2   force =    -0.00140823   -0.00702778    0.00613695
     atom    6 type  2   force =    -0.00140743    0.00702981   -0.00613765
     atom    7 type  2   force =     0.00140694    0.00702832   -0.00613738
     atom    8 type  2   force =     0.00140724   -0.00702834    0.00613732
     atom    9 type  2   force =    -0.00097932   -0.00544231   -0.00138215
     atom   10 type  2   force =    -0.00097954    0.00544204    0.00138155
     atom   11 type  2   force =     0.00097940    0.00544239    0.00138244
     atom   12 type  2   force =     0.00097960   -0.00544235   -0.00138158
     The Hubbard contrib.    to forces
     atom    1 type  1   force =     0.00000000    0.00000000    0.00000000
     atom    2 type  1   force =     0.00000000    0.00000000    0.00000000
     atom    3 type  2   force =     0.00000000    0.00000000    0.00000000
     atom    4 type  2   force =     0.00000000    0.00000000    0.00000000
     atom    5 type  2   force =     0.00000000    0.00000000    0.00000000
     atom    6 type  2   force =     0.00000000    0.00000000    0.00000000
     atom    7 type  2   force =     0.00000000    0.00000000    0.00000000
     atom    8 type  2   force =     0.00000000    0.00000000    0.00000000
     atom    9 type  2   force =     0.00000000    0.00000000    0.00000000
     atom   10 type  2   force =     0.00000000    0.00000000    0.00000000
     atom   11 type  2   force =     0.00000000    0.00000000    0.00000000
     atom   12 type  2   force =     0.00000000    0.00000000    0.00000000
     The SCF correction term to forces
     atom    1 type  1   force =     0.00014270    0.00011453   -0.00000292
     atom    2 type  1   force =    -0.00013201    0.00001487    0.00003824
     atom    3 type  2   force =     0.00000455    0.00001734   -0.00003575
     atom    4 type  2   force =    -0.00000074   -0.00001940   -0.00001549
     atom    5 type  2   force =    -0.00002752    0.00001047   -0.00003520
     atom    6 type  2   force =     0.00004844   -0.00004462    0.00003220
     atom    7 type  2   force =    -0.00006152   -0.00004814    0.00003648
     atom    8 type  2   force =     0.00003993   -0.00001577   -0.00003028
     atom    9 type  2   force =    -0.00007874    0.00002886    0.00008871
     atom   10 type  2   force =     0.00007751   -0.00001169   -0.00004355
     atom   11 type  2   force =    -0.00005923   -0.00004149   -0.00008780
     atom   12 type  2   force =     0.00004951    0.00001724    0.00005981

     Total force =     0.161215     Total SCF correction =     0.000339

     Computing stress (Cartesian axis) and pressure

          total   stress  (Ry/bohr**3)                   (kbar)     P=      -25.60
  -0.00027135   0.00000000   0.00000000          -39.92        0.00        0.00
   0.00000000   0.00101927  -0.00003490            0.00      149.94       -5.13
   0.00000000  -0.00003490  -0.00127005            0.00       -5.13     -186.83

     kinetic stress (kbar)   5976.73      0.00      0.00
                                0.00   6125.01    -94.95
                                0.00    -94.95   5806.36

     local   stress (kbar)  -1053.41     -0.03      0.01
                               -0.03   -649.77   -180.49
                                0.01   -180.49  -1739.78

     nonloc. stress (kbar)   4566.83      0.00      0.00
                                0.00   4503.16      4.27
                                0.00      4.27   4535.57

     hartree stress (kbar)    937.95      0.00      0.00
                                0.00    831.62     -0.87
                                0.00     -0.87   1169.45

     exc-cor stress (kbar)   -771.14     -0.00     -0.00
                               -0.00   -770.97      1.59
                               -0.00      1.59   -770.31

     corecor stress (kbar)   -970.27      0.00      0.00
                                0.00   -967.52      0.15
                                0.00      0.15   -968.25

     ewald   stress (kbar)  -8726.61     -0.00     -0.00
                               -0.00  -8921.59    265.16
                               -0.00    265.16  -8219.87

     hubbard stress (kbar)      0.00      0.00      0.00
                                0.00      0.00      0.00
                                0.00      0.00      0.00

     DFT-D   stress (kbar)      0.00      0.00      0.00
                                0.00      0.00      0.00
                                0.00      0.00      0.00

     XDM     stress (kbar)      0.00      0.00      0.00
                                0.00      0.00      0.00
                                0.00      0.00      0.00

     dft-nl  stress (kbar)      0.00      0.00      0.00
                                0.00      0.00      0.00
                                0.00      0.00      0.00

     TS-vdW  stress (kbar)      0.00      0.00      0.00
                                0.00      0.00      0.00
                                0.00      0.00      0.00

[...]

                                0.00      0.00      0.00

     Writing all to output data dir new_calculations/myprefix.save/

     General routines

     Parallel routines

     PAW routines

   This run was terminated on:   5:41:54  20May2023

   JOB DONE.