     Program PWSCF v.7.0 starts on 20May2023 at 15: 6:59

     Reading input from espresso_7462.pwi
Warning: card &CELL ignored
Warning: card / ignored

     Current dimensions of program PWSCF are:
     Max number of different atomic species (ntypx) = 10
     Max number of k-points (npk) =  40000
     Max angular momentum in pseudopotentials (lmaxx) =  4

     gamma-point specific algorithms are used
     Message from routine setup:
     using ibrav=0 with symmetry is DISCOURAGED, use correct ibrav instead

     Subspace diagonalization in iterative solution of the eigenvalue problem:
     a serial algorithm will be used

     Using Slab Decomposition

     bravais-lattice index     =            0
     lattice parameter (alat)  =      12.0766  a.u.
     unit-cell volume          =    1542.1076 (a.u.)^3
     number of atoms/cell      =           10
     number of atomic types    =            3
     number of electrons       =       162.00
     number of Kohn-Sham states=           97
     kinetic-energy cutoff     =      30.0000  Ry
     charge density cutoff     =     240.0000  Ry
     scf convergence threshold =      1.0E-06
     mixing beta               =       0.7000
     number of iterations used =            8  plain     mixing
     Exchange-correlation= PBE
                           (   1   4   3   4   0   0   0)

     celldm(1)=  12.076595  celldm(2)=   0.000000  celldm(3)=   0.000000
     celldm(4)=   0.000000  celldm(5)=   0.000000  celldm(6)=   0.000000

     crystal axes: (cart. coord. in units of alat)
               a(1) = (   1.000000   0.000000   0.000000 )
               a(2) = (   0.000000   1.000000   0.000000 )
               a(3) = (   0.000000   0.000000   0.875550 )

     reciprocal axes: (cart. coord. in units 2 pi/alat)
               b(1) = (  1.000000  0.000000  0.000000 )
               b(2) = (  0.000000  1.000000  0.000000 )
               b(3) = (  0.000000  0.000000  1.142139 )

     PseudoPot. # 1 for Sr read from file:
     /home/pragov/projects/rrg-bengioy-ad/pragov/crystal_structure_design/SSSP/Sr_pbe_v1.uspp.F.UPF
     MD5 check sum: 6b418c05fbe9db5448babca5e47b7a5b
     Pseudo is Ultrasoft + core correction, Zval = 10.0
     Generated by new atomic code, or converted to UPF format
     Using radial grid of  883 points,  6 beta functions with:
                l(1) =   0
                l(2) =   0
                l(3) =   1
                l(4) =   1
                l(5) =   2
                l(6) =   2
     Q(r) pseudized with  6 coefficients,  rinner =    1.400   1.400   1.400
                                                       1.400   1.400

     PseudoPot. # 2 for Ge read from file:
     /home/pragov/projects/rrg-bengioy-ad/pragov/crystal_structure_design/SSSP/ge_pbe_v1.4.uspp.F.UPF
     MD5 check sum: 9c9eaa91e581c3f09632fb3098b2c6b2
     Pseudo is Ultrasoft + core correction, Zval = 14.0
     Generated by new atomic code, or converted to UPF format
     Using radial grid of  873 points,  6 beta functions with:
                l(1) =   0
                l(2) =   0
                l(3) =   1
                l(4) =   1
                l(5) =   2
                l(6) =   2
     Q(r) pseudized with  8 coefficients,  rinner =    1.400   1.400   1.400
                                                       1.400   1.400

     PseudoPot. # 3 for Au read from file:
     /home/pragov/projects/rrg-bengioy-ad/pragov/crystal_structure_design/SSSP/Au_ONCV_PBE-1.0.oncvpsp.upf
     MD5 check sum: d14007822ba0e19f0206237467fc06c2
     Pseudo is Norm-conserving, Zval = 19.0
     Generated using ONCVPSP code by D. R. Hamann
     Using radial grid of 1278 points,  8 beta functions with:
                l(1) =   0
                l(2) =   0
                l(3) =   1
                l(4) =   1
                l(5) =   2
                l(6) =   2
                l(7) =   3
                l(8) =   3

     atomic species   valence    mass     pseudopotential
        Sr            10.00    87.62000     Sr( 1.00)
        Ge            14.00    72.63000     Ge( 1.00)
        Au            19.00   196.96657     Au( 1.00)

     16 Sym. Ops., with inversion, found ( 8 have fractional translation)

                                    s                        frac. trans.

      isym =  1     identity

 cryst.   s( 1) = (     1          0          0      )
                  (     0          1          0      )
                  (     0          0          1      )

 cart.    s( 1) = (  1.0000000  0.0000000  0.0000000 )
                  (  0.0000000  1.0000000  0.0000000 )
                  (  0.0000000  0.0000000  1.0000000 )

      isym =  2     180 deg rotation - cart. axis [0,0,1]

[...]

 cryst.   s( 3) = (    -1          0          0      )    f =(  0.5000000 )
                  (     0          1          0      )       (  0.5000000 )
                  (     0          0         -1      )       (  0.0000000 )

 cart.    s( 3) = ( -1.0000000  0.0000000  0.0000000 )    f =(  0.5000000 )
                  (  0.0000000  1.0000000  0.0000000 )       (  0.5000000 )
                  (  0.0000000  0.0000000 -1.0000000 )       (  0.0000000 )

[...]

 cryst.   s( 6) = (     0         -1          0      )
                  (    -1          0          0      )
                  (     0          0         -1      )

 cart.    s( 6) = (  0.0000000 -1.0000000  0.0000000 )
                  ( -1.0000000  0.0000000  0.0000000 )
                  (  0.0000000  0.0000000 -1.0000000 )

[...]

      isym =  8      90 deg rotation - cart. axis [0,0,1]

[...]

      isym =  9     inversion

 cryst.   s( 9) = (    -1          0          0      )    f =(  0.5000000 )
                  (     0         -1          0      )       (  0.5000000 )
                  (     0          0         -1      )       (  0.0000000 )

 cart.    s( 9) = ( -1.0000000  0.0000000  0.0000000 )    f =(  0.5000000 )
                  (  0.0000000 -1.0000000  0.0000000 )       (  0.5000000 )
                  (  0.0000000  0.0000000 -1.0000000 )       (  0.0000000 )

      isym = 10     inv. 180 deg rotation - cart. axis [0,0,1]

 cryst.   s(10) = (     1          0          0      )    f =(  0.5000000 )
                  (     0          1          0      )       (  0.5000000 )
                  (     0          0         -1      )       (  0.0000000 )

 cart.    s(10) = (  1.0000000  0.0000000  0.0000000 )    f =(  0.5000000 )
                  (  0.0000000  1.0000000  0.0000000 )       (  0.5000000 )
                  (  0.0000000  0.0000000 -1.0000000 )       (  0.0000000 )

[...]

 cryst.   s(11) = (     1          0          0      )
                  (     0         -1          0      )
                  (     0          0          1      )

 cart.    s(11) = (  1.0000000  0.0000000  0.0000000 )
                  (  0.0000000 -1.0000000  0.0000000 )
                  (  0.0000000  0.0000000  1.0000000 )

[...]

 cryst.   s(14) = (     0          1          0      )    f =(  0.5000000 )
                  (     1          0          0      )       (  0.5000000 )
                  (     0          0          1      )       (  0.0000000 )

 cart.    s(14) = (  0.0000000  1.0000000  0.0000000 )    f =(  0.5000000 )
                  (  1.0000000  0.0000000  0.0000000 )       (  0.5000000 )
                  (  0.0000000  0.0000000  1.0000000 )       (  0.0000000 )

[...]

      isym = 16     inv.  90 deg rotation - cart. axis [0,0,1]

 cryst.   s(16) = (     0         -1          0      )
                  (     1          0          0      )
                  (     0          0         -1      )

 cart.    s(16) = (  0.0000000  1.0000000  0.0000000 )
                  ( -1.0000000  0.0000000  0.0000000 )
                  (  0.0000000  0.0000000 -1.0000000 )

   Cartesian axes

     site n.     atom                  positions (alat units)
         1           Sr  tau(   1) = (   0.5000000   0.5000000   0.0000000  )
         2           Sr  tau(   2) = (   0.0000000   0.0000000   0.0000000  )
         3           Ge  tau(   3) = (   0.5000000   0.0000000   0.6412505  )
         4           Ge  tau(   4) = (   0.0000000   0.5000000   0.2342999  )
         5           Au  tau(   5) = (   0.2500000   0.2500000   0.4377752  )
         6           Au  tau(   6) = (   0.2500000   0.7500000   0.4377752  )
         7           Au  tau(   7) = (   0.7500000   0.2500000   0.4377752  )
         8           Au  tau(   8) = (   0.7500000   0.7500000   0.4377752  )
         9           Au  tau(   9) = (   0.5000000   0.0000000   0.1559198  )
        10           Au  tau(  10) = (   0.0000000   0.5000000   0.7196306  )

   Crystallographic axes

     site n.     atom                  positions (cryst. coord.)
         1           Sr  tau(   1) = (  0.5000000  0.5000000  0.0000000  )
         2           Sr  tau(   2) = (  0.0000000  0.0000000  0.0000000  )
         3           Ge  tau(   3) = (  0.5000000  0.0000000  0.7323970  )
         4           Ge  tau(   4) = (  0.0000000  0.5000000  0.2676030  )
         5           Au  tau(   5) = (  0.2500000  0.2500000  0.5000000  )
         6           Au  tau(   6) = (  0.2500000  0.7500000  0.5000000  )
         7           Au  tau(   7) = (  0.7500000  0.2500000  0.5000000  )
         8           Au  tau(   8) = (  0.7500000  0.7500000  0.5000000  )
         9           Au  tau(   9) = (  0.5000000  0.0000000  0.1780820  )
        10           Au  tau(  10) = (  0.0000000  0.5000000  0.8219180  )

     number of k points=     1  Methfessel-Paxton smearing, width (Ry)=  0.0010
                       cart. coord. in units 2pi/alat
        k(    1) = (   0.0000000   0.0000000   0.0000000), wk =   2.0000000

                       cryst. coord.
        k(    1) = (   0.0000000   0.0000000   0.0000000), wk =   2.0000000

     Check: negative core charge=   -0.000003

     Initial potential from superposition of free atoms

     starting charge     161.9304, renormalised to     162.0000

     negative rho (up, down):  1.234E-01 0.000E+00
     Starting wfcs are  104 randomized atomic wfcs

     Self-consistent Calculation

     iteration #  1     ecut=    30.00 Ry     beta= 0.70
     Davidson diagonalization with overlap

     ethr =  1.00E-02,  avg # of iterations =  4.0

     Threshold (ethr) on eigenvalues was too large:
     Diagonalizing with lowered threshold

     Davidson diagonalization with overlap

[...]

     negative rho (up, down):  1.259E-01 0.000E+00

     total energy              =   -2214.83761597 Ry
     estimated scf accuracy    <       0.36266617 Ry

[...]

     total energy              =   -2214.93843499 Ry
     estimated scf accuracy    <       0.00000184 Ry

     iteration # 11     ecut=    30.00 Ry     beta= 0.70
     Davidson diagonalization with overlap

     ethr =  1.14E-09,  avg # of iterations =  2.0

[...]

     End of self-consistent calculation

          k = 0.0000 0.0000 0.0000 (  2136 PWs)   bands (ev):

   -93.5446 -93.5423 -92.9511 -92.9507 -92.9480 -92.9477 -44.5915 -44.5914
   -44.5874 -44.5874 -44.4564 -44.4488 -44.0714 -44.0648 -44.0622 -44.0552
   -44.0149 -44.0076 -44.0050 -43.9954 -43.8669 -43.8471 -43.8446 -43.8318
   -22.5243 -22.5196 -10.2782 -10.2752 -10.2740 -10.2703 -10.2692 -10.2692
   -10.2636 -10.2636 -10.2620 -10.2596  -4.5686  -4.5569  -4.5552  -4.5551
    -4.4919  -4.4919   3.2555   4.8212   7.1413   7.3700   7.3700   7.8270
     7.8277   7.8586   7.8680   7.8982   8.1720   8.6117   8.6376   8.8125
     8.8125   8.8770   8.9570   8.9875   9.1305   9.1319   9.2995   9.3003
     9.5721   9.6128   9.6138   9.6312   9.9728  10.0339  10.3925  10.3935
    10.7137  10.7672  10.9382  11.3959  11.6675  11.7793  11.7797  12.1574
    12.1577  12.4910  14.1980  14.1982  14.2966  14.6447  17.1913  17.1913
    17.3875  17.5279  17.9599  18.0717  18.0722  18.4495  18.4795  18.5716
    18.7646

     occupation numbers
     1.0000   1.0000   1.0000   1.0000   1.0000   1.0000   1.0000   1.0000
     1.0000   1.0000   1.0000   1.0000   1.0000   1.0000   1.0000   1.0000
     1.0000   1.0000   1.0000   1.0000   1.0000   1.0000   1.0000   1.0000
     1.0000   1.0000   1.0000   1.0000   1.0000   1.0000   1.0000   1.0000
     1.0000   1.0000   1.0000   1.0000   1.0000   1.0000   1.0000   1.0000
     1.0000   1.0000   1.0000   1.0000   1.0000   1.0000   1.0000   1.0000
     1.0000   1.0000   1.0000   1.0000   1.0000   1.0000   1.0000   1.0000
     1.0000   1.0000   1.0000   1.0000   1.0000   1.0000   1.0000   1.0000
     1.0000   1.0000   1.0000   1.0000   1.0000   1.0000   1.0000   1.0000
     1.0000   1.0000   1.0000   1.0000   1.0000   1.0000   1.0000   1.0000
     1.0000  -0.0000  -0.0000  -0.0000  -0.0000  -0.0000  -0.0000  -0.0000
    -0.0000  -0.0000  -0.0000  -0.0000  -0.0000  -0.0000  -0.0000  -0.0000
    -0.0000

     the Fermi energy is    12.3041 ev

!    total energy              =   -2214.93843520 Ry
     estimated scf accuracy    <       0.00000057 Ry
     smearing contrib. (-TS)   =       0.00000000 Ry
     internal energy E=F+TS    =   -2214.93843520 Ry

     The total energy is F=E-TS. E is the sum of the following terms:
     one-electron contribution =   -1207.44379335 Ry
     hartree contribution      =     666.13261546 Ry
     xc contribution           =    -305.12638953 Ry
     ewald contribution        =   -1368.50086777 Ry

     convergence has been achieved in  11 iterations

     negative rho (up, down):  1.289E-01 0.000E+00

     Forces acting on atoms (cartesian axes, Ry/au):

     atom    1 type  1   force =     0.00000000    0.00000000    0.00000000
     atom    2 type  1   force =     0.00000000    0.00000000    0.00000000
     atom    3 type  2   force =     0.00000000    0.00000000   -0.02251761
     atom    4 type  2   force =     0.00000000    0.00000000    0.02251761
     atom    5 type  3   force =    -0.00000000    0.00000000    0.00000000
     atom    6 type  3   force =     0.00000000    0.00000000   -0.00000000
     atom    7 type  3   force =     0.00000000    0.00000000   -0.00000000
     atom    8 type  3   force =     0.00000000    0.00000000    0.00000000
     atom    9 type  3   force =     0.00000000    0.00000000   -0.02885521
     atom   10 type  3   force =     0.00000000    0.00000000    0.02885521
     The non-local contrib.  to forces
     atom    1 type  1   force =     0.00000000    0.00000000    0.00000000
     atom    2 type  1   force =     0.00000000    0.00000000    0.00000000
     atom    3 type  2   force =     0.00000000    0.00000000   -0.07001609
     atom    4 type  2   force =     0.00000000    0.00000000    0.07001609
     atom    5 type  3   force =     0.00000000    0.00000000   -0.00000000
     atom    6 type  3   force =     0.00000000   -0.00000000   -0.00000000
     atom    7 type  3   force =    -0.00000000    0.00000000    0.00000000
     atom    8 type  3   force =     0.00000000   -0.00000000    0.00000000
     atom    9 type  3   force =     0.00000000    0.00000000    0.09470021
     atom   10 type  3   force =     0.00000000    0.00000000   -0.09470021
     The ionic contribution  to forces
     atom    1 type  1   force =     0.00000000    0.00000000   -0.00000000
     atom    2 type  1   force =     0.00000000    0.00000000   -0.00000000
     atom    3 type  2   force =    -0.00000000   -0.00000000   16.56613338
     atom    4 type  2   force =    -0.00000000    0.00000000  -16.56613338
     atom    5 type  3   force =     0.00000000    0.00000000   -0.00000000
     atom    6 type  3   force =     0.00000000   -0.00000000   -0.00000000
     atom    7 type  3   force =    -0.00000000    0.00000000   -0.00000000
     atom    8 type  3   force =    -0.00000000   -0.00000000   -0.00000000
     atom    9 type  3   force =    -0.00000000    0.00000000  -18.05041408
     atom   10 type  3   force =     0.00000000   -0.00000000   18.05041408
     The local contribution  to forces
     atom    1 type  1   force =    -0.00004046    0.00019652    0.00021692
     atom    2 type  1   force =     0.00003448   -0.00019536    0.00012216
     atom    3 type  2   force =    -0.00004945   -0.00034656  -16.52042666
     atom    4 type  2   force =     0.00007009    0.00034326   16.52012486
     atom    5 type  3   force =     0.00103914   -0.00104651   -0.00059885
     atom    6 type  3   force =     0.00107890    0.00102037   -0.00054604
     atom    7 type  3   force =    -0.00103059   -0.00104148   -0.00048961
     atom    8 type  3   force =    -0.00105292    0.00102437   -0.00054059
     atom    9 type  3   force =    -0.00006220   -0.00028575   17.92867033
     atom   10 type  3   force =     0.00003932    0.00034683  -17.92784596
     The core correction contribution to forces
     atom    1 type  1   force =    -0.00000054    0.00000239    0.00000101
     atom    2 type  1   force =     0.00000075   -0.00000292   -0.00000066
     atom    3 type  2   force =    -0.00000039   -0.00000148    0.00069601
     atom    4 type  2   force =     0.00000057    0.00000139   -0.00070018
     atom    5 type  3   force =     0.00000000    0.00000000    0.00000000
     atom    6 type  3   force =     0.00000000    0.00000000    0.00000000
     atom    7 type  3   force =     0.00000000    0.00000000    0.00000000
     atom    8 type  3   force =     0.00000000    0.00000000    0.00000000
     atom    9 type  3   force =     0.00000000    0.00000000    0.00000000
     atom   10 type  3   force =     0.00000000    0.00000000    0.00000000
     The Hubbard contrib.    to forces
     atom    1 type  1   force =     0.00000000    0.00000000    0.00000000
     atom    2 type  1   force =     0.00000000    0.00000000    0.00000000
     atom    3 type  2   force =     0.00000000    0.00000000    0.00000000
     atom    4 type  2   force =     0.00000000    0.00000000    0.00000000
     atom    5 type  3   force =     0.00000000    0.00000000    0.00000000
     atom    6 type  3   force =     0.00000000    0.00000000    0.00000000
     atom    7 type  3   force =     0.00000000    0.00000000    0.00000000
     atom    8 type  3   force =     0.00000000    0.00000000    0.00000000
     atom    9 type  3   force =     0.00000000    0.00000000    0.00000000
     atom   10 type  3   force =     0.00000000    0.00000000    0.00000000
     The SCF correction term to forces
     atom    1 type  1   force =     0.00002951   -0.00014963   -0.00020570
     atom    2 type  1   force =    -0.00002678    0.00015062   -0.00013467
     atom    3 type  2   force =     0.00005936    0.00036254    0.00108413
     atom    4 type  2   force =    -0.00008597   -0.00036238   -0.00080140
     atom    5 type  3   force =    -0.00110494    0.00111247    0.00061625
     atom    6 type  3   force =    -0.00114095   -0.00108323    0.00055938
     atom    7 type  3   force =     0.00108864    0.00110224    0.00049832
     atom    8 type  3   force =     0.00111748   -0.00109521    0.00055860
     atom    9 type  3   force =     0.00005506    0.00022660   -0.00178847
     atom   10 type  3   force =    -0.00003333   -0.00031155    0.00101051

     Total force =     0.051762     Total SCF correction =     0.004196

     Computing stress (Cartesian axis) and pressure

     negative rho (up, down):  1.289E-01 0.000E+00
          total   stress  (Ry/bohr**3)                   (kbar)     P=     -471.81
  -0.00331491   0.00000000   0.00000000         -487.64        0.00        0.00
   0.00000000  -0.00331491   0.00000000            0.00     -487.64        0.00
   0.00000000   0.00000000  -0.00299201            0.00        0.00     -440.14

     kinetic stress (kbar)  36461.30      0.00      0.00
                                0.00  36461.30      0.00
                                0.00      0.00  36401.23

     local   stress (kbar) -15507.66      0.51      0.00
                                0.51 -15507.66      0.03
                                0.00      0.03  -9998.65

     nonloc. stress (kbar)   6383.68      0.00      0.00
                                0.00   6383.68      0.00
                                0.00      0.00   6427.79

     hartree stress (kbar)  22182.35     -0.41     -0.00
                               -0.41  22182.35     -0.02
                               -0.00     -0.02  19179.18

     exc-cor stress (kbar)    463.10     -0.00     -0.00
                               -0.00    463.10     -0.00
                               -0.00     -0.00    468.68

     corecor stress (kbar)  -7771.33     -0.00     -0.00
                               -0.00  -7771.33     -0.00
                               -0.00     -0.00  -7772.19

     ewald   stress (kbar) -42699.09     -0.00     -0.00
                               -0.00 -42699.09     -0.00
                               -0.00     -0.00 -45146.17

     hubbard stress (kbar)      0.00      0.00      0.00
                                0.00      0.00      0.00
                                0.00      0.00      0.00

     DFT-D   stress (kbar)      0.00      0.00      0.00
                                0.00      0.00      0.00
                                0.00      0.00      0.00

     XDM     stress (kbar)      0.00      0.00      0.00
                                0.00      0.00      0.00
                                0.00      0.00      0.00

     dft-nl  stress (kbar)      0.00      0.00      0.00
                                0.00      0.00      0.00
                                0.00      0.00      0.00

     TS-vdW  stress (kbar)      0.00      0.00      0.00
                                0.00      0.00      0.00
                                0.00      0.00      0.00

[...]

                                0.00      0.00      0.00

     Writing all to output data dir new_calculations/myprefix.save/

     General routines

     Parallel routines

   This run was terminated on:  15: 7:36  20May2023

   JOB DONE.