     Program PWSCF v.7.0 starts on 20May2023 at 14: 5:50

     Reading input from espresso_554.pwi
Warning: card &CELL ignored
Warning: card / ignored

     Current dimensions of program PWSCF are:
     Max number of different atomic species (ntypx) = 10
     Max number of k-points (npk) =  40000
     Max angular momentum in pseudopotentials (lmaxx) =  4

     gamma-point specific algorithms are used
     Message from routine setup:
     using ibrav=0 with symmetry is DISCOURAGED, use correct ibrav instead

     Subspace diagonalization in iterative solution of the eigenvalue problem:
     a serial algorithm will be used

     Using Slab Decomposition

     bravais-lattice index     =            0
     lattice parameter (alat)  =       8.1465  a.u.
     unit-cell volume          =     382.2884 (a.u.)^3
     number of atoms/cell      =            4
     number of atomic types    =            4
     number of electrons       =        61.00
     number of Kohn-Sham states=           37
     kinetic-energy cutoff     =      30.0000  Ry
     charge density cutoff     =     240.0000  Ry
     scf convergence threshold =      1.0E-06
     mixing beta               =       0.7000
     number of iterations used =            8  plain     mixing
     Exchange-correlation= SLA  PW   PBE  PBE
                           (   1   4   3   4   0   0   0)

     celldm(1)=   8.146456  celldm(2)=   0.000000  celldm(3)=   0.000000
     celldm(4)=   0.000000  celldm(5)=   0.000000  celldm(6)=   0.000000

     crystal axes: (cart. coord. in units of alat)
               a(1) = (   1.000000   0.000000   0.000000 )
               a(2) = (   0.500000   0.866025   0.000000 )
               a(3) = (   0.500000   0.288675   0.816497 )

     reciprocal axes: (cart. coord. in units 2 pi/alat)
               b(1) = (  1.000000 -0.577350 -0.408248 )
               b(2) = (  0.000000  1.154701 -0.408248 )
               b(3) = (  0.000000  0.000000  1.224745 )

     PseudoPot. # 1 for Ti read from file:
     /home/pragov/projects/rrg-bengioy-ad/pragov/crystal_structure_design/SSSP/ti_pbe_v1.4.uspp.F.UPF
     MD5 check sum: 88a00a6731bd790ddea75d31a80cb452
     Pseudo is Ultrasoft + core correction, Zval = 12.0
     Generated by new atomic code, or converted to UPF format
     Using radial grid of  851 points,  6 beta functions with:
                l(1) =   0
                l(2) =   0
                l(3) =   1
                l(4) =   1
                l(5) =   2
                l(6) =   2
     Q(r) pseudized with  6 coefficients,  rinner =    1.000   1.000   1.000
                                                       1.000   1.000

     PseudoPot. # 2 for Co read from file:
     /home/pragov/projects/rrg-bengioy-ad/pragov/crystal_structure_design/SSSP/Co_pbe_v1.2.uspp.F.UPF
     MD5 check sum: 5f91765df6ddd3222702df6e7b74a16d
     Pseudo is Ultrasoft + core correction, Zval = 17.0
     Generated by new atomic code, or converted to UPF format
     Using radial grid of  863 points,  6 beta functions with:
                l(1) =   0
                l(2) =   0
                l(3) =   1
                l(4) =   1
                l(5) =   2
                l(6) =   2
     Q(r) pseudized with  8 coefficients,  rinner =    1.200   1.200   1.200
                                                       1.200   1.200

     PseudoPot. # 3 for Ni read from file:
     /home/pragov/projects/rrg-bengioy-ad/pragov/crystal_structure_design/SSSP/ni_pbe_v1.4.uspp.F.UPF
     MD5 check sum: 1ee80287db30b12d2bc1f57a5b5d6409
     Pseudo is Ultrasoft + core correction, Zval = 18.0
     Generated by new atomic code, or converted to UPF format
     Using radial grid of  865 points,  6 beta functions with:
                l(1) =   0
                l(2) =   0
                l(3) =   1
                l(4) =   1
                l(5) =   2
                l(6) =   2
     Q(r) pseudized with 10 coefficients,  rinner =    0.980   0.980   0.980
                                                       0.980   0.980

     PseudoPot. # 4 for Sn read from file:
     /home/pragov/projects/rrg-bengioy-ad/pragov/crystal_structure_design/SSSP/Sn_pbe_v1.uspp.F.UPF
     MD5 check sum: 4cf58ce39ec5d5d420df3dd08604eb00
     Pseudo is Ultrasoft + core correction, Zval = 14.0
     Generated by new atomic code, or converted to UPF format
     Using radial grid of  891 points,  6 beta functions with:
                l(1) =   0
                l(2) =   0
                l(3) =   1
                l(4) =   1
                l(5) =   2
                l(6) =   2
     Q(r) pseudized with  6 coefficients,  rinner =    1.200   1.200   1.200
                                                       1.200   1.200

     atomic species   valence    mass     pseudopotential
        Ti            12.00    47.86700     Ti( 1.00)
        Co            17.00    58.93319     Co( 1.00)
        Ni            18.00    58.69340     Ni( 1.00)
        Sn            14.00   118.71000     Sn( 1.00)

      6 Sym. Ops. (no inversion) found

                                    s                        frac. trans.

      isym =  1     identity

 cryst.   s( 1) = (     1          0          0      )
                  (     0          1          0      )
                  (     0          0          1      )

 cart.    s( 1) = (  1.0000000  0.0000000  0.0000000 )
                  (  0.0000000  1.0000000  0.0000000 )
                  (  0.0000000  0.0000000  1.0000000 )

      isym =  2     120 deg rotation - cryst. axis [0,0,1]

[...]

      isym =  3     120 deg rotation - cryst. axis [0,0,-1]

[...]

      isym =  4     inv. 180 deg rotation - cart. axis [1,0,0]

[...]

      isym =  5     inv. 180 deg rotation - cryst. axis [0,1,0]

[...]

      isym =  6     inv. 180 deg rotation - cryst. axis [1,1,0]

 cryst.   s( 6) = (     1         -1          0      )
                  (     0         -1          0      )
                  (     0         -1          1      )

 cart.    s( 6) = (  0.5000000 -0.8660254  0.0000000 )
                  ( -0.8660254 -0.5000000  0.0000000 )
                  (  0.0000000  0.0000000  1.0000000 )

   Cartesian axes

     site n.     atom                  positions (alat units)
         1           Ti  tau(   1) = (   1.0000000   0.5773503   0.4082483  )
         2           Co  tau(   2) = (   0.5000000   0.2886751   0.2041241  )
         3           Ni  tau(   3) = (   1.5000000   0.8660254   0.6123724  )
         4           Sn  tau(   4) = (   0.0000000   0.0000000   0.0000000  )

   Crystallographic axes

     site n.     atom                  positions (cryst. coord.)
         1           Ti  tau(   1) = (  0.5000000  0.5000000  0.5000000  )
         2           Co  tau(   2) = (  0.2500000  0.2500000  0.2500000  )
         3           Ni  tau(   3) = (  0.7500000  0.7500000  0.7500000  )
         4           Sn  tau(   4) = (  0.0000000  0.0000000  0.0000000  )

     number of k points=     1  Methfessel-Paxton smearing, width (Ry)=  0.0010
                       cart. coord. in units 2pi/alat
        k(    1) = (   0.0000000   0.0000000   0.0000000), wk =   2.0000000

                       cryst. coord.
        k(    1) = (   0.0000000   0.0000000   0.0000000), wk =   2.0000000

     Check: negative core charge=   -0.000013

     Initial potential from superposition of free atoms

     starting charge      55.9999, renormalised to      61.0000

     negative rho (up, down):  1.944E-03 0.000E+00
     Starting wfcs are   45 randomized atomic wfcs

     Self-consistent Calculation

     iteration #  1     ecut=    30.00 Ry     beta= 0.70
     Davidson diagonalization with overlap

     ethr =  1.00E-02,  avg # of iterations =  3.0

     total energy              =    -856.72755982 Ry
     estimated scf accuracy    <      94.78005310 Ry

[...]

     negative rho (up, down):  3.365E-04 0.000E+00

[...]

     ethr =  1.20E-05,  avg # of iterations =  1.0
     Minimization algorithm failed to find Fermi energy: reverting to bisection
     Possible cause: smearing is larger than the electronic band-gap.

[...]

     ethr =  1.02E-05,  avg # of iterations =  1.0

[...]

     negative rho (up, down):  2.187E-08 0.000E+00

[...]

     total energy              =    -923.57825278 Ry
     estimated scf accuracy    <       0.00000330 Ry

     iteration # 23     ecut=    30.00 Ry     beta= 0.70
     Davidson diagonalization with overlap

     ethr =  5.41E-09,  avg # of iterations =  1.0
     Minimization algorithm failed to find Fermi energy: reverting to bisection
     Possible cause: smearing is larger than the electronic band-gap.

     End of self-consistent calculation

          k = 0.0000 0.0000 0.0000 (   534 PWs)   bands (ev):

   -86.4789 -77.4473 -46.8378 -46.8377 -46.8377 -40.7408 -40.7408 -40.7408
   -37.9083 -14.2984 -14.2983 -14.2983  -5.5964  -5.5964  -5.5964  -5.5860
    -5.5860   5.7345  13.4701  13.4701  13.4701  14.1778  14.1778  15.7196
    15.7196  15.7196  16.4074  16.4074  17.0296  17.0297  17.0297  19.7372
    19.7372  19.9592  19.9592  19.9592  20.4130

     occupation numbers
     1.0000   1.0000   1.0000   1.0000   1.0000   1.0000   1.0000   1.0000
     1.0000   1.0000   1.0000   1.0000   1.0000   1.0000   1.0000   1.0000
     1.0000   1.0000   1.0000   1.0000   1.0000   1.0000   1.0000   1.0000
     1.0000   1.0000   1.0000   1.0000   0.8345   0.8329   0.8326  -0.0000
    -0.0000  -0.0000  -0.0000  -0.0000  -0.0000

     the Fermi energy is    17.0356 ev

!    total energy              =    -923.57825268 Ry
     estimated scf accuracy    <       0.00000037 Ry
     smearing contrib. (-TS)   =      -0.00043272 Ry
     internal energy E=F+TS    =    -923.57781996 Ry

     The total energy is F=E-TS. E is the sum of the following terms:
     one-electron contribution =    -469.24538299 Ry
     hartree contribution      =     275.63796184 Ry
     xc contribution           =    -134.35666553 Ry
     ewald contribution        =    -595.61373328 Ry

     convergence has been achieved in  23 iterations

     Forces acting on atoms (cartesian axes, Ry/au):

     atom    1 type  1   force =    -0.00000000   -0.00000000   -0.00003251
     atom    2 type  2   force =     0.00000000    0.00000000   -0.00012640
     atom    3 type  3   force =     0.00000000    0.00000000    0.00017393
     atom    4 type  4   force =     0.00000000    0.00000000   -0.00001502
     The non-local contrib.  to forces
     atom    1 type  1   force =     0.00000000    0.00000000    0.00001603
     atom    2 type  2   force =     0.00000000    0.00000000   -0.00035854
     atom    3 type  3   force =     0.00000000    0.00000000    0.00039828
     atom    4 type  4   force =     0.00000000    0.00000000   -0.00003585
     The ionic contribution  to forces
     atom    1 type  1   force =    -0.00000000    0.00000000    0.00000000
     atom    2 type  2   force =     0.00000000   -0.00000000   -0.00000000
     atom    3 type  3   force =     0.00000000   -0.00000000    0.00000000
     atom    4 type  4   force =    -0.00000000    0.00000000   -0.00000000
     The local contribution  to forces
     atom    1 type  1   force =     0.00007878   -0.00004363    0.00001630
     atom    2 type  2   force =    -0.00014072   -0.00018624    0.00039228
     atom    3 type  3   force =     0.00004353    0.00025914   -0.00049809
     atom    4 type  4   force =    -0.00002633   -0.00000673    0.00005934
     The core correction contribution to forces
     atom    1 type  1   force =     0.00000052    0.00000205   -0.00000379
     atom    2 type  2   force =    -0.00000286   -0.00000734    0.00001439
     atom    3 type  3   force =     0.00000288    0.00000628   -0.00001272
     atom    4 type  4   force =    -0.00000079   -0.00000110    0.00000261
     The Hubbard contrib.    to forces
     atom    1 type  1   force =     0.00000000    0.00000000    0.00000000
     atom    2 type  2   force =     0.00000000    0.00000000    0.00000000
     atom    3 type  3   force =     0.00000000    0.00000000    0.00000000
     atom    4 type  4   force =     0.00000000    0.00000000    0.00000000
     The SCF correction term to forces
     atom    1 type  1   force =    -0.00007578    0.00006021   -0.00003843
     atom    2 type  2   force =     0.00015728    0.00005426   -0.00015191
     atom    3 type  3   force =     0.00002008   -0.00018700    0.00030907
     atom    4 type  4   force =     0.00002933   -0.00001044   -0.00001851

     Total force =     0.000218     Total SCF correction =     0.000440
     SCF correction compared to forces is large: reduce conv_thr to get better values

     Computing stress (Cartesian axis) and pressure

          total   stress  (Ry/bohr**3)                   (kbar)     P=     -580.93
  -0.00394875   0.00000000  -0.00000000         -580.88        0.00       -0.00
  -0.00000000  -0.00394875   0.00000000           -0.00     -580.88        0.00
   0.00000000   0.00000000  -0.00394973            0.00        0.00     -581.02

     kinetic stress (kbar)  35332.30      0.00      0.00
                                0.00  35332.30     -0.00
                                0.00     -0.00  35331.31

     local   stress (kbar)   2341.93      0.30      0.13
                                0.30   2340.04     -0.00
                                0.13     -0.00   2343.67

     nonloc. stress (kbar)  16437.36      0.00      0.00
                                0.00  16437.36     -0.00
                                0.00     -0.00  16436.77

     hartree stress (kbar)  35354.78     -0.18      0.00
                               -0.18  35356.62      0.67
                                0.00      0.67  35354.44

     exc-cor stress (kbar)    394.73     -0.00     -0.00
                               -0.00    394.74     -0.00
                               -0.00     -0.00    394.72

     corecor stress (kbar) -14044.32      0.00      0.00
                                0.00 -14044.31      0.02
                                0.00      0.02 -14044.29

     ewald   stress (kbar) -76397.64      0.00      0.00
                                0.00 -76397.64     -0.00
                                0.00     -0.00 -76397.64

     hubbard stress (kbar)      0.00      0.00      0.00
                                0.00      0.00      0.00
                                0.00      0.00      0.00

     DFT-D   stress (kbar)      0.00      0.00      0.00
                                0.00      0.00      0.00
                                0.00      0.00      0.00

     XDM     stress (kbar)      0.00      0.00      0.00
                                0.00      0.00      0.00
                                0.00      0.00      0.00

     dft-nl  stress (kbar)      0.00      0.00      0.00
                                0.00      0.00      0.00
                                0.00      0.00      0.00

     TS-vdW  stress (kbar)      0.00      0.00      0.00
                                0.00      0.00      0.00
                                0.00      0.00      0.00

[...]

                                0.00      0.00      0.00

     Writing all to output data dir new_calculations/myprefix.save/

     General routines

     Parallel routines

   This run was terminated on:  14: 6:11  20May2023

   JOB DONE.