     Program PWSCF v.7.0 starts on 21May2023 at 18:42:50

     Reading input from espresso_6943.pwi
Warning: card &CELL ignored
Warning: card / ignored

     Current dimensions of program PWSCF are:
     Max number of different atomic species (ntypx) = 10
     Max number of k-points (npk) =  40000
     Max angular momentum in pseudopotentials (lmaxx) =  4

     gamma-point specific algorithms are used

     Subspace diagonalization in iterative solution of the eigenvalue problem:
     a serial algorithm will be used

     Using Slab Decomposition

     bravais-lattice index     =            0
     lattice parameter (alat)  =      20.2686  a.u.
     unit-cell volume          =     630.7693 (a.u.)^3
     number of atoms/cell      =            7
     number of atomic types    =            2
     number of electrons       =        63.00
     number of Kohn-Sham states=           38
     kinetic-energy cutoff     =      30.0000  Ry
     charge density cutoff     =     240.0000  Ry
     scf convergence threshold =      1.0E-06
     mixing beta               =       0.7000
     number of iterations used =            8  plain     mixing
     Exchange-correlation= PBE
                           (   1   4   3   4   0   0   0)

     celldm(1)=  20.268588  celldm(2)=   0.000000  celldm(3)=   0.000000
     celldm(4)=   0.000000  celldm(5)=   0.000000  celldm(6)=   0.000000

     crystal axes: (cart. coord. in units of alat)
               a(1) = (   1.000000   0.000000   0.000000 )
               a(2) = (   0.955602   0.294661   0.000000 )
               a(3) = (   0.955602   0.143985   0.257086 )

     reciprocal axes: (cart. coord. in units 2 pi/alat)
               b(1) = (  1.000000 -3.243060 -1.900722 )
               b(2) = (  0.000000  3.393735 -1.900722 )
               b(3) = (  0.000000  0.000000  3.889753 )

     PseudoPot. # 1 for Hf read from file:
     /home/pragov/projects/rrg-bengioy-ad/pragov/crystal_structure_design/SSSP/Hf-sp.oncvpsp.upf
     MD5 check sum: 417ed15784afe83d2e06dacf143de3f8
     Pseudo is Norm-conserving + core correction, Zval = 12.0
     Generated using ONCVPSP code by D. R. Hamann
     Using radial grid of 1656 points,  8 beta functions with:
                l(1) =   0
                l(2) =   0
                l(3) =   1
                l(4) =   1
                l(5) =   2
                l(6) =   2
                l(7) =   3
                l(8) =   3

     PseudoPot. # 2 for N  read from file:
     /home/pragov/projects/rrg-bengioy-ad/pragov/crystal_structure_design/SSSP/N.pbe-n-radius_5.UPF
     MD5 check sum: 16739722b17309cd8fe442a2ace49922
     Pseudo is Ultrasoft + core correction, Zval =  5.0
     Generated using "atomic" code by A. Dal Corso  v.5.1
     Using radial grid of 1085 points,  4 beta functions with:
                l(1) =   0
                l(2) =   0
                l(3) =   1
                l(4) =   1
     Q(r) pseudized with 0 coefficients

     atomic species   valence    mass     pseudopotential
        Hf            12.00   178.49000     Hf( 1.00)
        N              5.00    14.00700     N ( 1.00)

     No symmetry found

                                    s                        frac. trans.

      isym =  1     identity

 cryst.   s( 1) = (     1          0          0      )
                  (     0          1          0      )
                  (     0          0          1      )

 cart.    s( 1) = (  1.0000000  0.0000000  0.0000000 )
                  (  0.0000000  1.0000000  0.0000000 )
                  (  0.0000000  0.0000000  1.0000000 )

   Cartesian axes

     site n.     atom                  positions (alat units)
         1           Hf  tau(   1) = (   1.8212521   0.2744174   0.1608331  )
         2           Hf  tau(   2) = (   1.0911949   0.1644159   0.0963624  )
         3           Hf  tau(   3) = (   2.3028788   0.3469866   0.2033651  )
         4           Hf  tau(   4) = (   0.6008172   0.0905282   0.0530576  )
         5           N   tau(   5) = (   1.4576515   0.2196318   0.1287239  )
         6           N   tau(   6) = (   0.0054731   0.0008247   0.0004833  )
         7           N   tau(   7) = (   2.6624940   0.4011716   0.2351224  )

   Crystallographic axes

     site n.     atom                  positions (cryst. coord.)
         1           Hf  tau(   1) = (  0.6256010  0.6256010  0.6256010  )
         2           Hf  tau(   2) = (  0.3748260  0.3748260  0.3748260  )
         3           Hf  tau(   3) = (  0.7910400  0.7910400  0.7910400  )
         4           Hf  tau(   4) = (  0.2063810  0.2063810  0.2063810  )
         5           N   tau(   5) = (  0.5007040  0.5007040  0.5007040  )
         6           N   tau(   6) = (  0.0018800  0.0018800  0.0018800  )
         7           N   tau(   7) = (  0.9145680  0.9145680  0.9145680  )

     number of k points=     1  Methfessel-Paxton smearing, width (Ry)=  0.0010
                       cart. coord. in units 2pi/alat
        k(    1) = (   0.0000000   0.0000000   0.0000000), wk =   2.0000000

                       cryst. coord.
        k(    1) = (   0.0000000   0.0000000   0.0000000), wk =   2.0000000

     Check: negative core charge=   -0.000001

     Initial potential from superposition of free atoms

     starting charge      62.9926, renormalised to      63.0000
     Starting wfcs are   52 randomized atomic wfcs

     Self-consistent Calculation

     iteration #  1     ecut=    30.00 Ry     beta= 0.70
     Davidson diagonalization with overlap

     ethr =  1.00E-02,  avg # of iterations =  2.0

     total energy              =    -509.87210732 Ry
     estimated scf accuracy    <       2.74657643 Ry

[...]

     total energy              =    -511.41967551 Ry
     estimated scf accuracy    <       0.00000461 Ry

     iteration # 18     ecut=    30.00 Ry     beta= 0.70
     Davidson diagonalization with overlap

     ethr =  7.32E-09,  avg # of iterations =  5.0

     End of self-consistent calculation

          k = 0.0000 0.0000 0.0000 (   867 PWs)   bands (ev):

   -45.1262 -44.6931 -44.5333 -44.4124 -14.2159 -13.9616 -13.7019 -13.7018
   -13.4927 -13.1851 -13.1850 -13.1400 -13.1399 -13.1293 -13.0148 -13.0148
     0.7321   1.5577   2.8380   9.5692  10.3686  12.2549  12.2549  12.5298
    12.5299  13.3031  13.9867  14.1472  14.1474  17.2736  17.4375  17.9752
    17.9752  18.3476  18.3477  18.9698  19.0793  19.4835

     occupation numbers
     1.0000   1.0000   1.0000   1.0000   1.0000   1.0000   1.0000   1.0000
     1.0000   1.0000   1.0000   1.0000   1.0000   1.0000   1.0000   1.0000
     1.0000   1.0000   1.0000   1.0000   1.0000   1.0000   1.0000   1.0000
     1.0000   1.0000   1.0000   1.0000   1.0000   1.0000   1.0000   0.2509
     0.2491  -0.0000  -0.0000  -0.0000  -0.0000  -0.0000

     the Fermi energy is    17.9710 ev

!    total energy              =    -511.41967566 Ry
     estimated scf accuracy    <       0.00000067 Ry
     smearing contrib. (-TS)   =      -0.00041261 Ry
     internal energy E=F+TS    =    -511.41926305 Ry

     The total energy is F=E-TS. E is the sum of the following terms:
     one-electron contribution =     -64.93609069 Ry
     hartree contribution      =      67.42128244 Ry
     xc contribution           =    -131.28243785 Ry
     ewald contribution        =    -382.62201696 Ry

     convergence has been achieved in  18 iterations

     Forces acting on atoms (cartesian axes, Ry/au):

     atom    1 type  1   force =    -0.05152650   -0.00775341   -0.00455374
     atom    2 type  1   force =    -0.15525022   -0.02339589   -0.01370341
     atom    3 type  1   force =     0.07721741    0.01167142    0.00679913
     atom    4 type  1   force =    -0.00694205   -0.00105462   -0.00063034
     atom    5 type  2   force =     0.14027581    0.02110995    0.01241129
     atom    6 type  2   force =     0.04352505    0.00655750    0.00383348
     atom    7 type  2   force =    -0.04729949   -0.00713494   -0.00415641
     The non-local contrib.  to forces
     atom    1 type  1   force =     0.01334679    0.00198189    0.00120412
     atom    2 type  1   force =    -0.34226972   -0.05154860   -0.03024999
     atom    3 type  1   force =     0.33704413    0.05080384    0.02972776
     atom    4 type  1   force =    -0.00613218   -0.00095465   -0.00051428
     atom    5 type  2   force =    -0.05148666   -0.00776652   -0.00454238
     atom    6 type  2   force =    -0.16889092   -0.02546131   -0.01489190
     atom    7 type  2   force =     0.33756289    0.05084620    0.02982487
     The ionic contribution  to forces
     atom    1 type  1   force =     4.49127407    0.67672333    0.39661878
     atom    2 type  1   force =    13.90312524    2.09485527    1.22777227
     atom    3 type  1   force =   -14.47548897   -2.18109625   -1.27831563
     atom    4 type  1   force =    -3.67952420   -0.55441280   -0.32493537
     atom    5 type  2   force =    -4.83558714   -0.72860274   -0.42702592
     atom    6 type  2   force =     3.98153945    0.59991899    0.35160582
     atom    7 type  2   force =     0.61466155    0.09261421    0.05428006
     The local contribution  to forces
     atom    1 type  1   force =    -4.56365444   -0.68756794   -0.40306649
     atom    2 type  1   force =   -13.72981171   -2.06879359   -1.21241247
     atom    3 type  1   force =    14.23507547    2.14496940    1.25706658
     atom    4 type  1   force =     3.67937690    0.55443554    0.32488575
     atom    5 type  2   force =     5.02617025    0.75724950    0.44389812
     atom    6 type  2   force =    -3.77026580   -0.56810181   -0.33295883
     atom    7 type  2   force =    -0.99633017   -0.15018113   -0.08792935
     The core correction contribution to forces
     atom    1 type  1   force =     0.00721500    0.00109554    0.00062889
     atom    2 type  1   force =     0.01590911    0.00239034    0.00141261
     atom    3 type  1   force =    -0.02072650   -0.00312334   -0.00182402
     atom    4 type  1   force =    -0.00109390   -0.00015805   -0.00010322
     atom    5 type  2   force =     0.00056836    0.00008548    0.00005032
     atom    6 type  2   force =     0.00198048    0.00029854    0.00017462
     atom    7 type  2   force =    -0.00331433   -0.00049930   -0.00029275
     The Hubbard contrib.    to forces
     atom    1 type  1   force =     0.00000000    0.00000000    0.00000000
     atom    2 type  1   force =     0.00000000    0.00000000    0.00000000
     atom    3 type  1   force =     0.00000000    0.00000000    0.00000000
     atom    4 type  1   force =     0.00000000    0.00000000    0.00000000
     atom    5 type  2   force =     0.00000000    0.00000000    0.00000000
     atom    6 type  2   force =     0.00000000    0.00000000    0.00000000
     atom    7 type  2   force =     0.00000000    0.00000000    0.00000000
     The SCF correction term to forces
     atom    1 type  1   force =     0.00029785    0.00000688    0.00006609
     atom    2 type  1   force =    -0.00219737   -0.00030620   -0.00022069
     atom    3 type  1   force =     0.00131907    0.00011089    0.00014958
     atom    4 type  1   force =     0.00043710    0.00002846    0.00004191
     atom    5 type  2   force =     0.00061677    0.00013735    0.00003628
     atom    6 type  2   force =    -0.00083238   -0.00010380   -0.00009108
     atom    7 type  2   force =     0.00012634    0.00007819   -0.00003410

     Total force =     0.241460     Total SCF correction =     0.002858

     Computing stress (Cartesian axis) and pressure

          total   stress  (Ry/bohr**3)                   (kbar)     P=      -56.31
  -0.00137933  -0.00023057  -0.00013308         -202.91      -33.92      -19.58
  -0.00023057   0.00010061  -0.00001730          -33.92       14.80       -2.55
  -0.00013308  -0.00001730   0.00013037          -19.58       -2.55       19.18

     kinetic stress (kbar)  23362.48    -66.68    -39.73
                              -66.68  23797.03     -5.61
                              -39.73     -5.61  23804.25

     local   stress (kbar)   3265.02   1425.31    836.70
                             1425.31  -5986.00    126.20
                              836.70    126.20  -6126.24

     nonloc. stress (kbar)  10706.46     11.37      6.61
                               11.37  10632.93      1.01
                                6.61      1.01  10631.82

     hartree stress (kbar)   2296.37   -675.62   -396.35
                             -675.62   6680.42    -59.82
                             -396.35    -59.82   6746.90

     exc-cor stress (kbar)   8324.19     -0.33     -0.21
                               -0.33   8326.40     -0.03
                               -0.21     -0.03   8326.42

     corecor stress (kbar) -15276.83     -8.17     -4.74
                               -8.17 -15224.01     -0.72
                               -4.74     -0.72 -15223.20

     ewald   stress (kbar) -32880.61   -719.79   -421.86
                             -719.79 -28211.96    -63.56
                             -421.86    -63.56 -28140.76

     hubbard stress (kbar)      0.00      0.00      0.00
                                0.00      0.00      0.00
                                0.00      0.00      0.00

     DFT-D   stress (kbar)      0.00      0.00      0.00
                                0.00      0.00      0.00
                                0.00      0.00      0.00

     XDM     stress (kbar)      0.00      0.00      0.00
                                0.00      0.00      0.00
                                0.00      0.00      0.00

     dft-nl  stress (kbar)      0.00      0.00      0.00
                                0.00      0.00      0.00
                                0.00      0.00      0.00

     TS-vdW  stress (kbar)      0.00      0.00      0.00
                                0.00      0.00      0.00
                                0.00      0.00      0.00

[...]

                                0.00      0.00      0.00

     Writing all to output data dir new_calculations/myprefix.save/

     General routines

     Parallel routines

   This run was terminated on:  18:43:13  21May2023

   JOB DONE.