     Program PWSCF v.7.0 starts on 20May2023 at 22:15:20

     Reading input from espresso_881.pwi
Warning: card &CELL ignored
Warning: card / ignored

     Current dimensions of program PWSCF are:
     Max number of different atomic species (ntypx) = 10
     Max number of k-points (npk) =  40000
     Max angular momentum in pseudopotentials (lmaxx) =  4
     file O.pbe-n-kjpaw_psl.0.1.UPF: wavefunction(s)  2P renormalized

     gamma-point specific algorithms are used
     Message from routine setup:
     using ibrav=0 with symmetry is DISCOURAGED, use correct ibrav instead

     Subspace diagonalization in iterative solution of the eigenvalue problem:
     a serial algorithm will be used

     Using Slab Decomposition

     bravais-lattice index     =            0
     lattice parameter (alat)  =      11.9114  a.u.
     unit-cell volume          =    1043.4955 (a.u.)^3
     number of atoms/cell      =           10
     number of atomic types    =            3
     number of electrons       =       104.00
     number of Kohn-Sham states=           62
     kinetic-energy cutoff     =      30.0000  Ry
     charge density cutoff     =     240.0000  Ry
     scf convergence threshold =      1.0E-06
     mixing beta               =       0.7000
     number of iterations used =            8  plain     mixing
     Exchange-correlation= SLA  PW   PBX  PBC
                           (   1   4   3   4   0   0   0)

     celldm(1)=  11.911352  celldm(2)=   0.000000  celldm(3)=   0.000000
     celldm(4)=   0.000000  celldm(5)=   0.000000  celldm(6)=   0.000000

     crystal axes: (cart. coord. in units of alat)
               a(1) = (   1.000000   0.000000   0.000000 )
               a(2) = (   0.579843   0.814729   0.000000 )
               a(3) = (   0.579843   0.299026   0.757869 )

     reciprocal axes: (cart. coord. in units 2 pi/alat)
               b(1) = (  1.000000 -0.711700 -0.484286 )
               b(2) = (  0.000000  1.227403 -0.484286 )
               b(3) = (  0.000000  0.000000  1.319488 )

     PseudoPot. # 1 for Ag read from file:
     /home/pragov/projects/rrg-bengioy-ad/pragov/crystal_structure_design/SSSP/Ag_ONCV_PBE-1.0.oncvpsp.upf
     MD5 check sum: 94f47bd0669c641108e45594df92fabc
     Pseudo is Norm-conserving, Zval = 19.0
     Generated using ONCVPSP code by D. R. Hamann
     Using radial grid of 1398 points,  6 beta functions with:
                l(1) =   0
                l(2) =   0
                l(3) =   1
                l(4) =   1
                l(5) =   2
                l(6) =   2

     PseudoPot. # 2 for Bi read from file:
     /home/pragov/projects/rrg-bengioy-ad/pragov/crystal_structure_design/SSSP/Bi_pbe_v1.uspp.F.UPF
     MD5 check sum: cceb9f28ec65b6d7ff33140f5b0b1758
     Pseudo is Ultrasoft + core correction, Zval = 15.0
     Generated by new atomic code, or converted to UPF format
     Using radial grid of  899 points,  6 beta functions with:
                l(1) =   0
                l(2) =   0
                l(3) =   1
                l(4) =   1
                l(5) =   2
                l(6) =   2
     Q(r) pseudized with  6 coefficients,  rinner =    1.000   1.000   1.000
                                                       1.000   1.000

     PseudoPot. # 3 for O  read from file:
     /home/pragov/projects/rrg-bengioy-ad/pragov/crystal_structure_design/SSSP/O.pbe-n-kjpaw_psl.0.1.UPF
     MD5 check sum: 0234752ac141de4415c5fc33072bef88
     Pseudo is Projector augmented-wave + core cor, Zval =  6.0
     Generated using "atomic" code by A. Dal Corso  v.5.0.99 svn rev. 10869
     Shape of augmentation charge: BESSEL
     Using radial grid of 1095 points,  4 beta functions with:
                l(1) =   0
                l(2) =   0
                l(3) =   1
                l(4) =   1
     Q(r) pseudized with 0 coefficients

     atomic species   valence    mass     pseudopotential
        Ag            19.00   107.86820     Ag( 1.00)
        Bi            15.00   208.98040     Bi( 1.00)
        O              6.00    15.99900     O ( 1.00)

      2 Sym. Ops., with inversion, found

                                    s                        frac. trans.

      isym =  1     identity

 cryst.   s( 1) = (     1          0          0      )
                  (     0          1          0      )
                  (     0          0          1      )

 cart.    s( 1) = (  1.0000000 -0.0000000  0.0000000 )
                  (  0.0000000  1.0000000 -0.0000000 )
                  (  0.0000000  0.0000000  1.0000000 )

      isym =  2     inversion

 cryst.   s( 2) = (    -1          0          0      )
                  (     0         -1          0      )
                  (     0          0         -1      )

 cart.    s( 2) = ( -1.0000000  0.0000000 -0.0000000 )
                  (  0.0000000 -1.0000000  0.0000000 )
                  (  0.0000000  0.0000000 -1.0000000 )

   Cartesian axes

     site n.     atom                  positions (alat units)
         1           Ag  tau(   1) = (   0.2842361   0.1465813   0.0997432  )
         2           Ag  tau(   2) = (   1.8754489   0.9671735   0.6581262  )
         3           Bi  tau(   3) = (   0.7385950   0.3808952   0.2591853  )
         4           Bi  tau(   4) = (   1.4210900   0.7328595   0.4986842  )
         5           O   tau(   5) = (   0.9036059   0.5949952   0.0454972  )
         6           O   tau(   6) = (   1.2560792   0.5187596   0.7123723  )
         7           O   tau(   7) = (   1.1509764   0.9278561   0.4106788  )
         8           O   tau(   8) = (   1.4233359   0.5287264   0.2210970  )
         9           O   tau(   9) = (   0.7363491   0.5850283   0.5367724  )
        10           O   tau(  10) = (   1.0087087   0.1858987   0.3471906  )

   Crystallographic axes

     site n.     atom                  positions (cryst. coord.)
         1           Ag  tau(   1) = (  0.1316100  0.1316100  0.1316100  )
         2           Ag  tau(   2) = (  0.8683900  0.8683900  0.8683900  )
         3           Bi  tau(   3) = (  0.3419920  0.3419920  0.3419920  )
         4           Bi  tau(   4) = (  0.6580080  0.6580080  0.6580080  )
         5           O   tau(   5) = (  0.4581140  0.7082650  0.0600330  )
         6           O   tau(   6) = (  0.5418860  0.2917350  0.9399670  )
         7           O   tau(   7) = (  0.2917350  0.9399670  0.5418860  )
         8           O   tau(   8) = (  0.9399670  0.5418860  0.2917350  )
         9           O   tau(   9) = (  0.0600330  0.4581140  0.7082650  )
        10           O   tau(  10) = (  0.7082650  0.0600330  0.4581140  )

     number of k points=     1  Methfessel-Paxton smearing, width (Ry)=  0.0010
                       cart. coord. in units 2pi/alat
        k(    1) = (   0.0000000   0.0000000   0.0000000), wk =   2.0000000

                       cryst. coord.
        k(    1) = (   0.0000000   0.0000000   0.0000000), wk =   2.0000000

     Check: negative core charge=   -0.000012

     Initial potential from superposition of free atoms

     starting charge     101.9993, renormalised to     104.0000

     negative rho (up, down):  8.755E-02 0.000E+00
     Starting wfcs are   62 randomized atomic wfcs
     Checking if some PAW data can be deallocated...

     Self-consistent Calculation

     iteration #  1     ecut=    30.00 Ry     beta= 0.70
     Davidson diagonalization with overlap

     ethr =  1.00E-02,  avg # of iterations =  3.0

     negative rho (up, down):  8.265E-02 0.000E+00

     total energy              =   -1189.25158256 Ry
     estimated scf accuracy    <       6.35108601 Ry

[...]

     ethr =  2.49E-04,  avg # of iterations =  1.0
     Minimization algorithm failed to find Fermi energy: reverting to bisection
     Possible cause: smearing is larger than the electronic band-gap.

[...]

     total energy              =   -1193.82160150 Ry
     estimated scf accuracy    <       0.00000171 Ry

     iteration # 83     ecut=    30.00 Ry     beta= 0.70
     Davidson diagonalization with overlap

     ethr =  1.18E-09,  avg # of iterations =  1.0

[...]

     End of self-consistent calculation

          k = 0.0000 0.0000 0.0000 (  1461 PWs)   bands (ev):

   -82.7530 -82.7527 -45.8027 -45.8026 -45.7989 -45.7989 -45.7496 -45.7496
   -13.7274 -13.7274 -13.5778 -13.5778 -13.3989 -13.3357 -13.3357 -13.3051
   -13.3051 -13.3007 -10.0900  -8.5457  -8.3585  -8.3585  -7.6656  -7.6656
    -1.5406   0.3888   3.7603   3.9289   3.9289   4.4390   4.4390   5.4815
     5.4815   5.4926   5.4926   5.8878   5.9801   6.0527   6.0527   6.2073
     6.4119   6.7355   6.7355   7.1870   7.1870   7.4151   7.4151   7.6166
     7.7578   8.2311   8.2311   8.2330   8.2330  10.5153  12.9559  13.2752
    15.4770  15.4911  15.4911  15.9891  15.9891  16.6007

     occupation numbers
     1.0000   1.0000   1.0000   1.0000   1.0000   1.0000   1.0000   1.0000
     1.0000   1.0000   1.0000   1.0000   1.0000   1.0000   1.0000   1.0000
     1.0000   1.0000   1.0000   1.0000   1.0000   1.0000   1.0000   1.0000
     1.0000   1.0000   1.0000   1.0000   1.0000   1.0000   1.0000   1.0000
     1.0000   1.0000   1.0000   1.0000   1.0000   1.0000   1.0000   1.0000
     1.0000   1.0000   1.0000   1.0000   1.0000   1.0000   1.0000   1.0000
     1.0000   0.8001   0.7998   0.7008   0.6994  -0.0000  -0.0000  -0.0000
    -0.0000  -0.0000  -0.0000  -0.0000  -0.0000  -0.0000

     the Fermi energy is     8.2363 ev

!    total energy              =   -1193.82160139 Ry
     estimated scf accuracy    <       0.00000017 Ry
     smearing contrib. (-TS)   =      -0.00081133 Ry
     internal energy E=F+TS    =   -1193.82079006 Ry

     The total energy is F=E-TS. E is the sum of the following terms:
     one-electron contribution =    -471.33632955 Ry
     hartree contribution      =     291.02226321 Ry
     xc contribution           =    -227.62492247 Ry
     ewald contribution        =    -728.62968867 Ry
     one-center paw contrib.   =     -57.25211258 Ry
      -> PAW hartree energy AE =     169.04227205 Ry
      -> PAW hartree energy PS =    -168.49796902 Ry
      -> PAW xc energy AE      =    -101.73213473 Ry
      -> PAW xc energy PS      =      43.93571912 Ry
      -> total E_H with PAW    =     291.56656624 Ry
      -> total E_XC with PAW   =    -285.42133808 Ry

     convergence has been achieved in  83 iterations

     negative rho (up, down):  8.859E-02 0.000E+00

     Forces acting on atoms (cartesian axes, Ry/au):

     atom    1 type  1   force =    -0.01099381   -0.00566473   -0.00388920
     atom    2 type  1   force =     0.01099381    0.00566473    0.00388920
     atom    3 type  2   force =     0.00771372    0.00388271    0.00287367
     atom    4 type  2   force =    -0.00771372   -0.00388271   -0.00287367
     atom    5 type  3   force =     0.00051175    0.03062040   -0.00782305
     atom    6 type  3   force =    -0.00051175   -0.03062040    0.00782305
     atom    7 type  3   force =    -0.02526716    0.01365323    0.01325892
     atom    8 type  3   force =    -0.00351707    0.00191638   -0.03137825
     atom    9 type  3   force =     0.00351707   -0.00191638    0.03137825
     atom   10 type  3   force =     0.02526716   -0.01365323   -0.01325892
     The non-local contrib.  to forces
     atom    1 type  1   force =     0.07329439    0.03786775    0.02571396
     atom    2 type  1   force =    -0.07329439   -0.03786775   -0.02571396
     atom    3 type  2   force =    -0.05647015   -0.02923902   -0.01961264
     atom    4 type  2   force =     0.05647015    0.02923902    0.01961264
     atom    5 type  3   force =    -0.32077393   -0.19376217   -0.08984724
     atom    6 type  3   force =     0.32077393    0.19376217    0.08984724
     atom    7 type  3   force =     0.34400158    0.13814967    0.10550421
     atom    8 type  3   force =     0.31198337    0.17198110    0.14722513
     atom    9 type  3   force =    -0.31198337   -0.17198110   -0.14722513
     atom   10 type  3   force =    -0.34400158   -0.13814967   -0.10550421
     The ionic contribution  to forces
     atom    1 type  1   force =    -2.65368111   -1.36850855   -0.93121891
     atom    2 type  1   force =     2.65368111    1.36850855    0.93121891
     atom    3 type  2   force =     5.01027443    2.58381078    1.75818725
     atom    4 type  2   force =    -5.01027443   -2.58381078   -1.75818725
     atom    5 type  3   force =     2.00672434    1.26719813    2.82746872
     atom    6 type  3   force =    -2.00672434   -1.26719813   -2.82746872
     atom    7 type  3   force =    -2.19600955   -2.96052357    0.20041474
     atom    8 type  3   force =    -3.68536330    0.15981517   -0.14100974
     atom    9 type  3   force =     3.68536330   -0.15981516    0.14100974
     atom   10 type  3   force =     2.19600955    2.96052357   -0.20041474
     The local contribution  to forces
     atom    1 type  1   force =     2.56974230    1.32490379    0.90129523
     atom    2 type  1   force =    -2.56929479   -1.32481982   -0.90145713
     atom    3 type  2   force =    -4.94946092   -2.55216935   -1.73715766
     atom    4 type  2   force =     4.94899303    2.55203724    1.73722658
     atom    5 type  3   force =    -1.68811251   -1.04352413   -2.74619522
     atom    6 type  3   force =     1.68830231    1.04361145    2.74611436
     atom    7 type  3   force =     1.82880691    2.83736528   -0.29112575
     atom    8 type  3   force =     3.37232992   -0.32827609   -0.03710888
     atom    9 type  3   force =    -3.37217020    0.32831572    0.03731596
     atom   10 type  3   force =    -1.82889855   -2.83742222    0.29118843
     The core correction contribution to forces
     atom    1 type  1   force =     0.00000000    0.00000000    0.00000000
     atom    2 type  1   force =     0.00000000    0.00000000    0.00000000
     atom    3 type  2   force =     0.00316610    0.00163288    0.00111341
     atom    4 type  2   force =    -0.00316539   -0.00163059   -0.00111271
     atom    5 type  3   force =     0.00272811    0.00067529    0.00074552
     atom    6 type  3   force =    -0.00272550   -0.00067429   -0.00074613
     atom    7 type  3   force =    -0.00213349   -0.00136388   -0.00142724
     atom    8 type  3   force =    -0.00234638   -0.00168039   -0.00035188
     atom    9 type  3   force =     0.00234824    0.00168073    0.00035479
     atom   10 type  3   force =     0.00213261    0.00136381    0.00142709
     The Hubbard contrib.    to forces
     atom    1 type  1   force =     0.00000000    0.00000000    0.00000000
     atom    2 type  1   force =     0.00000000    0.00000000    0.00000000
     atom    3 type  2   force =     0.00000000    0.00000000    0.00000000
     atom    4 type  2   force =     0.00000000    0.00000000    0.00000000
     atom    5 type  3   force =     0.00000000    0.00000000    0.00000000
     atom    6 type  3   force =     0.00000000    0.00000000    0.00000000
     atom    7 type  3   force =     0.00000000    0.00000000    0.00000000
     atom    8 type  3   force =     0.00000000    0.00000000    0.00000000
     atom    9 type  3   force =     0.00000000    0.00000000    0.00000000
     atom   10 type  3   force =     0.00000000    0.00000000    0.00000000
     The SCF correction term to forces
     atom    1 type  1   force =    -0.00035034    0.00010970    0.00029773
     atom    2 type  1   force =    -0.00009907   -0.00011881   -0.00018140
     atom    3 type  2   force =     0.00018502   -0.00015264    0.00034389
     atom    4 type  2   force =     0.00024368    0.00028235   -0.00041234
     atom    5 type  3   force =     0.00002327    0.00007448   -0.00001013
     atom    6 type  3   force =    -0.00006063   -0.00008041    0.00006100
     atom    7 type  3   force =     0.00005646    0.00002196   -0.00011617
     atom    8 type  3   force =    -0.00005796    0.00008570   -0.00004650
     atom    9 type  3   force =     0.00002181   -0.00010746    0.00000928
     atom   10 type  3   force =     0.00001420    0.00002751    0.00003540

     Total force =     0.080638     Total SCF correction =     0.000911

     Computing stress (Cartesian axis) and pressure

     negative rho (up, down):  8.859E-02 0.000E+00
          total   stress  (Ry/bohr**3)                   (kbar)     P=     -612.96
  -0.00439154  -0.00021641  -0.00014621         -646.02      -31.84      -21.51
  -0.00021641  -0.00408507  -0.00007622          -31.84     -600.93      -11.21
  -0.00014621  -0.00007622  -0.00402377          -21.51      -11.21     -591.92

     kinetic stress (kbar)  30292.93    138.30     93.78
                              138.30  30096.39     48.78
                               93.78     48.78  30057.27

     local   stress (kbar)  -8965.23   1903.15   1295.75
                             1903.15 -11675.22    667.47
                             1295.75    667.47 -12200.80

     nonloc. stress (kbar)   7850.28    -31.87    -21.62
                              -31.87   7895.57    -11.19
                              -21.62    -11.19   7904.52

     hartree stress (kbar)  12970.53   -676.82   -460.86
                             -676.82  13934.48   -237.40
                             -460.86   -237.40  14121.38

     exc-cor stress (kbar)   6697.97     -1.64     -1.12
                               -1.64   6700.30     -0.57
                               -1.12     -0.57   6700.75

     corecor stress (kbar) -13834.08      0.12      0.08
                                0.12 -13834.25      0.04
                                0.08      0.04 -13834.28

     ewald   stress (kbar) -35658.42  -1363.08   -927.53
                            -1363.08 -33718.21   -478.33
                             -927.53   -478.33 -33340.76

     hubbard stress (kbar)      0.00      0.00      0.00
                                0.00      0.00      0.00
                                0.00      0.00      0.00

     DFT-D   stress (kbar)      0.00      0.00      0.00
                                0.00      0.00      0.00
                                0.00      0.00      0.00

     XDM     stress (kbar)      0.00      0.00      0.00
                                0.00      0.00      0.00
                                0.00      0.00      0.00

     dft-nl  stress (kbar)      0.00      0.00      0.00
                                0.00      0.00      0.00
                                0.00      0.00      0.00

     TS-vdW  stress (kbar)      0.00      0.00      0.00
                                0.00      0.00      0.00
                                0.00      0.00      0.00

[...]

                                0.00      0.00      0.00

     Writing all to output data dir new_calculations/myprefix.save/

     General routines

     Parallel routines

     PAW routines

   This run was terminated on:  22:16:20  20May2023

   JOB DONE.