     Program PWSCF v.7.0 starts on 21May2023 at  6:41:31

     Reading input from espresso_18959.pwi
Warning: card &CELL ignored
Warning: card / ignored

     Current dimensions of program PWSCF are:
     Max number of different atomic species (ntypx) = 10
     Max number of k-points (npk) =  40000
     Max angular momentum in pseudopotentials (lmaxx) =  4

     gamma-point specific algorithms are used
     Message from routine setup:
     using ibrav=0 with symmetry is DISCOURAGED, use correct ibrav instead

     Subspace diagonalization in iterative solution of the eigenvalue problem:
     a serial algorithm will be used

     Using Slab Decomposition

     bravais-lattice index     =            0
     lattice parameter (alat)  =      10.5656  a.u.
     unit-cell volume          =     540.7907 (a.u.)^3
     number of atoms/cell      =            5
     number of atomic types    =            3
     number of electrons       =        45.00
     number of Kohn-Sham states=           28
     kinetic-energy cutoff     =      30.0000  Ry
     charge density cutoff     =     240.0000  Ry
     scf convergence threshold =      1.0E-06
     mixing beta               =       0.7000
     number of iterations used =            8  plain     mixing
     Exchange-correlation= PBE
                           (   1   4   3   4   0   0   0)

     celldm(1)=  10.565582  celldm(2)=   0.000000  celldm(3)=   0.000000
     celldm(4)=   0.000000  celldm(5)=   0.000000  celldm(6)=   0.000000

     crystal axes: (cart. coord. in units of alat)
               a(1) = (   1.000000   0.000000   0.000000 )
               a(2) = (   0.464108   0.885779   0.000000 )
               a(3) = (  -0.732054  -0.442889   0.517635 )

     reciprocal axes: (cart. coord. in units 2 pi/alat)
               b(1) = (  1.000000 -0.523955  0.965931 )
               b(2) = (  0.000000  1.128950  0.965931 )
               b(3) = (  0.000000  0.000000  1.931863 )

     PseudoPot. # 1 for Sm read from file:
     /home/pragov/projects/rrg-bengioy-ad/pragov/crystal_structure_design/SSSP/Sm.GGA-PBE-paw-v1.0.UPF
     MD5 check sum: 886f70968969f895acf876f5617e0641
     Pseudo is Projector augmented-wave + core cor, Zval = 16.0
     Generated using ATOMPAW code
     Shape of augmentation charge: BESSEL
     Using radial grid of 1107 points,  8 beta functions with:
                l(1) =   0
                l(2) =   0
                l(3) =   1
                l(4) =   1
                l(5) =   2
                l(6) =   2
                l(7) =   3
                l(8) =   3
     Q(r) pseudized with 0 coefficients

     PseudoPot. # 2 for Co read from file:
     /home/pragov/projects/rrg-bengioy-ad/pragov/crystal_structure_design/SSSP/Co_pbe_v1.2.uspp.F.UPF
     MD5 check sum: 5f91765df6ddd3222702df6e7b74a16d
     Pseudo is Ultrasoft + core correction, Zval = 17.0
     Generated by new atomic code, or converted to UPF format
     Using radial grid of  863 points,  6 beta functions with:
                l(1) =   0
                l(2) =   0
                l(3) =   1
                l(4) =   1
                l(5) =   2
                l(6) =   2
     Q(r) pseudized with  8 coefficients,  rinner =    1.200   1.200   1.200
                                                       1.200   1.200

     PseudoPot. # 3 for Si read from file:
     /home/pragov/projects/rrg-bengioy-ad/pragov/crystal_structure_design/SSSP/Si.pbe-n-rrkjus_psl.1.0.0.UPF
     MD5 check sum: 0b0bb1205258b0d07b9f9672cf965d36
     Pseudo is Ultrasoft + core correction, Zval =  4.0
     Generated using "atomic" code by A. Dal Corso  v.5.1
     Using radial grid of 1141 points,  6 beta functions with:
                l(1) =   0
                l(2) =   0
                l(3) =   1
                l(4) =   1
                l(5) =   2
                l(6) =   2
     Q(r) pseudized with 0 coefficients

     atomic species   valence    mass     pseudopotential
        Sm            16.00   150.36000     Sm( 1.00)
        Co            17.00    58.93319     Co( 1.00)
        Si             4.00    28.08500     Si( 1.00)

      2 Sym. Ops. (no inversion) found

                                    s                        frac. trans.

      isym =  1     identity

 cryst.   s( 1) = (     1          0          0      )
                  (     0          1          0      )
                  (     0          0          1      )

 cart.    s( 1) = (  1.0000000  0.0000000 -0.0000000 )
                  (  0.0000000  1.0000000  0.0000000 )
                  (  0.0000000  0.0000000  1.0000000 )

      isym =  2     inv. 180 deg rotation - cart. axis [0,0,1]

 cryst.   s( 2) = (     1          0          0      )
                  (     0          1          0      )
                  (    -1         -1         -1      )

 cart.    s( 2) = (  1.0000000  0.0000000  0.0000000 )
                  (  0.0000000  1.0000000  0.0000000 )
                  (  0.0000000  0.0000000 -1.0000000 )

   Cartesian axes

     site n.     atom                  positions (alat units)
         1           Sm  tau(   1) = (   0.0068125   0.0041215   0.0000000  )
         2           Co  tau(   2) = (   0.9681750   0.5857415   0.0000000  )
         3           Si  tau(   3) = (   0.5159558   0.0096532   0.2588175  )
         4           Si  tau(   4) = (   0.2480098   0.4525426   0.2588175  )
         5           Si  tau(   5) = (   0.6255811   0.3784737   0.0000000  )

   Crystallographic axes

     site n.     atom                  positions (cryst. coord.)
         1           Sm  tau(   1) = (  0.0046530  0.0046530  0.0000000  )
         2           Co  tau(   2) = (  0.6612730  0.6612730  0.0000000  )
         3           Si  tau(   3) = (  0.7608980  0.2608980  0.5000000  )
         4           Si  tau(   4) = (  0.2608980  0.7608980  0.5000000  )
         5           Si  tau(   5) = (  0.4272780  0.4272780  0.0000000  )

     number of k points=     1  Methfessel-Paxton smearing, width (Ry)=  0.0010
                       cart. coord. in units 2pi/alat
        k(    1) = (   0.0000000   0.0000000   0.0000000), wk =   2.0000000

                       cryst. coord.
        k(    1) = (   0.0000000   0.0000000   0.0000000), wk =   2.0000000

     Check: negative core charge=   -0.000006

     Initial potential from superposition of free atoms

     starting charge      43.9927, renormalised to      45.0000
     Starting wfcs are   57 randomized atomic wfcs
     Checking if some PAW data can be deallocated...

     Self-consistent Calculation

     iteration #  1     ecut=    30.00 Ry     beta= 0.70
     Davidson diagonalization with overlap

     ethr =  1.00E-02,  avg # of iterations =  3.0

     total energy              =    -931.99513554 Ry
     estimated scf accuracy    <       5.51108333 Ry

[...]

     total energy              =    -936.66456743 Ry
     estimated scf accuracy    <       0.00000121 Ry

     iteration # 62     ecut=    30.00 Ry     beta= 0.70
     Davidson diagonalization with overlap

     ethr =  2.68E-09,  avg # of iterations =  2.0

     End of self-consistent calculation

          k = 0.0000 0.0000 0.0000 (   738 PWs)   bands (ev):

   -82.0443 -45.5798 -45.5767 -44.7363 -26.2938  -6.2647  -5.8546  -5.8514
     1.0238   6.6879   7.6401   8.6269   8.6382   8.9475  10.5075  10.7742
    11.3885  11.9535  11.9963  12.6850  12.6953  12.8788  12.8792  13.0065
    13.0353  13.3784  14.0168  14.1855

     occupation numbers
     1.0000   1.0000   1.0000   1.0000   1.0000   1.0000   1.0000   1.0000
     1.0000   1.0000   1.0000   1.0000   1.0000   1.0000   1.0000   1.0000
     1.0000   1.0000   1.0000   1.0000   1.0000   0.7602   0.7398  -0.0000
    -0.0000  -0.0000  -0.0000  -0.0000

     the Fermi energy is    12.8833 ev

!    total energy              =    -936.66456637 Ry
     estimated scf accuracy    <       0.00000066 Ry
     smearing contrib. (-TS)   =      -0.00041233 Ry
     internal energy E=F+TS    =    -936.66415404 Ry

     The total energy is F=E-TS. E is the sum of the following terms:
     one-electron contribution =    -296.89595953 Ry
     hartree contribution      =     179.03502398 Ry
     xc contribution           =     -69.47698690 Ry
     ewald contribution        =    -299.61456573 Ry
     one-center paw contrib.   =    -449.71166587 Ry
      -> PAW hartree energy AE =     129.30176498 Ry
      -> PAW hartree energy PS =    -126.42588825 Ry
      -> PAW xc energy AE      =    -469.56109738 Ry
      -> PAW xc energy PS      =      16.97355478 Ry
      -> total E_H with PAW    =     181.91090071 Ry
      -> total E_XC with PAW   =    -522.06452950 Ry

     convergence has been achieved in  62 iterations

     Forces acting on atoms (cartesian axes, Ry/au):

     atom    1 type  1   force =    -0.05719166   -0.03576384   -0.00000000
     atom    2 type  2   force =    -0.07129950   -0.04266178   -0.00000000
     atom    3 type  3   force =     0.05615573    0.03396366   -0.00269961
     atom    4 type  3   force =     0.05615573    0.03396366    0.00269961
     atom    5 type  3   force =     0.01617971    0.01049831    0.00000000
     The non-local contrib.  to forces
     atom    1 type  1   force =    -0.05194283    0.02836455   -0.00000000
     atom    2 type  2   force =     0.44976579    0.24018762    0.00000000
     atom    3 type  3   force =    -0.03222956   -0.01799719    0.00092533
     atom    4 type  3   force =    -0.03222956   -0.01799719   -0.00092533
     atom    5 type  3   force =    -0.03552507   -0.01235400   -0.00000000
     The ionic contribution  to forces
     atom    1 type  1   force =    -2.83743968   -1.71663823   -0.00000000
     atom    2 type  2   force =     0.84931396    0.51383112   -0.00000000
     atom    3 type  3   force =     2.83583632    1.71566821    0.00000000
     atom    4 type  3   force =     2.83583632    1.71566821    0.00000000
     atom    5 type  3   force =    -3.68354692   -2.22852930    0.00000000
     The local contribution  to forces
     atom    1 type  1   force =     2.83195781    1.65217567    0.00297401
     atom    2 type  2   force =    -1.36262394   -0.79262572   -0.00102519
     atom    3 type  3   force =    -2.75094631   -1.66599975   -0.00341021
     atom    4 type  3   force =    -2.75056493   -1.66552217    0.00343880
     atom    5 type  3   force =     3.73078259    2.24961799    0.00002535
     The core correction contribution to forces
     atom    1 type  1   force =    -0.00001130   -0.00000959    0.00000009
     atom    2 type  2   force =    -0.00769051   -0.00408801   -0.00001521
     atom    3 type  3   force =     0.00339334    0.00199574   -0.00018180
     atom    4 type  3   force =     0.00367169    0.00210243    0.00020674
     atom    5 type  3   force =     0.00452763    0.00167876    0.00005086
     The Hubbard contrib.    to forces
     atom    1 type  1   force =     0.00000000    0.00000000    0.00000000
     atom    2 type  2   force =     0.00000000    0.00000000    0.00000000
     atom    3 type  3   force =     0.00000000    0.00000000    0.00000000
     atom    4 type  3   force =     0.00000000    0.00000000    0.00000000
     atom    5 type  3   force =     0.00000000    0.00000000    0.00000000
     The SCF correction term to forces
     atom    1 type  1   force =     0.00037996    0.00028861   -0.00000982
     atom    2 type  2   force =     0.00007082   -0.00002194   -0.00006019
     atom    3 type  3   force =    -0.00009467   -0.00004796   -0.00000469
     atom    4 type  3   force =    -0.00008993   -0.00005332    0.00000764
     atom    5 type  3   force =     0.00007710    0.00002972    0.00000223

     Total force =     0.143018     Total SCF correction =     0.000516

     Computing stress (Cartesian axis) and pressure

          total   stress  (Ry/bohr**3)                   (kbar)     P=     -155.76
  -0.00175986  -0.00068698  -0.00000000         -258.88     -101.06       -0.00
  -0.00068698  -0.00085864  -0.00000000         -101.06     -126.31       -0.00
  -0.00000000  -0.00000000  -0.00055801           -0.00       -0.00      -82.09

     kinetic stress (kbar)  13147.11     26.96      0.00
                               26.96  13135.50      0.00
                                0.00      0.00  13128.06

     local   stress (kbar)  -5307.40   1229.26     -0.13
                             1229.26  -6552.35     -1.83
                               -0.13     -1.83  -7315.47

     nonloc. stress (kbar)   9213.90     85.41      0.00
                               85.41   9107.60      0.00
                                0.00      0.00   9038.95

     hartree stress (kbar)  15576.88   -737.40      0.11
                             -737.40  16333.71      1.00
                                0.11      1.00  16790.25

     exc-cor stress (kbar)  -1514.70      1.85     -0.01
                                1.85  -1516.78      0.04
                               -0.01      0.04  -1517.73

     corecor stress (kbar)  -3571.06      0.09      0.03
                                0.09  -3571.51      0.00
                                0.03      0.00  -3571.55

     ewald   stress (kbar) -27803.61   -707.25      0.00
                             -707.25 -27062.48      0.00
                                0.00      0.00 -26634.60

     hubbard stress (kbar)      0.00      0.00      0.00
                                0.00      0.00      0.00
                                0.00      0.00      0.00

     DFT-D   stress (kbar)      0.00      0.00      0.00
                                0.00      0.00      0.00
                                0.00      0.00      0.00

     XDM     stress (kbar)      0.00      0.00      0.00
                                0.00      0.00      0.00
                                0.00      0.00      0.00

     dft-nl  stress (kbar)      0.00      0.00      0.00
                                0.00      0.00      0.00
                                0.00      0.00      0.00

     TS-vdW  stress (kbar)      0.00      0.00      0.00
                                0.00      0.00      0.00
                                0.00      0.00      0.00

[...]

                                0.00      0.00      0.00

     Writing all to output data dir new_calculations/myprefix.save/

     General routines

     Parallel routines

     PAW routines

   This run was terminated on:   6:42:33  21May2023

   JOB DONE.