     Program PWSCF v.7.0 starts on 21May2023 at  5:29: 1

     Reading input from espresso_16880.pwi
Warning: card &CELL ignored
Warning: card / ignored

     Current dimensions of program PWSCF are:
     Max number of different atomic species (ntypx) = 10
     Max number of k-points (npk) =  40000
     Max angular momentum in pseudopotentials (lmaxx) =  4
     file In.pbe-dn-rrkjus_psl.0.2.2.UPF: wavefunction(s)  5S renormalized

     gamma-point specific algorithms are used
     Message from routine setup:
     using ibrav=0 with symmetry is DISCOURAGED, use correct ibrav instead

     Subspace diagonalization in iterative solution of the eigenvalue problem:
     a serial algorithm will be used

     Using Slab Decomposition

     bravais-lattice index     =            0
     lattice parameter (alat)  =       8.8480  a.u.
     unit-cell volume          =    1816.1502 (a.u.)^3
     number of atoms/cell      =           11
     number of atomic types    =            3
     number of electrons       =       149.00
     number of Kohn-Sham states=           90
     kinetic-energy cutoff     =      30.0000  Ry
     charge density cutoff     =     240.0000  Ry
     scf convergence threshold =      1.0E-06
     mixing beta               =       0.7000
     number of iterations used =            8  plain     mixing
     Exchange-correlation= SLA  PW   PBE  PBE
                           (   1   4   3   4   0   0   0)

     celldm(1)=   8.847981  celldm(2)=   0.000000  celldm(3)=   0.000000
     celldm(4)=   0.000000  celldm(5)=   0.000000  celldm(6)=   0.000000

     crystal axes: (cart. coord. in units of alat)
               a(1) = (   1.000000   0.000000   0.000000 )
               a(2) = (   0.000000   1.000000   0.000000 )
               a(3) = (   0.000000   0.000000   2.621919 )

     reciprocal axes: (cart. coord. in units 2 pi/alat)
               b(1) = (  1.000000  0.000000  0.000000 )
               b(2) = (  0.000000  1.000000  0.000000 )
               b(3) = (  0.000000  0.000000  0.381400 )

     PseudoPot. # 1 for Nd read from file:
     /home/pragov/projects/rrg-bengioy-ad/pragov/crystal_structure_design/SSSP/Nd.GGA-PBE-paw-v1.0.UPF
     MD5 check sum: 1d1e94942b6eb1cde76049b71bb7dcb0
     Pseudo is Projector augmented-wave + core cor, Zval = 14.0
     Generated using ATOMPAW code
     Shape of augmentation charge: BESSEL
     Using radial grid of 1105 points,  8 beta functions with:
                l(1) =   0
                l(2) =   0
                l(3) =   1
                l(4) =   1
                l(5) =   2
                l(6) =   2
                l(7) =   3
                l(8) =   3
     Q(r) pseudized with 0 coefficients

     PseudoPot. # 2 for In read from file:
     /home/pragov/projects/rrg-bengioy-ad/pragov/crystal_structure_design/SSSP/In.pbe-dn-rrkjus_psl.0.2.2.UPF
     MD5 check sum: 25e7c42c3b55b68f4bf926be2e7201a4
     Pseudo is Ultrasoft + core correction, Zval = 13.0
     Generated using "atomic" code by A. Dal Corso  v.5.0.99 svn rev. 10869
     Using radial grid of 1241 points,  6 beta functions with:
                l(1) =   0
                l(2) =   0
                l(3) =   1
                l(4) =   1
                l(5) =   2
                l(6) =   2
     Q(r) pseudized with 0 coefficients

     PseudoPot. # 3 for Co read from file:
     /home/pragov/projects/rrg-bengioy-ad/pragov/crystal_structure_design/SSSP/Co_pbe_v1.2.uspp.F.UPF
     MD5 check sum: 5f91765df6ddd3222702df6e7b74a16d
     Pseudo is Ultrasoft + core correction, Zval = 17.0
     Generated by new atomic code, or converted to UPF format
     Using radial grid of  863 points,  6 beta functions with:
                l(1) =   0
                l(2) =   0
                l(3) =   1
                l(4) =   1
                l(5) =   2
                l(6) =   2
     Q(r) pseudized with  8 coefficients,  rinner =    1.200   1.200   1.200
                                                       1.200   1.200

     atomic species   valence    mass     pseudopotential
        Nd            14.00   144.24200     Nd( 1.00)
        In            13.00   114.81800     In( 1.00)
        Co            17.00    58.93319     Co( 1.00)

     16 Sym. Ops., with inversion, found

                                    s                        frac. trans.

      isym =  1     identity

 cryst.   s( 1) = (     1          0          0      )
                  (     0          1          0      )
                  (     0          0          1      )

 cart.    s( 1) = (  1.0000000  0.0000000  0.0000000 )
                  (  0.0000000  1.0000000  0.0000000 )
                  (  0.0000000  0.0000000  1.0000000 )

      isym =  2     180 deg rotation - cart. axis [0,0,1]

[...]

      isym =  8      90 deg rotation - cart. axis [0,0,1]

[...]

      isym =  9     inversion

 cryst.   s( 9) = (    -1          0          0      )
                  (     0         -1          0      )
                  (     0          0         -1      )

 cart.    s( 9) = ( -1.0000000  0.0000000  0.0000000 )
                  (  0.0000000 -1.0000000  0.0000000 )
                  (  0.0000000  0.0000000 -1.0000000 )

      isym = 10     inv. 180 deg rotation - cart. axis [0,0,1]

 cryst.   s(10) = (     1          0          0      )
                  (     0          1          0      )
                  (     0          0         -1      )

 cart.    s(10) = (  1.0000000  0.0000000  0.0000000 )
                  (  0.0000000  1.0000000  0.0000000 )
                  (  0.0000000  0.0000000 -1.0000000 )

[...]

      isym = 16     inv.  90 deg rotation - cart. axis [0,0,1]

 cryst.   s(16) = (     0         -1          0      )
                  (     1          0          0      )
                  (     0          0         -1      )

 cart.    s(16) = (  0.0000000  1.0000000  0.0000000 )
                  ( -1.0000000  0.0000000  0.0000000 )
                  (  0.0000000  0.0000000 -1.0000000 )

   Cartesian axes

     site n.     atom                  positions (alat units)
         1           Nd  tau(   1) = (   0.0000000   0.0000000   1.8231956  )
         2           Nd  tau(   2) = (   0.0000000   0.0000000   0.7987229  )
         3           In  tau(   3) = (   0.5000000   0.0000000   2.3161609  )
         4           In  tau(   4) = (   0.0000000   0.5000000   2.3161609  )
         5           In  tau(   5) = (   0.5000000   0.0000000   0.3057577  )
         6           In  tau(   6) = (   0.0000000   0.5000000   0.3057577  )
         7           In  tau(   7) = (   0.5000000   0.0000000   1.3109593  )
         8           In  tau(   8) = (   0.0000000   0.5000000   1.3109593  )
         9           In  tau(   9) = (   0.5000000   0.5000000   1.8233241  )
        10           In  tau(  10) = (   0.5000000   0.5000000   0.7985944  )
        11           Co  tau(  11) = (   0.0000000   0.0000000   0.0000000  )

   Crystallographic axes

     site n.     atom                  positions (cryst. coord.)
         1           Nd  tau(   1) = (  0.0000000  0.0000000  0.6953670  )
         2           Nd  tau(   2) = (  0.0000000  0.0000000  0.3046330  )
         3           In  tau(   3) = (  0.5000000  0.0000000  0.8833840  )
         4           In  tau(   4) = (  0.0000000  0.5000000  0.8833840  )
         5           In  tau(   5) = (  0.5000000  0.0000000  0.1166160  )
         6           In  tau(   6) = (  0.0000000  0.5000000  0.1166160  )
         7           In  tau(   7) = (  0.5000000  0.0000000  0.5000000  )
         8           In  tau(   8) = (  0.0000000  0.5000000  0.5000000  )
         9           In  tau(   9) = (  0.5000000  0.5000000  0.6954160  )
        10           In  tau(  10) = (  0.5000000  0.5000000  0.3045840  )
        11           Co  tau(  11) = (  0.0000000  0.0000000  0.0000000  )

     number of k points=     1  Methfessel-Paxton smearing, width (Ry)=  0.0010
                       cart. coord. in units 2pi/alat
        k(    1) = (   0.0000000   0.0000000   0.0000000), wk =   2.0000000

                       cryst. coord.
        k(    1) = (   0.0000000   0.0000000   0.0000000), wk =   2.0000000

     Check: negative core charge=   -0.000002

     Initial potential from superposition of free atoms

     starting charge     147.9579, renormalised to     149.0000
     Starting wfcs are  149 randomized atomic wfcs
     Checking if some PAW data can be deallocated...

     Self-consistent Calculation

     iteration #  1     ecut=    30.00 Ry     beta= 0.70
     Davidson diagonalization with overlap

     ethr =  1.00E-02,  avg # of iterations =  3.0

     total energy              =   -2496.22303366 Ry
     estimated scf accuracy    <      42.17675684 Ry

[...]

     total energy              =   -2531.26357091 Ry
     estimated scf accuracy    <       0.00000166 Ry

     iteration # 50     ecut=    30.00 Ry     beta= 0.70
     Davidson diagonalization with overlap

     ethr =  9.11E-10,  avg # of iterations =  1.0

     End of self-consistent calculation

          k = 0.0000 0.0000 0.0000 (  2533 PWs)   bands (ev):

   -83.3585 -46.6552 -46.6312 -46.6312 -25.3545 -25.3537  -6.8073  -6.7644
    -6.6680  -6.6680  -6.6625  -6.6624  -3.2329  -3.1919  -3.1919  -3.1832
    -3.1798  -3.1765  -3.1740  -3.1740  -3.1513  -3.1387  -3.1110  -3.0247
    -2.9982  -2.9795  -2.9432  -2.9363  -2.9363  -2.8921  -2.8288  -2.8288
    -2.7223  -2.7223  -2.7197  -2.6737  -2.6601  -2.6471  -2.6470  -2.5085
    -2.4915  -2.4775  -2.2372  -2.1419  -2.1354  -2.0756  -2.0756  -1.9696
    -1.9696  -1.9488  -1.8782  -1.7287   2.3948   3.8605   3.9169   6.8769
     6.9634   7.4263   9.3826   9.3826   9.5066   9.6868   9.6956   9.7232
     9.7232  10.1660  10.7697  10.7697  10.8721  11.1803  11.2505  11.5965
    11.5965  11.6205  11.6790  11.6790  11.8047  11.8048  11.9462  11.9749
    11.9764  12.0441  12.1520  12.2475  12.2475  12.3879  12.3879  13.1331
    13.1859  13.7984

     occupation numbers
     1.0000   1.0000   1.0000   1.0000   1.0000   1.0000   1.0000   1.0000
     1.0000   1.0000   1.0000   1.0000   1.0000   1.0000   1.0000   1.0000
     1.0000   1.0000   1.0000   1.0000   1.0000   1.0000   1.0000   1.0000
     1.0000   1.0000   1.0000   1.0000   1.0000   1.0000   1.0000   1.0000
     1.0000   1.0000   1.0000   1.0000   1.0000   1.0000   1.0000   1.0000
     1.0000   1.0000   1.0000   1.0000   1.0000   1.0000   1.0000   1.0000
     1.0000   1.0000   1.0000   1.0000   1.0000   1.0000   1.0000   1.0000
     1.0000   1.0000   1.0000   1.0000   1.0000   1.0000   1.0000   1.0000
     1.0000   1.0000   1.0000   1.0000   1.0000   1.0000   1.0000   1.0000
     1.0000   1.0000   0.2507   0.2493  -0.0000  -0.0000  -0.0000  -0.0000
    -0.0000  -0.0000  -0.0000  -0.0000  -0.0000  -0.0000  -0.0000  -0.0000
    -0.0000  -0.0000

     the Fermi energy is    11.6747 ev

!    total energy              =   -2531.26357048 Ry
     estimated scf accuracy    <       0.00000049 Ry
     smearing contrib. (-TS)   =      -0.00041261 Ry
     internal energy E=F+TS    =   -2531.26315787 Ry

     The total energy is F=E-TS. E is the sum of the following terms:
     one-electron contribution =    -670.28481049 Ry
     hartree contribution      =     466.06251597 Ry
     xc contribution           =    -441.91534223 Ry
     ewald contribution        =   -1024.99256730 Ry
     one-center paw contrib.   =    -860.13295382 Ry
      -> PAW hartree energy AE =     163.80128502 Ry
      -> PAW hartree energy PS =    -163.04283351 Ry
      -> PAW xc energy AE      =    -886.10316537 Ry
      -> PAW xc energy PS      =      25.21176004 Ry
      -> total E_H with PAW    =     466.82096748 Ry
      -> total E_XC with PAW   =   -1302.80674757 Ry

     convergence has been achieved in  50 iterations

     Forces acting on atoms (cartesian axes, Ry/au):

     atom    1 type  1   force =     0.00000000    0.00000000    0.01456451
     atom    2 type  1   force =     0.00000000    0.00000000   -0.01456451
     atom    3 type  2   force =     0.00000000    0.00000000   -0.02511793
     atom    4 type  2   force =     0.00000000    0.00000000   -0.02511793
     atom    5 type  2   force =     0.00000000    0.00000000    0.02511793
     atom    6 type  2   force =     0.00000000    0.00000000    0.02511793
     atom    7 type  2   force =     0.00000000    0.00000000    0.00000000
     atom    8 type  2   force =     0.00000000    0.00000000    0.00000000
     atom    9 type  2   force =     0.00000000    0.00000000   -0.02161611
     atom   10 type  2   force =     0.00000000    0.00000000    0.02161611
     atom   11 type  3   force =     0.00000000    0.00000000    0.00000000
     The non-local contrib.  to forces
     atom    1 type  1   force =     0.00000000    0.00000000    0.29471605
     atom    2 type  1   force =     0.00000000    0.00000000   -0.29471605
     atom    3 type  2   force =     0.00000000    0.00000000    0.17514471
     atom    4 type  2   force =     0.00000000    0.00000000    0.17514471
     atom    5 type  2   force =     0.00000000    0.00000000   -0.17514471
     atom    6 type  2   force =     0.00000000    0.00000000   -0.17514471
     atom    7 type  2   force =     0.00000000    0.00000000    0.00000000
     atom    8 type  2   force =     0.00000000    0.00000000    0.00000000
     atom    9 type  2   force =     0.00000000    0.00000000    0.03830207
     atom   10 type  2   force =     0.00000000    0.00000000   -0.03830207
     atom   11 type  3   force =     0.00000000    0.00000000    0.00000000
     The ionic contribution  to forces
     atom    1 type  1   force =    -0.00000000   -0.00000000  -12.47638841
     atom    2 type  1   force =    -0.00000000    0.00000000   12.47638841
     atom    3 type  2   force =    -0.00000000    0.00000000  -14.27327799
     atom    4 type  2   force =     0.00000000   -0.00000000  -14.27327799
     atom    5 type  2   force =     0.00000000   -0.00000000   14.27327799
     atom    6 type  2   force =    -0.00000000   -0.00000000   14.27327799
     atom    7 type  2   force =    -0.00000000    0.00000000    0.00000000
     atom    8 type  2   force =     0.00000000   -0.00000000    0.00000000
     atom    9 type  2   force =     0.00000000    0.00000000   -9.73616971
     atom   10 type  2   force =     0.00000000    0.00000000    9.73616971
     atom   11 type  3   force =    -0.00000000   -0.00000000   -0.00000000
     The local contribution  to forces
     atom    1 type  1   force =    -0.00006732    0.00003527   12.19580572
     atom    2 type  1   force =     0.00005093    0.00003347  -12.19585221
     atom    3 type  2   force =    -0.00002559   -0.00000397   14.06805546
     atom    4 type  2   force =     0.00000125   -0.00001335   14.06805901
     atom    5 type  2   force =     0.00003129   -0.00000260  -14.06788558
     atom    6 type  2   force =     0.00000077    0.00000644  -14.06788357
     atom    7 type  2   force =     0.00001604    0.00001389   -0.00022325
     atom    8 type  2   force =    -0.00000606   -0.00001352   -0.00022510
     atom    9 type  2   force =     0.00002339   -0.00000883    9.67263277
     atom   10 type  2   force =    -0.00001313   -0.00002086   -9.67255123
     atom   11 type  3   force =    -0.00000081    0.00000109    0.00001959
     The core correction contribution to forces
     atom    1 type  1   force =    -0.00000001    0.00000001   -0.00002166
     atom    2 type  1   force =     0.00000001    0.00000000    0.00002165
     atom    3 type  2   force =    -0.00000061   -0.00000027    0.00461825
     atom    4 type  2   force =    -0.00000034   -0.00000001    0.00461823
     atom    5 type  2   force =     0.00000083   -0.00000009   -0.00462316
     atom    6 type  2   force =     0.00000003   -0.00000014   -0.00462324
     atom    7 type  2   force =     0.00000039    0.00000004    0.00000231
     atom    8 type  2   force =     0.00000043    0.00000046    0.00000230
     atom    9 type  2   force =     0.00000077   -0.00000021    0.00322433
     atom   10 type  2   force =    -0.00000146   -0.00000087   -0.00322338
     atom   11 type  3   force =    -0.00000004    0.00000003   -0.00000040
     The Hubbard contrib.    to forces
     atom    1 type  1   force =     0.00000000    0.00000000    0.00000000
     atom    2 type  1   force =     0.00000000    0.00000000    0.00000000
     atom    3 type  2   force =     0.00000000    0.00000000    0.00000000
     atom    4 type  2   force =     0.00000000    0.00000000    0.00000000
     atom    5 type  2   force =     0.00000000    0.00000000    0.00000000
     atom    6 type  2   force =     0.00000000    0.00000000    0.00000000
     atom    7 type  2   force =     0.00000000    0.00000000    0.00000000
     atom    8 type  2   force =     0.00000000    0.00000000    0.00000000
     atom    9 type  2   force =     0.00000000    0.00000000    0.00000000
     atom   10 type  2   force =     0.00000000    0.00000000    0.00000000
     atom   11 type  3   force =     0.00000000    0.00000000    0.00000000
     The SCF correction term to forces
     atom    1 type  1   force =     0.00003239   -0.00001689    0.00042921
     atom    2 type  1   force =    -0.00000965   -0.00002279   -0.00042991
     atom    3 type  2   force =     0.00002297    0.00000131    0.00035545
     atom    4 type  2   force =    -0.00000883    0.00001220    0.00034928
     atom    5 type  2   force =    -0.00002700    0.00000230   -0.00049313
     atom    6 type  2   force =     0.00000335   -0.00000448   -0.00049705
     atom    7 type  2   force =    -0.00002202   -0.00002231    0.00020949
     atom    8 type  2   force =     0.00001012    0.00002982    0.00020937
     atom    9 type  2   force =    -0.00001652    0.00000430    0.00038056
     atom   10 type  2   force =    -0.00001346    0.00001934   -0.00049080
     atom   11 type  3   force =    -0.00001338    0.00000070    0.00002619

     Total force =     0.062309     Total SCF correction =     0.001260

     Computing stress (Cartesian axis) and pressure

          total   stress  (Ry/bohr**3)                   (kbar)     P=      -13.34
   0.00016368   0.00000000   0.00000000           24.08        0.00        0.00
   0.00000000   0.00016368   0.00000000            0.00       24.08        0.00
   0.00000000   0.00000000  -0.00059933            0.00        0.00      -88.16

     kinetic stress (kbar)  16908.19      0.00      0.00
                                0.00  16908.19      0.00
                                0.00      0.00  16738.34

     local   stress (kbar)  -3546.86      0.32     -0.08
                                0.32  -3546.87     -0.04
                               -0.08     -0.04   1984.57

     nonloc. stress (kbar)   6395.62      0.00      0.00
                                0.00   6395.62      0.00
                                0.00      0.00   6397.39

     hartree stress (kbar)  13588.41     -0.08      0.02
                               -0.08  13588.42      0.01
                                0.02      0.01  10573.44

     exc-cor stress (kbar)  12674.91     -0.00     -0.00
                               -0.00  12674.91      0.00
                               -0.00      0.00  12676.36

     corecor stress (kbar) -19142.83      0.00     -0.00
                                0.00 -19142.83     -0.00
                               -0.00     -0.00 -19142.30

     ewald   stress (kbar) -26853.35     -0.00      0.00
                               -0.00 -26853.35      0.00
                                0.00      0.00 -29315.95

     hubbard stress (kbar)      0.00      0.00      0.00
                                0.00      0.00      0.00
                                0.00      0.00      0.00

     DFT-D   stress (kbar)      0.00      0.00      0.00
                                0.00      0.00      0.00
                                0.00      0.00      0.00

     XDM     stress (kbar)      0.00      0.00      0.00
                                0.00      0.00      0.00
                                0.00      0.00      0.00

     dft-nl  stress (kbar)      0.00      0.00      0.00
                                0.00      0.00      0.00
                                0.00      0.00      0.00

     TS-vdW  stress (kbar)      0.00      0.00      0.00
                                0.00      0.00      0.00
                                0.00      0.00      0.00

[...]

                                0.00      0.00      0.00

     Writing all to output data dir new_calculations/myprefix.save/

     General routines

     Parallel routines

     PAW routines

   This run was terminated on:   5:31:33  21May2023

   JOB DONE.