     Program PWSCF v.7.0 starts on 21May2023 at  1:14:50

     Reading input from espresso_22359.pwi
Warning: card &CELL ignored
Warning: card / ignored

     Current dimensions of program PWSCF are:
     Max number of different atomic species (ntypx) = 10
     Max number of k-points (npk) =  40000
     Max angular momentum in pseudopotentials (lmaxx) =  4
     file In.pbe-dn-rrkjus_psl.0.2.2.UPF: wavefunction(s)  5S renormalized

     gamma-point specific algorithms are used
     Message from routine setup:
     using ibrav=0 with symmetry is DISCOURAGED, use correct ibrav instead

     Subspace diagonalization in iterative solution of the eigenvalue problem:
     a serial algorithm will be used

     Using Slab Decomposition

     bravais-lattice index     =            0
     lattice parameter (alat)  =      11.8249  a.u.
     unit-cell volume          =    1169.1664 (a.u.)^3
     number of atoms/cell      =           10
     number of atomic types    =            3
     number of electrons       =        50.00
     number of Kohn-Sham states=           30
     kinetic-energy cutoff     =      30.0000  Ry
     charge density cutoff     =     240.0000  Ry
     scf convergence threshold =      1.0E-06
     mixing beta               =       0.7000
     number of iterations used =            8  plain     mixing
     Exchange-correlation= PBE
                           (   1   4   3   4   0   0   0)

     celldm(1)=  11.824890  celldm(2)=   0.000000  celldm(3)=   0.000000
     celldm(4)=   0.000000  celldm(5)=   0.000000  celldm(6)=   0.000000

     crystal axes: (cart. coord. in units of alat)
               a(1) = (   1.000000   0.000000   0.000000 )
               a(2) = (   0.500000   0.866025   0.000000 )
               a(3) = (   0.500000   0.288675   0.816497 )

     reciprocal axes: (cart. coord. in units 2 pi/alat)
               b(1) = (  1.000000 -0.577350 -0.408248 )
               b(2) = (  0.000000  1.154701 -0.408248 )
               b(3) = (  0.000000  0.000000  1.224745 )

     PseudoPot. # 1 for Rb read from file:
     /home/pragov/projects/rrg-bengioy-ad/pragov/crystal_structure_design/SSSP/Rb_ONCV_PBE-1.0.oncvpsp.upf
     MD5 check sum: 55a5172d6bfbce6759a58e35d43f6aa9
     Pseudo is Norm-conserving, Zval =  9.0
     Generated using ONCVPSP code by D. R. Hamann
     Using radial grid of 2308 points,  6 beta functions with:
                l(1) =   0
                l(2) =   0
                l(3) =   1
                l(4) =   1
                l(5) =   2
                l(6) =   2

     PseudoPot. # 2 for In read from file:
     /home/pragov/projects/rrg-bengioy-ad/pragov/crystal_structure_design/SSSP/In.pbe-dn-rrkjus_psl.0.2.2.UPF
     MD5 check sum: 25e7c42c3b55b68f4bf926be2e7201a4
     Pseudo is Ultrasoft + core correction, Zval = 13.0
     Generated using "atomic" code by A. Dal Corso  v.5.0.99 svn rev. 10869
     Using radial grid of 1241 points,  6 beta functions with:
                l(1) =   0
                l(2) =   0
                l(3) =   1
                l(4) =   1
                l(5) =   2
                l(6) =   2
     Q(r) pseudized with 0 coefficients

     PseudoPot. # 3 for H  read from file:
     /home/pragov/projects/rrg-bengioy-ad/pragov/crystal_structure_design/SSSP/H.pbe-rrkjus_psl.1.0.0.UPF
     MD5 check sum: f52b6d4d1c606e5624b1dc7b2218f220
     Pseudo is Ultrasoft, Zval =  1.0
     Generated using "atomic" code by A. Dal Corso  v.5.1
     Using radial grid of  929 points,  2 beta functions with:
                l(1) =   0
                l(2) =   0
     Q(r) pseudized with 0 coefficients

     atomic species   valence    mass     pseudopotential
        Rb             9.00    85.46780     Rb( 1.00)
        In            13.00   114.81800     In( 1.00)
        H              1.00     1.00800     H ( 1.00)

     12 Sym. Ops., with inversion, found

                                    s                        frac. trans.

      isym =  1     identity

 cryst.   s( 1) = (     1          0          0      )
                  (     0          1          0      )
                  (     0          0          1      )

 cart.    s( 1) = (  1.0000000  0.0000000  0.0000000 )
                  (  0.0000000  1.0000000 -0.0000000 )
                  (  0.0000000  0.0000000  1.0000000 )

      isym =  2     180 deg rotation - cart. axis [1,0,0]

[...]

      isym =  3     120 deg rotation - cryst. axis [0,0,1]

[...]

      isym =  6     180 deg rotation - cryst. axis [1,1,0]

[...]

      isym =  7     inversion

[...]

      isym =  8     inv. 180 deg rotation - cart. axis [1,0,0]

[...]

      isym =  9     inv. 120 deg rotation - cryst. axis [0,0,1]

 cryst.   s( 9) = (     1         -1          0      )
                  (     1          0          0      )
                  (     1          0         -1      )

 cart.    s( 9) = (  0.5000000  0.8660254  0.0000000 )
                  ( -0.8660254  0.5000000 -0.0000000 )
                  (  0.0000000  0.0000000 -1.0000000 )

[...]

 cryst.   s(10) = (     0          1          0      )
                  (    -1          1          0      )
                  (     0          1         -1      )

 cart.    s(10) = (  0.5000000 -0.8660254  0.0000000 )
                  (  0.8660254  0.5000000  0.0000000 )
                  (  0.0000000  0.0000000 -1.0000000 )

[...]

      isym = 12     inv. 180 deg rotation - cryst. axis [1,1,0]

 cryst.   s(12) = (     1         -1          0      )
                  (     0         -1          0      )
                  (     0         -1          1      )

 cart.    s(12) = (  0.5000000 -0.8660254  0.0000000 )
                  ( -0.8660254 -0.5000000 -0.0000000 )
                  (  0.0000000  0.0000000  1.0000000 )

   Cartesian axes

     site n.     atom                  positions (alat units)
         1           Rb  tau(   1) = (   0.5000000   0.2886751   0.2041241  )
         2           Rb  tau(   2) = (   1.5000000   0.8660254   0.6123724  )
         3           In  tau(   3) = (   0.0000000   0.0000000   0.0000000  )
         4           In  tau(   4) = (   1.0000000   0.5773503   0.4082483  )
         5           H   tau(   5) = (   1.0000000   0.8947105   0.6326558  )
         6           H   tau(   6) = (   0.7251580   0.7360304   0.1838407  )
         7           H   tau(   7) = (   1.2748420   0.4186702   0.6326558  )
         8           H   tau(   8) = (   1.2748420   0.7360304   0.1838407  )
         9           H   tau(   9) = (   0.7251580   0.4186702   0.6326558  )
        10           H   tau(  10) = (   1.0000000   0.2599901   0.1838407  )

   Crystallographic axes

     site n.     atom                  positions (cryst. coord.)
         1           Rb  tau(   1) = (  0.2500000  0.2500000  0.2500000  )
         2           Rb  tau(   2) = (  0.7500000  0.7500000  0.7500000  )
         3           In  tau(   3) = (  0.0000000  0.0000000  0.0000000  )
         4           In  tau(   4) = (  0.5000000  0.5000000  0.5000000  )
         5           H   tau(   5) = (  0.2251580  0.7748420  0.7748420  )
         6           H   tau(   6) = (  0.2251580  0.7748420  0.2251580  )
         7           H   tau(   7) = (  0.7748420  0.2251580  0.7748420  )
         8           H   tau(   8) = (  0.7748420  0.7748420  0.2251580  )
         9           H   tau(   9) = (  0.2251580  0.2251580  0.7748420  )
        10           H   tau(  10) = (  0.7748420  0.2251580  0.2251580  )

     number of k points=     1  Methfessel-Paxton smearing, width (Ry)=  0.0010
                       cart. coord. in units 2pi/alat
        k(    1) = (   0.0000000   0.0000000   0.0000000), wk =   2.0000000

                       cryst. coord.
        k(    1) = (   0.0000000   0.0000000   0.0000000), wk =   2.0000000

     Initial potential from superposition of free atoms

     starting charge      49.9430, renormalised to      50.0000
     Starting wfcs are   34 randomized atomic wfcs

     Self-consistent Calculation

     iteration #  1     ecut=    30.00 Ry     beta= 0.70
     Davidson diagonalization with overlap

     ethr =  1.00E-02,  avg # of iterations =  2.0

     total energy              =    -394.43640007 Ry
     estimated scf accuracy    <       0.54722990 Ry

[...]

     total energy              =    -394.57643636 Ry
     estimated scf accuracy    <       0.00001216 Ry

     iteration #  6     ecut=    30.00 Ry     beta= 0.70
     Davidson diagonalization with overlap

     ethr =  2.43E-08,  avg # of iterations =  2.0

     End of self-consistent calculation

          k = 0.0000 0.0000 0.0000 (  1644 PWs)   bands (ev):

   -22.3430 -22.3182  -9.5335  -9.5334  -9.5334  -9.5259  -9.5258  -8.9553
    -8.9551  -8.8229  -8.8228  -8.8227  -6.4527  -6.4527  -6.4526  -6.3347
    -6.3347  -6.3346  -2.5630   1.2574   1.2600   1.2614   1.2616   3.8938
     3.8949   7.3069   7.3072   7.3073   9.5685   9.7282

     occupation numbers
     1.0000   1.0000   1.0000   1.0000   1.0000   1.0000   1.0000   1.0000
     1.0000   1.0000   1.0000   1.0000   1.0000   1.0000   1.0000   1.0000
     1.0000   1.0000   1.0000   1.0000   1.0000   1.0000   1.0000   1.0000
     1.0000  -0.0000  -0.0000  -0.0000  -0.0000  -0.0000

     the Fermi energy is     5.8213 ev

!    total energy              =    -394.57643977 Ry
     estimated scf accuracy    <       0.00000056 Ry
     smearing contrib. (-TS)   =       0.00000000 Ry
     internal energy E=F+TS    =    -394.57643977 Ry

     The total energy is F=E-TS. E is the sum of the following terms:
     one-electron contribution =    -160.07768896 Ry
     hartree contribution      =     105.78994606 Ry
     xc contribution           =    -114.36795854 Ry
     ewald contribution        =    -225.92073833 Ry

     convergence has been achieved in   6 iterations

     Forces acting on atoms (cartesian axes, Ry/au):

     atom    1 type  1   force =    -0.00000000    0.00000000    0.00000417
     atom    2 type  1   force =     0.00000000    0.00000000   -0.00000417
     atom    3 type  2   force =    -0.00000000   -0.00000000   -0.00000000
     atom    4 type  2   force =    -0.00000000    0.00000000   -0.00000000
     atom    5 type  3   force =     0.00000000   -0.02338257   -0.01653416
     atom    6 type  3   force =     0.02024990   -0.01169128    0.01653416
     atom    7 type  3   force =    -0.02024990    0.01169128   -0.01653416
     atom    8 type  3   force =    -0.02024990   -0.01169128    0.01653416
     atom    9 type  3   force =     0.02024990    0.01169128   -0.01653416
     atom   10 type  3   force =     0.00000000    0.02338257    0.01653416
     The non-local contrib.  to forces
     atom    1 type  1   force =     0.00000000    0.00000000    0.00001141
     atom    2 type  1   force =    -0.00000000   -0.00000000   -0.00001141
     atom    3 type  2   force =     0.00000000    0.00000000    0.00000000
     atom    4 type  2   force =     0.00000000    0.00000000   -0.00000000
     atom    5 type  3   force =     0.00000000    0.00467146    0.00330283
     atom    6 type  3   force =    -0.00404560    0.00233573   -0.00330283
     atom    7 type  3   force =     0.00404560   -0.00233573    0.00330283
     atom    8 type  3   force =     0.00404560    0.00233573   -0.00330283
     atom    9 type  3   force =    -0.00404560   -0.00233573    0.00330283
     atom   10 type  3   force =     0.00000000   -0.00467146   -0.00330283
     The ionic contribution  to forces
     atom    1 type  1   force =     0.00000000    0.00000000    0.00000000
     atom    2 type  1   force =    -0.00000000   -0.00000000    0.00000000
     atom    3 type  2   force =     0.00000000    0.00000000   -0.00000000
     atom    4 type  2   force =    -0.00000000   -0.00000000   -0.00000000
     atom    5 type  3   force =     0.00000000   -0.54024345   -0.38200981
     atom    6 type  3   force =     0.46786455   -0.27012173    0.38200981
     atom    7 type  3   force =    -0.46786455    0.27012173   -0.38200981
     atom    8 type  3   force =    -0.46786455   -0.27012173    0.38200981
     atom    9 type  3   force =     0.46786455    0.27012173   -0.38200981
     atom   10 type  3   force =    -0.00000000    0.54024345    0.38200981
     The local contribution  to forces
     atom    1 type  1   force =     0.00018053   -0.00013781    0.00017753
     atom    2 type  1   force =    -0.00003313    0.00015263    0.00012091
     atom    3 type  2   force =     0.00000383    0.00027885    0.00073287
     atom    4 type  2   force =    -0.00034833   -0.00036929   -0.00172837
     atom    5 type  3   force =     0.00001067    0.51219586    0.36215144
     atom    6 type  3   force =    -0.44353476    0.25608427   -0.36215581
     atom    7 type  3   force =     0.44356286   -0.25610275    0.36218047
     atom    8 type  3   force =     0.44353597    0.25611389   -0.36215147
     atom    9 type  3   force =    -0.44355071   -0.25610011    0.36214470
     atom   10 type  3   force =    -0.00002338   -0.51216916   -0.36213432
     The core correction contribution to forces
     atom    1 type  1   force =     0.00000000    0.00000000    0.00000000
     atom    2 type  1   force =     0.00000000    0.00000000    0.00000000
     atom    3 type  2   force =    -0.00000300    0.00000704    0.00000856
     atom    4 type  2   force =    -0.00000634   -0.00000986   -0.00004049
     atom    5 type  3   force =     0.00000000    0.00000000    0.00000000
     atom    6 type  3   force =     0.00000000    0.00000000    0.00000000
     atom    7 type  3   force =     0.00000000    0.00000000    0.00000000
     atom    8 type  3   force =     0.00000000    0.00000000    0.00000000
     atom    9 type  3   force =     0.00000000    0.00000000    0.00000000
     atom   10 type  3   force =     0.00000000    0.00000000    0.00000000
     The Hubbard contrib.    to forces
     atom    1 type  1   force =     0.00000000    0.00000000    0.00000000
     atom    2 type  1   force =     0.00000000    0.00000000    0.00000000
     atom    3 type  2   force =     0.00000000    0.00000000    0.00000000
     atom    4 type  2   force =     0.00000000    0.00000000    0.00000000
     atom    5 type  3   force =     0.00000000    0.00000000    0.00000000
     atom    6 type  3   force =     0.00000000    0.00000000    0.00000000
     atom    7 type  3   force =     0.00000000    0.00000000    0.00000000
     atom    8 type  3   force =     0.00000000    0.00000000    0.00000000
     atom    9 type  3   force =     0.00000000    0.00000000    0.00000000
     atom   10 type  3   force =     0.00000000    0.00000000    0.00000000
     The SCF correction term to forces
     atom    1 type  1   force =    -0.00023815    0.00018815   -0.00023731
     atom    2 type  1   force =     0.00006955   -0.00023702   -0.00016621
     atom    3 type  2   force =     0.00007324   -0.00041930   -0.00092517
     atom    4 type  2   force =     0.00043572    0.00045090    0.00209788
     atom    5 type  3   force =    -0.00000610   -0.00000786    0.00001618
     atom    6 type  3   force =    -0.00003578    0.00001310   -0.00002246
     atom    7 type  3   force =     0.00000151    0.00001029   -0.00000563
     atom    8 type  3   force =     0.00003613   -0.00001299   -0.00002617
     atom    9 type  3   force =    -0.00001270    0.00000670    0.00002810
     atom   10 type  3   force =     0.00002021   -0.00002407   -0.00003138

     Total force =     0.070148     Total SCF correction =     0.002465

     Computing stress (Cartesian axis) and pressure

          total   stress  (Ry/bohr**3)                   (kbar)     P=      -46.92
  -0.00031898   0.00000000  -0.00000000          -46.92        0.00       -0.00
   0.00000000  -0.00031898   0.00000000            0.00      -46.92        0.00
   0.00000000   0.00000000  -0.00031900            0.00        0.00      -46.93

     kinetic stress (kbar)   7664.52      0.00     -0.00
                                0.00   7664.52     -0.00
                                0.00      0.00   7664.52

     local   stress (kbar)  -1016.82     -0.04      0.06
                               -0.04  -1016.77      0.01
                                0.06      0.01  -1016.82

     nonloc. stress (kbar)   1010.68     -0.00      0.00
                                0.00   1010.68     -0.00
                                0.00      0.00   1010.69

     hartree stress (kbar)   4436.86      0.03     -0.05
                                0.03   4436.83     -0.01
                               -0.05     -0.01   4436.85

     exc-cor stress (kbar)   4698.08      0.00     -0.00
                                0.00   4698.08      0.00
                               -0.00      0.00   4698.08

     corecor stress (kbar)  -7365.10     -0.00      0.00
                               -0.00  -7365.10     -0.00
                                0.00     -0.00  -7365.10

     ewald   stress (kbar)  -9475.15      0.00      0.00
                                0.00  -9475.15     -0.00
                                0.00     -0.00  -9475.15

     hubbard stress (kbar)      0.00      0.00      0.00
                                0.00      0.00      0.00
                                0.00      0.00      0.00

     DFT-D   stress (kbar)      0.00      0.00      0.00
                                0.00      0.00      0.00
                                0.00      0.00      0.00

     XDM     stress (kbar)      0.00      0.00      0.00
                                0.00      0.00      0.00
                                0.00      0.00      0.00

     dft-nl  stress (kbar)      0.00      0.00      0.00
                                0.00      0.00      0.00
                                0.00      0.00      0.00

     TS-vdW  stress (kbar)      0.00      0.00      0.00
                                0.00      0.00      0.00
                                0.00      0.00      0.00

[...]

                                0.00      0.00      0.00

     Writing all to output data dir new_calculations/myprefix.save/

     General routines

     Parallel routines

   This run was terminated on:   1:14:56  21May2023

   JOB DONE.