     Program PWSCF v.7.0 starts on 20May2023 at 23:35:24

     Reading input from espresso_6612.pwi
Warning: card &CELL ignored
Warning: card / ignored

     Current dimensions of program PWSCF are:
     Max number of different atomic species (ntypx) = 10
     Max number of k-points (npk) =  40000
     Max angular momentum in pseudopotentials (lmaxx) =  4

     gamma-point specific algorithms are used
     Message from routine setup:
     using ibrav=0 with symmetry is DISCOURAGED, use correct ibrav instead

     Subspace diagonalization in iterative solution of the eigenvalue problem:
     a serial algorithm will be used

     Using Slab Decomposition

     bravais-lattice index     =            0
     lattice parameter (alat)  =      14.4481  a.u.
     unit-cell volume          =    2132.6510 (a.u.)^3
     number of atoms/cell      =           10
     number of atomic types    =            4
     number of electrons       =        96.00
     number of Kohn-Sham states=           58
     kinetic-energy cutoff     =      30.0000  Ry
     charge density cutoff     =     240.0000  Ry
     scf convergence threshold =      1.0E-06
     mixing beta               =       0.7000
     number of iterations used =            8  plain     mixing
     Exchange-correlation=  SLA  PW   PBX  PBC
                           (   1   4   3   4   0   0   0)

     celldm(1)=  14.448129  celldm(2)=   0.000000  celldm(3)=   0.000000
     celldm(4)=   0.000000  celldm(5)=   0.000000  celldm(6)=   0.000000

     crystal axes: (cart. coord. in units of alat)
               a(1) = (   1.000000   0.000000   0.000000 )
               a(2) = (   0.500000   0.866025   0.000000 )
               a(3) = (   0.500000   0.288675   0.816497 )

     reciprocal axes: (cart. coord. in units 2 pi/alat)
               b(1) = (  1.000000 -0.577350 -0.408248 )
               b(2) = (  0.000000  1.154701 -0.408248 )
               b(3) = (  0.000000  0.000000  1.224745 )

     PseudoPot. # 1 for Rb read from file:
     /home/pragov/projects/rrg-bengioy-ad/pragov/crystal_structure_design/SSSP/Rb_ONCV_PBE-1.0.oncvpsp.upf
     MD5 check sum: 55a5172d6bfbce6759a58e35d43f6aa9
     Pseudo is Norm-conserving, Zval =  9.0
     Generated using ONCVPSP code by D. R. Hamann
     Using radial grid of 2308 points,  6 beta functions with:
                l(1) =   0
                l(2) =   0
                l(3) =   1
                l(4) =   1
                l(5) =   2
                l(6) =   2

     PseudoPot. # 2 for Eu read from file:
     /home/pragov/projects/rrg-bengioy-ad/pragov/crystal_structure_design/SSSP/Eu.GGA-PBE-paw-v1.0.UPF
     MD5 check sum: acec5fd9176fb57ec8e299eae1ecaf48
     Pseudo is Projector augmented-wave + core cor, Zval = 17.0
     Generated using ATOMPAW code
     Shape of augmentation charge: BESSEL
     Using radial grid of 1109 points,  8 beta functions with:
                l(1) =   0
                l(2) =   0
                l(3) =   1
                l(4) =   1
                l(5) =   2
                l(6) =   2
                l(7) =   3
                l(8) =   3
     Q(r) pseudized with 0 coefficients

     PseudoPot. # 3 for Ag read from file:
     /home/pragov/projects/rrg-bengioy-ad/pragov/crystal_structure_design/SSSP/Ag_ONCV_PBE-1.0.oncvpsp.upf
     MD5 check sum: 94f47bd0669c641108e45594df92fabc
     Pseudo is Norm-conserving, Zval = 19.0
     Generated using ONCVPSP code by D. R. Hamann
     Using radial grid of 1398 points,  6 beta functions with:
                l(1) =   0
                l(2) =   0
                l(3) =   1
                l(4) =   1
                l(5) =   2
                l(6) =   2

     PseudoPot. # 4 for Cl read from file:
     /home/pragov/projects/rrg-bengioy-ad/pragov/crystal_structure_design/SSSP/cl_pbe_v1.4.uspp.F.UPF
     MD5 check sum: fc6f6913ecf08c9257cb748ef0700058
     Pseudo is Ultrasoft + core correction, Zval =  7.0
     Generated by new atomic code, or converted to UPF format
     Using radial grid of  909 points,  6 beta functions with:
                l(1) =   0
                l(2) =   0
                l(3) =   1
                l(4) =   1
                l(5) =   2
                l(6) =   2
     Q(r) pseudized with  8 coefficients,  rinner =    1.300   1.300   1.300
                                                       1.300   1.300

     atomic species   valence    mass     pseudopotential
        Rb             9.00    85.46780     Rb( 1.00)
        Eu            17.00   151.96400     Eu( 1.00)
        Ag            19.00   107.86820     Ag( 1.00)
        Cl             7.00    35.45000     Cl( 1.00)

     12 Sym. Ops., with inversion, found

                                    s                        frac. trans.

      isym =  1     identity

 cryst.   s( 1) = (     1          0          0      )
                  (     0          1          0      )
                  (     0          0          1      )

 cart.    s( 1) = (  1.0000000  0.0000000  0.0000000 )
                  (  0.0000000  1.0000000  0.0000000 )
                  (  0.0000000  0.0000000  1.0000000 )

      isym =  2     180 deg rotation - cart. axis [1,0,0]

[...]

      isym =  3     120 deg rotation - cryst. axis [0,0,1]

[...]

      isym =  6     180 deg rotation - cryst. axis [1,1,0]

[...]

      isym =  7     inversion

[...]

      isym =  8     inv. 180 deg rotation - cart. axis [1,0,0]

[...]

      isym =  9     inv. 120 deg rotation - cryst. axis [0,0,1]

 cryst.   s( 9) = (     1         -1          0      )
                  (     1          0          0      )
                  (     1          0         -1      )

 cart.    s( 9) = (  0.5000000  0.8660254  0.0000000 )
                  ( -0.8660254  0.5000000  0.0000000 )
                  (  0.0000000  0.0000000 -1.0000000 )

[...]

 cryst.   s(10) = (     0          1          0      )
                  (    -1          1          0      )
                  (     0          1         -1      )

 cart.    s(10) = (  0.5000000 -0.8660254 -0.0000000 )
                  (  0.8660254  0.5000000  0.0000000 )
                  (  0.0000000  0.0000000 -1.0000000 )

[...]

      isym = 12     inv. 180 deg rotation - cryst. axis [1,1,0]

 cryst.   s(12) = (     1         -1          0      )
                  (     0         -1          0      )
                  (     0         -1          1      )

 cart.    s(12) = (  0.5000000 -0.8660254 -0.0000000 )
                  ( -0.8660254 -0.5000000 -0.0000000 )
                  (  0.0000000  0.0000000  1.0000000 )

   Cartesian axes

     site n.     atom                  positions (alat units)
         1           Rb  tau(   1) = (   1.5000000   0.8660254   0.6123724  )
         2           Rb  tau(   2) = (   0.5000000   0.2886751   0.2041241  )
         3           Eu  tau(   3) = (   0.0000000   0.0000000   0.0000000  )
         4           Ag  tau(   4) = (   1.0000000   0.5773503   0.4082483  )
         5           Cl  tau(   5) = (   1.0000000   0.2912409   0.2059384  )
         6           Cl  tau(   6) = (   0.7522220   0.4342956   0.6105582  )
         7           Cl  tau(   7) = (   1.0000000   0.8634597   0.6105582  )
         8           Cl  tau(   8) = (   0.7522220   0.7204050   0.2059384  )
         9           Cl  tau(   9) = (   1.2477780   0.4342956   0.6105582  )
        10           Cl  tau(  10) = (   1.2477780   0.7204050   0.2059384  )

   Crystallographic axes

     site n.     atom                  positions (cryst. coord.)
         1           Rb  tau(   1) = (  0.7500000  0.7500000  0.7500000  )
         2           Rb  tau(   2) = (  0.2500000  0.2500000  0.2500000  )
         3           Eu  tau(   3) = (  0.0000000  0.0000000  0.0000000  )
         4           Ag  tau(   4) = (  0.5000000  0.5000000  0.5000000  )
         5           Cl  tau(   5) = (  0.7477780  0.2522220  0.2522220  )
         6           Cl  tau(   6) = (  0.2522220  0.2522220  0.7477780  )
         7           Cl  tau(   7) = (  0.2522220  0.7477780  0.7477780  )
         8           Cl  tau(   8) = (  0.2522220  0.7477780  0.2522220  )
         9           Cl  tau(   9) = (  0.7477780  0.2522220  0.7477780  )
        10           Cl  tau(  10) = (  0.7477780  0.7477780  0.2522220  )

     number of k points=     1  Methfessel-Paxton smearing, width (Ry)=  0.0010
                       cart. coord. in units 2pi/alat
        k(    1) = (   0.0000000   0.0000000   0.0000000), wk =   2.0000000

                       cryst. coord.
        k(    1) = (   0.0000000   0.0000000   0.0000000), wk =   2.0000000

     Initial potential from superposition of free atoms

     starting charge      95.9454, renormalised to      96.0000

     negative rho (up, down):  8.850E-02 0.000E+00
     Starting wfcs are   76 randomized atomic wfcs
     Checking if some PAW data can be deallocated...

     Self-consistent Calculation

     iteration #  1     ecut=    30.00 Ry     beta= 0.70
     Davidson diagonalization with overlap

     ethr =  1.00E-02,  avg # of iterations =  2.0

     Threshold (ethr) on eigenvalues was too large:
     Diagonalizing with lowered threshold

     Davidson diagonalization with overlap

[...]

     negative rho (up, down):  9.097E-02 0.000E+00

     total energy              =   -1227.47808003 Ry
     estimated scf accuracy    <       0.51935883 Ry

[...]

     total energy              =   -1227.87684774 Ry
     estimated scf accuracy    <       0.00001234 Ry

     iteration # 25     ecut=    30.00 Ry     beta= 0.70
     Davidson diagonalization with overlap

     ethr =  1.29E-08,  avg # of iterations =  2.0

[...]

     End of self-consistent calculation

          k = 0.0000 0.0000 0.0000 (  2981 PWs)   bands (ev):

   -87.2698 -50.3399 -50.3396 -50.3396 -36.7533 -22.4479 -22.4464 -15.6176
   -15.6171 -15.6147 -10.4548 -10.1075 -10.1073  -9.9903  -9.9900  -9.9899
    -6.5369  -6.5369  -6.5363  -6.5133  -6.5133  -6.5127  -0.6348  -0.0753
    -0.0752   0.5052   0.5052   0.5094   0.7974   0.8043   0.8044   1.8618
     1.8619   1.8620   1.8931   1.8932   1.8950   2.0130   2.0130   2.0141
     2.4053   2.4126   2.4127   2.9303   2.9304   3.7737   3.7738   3.8170
     4.0667   4.0670   4.0793   4.1714   6.9722   8.0074   8.0076   8.0219
     8.3412   9.0572

     occupation numbers
     1.0000   1.0000   1.0000   1.0000   1.0000   1.0000   1.0000   1.0000
     1.0000   1.0000   1.0000   1.0000   1.0000   1.0000   1.0000   1.0000
     1.0000   1.0000   1.0000   1.0000   1.0000   1.0000   1.0000   1.0000
     1.0000   1.0000   1.0000   1.0000   1.0000   1.0000   1.0000   1.0000
     1.0000   1.0000   1.0000   1.0000   1.0000   1.0000   1.0000   1.0000
     1.0000   1.0000   1.0000   1.0000   1.0000   1.0000   1.0000   1.0000
    -0.0000  -0.0000  -0.0000  -0.0000  -0.0000  -0.0000  -0.0000  -0.0000
    -0.0000  -0.0000

     the Fermi energy is     3.9105 ev

!    total energy              =   -1227.87685141 Ry
     estimated scf accuracy    <       0.00000093 Ry
     smearing contrib. (-TS)   =       0.00000000 Ry
     internal energy E=F+TS    =   -1227.87685141 Ry

     The total energy is F=E-TS. E is the sum of the following terms:
     one-electron contribution =    -471.26904564 Ry
     hartree contribution      =     268.08417294 Ry
     xc contribution           =    -119.14306029 Ry
     ewald contribution        =    -448.33937044 Ry
     one-center paw contrib.   =    -457.20954798 Ry
      -> PAW hartree energy AE =     155.03879364 Ry
      -> PAW hartree energy PS =    -148.10697416 Ry
      -> PAW xc energy AE      =    -483.11086680 Ry
      -> PAW xc energy PS      =      18.96949934 Ry
      -> total E_H with PAW    =     275.01599242 Ry
      -> total E_XC with PAW   =    -583.28442775 Ry

     convergence has been achieved in  25 iterations

     negative rho (up, down):  8.758E-02 0.000E+00

     Forces acting on atoms (cartesian axes, Ry/au):

     atom    1 type  1   force =     0.00000000    0.00000000    0.00007675
     atom    2 type  1   force =     0.00000000    0.00000000   -0.00007675
     atom    3 type  2   force =     0.00000000    0.00000000    0.00000000
     atom    4 type  3   force =     0.00000000   -0.00000000   -0.00000000
     atom    5 type  4   force =     0.00000000   -0.01875692   -0.01260692
     atom    6 type  4   force =    -0.01624397   -0.00937846    0.01260692
     atom    7 type  4   force =     0.00000000    0.01875692    0.01260692
     atom    8 type  4   force =    -0.01624397    0.00937846   -0.01260692
     atom    9 type  4   force =     0.01624397   -0.00937846    0.01260692
     atom   10 type  4   force =     0.01624397    0.00937846   -0.01260692
     The non-local contrib.  to forces
     atom    1 type  1   force =     0.00000000   -0.00000000   -0.00000838
     atom    2 type  1   force =    -0.00000000   -0.00000000    0.00000838
     atom    3 type  2   force =     0.00000000    0.00000000   -0.00000000
     atom    4 type  3   force =    -0.00000000    0.00000000   -0.00000000
     atom    5 type  4   force =     0.00000000   -0.00029669    0.00459705
     atom    6 type  4   force =    -0.00025694   -0.00014835   -0.00459705
     atom    7 type  4   force =     0.00000000    0.00029669   -0.00459705
     atom    8 type  4   force =    -0.00025694    0.00014835    0.00459705
     atom    9 type  4   force =     0.00025694   -0.00014835   -0.00459705
     atom   10 type  4   force =     0.00025694    0.00014835    0.00459705
     The ionic contribution  to forces
     atom    1 type  1   force =    -0.00000000    0.00000000   -0.00000000
     atom    2 type  1   force =     0.00000000   -0.00000000   -0.00000000
     atom    3 type  2   force =     0.00000000    0.00000000    0.00000000
     atom    4 type  3   force =     0.00000000   -0.00000000    0.00000000
     atom    5 type  4   force =     0.00000000   -1.13071368   -0.79953531
     atom    6 type  4   force =    -0.97922677   -0.56535684    0.79953531
     atom    7 type  4   force =    -0.00000000    1.13071368    0.79953531
     atom    8 type  4   force =    -0.97922677    0.56535684   -0.79953531
     atom    9 type  4   force =     0.97922677   -0.56535684    0.79953531
     atom   10 type  4   force =     0.97922677    0.56535684   -0.79953531
     The local contribution  to forces
     atom    1 type  1   force =     0.00001979    0.00000228    0.00006673
     atom    2 type  1   force =    -0.00001733   -0.00000136   -0.00006899
     atom    3 type  2   force =    -0.00006382    0.00002390    0.00003150
     atom    4 type  3   force =     0.00001267   -0.00002170    0.00001438
     atom    5 type  4   force =     0.00003037    1.11349270    0.78339545
     atom    6 type  4   force =     0.96437200    0.55681409   -0.78341521
     atom    7 type  4   force =    -0.00003492   -1.11349371   -0.78341053
     atom    8 type  4   force =     0.96435059   -0.55678535    0.78342766
     atom    9 type  4   force =    -0.96434694    0.55678462   -0.78342292
     atom   10 type  4   force =    -0.96437058   -0.55680571    0.78341046
     The core correction contribution to forces
     atom    1 type  1   force =     0.00000000    0.00000000    0.00000000
     atom    2 type  1   force =     0.00000000    0.00000000    0.00000000
     atom    3 type  2   force =    -0.00000000    0.00000000   -0.00000000
     atom    4 type  3   force =     0.00000000    0.00000000    0.00000000
     atom    5 type  4   force =     0.00000007   -0.00105143   -0.00090941
     atom    6 type  4   force =    -0.00091174   -0.00052596    0.00091051
     atom    7 type  4   force =     0.00000002    0.00105155    0.00090890
     atom    8 type  4   force =    -0.00091157    0.00052533   -0.00091045
     atom    9 type  4   force =     0.00091194   -0.00052521    0.00091045
     atom   10 type  4   force =     0.00091175    0.00052600   -0.00091043
     The Hubbard contrib.    to forces
     atom    1 type  1   force =     0.00000000    0.00000000    0.00000000
     atom    2 type  1   force =     0.00000000    0.00000000    0.00000000
     atom    3 type  2   force =     0.00000000    0.00000000    0.00000000
     atom    4 type  3   force =     0.00000000    0.00000000    0.00000000
     atom    5 type  4   force =     0.00000000    0.00000000    0.00000000
     atom    6 type  4   force =     0.00000000    0.00000000    0.00000000
     atom    7 type  4   force =     0.00000000    0.00000000    0.00000000
     atom    8 type  4   force =     0.00000000    0.00000000    0.00000000
     atom    9 type  4   force =     0.00000000    0.00000000    0.00000000
     atom   10 type  4   force =     0.00000000    0.00000000    0.00000000
     The SCF correction term to forces
     atom    1 type  1   force =    -0.00002592    0.00000261    0.00001931
     atom    2 type  1   force =     0.00002493   -0.00000421   -0.00001522
     atom    3 type  2   force =     0.00005874   -0.00001957   -0.00002829
     atom    4 type  3   force =    -0.00001483    0.00002583   -0.00001791
     atom    5 type  4   force =    -0.00003609   -0.00017601   -0.00013820
     atom    6 type  4   force =    -0.00023139   -0.00016170    0.00018189
     atom    7 type  4   force =     0.00003614    0.00018258    0.00014051
     atom    8 type  4   force =    -0.00020775    0.00011429   -0.00019987
     atom    9 type  4   force =     0.00021298   -0.00011355    0.00019667
     atom   10 type  4   force =     0.00022328    0.00015530   -0.00017690

     Total force =     0.055358     Total SCF correction =     0.000724

     Computing stress (Cartesian axis) and pressure

     negative rho (up, down):  8.758E-02 0.000E+00
          total   stress  (Ry/bohr**3)                   (kbar)     P=      -83.61
  -0.00057807  -0.00000000  -0.00000000          -85.04       -0.00       -0.00
  -0.00000000  -0.00057807  -0.00000000           -0.00      -85.04       -0.00
   0.00000000  -0.00000000  -0.00054888            0.00       -0.00      -80.74

     kinetic stress (kbar)   9676.73     -0.00     -0.00
                               -0.00   9676.73     -0.00
                               -0.00     -0.00   9696.71

     local   stress (kbar)  -6892.48     -0.01     -0.11
                               -0.01  -6892.80     -0.26
                               -0.11     -0.26  -6911.45

     nonloc. stress (kbar)   3580.50     -0.00     -0.00
                                0.00   3580.50      0.00
                                0.00     -0.00   3581.71

     hartree stress (kbar)   6163.14     -0.01      0.04
                               -0.01   6163.29      0.12
                                0.04      0.12   6165.36

     exc-cor stress (kbar)   -749.21      0.00      0.00
                                0.00   -749.21      0.00
                                0.00      0.00   -749.05

     corecor stress (kbar)  -1555.17     -0.00     -0.00
                               -0.00  -1555.17     -0.00
                               -0.00     -0.00  -1555.56

     ewald   stress (kbar) -10308.45     -0.00      0.00
                               -0.00 -10308.45      0.00
                                0.00      0.00 -10308.45

     hubbard stress (kbar)      0.00      0.00      0.00
                                0.00      0.00      0.00
                                0.00      0.00      0.00

     DFT-D   stress (kbar)      0.00      0.00      0.00
                                0.00      0.00      0.00
                                0.00      0.00      0.00

     XDM     stress (kbar)      0.00      0.00      0.00
                                0.00      0.00      0.00
                                0.00      0.00      0.00

     dft-nl  stress (kbar)      0.00      0.00      0.00
                                0.00      0.00      0.00
                                0.00      0.00      0.00

     TS-vdW  stress (kbar)      0.00      0.00      0.00
                                0.00      0.00      0.00
                                0.00      0.00      0.00

[...]

                                0.00      0.00      0.00

     Writing all to output data dir new_calculations/myprefix.save/

     General routines

     Parallel routines

     PAW routines

   This run was terminated on:  23:37:41  20May2023

   JOB DONE.