     Program PWSCF v.7.0 starts on 20May2023 at 23:27:14

     Reading input from espresso_15370.pwi
Warning: card &CELL ignored
Warning: card / ignored

     Current dimensions of program PWSCF are:
     Max number of different atomic species (ntypx) = 10
     Max number of k-points (npk) =  40000
     Max angular momentum in pseudopotentials (lmaxx) =  4

     gamma-point specific algorithms are used
     Message from routine setup:
     using ibrav=0 with symmetry is DISCOURAGED, use correct ibrav instead

     Subspace diagonalization in iterative solution of the eigenvalue problem:
     a serial algorithm will be used

     Using Slab Decomposition

     bravais-lattice index     =            0
     lattice parameter (alat)  =      14.4033  a.u.
     unit-cell volume          =    1243.0871 (a.u.)^3
     number of atoms/cell      =            9
     number of atomic types    =            3
     number of electrons       =       168.00
     number of Kohn-Sham states=          101
     kinetic-energy cutoff     =      30.0000  Ry
     charge density cutoff     =     240.0000  Ry
     scf convergence threshold =      1.0E-06
     mixing beta               =       0.7000
     number of iterations used =            8  plain     mixing
     Exchange-correlation= PBE
                           (   1   4   3   4   0   0   0)

     celldm(1)=  14.403273  celldm(2)=   0.000000  celldm(3)=   0.000000
     celldm(4)=   0.000000  celldm(5)=   0.000000  celldm(6)=   0.000000

     crystal axes: (cart. coord. in units of alat)
               a(1) = (   1.000000   0.000000   0.000000 )
               a(2) = (  -0.500000   0.866025   0.000000 )
               a(3) = (   0.000000   0.000000   0.480383 )

     reciprocal axes: (cart. coord. in units 2 pi/alat)
               b(1) = (  1.000000  0.577350  0.000000 )
               b(2) = (  0.000000  1.154701  0.000000 )
               b(3) = (  0.000000  0.000000  2.081674 )

     PseudoPot. # 1 for Lu read from file:
     /home/pragov/projects/rrg-bengioy-ad/pragov/crystal_structure_design/SSSP/Lu.GGA-PBE-paw-v1.0.UPF
     MD5 check sum: 9ceca61ee0c17e9380a83635bfffa61d
     Pseudo is Projector augmented-wave + core cor, Zval = 25.0
     Generated using ATOMPAW code
     Shape of augmentation charge: BESSEL
     Using radial grid of 1118 points,  8 beta functions with:
                l(1) =   0
                l(2) =   0
                l(3) =   1
                l(4) =   1
                l(5) =   2
                l(6) =   2
                l(7) =   3
                l(8) =   3
     Q(r) pseudized with 0 coefficients

     PseudoPot. # 2 for Sn read from file:
     /home/pragov/projects/rrg-bengioy-ad/pragov/crystal_structure_design/SSSP/Sn_pbe_v1.uspp.F.UPF
     MD5 check sum: 4cf58ce39ec5d5d420df3dd08604eb00
     Pseudo is Ultrasoft + core correction, Zval = 14.0
     Generated by new atomic code, or converted to UPF format
     Using radial grid of  891 points,  6 beta functions with:
                l(1) =   0
                l(2) =   0
                l(3) =   1
                l(4) =   1
                l(5) =   2
                l(6) =   2
     Q(r) pseudized with  6 coefficients,  rinner =    1.200   1.200   1.200
                                                       1.200   1.200

     PseudoPot. # 3 for Rh read from file:
     /home/pragov/projects/rrg-bengioy-ad/pragov/crystal_structure_design/SSSP/Rh_ONCV_PBE-1.0.oncvpsp.upf
     MD5 check sum: ba07c69523b14cacd10683cd4c4284c1
     Pseudo is Norm-conserving, Zval = 17.0
     Generated using ONCVPSP code by D. R. Hamann
     Using radial grid of 1442 points,  6 beta functions with:
                l(1) =   0
                l(2) =   0
                l(3) =   1
                l(4) =   1
                l(5) =   2
                l(6) =   2

     atomic species   valence    mass     pseudopotential
        Lu            25.00   174.96680     Lu( 1.00)
        Sn            14.00   118.71000     Sn( 1.00)
        Rh            17.00   102.90550     Rh( 1.00)

     12 Sym. Ops. (no inversion) found

                                    s                        frac. trans.

      isym =  1     identity

 cryst.   s( 1) = (     1          0          0      )
                  (     0          1          0      )
                  (     0          0          1      )

 cart.    s( 1) = (  1.0000000 -0.0000000  0.0000000 )
                  (  0.0000000  1.0000000  0.0000000 )
                  (  0.0000000  0.0000000  1.0000000 )

      isym =  2     180 deg rotation - cart. axis [1,0,0]

[...]

      isym =  3     120 deg rotation - cryst. axis [0,0,1]

[...]

      isym =  6     180 deg rotation - cryst. axis [1,1,0]

[...]

      isym =  7     inv. 180 deg rotation - cart. axis [0,0,1]

[...]

      isym =  8     inv. 180 deg rotation - cart. axis [0,1,0]

[...]

      isym =  9     inv.  60 deg rotation - cryst. axis [0,0,1]

 cryst.   s( 9) = (    -1         -1          0      )
                  (     1          0          0      )
                  (     0          0         -1      )

 cart.    s( 9) = ( -0.5000000  0.8660254  0.0000000 )
                  ( -0.8660254 -0.5000000  0.0000000 )
                  (  0.0000000  0.0000000 -1.0000000 )

[...]

 cryst.   s(10) = (     0          1          0      )
                  (    -1         -1          0      )
                  (     0          0         -1      )

 cart.    s(10) = ( -0.5000000 -0.8660254  0.0000000 )
                  (  0.8660254 -0.5000000  0.0000000 )
                  (  0.0000000  0.0000000 -1.0000000 )

[...]

      isym = 12     inv. 180 deg rotation - cryst. axis [2,1,0]

 cryst.   s(12) = (    -1         -1          0      )
                  (     0          1          0      )
                  (     0          0          1      )

 cart.    s(12) = ( -0.5000000 -0.8660254  0.0000000 )
                  ( -0.8660254  0.5000000  0.0000000 )
                  (  0.0000000  0.0000000  1.0000000 )

   Cartesian axes

     site n.     atom                  positions (alat units)
         1           Lu  tau(   1) = (   0.2009120   0.3479898   0.2401913  )
         2           Lu  tau(   2) = (   0.5981760   0.0000000   0.2401913  )
         3           Lu  tau(   3) = (  -0.2990880   0.5180356   0.2401913  )
         4           Sn  tau(   4) = (   0.3664865   0.6347732   0.0000000  )
         5           Sn  tau(   5) = (   0.2670270   0.0000000   0.0000000  )
         6           Sn  tau(   6) = (  -0.1335135   0.2312522   0.0000000  )
         7           Rh  tau(   7) = (   0.5000005   0.2886748   0.0000000  )
         8           Rh  tau(   8) = (  -0.0000005   0.5773506   0.0000000  )
         9           Rh  tau(   9) = (   0.0000000   0.0000000   0.2401913  )

   Crystallographic axes

     site n.     atom                  positions (cryst. coord.)
         1           Lu  tau(   1) = (  0.4018240  0.4018240  0.5000000  )
         2           Lu  tau(   2) = (  0.5981760  0.0000000  0.5000000  )
         3           Lu  tau(   3) = (  0.0000000  0.5981760  0.5000000  )
         4           Sn  tau(   4) = (  0.7329730  0.7329730  0.0000000  )
         5           Sn  tau(   5) = (  0.2670270  0.0000000  0.0000000  )
         6           Sn  tau(   6) = (  0.0000000  0.2670270  0.0000000  )
         7           Rh  tau(   7) = (  0.6666670  0.3333330  0.0000000  )
         8           Rh  tau(   8) = (  0.3333330  0.6666670  0.0000000  )
         9           Rh  tau(   9) = (  0.0000000  0.0000000  0.5000000  )

     number of k points=     1  Methfessel-Paxton smearing, width (Ry)=  0.0010
                       cart. coord. in units 2pi/alat
        k(    1) = (   0.0000000   0.0000000   0.0000000), wk =   2.0000000

                       cryst. coord.
        k(    1) = (   0.0000000   0.0000000   0.0000000), wk =   2.0000000

     Check: negative core charge=   -0.000001

     Initial potential from superposition of free atoms

     starting charge     164.9872, renormalised to     168.0000
     Starting wfcs are  153 randomized atomic wfcs
     Checking if some PAW data can be deallocated...

     Self-consistent Calculation

     iteration #  1     ecut=    30.00 Ry     beta= 0.70
     Davidson diagonalization with overlap

     ethr =  1.00E-02,  avg # of iterations =  3.0

     total energy              =   -4366.25371462 Ry
     estimated scf accuracy    <      15.11756840 Ry

[...]

     ethr =  8.77E-07,  avg # of iterations =  1.0
     Minimization algorithm failed to find Fermi energy: reverting to bisection
     Possible cause: smearing is larger than the electronic band-gap.

[...]

     ethr =  3.95E-07,  avg # of iterations =  1.0
     Minimization algorithm failed to find Fermi energy: reverting to bisection
     Possible cause: smearing is larger than the electronic band-gap.

[...]

     total energy              =   -4381.64126775 Ry
     estimated scf accuracy    <       0.00000322 Ry

     iteration # 22     ecut=    30.00 Ry     beta= 0.70
     Davidson diagonalization with overlap

     ethr =  1.92E-09,  avg # of iterations =  1.0

     End of self-consistent calculation

          k = 0.0000 0.0000 0.0000 (  1705 PWs)   bands (ev):

   -60.8493 -60.2982 -60.2981 -38.7238 -38.7226 -38.7225 -28.9307 -28.6758
   -28.6758 -28.2108 -28.2104 -28.1628 -28.1628 -28.1620 -28.1620  -9.4741
    -9.4741  -9.4533  -9.4170  -9.4170  -9.4166  -9.3727  -9.3074  -9.3074
    -5.2070  -5.1873  -5.1872  -5.1039  -5.1038  -5.0984  -5.0724  -5.0673
    -5.0672  -4.9202  -4.9081  -4.9081  -4.8874  -4.8873  -4.8623   6.6529
     8.6981   8.6982  11.7654  12.4191  12.4191  12.5585  12.5586  12.5611
    12.5758  12.5822  12.5948  12.5948  12.5991  12.5991  12.6160  12.6160
    12.6408  12.6469  12.6469  12.6570  12.7086  12.7258  12.7266  12.7267
    12.7389  12.7389  14.0142  14.1566  14.1566  14.3060  14.4167  14.4167
    14.4597  15.0781  15.3372  15.3372  15.4487  15.4487  15.6959  15.6959
    15.9739  15.9739  17.7616  17.7616  17.7834  18.3305  19.3366  19.3366
    19.5132  19.7469  19.7678  19.7678  20.0058  20.4904  21.4353  21.4353
    21.7913  21.9320  21.9320  22.2420  22.2420

     occupation numbers
     1.0000   1.0000   1.0000   1.0000   1.0000   1.0000   1.0000   1.0000
     1.0000   1.0000   1.0000   1.0000   1.0000   1.0000   1.0000   1.0000
     1.0000   1.0000   1.0000   1.0000   1.0000   1.0000   1.0000   1.0000
     1.0000   1.0000   1.0000   1.0000   1.0000   1.0000   1.0000   1.0000
     1.0000   1.0000   1.0000   1.0000   1.0000   1.0000   1.0000   1.0000
     1.0000   1.0000   1.0000   1.0000   1.0000   1.0000   1.0000   1.0000
     1.0000   1.0000   1.0000   1.0000   1.0000   1.0000   1.0000   1.0000
     1.0000   1.0000   1.0000   1.0000   1.0000   1.0000   1.0000   1.0000
     1.0000   1.0000   1.0000   1.0000   1.0000   1.0000   1.0000   1.0000
     1.0000   1.0000   1.0000   1.0000   1.0000   1.0000   1.0000   1.0000
     1.0000   1.0000   0.9938   0.9936   0.0126  -0.0000  -0.0000  -0.0000
    -0.0000  -0.0000  -0.0000  -0.0000  -0.0000  -0.0000  -0.0000  -0.0000
    -0.0000  -0.0000  -0.0000  -0.0000  -0.0000

     the Fermi energy is    17.7726 ev

!    total energy              =   -4381.64126759 Ry
     estimated scf accuracy    <       0.00000046 Ry
     smearing contrib. (-TS)   =       0.00013257 Ry
     internal energy E=F+TS    =   -4381.64140016 Ry

     The total energy is F=E-TS. E is the sum of the following terms:
     one-electron contribution =   -1537.95500216 Ry
     hartree contribution      =     765.11549550 Ry
     xc contribution           =    -333.61598446 Ry
     ewald contribution        =   -1802.22678046 Ry
     one-center paw contrib.   =   -1472.95912858 Ry
      -> PAW hartree energy AE =    1476.59094586 Ry
      -> PAW hartree energy PS =   -1271.64007728 Ry
      -> PAW xc energy AE      =   -1798.08935835 Ry
      -> PAW xc energy PS      =     120.17936120 Ry
      -> total E_H with PAW    =     970.06636407 Ry
      -> total E_XC with PAW   =   -2011.52598161 Ry

     convergence has been achieved in  22 iterations

     Forces acting on atoms (cartesian axes, Ry/au):

     atom    1 type  1   force =    -0.00782864   -0.01355961   -0.00000000
     atom    2 type  1   force =     0.01565729   -0.00000000   -0.00000000
     atom    3 type  1   force =    -0.00782864    0.01355961    0.00000000
     atom    4 type  2   force =    -0.01998204   -0.03460990    0.00000000
     atom    5 type  2   force =     0.03996408   -0.00000000   -0.00000000
     atom    6 type  2   force =    -0.01998204    0.03460991    0.00000000
     atom    7 type  3   force =     0.00000000    0.00000000   -0.00000000
     atom    8 type  3   force =     0.00000000    0.00000000    0.00000000
     atom    9 type  3   force =     0.00000000    0.00000000    0.00000000
     The non-local contrib.  to forces
     atom    1 type  1   force =     0.01282065    0.02220601    0.00000000
     atom    2 type  1   force =    -0.02564130    0.00000000   -0.00000000
     atom    3 type  1   force =     0.01282065   -0.02220601    0.00000000
     atom    4 type  2   force =    -0.06041078   -0.10463454    0.00000000
     atom    5 type  2   force =     0.12082156   -0.00000000    0.00000000
     atom    6 type  2   force =    -0.06041078    0.10463454    0.00000000
     atom    7 type  3   force =     0.00000000    0.00000000    0.00000000
     atom    8 type  3   force =    -0.00000000    0.00000000    0.00000000
     atom    9 type  3   force =     0.00000000    0.00000000    0.00000000
     The ionic contribution  to forces
     atom    1 type  1   force =    -2.11723091   -3.66715141   -0.00000000
     atom    2 type  1   force =     4.23460963   -0.00008616   -0.00000000
     atom    3 type  1   force =    -2.11737935    3.66723648   -0.00000000
     atom    4 type  2   force =     1.88097119    3.25793759   -0.00000000
     atom    5 type  2   force =    -3.76208159    0.00008065    0.00000000
     atom    6 type  2   force =     1.88111057   -3.25801794    0.00000000
     atom    7 type  3   force =    -0.00017209    0.00009970    0.00000000
     atom    8 type  3   force =     0.00017239   -0.00009918    0.00000000
     atom    9 type  3   force =     0.00000015    0.00000026   -0.00000000
     The local contribution  to forces
     atom    1 type  1   force =     2.09572262    3.63072284    0.00000030
     atom    2 type  1   force =    -4.19107296    0.00028208    0.00000049
     atom    3 type  1   force =     2.09633789   -3.63110377    0.00000043
     atom    4 type  2   force =    -1.84006226   -3.18689490   -0.00000004
     atom    5 type  2   force =     3.67922216   -0.00008882   -0.00000004
     atom    6 type  2   force =    -1.84029828    3.18723544    0.00000001
     atom    7 type  3   force =     0.00015500    0.00065523   -0.00000011
     atom    8 type  3   force =    -0.00064369   -0.00061494    0.00000003
     atom    9 type  3   force =    -0.00046759    0.00017192    0.00000001
     The core correction contribution to forces
     atom    1 type  1   force =    -0.00000151   -0.00000262    0.00000000
     atom    2 type  1   force =     0.00000303    0.00000000    0.00000000
     atom    3 type  1   force =    -0.00000151    0.00000262    0.00000000
     atom    4 type  2   force =    -0.00044960   -0.00076646    0.00000000
     atom    5 type  2   force =     0.00087308    0.00000103    0.00000000
     atom    6 type  2   force =    -0.00045102    0.00077135    0.00000000
     atom    7 type  3   force =     0.00000000    0.00000000    0.00000000
     atom    8 type  3   force =     0.00000000    0.00000000    0.00000000
     atom    9 type  3   force =     0.00000000    0.00000000    0.00000000
     The Hubbard contrib.    to forces
     atom    1 type  1   force =     0.00000000    0.00000000    0.00000000
     atom    2 type  1   force =     0.00000000    0.00000000    0.00000000
     atom    3 type  1   force =     0.00000000    0.00000000    0.00000000
     atom    4 type  2   force =     0.00000000    0.00000000    0.00000000
     atom    5 type  2   force =     0.00000000    0.00000000    0.00000000
     atom    6 type  2   force =     0.00000000    0.00000000    0.00000000
     atom    7 type  3   force =     0.00000000    0.00000000    0.00000000
     atom    8 type  3   force =     0.00000000    0.00000000    0.00000000
     atom    9 type  3   force =     0.00000000    0.00000000    0.00000000
     The SCF correction term to forces
     atom    1 type  1   force =     0.00098274    0.00058702   -0.00000036
     atom    2 type  1   force =    -0.00227316   -0.00030729   -0.00000057
     atom    3 type  1   force =     0.00051195   -0.00027239   -0.00000067
     atom    4 type  2   force =    -0.00012504   -0.00025274   -0.00000000
     atom    5 type  2   force =     0.00098839    0.00001266    0.00000004
     atom    6 type  2   force =    -0.00002743    0.00003826    0.00000001
     atom    7 type  3   force =    -0.00012391   -0.00073460    0.00000012
     atom    8 type  3   force =     0.00032406    0.00080136   -0.00000003
     atom    9 type  3   force =     0.00045553   -0.00017158   -0.00000002

     Total force =     0.074343     Total SCF correction =     0.003083

     Computing stress (Cartesian axis) and pressure

          total   stress  (Ry/bohr**3)                   (kbar)     P=      -63.48
   0.00029283  -0.00000000   0.00000000           43.08       -0.00        0.00
  -0.00000000   0.00029283   0.00000000           -0.00       43.08        0.00
   0.00000000   0.00000000  -0.00188028            0.00        0.00     -276.60

     kinetic stress (kbar)  27890.96     -0.00      0.00
                               -0.00  27890.96      0.00
                                0.00      0.00  27325.40

     local   stress (kbar)   6798.14     -0.03     -0.00
                               -0.03   6798.04      0.00
                               -0.00      0.00   7379.99

     nonloc. stress (kbar)  16406.04     -0.00      0.00
                               -0.00  16406.04      0.00
                                0.00     -0.00  16098.56

     hartree stress (kbar)  30049.12      0.03      0.00
                                0.03  30049.05     -0.00
                                0.00     -0.00  30444.46

     exc-cor stress (kbar)     70.14     -0.00      0.00
                               -0.00     70.14      0.00
                                0.00      0.00     62.83

     corecor stress (kbar) -10221.74      0.00     -0.00
                                0.00 -10221.74     -0.00
                               -0.00     -0.00 -10213.99

     ewald   stress (kbar) -70949.52      0.03      0.00
                                0.03 -70949.48      0.00
                                0.00      0.00 -71373.84

     hubbard stress (kbar)      0.00      0.00      0.00
                                0.00      0.00      0.00
                                0.00      0.00      0.00

     DFT-D   stress (kbar)      0.00      0.00      0.00
                                0.00      0.00      0.00
                                0.00      0.00      0.00

     XDM     stress (kbar)      0.00      0.00      0.00
                                0.00      0.00      0.00
                                0.00      0.00      0.00

     dft-nl  stress (kbar)      0.00      0.00      0.00
                                0.00      0.00      0.00
                                0.00      0.00      0.00

     TS-vdW  stress (kbar)      0.00      0.00      0.00
                                0.00      0.00      0.00
                                0.00      0.00      0.00

[...]

                                0.00      0.00      0.00

     Writing all to output data dir new_calculations/myprefix.save/

     General routines

     Parallel routines

     PAW routines

   This run was terminated on:  23:28:12  20May2023

   JOB DONE.