     Program PWSCF v.7.0 starts on 20May2023 at  3:45:36

     Reading input from espresso_1122.pwi
Warning: card &CELL ignored
Warning: card / ignored

     Current dimensions of program PWSCF are:
     Max number of different atomic species (ntypx) = 10
     Max number of k-points (npk) =  40000
     Max angular momentum in pseudopotentials (lmaxx) =  4

     gamma-point specific algorithms are used
     Message from routine setup:
     using ibrav=0 with symmetry is DISCOURAGED, use correct ibrav instead

     Subspace diagonalization in iterative solution of the eigenvalue problem:
     a serial algorithm will be used

     Using Slab Decomposition

     bravais-lattice index     =            0
     lattice parameter (alat)  =       7.5867  a.u.
     unit-cell volume          =    1600.9666 (a.u.)^3
     number of atoms/cell      =           18
     number of atomic types    =            4
     number of electrons       =       170.00
     number of Kohn-Sham states=          102
     kinetic-energy cutoff     =      30.0000  Ry
     charge density cutoff     =     240.0000  Ry
     scf convergence threshold =      1.0E-06
     mixing beta               =       0.7000
     number of iterations used =            8  plain     mixing
     Exchange-correlation= SLA  PW   PBE  PBE
                           (   1   4   3   4   0   0   0)

     celldm(1)=   7.586710  celldm(2)=   0.000000  celldm(3)=   0.000000
     celldm(4)=   0.000000  celldm(5)=   0.000000  celldm(6)=   0.000000

     crystal axes: (cart. coord. in units of alat)
               a(1) = (   1.000000   0.000000   0.000000 )
               a(2) = (   0.000000   1.914745   0.000000 )
               a(3) = (   0.000000   0.000000   1.914745 )

     reciprocal axes: (cart. coord. in units 2 pi/alat)
               b(1) = (  1.000000  0.000000  0.000000 )
               b(2) = (  0.000000  0.522263  0.000000 )
               b(3) = (  0.000000  0.000000  0.522263 )

     PseudoPot. # 1 for La read from file:
     /home/pragov/projects/rrg-bengioy-ad/pragov/crystal_structure_design/SSSP/La.GGA-PBE-paw-v1.0.UPF
     MD5 check sum: 436541e95c1ad8901025bd0b0ed42ae2
     Pseudo is Projector augmented-wave + core cor, Zval = 11.0
     Generated using ATOMPAW code
     Shape of augmentation charge: BESSEL
     Using radial grid of 1101 points,  8 beta functions with:
                l(1) =   0
                l(2) =   0
                l(3) =   1
                l(4) =   1
                l(5) =   2
                l(6) =   2
                l(7) =   3
                l(8) =   3
     Q(r) pseudized with 0 coefficients

     PseudoPot. # 2 for B  read from file:
     /home/pragov/projects/rrg-bengioy-ad/pragov/crystal_structure_design/SSSP/b_pbe_v1.4.uspp.F.UPF
     MD5 check sum: cc6de2960df11db49a60e589f9ebb39b
     Pseudo is Ultrasoft + core correction, Zval =  3.0
     Generated by new atomic code, or converted to UPF format
     Using radial grid of  781 points,  4 beta functions with:
                l(1) =   0
                l(2) =   0
                l(3) =   1
                l(4) =   1
     Q(r) pseudized with  8 coefficients,  rinner =    1.100   1.100   1.100

     PseudoPot. # 3 for Ir read from file:
     /home/pragov/projects/rrg-bengioy-ad/pragov/crystal_structure_design/SSSP/Ir_pbe_v1.2.uspp.F.UPF
     MD5 check sum: 8836f839c3459d2b385c504ce6d91f2c
     Pseudo is Ultrasoft + core correction, Zval = 15.0
     Generated by new atomic code, or converted to UPF format
     Using radial grid of  983 points,  7 beta functions with:
                l(1) =   0
                l(2) =   0
                l(3) =   1
                l(4) =   1
                l(5) =   1
                l(6) =   2
                l(7) =   2
     Q(r) pseudized with  8 coefficients,  rinner =    1.400   1.400   1.400
                                                       1.400   1.400

     PseudoPot. # 4 for Os read from file:
     /home/pragov/projects/rrg-bengioy-ad/pragov/crystal_structure_design/SSSP/Os_pbe_v1.2.uspp.F.UPF
     MD5 check sum: a3fb40a04f0c37c25c34bbc47164c9a8
     Pseudo is Ultrasoft + core correction, Zval = 16.0
     Generated by new atomic code, or converted to UPF format
     Using radial grid of  983 points,  8 beta functions with:
                l(1) =   0
                l(2) =   0
                l(3) =   1
                l(4) =   1
                l(5) =   2
                l(6) =   2
                l(7) =   3
                l(8) =   3
     Q(r) pseudized with  8 coefficients,  rinner =    1.150   1.150   1.150
                                                       1.150   1.150   1.150
                                                       1.150

     atomic species   valence    mass     pseudopotential
        La            11.00   138.90547     La( 1.00)
        B              3.00    10.81000     B ( 1.00)
        Ir            15.00   192.21700     Ir( 1.00)
        Os            16.00   190.23000     Os( 1.00)

      4 Sym. Ops. (no inversion) found ( 3 have fractional translation)

                                    s                        frac. trans.

      isym =  1     identity

 cryst.   s( 1) = (     1          0          0      )
                  (     0          1          0      )
                  (     0          0          1      )

 cart.    s( 1) = (  1.0000000  0.0000000  0.0000000 )
                  (  0.0000000  1.0000000  0.0000000 )
                  (  0.0000000  0.0000000  1.0000000 )

      isym =  2     180 deg rotation - cart. axis [1,0,0]

 cryst.   s( 2) = (     1          0          0      )    f =(  0.0000000 )
                  (     0         -1          0      )       (  0.5000000 )
                  (     0          0         -1      )       (  0.5000000 )

 cart.    s( 2) = (  1.0000000  0.0000000  0.0000000 )    f =(  0.0000000 )
                  (  0.0000000 -1.0000000  0.0000000 )       (  0.9573724 )
                  (  0.0000000  0.0000000 -1.0000000 )       (  0.9573724 )

[...]

      isym =  4      90 deg rotation - cart. axis [1,0,0]

 cryst.   s( 4) = (     1          0          0      )    f =( -0.5000000 )
                  (     0          0          1      )       (  0.0000000 )
                  (     0         -1          0      )       ( -0.5000000 )

 cart.    s( 4) = (  1.0000000  0.0000000  0.0000000 )    f =( -0.5000000 )
                  (  0.0000000  0.0000000 -1.0000000 )       (  0.0000000 )
                  (  0.0000000  1.0000000  0.0000000 )       ( -0.9573724 )

   Cartesian axes

     site n.     atom                  positions (alat units)
         1           La  tau(   1) = (   0.2514460   0.4786862   0.4786862  )
         2           La  tau(   2) = (   0.7514460   1.4360586   1.4360586  )
         3           B   tau(   3) = (   0.3599610   1.7447136   0.0670659  )
         4           B   tau(   4) = (   0.3599610   1.1274037   0.8903066  )
         5           B   tau(   5) = (   0.8599610   1.0244383   0.1700313  )
         6           B   tau(   6) = (   0.8599610   1.8476790   0.7873412  )
         7           B   tau(   7) = (   0.6425550   0.1655354   1.8582216  )
         8           B   tau(   8) = (   0.6425550   0.7918370   1.0138957  )
         9           B   tau(   9) = (   0.1425550   0.9008492   1.7492094  )
        10           B   tau(  10) = (   0.1425550   0.0565233   1.1229079  )
        11           Ir  tau(  11) = (   0.1401240   0.7706082   1.2255478  )
        12           Ir  tau(  12) = (   0.1401240   0.1867642   1.6465695  )
        13           Ir  tau(  13) = (   0.6401240   0.2681753   1.1441366  )
        14           Ir  tau(  14) = (   0.6401240   0.6891971   1.7279806  )
        15           Os  tau(  15) = (   0.8566380   1.1578845   0.6866907  )
        16           Os  tau(  16) = (   0.8566380   1.7142328   0.2706817  )
        17           Os  tau(  17) = (   0.3566380   1.6440631   0.7568603  )
        18           Os  tau(  18) = (   0.3566380   1.2280542   0.2005121  )

   Crystallographic axes

     site n.     atom                  positions (cryst. coord.)
         1           La  tau(   1) = (  0.2514460  0.2500000  0.2500000  )
         2           La  tau(   2) = (  0.7514460  0.7500000  0.7500000  )
         3           B   tau(   3) = (  0.3599610  0.9111990  0.0350260  )
         4           B   tau(   4) = (  0.3599610  0.5888010  0.4649740  )
         5           B   tau(   5) = (  0.8599610  0.5350260  0.0888010  )
         6           B   tau(   6) = (  0.8599610  0.9649740  0.4111990  )
         7           B   tau(   7) = (  0.6425550  0.0864530  0.9704800  )
         8           B   tau(   8) = (  0.6425550  0.4135470  0.5295200  )
         9           B   tau(   9) = (  0.1425550  0.4704800  0.9135470  )
        10           B   tau(  10) = (  0.1425550  0.0295200  0.5864530  )
        11           Ir  tau(  11) = (  0.1401240  0.4024600  0.6400580  )
        12           Ir  tau(  12) = (  0.1401240  0.0975400  0.8599420  )
        13           Ir  tau(  13) = (  0.6401240  0.1400580  0.5975400  )
        14           Ir  tau(  14) = (  0.6401240  0.3599420  0.9024600  )
        15           Os  tau(  15) = (  0.8566380  0.6047200  0.3586330  )
        16           Os  tau(  16) = (  0.8566380  0.8952800  0.1413670  )
        17           Os  tau(  17) = (  0.3566380  0.8586330  0.3952800  )
        18           Os  tau(  18) = (  0.3566380  0.6413670  0.1047200  )

     number of k points=     1  Methfessel-Paxton smearing, width (Ry)=  0.0010
                       cart. coord. in units 2pi/alat
        k(    1) = (   0.0000000   0.0000000   0.0000000), wk =   2.0000000

                       cryst. coord.
        k(    1) = (   0.0000000   0.0000000   0.0000000), wk =   2.0000000

     Initial potential from superposition of free atoms

     starting charge     165.9804, renormalised to     170.0000

     negative rho (up, down):  1.973E+00 0.000E+00
     Starting wfcs are  196 randomized atomic wfcs
     Checking if some PAW data can be deallocated...

     Self-consistent Calculation

     iteration #  1     ecut=    30.00 Ry     beta= 0.70
     Davidson diagonalization with overlap

     ethr =  1.00E-02,  avg # of iterations =  2.0

     negative rho (up, down):  1.520E+00 0.000E+00

     total energy              =   -2469.59876611 Ry
     estimated scf accuracy    <      27.32270487 Ry

[...]

     total energy              =   -2489.52290846 Ry
     estimated scf accuracy    <       0.00000165 Ry

     iteration # 19     ecut=    30.00 Ry     beta= 0.70
     Davidson diagonalization with overlap

     ethr =  8.58E-10,  avg # of iterations =  2.0

[...]

     End of self-consistent calculation

          k = 0.0000 0.0000 0.0000 (  2235 PWs)   bands (ev):

   -68.5035 -68.4724 -68.4724 -68.4633 -31.7768 -31.6869 -31.6608 -31.6603
   -31.6175 -31.5728 -31.5723 -31.5623 -31.1522 -31.0952 -31.0947 -31.0762
   -28.3181 -28.1201 -28.1201 -28.0745 -28.0029 -27.9588 -27.9174 -27.9174
   -27.5959 -27.5181 -27.4876 -27.4876 -14.0679 -14.0633   1.8412   1.8413
     1.9572   1.9572   2.3019   2.3135   5.8407   7.5093   7.5094   7.7597
     8.2463   9.5589   9.5590   9.6448  11.3738  11.5230  11.6756  12.2272
    12.2581  12.2582  12.3276  12.3798  12.7840  12.7840  12.9587  12.9907
    12.9907  12.9967  13.2757  13.2757  13.4263  14.0709  14.3113  14.3115
    14.6896  14.6898  14.7051  14.8048  14.9418  15.1003  15.1003  15.4606
    15.5546  15.9426  16.0014  16.0015  16.1577  16.4540  16.5112  17.0967
    17.1390  17.1391  17.1616  17.3474  17.6842  18.5562  18.5564  18.7135
    18.8914  19.9281  19.9281  19.9433  20.3462  20.4128  20.4129  20.5679
    20.5680  20.7204  20.7205  20.7381  20.7577  20.8880

     occupation numbers
     1.0000   1.0000   1.0000   1.0000   1.0000   1.0000   1.0000   1.0000
     1.0000   1.0000   1.0000   1.0000   1.0000   1.0000   1.0000   1.0000
     1.0000   1.0000   1.0000   1.0000   1.0000   1.0000   1.0000   1.0000
     1.0000   1.0000   1.0000   1.0000   1.0000   1.0000   1.0000   1.0000
     1.0000   1.0000   1.0000   1.0000   1.0000   1.0000   1.0000   1.0000
     1.0000   1.0000   1.0000   1.0000   1.0000   1.0000   1.0000   1.0000
     1.0000   1.0000   1.0000   1.0000   1.0000   1.0000   1.0000   1.0000
     1.0000   1.0000   1.0000   1.0000   1.0000   1.0000   1.0000   1.0000
     1.0000   1.0000   1.0000   1.0000   1.0000   1.0000   1.0000   1.0000
     1.0000   1.0000   1.0000   1.0000   1.0000   1.0000   1.0000   1.0000
     1.0000   1.0000   1.0000   1.0000   1.0000  -0.0000  -0.0000  -0.0000
    -0.0000  -0.0000  -0.0000  -0.0000  -0.0000  -0.0000  -0.0000  -0.0000
    -0.0000  -0.0000  -0.0000  -0.0000  -0.0000  -0.0000

     the Fermi energy is    18.2220 ev

!    total energy              =   -2489.52290840 Ry
     estimated scf accuracy    <       0.00000034 Ry
     smearing contrib. (-TS)   =       0.00000000 Ry
     internal energy E=F+TS    =   -2489.52290840 Ry

     The total energy is F=E-TS. E is the sum of the following terms:
     one-electron contribution =    -409.42645726 Ry
     hartree contribution      =     312.64080175 Ry
     xc contribution           =    -393.08914102 Ry
     ewald contribution        =   -1203.45426498 Ry
     one-center paw contrib.   =    -796.19384688 Ry
      -> PAW hartree energy AE =      70.85468879 Ry
      -> PAW hartree energy PS =     -70.94277831 Ry
      -> PAW xc energy AE      =    -810.83431011 Ry
      -> PAW xc energy PS      =      14.72855275 Ry
      -> total E_H with PAW    =     312.55271223 Ry
      -> total E_XC with PAW   =   -1189.19489838 Ry

     convergence has been achieved in  19 iterations

     negative rho (up, down):  1.745E+00 0.000E+00

     Forces acting on atoms (cartesian axes, Ry/au):

     atom    1 type  1   force =     0.00726758    0.00000000    0.00000000
     atom    2 type  1   force =     0.00726758    0.00000000    0.00000000
     atom    3 type  2   force =    -0.00516640   -0.00723846   -0.03313564
     atom    4 type  2   force =    -0.00516640    0.00723846    0.03313564
     atom    5 type  2   force =    -0.00516640   -0.03313564    0.00723846
     atom    6 type  2   force =    -0.00516640    0.03313564   -0.00723846
     atom    7 type  2   force =    -0.00338379    0.01234432    0.02433081
     atom    8 type  2   force =    -0.00338379   -0.01234432   -0.02433081
     atom    9 type  2   force =    -0.00338379    0.02433081   -0.01234432
     atom   10 type  2   force =    -0.00338379   -0.02433081    0.01234432
     atom   11 type  3   force =    -0.00970729    0.04113188    0.00616478
     atom   12 type  3   force =    -0.00970729   -0.04113188   -0.00616478
     atom   13 type  3   force =    -0.00970729    0.00616478   -0.04113188
     atom   14 type  3   force =    -0.00970729   -0.00616478    0.04113188
     atom   15 type  4   force =     0.01462368   -0.03968608   -0.01088679
     atom   16 type  4   force =     0.01462368    0.03968608    0.01088679
     atom   17 type  4   force =     0.01462368   -0.01088679    0.03968608
     atom   18 type  4   force =     0.01462368    0.01088679   -0.03968608
     The non-local contrib.  to forces
     atom    1 type  1   force =    -0.03150392    0.00000000    0.00000000
     atom    2 type  1   force =    -0.03150392    0.00000000    0.00000000
     atom    3 type  2   force =     0.02693330    0.05530404    0.07055108
     atom    4 type  2   force =     0.02693330   -0.05530404   -0.07055108
     atom    5 type  2   force =     0.02693330    0.07055108   -0.05530404
     atom    6 type  2   force =     0.02693330   -0.07055108    0.05530404
     atom    7 type  2   force =    -0.05314271   -0.00197297   -0.12989176
     atom    8 type  2   force =    -0.05314271    0.00197297    0.12989176
     atom    9 type  2   force =    -0.05314271   -0.12989176    0.00197297
     atom   10 type  2   force =    -0.05314271    0.12989176   -0.00197297
     atom   11 type  3   force =     0.00153520   -0.09518742   -0.02789275
     atom   12 type  3   force =     0.00153520    0.09518742    0.02789275
     atom   13 type  3   force =     0.00153520   -0.02789275    0.09518742
     atom   14 type  3   force =     0.00153520    0.02789275   -0.09518742
     atom   15 type  4   force =     0.00543903    0.17620633   -0.03970792
     atom   16 type  4   force =     0.00543903   -0.17620633    0.03970792
     atom   17 type  4   force =     0.00543903   -0.03970792   -0.17620633
     atom   18 type  4   force =     0.00543903    0.03970792    0.17620633
     The ionic contribution  to forces
     atom    1 type  1   force =    -0.13206353    0.00000000    0.00000000
     atom    2 type  1   force =    -0.13206353   -0.00000000   -0.00000000
     atom    3 type  2   force =     0.34087629    1.54262131   -3.16208424
     atom    4 type  2   force =     0.34087629   -1.54262131    3.16208424
     atom    5 type  2   force =     0.34087629   -3.16208424   -1.54262131
     atom    6 type  2   force =     0.34087629    3.16208424    1.54262131
     atom    7 type  2   force =    -0.53268730    0.00090912    1.63265475
     atom    8 type  2   force =    -0.53268730   -0.00090912   -1.63265475
     atom    9 type  2   force =    -0.53268730    1.63265475   -0.00090912
     atom   10 type  2   force =    -0.53268730   -1.63265475    0.00090912
     atom   11 type  3   force =     0.66929444    8.26285876   -3.78788935
     atom   12 type  3   force =     0.66929444   -8.26285876    3.78788935
     atom   13 type  3   force =     0.66929444   -3.78788935   -8.26285876
     atom   14 type  3   force =     0.66929444    3.78788935    8.26285876
     atom   15 type  4   force =    -0.41145167  -14.97207239    9.46862865
     atom   16 type  4   force =    -0.41145167   14.97207239   -9.46862865
     atom   17 type  4   force =    -0.41145167    9.46862865   14.97207239
     atom   18 type  4   force =    -0.41145167   -9.46862865  -14.97207239
     The local contribution  to forces
     atom    1 type  1   force =     0.17083296    0.00018453   -0.00050124
     atom    2 type  1   force =     0.17078705   -0.00022737    0.00040284
     atom    3 type  2   force =    -0.37308227   -1.60388294    3.06059863
     atom    4 type  2   force =    -0.37314506    1.60372366   -3.06066589
     atom    5 type  2   force =    -0.37314599    3.06051270    1.60382315
     atom    6 type  2   force =    -0.37310568   -3.06049878   -1.60393672
     atom    7 type  2   force =     0.58147100    0.01440325   -1.48253555
     atom    8 type  2   force =     0.58149353   -0.01425834    1.48259518
     atom    9 type  2   force =     0.58151644   -1.48264507   -0.01417764
     atom   10 type  2   force =     0.58144686    1.48266281    0.01428007
     atom   11 type  3   force =    -0.68755351   -8.10825438    3.81162541
     atom   12 type  3   force =    -0.68745508    8.10869877   -3.81038198
     atom   13 type  3   force =    -0.68748463    3.81149800    8.10841639
     atom   14 type  3   force =    -0.68763778   -3.81121260   -8.10771622
     atom   15 type  4   force =     0.42211122   14.74818148   -9.42920560
     atom   16 type  4   force =     0.42201410  -14.74864505    9.42816510
     atom   17 type  4   force =     0.42208416   -9.42855332  -14.74939948
     atom   18 type  4   force =     0.42215752    9.42808248   14.74847934
     The core correction contribution to forces
     atom    1 type  1   force =     0.00002910   -0.00000002   -0.00000008
     atom    2 type  1   force =     0.00002909   -0.00000000    0.00000002
     atom    3 type  2   force =     0.00016002   -0.00142193   -0.00206662
     atom    4 type  2   force =     0.00015984    0.00142247    0.00206614
     atom    5 type  2   force =     0.00016038   -0.00206688    0.00142318
     atom    6 type  2   force =     0.00016026    0.00206684   -0.00142264
     atom    7 type  2   force =     0.00096728   -0.00096661    0.00428010
     atom    8 type  2   force =     0.00096683    0.00096658   -0.00428060
     atom    9 type  2   force =     0.00096654    0.00428072    0.00096623
     atom   10 type  2   force =     0.00096689   -0.00428049   -0.00096667
     atom   11 type  3   force =     0.00703237   -0.01777456    0.01041273
     atom   12 type  3   force =     0.00703287    0.01777599   -0.01041002
     atom   13 type  3   force =     0.00703398    0.01041489    0.01777341
     atom   14 type  3   force =     0.00702823   -0.01041463   -0.01776383
     atom   15 type  4   force =    -0.00144086    0.00815276   -0.01184959
     atom   16 type  4   force =    -0.00144226   -0.00815026    0.01184339
     atom   17 type  4   force =    -0.00144372   -0.01184555   -0.00815380
     atom   18 type  4   force =    -0.00144095    0.01184605    0.00815392
     The Hubbard contrib.    to forces
     atom    1 type  1   force =     0.00000000    0.00000000    0.00000000
     atom    2 type  1   force =     0.00000000    0.00000000    0.00000000
     atom    3 type  2   force =     0.00000000    0.00000000    0.00000000
     atom    4 type  2   force =     0.00000000    0.00000000    0.00000000
     atom    5 type  2   force =     0.00000000    0.00000000    0.00000000
     atom    6 type  2   force =     0.00000000    0.00000000    0.00000000
     atom    7 type  2   force =     0.00000000    0.00000000    0.00000000
     atom    8 type  2   force =     0.00000000    0.00000000    0.00000000
     atom    9 type  2   force =     0.00000000    0.00000000    0.00000000
     atom   10 type  2   force =     0.00000000    0.00000000    0.00000000
     atom   11 type  3   force =     0.00000000    0.00000000    0.00000000
     atom   12 type  3   force =     0.00000000    0.00000000    0.00000000
     atom   13 type  3   force =     0.00000000    0.00000000    0.00000000
     atom   14 type  3   force =     0.00000000    0.00000000    0.00000000
     atom   15 type  4   force =     0.00000000    0.00000000    0.00000000
     atom   16 type  4   force =     0.00000000    0.00000000    0.00000000
     atom   17 type  4   force =     0.00000000    0.00000000    0.00000000
     atom   18 type  4   force =     0.00000000    0.00000000    0.00000000
     The SCF correction term to forces
     atom    1 type  1   force =    -0.00000974   -0.00021434    0.00047384
     atom    2 type  1   force =     0.00002938    0.00025270   -0.00041675
     atom    3 type  2   force =    -0.00003897    0.00015845   -0.00013689
     atom    4 type  2   force =     0.00001009    0.00001253    0.00018663
     atom    5 type  2   force =     0.00002784   -0.00005116   -0.00006299
     atom    6 type  2   force =    -0.00000886    0.00004473    0.00019254
     atom    7 type  2   force =     0.00002947   -0.00003371   -0.00018667
     atom    8 type  2   force =     0.00000282   -0.00011233    0.00011037
     atom    9 type  2   force =    -0.00002914   -0.00006440   -0.00020550
     atom   10 type  2   force =     0.00004195    0.00005056    0.00009534
     atom   11 type  3   force =    -0.00000051   -0.00057560   -0.00012293
     atom   12 type  3   force =    -0.00009453    0.00006226   -0.00117533
     atom   13 type  3   force =    -0.00007377    0.00001705    0.00031245
     atom   14 type  3   force =     0.00008023   -0.00034780   -0.00103395
     atom   15 type  4   force =    -0.00002879   -0.00015312    0.00129263
     atom   16 type  4   force =     0.00008037    0.00061948   -0.00013349
     atom   17 type  4   force =     0.00002098    0.00061414    0.00138477
     atom   18 type  4   force =    -0.00007091   -0.00012074   -0.00043884

     Total force =     0.150874     Total SCF correction =     0.002900

     Computing stress (Cartesian axis) and pressure

     negative rho (up, down):  1.745E+00 0.000E+00
          total   stress  (Ry/bohr**3)                   (kbar)     P=      -70.13
  -0.00136356   0.00000000   0.00000000         -200.59        0.00        0.00
   0.00000000  -0.00003337  -0.00000000            0.00       -4.91       -0.00
   0.00000000   0.00000000  -0.00003337            0.00        0.00       -4.91

     kinetic stress (kbar)  30232.51      0.00      0.00
                                0.00  31248.95      0.00
                                0.00      0.00  31248.95

     local   stress (kbar)   2413.40      0.09      0.03
                                0.09  20717.08     -0.07
                                0.03     -0.07  20717.19

     nonloc. stress (kbar) -10267.45      0.00      0.00
                                0.00 -10288.60      0.00
                                0.00      0.00 -10288.60

     hartree stress (kbar)  14857.11     -0.05     -0.01
                               -0.05   6935.01      0.06
                               -0.01      0.06   6934.93

     exc-cor stress (kbar)  11978.32     -0.00     -0.00
                               -0.00  11978.83      0.00
                               -0.00      0.00  11978.83

     corecor stress (kbar) -20005.48      0.00      0.00
                                0.00 -20010.90     -0.00
                                0.00     -0.00 -20010.90

     ewald   stress (kbar) -29409.01      0.00      0.00
                                0.00 -40585.29      0.00
                                0.00      0.00 -40585.29

     hubbard stress (kbar)      0.00      0.00      0.00
                                0.00      0.00      0.00
                                0.00      0.00      0.00

     DFT-D   stress (kbar)      0.00      0.00      0.00
                                0.00      0.00      0.00
                                0.00      0.00      0.00

     XDM     stress (kbar)      0.00      0.00      0.00
                                0.00      0.00      0.00
                                0.00      0.00      0.00

     dft-nl  stress (kbar)      0.00      0.00      0.00
                                0.00      0.00      0.00
                                0.00      0.00      0.00

     TS-vdW  stress (kbar)      0.00      0.00      0.00
                                0.00      0.00      0.00
                                0.00      0.00      0.00

[...]

                                0.00      0.00      0.00

     Writing all to output data dir new_calculations/myprefix.save/

     General routines

     Parallel routines

     PAW routines

   This run was terminated on:   3:47:31  20May2023

   JOB DONE.