     Program PWSCF v.7.0 starts on 21May2023 at  6:53: 1

     Reading input from espresso_24472.pwi
Warning: card &CELL ignored
Warning: card / ignored

     Current dimensions of program PWSCF are:
     Max number of different atomic species (ntypx) = 10
     Max number of k-points (npk) =  40000
     Max angular momentum in pseudopotentials (lmaxx) =  4
     file O.pbe-n-kjpaw_psl.0.1.UPF: wavefunction(s)  2P renormalized

     gamma-point specific algorithms are used
     Message from routine setup:
     using ibrav=0 with symmetry is DISCOURAGED, use correct ibrav instead

     Subspace diagonalization in iterative solution of the eigenvalue problem:
     a serial algorithm will be used

     Using Slab Decomposition

     bravais-lattice index     =            0
     lattice parameter (alat)  =       9.8469  a.u.
     unit-cell volume          =     508.0441 (a.u.)^3
     number of atoms/cell      =            8
     number of atomic types    =            3
     number of electrons       =        70.00
     number of Kohn-Sham states=           42
     kinetic-energy cutoff     =      30.0000  Ry
     charge density cutoff     =     240.0000  Ry
     scf convergence threshold =      1.0E-06
     mixing beta               =       0.7000
     number of iterations used =            8  plain     mixing
     Exchange-correlation= SLA  PW   PBX  PBC
                           (   1   4   3   4   0   0   0)

     celldm(1)=   9.846921  celldm(2)=   0.000000  celldm(3)=   0.000000
     celldm(4)=   0.000000  celldm(5)=   0.000000  celldm(6)=   0.000000

     crystal axes: (cart. coord. in units of alat)
               a(1) = (   1.000000   0.000000   0.000000 )
               a(2) = (   0.353075   0.935595   0.000000 )
               a(3) = (  -0.676537  -0.467798   0.568738 )

     reciprocal axes: (cart. coord. in units 2 pi/alat)
               b(1) = (  1.000000 -0.377380  0.879140 )
               b(2) = (  0.000000  1.068838  0.879140 )
               b(3) = (  0.000000  0.000000  1.758280 )

     PseudoPot. # 1 for Li read from file:
     /home/pragov/projects/rrg-bengioy-ad/pragov/crystal_structure_design/SSSP/li_pbe_v1.4.uspp.F.UPF
     MD5 check sum: e912e257baa3777c20ea3d68f190483c
     Pseudo is Ultrasoft, Zval =  3.0
     Generated by new atomic code, or converted to UPF format
     Using radial grid of  751 points,  5 beta functions with:
                l(1) =   0
                l(2) =   0
                l(3) =   0
                l(4) =   1
                l(5) =   1
     Q(r) pseudized with 10 coefficients,  rinner =    1.150   1.150   1.150

     PseudoPot. # 2 for Zn read from file:
     /home/pragov/projects/rrg-bengioy-ad/pragov/crystal_structure_design/SSSP/Zn_pbe_v1.uspp.F.UPF
     MD5 check sum: df62231357ef9e81f77b2b3087fa5675
     Pseudo is Ultrasoft, Zval = 20.0
     Generated by new atomic code, or converted to UPF format
     Using radial grid of  943 points,  6 beta functions with:
                l(1) =   0
                l(2) =   0
                l(3) =   1
                l(4) =   1
                l(5) =   2
                l(6) =   2
     Q(r) pseudized with  8 coefficients,  rinner =    1.100   1.100   1.100
                                                       1.100   1.100

     PseudoPot. # 3 for O  read from file:
     /home/pragov/projects/rrg-bengioy-ad/pragov/crystal_structure_design/SSSP/O.pbe-n-kjpaw_psl.0.1.UPF
     MD5 check sum: 0234752ac141de4415c5fc33072bef88
     Pseudo is Projector augmented-wave + core cor, Zval =  6.0
     Generated using "atomic" code by A. Dal Corso  v.5.0.99 svn rev. 10869
     Shape of augmentation charge: BESSEL
     Using radial grid of 1095 points,  4 beta functions with:
                l(1) =   0
                l(2) =   0
                l(3) =   1
                l(4) =   1
     Q(r) pseudized with 0 coefficients

     atomic species   valence    mass     pseudopotential
        Li             3.00     6.94000     Li( 1.00)
        Zn            20.00    65.38000     Zn( 1.00)
        O              6.00    15.99900     O ( 1.00)

      4 Sym. Ops., with inversion, found ( 2 have fractional translation)

                                    s                        frac. trans.

      isym =  1     identity

 cryst.   s( 1) = (     1          0          0      )
                  (     0          1          0      )
                  (     0          0          1      )

 cart.    s( 1) = (  1.0000000 -0.0000000 -0.0000000 )
                  (  0.0000000  1.0000000  0.0000000 )
                  (  0.0000000  0.0000000  1.0000000 )

      isym =  2     180 deg rotation - cart. axis [0,0,1]

 cryst.   s( 2) = (    -1          0          0      )
                  (     0         -1          0      )
                  (     1          1          1      )

 cart.    s( 2) = ( -1.0000000  0.0000000  0.0000000 )
                  (  0.0000000 -1.0000000  0.0000000 )
                  (  0.0000000  0.0000000  1.0000000 )

      isym =  3     inversion

 cryst.   s( 3) = (    -1          0          0      )    f =(  0.2500000 )
                  (     0         -1          0      )       ( -0.2500000 )
                  (     0          0         -1      )       (  0.5000000 )

 cart.    s( 3) = ( -1.0000000  0.0000000  0.0000000 )    f =( -0.1765374 )
                  (  0.0000000 -1.0000000 -0.0000000 )       ( -0.4677976 )
                  (  0.0000000  0.0000000 -1.0000000 )       (  0.2843689 )

      isym =  4     inv. 180 deg rotation - cart. axis [0,0,1]

 cryst.   s( 4) = (     1          0          0      )    f =(  0.2500000 )
                  (     0          1          0      )       ( -0.2500000 )
                  (    -1         -1         -1      )       (  0.5000000 )

 cart.    s( 4) = (  1.0000000 -0.0000000 -0.0000000 )    f =( -0.1765374 )
                  (  0.0000000  1.0000000 -0.0000000 )       ( -0.4677976 )
                  (  0.0000000  0.0000000 -1.0000000 )       (  0.2843689 )

   Cartesian axes

     site n.     atom                  positions (alat units)
         1           Li  tau(   1) = (   0.0000000   0.0000000   0.0000000  )
         2           Li  tau(   2) = (   0.5000000   0.0000000   0.2843689  )
         3           Zn  tau(   3) = (   0.6765374   0.4677976   0.0000000  )
         4           Zn  tau(   4) = (   0.1765374   0.4677976   0.2843689  )
         5           O   tau(   5) = (   0.4911706   0.6853534   0.2843689  )
         6           O   tau(   6) = (   0.3619042   0.2502418   0.0000000  )
         7           O   tau(   7) = (   0.9911706   0.6853534   0.0000000  )
         8           O   tau(   8) = (  -0.1380958   0.2502418   0.2843689  )

   Crystallographic axes

     site n.     atom                  positions (cryst. coord.)
         1           Li  tau(   1) = (  0.0000000  0.0000000  0.0000000  )
         2           Li  tau(   2) = (  0.7500000  0.2500000  0.5000000  )
         3           Zn  tau(   3) = (  0.5000000  0.5000000  0.0000000  )
         4           Zn  tau(   4) = (  0.2500000  0.7500000  0.5000000  )
         5           O   tau(   5) = (  0.4825320  0.9825320  0.5000000  )
         6           O   tau(   6) = (  0.2674680  0.2674680  0.0000000  )
         7           O   tau(   7) = (  0.7325320  0.7325320  0.0000000  )
         8           O   tau(   8) = (  0.0174680  0.5174680  0.5000000  )

     number of k points=     1  Methfessel-Paxton smearing, width (Ry)=  0.0010
                       cart. coord. in units 2pi/alat
        k(    1) = (   0.0000000   0.0000000   0.0000000), wk =   2.0000000

                       cryst. coord.
        k(    1) = (   0.0000000   0.0000000   0.0000000), wk =   2.0000000

     Check: negative core charge=   -0.000016

     Initial potential from superposition of free atoms

     starting charge      69.0982, renormalised to      70.0000
     Starting wfcs are   52 randomized atomic wfcs
     Checking if some PAW data can be deallocated...

     Self-consistent Calculation

     iteration #  1     ecut=    30.00 Ry     beta= 0.70
     Davidson diagonalization with overlap

     ethr =  1.00E-02,  avg # of iterations =  2.0

     total energy              =   -1113.39472899 Ry
     estimated scf accuracy    <       7.55595586 Ry

[...]

     total energy              =   -1118.54431026 Ry
     estimated scf accuracy    <       0.00000738 Ry

     iteration # 22     ecut=    30.00 Ry     beta= 0.70
     Davidson diagonalization with overlap

     ethr =  7.60E-09,  avg # of iterations =  1.0

     End of self-consistent calculation

          k = 0.0000 0.0000 0.0000 (   702 PWs)   bands (ev):

  -116.0451-116.0438 -70.1917 -70.1917 -70.1849 -70.1849 -70.1579 -70.1439
   -36.0587 -36.0403 -10.9192  -9.5831  -9.5467  -9.4524   2.0870   2.1106
     2.1106   2.5093   2.6398   2.6398   2.6435   2.8761   3.0776   3.3823
     3.4699   4.2169   4.2169   4.2447   4.2447   5.3252   5.3253   5.3853
     6.1660   6.3656   6.3720   6.3720  11.2450  14.7558  18.4925  19.1864
    19.2108  19.2109

     occupation numbers
     1.0000   1.0000   1.0000   1.0000   1.0000   1.0000   1.0000   1.0000
     1.0000   1.0000   1.0000   1.0000   1.0000   1.0000   1.0000   1.0000
     1.0000   1.0000   1.0000   1.0000   1.0000   1.0000   1.0000   1.0000
     1.0000   1.0000   1.0000   1.0000   1.0000   1.0000   1.0000   1.0000
     1.0000   0.8869   0.5576   0.5556  -0.0000  -0.0000  -0.0000  -0.0000
    -0.0000  -0.0000

     the Fermi energy is     6.3729 ev

!    total energy              =   -1118.54431027 Ry
     estimated scf accuracy    <       0.00000040 Ry
     smearing contrib. (-TS)   =      -0.00064918 Ry
     internal energy E=F+TS    =   -1118.54366109 Ry

     The total energy is F=E-TS. E is the sum of the following terms:
     one-electron contribution =    -900.02277785 Ry
     hartree contribution      =     478.24437980 Ry
     xc contribution           =    -120.99724058 Ry
     ewald contribution        =    -537.65010335 Ry
     one-center paw contrib.   =     -38.11791910 Ry
      -> PAW hartree energy AE =     113.03089897 Ry
      -> PAW hartree energy PS =    -112.64505036 Ry
      -> PAW xc energy AE      =     -67.82609660 Ry
      -> PAW xc energy PS      =      29.32232889 Ry
      -> total E_H with PAW    =     478.63022840 Ry
      -> total E_XC with PAW   =    -159.50100828 Ry

     convergence has been achieved in  22 iterations

     Forces acting on atoms (cartesian axes, Ry/au):

     atom    1 type  1   force =     0.00000000    0.00000000   -0.00000388
     atom    2 type  1   force =     0.00000000    0.00000000    0.00000388
     atom    3 type  2   force =     0.00000000    0.00000000   -0.00003092
     atom    4 type  2   force =     0.00000000    0.00000000    0.00003092
     atom    5 type  3   force =     0.00769823    0.00531862    0.00000255
     atom    6 type  3   force =    -0.00769823   -0.00531862   -0.00000255
     atom    7 type  3   force =     0.00769823    0.00531862   -0.00000255
     atom    8 type  3   force =    -0.00769823   -0.00531862    0.00000255
     The non-local contrib.  to forces
     atom    1 type  1   force =     0.00000000    0.00000000   -0.00000008
     atom    2 type  1   force =     0.00000000    0.00000000    0.00000008
     atom    3 type  2   force =     0.00000000    0.00000000   -0.00002916
     atom    4 type  2   force =     0.00000000    0.00000000    0.00002916
     atom    5 type  3   force =    -0.37849330   -0.26167253    0.00000248
     atom    6 type  3   force =     0.37849330    0.26167253   -0.00000248
     atom    7 type  3   force =    -0.37849330   -0.26167253   -0.00000248
     atom    8 type  3   force =     0.37849330    0.26167253    0.00000248
     The ionic contribution  to forces
     atom    1 type  1   force =    -0.00000000    0.00000000    0.00000000
     atom    2 type  1   force =    -0.00000000    0.00000000   -0.00000000
     atom    3 type  2   force =    -0.00000000   -0.00000000   -0.00000000
     atom    4 type  2   force =     0.00000000    0.00000000   -0.00000000
     atom    5 type  3   force =     7.07326027    4.89086619    0.00000000
     atom    6 type  3   force =    -7.07326027   -4.89086619    0.00000000
     atom    7 type  3   force =     7.07326027    4.89086619    0.00000000
     atom    8 type  3   force =    -7.07326027   -4.89086619   -0.00000000
     The local contribution  to forces
     atom    1 type  1   force =    -0.00000142   -0.00001043   -0.00000776
     atom    2 type  1   force =     0.00000890    0.00001433    0.00000727
     atom    3 type  2   force =     0.00000840    0.00005753    0.00004675
     atom    4 type  2   force =    -0.00005143   -0.00008844   -0.00004977
     atom    5 type  3   force =    -6.69129596   -4.62681238   -0.00004504
     atom    6 type  3   force =     6.69128999    4.62681179    0.00004092
     atom    7 type  3   force =    -6.69127495   -4.62680851   -0.00004954
     atom    8 type  3   force =     6.69127328    4.62679905    0.00004033
     The core correction contribution to forces
     atom    1 type  1   force =     0.00000000    0.00000000    0.00000000
     atom    2 type  1   force =     0.00000000    0.00000000    0.00000000
     atom    3 type  2   force =     0.00000000    0.00000000    0.00000000
     atom    4 type  2   force =     0.00000000    0.00000000    0.00000000
     atom    5 type  3   force =     0.00423694    0.00292907   -0.00000035
     atom    6 type  3   force =    -0.00423691   -0.00292906    0.00000034
     atom    7 type  3   force =     0.00423701    0.00292904   -0.00000030
     atom    8 type  3   force =    -0.00423699   -0.00292922    0.00000018
     The Hubbard contrib.    to forces
     atom    1 type  1   force =     0.00000000    0.00000000    0.00000000
     atom    2 type  1   force =     0.00000000    0.00000000    0.00000000
     atom    3 type  2   force =     0.00000000    0.00000000    0.00000000
     atom    4 type  2   force =     0.00000000    0.00000000    0.00000000
     atom    5 type  3   force =     0.00000000    0.00000000    0.00000000
     atom    6 type  3   force =     0.00000000    0.00000000    0.00000000
     atom    7 type  3   force =     0.00000000    0.00000000    0.00000000
     atom    8 type  3   force =     0.00000000    0.00000000    0.00000000
     The SCF correction term to forces
     atom    1 type  1   force =     0.00000110    0.00000745    0.00000391
     atom    2 type  1   force =    -0.00000524   -0.00000993   -0.00000352
     atom    3 type  2   force =    -0.00001420   -0.00005788   -0.00004397
     atom    4 type  2   force =     0.00005004    0.00008766    0.00005606
     atom    5 type  3   force =    -0.00001407    0.00000738    0.00001525
     atom    6 type  3   force =     0.00001954   -0.00000445   -0.00001255
     atom    7 type  3   force =    -0.00002770    0.00000220    0.00001626
     atom    8 type  3   force =     0.00002732   -0.00000113   -0.00001497

     Total force =     0.018714     Total SCF correction =     0.000149

     Computing stress (Cartesian axis) and pressure

          total   stress  (Ry/bohr**3)                   (kbar)     P=     -690.74
  -0.00507090  -0.00051180   0.00000000         -745.95      -75.29        0.00
  -0.00051180  -0.00468468   0.00000000          -75.29     -689.14        0.00
   0.00000000   0.00000000  -0.00433107            0.00        0.00     -637.12

     kinetic stress (kbar)  29962.01    -64.50     -0.00
                              -64.50  30010.03     -0.00
                               -0.00     -0.00  30052.37

     local   stress (kbar) -22845.47 -12764.73     -0.79
                           -12764.73 -13210.48      1.64
                               -0.79      1.64  -4382.02

     nonloc. stress (kbar)   -295.08     54.60      0.00
                               54.60   -336.28      0.00
                                0.00      0.00   -373.98

     hartree stress (kbar)  50236.61   5558.08      0.33
                             5558.08  46041.56     -0.50
                                0.33     -0.50  42198.36

     exc-cor stress (kbar) -10663.44      0.09      0.00
                                0.09 -10663.51     -0.01
                                0.00     -0.01 -10663.59

     corecor stress (kbar)   -487.82     -0.77     -0.00
                               -0.77   -487.23      0.01
                               -0.00      0.01   -486.69

     ewald   stress (kbar) -46652.77   7141.94      0.00
                             7141.94 -52043.22     -0.00
                                0.00     -0.00 -56981.57

     hubbard stress (kbar)      0.00      0.00      0.00
                                0.00      0.00      0.00
                                0.00      0.00      0.00

     DFT-D   stress (kbar)      0.00      0.00      0.00
                                0.00      0.00      0.00
                                0.00      0.00      0.00

     XDM     stress (kbar)      0.00      0.00      0.00
                                0.00      0.00      0.00
                                0.00      0.00      0.00

     dft-nl  stress (kbar)      0.00      0.00      0.00
                                0.00      0.00      0.00
                                0.00      0.00      0.00

     TS-vdW  stress (kbar)      0.00      0.00      0.00
                                0.00      0.00      0.00
                                0.00      0.00      0.00

[...]

                                0.00      0.00      0.00

     Writing all to output data dir new_calculations/myprefix.save/

     General routines

     Parallel routines

     PAW routines

   This run was terminated on:   6:53:20  21May2023

   JOB DONE.