     Program PWSCF v.7.0 starts on 20May2023 at  1:13:10

     Reading input from espresso_2048.pwi
Warning: card &CELL ignored
Warning: card / ignored

     Current dimensions of program PWSCF are:
     Max number of different atomic species (ntypx) = 10
     Max number of k-points (npk) =  40000
     Max angular momentum in pseudopotentials (lmaxx) =  4
     file Mg.pbe-n-kjpaw_psl.0.3.0.UPF: wavefunction(s)  3S renormalized

     gamma-point specific algorithms are used
     Message from routine setup:
     using ibrav=0 with symmetry is DISCOURAGED, use correct ibrav instead

     Subspace diagonalization in iterative solution of the eigenvalue problem:
     a serial algorithm will be used

     Using Slab Decomposition

     bravais-lattice index     =            0
     lattice parameter (alat)  =      15.9649  a.u.
     unit-cell volume          =     940.0109 (a.u.)^3
     number of atoms/cell      =            6
     number of atomic types    =            2
     number of electrons       =        21.00
     number of Kohn-Sham states=           15
     kinetic-energy cutoff     =      30.0000  Ry
     charge density cutoff     =     240.0000  Ry
     scf convergence threshold =      1.0E-06
     mixing beta               =       0.7000
     number of iterations used =            8  plain     mixing
     Exchange-correlation= PBE
                           (   1   4   3   4   0   0   0)

     celldm(1)=  15.964940  celldm(2)=   0.000000  celldm(3)=   0.000000
     celldm(4)=   0.000000  celldm(5)=   0.000000  celldm(6)=   0.000000

     crystal axes: (cart. coord. in units of alat)
               a(1) = (   1.000000   0.000000   0.000000 )
               a(2) = (  -0.926624   0.375988   0.000000 )
               a(3) = (   0.000000   0.000000   0.614408 )

     reciprocal axes: (cart. coord. in units 2 pi/alat)
               b(1) = (  1.000000  2.464505  0.000000 )
               b(2) = (  0.000000  2.659659  0.000000 )
               b(3) = (  0.000000  0.000000  1.627583 )

     PseudoPot. # 1 for Mg read from file:
     /home/pragov/projects/rrg-bengioy-ad/pragov/crystal_structure_design/SSSP/Mg.pbe-n-kjpaw_psl.0.3.0.UPF
     MD5 check sum: 24ecedc7f3e3cbe212e682f4413594e4
     Pseudo is Projector augmented-wave + core cor, Zval =  2.0
     Generated using "atomic" code by A. Dal Corso  v.5.0.99 svn rev. 10869
     Shape of augmentation charge: PSQ
     Using radial grid of 1129 points,  4 beta functions with:
                l(1) =   0
                l(2) =   0
                l(3) =   1
                l(4) =   1
     Q(r) pseudized with 0 coefficients

     PseudoPot. # 2 for Sc read from file:
     /home/pragov/projects/rrg-bengioy-ad/pragov/crystal_structure_design/SSSP/Sc_ONCV_PBE-1.0.oncvpsp.upf
     MD5 check sum: e21af8023abb52e52cb7cd3133e4a229
     Pseudo is Norm-conserving, Zval = 11.0
     Generated using ONCVPSP code by D. R. Hamann
     Using radial grid of 1662 points,  6 beta functions with:
                l(1) =   0
                l(2) =   0
                l(3) =   1
                l(4) =   1
                l(5) =   2
                l(6) =   2

     atomic species   valence    mass     pseudopotential
        Mg             2.00    24.30500     Mg( 1.00)
        Sc            11.00    44.95591     Sc( 1.00)

      2 Sym. Ops. (no inversion) found

                                    s                        frac. trans.

      isym =  1     identity

 cryst.   s( 1) = (     1          0          0      )
                  (     0          1          0      )
                  (     0          0          1      )

 cart.    s( 1) = (  1.0000000 -0.0000000  0.0000000 )
                  (  0.0000000  1.0000000  0.0000000 )
                  (  0.0000000  0.0000000  1.0000000 )

      isym =  2     inv. 180 deg rotation - cart. axis [0,0,1]

 cryst.   s( 2) = (     1          0          0      )
                  (     0          1          0      )
                  (     0          0         -1      )

 cart.    s( 2) = (  1.0000000 -0.0000000  0.0000000 )
                  (  0.0000000  1.0000000  0.0000000 )
                  (  0.0000000  0.0000000 -1.0000000 )

   Cartesian axes

     site n.     atom                  positions (alat units)
         1           Mg  tau(   1) = (   0.9958231   0.0008151   0.0000000  )
         2           Mg  tau(   2) = (  -0.2868368   0.2511311   0.0000000  )
         3           Mg  tau(   3) = (   0.3601218   0.1248747   0.0000000  )
         4           Mg  tau(   4) = (  -0.0708545   0.2089813   0.3072040  )
         5           Mg  tau(   5) = (  -0.7123877   0.3341790   0.3072040  )
         6           Sc  tau(   6) = (   0.5764682   0.0826538   0.3072040  )

   Crystallographic axes

     site n.     atom                  positions (cryst. coord.)
         1           Mg  tau(   1) = (  0.9978320  0.0021680  0.0000000  )
         2           Mg  tau(   2) = (  0.3320770  0.6679230  0.0000000  )
         3           Mg  tau(   3) = (  0.6678760  0.3321240  0.0000000  )
         4           Mg  tau(   4) = (  0.4441810  0.5558190  0.5000000  )
         5           Mg  tau(   5) = (  0.1111980  0.8888020  0.5000000  )
         6           Sc  tau(   6) = (  0.7801690  0.2198310  0.5000000  )

     number of k points=     1  Methfessel-Paxton smearing, width (Ry)=  0.0010
                       cart. coord. in units 2pi/alat
        k(    1) = (   0.0000000   0.0000000   0.0000000), wk =   2.0000000

                       cryst. coord.
        k(    1) = (   0.0000000   0.0000000   0.0000000), wk =   2.0000000

     Initial potential from superposition of free atoms

     starting charge      20.9927, renormalised to      21.0000
     Starting wfcs are   30 randomized atomic wfcs
     Checking if some PAW data can be deallocated...

     Self-consistent Calculation

     iteration #  1     ecut=    30.00 Ry     beta= 0.70
     Davidson diagonalization with overlap

     ethr =  1.00E-02,  avg # of iterations =  2.0

     total energy              =    -259.69936410 Ry
     estimated scf accuracy    <       0.92701075 Ry

[...]

     total energy              =    -260.37766784 Ry
     estimated scf accuracy    <       0.00000160 Ry

     iteration # 17     ecut=    30.00 Ry     beta= 0.70
     Davidson diagonalization with overlap

     ethr =  7.64E-09,  avg # of iterations =  5.0

     End of self-consistent calculation

          k = 0.0000 0.0000 0.0000 (  1298 PWs)   bands (ev):

   -44.9843 -23.6730 -23.6105 -23.3991  -2.0302   0.1333   0.1921   3.2946
     3.3078   4.2550   4.6795   4.8157   5.5236   5.9093   6.6436

     occupation numbers
     1.0000   1.0000   1.0000   1.0000   1.0000   1.0000   1.0000   1.0000
     1.0000   1.0000   0.5000  -0.0000  -0.0000  -0.0000  -0.0000

     the Fermi energy is     4.6795 ev

!    total energy              =    -260.37766869 Ry
     estimated scf accuracy    <       0.00000019 Ry
     smearing contrib. (-TS)   =      -0.00028209 Ry
     internal energy E=F+TS    =    -260.37738660 Ry

     The total energy is F=E-TS. E is the sum of the following terms:
     one-electron contribution =     -76.54813586 Ry
     hartree contribution      =      41.61431783 Ry
     xc contribution           =     -19.88300780 Ry
     ewald contribution        =     -49.08307785 Ry
     one-center paw contrib.   =    -156.47748291 Ry
      -> PAW hartree energy AE =       4.04902473 Ry
      -> PAW hartree energy PS =      -4.03919221 Ry
      -> PAW xc energy AE      =    -163.11516810 Ry
      -> PAW xc energy PS      =       6.62785267 Ry
      -> total E_H with PAW    =      41.62415035 Ry
      -> total E_XC with PAW   =    -176.37032324 Ry

     convergence has been achieved in  17 iterations

     Forces acting on atoms (cartesian axes, Ry/au):

     atom    1 type  1   force =     0.00085961   -0.00016895    0.00000000
     atom    2 type  1   force =     0.03078457   -0.00600854    0.00000000
     atom    3 type  1   force =    -0.01894503    0.00369567    0.00000000
     atom    4 type  1   force =    -0.01462438    0.00285270    0.00000000
     atom    5 type  1   force =     0.01609954   -0.00314285    0.00000000
     atom    6 type  2   force =    -0.01417432    0.00277197    0.00000000
     The non-local contrib.  to forces
     atom    1 type  1   force =    -0.01593015    0.00310878    0.00000000
     atom    2 type  1   force =     0.02444888   -0.00477213    0.00000000
     atom    3 type  1   force =    -0.02136334    0.00416966    0.00000000
     atom    4 type  1   force =     0.02760484   -0.00538689    0.00000000
     atom    5 type  1   force =    -0.02829989    0.00552278    0.00000000
     atom    6 type  2   force =    -0.01959312    0.00382902    0.00000000
     The ionic contribution  to forces
     atom    1 type  1   force =     0.44007309   -0.08588194    0.00000000
     atom    2 type  1   force =     0.95935885   -0.18722253    0.00000000
     atom    3 type  1   force =    -1.39373968    0.27199360   -0.00000000
     atom    4 type  1   force =     1.50217214   -0.29315460   -0.00000000
     atom    5 type  1   force =    -1.38760922    0.27079722    0.00000000
     atom    6 type  2   force =    -0.12025518    0.02346826    0.00000000
     The local contribution  to forces
     atom    1 type  1   force =    -0.42475366    0.08289235    0.00000024
     atom    2 type  1   force =    -0.95099376    0.18559125   -0.00000994
     atom    3 type  1   force =     1.39395816   -0.27203703   -0.00001052
     atom    4 type  1   force =    -1.54128531    0.30078722   -0.00000030
     atom    5 type  1   force =     1.42904794   -0.27888392    0.00000354
     atom    6 type  2   force =     0.12608816   -0.02463331    0.00013088
     The core correction contribution to forces
     atom    1 type  1   force =     0.00141467   -0.00027607   -0.00000001
     atom    2 type  1   force =    -0.00206076    0.00040227   -0.00000021
     atom    3 type  1   force =     0.00230268   -0.00044943   -0.00000050
     atom    4 type  1   force =    -0.00323918    0.00063211   -0.00000018
     atom    5 type  1   force =     0.00307474   -0.00060003    0.00000006
     atom    6 type  2   force =     0.00000000    0.00000000    0.00000000
     The Hubbard contrib.    to forces
     atom    1 type  1   force =     0.00000000    0.00000000    0.00000000
     atom    2 type  1   force =     0.00000000    0.00000000    0.00000000
     atom    3 type  1   force =     0.00000000    0.00000000    0.00000000
     atom    4 type  1   force =     0.00000000    0.00000000    0.00000000
     atom    5 type  1   force =     0.00000000    0.00000000    0.00000000
     atom    6 type  2   force =     0.00000000    0.00000000    0.00000000
     The SCF correction term to forces
     atom    1 type  1   force =     0.00006146   -0.00001200    0.00000030
     atom    2 type  1   force =     0.00003718   -0.00000732    0.00000696
     atom    3 type  1   force =    -0.00009704    0.00001895    0.00000585
     atom    4 type  1   force =     0.00012896   -0.00002506   -0.00000137
     atom    5 type  1   force =    -0.00010820    0.00002119   -0.00000298
     atom    6 type  2   force =    -0.00040836    0.00010808   -0.00014847

     Total force =     0.045352     Total SCF correction =     0.000495

     Computing stress (Cartesian axis) and pressure

          total   stress  (Ry/bohr**3)                   (kbar)     P=      -59.32
  -0.00058596  -0.00034816   0.00000000          -86.20      -51.22        0.00
  -0.00034816  -0.00230211   0.00000000          -51.22     -338.65        0.00
   0.00000000   0.00000000   0.00167835            0.00        0.00      246.89

     kinetic stress (kbar)   3568.50    -52.70      0.00
                              -52.70   3308.72      0.00
                                0.00      0.00   4085.39

     local   stress (kbar)   2815.57  -1768.29      0.00
                            -1768.29  -5900.35      0.00
                                0.00      0.00  -2481.61

     nonloc. stress (kbar)   -603.73      0.09      0.00
                                0.09   -603.30      0.00
                                0.00      0.00   -670.67

     hartree stress (kbar)    -21.43    831.66     -0.00
                              831.66   4077.80     -0.00
                               -0.00     -0.00   2455.98

     exc-cor stress (kbar)   -269.73      0.16      0.00
                                0.16   -268.94     -0.00
                                0.00     -0.00   -269.13

     corecor stress (kbar)   -572.52     -0.01      0.00
                               -0.01   -572.58      0.00
                                0.00      0.00   -574.77

     ewald   stress (kbar)  -5002.85    937.88      0.00
                              937.88   -380.01     -0.00
                                0.00     -0.00  -2298.29

     hubbard stress (kbar)      0.00      0.00      0.00
                                0.00      0.00      0.00
                                0.00      0.00      0.00

     DFT-D   stress (kbar)      0.00      0.00      0.00
                                0.00      0.00      0.00
                                0.00      0.00      0.00

     XDM     stress (kbar)      0.00      0.00      0.00
                                0.00      0.00      0.00
                                0.00      0.00      0.00

     dft-nl  stress (kbar)      0.00      0.00      0.00
                                0.00      0.00      0.00
                                0.00      0.00      0.00

     TS-vdW  stress (kbar)      0.00      0.00      0.00
                                0.00      0.00      0.00
                                0.00      0.00      0.00

[...]

                                0.00      0.00      0.00

     Writing all to output data dir new_calculations/myprefix.save/

     General routines

     Parallel routines

     PAW routines

   This run was terminated on:   1:13:22  20May2023

   JOB DONE.