     Program PWSCF v.7.0 starts on 21May2023 at 18:17:55

     Reading input from espresso_20774.pwi
Warning: card &CELL ignored
Warning: card / ignored

     Current dimensions of program PWSCF are:
     Max number of different atomic species (ntypx) = 10
     Max number of k-points (npk) =  40000
     Max angular momentum in pseudopotentials (lmaxx) =  4
     file Ga.pbe-dn-kjpaw_psl.1.0.0.UPF: wavefunction(s)  4S renormalized

     gamma-point specific algorithms are used
     Message from routine setup:
     using ibrav=0 with symmetry is DISCOURAGED, use correct ibrav instead

     Subspace diagonalization in iterative solution of the eigenvalue problem:
     a serial algorithm will be used

     Using Slab Decomposition

     bravais-lattice index     =            0
     lattice parameter (alat)  =       8.5046  a.u.
     unit-cell volume          =    1685.9172 (a.u.)^3
     number of atoms/cell      =           12
     number of atomic types    =            3
     number of electrons       =       172.00
     number of Kohn-Sham states=          103
     kinetic-energy cutoff     =      30.0000  Ry
     charge density cutoff     =     240.0000  Ry
     scf convergence threshold =      1.0E-06
     mixing beta               =       0.7000
     number of iterations used =            8  plain     mixing
     Exchange-correlation= PBE
                           (   1   4   3   4   0   0   0)

     celldm(1)=   8.504595  celldm(2)=   0.000000  celldm(3)=   0.000000
     celldm(4)=   0.000000  celldm(5)=   0.000000  celldm(6)=   0.000000

     crystal axes: (cart. coord. in units of alat)
               a(1) = (   1.000000   0.000000   0.000000 )
               a(2) = (   0.000000   1.573500   0.000000 )
               a(3) = (   0.000000   0.000000   1.741841 )

     reciprocal axes: (cart. coord. in units 2 pi/alat)
               b(1) = (  1.000000  0.000000  0.000000 )
               b(2) = (  0.000000  0.635526  0.000000 )
               b(3) = (  0.000000  0.000000  0.574105 )

     PseudoPot. # 1 for Ce read from file:
     /home/pragov/projects/rrg-bengioy-ad/pragov/crystal_structure_design/SSSP/Ce.GGA-PBE-paw-v1.0.UPF
     MD5 check sum: f2b950f613061344c13339c8d844425d
     Pseudo is Projector augmented-wave + core cor, Zval = 12.0
     Generated using ATOMPAW code
     Shape of augmentation charge: BESSEL
     Using radial grid of 1102 points,  8 beta functions with:
                l(1) =   0
                l(2) =   0
                l(3) =   1
                l(4) =   1
                l(5) =   2
                l(6) =   2
                l(7) =   3
                l(8) =   3
     Q(r) pseudized with 0 coefficients

     PseudoPot. # 2 for Ga read from file:
     /home/pragov/projects/rrg-bengioy-ad/pragov/crystal_structure_design/SSSP/Ga.pbe-dn-kjpaw_psl.1.0.0.UPF
     MD5 check sum: a27b4342b1af7e5f338de752e9ed7044
     Pseudo is Projector augmented-wave + core cor, Zval = 13.0
     Generated using "atomic" code by A. Dal Corso  v.5.1
     Shape of augmentation charge: PSQ
     Using radial grid of 1205 points,  6 beta functions with:
                l(1) =   0
                l(2) =   0
                l(3) =   1
                l(4) =   1
                l(5) =   2
                l(6) =   2
     Q(r) pseudized with 0 coefficients

     PseudoPot. # 3 for Pd read from file:
     /home/pragov/projects/rrg-bengioy-ad/pragov/crystal_structure_design/SSSP/Pd_ONCV_PBE-1.0.oncvpsp.upf
     MD5 check sum: eb77f42b51d86fb18e25f68156a31cf1
     Pseudo is Norm-conserving, Zval = 18.0
     Generated using ONCVPSP code by D. R. Hamann
     Using radial grid of 1410 points,  6 beta functions with:
                l(1) =   0
                l(2) =   0
                l(3) =   1
                l(4) =   1
                l(5) =   2
                l(6) =   2

     atomic species   valence    mass     pseudopotential
        Ce            12.00   140.11600     Ce( 1.00)
        Ga            13.00    69.72300     Ga( 1.00)
        Pd            18.00   106.42000     Pd( 1.00)

      8 Sym. Ops., with inversion, found ( 6 have fractional translation)

                                    s                        frac. trans.

      isym =  1     identity

 cryst.   s( 1) = (     1          0          0      )
                  (     0          1          0      )
                  (     0          0          1      )

 cart.    s( 1) = (  1.0000000  0.0000000  0.0000000 )
                  (  0.0000000  1.0000000  0.0000000 )
                  (  0.0000000  0.0000000  1.0000000 )

      isym =  2     180 deg rotation - cart. axis [0,0,1]

 cryst.   s( 2) = (    -1          0          0      )    f =( -0.0000000 )
                  (     0         -1          0      )       (  0.5000000 )
                  (     0          0          1      )       ( -0.5000000 )

 cart.    s( 2) = ( -1.0000000  0.0000000  0.0000000 )    f =( -0.0000000 )
                  (  0.0000000 -1.0000000  0.0000000 )       (  0.7867501 )
                  (  0.0000000  0.0000000  1.0000000 )       ( -0.8709205 )

[...]

      isym =  4     180 deg rotation - cart. axis [1,0,0]

[...]

      isym =  5     inversion

 cryst.   s( 5) = (    -1          0          0      )
                  (     0         -1          0      )
                  (     0          0         -1      )

 cart.    s( 5) = ( -1.0000000  0.0000000  0.0000000 )
                  (  0.0000000 -1.0000000  0.0000000 )
                  (  0.0000000  0.0000000 -1.0000000 )

      isym =  6     inv. 180 deg rotation - cart. axis [0,0,1]

[...]

      isym =  8     inv. 180 deg rotation - cart. axis [1,0,0]

 cryst.   s( 8) = (    -1          0          0      )    f =(  0.5000000 )
                  (     0          1          0      )       (  0.0000000 )
                  (     0          0          1      )       (  0.0000000 )

 cart.    s( 8) = ( -1.0000000  0.0000000  0.0000000 )    f =(  0.5000000 )
                  (  0.0000000  1.0000000  0.0000000 )       (  0.0000000 )
                  (  0.0000000  0.0000000  1.0000000 )       (  0.0000000 )

   Cartesian axes

     site n.     atom                  positions (alat units)
         1           Ce  tau(   1) = (   0.2500000   1.5445981   0.5177256  )
         2           Ce  tau(   2) = (   0.2500000   0.7578480   0.3531948  )
         3           Ce  tau(   3) = (   0.7500000   0.0289021   1.2241153  )
         4           Ce  tau(   4) = (   0.7500000   0.8156521   1.3886461  )
         5           Ga  tau(   5) = (   0.2500000   0.5093467   1.0080033  )
         6           Ga  tau(   6) = (   0.2500000   1.2960968   1.6047580  )
         7           Ga  tau(   7) = (   0.7500000   1.0641535   0.7338376  )
         8           Ga  tau(   8) = (   0.7500000   0.2774034   0.1370829  )
         9           Pd  tau(   9) = (   0.2500000   0.3461637   1.5789805  )
        10           Pd  tau(  10) = (   0.2500000   1.1329138   1.0337808  )
        11           Pd  tau(  11) = (   0.7500000   1.2273364   0.1628604  )
        12           Pd  tau(  12) = (   0.7500000   0.4405863   0.7080601  )

   Crystallographic axes

     site n.     atom                  positions (cryst. coord.)
         1           Ce  tau(   1) = (  0.2500000  0.9816320  0.2972290  )
         2           Ce  tau(   2) = (  0.2500000  0.4816320  0.2027710  )
         3           Ce  tau(   3) = (  0.7500000  0.0183680  0.7027710  )
         4           Ce  tau(   4) = (  0.7500000  0.5183680  0.7972290  )
         5           Ga  tau(   5) = (  0.2500000  0.3237030  0.5787000  )
         6           Ga  tau(   6) = (  0.2500000  0.8237030  0.9213000  )
         7           Ga  tau(   7) = (  0.7500000  0.6762970  0.4213000  )
         8           Ga  tau(   8) = (  0.7500000  0.1762970  0.0787000  )
         9           Pd  tau(   9) = (  0.2500000  0.2199960  0.9065010  )
        10           Pd  tau(  10) = (  0.2500000  0.7199960  0.5934990  )
        11           Pd  tau(  11) = (  0.7500000  0.7800040  0.0934990  )
        12           Pd  tau(  12) = (  0.7500000  0.2800040  0.4065010  )

     number of k points=     1  Methfessel-Paxton smearing, width (Ry)=  0.0010
                       cart. coord. in units 2pi/alat
        k(    1) = (   0.0000000   0.0000000   0.0000000), wk =   2.0000000

                       cryst. coord.
        k(    1) = (   0.0000000   0.0000000   0.0000000), wk =   2.0000000

     Check: negative core charge=   -0.000002

     Initial potential from superposition of free atoms

     starting charge     171.9588, renormalised to     172.0000
     Starting wfcs are  204 randomized atomic wfcs
     Checking if some PAW data can be deallocated...

     Self-consistent Calculation

     iteration #  1     ecut=    30.00 Ry     beta= 0.70
     Davidson diagonalization with overlap

     ethr =  1.00E-02,  avg # of iterations =  2.0

     total energy              =   -4050.76859961 Ry
     estimated scf accuracy    <       2.25806412 Ry

[...]

     total energy              =   -4052.45783849 Ry
     estimated scf accuracy    <       0.00000585 Ry

     iteration # 58     ecut=    30.00 Ry     beta= 0.70
     Davidson diagonalization with overlap

     ethr =  7.48E-10,  avg # of iterations =  2.0

     End of self-consistent calculation

          k = 0.0000 0.0000 0.0000 (  2335 PWs)   bands (ev):

   -71.5662 -71.5662 -71.5659 -71.5654 -37.0951 -37.0948 -37.0939 -37.0935
   -36.9611 -36.9610 -36.9601 -36.9592 -36.7774 -36.7771 -36.7769 -36.7761
   -19.9291 -19.8940 -19.8463 -19.8166  -3.3980  -3.2997  -3.0859  -2.9481
    -2.7323  -2.6705  -2.5582  -2.4910  -2.4690  -2.4570  -2.4506  -2.3294
    -0.0991  -0.0982  -0.0955  -0.0943  -0.0912  -0.0901  -0.0886  -0.0866
    -0.0796  -0.0785  -0.0755  -0.0746  -0.0709  -0.0646  -0.0583  -0.0536
    -0.0518  -0.0383  -0.0210  -0.0154   6.3848   7.8101   7.8574   8.4288
    10.0434  10.1527  10.4274  10.4859  10.6640  10.7381  10.7892  10.8889
    10.9326  10.9889  10.9933  11.0022  11.1871  11.2256  11.3011  11.3681
    11.3736  11.3971  11.4034  12.0346  12.1712  12.5565  13.2135  13.4813
    13.6896  13.9471  13.9706  14.3601  14.8151  14.8225  14.8234  14.8627
    14.9068  14.9614  14.9848  15.0025  15.0282  15.0344  15.0844  15.0863
    15.1050  15.1307  15.1324  15.1444  15.2100  15.2234  15.2255

     occupation numbers
     1.0000   1.0000   1.0000   1.0000   1.0000   1.0000   1.0000   1.0000
     1.0000   1.0000   1.0000   1.0000   1.0000   1.0000   1.0000   1.0000
     1.0000   1.0000   1.0000   1.0000   1.0000   1.0000   1.0000   1.0000
     1.0000   1.0000   1.0000   1.0000   1.0000   1.0000   1.0000   1.0000
     1.0000   1.0000   1.0000   1.0000   1.0000   1.0000   1.0000   1.0000
     1.0000   1.0000   1.0000   1.0000   1.0000   1.0000   1.0000   1.0000
     1.0000   1.0000   1.0000   1.0000   1.0000   1.0000   1.0000   1.0000
     1.0000   1.0000   1.0000   1.0000   1.0000   1.0000   1.0000   1.0000
     1.0000   1.0000   1.0000   1.0000   1.0000   1.0000   1.0000   1.0000
     1.0000   1.0000   1.0000   1.0000   1.0000   1.0000   1.0000   1.0000
     1.0000   1.0000   1.0000   1.0000   0.9292   0.5640   0.5070  -0.0002
    -0.0000  -0.0000  -0.0000  -0.0000  -0.0000  -0.0000  -0.0000  -0.0000
    -0.0000  -0.0000  -0.0000  -0.0000  -0.0000  -0.0000  -0.0000

     the Fermi energy is    14.8235 ev

!    total energy              =   -4052.45783778 Ry
     estimated scf accuracy    <       0.00000097 Ry
     smearing contrib. (-TS)   =      -0.00060209 Ry
     internal energy E=F+TS    =   -4052.45723569 Ry

     The total energy is F=E-TS. E is the sum of the following terms:
     one-electron contribution =    -885.09076101 Ry
     hartree contribution      =     568.78431987 Ry
     xc contribution           =    -292.71648145 Ry
     ewald contribution        =   -1366.49829358 Ry
     one-center paw contrib.   =   -2076.93601953 Ry
      -> PAW hartree energy AE =     741.09961121 Ry
      -> PAW hartree energy PS =    -730.99967829 Ry
      -> PAW xc energy AE      =   -2271.93629306 Ry
      -> PAW xc energy PS      =     184.90034061 Ry
      -> total E_H with PAW    =     578.88425279 Ry
      -> total E_XC with PAW   =   -2379.75243390 Ry

     convergence has been achieved in  58 iterations

     Forces acting on atoms (cartesian axes, Ry/au):

     atom    1 type  1   force =     0.00000000    0.00799520   -0.02051510
     atom    2 type  1   force =     0.00000000    0.00799520    0.02051510
     atom    3 type  1   force =     0.00000000   -0.00799520    0.02051510
     atom    4 type  1   force =     0.00000000   -0.00799520   -0.02051510
     atom    5 type  2   force =     0.00000000    0.00249858    0.04411983
     atom    6 type  2   force =     0.00000000    0.00249858   -0.04411983
     atom    7 type  2   force =     0.00000000   -0.00249858   -0.04411983
     atom    8 type  2   force =     0.00000000   -0.00249858    0.04411983
     atom    9 type  3   force =     0.00000000   -0.00680389    0.00136085
     atom   10 type  3   force =     0.00000000   -0.00680389   -0.00136085
     atom   11 type  3   force =     0.00000000    0.00680389   -0.00136085
     atom   12 type  3   force =     0.00000000    0.00680389    0.00136085
     The non-local contrib.  to forces
     atom    1 type  1   force =     0.00000000    0.06216377    0.14572149
     atom    2 type  1   force =    -0.00000000    0.06216377   -0.14572149
     atom    3 type  1   force =    -0.00000000   -0.06216377   -0.14572149
     atom    4 type  1   force =     0.00000000   -0.06216377    0.14572149
     atom    5 type  2   force =     0.00000000    0.04447725   -0.37842766
     atom    6 type  2   force =     0.00000000    0.04447725    0.37842766
     atom    7 type  2   force =     0.00000000   -0.04447725    0.37842766
     atom    8 type  2   force =     0.00000000   -0.04447725   -0.37842766
     atom    9 type  3   force =     0.00000000    0.04971322    0.24903603
     atom   10 type  3   force =     0.00000000    0.04971322   -0.24903603
     atom   11 type  3   force =     0.00000000   -0.04971322   -0.24903603
     atom   12 type  3   force =     0.00000000   -0.04971322    0.24903603
     The ionic contribution  to forces
     atom    1 type  1   force =     0.00000000    1.20948078    3.72174276
     atom    2 type  1   force =    -0.00000000    1.20948078   -3.72174276
     atom    3 type  1   force =     0.00000000   -1.20948078   -3.72174276
     atom    4 type  1   force =     0.00000000   -1.20948078    3.72174276
     atom    5 type  2   force =    -0.00000000   -4.20731869    1.39071055
     atom    6 type  2   force =    -0.00000000   -4.20731869   -1.39071055
     atom    7 type  2   force =     0.00000000    4.20731869   -1.39071055
     atom    8 type  2   force =    -0.00000000    4.20731869    1.39071055
     atom    9 type  3   force =    -0.00000000    6.52420677   -1.28537915
     atom   10 type  3   force =    -0.00000000    6.52420677    1.28537915
     atom   11 type  3   force =    -0.00000000   -6.52420677    1.28537915
     atom   12 type  3   force =    -0.00000000   -6.52420677   -1.28537915
     The local contribution  to forces
     atom    1 type  1   force =    -0.00004336   -1.26358926   -3.88871865
     atom    2 type  1   force =    -0.00000842   -1.26368672    3.88811404
     atom    3 type  1   force =     0.00000299    1.26358064    3.88744448
     atom    4 type  1   force =     0.00004434    1.26360941   -3.88678622
     atom    5 type  2   force =    -0.00003048    4.16756995   -0.97269241
     atom    6 type  2   force =    -0.00001469    4.16726461    0.97290781
     atom    7 type  2   force =    -0.00002698   -4.16788833    0.96989708
     atom    8 type  2   force =    -0.00003201   -4.16741188   -0.97020105
     atom    9 type  3   force =    -0.00015410   -6.58053062    1.03976998
     atom   10 type  3   force =    -0.00015621   -6.58091877   -1.03905144
     atom   11 type  3   force =    -0.00014082    6.58063268   -1.03636094
     atom   12 type  3   force =    -0.00013191    6.58124007    1.03556798
     The core correction contribution to forces
     atom    1 type  1   force =    -0.00000002   -0.00004637   -0.00023043
     atom    2 type  1   force =     0.00000000   -0.00004646    0.00023045
     atom    3 type  1   force =     0.00000001    0.00004635    0.00022999
     atom    4 type  1   force =     0.00000004    0.00004632   -0.00023000
     atom    5 type  2   force =    -0.00000160   -0.00212874    0.00332047
     atom    6 type  2   force =    -0.00000148   -0.00212713   -0.00332041
     atom    7 type  2   force =    -0.00000156    0.00212620   -0.00332198
     atom    8 type  2   force =    -0.00000176    0.00212717    0.00332210
     atom    9 type  3   force =     0.00000000    0.00000000    0.00000000
     atom   10 type  3   force =     0.00000000    0.00000000    0.00000000
     atom   11 type  3   force =     0.00000000    0.00000000    0.00000000
     atom   12 type  3   force =     0.00000000    0.00000000    0.00000000
     The Hubbard contrib.    to forces
     atom    1 type  1   force =     0.00000000    0.00000000    0.00000000
     atom    2 type  1   force =     0.00000000    0.00000000    0.00000000
     atom    3 type  1   force =     0.00000000    0.00000000    0.00000000
     atom    4 type  1   force =     0.00000000    0.00000000    0.00000000
     atom    5 type  2   force =     0.00000000    0.00000000    0.00000000
     atom    6 type  2   force =     0.00000000    0.00000000    0.00000000
     atom    7 type  2   force =     0.00000000    0.00000000    0.00000000
     atom    8 type  2   force =     0.00000000    0.00000000    0.00000000
     atom    9 type  3   force =     0.00000000    0.00000000    0.00000000
     atom   10 type  3   force =     0.00000000    0.00000000    0.00000000
     atom   11 type  3   force =     0.00000000    0.00000000    0.00000000
     atom   12 type  3   force =     0.00000000    0.00000000    0.00000000
     The SCF correction term to forces
     atom    1 type  1   force =     0.00001795   -0.00002384    0.00070918
     atom    2 type  1   force =    -0.00000139    0.00004181   -0.00022934
     atom    3 type  1   force =    -0.00000332    0.00000710    0.00018024
     atom    4 type  1   force =    -0.00002359   -0.00004327   -0.00069141
     atom    5 type  2   force =     0.00000729   -0.00013951    0.00120866
     atom    6 type  2   force =    -0.00001347    0.00018374   -0.00136630
     atom    7 type  2   force =    -0.00000585    0.00040344    0.00152666
     atom    8 type  2   force =     0.00000064   -0.00009375   -0.00128717
     atom    9 type  3   force =    -0.00002021   -0.00017104   -0.00199622
     atom   10 type  3   force =    -0.00001920    0.00025517    0.00130970
     atom   11 type  3   force =    -0.00001789    0.00012401   -0.00134744
     atom   12 type  3   force =    -0.00002590   -0.00046648    0.00202403

     Total force =     0.099714     Total SCF correction =     0.004534

     Computing stress (Cartesian axis) and pressure

          total   stress  (Ry/bohr**3)                   (kbar)     P=     -445.77
  -0.00277412   0.00000000   0.00000000         -408.09        0.00        0.00
   0.00000000  -0.00276575   0.00000000            0.00     -406.86        0.00
   0.00000000   0.00000000  -0.00355101            0.00        0.00     -522.37

     kinetic stress (kbar)  27936.11      0.00      0.00
                                0.00  28186.58      0.00
                                0.00      0.00  27763.20

     local   stress (kbar) -13156.90     -0.08      0.00
                               -0.08    -20.49     -0.02
                                0.00     -0.02  -9881.53

     nonloc. stress (kbar)   9094.13      0.00      0.00
                                0.00   8988.21      0.00
                                0.00      0.00   9072.68

     hartree stress (kbar)  18832.49      0.01      0.00
                                0.01  13438.67      0.02
                                0.00      0.02  17358.25

     exc-cor stress (kbar)  -1470.66     -0.00     -0.00
                               -0.00  -1475.40     -0.00
                               -0.00     -0.00  -1474.63

     corecor stress (kbar)  -5098.18     -0.00     -0.00
                               -0.00  -5098.12      0.00
                               -0.00      0.00  -5097.60

     ewald   stress (kbar) -36545.07      0.00     -0.00
                                0.00 -44426.30     -0.00
                               -0.00     -0.00 -38262.74

     hubbard stress (kbar)      0.00      0.00      0.00
                                0.00      0.00      0.00
                                0.00      0.00      0.00

     DFT-D   stress (kbar)      0.00      0.00      0.00
                                0.00      0.00      0.00
                                0.00      0.00      0.00

     XDM     stress (kbar)      0.00      0.00      0.00
                                0.00      0.00      0.00
                                0.00      0.00      0.00

     dft-nl  stress (kbar)      0.00      0.00      0.00
                                0.00      0.00      0.00
                                0.00      0.00      0.00

     TS-vdW  stress (kbar)      0.00      0.00      0.00
                                0.00      0.00      0.00
                                0.00      0.00      0.00

[...]

                                0.00      0.00      0.00

     Writing all to output data dir new_calculations/myprefix.save/

     General routines

     Parallel routines

     PAW routines

   This run was terminated on:  18:20:42  21May2023

   JOB DONE.