     Program PWSCF v.7.0 starts on 21May2023 at  5:28:36

     Reading input from espresso_23431.pwi
Warning: card &CELL ignored
Warning: card / ignored

     Current dimensions of program PWSCF are:
     Max number of different atomic species (ntypx) = 10
     Max number of k-points (npk) =  40000
     Max angular momentum in pseudopotentials (lmaxx) =  4

     gamma-point specific algorithms are used
     Message from routine setup:
     using ibrav=0 with symmetry is DISCOURAGED, use correct ibrav instead

     Subspace diagonalization in iterative solution of the eigenvalue problem:
     a serial algorithm will be used

     Using Slab Decomposition

     bravais-lattice index     =            0
     lattice parameter (alat)  =      10.1438  a.u.
     unit-cell volume          =     468.3084 (a.u.)^3
     number of atoms/cell      =            5
     number of atomic types    =            3
     number of electrons       =        70.00
     number of Kohn-Sham states=           42
     kinetic-energy cutoff     =      30.0000  Ry
     charge density cutoff     =     240.0000  Ry
     scf convergence threshold =      1.0E-06
     mixing beta               =       0.7000
     number of iterations used =            8  plain     mixing
     Exchange-correlation= PBE
                           (   1   4   3   4   0   0   0)

     celldm(1)=  10.143815  celldm(2)=   0.000000  celldm(3)=   0.000000
     celldm(4)=   0.000000  celldm(5)=   0.000000  celldm(6)=   0.000000

     crystal axes: (cart. coord. in units of alat)
               a(1) = (   1.000000   0.000000   0.000000 )
               a(2) = (   0.478095   0.878308   0.000000 )
               a(3) = (  -0.739047  -0.439154   0.510835 )

     reciprocal axes: (cart. coord. in units 2 pi/alat)
               b(1) = (  1.000000 -0.544336  0.978789 )
               b(2) = (  0.000000  1.138552  0.978789 )
               b(3) = (  0.000000  0.000000  1.957578 )

     PseudoPot. # 1 for Yb read from file:
     /home/pragov/projects/rrg-bengioy-ad/pragov/crystal_structure_design/SSSP/Yb.GGA-PBE-paw-v1.0.UPF
     MD5 check sum: 43b6465ad8021f06e3edb42ae292e187
     Pseudo is Projector augmented-wave + core cor, Zval = 24.0
     Generated using ATOMPAW code
     Shape of augmentation charge: BESSEL
     Using radial grid of 1117 points,  8 beta functions with:
                l(1) =   0
                l(2) =   0
                l(3) =   1
                l(4) =   1
                l(5) =   2
                l(6) =   2
                l(7) =   3
                l(8) =   3
     Q(r) pseudized with 0 coefficients

     PseudoPot. # 2 for Ni read from file:
     /home/pragov/projects/rrg-bengioy-ad/pragov/crystal_structure_design/SSSP/ni_pbe_v1.4.uspp.F.UPF
     MD5 check sum: 1ee80287db30b12d2bc1f57a5b5d6409
     Pseudo is Ultrasoft + core correction, Zval = 18.0
     Generated by new atomic code, or converted to UPF format
     Using radial grid of  865 points,  6 beta functions with:
                l(1) =   0
                l(2) =   0
                l(3) =   1
                l(4) =   1
                l(5) =   2
                l(6) =   2
     Q(r) pseudized with 10 coefficients,  rinner =    0.980   0.980   0.980
                                                       0.980   0.980

     PseudoPot. # 3 for P  read from file:
     /home/pragov/projects/rrg-bengioy-ad/pragov/crystal_structure_design/SSSP/P.pbe-n-rrkjus_psl.1.0.0.UPF
     MD5 check sum: 8b930f418f0a4573dca56cd030ffe088
     Pseudo is Ultrasoft + core correction, Zval =  5.0
     Generated using "atomic" code by A. Dal Corso  v.5.1
     Using radial grid of 1147 points,  6 beta functions with:
                l(1) =   0
                l(2) =   0
                l(3) =   1
                l(4) =   1
                l(5) =   2
                l(6) =   2
     Q(r) pseudized with 0 coefficients

     atomic species   valence    mass     pseudopotential
        Yb            24.00   173.05400     Yb( 1.00)
        Ni            18.00    58.69340     Ni( 1.00)
        P              5.00    30.97376     P ( 1.00)

      4 Sym. Ops., with inversion, found

                                    s                        frac. trans.

      isym =  1     identity

 cryst.   s( 1) = (     1          0          0      )
                  (     0          1          0      )
                  (     0          0          1      )

 cart.    s( 1) = (  1.0000000  0.0000000  0.0000000 )
                  (  0.0000000  1.0000000  0.0000000 )
                  (  0.0000000  0.0000000  1.0000000 )

      isym =  2     180 deg rotation - cart. axis [0,0,1]

[...]

      isym =  3     inversion

[...]

      isym =  4     inv. 180 deg rotation - cart. axis [0,0,1]

 cryst.   s( 4) = (     1          0          0      )
                  (     0          1          0      )
                  (    -1         -1         -1      )

 cart.    s( 4) = (  1.0000000  0.0000000 -0.0000000 )
                  (  0.0000000  1.0000000 -0.0000000 )
                  (  0.0000000  0.0000000 -1.0000000 )

   Cartesian axes

     site n.     atom                  positions (alat units)
         1           Yb  tau(   1) = (   0.0000000   0.0000000   0.0000000  )
         2           Ni  tau(   2) = (   0.2390473   0.4391542   0.2554177  )
         3           Ni  tau(   3) = (   0.5000000   0.0000000   0.2554177  )
         4           P   tau(   4) = (   0.5582896   0.3317450   0.0000000  )
         5           P   tau(   5) = (   0.9198049   0.5465634   0.0000000  )

   Crystallographic axes

     site n.     atom                  positions (cryst. coord.)
         1           Yb  tau(   1) = (  0.0000000  0.0000000  0.0000000  )
         2           Ni  tau(   2) = (  0.2500000  0.7500000  0.5000000  )
         3           Ni  tau(   3) = (  0.7500000  0.2500000  0.5000000  )
         4           P   tau(   4) = (  0.3777090  0.3777090  0.0000000  )
         5           P   tau(   5) = (  0.6222910  0.6222910  0.0000000  )

     number of k points=     1  Methfessel-Paxton smearing, width (Ry)=  0.0010
                       cart. coord. in units 2pi/alat
        k(    1) = (   0.0000000   0.0000000   0.0000000), wk =   2.0000000

                       cryst. coord.
        k(    1) = (   0.0000000   0.0000000   0.0000000), wk =   2.0000000

     Check: negative core charge=   -0.000005

     Initial potential from superposition of free atoms

     starting charge      65.9957, renormalised to      70.0000
     Starting wfcs are   66 randomized atomic wfcs
     Checking if some PAW data can be deallocated...

     Self-consistent Calculation

     iteration #  1     ecut=    30.00 Ry     beta= 0.70
     Davidson diagonalization with overlap

     ethr =  1.00E-02,  avg # of iterations =  6.0

     total energy              =   -1549.21441749 Ry
     estimated scf accuracy    <     156.23466046 Ry

[...]

     negative rho (up, down):  3.212E-02 0.000E+00

[...]

     negative rho (up, down):  8.572E-03 0.000E+00

[...]

     total energy              =   -1725.16083045 Ry
     estimated scf accuracy    <       0.00002599 Ry

     iteration # 44     ecut=    30.00 Ry     beta= 0.70
     Davidson diagonalization with overlap

     ethr =  3.71E-08,  avg # of iterations =  2.0

     End of self-consistent calculation

          k = 0.0000 0.0000 0.0000 (   654 PWs)   bands (ev):

   -88.3862 -88.3451 -48.8694 -48.8039 -48.5445 -48.5431 -48.4872 -48.2626
   -34.8427  -7.0364  -6.9438  -6.9219   2.1471   6.2845   8.4864  11.5022
    11.5704  12.3233  12.5260  12.5352  12.7289  13.5866  13.9671  14.0215
    14.2454  14.2659  15.1437  15.1539  15.5362  15.5460  15.7811  15.8287
    15.8360  15.8646  16.5447  16.6239  16.7141  19.3302  19.7558  19.9892
    20.6758  21.4668

     occupation numbers
     1.0000   1.0000   1.0000   1.0000   1.0000   1.0000   1.0000   1.0000
     1.0000   1.0000   1.0000   1.0000   1.0000   1.0000   1.0000   1.0000
     1.0000   1.0000   1.0000   1.0000   1.0000   1.0000   1.0000   1.0000
     1.0000   1.0000   1.0000   1.0000   1.0000   1.0000   1.0000   1.0000
     1.0000   1.0000   1.0002  -0.0002  -0.0000  -0.0000  -0.0000  -0.0000
    -0.0000  -0.0000

     the Fermi energy is    16.5843 ev

!    total energy              =   -1725.16083185 Ry
     estimated scf accuracy    <       0.00000064 Ry
     smearing contrib. (-TS)   =       0.00000189 Ry
     internal energy E=F+TS    =   -1725.16083374 Ry

     The total energy is F=E-TS. E is the sum of the following terms:
     one-electron contribution =    -824.10880406 Ry
     hartree contribution      =     421.53452424 Ry
     xc contribution           =    -118.21058989 Ry
     ewald contribution        =    -719.15295564 Ry
     one-center paw contrib.   =    -485.22300839 Ry
      -> PAW hartree energy AE =     449.86373149 Ry
      -> PAW hartree energy PS =    -387.66876603 Ry
      -> PAW xc energy AE      =    -584.57853279 Ry
      -> PAW xc energy PS      =      37.16055895 Ry
      -> total E_H with PAW    =     483.72948970 Ry
      -> total E_XC with PAW   =    -665.62856373 Ry

     convergence has been achieved in  44 iterations

     Forces acting on atoms (cartesian axes, Ry/au):

     atom    1 type  1   force =     0.00000000    0.00000000    0.00000000
     atom    2 type  2   force =     0.00000000    0.00000000    0.01551678
     atom    3 type  2   force =     0.00000000    0.00000000   -0.01551678
     atom    4 type  3   force =    -0.05579404   -0.03507193    0.00000000
     atom    5 type  3   force =     0.05579404    0.03507193   -0.00000000
     The non-local contrib.  to forces
     atom    1 type  1   force =     0.00000000    0.00000000    0.00000000
     atom    2 type  2   force =     0.00000000    0.00000000   -0.01796989
     atom    3 type  2   force =     0.00000000    0.00000000    0.01796989
     atom    4 type  3   force =    -0.05829332   -0.03171761    0.00000000
     atom    5 type  3   force =     0.05829332    0.03171761   -0.00000000
     The ionic contribution  to forces
     atom    1 type  1   force =     0.00000000    0.00000000    0.00000000
     atom    2 type  2   force =    -0.00000000   -0.00000000   -0.00000000
     atom    3 type  2   force =    -0.00000000    0.00000000   -0.00000000
     atom    4 type  3   force =     6.62919157    3.93917604   -0.00000000
     atom    5 type  3   force =    -6.62919157   -3.93917604    0.00000000
     The local contribution  to forces
     atom    1 type  1   force =    -0.00007724   -0.00012976    0.00004924
     atom    2 type  2   force =     0.00472866   -0.00722146    0.03262412
     atom    3 type  2   force =    -0.00420323    0.00769368   -0.03281646
     atom    4 type  3   force =    -6.62938888   -3.94344605   -0.00090694
     atom    5 type  3   force =     6.62932681    3.94337689    0.00102277
     The core correction contribution to forces
     atom    1 type  1   force =     0.00000000   -0.00000000    0.00000000
     atom    2 type  2   force =     0.00013567   -0.00010842    0.00081307
     atom    3 type  2   force =    -0.00013490    0.00011168   -0.00081615
     atom    4 type  3   force =     0.00258486    0.00082928   -0.00008327
     atom    5 type  3   force =    -0.00258736   -0.00082873    0.00008456
     The Hubbard contrib.    to forces
     atom    1 type  1   force =     0.00000000    0.00000000    0.00000000
     atom    2 type  2   force =     0.00000000    0.00000000    0.00000000
     atom    3 type  2   force =     0.00000000    0.00000000    0.00000000
     atom    4 type  3   force =     0.00000000    0.00000000    0.00000000
     atom    5 type  3   force =     0.00000000    0.00000000    0.00000000
     The SCF correction term to forces
     atom    1 type  1   force =    -0.00013616    0.00002944    0.00015693
     atom    2 type  2   force =    -0.00033144   -0.00020296    0.00007463
     atom    3 type  2   force =    -0.00028461   -0.00023394    0.00017109
     atom    4 type  3   force =     0.00007733    0.00007452   -0.00002188
     atom    5 type  3   force =    -0.00008156   -0.00002971   -0.00001179

     Total force =     0.095747     Total SCF correction =     0.000621

     Computing stress (Cartesian axis) and pressure

          total   stress  (Ry/bohr**3)                   (kbar)     P=     -969.81
  -0.00610307   0.00084818   0.00000000         -897.79      124.77        0.00
   0.00084818  -0.00777858   0.00000000          124.77    -1144.27        0.00
   0.00000000   0.00000000  -0.00589617            0.00        0.00     -867.36

     kinetic stress (kbar)  26586.53   -161.10     -0.00
                             -161.10  26601.87     -0.00
                               -0.00     -0.00  26859.32

     local   stress (kbar)   2841.85   5117.58    -35.97
                             5117.58  -2263.59    -32.28
                              -35.97    -32.28  -5544.54

     nonloc. stress (kbar)  16809.62    -74.24     -0.00
                              -74.24  16627.93     -0.00
                               -0.00     -0.00  17014.43

     hartree stress (kbar)  42307.70  -2061.19     13.52
                            -2061.19  44396.07     10.17
                               13.52     10.17  45708.68

     exc-cor stress (kbar)  -9886.17     -1.08      0.16
                               -1.08  -9885.96      0.01
                                0.16      0.01  -9884.82

     corecor stress (kbar)  -1761.56      6.14     -0.06
                                6.14  -1765.69     -0.33
                               -0.06     -0.33  -1770.72

     ewald   stress (kbar) -77795.77  -2701.34     -0.00
                            -2701.34 -74854.90     -0.00
                               -0.00     -0.00 -73249.71

     hubbard stress (kbar)      0.00      0.00      0.00
                                0.00      0.00      0.00
                                0.00      0.00      0.00

     DFT-D   stress (kbar)      0.00      0.00      0.00
                                0.00      0.00      0.00
                                0.00      0.00      0.00

     XDM     stress (kbar)      0.00      0.00      0.00
                                0.00      0.00      0.00
                                0.00      0.00      0.00

     dft-nl  stress (kbar)      0.00      0.00      0.00
                                0.00      0.00      0.00
                                0.00      0.00      0.00

     TS-vdW  stress (kbar)      0.00      0.00      0.00
                                0.00      0.00      0.00
                                0.00      0.00      0.00

[...]

                                0.00      0.00      0.00

     Writing all to output data dir new_calculations/myprefix.save/

     General routines

     Parallel routines

     PAW routines

   This run was terminated on:   5:29:19  21May2023

   JOB DONE.