     Program PWSCF v.7.0 starts on 20May2023 at 22:23:10

     Reading input from espresso_1779.pwi
Warning: card &CELL ignored
Warning: card / ignored

     Current dimensions of program PWSCF are:
     Max number of different atomic species (ntypx) = 10
     Max number of k-points (npk) =  40000
     Max angular momentum in pseudopotentials (lmaxx) =  4
     file O.pbe-n-kjpaw_psl.0.1.UPF: wavefunction(s)  2P renormalized

     gamma-point specific algorithms are used
     Message from routine setup:
     using ibrav=0 with symmetry is DISCOURAGED, use correct ibrav instead

     Subspace diagonalization in iterative solution of the eigenvalue problem:
     a serial algorithm will be used

     Using Slab Decomposition

     bravais-lattice index     =            0
     lattice parameter (alat)  =       5.6809  a.u.
     unit-cell volume          =     563.6206 (a.u.)^3
     number of atoms/cell      =            6
     number of atomic types    =            3
     number of electrons       =        49.00
     number of Kohn-Sham states=           30
     kinetic-energy cutoff     =      30.0000  Ry
     charge density cutoff     =     240.0000  Ry
     scf convergence threshold =      1.0E-06
     mixing beta               =       0.7000
     number of iterations used =            8  plain     mixing
     Exchange-correlation= SLA  PW   PBX  PBC
                           (   1   4   3   4   0   0   0)

     celldm(1)=   5.680853  celldm(2)=   0.000000  celldm(3)=   0.000000
     celldm(4)=   0.000000  celldm(5)=   0.000000  celldm(6)=   0.000000

     crystal axes: (cart. coord. in units of alat)
               a(1) = (   1.000000   0.000000   0.000000 )
               a(2) = (   0.000000   1.781582   0.000000 )
               a(3) = (   0.000000   0.735075   1.725600 )

     reciprocal axes: (cart. coord. in units 2 pi/alat)
               b(1) = (  1.000000  0.000000  0.000000 )
               b(2) = (  0.000000  0.561299 -0.239103 )
               b(3) = (  0.000000  0.000000  0.579508 )

     PseudoPot. # 1 for Cu read from file:
     /home/pragov/projects/rrg-bengioy-ad/pragov/crystal_structure_design/SSSP/Cu_pbe_v1.2.uspp.F.UPF
     MD5 check sum: 6e991ff952a84172a2a52a1c1e996048
     Pseudo is Ultrasoft + core correction, Zval = 19.0
     Generated by new atomic code, or converted to UPF format
     Using radial grid of  867 points,  6 beta functions with:
                l(1) =   0
                l(2) =   0
                l(3) =   1
                l(4) =   1
                l(5) =   2
                l(6) =   2
     Q(r) pseudized with  8 coefficients,  rinner =    1.150   1.150   1.150
                                                       1.150   1.150

     PseudoPot. # 2 for Te read from file:
     /home/pragov/projects/rrg-bengioy-ad/pragov/crystal_structure_design/SSSP/Te_pbe_v1.uspp.F.UPF
     MD5 check sum: c319670d6894cc26e93307826a071b75
     Pseudo is Ultrasoft + core correction, Zval =  6.0
     Generated by new atomic code, or converted to UPF format
     Using radial grid of  891 points,  5 beta functions with:
                l(1) =   0
                l(2) =   0
                l(3) =   1
                l(4) =   1
                l(5) =   2
     Q(r) pseudized with  6 coefficients,  rinner =    1.800   1.800   1.800
                                                       1.800   1.800

     PseudoPot. # 3 for O  read from file:
     /home/pragov/projects/rrg-bengioy-ad/pragov/crystal_structure_design/SSSP/O.pbe-n-kjpaw_psl.0.1.UPF
     MD5 check sum: 0234752ac141de4415c5fc33072bef88
     Pseudo is Projector augmented-wave + core cor, Zval =  6.0
     Generated using "atomic" code by A. Dal Corso  v.5.0.99 svn rev. 10869
     Shape of augmentation charge: BESSEL
     Using radial grid of 1095 points,  4 beta functions with:
                l(1) =   0
                l(2) =   0
                l(3) =   1
                l(4) =   1
     Q(r) pseudized with 0 coefficients

     atomic species   valence    mass     pseudopotential
        Cu            19.00    63.54600     Cu( 1.00)
        Te             6.00   127.60000     Te( 1.00)
        O              6.00    15.99900     O ( 1.00)

      4 Sym. Ops., with inversion, found

                                    s                        frac. trans.

      isym =  1     identity

 cryst.   s( 1) = (     1          0          0      )
                  (     0          1          0      )
                  (     0          0          1      )

 cart.    s( 1) = (  1.0000000  0.0000000  0.0000000 )
                  (  0.0000000  1.0000000  0.0000000 )
                  (  0.0000000  0.0000000  1.0000000 )

      isym =  2     180 deg rotation - cart. axis [1,0,0]

[...]

      isym =  3     inversion

[...]

      isym =  4     inv. 180 deg rotation - cart. axis [1,0,0]

 cryst.   s( 4) = (    -1          0          0      )
                  (     0          1          0      )
                  (     0          0          1      )

 cart.    s( 4) = ( -1.0000000  0.0000000  0.0000000 )
                  (  0.0000000  1.0000000  0.0000000 )
                  (  0.0000000  0.0000000  1.0000000 )

   Cartesian axes

     site n.     atom                  positions (alat units)
         1           Cu  tau(   1) = (   0.0000000   0.0000000   0.0000000  )
         2           Te  tau(   2) = (   0.5000000   1.2583288   0.8628002  )
         3           O   tau(   3) = (   0.0000000   1.5631599   1.1762642  )
         4           O   tau(   4) = (   0.5000000   1.7207589   0.4123564  )
         5           O   tau(   5) = (   0.0000000   0.9534978   0.5493363  )
         6           O   tau(   6) = (   0.5000000   0.7958988   1.3132440  )

   Crystallographic axes

     site n.     atom                  positions (cryst. coord.)
         1           Cu  tau(   1) = (  0.0000000  0.0000000  0.0000000  )
         2           Te  tau(   2) = (  0.5000000  0.5000000  0.5000000  )
         3           O   tau(   3) = (  0.0000000  0.5961510  0.6816550  )
         4           O   tau(   4) = (  0.5000000  0.8672640  0.2389640  )
         5           O   tau(   5) = (  0.0000000  0.4038490  0.3183450  )
         6           O   tau(   6) = (  0.5000000  0.1327360  0.7610360  )

     number of k points=     1  Methfessel-Paxton smearing, width (Ry)=  0.0010
                       cart. coord. in units 2pi/alat
        k(    1) = (   0.0000000   0.0000000   0.0000000), wk =   2.0000000

                       cryst. coord.
        k(    1) = (   0.0000000   0.0000000   0.0000000), wk =   2.0000000

     Check: negative core charge=   -0.000009

     Initial potential from superposition of free atoms

     starting charge      47.9998, renormalised to      49.0000
     Starting wfcs are   33 randomized atomic wfcs
     Checking if some PAW data can be deallocated...

     Self-consistent Calculation

     iteration #  1     ecut=    30.00 Ry     beta= 0.70
     Davidson diagonalization with overlap

     ethr =  1.00E-02,  avg # of iterations =  2.0

     total energy              =    -594.96833115 Ry
     estimated scf accuracy    <       1.60373687 Ry

[...]

     total energy              =    -595.70381520 Ry
     estimated scf accuracy    <       0.00002073 Ry

     iteration # 23     ecut=    30.00 Ry     beta= 0.70
     Davidson diagonalization with overlap

     ethr =  4.23E-08,  avg # of iterations =  1.0

     End of self-consistent calculation

          k = 0.0000 0.0000 0.0000 (   776 PWs)   bands (ev):

  -106.8854 -64.5374 -64.3568 -63.8342 -15.4274 -12.8180 -12.2980 -12.1941
    -3.8453  -0.5243   0.6763   0.7976   0.8408   1.8050   2.5275   3.1913
     3.5080   3.5237   3.6850   3.7598   4.1761   4.2409   4.3710   5.2602
     6.4562   6.4652   9.7033  11.5889  12.7135  13.9678

     occupation numbers
     1.0000   1.0000   1.0000   1.0000   1.0000   1.0000   1.0000   1.0000
     1.0000   1.0000   1.0000   1.0000   1.0000   1.0000   1.0000   1.0000
     1.0000   1.0000   1.0000   1.0000   1.0000   1.0000   1.0000   1.0000
     0.4626   0.0374  -0.0000  -0.0000  -0.0000  -0.0000

     the Fermi energy is     6.4556 ev

!    total energy              =    -595.70381541 Ry
     estimated scf accuracy    <          7.6E-09 Ry
     smearing contrib. (-TS)   =      -0.00028007 Ry
     internal energy E=F+TS    =    -595.70353535 Ry

     The total energy is F=E-TS. E is the sum of the following terms:
     one-electron contribution =    -496.77296357 Ry
     hartree contribution      =     272.30996998 Ry
     xc contribution           =     -83.12448785 Ry
     ewald contribution        =    -250.03172523 Ry
     one-center paw contrib.   =     -38.08432869 Ry
      -> PAW hartree energy AE =     120.55167151 Ry
      -> PAW hartree energy PS =    -120.12273606 Ry
      -> PAW xc energy AE      =     -69.00526409 Ry
      -> PAW xc energy PS      =      30.49199995 Ry
      -> total E_H with PAW    =     272.73890543 Ry
      -> total E_XC with PAW   =    -121.63775199 Ry

     convergence has been achieved in  23 iterations

     Forces acting on atoms (cartesian axes, Ry/au):

     atom    1 type  1   force =     0.00000000    0.00000000    0.00000000
     atom    2 type  2   force =     0.00000000    0.00000000    0.00000000
     atom    3 type  3   force =     0.00000000    0.03892491    0.03210246
     atom    4 type  3   force =     0.00000000    0.02994519   -0.04689800
     atom    5 type  3   force =     0.00000000   -0.03892491   -0.03210246
     atom    6 type  3   force =     0.00000000   -0.02994519    0.04689800
     The non-local contrib.  to forces
     atom    1 type  1   force =     0.00000000    0.00000000    0.00000000
     atom    2 type  2   force =     0.00000000    0.00000000    0.00000000
     atom    3 type  3   force =     0.00000000   -1.23022395   -1.26118033
     atom    4 type  3   force =     0.00000000   -0.97376459   -0.08570773
     atom    5 type  3   force =     0.00000000    1.23022395    1.26118033
     atom    6 type  3   force =     0.00000000    0.97376459    0.08570773
     The ionic contribution  to forces
     atom    1 type  1   force =     0.00000000    0.00000000   -0.00000000
     atom    2 type  2   force =    -0.00000000   -0.00000000    0.00000000
     atom    3 type  3   force =     0.00000000    6.44555680    3.89216575
     atom    4 type  3   force =    -0.00000000    2.02572069   13.39020202
     atom    5 type  3   force =     0.00000000   -6.44555680   -3.89216575
     atom    6 type  3   force =    -0.00000000   -2.02572069  -13.39020202
     The local contribution  to forces
     atom    1 type  1   force =    -0.00000245    0.00000462   -0.00000068
     atom    2 type  2   force =     0.00000024    0.00000495    0.00000317
     atom    3 type  3   force =    -0.00000048   -5.18866683   -2.61167177
     atom    4 type  3   force =    -0.00005503   -1.03161602  -13.35358892
     atom    5 type  3   force =     0.00000014    5.18867766    2.61167350
     atom    6 type  3   force =     0.00005547    1.03162193   13.35358367
     The core correction contribution to forces
     atom    1 type  1   force =    -0.00000001   -0.00000000   -0.00000001
     atom    2 type  2   force =    -0.00000002   -0.00000027   -0.00000008
     atom    3 type  3   force =    -0.00000001    0.01227176    0.01281319
     atom    4 type  3   force =    -0.00000064    0.00963450    0.00220514
     atom    5 type  3   force =     0.00000001   -0.01227171   -0.01281322
     atom    6 type  3   force =     0.00000064   -0.00963446   -0.00220519
     The Hubbard contrib.    to forces
     atom    1 type  1   force =     0.00000000    0.00000000    0.00000000
     atom    2 type  2   force =     0.00000000    0.00000000    0.00000000
     atom    3 type  3   force =     0.00000000    0.00000000    0.00000000
     atom    4 type  3   force =     0.00000000    0.00000000    0.00000000
     atom    5 type  3   force =     0.00000000    0.00000000    0.00000000
     atom    6 type  3   force =     0.00000000    0.00000000    0.00000000
     The SCF correction term to forces
     atom    1 type  1   force =     0.00000173   -0.00000834    0.00000929
     atom    2 type  2   force =    -0.00000000   -0.00000210   -0.00000261
     atom    3 type  3   force =     0.00000055   -0.00001280   -0.00002682
     atom    4 type  3   force =     0.00001388   -0.00002968   -0.00000940
     atom    5 type  3   force =    -0.00000061    0.00000206    0.00002025
     atom    6 type  3   force =    -0.00001451    0.00002315    0.00001292

     Total force =     0.106225     Total SCF correction =     0.000060

     Computing stress (Cartesian axis) and pressure

          total   stress  (Ry/bohr**3)                   (kbar)     P=     -302.45
  -0.00146963   0.00000000   0.00000000         -216.19        0.00        0.00
   0.00000000  -0.00241449  -0.00021884            0.00     -355.18      -32.19
   0.00000000  -0.00021884  -0.00228395            0.00      -32.19     -335.98

     kinetic stress (kbar)  20145.98      0.00      0.00
                                0.00  20414.31    160.29
                                0.00    160.29  19939.78

     local   stress (kbar) -59454.06      0.00     -0.01
                                0.00  17551.69  22486.38
                               -0.01  22486.38 -23598.90

     nonloc. stress (kbar)   5508.92      0.00      0.00
                                0.00   5752.32    156.02
                                0.00    156.02   5562.59

     hartree stress (kbar)  39801.10     -0.00      0.01
                               -0.00   7122.72  -9176.22
                                0.01  -9176.22  24149.14

     exc-cor stress (kbar)  -2796.15      0.00      0.00
                                0.00  -2821.50    -10.19
                                0.00    -10.19  -2807.88

     corecor stress (kbar)  -3388.16     -0.00      0.00
                               -0.00  -3367.02     15.05
                                0.00     15.05  -3363.89

     ewald   stress (kbar)    -33.82      0.00      0.00
                                0.00 -45007.69 -13663.51
                                0.00 -13663.51 -20216.81

     hubbard stress (kbar)      0.00      0.00      0.00
                                0.00      0.00      0.00
                                0.00      0.00      0.00

     DFT-D   stress (kbar)      0.00      0.00      0.00
                                0.00      0.00      0.00
                                0.00      0.00      0.00

     XDM     stress (kbar)      0.00      0.00      0.00
                                0.00      0.00      0.00
                                0.00      0.00      0.00

     dft-nl  stress (kbar)      0.00      0.00      0.00
                                0.00      0.00      0.00
                                0.00      0.00      0.00

     TS-vdW  stress (kbar)      0.00      0.00      0.00
                                0.00      0.00      0.00
                                0.00      0.00      0.00

[...]

                                0.00      0.00      0.00

     Writing all to output data dir new_calculations/myprefix.save/

     General routines

     Parallel routines

     PAW routines

   This run was terminated on:  22:23:21  20May2023

   JOB DONE.