     Program PWSCF v.7.0 starts on 21May2023 at 10:13:59

     Reading input from espresso_25467.pwi
Warning: card &CELL ignored
Warning: card / ignored

     Current dimensions of program PWSCF are:
     Max number of different atomic species (ntypx) = 10
     Max number of k-points (npk) =  40000
     Max angular momentum in pseudopotentials (lmaxx) =  4

     gamma-point specific algorithms are used
     Message from routine setup:
     using ibrav=0 with symmetry is DISCOURAGED, use correct ibrav instead

     Subspace diagonalization in iterative solution of the eigenvalue problem:
     a serial algorithm will be used

     Using Slab Decomposition

     bravais-lattice index     =            0
     lattice parameter (alat)  =      11.1425  a.u.
     unit-cell volume          =    2627.6467 (a.u.)^3
     number of atoms/cell      =           16
     number of atomic types    =            2
     number of electrons       =       210.00
     number of Kohn-Sham states=          126
     kinetic-energy cutoff     =      30.0000  Ry
     charge density cutoff     =     240.0000  Ry
     scf convergence threshold =      1.0E-06
     mixing beta               =       0.7000
     number of iterations used =            8  plain     mixing
     Exchange-correlation= SLA  PW   PBE  PBE
                           (   1   4   3   4   0   0   0)

     celldm(1)=  11.142534  celldm(2)=   0.000000  celldm(3)=   0.000000
     celldm(4)=   0.000000  celldm(5)=   0.000000  celldm(6)=   0.000000

     crystal axes: (cart. coord. in units of alat)
               a(1) = (   1.000000   0.000000   0.000000 )
               a(2) = (   0.000000   1.480956   0.000000 )
               a(3) = (   0.000000  -0.740478   1.282546 )

     reciprocal axes: (cart. coord. in units 2 pi/alat)
               b(1) = (  1.000000  0.000000  0.000000 )
               b(2) = (  0.000000  0.675239  0.389850 )
               b(3) = (  0.000000  0.000000  0.779699 )

     PseudoPot. # 1 for Zr read from file:
     /home/pragov/projects/rrg-bengioy-ad/pragov/crystal_structure_design/SSSP/Zr_pbe_v1.uspp.F.UPF
     MD5 check sum: 5db81b1e868ab7776c4564c113de050b
     Pseudo is Ultrasoft + core correction, Zval = 12.0
     Generated by new atomic code, or converted to UPF format
     Using radial grid of  887 points,  6 beta functions with:
                l(1) =   0
                l(2) =   0
                l(3) =   1
                l(4) =   1
                l(5) =   2
                l(6) =   2
     Q(r) pseudized with  6 coefficients,  rinner =    1.200   1.200   1.200
                                                       1.200   1.200

     PseudoPot. # 2 for Bi read from file:
     /home/pragov/projects/rrg-bengioy-ad/pragov/crystal_structure_design/SSSP/Bi_pbe_v1.uspp.F.UPF
     MD5 check sum: cceb9f28ec65b6d7ff33140f5b0b1758
     Pseudo is Ultrasoft + core correction, Zval = 15.0
     Generated by new atomic code, or converted to UPF format
     Using radial grid of  899 points,  6 beta functions with:
                l(1) =   0
                l(2) =   0
                l(3) =   1
                l(4) =   1
                l(5) =   2
                l(6) =   2
     Q(r) pseudized with  6 coefficients,  rinner =    1.000   1.000   1.000
                                                       1.000   1.000

     atomic species   valence    mass     pseudopotential
        Zr            12.00    91.22400     Zr( 1.00)
        Bi            15.00   208.98040     Bi( 1.00)

      8 Sym. Ops., with inversion, found ( 4 have fractional translation)

                                    s                        frac. trans.

      isym =  1     identity

 cryst.   s( 1) = (     1          0          0      )
                  (     0          1          0      )
                  (     0          0          1      )

 cart.    s( 1) = (  1.0000000  0.0000000  0.0000000 )
                  (  0.0000000  1.0000000 -0.0000000 )
                  (  0.0000000  0.0000000  1.0000000 )

      isym =  2     180 deg rotation - cart. axis [0,0,1]

[...]

 cryst.   s( 3) = (    -1          0          0      )    f =(  0.5000000 )
                  (     0          1          0      )       ( -0.0000010 )
                  (     0         -1         -1      )       ( -0.0000000 )

 cart.    s( 3) = ( -1.0000000  0.0000000  0.0000000 )    f =(  0.5000000 )
                  (  0.0000000  1.0000000 -0.0000003 )       ( -0.0000015 )
                  (  0.0000000  0.0000000 -1.0000000 )       ( -0.0000000 )

      isym =  4     180 deg rotation - cart. axis [1,0,0]

[...]

      isym =  5     inversion

[...]

      isym =  6     inv. 180 deg rotation - cart. axis [0,0,1]

 cryst.   s( 6) = (     1          0          0      )
                  (     0          1          0      )
                  (     0         -1         -1      )

 cart.    s( 6) = (  1.0000000  0.0000000  0.0000000 )
                  (  0.0000000  1.0000000 -0.0000003 )
                  (  0.0000000  0.0000000 -1.0000000 )

[...]

      isym =  8     inv. 180 deg rotation - cart. axis [1,0,0]

 cryst.   s( 8) = (    -1          0          0      )    f =(  0.5000000 )
                  (     0          1          0      )       (  0.0000000 )
                  (     0          0          1      )       (  0.0000000 )

 cart.    s( 8) = ( -1.0000000  0.0000000  0.0000000 )    f =(  0.5000000 )
                  (  0.0000000  1.0000000 -0.0000000 )       (  0.0000000 )
                  (  0.0000000  0.0000000  1.0000000 )       (  0.0000000 )

   Cartesian axes

     site n.     atom                  positions (alat units)
         1           Zr  tau(   1) = (   0.0000000   0.7404789   0.4275148  )
         2           Zr  tau(   2) = (   0.0000000  -0.0000006   0.8550309  )
         3           Zr  tau(   3) = (   0.5000000  -0.0000006   0.8550309  )
         4           Zr  tau(   4) = (   0.5000000   0.7404789   0.4275148  )
         5           Zr  tau(   5) = (   0.7500000   0.5519021   0.9559224  )
         6           Zr  tau(   6) = (   0.2500000   0.1885761   0.3266234  )
         7           Zr  tau(   7) = (   0.7500000  -0.1885760   0.3266234  )
         8           Zr  tau(   8) = (   0.2500000  -0.5519019   0.9559224  )
         9           Zr  tau(   9) = (   0.7500000   0.3771521   0.0000000  )
        10           Zr  tau(  10) = (   0.2500000   1.1038040   0.0000000  )
        11           Bi  tau(  11) = (   0.7500000   0.2855329   0.4945573  )
        12           Bi  tau(  12) = (   0.2500000   0.4549454   0.7879884  )
        13           Bi  tau(  13) = (   0.7500000   1.0260110   0.7879884  )
        14           Bi  tau(  14) = (   0.2500000   1.1954235   0.4945573  )
        15           Bi  tau(  15) = (   0.7500000   0.9098906   0.0000000  )
        16           Bi  tau(  16) = (   0.2500000   0.5710656   0.0000000  )

   Crystallographic axes

     site n.     atom                  positions (cryst. coord.)
         1           Zr  tau(   1) = (  0.0000000  0.6666670  0.3333330  )
         2           Zr  tau(   2) = (  0.0000000  0.3333330  0.6666670  )
         3           Zr  tau(   3) = (  0.5000000  0.3333330  0.6666670  )
         4           Zr  tau(   4) = (  0.5000000  0.6666670  0.3333330  )
         5           Zr  tau(   5) = (  0.7500000  0.7453320  0.7453320  )
         6           Zr  tau(   6) = (  0.2500000  0.2546680  0.2546680  )
         7           Zr  tau(   7) = (  0.7500000  0.0000000  0.2546680  )
         8           Zr  tau(   8) = (  0.2500000 -0.0000000  0.7453320  )
         9           Zr  tau(   9) = (  0.7500000  0.2546680  0.0000000  )
        10           Zr  tau(  10) = (  0.2500000  0.7453320  0.0000000  )
        11           Bi  tau(  11) = (  0.7500000  0.3856060  0.3856060  )
        12           Bi  tau(  12) = (  0.2500000  0.6143940  0.6143940  )
        13           Bi  tau(  13) = (  0.7500000  1.0000000  0.6143940  )
        14           Bi  tau(  14) = (  0.2500000  1.0000000  0.3856060  )
        15           Bi  tau(  15) = (  0.7500000  0.6143940  0.0000000  )
        16           Bi  tau(  16) = (  0.2500000  0.3856060  0.0000000  )

     number of k points=     1  Methfessel-Paxton smearing, width (Ry)=  0.0010
                       cart. coord. in units 2pi/alat
        k(    1) = (   0.0000000   0.0000000   0.0000000), wk =   2.0000000

                       cryst. coord.
        k(    1) = (   0.0000000   0.0000000   0.0000000), wk =   2.0000000

     Check: negative core charge=   -0.000005

     Initial potential from superposition of free atoms

     starting charge     203.9783, renormalised to     210.0000

     negative rho (up, down):  8.766E-01 0.000E+00
     Starting wfcs are  184 randomized atomic wfcs

     Self-consistent Calculation

     iteration #  1     ecut=    30.00 Ry     beta= 0.70
     Davidson diagonalization with overlap

     ethr =  1.00E-02,  avg # of iterations =  2.0

     negative rho (up, down):  8.597E-01 0.000E+00

     total energy              =   -2101.96945840 Ry
     estimated scf accuracy    <       3.55847735 Ry

[...]

     total energy              =   -2103.68113126 Ry
     estimated scf accuracy    <       0.00005203 Ry

     iteration # 32     ecut=    30.00 Ry     beta= 0.70
     Davidson diagonalization with overlap

     ethr =  1.03E-09,  avg # of iterations =  3.0

[...]

     End of self-consistent calculation

          k = 0.0000 0.0000 0.0000 (  3667 PWs)   bands (ev):

   -34.9526 -34.9453 -34.9452 -34.9379 -34.9378 -34.9371 -34.4046 -34.4042
   -34.2847 -34.2843 -13.0622 -13.0621 -13.0431 -13.0420 -13.0349 -13.0348
   -13.0254 -12.9959 -12.9934 -12.9862 -12.9860 -12.9829 -12.9827 -12.9526
   -12.9525 -12.8743 -12.8741 -12.8511 -12.8383 -12.8355 -12.5445 -12.5445
   -12.5440 -12.5440 -12.4246 -12.4246 -12.4189 -12.4189 -11.8207 -11.8159
    -8.2739  -8.2738  -8.2733  -8.2731  -8.2680  -8.2619  -8.2593  -8.2592
    -8.2576  -8.2505  -8.2487  -8.2486  -8.2438  -8.2436  -8.2417  -8.2128
    -8.2103  -8.1993  -8.1992  -8.1754  -8.1753  -8.1739  -8.1737  -8.1707
    -8.1706  -8.1682  -8.1672  -8.1671  -8.1660  -8.1585   2.0691   2.8951
     2.8952   3.6075   3.6076   3.7788   9.1490   9.7455  10.2017  10.2017
    10.3289  10.5462  10.5462  10.7799  10.7799  11.0914  11.0915  12.0533
    12.0533  12.2522  12.3121  12.3121  12.6825  12.8699  12.9349  13.0044
    13.0153  13.0153  13.4964  13.5477  13.6167  13.6167  14.1964  14.5659
    14.5660  14.5683  14.5683  14.5721  14.8477  14.8477  15.6010  15.9924
    15.9925  16.1154  16.1156  16.2493  16.2493  16.3108  16.4334  16.4472
    16.5447  16.5448  16.6762  16.6764  16.7913  17.1623

     occupation numbers
     1.0000   1.0000   1.0000   1.0000   1.0000   1.0000   1.0000   1.0000
     1.0000   1.0000   1.0000   1.0000   1.0000   1.0000   1.0000   1.0000
     1.0000   1.0000   1.0000   1.0000   1.0000   1.0000   1.0000   1.0000
     1.0000   1.0000   1.0000   1.0000   1.0000   1.0000   1.0000   1.0000
     1.0000   1.0000   1.0000   1.0000   1.0000   1.0000   1.0000   1.0000
     1.0000   1.0000   1.0000   1.0000   1.0000   1.0000   1.0000   1.0000
     1.0000   1.0000   1.0000   1.0000   1.0000   1.0000   1.0000   1.0000
     1.0000   1.0000   1.0000   1.0000   1.0000   1.0000   1.0000   1.0000
     1.0000   1.0000   1.0000   1.0000   1.0000   1.0000   1.0000   1.0000
     1.0000   1.0000   1.0000   1.0000   1.0000   1.0000   1.0000   1.0000
     1.0000   1.0000   1.0000   1.0000   1.0000   1.0000   1.0000   1.0000
     1.0000   1.0000   1.0000   1.0000   1.0000   1.0000   1.0000   1.0000
     1.0000   1.0000   1.0000   1.0000   1.0000   1.0000   1.0000   0.5307
     0.5276   0.3816   0.3812   0.1788  -0.0000  -0.0000  -0.0000  -0.0000
    -0.0000  -0.0000  -0.0000  -0.0000  -0.0000  -0.0000  -0.0000  -0.0000
    -0.0000  -0.0000  -0.0000  -0.0000  -0.0000  -0.0000

     the Fermi energy is    14.5664 ev

!    total energy              =   -2103.68113193 Ry
     estimated scf accuracy    <       0.00000064 Ry
     smearing contrib. (-TS)   =      -0.00124755 Ry
     internal energy E=F+TS    =   -2103.67988437 Ry

     The total energy is F=E-TS. E is the sum of the following terms:
     one-electron contribution =    -450.10917648 Ry
     hartree contribution      =     340.89466350 Ry
     xc contribution           =    -566.50158667 Ry
     ewald contribution        =   -1427.96378472 Ry

     convergence has been achieved in  32 iterations

     negative rho (up, down):  8.822E-01 0.000E+00

     Forces acting on atoms (cartesian axes, Ry/au):

     atom    1 type  1   force =     0.00000000    0.00000000   -0.00008870
     atom    2 type  1   force =     0.00000000    0.00000000    0.00008870
     atom    3 type  1   force =     0.00000000    0.00000000    0.00008870
     atom    4 type  1   force =     0.00000000    0.00000000   -0.00008870
     atom    5 type  1   force =     0.00000000    0.02512444    0.04359562
     atom    6 type  1   force =     0.00000000   -0.02512444   -0.04359562
     atom    7 type  1   force =     0.00000000    0.02512444   -0.04359562
     atom    8 type  1   force =     0.00000000   -0.02512444    0.04359562
     atom    9 type  1   force =     0.00000000   -0.05035379    0.00000001
     atom   10 type  1   force =     0.00000000    0.05035379   -0.00000001
     atom   11 type  2   force =     0.00000000    0.01066640    0.01859548
     atom   12 type  2   force =     0.00000000   -0.01066640   -0.01859548
     atom   13 type  2   force =     0.00000000    0.01066640   -0.01859548
     atom   14 type  2   force =     0.00000000   -0.01066640    0.01859548
     atom   15 type  2   force =     0.00000000   -0.02132097    0.00000000
     atom   16 type  2   force =     0.00000000    0.02132097   -0.00000000
     The non-local contrib.  to forces
     atom    1 type  1   force =     0.00000000    0.00000000    0.00001484
     atom    2 type  1   force =     0.00000000    0.00000000   -0.00001484
     atom    3 type  1   force =     0.00000000    0.00000000   -0.00001484
     atom    4 type  1   force =     0.00000000    0.00000000    0.00001484
     atom    5 type  1   force =     0.00000000   -0.04040026   -0.07002028
     atom    6 type  1   force =     0.00000000    0.04040026    0.07002028
     atom    7 type  1   force =     0.00000000   -0.04040026    0.07002029
     atom    8 type  1   force =    -0.00000000    0.04040026   -0.07002029
     atom    9 type  1   force =     0.00000000    0.08070429   -0.00000001
     atom   10 type  1   force =     0.00000000   -0.08070429    0.00000001
     atom   11 type  2   force =     0.00000000   -0.02525513   -0.04333153
     atom   12 type  2   force =     0.00000000    0.02525513    0.04333153
     atom   13 type  2   force =     0.00000000   -0.02525513    0.04333153
     atom   14 type  2   force =     0.00000000    0.02525513   -0.04333153
     atom   15 type  2   force =     0.00000000    0.05031969   -0.00000001
     atom   16 type  2   force =     0.00000000   -0.05031969    0.00000001
     The ionic contribution  to forces
     atom    1 type  1   force =     0.00000000   -0.00009015    0.00005205
     atom    2 type  1   force =    -0.00000000    0.00009015   -0.00005205
     atom    3 type  1   force =     0.00000000    0.00009015   -0.00005205
     atom    4 type  1   force =    -0.00000000   -0.00009015    0.00005205
     atom    5 type  1   force =    -0.00000000    5.00404179    8.66725335
     atom    6 type  1   force =     0.00000000   -5.00404179   -8.66725335
     atom    7 type  1   force =     0.00000000    5.00411510   -8.66729925
     atom    8 type  1   force =     0.00000000   -5.00411510    8.66729925
     atom    9 type  1   force =     0.00000000  -10.00815888    0.00004245
     atom   10 type  1   force =     0.00000000   10.00815888   -0.00004245
     atom   11 type  2   force =     0.00000000   -2.77247504   -4.80206691
     atom   12 type  2   force =     0.00000000    2.77247503    4.80206691
     atom   13 type  2   force =     0.00000000   -2.77256739    4.80212144
     atom   14 type  2   force =     0.00000000    2.77256739   -4.80212144
     atom   15 type  2   force =     0.00000000    5.54504286   -0.00005378
     atom   16 type  2   force =     0.00000000   -5.54504286    0.00005378
     The local contribution  to forces
     atom    1 type  1   force =    -0.00000684    0.00006514   -0.00034173
     atom    2 type  1   force =     0.00002059   -0.00023132    0.00033681
     atom    3 type  1   force =    -0.00002341   -0.00023666    0.00041048
     atom    4 type  1   force =     0.00001169    0.00008532   -0.00040397
     atom    5 type  1   force =    -0.00047503   -4.94088609   -8.55796503
     atom    6 type  1   force =     0.00046057    4.94141234    8.55769485
     atom    7 type  1   force =    -0.00047048   -4.94133918    8.55788084
     atom    8 type  1   force =     0.00047818    4.94121730   -8.55797371
     atom    9 type  1   force =    -0.00050350    9.88235716    0.00015900
     atom   10 type  1   force =     0.00052478   -9.88232135    0.00023747
     atom   11 type  2   force =    -0.00064328    2.80876707    4.86327672
     atom   12 type  2   force =     0.00065936   -2.80803031   -4.86395115
     atom   13 type  2   force =    -0.00069257    2.80825219   -4.86384596
     atom   14 type  2   force =     0.00069729   -2.80889339    4.86365764
     atom   15 type  2   force =    -0.00082635   -5.61685415    0.00051527
     atom   16 type  2   force =     0.00081197    5.61648922    0.00030624
     The core correction contribution to forces
     atom    1 type  1   force =    -0.00000003    0.00000003   -0.00000293
     atom    2 type  1   force =     0.00000003   -0.00000039    0.00000315
     atom    3 type  1   force =    -0.00000006   -0.00000050    0.00000331
     atom    4 type  1   force =     0.00000011    0.00000019   -0.00000318
     atom    5 type  1   force =     0.00000683    0.00271245    0.00470085
     atom    6 type  1   force =    -0.00000707   -0.00271029   -0.00470059
     atom    7 type  1   force =     0.00000884    0.00271189   -0.00470102
     atom    8 type  1   force =    -0.00000860   -0.00271088    0.00470051
     atom    9 type  1   force =     0.00001128   -0.00541561    0.00000045
     atom   10 type  1   force =    -0.00001108    0.00541703    0.00000002
     atom   11 type  2   force =    -0.00000157   -0.00011891   -0.00022328
     atom   12 type  2   force =     0.00000191    0.00011895    0.00022449
     atom   13 type  2   force =    -0.00000095   -0.00011810    0.00022227
     atom   14 type  2   force =     0.00000103    0.00011767   -0.00022336
     atom   15 type  2   force =    -0.00000136    0.00025398    0.00000041
     atom   16 type  2   force =     0.00000113   -0.00025136   -0.00000056
     The Hubbard contrib.    to forces
     atom    1 type  1   force =     0.00000000    0.00000000    0.00000000
     atom    2 type  1   force =     0.00000000    0.00000000    0.00000000
     atom    3 type  1   force =     0.00000000    0.00000000    0.00000000
     atom    4 type  1   force =     0.00000000    0.00000000    0.00000000
     atom    5 type  1   force =     0.00000000    0.00000000    0.00000000
     atom    6 type  1   force =     0.00000000    0.00000000    0.00000000
     atom    7 type  1   force =     0.00000000    0.00000000    0.00000000
     atom    8 type  1   force =     0.00000000    0.00000000    0.00000000
     atom    9 type  1   force =     0.00000000    0.00000000    0.00000000
     atom   10 type  1   force =     0.00000000    0.00000000    0.00000000
     atom   11 type  2   force =     0.00000000    0.00000000    0.00000000
     atom   12 type  2   force =     0.00000000    0.00000000    0.00000000
     atom   13 type  2   force =     0.00000000    0.00000000    0.00000000
     atom   14 type  2   force =     0.00000000    0.00000000    0.00000000
     atom   15 type  2   force =     0.00000000    0.00000000    0.00000000
     atom   16 type  2   force =     0.00000000    0.00000000    0.00000000
     The SCF correction term to forces
     atom    1 type  1   force =     0.00000765    0.00005193    0.00019773
     atom    2 type  1   force =    -0.00001824    0.00015905   -0.00018155
     atom    3 type  1   force =     0.00001957    0.00016520   -0.00024949
     atom    4 type  1   force =    -0.00001031    0.00003089    0.00025442
     atom    5 type  1   force =     0.00051542   -0.00033328   -0.00035813
     atom    6 type  1   force =    -0.00050102   -0.00018074    0.00065406
     atom    7 type  1   force =     0.00054084    0.00002359    0.00048612
     atom    8 type  1   force =    -0.00054535    0.00007662   -0.00043182
     atom    9 type  1   force =     0.00060368    0.00018286   -0.00019211
     atom   10 type  1   force =    -0.00062101   -0.00017287   -0.00019465
     atom   11 type  2   force =     0.00056668   -0.00025187    0.00096678
     atom   12 type  2   force =    -0.00058301   -0.00048957   -0.00024513
     atom   13 type  2   force =     0.00061821    0.00034743   -0.00043833
     atom   14 type  2   force =    -0.00062194    0.00028348    0.00059644
     atom   15 type  2   force =     0.00075050   -0.00005443   -0.00047265
     atom   16 type  2   force =    -0.00073567    0.00047458   -0.00035784

     Total force =     0.133962     Total SCF correction =     0.002922

     Computing stress (Cartesian axis) and pressure

     negative rho (up, down):  8.822E-01 0.000E+00
          total   stress  (Ry/bohr**3)                   (kbar)     P=      -21.33
  -0.00048428   0.00000000   0.00000000          -71.24        0.00        0.00
   0.00000000   0.00002479  -0.00000000            0.00        3.65       -0.00
   0.00000000  -0.00000000   0.00002443            0.00       -0.00        3.59

     kinetic stress (kbar)  13639.20      0.00     -0.00
                                0.00  13481.78     -0.00
                               -0.00     -0.00  13481.93

     local   stress (kbar)  -6436.48      0.01      0.00
                                0.01  -2810.62     -0.05
                                0.00     -0.05  -2811.17

     nonloc. stress (kbar)  16865.98      0.00      0.00
                                0.00  16852.66     -0.00
                                0.00     -0.00  16852.65

     hartree stress (kbar)   7522.58     -0.00     -0.00
                               -0.00   5780.80      0.03
                               -0.00      0.03   5781.13

     exc-cor stress (kbar)  13471.03     -0.00     -0.00
                               -0.00  13468.97     -0.00
                               -0.00     -0.00  13468.97

     corecor stress (kbar) -19577.41     -0.00     -0.00
                               -0.00 -19576.75      0.00
                               -0.00      0.00 -19576.75

     ewald   stress (kbar) -25556.16     -0.00     -0.00
                               -0.00 -27193.20      0.02
                               -0.00      0.02 -27193.17

     hubbard stress (kbar)      0.00      0.00      0.00
                                0.00      0.00      0.00
                                0.00      0.00      0.00

     DFT-D   stress (kbar)      0.00      0.00      0.00
                                0.00      0.00      0.00
                                0.00      0.00      0.00

     XDM     stress (kbar)      0.00      0.00      0.00
                                0.00      0.00      0.00
                                0.00      0.00      0.00

     dft-nl  stress (kbar)      0.00      0.00      0.00
                                0.00      0.00      0.00
                                0.00      0.00      0.00

     TS-vdW  stress (kbar)      0.00      0.00      0.00
                                0.00      0.00      0.00
                                0.00      0.00      0.00

[...]

                                0.00      0.00      0.00

     Writing all to output data dir new_calculations/myprefix.save/

     General routines

     Parallel routines

   This run was terminated on:  10:17:15  21May2023

   JOB DONE.