     Program PWSCF v.7.0 starts on 20May2023 at 19:16: 3

     Reading input from espresso_19461.pwi
Warning: card &CELL ignored
Warning: card / ignored

     Current dimensions of program PWSCF are:
     Max number of different atomic species (ntypx) = 10
     Max number of k-points (npk) =  40000
     Max angular momentum in pseudopotentials (lmaxx) =  4

     gamma-point specific algorithms are used
     Message from routine setup:
     using ibrav=0 with symmetry is DISCOURAGED, use correct ibrav instead

     Subspace diagonalization in iterative solution of the eigenvalue problem:
     a serial algorithm will be used

     Using Slab Decomposition

     bravais-lattice index     =            0
     lattice parameter (alat)  =      10.8663  a.u.
     unit-cell volume          =     494.9168 (a.u.)^3
     number of atoms/cell      =            3
     number of atomic types    =            2
     number of electrons       =        38.00
     number of Kohn-Sham states=           23
     kinetic-energy cutoff     =      30.0000  Ry
     charge density cutoff     =     240.0000  Ry
     scf convergence threshold =      1.0E-06
     mixing beta               =       0.7000
     number of iterations used =            8  plain     mixing
     Exchange-correlation=  SLA  PW   PBX  PBC
                           (   1   4   3   4   0   0   0)

     celldm(1)=  10.866301  celldm(2)=   0.000000  celldm(3)=   0.000000
     celldm(4)=   0.000000  celldm(5)=   0.000000  celldm(6)=   0.000000

     crystal axes: (cart. coord. in units of alat)
               a(1) = (   1.000000   0.000000   0.000000 )
               a(2) = (   0.756691   0.653772   0.000000 )
               a(3) = (   0.756691   0.281611   0.590011 )

     reciprocal axes: (cart. coord. in units 2 pi/alat)
               b(1) = (  1.000000 -1.157423 -0.730067 )
               b(2) = (  0.000000  1.529584 -0.730067 )
               b(3) = (  0.000000  0.000000  1.694882 )

     PseudoPot. # 1 for Ca read from file:
     /home/pragov/projects/rrg-bengioy-ad/pragov/crystal_structure_design/SSSP/Ca_pbe_v1.uspp.F.UPF
     MD5 check sum: 403a4c14b9e4d4dfdc3024c9a3812218
     Pseudo is Ultrasoft + core correction, Zval = 10.0
     Generated by new atomic code, or converted to UPF format
     Using radial grid of  845 points,  6 beta functions with:
                l(1) =   0
                l(2) =   0
                l(3) =   1
                l(4) =   1
                l(5) =   2
                l(6) =   2
     Q(r) pseudized with  8 coefficients,  rinner =    1.500   1.500   1.500
                                                       1.500   1.500

     PseudoPot. # 2 for Ge read from file:
     /home/pragov/projects/rrg-bengioy-ad/pragov/crystal_structure_design/SSSP/ge_pbe_v1.4.uspp.F.UPF
     MD5 check sum: 9c9eaa91e581c3f09632fb3098b2c6b2
     Pseudo is Ultrasoft + core correction, Zval = 14.0
     Generated by new atomic code, or converted to UPF format
     Using radial grid of  873 points,  6 beta functions with:
                l(1) =   0
                l(2) =   0
                l(3) =   1
                l(4) =   1
                l(5) =   2
                l(6) =   2
     Q(r) pseudized with  8 coefficients,  rinner =    1.400   1.400   1.400
                                                       1.400   1.400

     atomic species   valence    mass     pseudopotential
        Ca            10.00    40.07800     Ca( 1.00)
        Ge            14.00    72.63000     Ge( 1.00)

      2 Sym. Ops., with inversion, found

                                    s                        frac. trans.

      isym =  1     identity

 cryst.   s( 1) = (     1          0          0      )
                  (     0          1          0      )
                  (     0          0          1      )

 cart.    s( 1) = (  1.0000000 -0.0000000  0.0000000 )
                  (  0.0000000  1.0000000 -0.0000000 )
                  (  0.0000000  0.0000000  1.0000000 )

      isym =  2     inversion

 cryst.   s( 2) = (    -1          0          0      )
                  (     0         -1          0      )
                  (     0          0         -1      )

 cart.    s( 2) = ( -1.0000000  0.0000000 -0.0000000 )
                  (  0.0000000 -1.0000000  0.0000000 )
                  (  0.0000000  0.0000000 -1.0000000 )

   Cartesian axes

     site n.     atom                  positions (alat units)
         1           Ca  tau(   1) = (   0.0000000   0.0000000   0.0000000  )
         2           Ge  tau(   2) = (   2.0055587   0.7463912   0.4708008  )
         3           Ge  tau(   3) = (   0.5078239   0.1889924   0.1192106  )

   Crystallographic axes

     site n.     atom                  positions (cryst. coord.)
         1           Ca  tau(   1) = (  0.0000000  0.0000000  0.0000000  )
         2           Ge  tau(   2) = (  0.7979520  0.7979520  0.7979520  )
         3           Ge  tau(   3) = (  0.2020480  0.2020480  0.2020480  )

     number of k points=     1  Methfessel-Paxton smearing, width (Ry)=  0.0010
                       cart. coord. in units 2pi/alat
        k(    1) = (   0.0000000   0.0000000   0.0000000), wk =   2.0000000

                       cryst. coord.
        k(    1) = (   0.0000000   0.0000000   0.0000000), wk =   2.0000000

     Check: negative core charge=   -0.000001

     Initial potential from superposition of free atoms

     starting charge      37.9928, renormalised to      38.0000
     Starting wfcs are   28 randomized atomic wfcs

     Self-consistent Calculation

     iteration #  1     ecut=    30.00 Ry     beta= 0.70
     Davidson diagonalization with overlap

     ethr =  1.00E-02,  avg # of iterations =  2.0

     Threshold (ethr) on eigenvalues was too large:
     Diagonalizing with lowered threshold

     Davidson diagonalization with overlap

[...]

     total energy              =    -501.79426310 Ry
     estimated scf accuracy    <       0.14754365 Ry

[...]

     total energy              =    -501.82781527 Ry
     estimated scf accuracy    <       0.00001053 Ry

     iteration #  8     ecut=    30.00 Ry     beta= 0.70
     Davidson diagonalization with overlap

     ethr =  2.77E-08,  avg # of iterations =  4.0

     End of self-consistent calculation

          k = 0.0000 0.0000 0.0000 (   696 PWs)   bands (ev):

   -32.1545 -16.2861 -16.2861 -16.2727 -16.2352 -16.2352 -16.2162 -16.0893
   -16.0892 -16.0458 -16.0457 -13.3342 -13.0996 -13.0996  -3.4091   3.4835
     6.4471   7.3822   7.3822   8.9732  11.3752  11.3753  11.9296

     occupation numbers
     1.0000   1.0000   1.0000   1.0000   1.0000   1.0000   1.0000   1.0000
     1.0000   1.0000   1.0000   1.0000   1.0000   1.0000   1.0000   1.0000
     1.0000   1.0000   1.0000  -0.0000  -0.0000  -0.0000  -0.0000

     the Fermi energy is     7.9072 ev

!    total energy              =    -501.82781792 Ry
     estimated scf accuracy    <       0.00000006 Ry
     smearing contrib. (-TS)   =       0.00000000 Ry
     internal energy E=F+TS    =    -501.82781792 Ry

     The total energy is F=E-TS. E is the sum of the following terms:
     one-electron contribution =    -319.43164586 Ry
     hartree contribution      =     188.08169032 Ry
     xc contribution           =    -128.58969119 Ry
     ewald contribution        =    -241.88817119 Ry

     convergence has been achieved in   8 iterations

     Forces acting on atoms (cartesian axes, Ry/au):

     atom    1 type  1   force =     0.00000000    0.00000000    0.00000000
     atom    2 type  2   force =    -0.10913539   -0.04065674   -0.02565323
     atom    3 type  2   force =     0.10913539    0.04065674    0.02565323
     The non-local contrib.  to forces
     atom    1 type  1   force =     0.00000000    0.00000000    0.00000000
     atom    2 type  2   force =     0.71286207    0.26528184    0.16737081
     atom    3 type  2   force =    -0.71286207   -0.26528184   -0.16737081
     The ionic contribution  to forces
     atom    1 type  1   force =     0.00000000    0.00000000    0.00000000
     atom    2 type  2   force =    -9.11295804   -3.39148949   -2.13924485
     atom    3 type  2   force =     9.11295804    3.39148949    2.13924485
     The local contribution  to forces
     atom    1 type  1   force =    -0.00029363   -0.00012615   -0.00004855
     atom    2 type  2   force =     8.29981033    3.08886148    1.94847350
     atom    3 type  2   force =    -8.29951048   -3.08881729   -1.94815109
     The core correction contribution to forces
     atom    1 type  1   force =    -0.00000476   -0.00000133   -0.00000209
     atom    2 type  2   force =    -0.00856711   -0.00318893   -0.00200837
     atom    3 type  2   force =     0.00856624    0.00318629    0.00201423
     The Hubbard contrib.    to forces
     atom    1 type  1   force =     0.00000000    0.00000000    0.00000000
     atom    2 type  2   force =     0.00000000    0.00000000    0.00000000
     atom    3 type  2   force =     0.00000000    0.00000000    0.00000000
     The SCF correction term to forces
     atom    1 type  1   force =     0.00022830    0.00012125    0.00000568
     atom    2 type  2   force =    -0.00031810   -0.00010099   -0.00030812
     atom    3 type  2   force =    -0.00005180    0.00010075   -0.00014776

     Total force =     0.168651     Total SCF correction =     0.000555

     Computing stress (Cartesian axis) and pressure

          total   stress  (Ry/bohr**3)                   (kbar)     P=       42.87
  -0.00010375  -0.00024435  -0.00015407          -15.26      -35.94      -22.66
  -0.00024435   0.00046157  -0.00005737          -35.94       67.90       -8.44
  -0.00015407  -0.00005737   0.00051641          -22.66       -8.44       75.97

     kinetic stress (kbar)  10282.14   -107.91    -68.07
                             -107.91  10532.01    -25.35
                              -68.07    -25.35  10556.25

     local   stress (kbar)   4442.81   3338.50   2105.84
                             3338.50  -3285.29    783.70
                             2105.84    783.70  -4033.40

     nonloc. stress (kbar)   3010.45    -32.38    -20.41
                              -32.38   3085.28     -7.58
                              -20.41     -7.58   3092.48

     hartree stress (kbar)  15948.02  -1660.53  -1047.42
                            -1660.53  19791.88   -389.80
                            -1047.42   -389.80  20163.99

     exc-cor stress (kbar)  11584.88     -1.53     -0.97
                               -1.53  11588.42     -0.36
                               -0.97     -0.36  11588.76

     corecor stress (kbar) -18772.04      1.46      0.92
                                1.46 -18775.41      0.34
                                0.92      0.34 -18775.73

     ewald   stress (kbar) -26511.53  -1573.55   -992.55
                            -1573.55 -22868.99   -369.39
                             -992.55   -369.39 -22516.37

     hubbard stress (kbar)      0.00      0.00      0.00
                                0.00      0.00      0.00
                                0.00      0.00      0.00

     DFT-D   stress (kbar)      0.00      0.00      0.00
                                0.00      0.00      0.00
                                0.00      0.00      0.00

     XDM     stress (kbar)      0.00      0.00      0.00
                                0.00      0.00      0.00
                                0.00      0.00      0.00

     dft-nl  stress (kbar)      0.00      0.00      0.00
                                0.00      0.00      0.00
                                0.00      0.00      0.00

     TS-vdW  stress (kbar)      0.00      0.00      0.00
                                0.00      0.00      0.00
                                0.00      0.00      0.00

[...]

                                0.00      0.00      0.00

     Writing all to output data dir new_calculations/myprefix.save/

     General routines

     Parallel routines

   This run was terminated on:  19:16:29  20May2023

   JOB DONE.