     Program PWSCF v.7.0 starts on 20May2023 at 23:17:20

     Reading input from espresso_25170.pwi
Warning: card &CELL ignored
Warning: card / ignored

     Current dimensions of program PWSCF are:
     Max number of different atomic species (ntypx) = 10
     Max number of k-points (npk) =  40000
     Max angular momentum in pseudopotentials (lmaxx) =  4

     gamma-point specific algorithms are used
     Message from routine setup:
     using ibrav=0 with symmetry is DISCOURAGED, use correct ibrav instead

     Subspace diagonalization in iterative solution of the eigenvalue problem:
     a serial algorithm will be used

     Using Slab Decomposition

     bravais-lattice index     =            0
     lattice parameter (alat)  =       8.5091  a.u.
     unit-cell volume          =     793.7534 (a.u.)^3
     number of atoms/cell      =            8
     number of atomic types    =            3
     number of electrons       =       156.00
     number of Kohn-Sham states=           94
     kinetic-energy cutoff     =      30.0000  Ry
     charge density cutoff     =     240.0000  Ry
     scf convergence threshold =      1.0E-06
     mixing beta               =       0.7000
     number of iterations used =            8  plain     mixing
     Exchange-correlation= PBE
                           (   1   4   3   4   0   0   0)

     celldm(1)=   8.509080  celldm(2)=   0.000000  celldm(3)=   0.000000
     celldm(4)=   0.000000  celldm(5)=   0.000000  celldm(6)=   0.000000

     crystal axes: (cart. coord. in units of alat)
               a(1) = (   1.000000   0.000000   0.000000 )
               a(2) = (   0.000000   1.043186   0.000000 )
               a(3) = (   0.000000   0.000000   1.235026 )

     reciprocal axes: (cart. coord. in units 2 pi/alat)
               b(1) = (  1.000000  0.000000  0.000000 )
               b(2) = (  0.000000  0.958601  0.000000 )
               b(3) = (  0.000000  0.000000  0.809700 )

     PseudoPot. # 1 for Zn read from file:
     /home/pragov/projects/rrg-bengioy-ad/pragov/crystal_structure_design/SSSP/Zn_pbe_v1.uspp.F.UPF
     MD5 check sum: df62231357ef9e81f77b2b3087fa5675
     Pseudo is Ultrasoft, Zval = 20.0
     Generated by new atomic code, or converted to UPF format
     Using radial grid of  943 points,  6 beta functions with:
                l(1) =   0
                l(2) =   0
                l(3) =   1
                l(4) =   1
                l(5) =   2
                l(6) =   2
     Q(r) pseudized with  8 coefficients,  rinner =    1.100   1.100   1.100
                                                       1.100   1.100

     PseudoPot. # 2 for Cu read from file:
     /home/pragov/projects/rrg-bengioy-ad/pragov/crystal_structure_design/SSSP/Cu_pbe_v1.2.uspp.F.UPF
     MD5 check sum: 6e991ff952a84172a2a52a1c1e996048
     Pseudo is Ultrasoft + core correction, Zval = 19.0
     Generated by new atomic code, or converted to UPF format
     Using radial grid of  867 points,  6 beta functions with:
                l(1) =   0
                l(2) =   0
                l(3) =   1
                l(4) =   1
                l(5) =   2
                l(6) =   2
     Q(r) pseudized with  8 coefficients,  rinner =    1.150   1.150   1.150
                                                       1.150   1.150

     PseudoPot. # 3 for Au read from file:
     /home/pragov/projects/rrg-bengioy-ad/pragov/crystal_structure_design/SSSP/Au_ONCV_PBE-1.0.oncvpsp.upf
     MD5 check sum: d14007822ba0e19f0206237467fc06c2
     Pseudo is Norm-conserving, Zval = 19.0
     Generated using ONCVPSP code by D. R. Hamann
     Using radial grid of 1278 points,  8 beta functions with:
                l(1) =   0
                l(2) =   0
                l(3) =   1
                l(4) =   1
                l(5) =   2
                l(6) =   2
                l(7) =   3
                l(8) =   3

     atomic species   valence    mass     pseudopotential
        Zn            20.00    65.38000     Zn( 1.00)
        Cu            19.00    63.54600     Cu( 1.00)
        Au            19.00   196.96657     Au( 1.00)

      8 Sym. Ops., with inversion, found ( 4 have fractional translation)

                                    s                        frac. trans.

      isym =  1     identity

 cryst.   s( 1) = (     1          0          0      )
                  (     0          1          0      )
                  (     0          0          1      )

 cart.    s( 1) = (  1.0000000  0.0000000  0.0000000 )
                  (  0.0000000  1.0000000  0.0000000 )
                  (  0.0000000  0.0000000  1.0000000 )

      isym =  2     180 deg rotation - cart. axis [0,0,1]

 cryst.   s( 2) = (    -1          0          0      )    f =(  0.5000000 )
                  (     0         -1          0      )       (  0.0000000 )
                  (     0          0          1      )       (  0.5000000 )

 cart.    s( 2) = ( -1.0000000  0.0000000  0.0000000 )    f =(  0.5000000 )
                  (  0.0000000 -1.0000000  0.0000000 )       (  0.0000000 )
                  (  0.0000000  0.0000000  1.0000000 )       (  0.6175128 )

[...]

      isym =  4     180 deg rotation - cart. axis [1,0,0]

[...]

      isym =  5     inversion

[...]

      isym =  6     inv. 180 deg rotation - cart. axis [0,0,1]

[...]

 cryst.   s( 7) = (     1          0          0      )    f =(  0.5000000 )
                  (     0         -1          0      )       (  0.0000000 )
                  (     0          0          1      )       (  0.5000000 )

 cart.    s( 7) = (  1.0000000  0.0000000  0.0000000 )    f =(  0.5000000 )
                  (  0.0000000 -1.0000000  0.0000000 )       (  0.0000000 )
                  (  0.0000000  0.0000000  1.0000000 )       (  0.6175128 )

      isym =  8     inv. 180 deg rotation - cart. axis [1,0,0]

 cryst.   s( 8) = (    -1          0          0      )
                  (     0          1          0      )
                  (     0          0          1      )

 cart.    s( 8) = ( -1.0000000  0.0000000  0.0000000 )
                  (  0.0000000  1.0000000  0.0000000 )
                  (  0.0000000  0.0000000  1.0000000 )

   Cartesian axes

     site n.     atom                  positions (alat units)
         1           Zn  tau(   1) = (   0.5000000   0.8541819   0.9257974  )
         2           Zn  tau(   2) = (   0.5000000   0.8541819   0.3092282  )
         3           Zn  tau(   3) = (   0.0000000   0.1890045   0.3082846  )
         4           Zn  tau(   4) = (   0.0000000   0.1890045   0.9267410  )
         5           Cu  tau(   5) = (   0.0000000   0.7156519   0.6175128  )
         6           Cu  tau(   6) = (   0.5000000   0.3275344   0.0000000  )
         7           Au  tau(   7) = (   0.5000000   0.3359842   0.6175128  )
         8           Au  tau(   8) = (   0.0000000   0.7072021   0.0000000  )

   Crystallographic axes

     site n.     atom                  positions (cryst. coord.)
         1           Zn  tau(   1) = (  0.5000000  0.8188200  0.7496180  )
         2           Zn  tau(   2) = (  0.5000000  0.8188200  0.2503820  )
         3           Zn  tau(   3) = (  0.0000000  0.1811800  0.2496180  )
         4           Zn  tau(   4) = (  0.0000000  0.1811800  0.7503820  )
         5           Cu  tau(   5) = (  0.0000000  0.6860250  0.5000000  )
         6           Cu  tau(   6) = (  0.5000000  0.3139750  0.0000000  )
         7           Au  tau(   7) = (  0.5000000  0.3220750  0.5000000  )
         8           Au  tau(   8) = (  0.0000000  0.6779250  0.0000000  )

     number of k points=     1  Methfessel-Paxton smearing, width (Ry)=  0.0010
                       cart. coord. in units 2pi/alat
        k(    1) = (   0.0000000   0.0000000   0.0000000), wk =   2.0000000

                       cryst. coord.
        k(    1) = (   0.0000000   0.0000000   0.0000000), wk =   2.0000000

     Initial potential from superposition of free atoms

     starting charge     153.9992, renormalised to     156.0000
     Starting wfcs are   98 randomized atomic wfcs

     Self-consistent Calculation

     iteration #  1     ecut=    30.00 Ry     beta= 0.70
     Davidson diagonalization with overlap

     ethr =  1.00E-02,  avg # of iterations =  6.0

     total energy              =   -3196.18955853 Ry
     estimated scf accuracy    <       9.33490052 Ry

[...]

     total energy              =   -3202.26430134 Ry
     estimated scf accuracy    <       0.00000619 Ry

     iteration # 14     ecut=    30.00 Ry     beta= 0.70
     Davidson diagonalization with overlap

     ethr =  3.97E-09,  avg # of iterations =  2.0

     End of self-consistent calculation

          k = 0.0000 0.0000 0.0000 (  1100 PWs)   bands (ev):

  -110.2877-110.2850-110.2846-110.2800 -95.9581 -95.9554 -90.7941 -90.7939
   -64.4392 -64.4277 -64.4275 -64.3961 -64.3659 -64.3641 -64.3578 -64.3573
   -64.3560 -64.3525 -64.3481 -64.3432 -53.4637 -53.4592 -53.3847 -53.3824
   -53.1815 -53.1736 -42.0099 -42.0077 -41.7457 -41.7454 -41.6840 -41.6784
     6.0789   8.1671   8.2441   8.3153   8.4178   8.4454   8.4868   8.6460
     8.6488   8.6619   8.6710   8.7841   8.8635   8.9292   8.9393   8.9696
     9.0621   9.0695   9.1242   9.1555   9.3120   9.8513  10.0987  10.7766
    10.8495  11.0404  11.3944  11.4708  11.5234  11.6934  11.9254  12.0453
    12.1590  13.1868  13.6926  13.9556  14.0802  14.0983  14.1309  14.1330
    14.1539  14.1768  14.6086  14.7559  15.4553  16.3416  17.5419  19.1832
    20.1020  20.2697  20.3166  20.6910  21.3037  21.3339  21.4240  21.4258
    21.6311  23.8319  25.4399  25.4626  27.1034  27.4856

     occupation numbers
     1.0000   1.0000   1.0000   1.0000   1.0000   1.0000   1.0000   1.0000
     1.0000   1.0000   1.0000   1.0000   1.0000   1.0000   1.0000   1.0000
     1.0000   1.0000   1.0000   1.0000   1.0000   1.0000   1.0000   1.0000
     1.0000   1.0000   1.0000   1.0000   1.0000   1.0000   1.0000   1.0000
     1.0000   1.0000   1.0000   1.0000   1.0000   1.0000   1.0000   1.0000
     1.0000   1.0000   1.0000   1.0000   1.0000   1.0000   1.0000   1.0000
     1.0000   1.0000   1.0000   1.0000   1.0000   1.0000   1.0000   1.0000
     1.0000   1.0000   1.0000   1.0000   1.0000   1.0000   1.0000   1.0000
     1.0000   1.0000   1.0000   1.0000   1.0000   1.0000   1.0000   1.0000
     1.0000   1.0000   1.0000   1.0000   1.0000   1.0000  -0.0000  -0.0000
    -0.0000  -0.0000  -0.0000  -0.0000  -0.0000  -0.0000  -0.0000  -0.0000
    -0.0000  -0.0000  -0.0000  -0.0000  -0.0000  -0.0000

     the Fermi energy is    16.8369 ev

!    total energy              =   -3202.26430214 Ry
     estimated scf accuracy    <       0.00000019 Ry
     smearing contrib. (-TS)   =       0.00000000 Ry
     internal energy E=F+TS    =   -3202.26430214 Ry

     The total energy is F=E-TS. E is the sum of the following terms:
     one-electron contribution =   -2158.00439031 Ry
     hartree contribution      =    1151.07658450 Ry
     xc contribution           =    -297.07830204 Ry
     ewald contribution        =   -1898.25819430 Ry

     convergence has been achieved in  14 iterations

     Forces acting on atoms (cartesian axes, Ry/au):

     atom    1 type  1   force =     0.00000000    0.01154663   -0.00845423
     atom    2 type  1   force =    -0.00000000    0.01154663    0.00845423
     atom    3 type  1   force =     0.00000000   -0.01154663   -0.00845423
     atom    4 type  1   force =     0.00000000   -0.01154663    0.00845423
     atom    5 type  2   force =    -0.00000000   -0.00623414    0.00000000
     atom    6 type  2   force =     0.00000000    0.00623414    0.00000000
     atom    7 type  3   force =     0.00000000    0.03907312    0.00000000
     atom    8 type  3   force =     0.00000000   -0.03907312    0.00000000
     The non-local contrib.  to forces
     atom    1 type  1   force =     0.00000000   -0.00782777    0.12948677
     atom    2 type  1   force =     0.00000000   -0.00782777   -0.12948677
     atom    3 type  1   force =     0.00000000    0.00782777    0.12948677
     atom    4 type  1   force =    -0.00000000    0.00782777   -0.12948677
     atom    5 type  2   force =     0.00000000   -0.35080913    0.00000000
     atom    6 type  2   force =     0.00000000    0.35080913    0.00000000
     atom    7 type  3   force =     0.00000000    0.02840260   -0.00000000
     atom    8 type  3   force =    -0.00000000   -0.02840260   -0.00000000
     The ionic contribution  to forces
     atom    1 type  1   force =     0.00000000   -0.85923033    0.37220360
     atom    2 type  1   force =    -0.00000000   -0.85923033   -0.37220360
     atom    3 type  1   force =     0.00000000    0.85923033    0.37220360
     atom    4 type  1   force =     0.00000000    0.85923033   -0.37220360
     atom    5 type  2   force =     0.00000000   -1.86486791    0.00000000
     atom    6 type  2   force =    -0.00000000    1.86486791    0.00000000
     atom    7 type  3   force =    -0.00000000    0.66993991   -0.00000000
     atom    8 type  3   force =     0.00000000   -0.66993991   -0.00000000
     The local contribution  to forces
     atom    1 type  1   force =    -0.00000523    0.87746753   -0.50984991
     atom    2 type  1   force =    -0.00000339    0.87747206    0.50984327
     atom    3 type  1   force =     0.00000369   -0.87727123   -0.51077274
     atom    4 type  1   force =     0.00000412   -0.87728667    0.51077909
     atom    5 type  2   force =     0.00000377    2.20815605    0.00013253
     atom    6 type  2   force =    -0.00000524   -2.20829403   -0.00012864
     atom    7 type  3   force =    -0.00000507   -0.65861879    0.00013543
     atom    8 type  3   force =     0.00000834    0.65832517   -0.00015638
     The core correction contribution to forces
     atom    1 type  1   force =     0.00000000    0.00000000    0.00000000
     atom    2 type  1   force =     0.00000000    0.00000000    0.00000000
     atom    3 type  1   force =     0.00000000    0.00000000    0.00000000
     atom    4 type  1   force =     0.00000000    0.00000000    0.00000000
     atom    5 type  2   force =    -0.00000000    0.00007822   -0.00000001
     atom    6 type  2   force =     0.00000000   -0.00007827    0.00000001
     atom    7 type  3   force =     0.00000000    0.00000000    0.00000000
     atom    8 type  3   force =     0.00000000    0.00000000    0.00000000
     The Hubbard contrib.    to forces
     atom    1 type  1   force =     0.00000000    0.00000000    0.00000000
     atom    2 type  1   force =     0.00000000    0.00000000    0.00000000
     atom    3 type  1   force =     0.00000000    0.00000000    0.00000000
     atom    4 type  1   force =     0.00000000    0.00000000    0.00000000
     atom    5 type  2   force =     0.00000000    0.00000000    0.00000000
     atom    6 type  2   force =     0.00000000    0.00000000    0.00000000
     atom    7 type  3   force =     0.00000000    0.00000000    0.00000000
     atom    8 type  3   force =     0.00000000    0.00000000    0.00000000
     The SCF correction term to forces
     atom    1 type  1   force =     0.00000669    0.00109175   -0.00037101
     atom    2 type  1   force =     0.00000482    0.00109141    0.00037892
     atom    3 type  1   force =    -0.00000244   -0.00137414    0.00070642
     atom    4 type  1   force =    -0.00000596   -0.00136410   -0.00071010
     atom    5 type  2   force =    -0.00000382    0.00127344   -0.00015672
     atom    6 type  2   force =     0.00000717   -0.00100579    0.00014439
     atom    7 type  3   force =     0.00000604   -0.00064512   -0.00014557
     atom    8 type  3   force =    -0.00000714    0.00094970    0.00017431

     Total force =     0.062852     Total SCF correction =     0.003386

     Computing stress (Cartesian axis) and pressure

          total   stress  (Ry/bohr**3)                   (kbar)     P=     -851.36
  -0.00649276   0.00000000   0.00000000         -955.12        0.00        0.00
   0.00000000  -0.00481724   0.00000000            0.00     -708.64        0.00
   0.00000000   0.00000000  -0.00605223            0.00        0.00     -890.31

     kinetic stress (kbar)  50478.11      0.00      0.00
                                0.00  51244.32      0.00
                                0.00      0.00  51188.43

     local   stress (kbar)   5182.28      0.00     -0.00
                                0.00   5316.21     -0.00
                               -0.00     -0.00   3094.54

     nonloc. stress (kbar)   7414.06      0.00      0.00
                                0.00   7390.32      0.00
                                0.00      0.00   7309.40

     hartree stress (kbar)  71012.79     -0.00      0.00
                               -0.00  70763.95      0.00
                                0.00      0.00  71550.46

     exc-cor stress (kbar) -17435.50     -0.00     -0.00
                               -0.00 -17428.81     -0.00
                               -0.00     -0.00 -17432.29

     corecor stress (kbar)   -133.65     -0.00     -0.00
                               -0.00   -133.59     -0.00
                               -0.00     -0.00   -133.90

     ewald   stress (kbar)-117473.21     -0.00      0.00
                               -0.00-117861.04      0.00
                                0.00      0.00-116466.96

     hubbard stress (kbar)      0.00      0.00      0.00
                                0.00      0.00      0.00
                                0.00      0.00      0.00

     DFT-D   stress (kbar)      0.00      0.00      0.00
                                0.00      0.00      0.00
                                0.00      0.00      0.00

     XDM     stress (kbar)      0.00      0.00      0.00
                                0.00      0.00      0.00
                                0.00      0.00      0.00

     dft-nl  stress (kbar)      0.00      0.00      0.00
                                0.00      0.00      0.00
                                0.00      0.00      0.00

     TS-vdW  stress (kbar)      0.00      0.00      0.00
                                0.00      0.00      0.00
                                0.00      0.00      0.00

[...]

                                0.00      0.00      0.00

     Writing all to output data dir new_calculations/myprefix.save/

     General routines

     Parallel routines

   This run was terminated on:  23:18:20  20May2023

   JOB DONE.