     Program PWSCF v.7.1 starts on 17Jul2023 at  1:38:48

     Reading input from espresso_18072.pwi
Warning: card &CELL ignored
Warning: card / ignored

     Current dimensions of program PWSCF are:
     Max number of different atomic species (ntypx) = 10
     Max number of k-points (npk) =  40000
     Max angular momentum in pseudopotentials (lmaxx) =  4
     file O.pbe-n-kjpaw_psl.0.1.UPF: wavefunction(s)  2P renormalized

     K-points division:     npool     =       2
     R & G space division:  proc/nbgrp/npool/nimage =       4
     Subspace diagonalization in iterative solution of the eigenvalue problem:
     one sub-group per band group will be used

     Using Slab Decomposition

     bravais-lattice index     =            0
     lattice parameter (alat)  =      10.5859  a.u.
     unit-cell volume          =    1296.0757 (a.u.)^3
     number of atoms/cell      =           16
     number of atomic types    =            3
     number of electrons       =       130.00
     number of Kohn-Sham states=          256
     kinetic-energy cutoff     =      30.0000  Ry
     charge density cutoff     =     240.0000  Ry
     scf convergence threshold =      1.0E-06
     mixing beta               =       0.7000
     number of iterations used =            8  plain     mixing
     Exchange-correlation= SLA  PW   PBX  PBC
                           (   1   4   3   4   0   0   0)

     celldm(1)=  10.585856  celldm(2)=   0.000000  celldm(3)=   0.000000
     celldm(4)=   0.000000  celldm(5)=   0.000000  celldm(6)=   0.000000

     crystal axes: (cart. coord. in units of alat)
               a(1) = (   1.000000   0.000000   0.000000 )
               a(2) = (  -0.585287   1.224238   0.000000 )
               a(3) = (  -0.064559   0.446808   0.892456 )

     reciprocal axes: (cart. coord. in units 2 pi/alat)
               b(1) = (  1.000000  0.478083 -0.167013 )
               b(2) = (  0.000000  0.816835 -0.408948 )
               b(3) = (  0.000000  0.000000  1.120504 )

     PseudoPot. # 1 for Mn read from file:
     /lustre07/scratch/pragov/crystal_structure_design/utils/SSSP/mn_pbe_v1.5.uspp.F.UPF
     MD5 check sum: 82ef2b46521d7a7d9e736dc3972e4928
     Pseudo is Ultrasoft + core correction, Zval = 15.0
     Generated by new atomic code, or converted to UPF format
     Using radial grid of  859 points,  6 beta functions with:
                l(1) =   0
                l(2) =   0
                l(3) =   1
                l(4) =   1
                l(5) =   2
                l(6) =   2
     Q(r) pseudized with  8 coefficients,  rinner =    0.950   0.950   0.950
                                                       0.950   0.950

     PseudoPot. # 2 for P  read from file:
     /lustre07/scratch/pragov/crystal_structure_design/utils/SSSP/P.pbe-n-rrkjus_psl.1.0.0.UPF
     MD5 check sum: 8b930f418f0a4573dca56cd030ffe088
     Pseudo is Ultrasoft + core correction, Zval =  5.0
     Generated using "atomic" code by A. Dal Corso  v.5.1
     Using radial grid of 1147 points,  6 beta functions with:
                l(1) =   0
                l(2) =   0
                l(3) =   1
                l(4) =   1
                l(5) =   2
                l(6) =   2
     Q(r) pseudized with 0 coefficients

     PseudoPot. # 3 for O  read from file:
     /lustre07/scratch/pragov/crystal_structure_design/utils/SSSP/O.pbe-n-kjpaw_psl.0.1.UPF
     MD5 check sum: 0234752ac141de4415c5fc33072bef88
     Pseudo is Projector augmented-wave + core cor, Zval =  6.0
     Generated using "atomic" code by A. Dal Corso  v.5.0.99 svn rev. 10869
     Shape of augmentation charge: BESSEL
     Using radial grid of 1095 points,  4 beta functions with:
                l(1) =   0
                l(2) =   0
                l(3) =   1
                l(4) =   1
     Q(r) pseudized with 0 coefficients

     atomic species   valence    mass     pseudopotential
        Mn            15.00    54.93804     Mn( 1.00)
        P              5.00    30.97376     P ( 1.00)
        O              6.00    15.99900     O ( 1.00)

     No symmetry found

                                    s                        frac. trans.

      isym =  1     identity

 cryst.   s( 1) = (     1          0          0      )
                  (     0          1          0      )
                  (     0          0          1      )

 cart.    s( 1) = (  1.0000000 -0.0000000  0.0000000 )
                  (  0.0000000  1.0000000  0.0000000 )
                  (  0.0000000  0.0000000  1.0000000 )

   Cartesian axes

     site n.     atom                  positions (alat units)
         1           Mn  tau(   1) = (  -0.1171233   1.4473489   0.4465920  )
         2           Mn  tau(   2) = (   0.3824288   1.4474579   0.4460003  )
         3           Mn  tau(   3) = (   0.1431431   1.0588746   0.8923246  )
         4           Mn  tau(   4) = (   0.1747026   0.8351774   0.4462323  )
         5           P   tau(   5) = (  -0.3281993   0.9715853   0.1056998  )
         6           P   tau(   6) = (   0.6781656   0.6995788   0.7868434  )
         7           O   tau(   7) = (   0.1813197   0.4626829   0.3123854  )
         8           O   tau(   8) = (   0.1693287   1.2082073   0.5797991  )
         9           O   tau(   9) = (   0.7452075   0.2088600   0.1715550  )
        10           O   tau(  10) = (  -0.0909341   0.8446510   0.1609651  )
        11           O   tau(  11) = (   0.4446819   0.8172883   0.1634818  )
        12           O   tau(  12) = (  -0.3517794   1.2014481   0.2543909  )
        13           O   tau(  13) = (   0.7019354   0.4698402   0.6380630  )
        14           O   tau(  14) = (   0.4408289   0.8264252   0.7314612  )
        15           O   tau(  15) = (  -0.0948822   0.8541558   0.7290632  )
        16           O   tau(  16) = (  -0.3951627   1.4624241   0.7210177  )

   Crystallographic axes

     site n.     atom                  positions (cryst. coord.)
         1           Mn  tau(   1) = (  0.5002430  0.9996120  0.5004080  )
         2           Mn  tau(   2) = (  0.9999460  0.9999430  0.4997450  )
         3           Mn  tau(   3) = (  0.5003430  0.5000110  0.9998530  )
         4           Mn  tau(   4) = (  0.4994600  0.4997160  0.5000050  )
         5           P   tau(   5) = (  0.1186460  0.7503990  0.1184370  )
         6           P   tau(   6) = (  0.8812090  0.2496620  0.8816610  )
         7           O   tau(   7) = (  0.3503480  0.2501860  0.3500290  )
         8           O   tau(   8) = (  0.6501180  0.7497980  0.6496670  )
         9           O   tau(   9) = (  0.8164080  0.1004470  0.1922280  )
        10           O   tau(  10) = (  0.2859960  0.6241140  0.1803620  )
        11           O   tau(  11) = (  0.8081100  0.6007340  0.1831820  )
        12           O   tau(  12) = (  0.1801260  0.8773520  0.2850460  )
        13           O   tau(  13) = (  0.8199930  0.1228470  0.7149520  )
        14           O   tau(  14) = (  0.7137650  0.3759230  0.8196050  )
        15           O   tau(  15) = (  0.1917120  0.3995550  0.8169180  )
        16           O   tau(  16) = (  0.1835780  0.8997000  0.8079030  )

     number of k points=    14
                       cart. coord. in units 2pi/alat
        k(    1) = (   0.0000000   0.0000000   0.0000000), wk =   0.0740741
        k(    2) = (   0.0000000   0.0000000   0.3735012), wk =   0.1481481
        k(    3) = (   0.0000000   0.2722783  -0.1363161), wk =   0.1481481
        k(    4) = (   0.0000000   0.2722783   0.2371851), wk =   0.1481481
        k(    5) = (   0.0000000   0.2722783  -0.5098174), wk =   0.1481481
        k(    6) = (   0.3333333   0.1593610  -0.0556711), wk =   0.1481481
        k(    7) = (   0.3333333   0.1593610   0.3178301), wk =   0.1481481
        k(    8) = (   0.3333333   0.1593610  -0.4291724), wk =   0.1481481
        k(    9) = (   0.3333333   0.4316393  -0.1919873), wk =   0.1481481
        k(   10) = (   0.3333333   0.4316393   0.1815140), wk =   0.1481481
        k(   11) = (   0.3333333   0.4316393  -0.5654885), wk =   0.1481481
        k(   12) = (   0.3333333  -0.1129173   0.0806450), wk =   0.1481481
        k(   13) = (   0.3333333  -0.1129173   0.4541462), wk =   0.1481481
        k(   14) = (   0.3333333  -0.1129173  -0.2928562), wk =   0.1481481

                       cryst. coord.
        k(    1) = (   0.0000000   0.0000000   0.0000000), wk =   0.0740741
        k(    2) = (   0.0000000   0.0000000   0.3333333), wk =   0.1481481
        k(    3) = (   0.0000000   0.3333333   0.0000000), wk =   0.1481481
        k(    4) = (   0.0000000   0.3333333   0.3333333), wk =   0.1481481
        k(    5) = (   0.0000000   0.3333333  -0.3333333), wk =   0.1481481
        k(    6) = (   0.3333333   0.0000000   0.0000000), wk =   0.1481481
        k(    7) = (   0.3333333   0.0000000   0.3333333), wk =   0.1481481
        k(    8) = (   0.3333333   0.0000000  -0.3333333), wk =   0.1481481
        k(    9) = (   0.3333333   0.3333333  -0.0000000), wk =   0.1481481
        k(   10) = (   0.3333333   0.3333333   0.3333333), wk =   0.1481481
        k(   11) = (   0.3333333   0.3333333  -0.3333333), wk =   0.1481481
        k(   12) = (   0.3333333  -0.3333333  -0.0000000), wk =   0.1481481
        k(   13) = (   0.3333333  -0.3333333   0.3333333), wk =   0.1481481
        k(   14) = (   0.3333333  -0.3333333  -0.3333333), wk =   0.1481481

     Check: negative core charge=   -0.000025

     Initial potential from superposition of free atoms

     starting charge     127.9993, renormalised to     130.0000
     Starting wfcs are  100 randomized atomic wfcs +  156 random wfcs
     Checking if some PAW data can be deallocated...

     Self-consistent Calculation

     iteration #  1     ecut=    30.00 Ry     beta= 0.70
     Davidson diagonalization with overlap

     ethr =  1.00E-02,  avg # of iterations =  6.0

     total energy              =   -1286.49826468 Ry
     estimated scf accuracy    <       4.47209673 Ry

[...]

     total energy              =   -1289.00048700 Ry
     estimated scf accuracy    <       0.00027549 Ry

     iteration #151     ecut=    30.00 Ry     beta= 0.70
     Davidson diagonalization with overlap

     ethr =  8.82E-10,  avg # of iterations =  1.0

     End of self-consistent calculation

          k = 0.0000 0.0000 0.0000 (  3601 PWs)   bands (ev):

   -71.6744 -71.6738 -71.3509 -71.3491 -40.6234 -40.6212 -40.3318 -40.3271
   -40.2813 -40.2796 -40.2460 -40.2396 -40.1112 -40.1085 -39.8784 -39.8754
   -14.7806 -14.5501 -12.3945 -12.3531 -12.2848 -12.2449 -12.1685 -12.0558
   -11.0066 -10.6019  -2.8243  -2.1943  -0.7942  -0.0988  -0.0176   0.1099
     0.5383   0.7019   1.4088   1.9821   2.2622   2.3800   2.7133   2.7553
     2.9663   3.0008   3.1151   3.3988   3.4226   3.5388   3.5798   4.1389
     4.1592   4.3891   4.5085   4.7494   4.9360   4.9410   5.2079   5.2266
     6.3498   6.9348   7.4603   7.6398   7.6484   7.6815   7.7445   7.8323
     7.8575   7.8979   8.2278   8.3178   8.4747   8.7279   8.8814   8.9079
     9.0686   9.4596   9.8536  10.4353  10.9829  13.8772  14.2727  14.6844
    14.9616  15.0303  15.0722  15.8500  15.9515  16.2003  16.6986  16.7548
    16.9816  17.3082  17.3943  18.0020  18.2850  19.0023  19.1842  20.1551
    20.4107  20.7328  21.2066  21.2822  21.2983  21.6105  21.6754  21.6875
    21.7712  22.7174  22.8623  23.0598  23.5439  24.3993  24.7795  24.8042
    24.8754  25.0209  25.7094  26.8419  26.9454  27.0006  27.0230  27.4493
    27.6900  27.9162  28.1211  28.5190  28.8117  28.9014  29.0041  29.2866
    29.6367  29.9343  30.0832  30.6694  30.9331  31.0303  31.4323  31.6657
    31.8473  32.0491  32.3000  32.4463  32.5620  32.9746  33.9519  34.1000
    34.6127  34.8027  34.8920  35.4285  35.4644  35.5648  35.8204  36.3403
    36.3946  36.6295  36.8418  37.0853  37.1517  37.4520  37.6921  37.8827
    38.1621  38.4099  38.6457  38.7992  38.8789  39.2913  39.4165  39.5179
    39.6144  39.6175  40.2478  40.3635  40.5890  40.8158  41.0390  41.0517
    41.7847  41.7973  41.8191  42.4134  42.6106  42.6171  43.4643  43.4947
    43.5297  43.6338  44.2439  44.3990  44.8376  44.9240  45.0602  45.1325
    45.2691  45.5400  45.8534  46.5287  46.6710  46.7778  46.9593  46.9951
    47.0587  47.1152  47.9926  48.0926  48.2344  48.5116  48.7843  49.0739
    49.1231  49.2246  49.3417  49.5190  49.7577  49.9358  50.0285  50.1693
    50.3885  50.4257  50.8169  50.9213  50.9875  51.2468  51.3197  51.6378
    51.7519  51.8730  52.1215  52.1772  52.2443  52.5590  52.7614  52.8108
    52.8407  53.3561  53.6689  53.6906  53.9059  54.1602  54.2197  54.2355
    54.4419  54.5425  54.8261  54.9865  55.5646  56.1283  56.1935  56.3838
    56.5260  56.6917  56.9676  57.1653  57.3610  57.4723  57.6332  57.6493

     occupation numbers
     1.0000   1.0000   1.0000   1.0000   1.0000   1.0000   1.0000   1.0000
     1.0000   1.0000   1.0000   1.0000   1.0000   1.0000   1.0000   1.0000
     1.0000   1.0000   1.0000   1.0000   1.0000   1.0000   1.0000   1.0000
     1.0000   1.0000   1.0000   1.0000   1.0000   1.0000   1.0000   1.0000
     1.0000   1.0000   1.0000   1.0000   1.0000   1.0000   1.0000   1.0000
     1.0000   1.0000   1.0000   1.0000   1.0000   1.0000   1.0000   1.0000
     1.0000   1.0000   1.0000   1.0000   1.0000   1.0000   1.0000   1.0000
     1.0000   1.0000   1.0000   1.0000   1.0000   1.0000   1.0000   1.0000
     1.0000   0.0000   0.0000   0.0000   0.0000   0.0000   0.0000   0.0000
     0.0000   0.0000   0.0000   0.0000   0.0000   0.0000   0.0000   0.0000
     0.0000   0.0000   0.0000   0.0000   0.0000   0.0000   0.0000   0.0000
     0.0000   0.0000   0.0000   0.0000   0.0000   0.0000   0.0000   0.0000
     0.0000   0.0000   0.0000   0.0000   0.0000   0.0000   0.0000   0.0000
     0.0000   0.0000   0.0000   0.0000   0.0000   0.0000   0.0000   0.0000
     0.0000   0.0000   0.0000   0.0000   0.0000   0.0000   0.0000   0.0000
     0.0000   0.0000   0.0000   0.0000   0.0000   0.0000   0.0000   0.0000
     0.0000   0.0000   0.0000   0.0000   0.0000   0.0000   0.0000   0.0000
     0.0000   0.0000   0.0000   0.0000   0.0000   0.0000   0.0000   0.0000
     0.0000   0.0000   0.0000   0.0000   0.0000   0.0000   0.0000   0.0000
     0.0000   0.0000   0.0000   0.0000   0.0000   0.0000   0.0000   0.0000
     0.0000   0.0000   0.0000   0.0000   0.0000   0.0000   0.0000   0.0000
     0.0000   0.0000   0.0000   0.0000   0.0000   0.0000   0.0000   0.0000
     0.0000   0.0000   0.0000   0.0000   0.0000   0.0000   0.0000   0.0000
     0.0000   0.0000   0.0000   0.0000   0.0000   0.0000   0.0000   0.0000
     0.0000   0.0000   0.0000   0.0000   0.0000   0.0000   0.0000   0.0000
     0.0000   0.0000   0.0000   0.0000   0.0000   0.0000   0.0000   0.0000
     0.0000   0.0000   0.0000   0.0000   0.0000   0.0000   0.0000   0.0000
     0.0000   0.0000   0.0000   0.0000   0.0000   0.0000   0.0000   0.0000
     0.0000   0.0000   0.0000   0.0000   0.0000   0.0000   0.0000   0.0000
     0.0000   0.0000   0.0000   0.0000   0.0000   0.0000   0.0000   0.0000
     0.0000   0.0000   0.0000   0.0000   0.0000   0.0000   0.0000   0.0000
     0.0000   0.0000   0.0000   0.0000   0.0000   0.0000   0.0000   0.0000

[...]

          k = 0.3333-0.1129-0.2929 (  3600 PWs)   bands (ev):

   -71.6742 -71.6739 -71.3510 -71.3492 -40.6184 -40.6152 -40.3319 -40.3265
   -40.2769 -40.2760 -40.2541 -40.2525 -40.1117 -40.1104 -39.8776 -39.8749
   -14.6758 -14.5806 -12.4655 -12.4237 -12.3429 -12.3060 -12.0945 -12.0504
   -10.8744 -10.6925  -2.3446  -2.1793  -0.4909  -0.1012  -0.0816  -0.0060
     0.4871   0.5176   1.9063   2.0580   2.1625   2.3389   2.4531   2.5069
     2.8050   3.0319   3.1473   3.3300   3.5425   3.7608   3.7665   3.8652
     4.0056   4.1189   4.1851   4.5253   4.7093   4.7341   4.9139   5.0101
     6.9142   7.4554   7.5811   7.6677   7.7811   7.7819   7.8134   7.8549
     7.9204   7.9337   8.0206   8.1817   8.3432   8.6327   8.7081   8.7483
     8.8951   9.2411   9.9083  10.2927  12.7019  14.1275  14.8056  14.9596
    14.9644  15.1282  15.5952  15.6800  15.9553  16.2174  16.7273  16.8173
    16.9019  17.3485  17.9538  18.0637  18.4839  18.6026  19.0712  19.5646
    19.6429  19.9045  20.2032  21.1990  21.3359  21.4407  21.8028  21.9065
    22.0551  22.1887  22.8478  22.9430  23.3153  23.8247  23.9664  24.2003
    25.0626  25.2995  25.5475  26.0478  26.1826  26.9361  27.6926  27.8118
    28.1942  28.2649  28.6574  28.8632  29.2517  29.3293  29.5232  29.5558
    29.6214  30.0509  30.2363  30.4487  30.8229  30.8923  31.4344  31.6899
    31.7267  32.5540  33.1394  33.2202  33.5192  33.7580  34.2101  34.5085
    34.5613  34.8162  34.8586  35.7154  35.7908  36.0824  36.1313  36.3974
    36.4604  36.5701  36.7525  36.8583  37.2737  37.3476  37.4749  37.6506
    38.0004  38.0270  38.3221  38.3314  38.6485  39.3015  39.3559  39.3885
    39.6619  39.8396  40.3821  40.3851  40.6124  40.9797  41.0221  41.3993
    41.5148  41.7116  41.8001  42.2150  42.3575  42.3704  42.7664  43.0515
    43.3837  43.5884  44.1048  44.2996  44.4757  44.5160  44.8708  44.8879
    45.2624  45.3993  45.6739  45.7976  45.9889  46.1006  46.1744  46.4647
    46.7616  47.2037  47.2734  47.5866  47.6306  47.8422  48.0643  48.1270
    48.3243  48.7012  48.8714  49.0001  49.3034  49.6204  49.6484  49.8983
    50.0193  50.3133  50.4440  50.5553  50.6873  51.0591  51.3041  51.4698
    51.5978  51.9014  51.9176  52.3070  52.5838  52.7079  53.1276  53.2594
    53.5927  53.8889  53.9698  54.3824  54.3983  54.5726  54.6106  54.9171
    55.3690  55.3733  55.5327  56.0970  56.1974  56.3439  56.4769  56.7268
    57.0042  57.0100  57.1412  57.4373  57.7611  57.8776  58.0605  58.3241

     occupation numbers
     1.0000   1.0000   1.0000   1.0000   1.0000   1.0000   1.0000   1.0000
     1.0000   1.0000   1.0000   1.0000   1.0000   1.0000   1.0000   1.0000
     1.0000   1.0000   1.0000   1.0000   1.0000   1.0000   1.0000   1.0000
     1.0000   1.0000   1.0000   1.0000   1.0000   1.0000   1.0000   1.0000
     1.0000   1.0000   1.0000   1.0000   1.0000   1.0000   1.0000   1.0000
     1.0000   1.0000   1.0000   1.0000   1.0000   1.0000   1.0000   1.0000
     1.0000   1.0000   1.0000   1.0000   1.0000   1.0000   1.0000   1.0000
     1.0000   1.0000   1.0000   1.0000   1.0000   1.0000   1.0000   1.0000
     1.0000   0.0000   0.0000   0.0000   0.0000   0.0000   0.0000   0.0000
     0.0000   0.0000   0.0000   0.0000   0.0000   0.0000   0.0000   0.0000
     0.0000   0.0000   0.0000   0.0000   0.0000   0.0000   0.0000   0.0000
     0.0000   0.0000   0.0000   0.0000   0.0000   0.0000   0.0000   0.0000
     0.0000   0.0000   0.0000   0.0000   0.0000   0.0000   0.0000   0.0000
     0.0000   0.0000   0.0000   0.0000   0.0000   0.0000   0.0000   0.0000
     0.0000   0.0000   0.0000   0.0000   0.0000   0.0000   0.0000   0.0000
     0.0000   0.0000   0.0000   0.0000   0.0000   0.0000   0.0000   0.0000
     0.0000   0.0000   0.0000   0.0000   0.0000   0.0000   0.0000   0.0000
     0.0000   0.0000   0.0000   0.0000   0.0000   0.0000   0.0000   0.0000
     0.0000   0.0000   0.0000   0.0000   0.0000   0.0000   0.0000   0.0000
     0.0000   0.0000   0.0000   0.0000   0.0000   0.0000   0.0000   0.0000
     0.0000   0.0000   0.0000   0.0000   0.0000   0.0000   0.0000   0.0000
     0.0000   0.0000   0.0000   0.0000   0.0000   0.0000   0.0000   0.0000
     0.0000   0.0000   0.0000   0.0000   0.0000   0.0000   0.0000   0.0000
     0.0000   0.0000   0.0000   0.0000   0.0000   0.0000   0.0000   0.0000
     0.0000   0.0000   0.0000   0.0000   0.0000   0.0000   0.0000   0.0000
     0.0000   0.0000   0.0000   0.0000   0.0000   0.0000   0.0000   0.0000
     0.0000   0.0000   0.0000   0.0000   0.0000   0.0000   0.0000   0.0000
     0.0000   0.0000   0.0000   0.0000   0.0000   0.0000   0.0000   0.0000
     0.0000   0.0000   0.0000   0.0000   0.0000   0.0000   0.0000   0.0000
     0.0000   0.0000   0.0000   0.0000   0.0000   0.0000   0.0000   0.0000
     0.0000   0.0000   0.0000   0.0000   0.0000   0.0000   0.0000   0.0000
     0.0000   0.0000   0.0000   0.0000   0.0000   0.0000   0.0000   0.0000

     highest occupied, lowest unoccupied level (ev):     8.0370    7.8979

!    total energy              =   -1289.00048994 Ry
     estimated scf accuracy    <       0.00000099 Ry

     The total energy is the sum of the following terms:
     one-electron contribution =    -734.09316922 Ry
     hartree contribution      =     424.86099565 Ry
     xc contribution           =    -188.91336903 Ry
     ewald contribution        =    -695.67552566 Ry
     one-center paw contrib.   =     -95.17942168 Ry
      -> PAW hartree energy AE =       0.00000000 Ry
      -> PAW hartree energy PS =       0.00000000 Ry
      -> PAW xc energy AE      =       0.00000000 Ry
      -> PAW xc energy PS      =       0.00000000 Ry
      -> total E_H with PAW    =     424.86099565 Ry
      -> total E_XC with PAW   =    -188.91336903 Ry

     convergence has been achieved in 151 iterations

     Writing all to output data dir bands_nm/myprefix.save/

     General routines

     Parallel routines

     PAW routines

   This run was terminated on:   1:49:33  17Jul2023

   JOB DONE.