     Program PWSCF v.7.1 starts on 13Jul2023 at  1:34:38

     Reading input from espresso_24769.pwi
Warning: card &CELL ignored
Warning: card / ignored

     Current dimensions of program PWSCF are:
     Max number of different atomic species (ntypx) = 10
     Max number of k-points (npk) =  40000
     Max angular momentum in pseudopotentials (lmaxx) =  4
     file O.pbe-n-kjpaw_psl.0.1.UPF: wavefunction(s)  2P renormalized

     K-points division:     npool     =       2
     R & G space division:  proc/nbgrp/npool/nimage =       8
     Subspace diagonalization in iterative solution of the eigenvalue problem:
     a serial algorithm will be used

     Using Slab Decomposition

     bravais-lattice index     =            0
     lattice parameter (alat)  =      13.2589  a.u.
     unit-cell volume          =    1169.8509 (a.u.)^3
     number of atoms/cell      =           12
     number of atomic types    =            4
     number of electrons       =        96.00
     number of Kohn-Sham states=           64
     kinetic-energy cutoff     =      30.0000  Ry
     charge density cutoff     =     240.0000  Ry
     scf convergence threshold =      1.0E-06
     mixing beta               =       0.7000
     number of iterations used =            8  plain     mixing
     Exchange-correlation= SLA  PW   PBX  PBC
                           (   1   4   3   4   0   0   0)

     celldm(1)=  13.258927  celldm(2)=   0.000000  celldm(3)=   0.000000
     celldm(4)=   0.000000  celldm(5)=   0.000000  celldm(6)=   0.000000

     crystal axes: (cart. coord. in units of alat)
               a(1) = (   1.000000   0.000000   0.000000 )
               a(2) = (   0.400167   0.916442   0.000000 )
               a(3) = (  -0.700083  -0.458221   0.547646 )

     reciprocal axes: (cart. coord. in units 2 pi/alat)
               b(1) = (  1.000000 -0.436653  0.912998 )
               b(2) = (  0.000000  1.091176  0.912998 )
               b(3) = (  0.000000  0.000000  1.825996 )

     PseudoPot. # 1 for Na read from file:
     /lustre07/scratch/pragov/crystal_structure_design/utils/SSSP/na_pbe_v1.5.uspp.F.UPF
     MD5 check sum: 44600605ef58000f06b90626533354dc
     Pseudo is Ultrasoft, Zval =  9.0
     Generated by new atomic code, or converted to UPF format
     Using radial grid of  819 points,  5 beta functions with:
                l(1) =   0
                l(2) =   0
                l(3) =   1
                l(4) =   1
                l(5) =   2
     Q(r) pseudized with  8 coefficients,  rinner =    1.250   1.250   1.250
                                                       1.250   1.250

     PseudoPot. # 2 for La read from file:
     /lustre07/scratch/pragov/crystal_structure_design/utils/SSSP/La.GGA-PBE-paw-v1.0.UPF
     MD5 check sum: 436541e95c1ad8901025bd0b0ed42ae2
     Pseudo is Projector augmented-wave + core cor, Zval = 11.0
     Generated using ATOMPAW code
     Shape of augmentation charge: BESSEL
     Using radial grid of 1101 points,  8 beta functions with:
                l(1) =   0
                l(2) =   0
                l(3) =   1
                l(4) =   1
                l(5) =   2
                l(6) =   2
                l(7) =   3
                l(8) =   3
     Q(r) pseudized with 0 coefficients

     PseudoPot. # 3 for W  read from file:
     /lustre07/scratch/pragov/crystal_structure_design/utils/SSSP/W_pbe_v1.2.uspp.F.UPF
     MD5 check sum: 9c083fa34c2a2ea0f02f1f893e16e1c8
     Pseudo is Ultrasoft + core correction, Zval = 14.0
     Generated by new atomic code, or converted to UPF format
     Using radial grid of  923 points,  8 beta functions with:
                l(1) =   0
                l(2) =   0
                l(3) =   0
                l(4) =   1
                l(5) =   1
                l(6) =   2
                l(7) =   2
                l(8) =   3
     Q(r) pseudized with  6 coefficients,  rinner =    1.350   1.350   1.350
                                                       1.350   1.350   1.350
                                                       1.350

     PseudoPot. # 4 for O  read from file:
     /lustre07/scratch/pragov/crystal_structure_design/utils/SSSP/O.pbe-n-kjpaw_psl.0.1.UPF
     MD5 check sum: 0234752ac141de4415c5fc33072bef88
     Pseudo is Projector augmented-wave + core cor, Zval =  6.0
     Generated using "atomic" code by A. Dal Corso  v.5.0.99 svn rev. 10869
     Shape of augmentation charge: BESSEL
     Using radial grid of 1095 points,  4 beta functions with:
                l(1) =   0
                l(2) =   0
                l(3) =   1
                l(4) =   1
     Q(r) pseudized with 0 coefficients

     atomic species   valence    mass     pseudopotential
        Na             9.00    22.98977     Na( 1.00)
        La            11.00   138.90547     La( 1.00)
        W             14.00   183.84000     W ( 1.00)
        O              6.00    15.99900     O ( 1.00)

     No symmetry found

                                    s                        frac. trans.

      isym =  1     identity

 cryst.   s( 1) = (     1          0          0      )
                  (     0          1          0      )
                  (     0          0          1      )

 cart.    s( 1) = (  1.0000000  0.0000000  0.0000000 )
                  (  0.0000000  1.0000000  0.0000000 )
                  (  0.0000000  0.0000000  1.0000000 )

   Cartesian axes

     site n.     atom                  positions (alat units)
         1           Na  tau(   1) = (   0.0000000   0.0000000   0.0000000  )
         2           La  tau(   2) = (   0.2000834   0.4582212   0.2738232  )
         3           W   tau(   3) = (   0.5000000  -0.0000000   0.2738232  )
         4           W   tau(   4) = (   0.7000834   0.4582212   0.0000000  )
         5           O   tau(   5) = (   0.7343983  -0.1039218   0.2252667  )
         6           O   tau(   6) = (   0.4985601   0.2563986   0.3223797  )
         7           O   tau(   7) = (   0.8506798   0.4946149   0.2090552  )
         8           O   tau(   8) = (   0.0936165   0.1234494   0.3385911  )
         9           O   tau(   9) = (   0.4634886   0.5532182   0.0520226  )
        10           O   tau(  10) = (  -0.0076181  -0.2548402   0.4956238  )
        11           O   tau(  11) = (   0.3569290  -0.0356107   0.0585034  )
        12           O   tau(  12) = (   0.4101126  -0.1168661   0.4891430  )

   Crystallographic axes

     site n.     atom                  positions (cryst. coord.)
         1           Na  tau(   1) = (  0.0000000  0.0000000  0.0000000  )
         2           La  tau(   2) = (  0.2500000  0.7500000  0.5000000  )
         3           W   tau(   3) = (  0.7500000  0.2500000  0.5000000  )
         4           W   tau(   4) = (  0.5000000  0.5000000  0.0000000  )
         5           O   tau(   5) = (  0.9854440  0.0922710  0.4113360  )
         6           O   tau(   6) = (  0.6809350  0.5741080  0.5886640  )
         7           O   tau(   7) = (  0.8255720  0.7305790  0.3817340  )
         8           O   tau(   8) = (  0.3488450  0.4438380  0.6182660  )
         9           O   tau(   9) = (  0.2694210  0.6511550  0.0949930  )
        10           O   tau(  10) = (  0.5561620  0.1744280  0.9050070  )
        11           O   tau(  11) = (  0.4258920  0.0145560  0.1068270  )
        12           O   tau(  12) = (  0.9077290  0.3190650  0.8931730  )

     number of k points=    14
                       cart. coord. in units 2pi/alat
        k(    1) = (   0.0000000   0.0000000   0.0000000), wk =   0.0740741
        k(    2) = (   0.0000000   0.0000000   0.6086653), wk =   0.1481481
        k(    3) = (   0.0000000   0.3637254   0.3043326), wk =   0.1481481
        k(    4) = (   0.0000000   0.3637254   0.9129979), wk =   0.1481481
        k(    5) = (   0.3333333  -0.1455508   0.3043326), wk =   0.1481481
        k(    6) = (   0.3333333  -0.1455508   0.9129979), wk =   0.1481481
        k(    7) = (   0.3333333   0.2181745   0.6086653), wk =   0.1481481
        k(    8) = (   0.3333333   0.2181745   0.0000000), wk =   0.1481481
        k(    9) = (   0.3333333  -0.5092762  -0.0000000), wk =   0.1481481
        k(   10) = (   0.3333333  -0.5092762   0.6086653), wk =   0.1481481
        k(   11) = (   0.0000000  -0.3637254   0.3043326), wk =   0.1481481
        k(   12) = (  -0.3333333   0.1455508   0.3043326), wk =   0.1481481
        k(   13) = (  -0.3333333  -0.2181745   0.6086653), wk =   0.1481481
        k(   14) = (  -0.3333333   0.5092762   0.6086653), wk =   0.1481481

                       cryst. coord.
        k(    1) = (   0.0000000   0.0000000   0.0000000), wk =   0.0740741
        k(    2) = (   0.0000000   0.0000000   0.3333333), wk =   0.1481481
        k(    3) = (   0.0000000   0.3333333   0.0000000), wk =   0.1481481
        k(    4) = (   0.0000000   0.3333333   0.3333333), wk =   0.1481481
        k(    5) = (   0.3333333   0.0000000  -0.0000000), wk =   0.1481481
        k(    6) = (   0.3333333   0.0000000   0.3333333), wk =   0.1481481
        k(    7) = (   0.3333333   0.3333333   0.0000000), wk =   0.1481481
        k(    8) = (   0.3333333   0.3333333  -0.3333333), wk =   0.1481481
        k(    9) = (   0.3333333  -0.3333333  -0.0000000), wk =   0.1481481
        k(   10) = (   0.3333333  -0.3333333   0.3333333), wk =   0.1481481
        k(   11) = (   0.0000000  -0.3333333   0.3333333), wk =   0.1481481
        k(   12) = (  -0.3333333   0.0000000   0.3333333), wk =   0.1481481
        k(   13) = (  -0.3333333  -0.3333333   0.6666667), wk =   0.1481481
        k(   14) = (  -0.3333333   0.3333333   0.3333333), wk =   0.1481481

     Check: negative core charge=   -0.000010

     Initial potential from superposition of free atoms

     starting charge      95.7845, renormalised to      96.0000

     negative rho (up, down):  1.275E-01 0.000E+00
     Starting wfcs are   95 randomized atomic wfcs
     Checking if some PAW data can be deallocated...

     Self-consistent Calculation

     iteration #  1     ecut=    30.00 Ry     beta= 0.70
     Davidson diagonalization with overlap

     ethr =  1.00E-02,  avg # of iterations =  2.0

     negative rho (up, down):  1.204E-01 0.000E+00

     total energy              =   -1203.08776283 Ry
     estimated scf accuracy    <       4.60085758 Ry

[...]

     total energy              =   -1205.73269617 Ry
     estimated scf accuracy    <       0.00000202 Ry

     iteration # 12     ecut=    30.00 Ry     beta= 0.70
     Davidson diagonalization with overlap

     ethr =  2.10E-09,  avg # of iterations =  2.1

     negative rho (up, down):  1.221E-01 0.000E+00

     End of self-consistent calculation

          k = 0.0000 0.0000 0.0000 (  3235 PWs)   bands (ev):

   -67.4222 -67.4044 -42.3466 -31.7683 -31.7562 -31.7562 -31.7459 -31.7459
   -31.7424 -23.5539 -14.2623 -14.2623 -14.2553 -10.7750 -10.4186 -10.2355
   -10.2353 -10.0315  -9.9515  -9.8265  -9.8264  -6.8527  -6.8526  -6.7754
     2.1668   2.3593   2.3593   2.4463   2.4681   3.0505   3.0573   3.3176
     3.3912   3.4266   3.4267   3.7817   4.5919   4.5920   4.7886   5.1107
     5.1380   5.1382   5.5504   5.5505   5.6207   5.9971   6.2660   6.2660
    10.2321  10.5610  10.7083  10.8946  11.2429  11.2429  11.4195  11.4466
    11.4466  11.4602  11.6886  11.9885  12.1635  12.1635  12.5154  12.6753

     occupation numbers
     1.0000   1.0000   1.0000   1.0000   1.0000   1.0000   1.0000   1.0000
     1.0000   1.0000   1.0000   1.0000   1.0000   1.0000   1.0000   1.0000
     1.0000   1.0000   1.0000   1.0000   1.0000   1.0000   1.0000   1.0000
     1.0000   1.0000   1.0000   1.0000   1.0000   1.0000   1.0000   1.0000
     1.0000   1.0000   1.0000   1.0000   1.0000   1.0000   1.0000   1.0000
     1.0000   1.0000   1.0000   1.0000   1.0000   1.0000   1.0000   1.0000
     0.0000   0.0000   0.0000   0.0000   0.0000   0.0000   0.0000   0.0000
     0.0000   0.0000   0.0000   0.0000   0.0000   0.0000   0.0000   0.0000

[...]

          k = 0.0000-0.3637 0.3043 (  3250 PWs)   bands (ev):

[...]

          k =-0.3333 0.1456 0.3043 (  3250 PWs)   bands (ev):

[...]

          k =-0.3333 0.5093 0.6087 (  3251 PWs)   bands (ev):

   -67.4223 -67.4044 -42.3467 -31.7663 -31.7578 -31.7574 -31.7461 -31.7448
   -31.7433 -23.5524 -14.2653 -14.2635 -14.2542 -10.8102 -10.6391 -10.2879
   -10.1008  -9.9456  -9.8545  -9.8179  -9.7865  -6.9055  -6.8539  -6.7911
     2.1112   2.3934   2.5261   2.5732   2.6984   2.7908   3.0190   3.2031
     3.2597   3.5396   3.7622   3.9492   4.1862   4.5030   4.7135   4.8032
     4.9818   5.1370   5.6094   5.7620   5.8653   5.9511   6.0266   6.2054
    10.3486  10.5366  10.6941  10.8219  11.2533  11.2818  11.3826  11.3997
    11.4137  11.4888  11.5405  12.1088  12.2534  12.6078  12.7332  12.8527

     occupation numbers
     1.0000   1.0000   1.0000   1.0000   1.0000   1.0000   1.0000   1.0000
     1.0000   1.0000   1.0000   1.0000   1.0000   1.0000   1.0000   1.0000
     1.0000   1.0000   1.0000   1.0000   1.0000   1.0000   1.0000   1.0000
     1.0000   1.0000   1.0000   1.0000   1.0000   1.0000   1.0000   1.0000
     1.0000   1.0000   1.0000   1.0000   1.0000   1.0000   1.0000   1.0000
     1.0000   1.0000   1.0000   1.0000   1.0000   1.0000   1.0000   1.0000
     0.0000   0.0000   0.0000   0.0000   0.0000   0.0000   0.0000   0.0000
     0.0000   0.0000   0.0000   0.0000   0.0000   0.0000   0.0000   0.0000

     highest occupied, lowest unoccupied level (ev):     6.2660   10.1664

!    total energy              =   -1205.73269639 Ry
     estimated scf accuracy    <       0.00000013 Ry

     The total energy is the sum of the following terms:
     one-electron contribution =    -284.61874717 Ry
     hartree contribution      =     187.33050182 Ry
     xc contribution           =    -164.62251371 Ry
     ewald contribution        =    -469.51429514 Ry
     one-center paw contrib.   =    -474.30764219 Ry
      -> PAW hartree energy AE =       0.00000000 Ry
      -> PAW hartree energy PS =       0.00000000 Ry
      -> PAW xc energy AE      =       0.00000000 Ry
      -> PAW xc energy PS      =       0.00000000 Ry
      -> total E_H with PAW    =     187.33050182 Ry
      -> total E_XC with PAW   =    -164.62251371 Ry

     convergence has been achieved in  12 iterations

     Writing all to output data dir bands_nm/myprefix.save/

     General routines

     Parallel routines

     PAW routines

   This run was terminated on:   1:35:13  13Jul2023

   JOB DONE.