     Program PWSCF v.7.0 starts on  7Jun2023 at 12: 0:34

     K-points division:     npool     =       2
     R & G space division:  proc/nbgrp/npool/nimage =       4

     Reading input from espresso_8742.pwi
Warning: card &CELL ignored
Warning: card / ignored

     Current dimensions of program PWSCF are:
     Max number of different atomic species (ntypx) = 10
     Max number of k-points (npk) =  40000
     Max angular momentum in pseudopotentials (lmaxx) =  4
     file Al.pbe-n-kjpaw_psl.1.0.0.UPF: wavefunction(s)  3S 3P renormalized
     file O.pbe-n-kjpaw_psl.0.1.UPF: wavefunction(s)  2P renormalized
     Message from routine setup:
     using ibrav=0 with symmetry is DISCOURAGED, use correct ibrav instead

     Using Slab Decomposition

     bravais-lattice index     =            0
     lattice parameter (alat)  =       9.8835  a.u.
     unit-cell volume          =    1167.8907 (a.u.)^3
     number of atoms/cell      =           16
     number of atomic types    =            3
     number of electrons       =        72.00
     number of Kohn-Sham states=           64
     kinetic-energy cutoff     =      30.0000  Ry
     charge density cutoff     =     240.0000  Ry
     scf convergence threshold =      1.0E-06
     mixing beta               =       0.7000
     number of iterations used =            8  plain     mixing
     Exchange-correlation= SLA  PW   PBX  PBC
                           (   1   4   3   4   0   0   0)

     celldm(1)=   9.883519  celldm(2)=   0.000000  celldm(3)=   0.000000
     celldm(4)=   0.000000  celldm(5)=   0.000000  celldm(6)=   0.000000

     crystal axes: (cart. coord. in units of alat)
               a(1) = (   1.000000   0.000000   0.000000 )
               a(2) = (   0.000000   1.000000   0.000000 )
               a(3) = (   0.000000   0.000000   1.209671 )

     reciprocal axes: (cart. coord. in units 2 pi/alat)
               b(1) = (  1.000000  0.000000  0.000000 )
               b(2) = (  0.000000  1.000000  0.000000 )
               b(3) = (  0.000000  0.000000  0.826671 )

     PseudoPot. # 1 for Li read from file:
     /home/pragov/projects/rrg-bengioy-ad/pragov/crystal_structure_design/SSSP/li_pbe_v1.4.uspp.F.UPF
     MD5 check sum: e912e257baa3777c20ea3d68f190483c
     Pseudo is Ultrasoft, Zval =  3.0
     Generated by new atomic code, or converted to UPF format
     Using radial grid of  751 points,  5 beta functions with:
                l(1) =   0
                l(2) =   0
                l(3) =   0
                l(4) =   1
                l(5) =   1
     Q(r) pseudized with 10 coefficients,  rinner =    1.150   1.150   1.150

     PseudoPot. # 2 for Al read from file:
     /home/pragov/projects/rrg-bengioy-ad/pragov/crystal_structure_design/SSSP/Al.pbe-n-kjpaw_psl.1.0.0.UPF
     MD5 check sum: cfc449ca30b5f3223ec38ddd88ac046d
     Pseudo is Projector augmented-wave + core cor, Zval =  3.0
     Generated using "atomic" code by A. Dal Corso  v.5.1
     Shape of augmentation charge: PSQ
     Using radial grid of 1135 points,  6 beta functions with:
                l(1) =   0
                l(2) =   0
                l(3) =   1
                l(4) =   1
                l(5) =   2
                l(6) =   2
     Q(r) pseudized with 0 coefficients

     PseudoPot. # 3 for O  read from file:
     /home/pragov/projects/rrg-bengioy-ad/pragov/crystal_structure_design/SSSP/O.pbe-n-kjpaw_psl.0.1.UPF
     MD5 check sum: 0234752ac141de4415c5fc33072bef88
     Pseudo is Projector augmented-wave + core cor, Zval =  6.0
     Generated using "atomic" code by A. Dal Corso  v.5.0.99 svn rev. 10869
     Shape of augmentation charge: BESSEL
     Using radial grid of 1095 points,  4 beta functions with:
                l(1) =   0
                l(2) =   0
                l(3) =   1
                l(4) =   1
     Q(r) pseudized with 0 coefficients

     atomic species   valence    mass     pseudopotential
        Li             3.00     6.94000     Li( 1.00)
        Al             3.00    26.98154     Al( 1.00)
        O              6.00    15.99900     O ( 1.00)

      8 Sym. Ops. (no inversion) found ( 6 have fractional translation)

                                    s                        frac. trans.

      isym =  1     identity

 cryst.   s( 1) = (     1          0          0      )
                  (     0          1          0      )
                  (     0          0          1      )

 cart.    s( 1) = (  1.0000000  0.0000000  0.0000000 )
                  (  0.0000000  1.0000000  0.0000000 )
                  (  0.0000000  0.0000000  1.0000000 )

      isym =  2     180 deg rotation - cart. axis [0,0,1]

 cryst.   s( 2) = (    -1          0          0      )    f =(  0.0000000 )
                  (     0         -1          0      )       (  0.0000000 )
                  (     0          0          1      )       (  0.5000000 )

 cart.    s( 2) = ( -1.0000000  0.0000000  0.0000000 )    f =(  0.0000000 )
                  (  0.0000000 -1.0000000  0.0000000 )       (  0.0000000 )
                  (  0.0000000  0.0000000  1.0000000 )       (  0.6048357 )

[...]

 cryst.   s( 5) = (     0          1          0      )
                  (     1          0          0      )
                  (     0          0         -1      )

 cart.    s( 5) = (  0.0000000  1.0000000  0.0000000 )
                  (  1.0000000  0.0000000  0.0000000 )
                  (  0.0000000  0.0000000 -1.0000000 )

[...]

      isym =  8      90 deg rotation - cart. axis [0,0,1]

 cryst.   s( 8) = (     0          1          0      )    f =(  0.5000000 )
                  (    -1          0          0      )       ( -0.5000000 )
                  (     0          0          1      )       ( -0.2500000 )

 cart.    s( 8) = (  0.0000000 -1.0000000  0.0000000 )    f =(  0.5000000 )
                  (  1.0000000  0.0000000  0.0000000 )       ( -0.5000000 )
                  (  0.0000000  0.0000000  1.0000000 )       ( -0.3024178 )

   Cartesian axes

     site n.     atom                  positions (alat units)
         1           Li  tau(   1) = (   0.6861320   0.3138680   0.3024178  )
         2           Li  tau(   2) = (   0.1861320   0.1861320   0.6048357  )
         3           Li  tau(   3) = (   0.3138680   0.6861320   0.9072535  )
         4           Li  tau(   4) = (   0.8138680   0.8138680   0.0000000  )
         5           Al  tau(   5) = (   0.8233410   0.8233410   0.6048357  )
         6           Al  tau(   6) = (   0.6766590   0.3233410   0.9072535  )
         7           Al  tau(   7) = (   0.3233410   0.6766590   0.3024178  )
         8           Al  tau(   8) = (   0.1766590   0.1766590   0.0000000  )
         9           O   tau(   9) = (   0.2908710   0.3381280   0.2750381  )
        10           O   tau(  10) = (   0.1618720   0.7908710   0.5774560  )
        11           O   tau(  11) = (   0.7908710   0.1618720   0.6322154  )
        12           O   tau(  12) = (   0.8381280   0.2091290   1.1822916  )
        13           O   tau(  13) = (   0.2091290   0.8381280   0.0273797  )
        14           O   tau(  14) = (   0.6618720   0.7091290   0.3297975  )
        15           O   tau(  15) = (   0.3381280   0.2908710   0.9346332  )
        16           O   tau(  16) = (   0.7091290   0.6618720   0.8798738  )

   Crystallographic axes

     site n.     atom                  positions (cryst. coord.)
         1           Li  tau(   1) = (  0.6861320  0.3138680  0.2500000  )
         2           Li  tau(   2) = (  0.1861320  0.1861320  0.5000000  )
         3           Li  tau(   3) = (  0.3138680  0.6861320  0.7500000  )
         4           Li  tau(   4) = (  0.8138680  0.8138680  0.0000000  )
         5           Al  tau(   5) = (  0.8233410  0.8233410  0.5000000  )
         6           Al  tau(   6) = (  0.6766590  0.3233410  0.7500000  )
         7           Al  tau(   7) = (  0.3233410  0.6766590  0.2500000  )
         8           Al  tau(   8) = (  0.1766590  0.1766590  0.0000000  )
         9           O   tau(   9) = (  0.2908710  0.3381280  0.2273660  )
        10           O   tau(  10) = (  0.1618720  0.7908710  0.4773660  )
        11           O   tau(  11) = (  0.7908710  0.1618720  0.5226340  )
        12           O   tau(  12) = (  0.8381280  0.2091290  0.9773660  )
        13           O   tau(  13) = (  0.2091290  0.8381280  0.0226340  )
        14           O   tau(  14) = (  0.6618720  0.7091290  0.2726340  )
        15           O   tau(  15) = (  0.3381280  0.2908710  0.7726340  )
        16           O   tau(  16) = (  0.7091290  0.6618720  0.7273660  )

     number of k points=     6
                       cart. coord. in units 2pi/alat
        k(    1) = (   0.0000000   0.0000000   0.0000000), wk =   0.0740741
        k(    2) = (   0.0000000   0.0000000   0.2755569), wk =   0.1481481
        k(    3) = (   0.0000000   0.3333333   0.0000000), wk =   0.2962963
        k(    4) = (   0.0000000   0.3333333   0.2755569), wk =   0.5925926
        k(    5) = (   0.3333333   0.3333333   0.0000000), wk =   0.2962963
        k(    6) = (   0.3333333   0.3333333   0.2755569), wk =   0.5925926

                       cryst. coord.
        k(    1) = (   0.0000000   0.0000000   0.0000000), wk =   0.0740741
        k(    2) = (   0.0000000   0.0000000   0.3333333), wk =   0.1481481
        k(    3) = (   0.0000000   0.3333333   0.0000000), wk =   0.2962963
        k(    4) = (   0.0000000   0.3333333   0.3333333), wk =   0.5925926
        k(    5) = (   0.3333333   0.3333333   0.0000000), wk =   0.2962963
        k(    6) = (   0.3333333   0.3333333   0.3333333), wk =   0.5925926

     Check: negative core charge=   -0.000009

     Initial potential from superposition of free atoms

     starting charge      70.1879, renormalised to      72.0000
     Starting wfcs are   68 randomized atomic wfcs
     Checking if some PAW data can be deallocated...

     Self-consistent Calculation

     iteration #  1     ecut=    30.00 Ry     beta= 0.70
     Davidson diagonalization with overlap

     ethr =  1.00E-02,  avg # of iterations =  4.2

     total energy              =    -550.10098618 Ry
     estimated scf accuracy    <       1.64612868 Ry

[...]

     total energy              =    -550.78125068 Ry
     estimated scf accuracy    <       0.00000222 Ry

     iteration #  7     ecut=    30.00 Ry     beta= 0.70
     Davidson diagonalization with overlap

     ethr =  3.08E-09,  avg # of iterations =  3.0

     End of self-consistent calculation

          k = 0.0000 0.0000 0.0000 (  3245 PWs)   bands (ev):

   -39.2485 -39.2449 -39.2449 -39.2383 -14.2652 -13.6031 -13.6031 -13.1628
   -13.1481 -13.1481 -13.0509 -13.0274  -2.2504  -0.8151  -0.8151  -0.7048
    -0.6641  -0.6641   0.2575   0.5274   0.7824   0.8523   0.8523   1.2089
     1.6316   1.7603   1.7992   1.7992   1.8117   2.0856   2.2490   2.3598
     2.3598   2.4492   2.4492   3.0382   7.5773  11.5724  11.5724  11.9203
    11.9203  12.0023  12.1988  12.6723  12.9739  12.9739  13.8667  13.9807
    13.9807  14.5081  15.6571  15.6571  15.9103  16.1450  16.5309  16.7366
    16.9435  16.9435  17.8305  18.3063  18.3731  18.3978  18.3978  18.9595

     occupation numbers
     1.0000   1.0000   1.0000   1.0000   1.0000   1.0000   1.0000   1.0000
     1.0000   1.0000   1.0000   1.0000   1.0000   1.0000   1.0000   1.0000
     1.0000   1.0000   1.0000   1.0000   1.0000   1.0000   1.0000   1.0000
     1.0000   1.0000   1.0000   1.0000   1.0000   1.0000   1.0000   1.0000
     1.0000   1.0000   1.0000   1.0000   0.0000   0.0000   0.0000   0.0000
     0.0000   0.0000   0.0000   0.0000   0.0000   0.0000   0.0000   0.0000
     0.0000   0.0000   0.0000   0.0000   0.0000   0.0000   0.0000   0.0000
     0.0000   0.0000   0.0000   0.0000   0.0000   0.0000   0.0000   0.0000

[...]

          k = 0.3333 0.3333 0.2756 (  3246 PWs)   bands (ev):

   -39.2470 -39.2459 -39.2426 -39.2415 -13.9013 -13.7751 -13.5239 -13.4300
   -13.1610 -13.1391 -13.0857 -13.0784  -1.6781  -1.4277  -0.9980  -0.9338
     0.0688   0.1257   0.4070   0.4978   0.5955   0.6672   0.9225   1.1506
     1.3155   1.5419   1.6088   1.7696   1.8682   1.9000   2.1252   2.1553
     2.5157   2.5347   2.7113   2.8135   9.6807  10.2206  11.0415  11.1388
    11.3139  11.5710  11.6312  11.7175  13.6512  13.8182  14.1820  14.5829
    14.9254  15.0116  15.3745  15.8187  15.9566  16.0644  16.3230  16.4342
    17.0089  17.0848  17.5973  17.8185  17.9754  18.2097  18.2137  18.7788

     occupation numbers
     1.0000   1.0000   1.0000   1.0000   1.0000   1.0000   1.0000   1.0000
     1.0000   1.0000   1.0000   1.0000   1.0000   1.0000   1.0000   1.0000
     1.0000   1.0000   1.0000   1.0000   1.0000   1.0000   1.0000   1.0000
     1.0000   1.0000   1.0000   1.0000   1.0000   1.0000   1.0000   1.0000
     1.0000   1.0000   1.0000   1.0000   0.0000   0.0000   0.0000   0.0000
     0.0000   0.0000   0.0000   0.0000   0.0000   0.0000   0.0000   0.0000
     0.0000   0.0000   0.0000   0.0000   0.0000   0.0000   0.0000   0.0000
     0.0000   0.0000   0.0000   0.0000   0.0000   0.0000   0.0000   0.0000

     highest occupied, lowest unoccupied level (ev):     3.0382    7.5773

!    total energy              =    -550.78125114 Ry
     estimated scf accuracy    <       0.00000035 Ry

     The total energy is the sum of the following terms:
     one-electron contribution =    -131.39023231 Ry
     hartree contribution      =     100.24312536 Ry
     xc contribution           =     -85.02199641 Ry
     ewald contribution        =    -219.80155246 Ry
     one-center paw contrib.   =    -214.81059531 Ry
      -> PAW hartree energy AE =       0.00000000 Ry
      -> PAW hartree energy PS =       0.00000000 Ry
      -> PAW xc energy AE      =       0.00000000 Ry
      -> PAW xc energy PS      =       0.00000000 Ry
      -> total E_H with PAW    =     100.24312536 Ry
      -> total E_XC with PAW   =     -85.02199641 Ry

     convergence has been achieved in   7 iterations

     Writing all to output data dir calculations_bands/myprefix.save/

     General routines

     Parallel routines

     PAW routines

   This run was terminated on:  12: 0:41   7Jun2023

   JOB DONE.