     Program PWSCF v.7.0 starts on 23Jun2023 at 12:49:19

     K-points division:     npool     =       2
     R & G space division:  proc/nbgrp/npool/nimage =       4

     Reading input from espresso_825.pwi
Warning: card &CELL ignored
Warning: card / ignored

     Current dimensions of program PWSCF are:
     Max number of different atomic species (ntypx) = 10
     Max number of k-points (npk) =  40000
     Max angular momentum in pseudopotentials (lmaxx) =  4
     file Ba.pbe-spn-kjpaw_psl.1.0.0.UPF: wavefunction(s)  5S 6S renormalized
     file O.pbe-n-kjpaw_psl.0.1.UPF: wavefunction(s)  2P renormalized
     Message from routine setup:
     using ibrav=0 with symmetry is DISCOURAGED, use correct ibrav instead

     Using Slab Decomposition

     bravais-lattice index     =            0
     lattice parameter (alat)  =       7.8828  a.u.
     unit-cell volume          =    1960.0011 (a.u.)^3
     number of atoms/cell      =           20
     number of atomic types    =            4
     number of electrons       =       168.00
     number of Kohn-Sham states=           90
     kinetic-energy cutoff     =      30.0000  Ry
     charge density cutoff     =     240.0000  Ry
     scf convergence threshold =      1.0E-06
     mixing beta               =       0.7000
     number of iterations used =            8  plain     mixing
     Exchange-correlation= SLA  PW   PBX  PBC
                           (   1   4   3   4   0   0   0)

     celldm(1)=   7.882762  celldm(2)=   0.000000  celldm(3)=   0.000000
     celldm(4)=   0.000000  celldm(5)=   0.000000  celldm(6)=   0.000000

     crystal axes: (cart. coord. in units of alat)
               a(1) = (   1.000000   0.000000   0.000000 )
               a(2) = (   0.000000   1.414654   0.000000 )
               a(3) = (   0.000000   0.000000   2.828595 )

     reciprocal axes: (cart. coord. in units 2 pi/alat)
               b(1) = (  1.000000  0.000000  0.000000 )
               b(2) = (  0.000000  0.706887  0.000000 )
               b(3) = (  0.000000  0.000000  0.353532 )

     PseudoPot. # 1 for Ba read from file:
     /home/pragov/projects/rrg-bengioy-ad/pragov/crystal_structure_design/SSSP/Ba.pbe-spn-kjpaw_psl.1.0.0.UPF
     MD5 check sum: c432291d3e53af55f19d5e8866385beb
     Pseudo is Projector augmented-wave + core cor, Zval = 10.0
     Generated using "atomic" code by A. Dal Corso  v.5.1
     Shape of augmentation charge: PSQ
     Using radial grid of 1251 points,  7 beta functions with:
                l(1) =   0
                l(2) =   0
                l(3) =   0
                l(4) =   1
                l(5) =   1
                l(6) =   2
                l(7) =   2
     Q(r) pseudized with 0 coefficients

     PseudoPot. # 2 for Sr read from file:
     /home/pragov/projects/rrg-bengioy-ad/pragov/crystal_structure_design/SSSP/Sr_pbe_v1.uspp.F.UPF
     MD5 check sum: 6b418c05fbe9db5448babca5e47b7a5b
     Pseudo is Ultrasoft + core correction, Zval = 10.0
     Generated by new atomic code, or converted to UPF format
     Using radial grid of  883 points,  6 beta functions with:
                l(1) =   0
                l(2) =   0
                l(3) =   1
                l(4) =   1
                l(5) =   2
                l(6) =   2
     Q(r) pseudized with  6 coefficients,  rinner =    1.400   1.400   1.400
                                                       1.400   1.400

     PseudoPot. # 3 for Sn read from file:
     /home/pragov/projects/rrg-bengioy-ad/pragov/crystal_structure_design/SSSP/Sn_pbe_v1.uspp.F.UPF
     MD5 check sum: 4cf58ce39ec5d5d420df3dd08604eb00
     Pseudo is Ultrasoft + core correction, Zval = 14.0
     Generated by new atomic code, or converted to UPF format
     Using radial grid of  891 points,  6 beta functions with:
                l(1) =   0
                l(2) =   0
                l(3) =   1
                l(4) =   1
                l(5) =   2
                l(6) =   2
     Q(r) pseudized with  6 coefficients,  rinner =    1.200   1.200   1.200
                                                       1.200   1.200

     PseudoPot. # 4 for O  read from file:
     /home/pragov/projects/rrg-bengioy-ad/pragov/crystal_structure_design/SSSP/O.pbe-n-kjpaw_psl.0.1.UPF
     MD5 check sum: 0234752ac141de4415c5fc33072bef88
     Pseudo is Projector augmented-wave + core cor, Zval =  6.0
     Generated using "atomic" code by A. Dal Corso  v.5.0.99 svn rev. 10869
     Shape of augmentation charge: BESSEL
     Using radial grid of 1095 points,  4 beta functions with:
                l(1) =   0
                l(2) =   0
                l(3) =   1
                l(4) =   1
     Q(r) pseudized with 0 coefficients

     atomic species   valence    mass     pseudopotential
        Ba            10.00   137.32700     Ba( 1.00)
        Sr            10.00    87.62000     Sr( 1.00)
        Sn            14.00   118.71000     Sn( 1.00)
        O              6.00    15.99900     O ( 1.00)

      8 Sym. Ops., with inversion, found

                                    s                        frac. trans.

      isym =  1     identity

 cryst.   s( 1) = (     1          0          0      )
                  (     0          1          0      )
                  (     0          0          1      )

 cart.    s( 1) = (  1.0000000  0.0000000  0.0000000 )
                  (  0.0000000  1.0000000  0.0000000 )
                  (  0.0000000  0.0000000  1.0000000 )

      isym =  2     180 deg rotation - cart. axis [0,0,1]

[...]

      isym =  4     180 deg rotation - cart. axis [1,0,0]

[...]

      isym =  5     inversion

[...]

      isym =  6     inv. 180 deg rotation - cart. axis [0,0,1]

[...]

      isym =  8     inv. 180 deg rotation - cart. axis [1,0,0]

 cryst.   s( 8) = (    -1          0          0      )
                  (     0          1          0      )
                  (     0          0          1      )

 cart.    s( 8) = ( -1.0000000  0.0000000  0.0000000 )
                  (  0.0000000  1.0000000  0.0000000 )
                  (  0.0000000  0.0000000  1.0000000 )

   Cartesian axes

     site n.     atom                  positions (alat units)
         1           Ba  tau(   1) = (   0.5000000   0.0000000   0.7061758  )
         2           Ba  tau(   2) = (   0.5000000   0.7073271   1.4142976  )
         3           Ba  tau(   3) = (   0.5000000   0.0000000   2.1224195  )
         4           Sr  tau(   4) = (   0.5000000   0.7073271   0.0000000  )
         5           Sn  tau(   5) = (   0.0000000   0.0000000   1.4142976  )
         6           Sn  tau(   6) = (   0.0000000   0.7073271   2.1238168  )
         7           Sn  tau(   7) = (   0.0000000   0.0000000   0.0000000  )
         8           Sn  tau(   8) = (   0.0000000   0.7073271   0.7047784  )
         9           O   tau(   9) = (   0.0000000   0.3538488   1.7683359  )
        10           O   tau(  10) = (   0.0000000   1.0572559   2.4794137  )
        11           O   tau(  11) = (   0.0000000   0.3573982   0.3491816  )
        12           O   tau(  12) = (   0.0000000   1.0608053   1.0602593  )
        13           O   tau(  13) = (   0.0000000   0.3538488   1.0602593  )
        14           O   tau(  14) = (   0.0000000   1.0608053   1.7683359  )
        15           O   tau(  15) = (   0.0000000   0.3573982   2.4794137  )
        16           O   tau(  16) = (   0.0000000   1.0572559   0.3491816  )
        17           O   tau(  17) = (   0.5000000   0.0000000   1.4142976  )
        18           O   tau(  18) = (   0.5000000   0.7073271   2.1258534  )
        19           O   tau(  19) = (   0.5000000   0.0000000   0.0000000  )
        20           O   tau(  20) = (   0.5000000   0.7073271   0.7027419  )

   Crystallographic axes

     site n.     atom                  positions (cryst. coord.)
         1           Ba  tau(   1) = (  0.5000000  0.0000000  0.2496560  )
         2           Ba  tau(   2) = (  0.5000000  0.5000000  0.5000000  )
         3           Ba  tau(   3) = (  0.5000000  0.0000000  0.7503440  )
         4           Sr  tau(   4) = (  0.5000000  0.5000000  0.0000000  )
         5           Sn  tau(   5) = (  0.0000000  0.0000000  0.5000000  )
         6           Sn  tau(   6) = (  0.0000000  0.5000000  0.7508380  )
         7           Sn  tau(   7) = (  0.0000000  0.0000000  0.0000000  )
         8           Sn  tau(   8) = (  0.0000000  0.5000000  0.2491620  )
         9           O   tau(   9) = (  0.0000000  0.2501310  0.6251640  )
        10           O   tau(  10) = (  0.0000000  0.7473600  0.8765530  )
        11           O   tau(  11) = (  0.0000000  0.2526400  0.1234470  )
        12           O   tau(  12) = (  0.0000000  0.7498690  0.3748360  )
        13           O   tau(  13) = (  0.0000000  0.2501310  0.3748360  )
        14           O   tau(  14) = (  0.0000000  0.7498690  0.6251640  )
        15           O   tau(  15) = (  0.0000000  0.2526400  0.8765530  )
        16           O   tau(  16) = (  0.0000000  0.7473600  0.1234470  )
        17           O   tau(  17) = (  0.5000000  0.0000000  0.5000000  )
        18           O   tau(  18) = (  0.5000000  0.5000000  0.7515580  )
        19           O   tau(  19) = (  0.5000000  0.0000000  0.0000000  )
        20           O   tau(  20) = (  0.5000000  0.5000000  0.2484420  )

     number of k points=     8
                       cart. coord. in units 2pi/alat
        k(    1) = (   0.0000000   0.0000000   0.0000000), wk =   0.0740741
        k(    2) = (   0.0000000   0.0000000   0.1178441), wk =   0.1481481
        k(    3) = (   0.0000000   0.2356289   0.0000000), wk =   0.1481481
        k(    4) = (   0.0000000   0.2356289   0.1178441), wk =   0.2962963
        k(    5) = (   0.3333333   0.0000000   0.0000000), wk =   0.1481481
        k(    6) = (   0.3333333   0.0000000   0.1178441), wk =   0.2962963
        k(    7) = (   0.3333333   0.2356289   0.0000000), wk =   0.2962963
        k(    8) = (   0.3333333   0.2356289   0.1178441), wk =   0.5925926

                       cryst. coord.
        k(    1) = (   0.0000000   0.0000000   0.0000000), wk =   0.0740741
        k(    2) = (   0.0000000   0.0000000   0.3333333), wk =   0.1481481
        k(    3) = (   0.0000000   0.3333333   0.0000000), wk =   0.1481481
        k(    4) = (   0.0000000   0.3333333   0.3333333), wk =   0.2962963
        k(    5) = (   0.3333333   0.0000000   0.0000000), wk =   0.1481481
        k(    6) = (   0.3333333   0.0000000   0.3333333), wk =   0.2962963
        k(    7) = (   0.3333333   0.3333333   0.0000000), wk =   0.2962963
        k(    8) = (   0.3333333   0.3333333   0.3333333), wk =   0.5925926

     Check: negative core charge=   -0.000009

     Initial potential from superposition of free atoms

     starting charge     163.9151, renormalised to     168.0000

     negative rho (up, down):  6.396E-02 0.000E+00
     Starting wfcs are  112 randomized atomic wfcs
     Checking if some PAW data can be deallocated...

     Self-consistent Calculation

     iteration #  1     ecut=    30.00 Ry     beta= 0.70
     Davidson diagonalization with overlap

     ethr =  1.00E-02,  avg # of iterations =  4.2

     negative rho (up, down):  6.299E-02 0.000E+00

     total energy              =   -2530.25944653 Ry
     estimated scf accuracy    <       4.32241705 Ry

[...]

     c_bands:  1 eigenvalues not converged
     ethr =  9.60E-08,  avg # of iterations =  5.4

[...]

     total energy              =   -2532.32188676 Ry
     estimated scf accuracy    <       0.00000114 Ry

     iteration # 11     ecut=    30.00 Ry     beta= 0.70
     Davidson diagonalization with overlap

     ethr =  6.76E-10,  avg # of iterations =  4.0

     negative rho (up, down):  6.587E-02 0.000E+00

     End of self-consistent calculation

          k = 0.0000 0.0000 0.0000 (  5441 PWs)   bands (ev):

   -23.6550 -15.5819 -15.5408 -15.5023 -11.2074 -11.2022 -11.1402 -11.1379
   -11.0738 -10.9845 -10.9840 -10.7022 -10.5387 -10.5317 -10.5311 -10.5078
   -10.5076 -10.5036 -10.5035 -10.4982 -10.4981 -10.4789 -10.4769 -10.4648
    -8.2172  -7.9650  -7.9627  -7.2303  -7.2270  -6.6408  -6.4818  -6.3843
    -5.8794  -5.8768  -5.5857  -5.5322  -5.5311  -5.4835  -5.4689  -0.8080
    -0.8064  -0.7836  -0.7695  -0.7475  -0.6969  -0.6413  -0.5847  -0.5513
     2.7294   3.6326   3.6454   4.9614   4.9709   4.9749   5.0376   5.0703
     5.3821   6.4449   6.5546   6.6294   7.2752   7.3249   7.8561   7.9273
     7.9304   7.9344   8.2041   8.2152   8.2362   8.2548   8.5005   8.5220
     8.5416   8.5473   8.5869   8.5933   8.6144   8.7127   8.9246   8.9330
     8.9361   9.0777   9.1358   9.4464   9.9048  12.9175  12.9463  14.4473
    14.4638  15.6405

     occupation numbers
     1.0000   1.0000   1.0000   1.0000   1.0000   1.0000   1.0000   1.0000
     1.0000   1.0000   1.0000   1.0000   1.0000   1.0000   1.0000   1.0000
     1.0000   1.0000   1.0000   1.0000   1.0000   1.0000   1.0000   1.0000
     1.0000   1.0000   1.0000   1.0000   1.0000   1.0000   1.0000   1.0000
     1.0000   1.0000   1.0000   1.0000   1.0000   1.0000   1.0000   1.0000
     1.0000   1.0000   1.0000   1.0000   1.0000   1.0000   1.0000   1.0000
     1.0000   1.0000   1.0000   1.0000   1.0000   1.0000   1.0000   1.0000
     1.0000   1.0000   1.0000   1.0000   1.0000   1.0000   1.0000   1.0000
     1.0000   1.0000   1.0000   1.0000   1.0000   1.0000   1.0000   1.0000
     1.0000   1.0000   1.0000   1.0000   1.0000   1.0000   1.0000   1.0000
     1.0000   1.0000   1.0000   1.0000   0.0000   0.0000   0.0000   0.0000
     0.0000   0.0000

[...]

          k = 0.3333 0.2356 0.1178 (  5454 PWs)   bands (ev):

   -23.6491 -15.5175 -15.5024 -15.4842 -11.1138 -11.1018 -11.0140 -10.9333
   -10.9192 -10.8564 -10.7928 -10.7752 -10.5418 -10.5416 -10.5388 -10.5139
   -10.5136 -10.5100 -10.5092 -10.5086 -10.5072 -10.4897 -10.4796 -10.4758
    -7.8352  -7.7267  -7.4798  -7.4007  -7.1754  -6.9895  -6.8306  -6.6860
    -6.5310  -6.3875  -6.1262  -5.9981  -5.5434  -5.5363  -5.4588  -0.9124
    -0.8815  -0.8139  -0.7786  -0.7476  -0.7359  -0.6603  -0.6336  -0.5786
     1.8137   2.2226   3.1449   3.1747   5.1681   5.4064   6.2597   6.8492
     6.8679   6.9730   7.0216   7.1026   7.1933   7.3357   7.5885   7.6168
     7.7295   7.8349   7.8810   7.9645   8.0438   8.0704   8.0929   8.1965
     8.2827   8.5394   8.5948   8.6564   8.7158   8.7990   8.9190   8.9975
     9.0977   9.2050   9.2686   9.2767  13.6777  14.2238  14.7873  15.0908
    16.0322  16.0905

     occupation numbers
     1.0000   1.0000   1.0000   1.0000   1.0000   1.0000   1.0000   1.0000
     1.0000   1.0000   1.0000   1.0000   1.0000   1.0000   1.0000   1.0000
     1.0000   1.0000   1.0000   1.0000   1.0000   1.0000   1.0000   1.0000
     1.0000   1.0000   1.0000   1.0000   1.0000   1.0000   1.0000   1.0000
     1.0000   1.0000   1.0000   1.0000   1.0000   1.0000   1.0000   1.0000
     1.0000   1.0000   1.0000   1.0000   1.0000   1.0000   1.0000   1.0000
     1.0000   1.0000   1.0000   1.0000   1.0000   1.0000   1.0000   1.0000
     1.0000   1.0000   1.0000   1.0000   1.0000   1.0000   1.0000   1.0000
     1.0000   1.0000   1.0000   1.0000   1.0000   1.0000   1.0000   1.0000
     1.0000   1.0000   1.0000   1.0000   1.0000   1.0000   1.0000   1.0000
     1.0000   1.0000   1.0000   1.0000   0.0000   0.0000   0.0000   0.0000
     0.0000   0.0000

     highest occupied, lowest unoccupied level (ev):     9.4972    9.9048

!    total energy              =   -2532.32188673 Ry
     estimated scf accuracy    <       0.00000079 Ry

     The total energy is the sum of the following terms:
     one-electron contribution =    -338.14316425 Ry
     hartree contribution      =     295.41726660 Ry
     xc contribution           =    -360.21730554 Ry
     ewald contribution        =    -890.24124759 Ry
     one-center paw contrib.   =   -1239.13743595 Ry
      -> PAW hartree energy AE =      86.39623012 Ry
      -> PAW hartree energy PS =     -86.06025133 Ry
      -> PAW xc energy AE      =   -1182.73203102 Ry
      -> PAW xc energy PS      =      57.52415967 Ry
      -> total E_H with PAW    =     295.75324539 Ry
      -> total E_XC with PAW   =   -1485.42517690 Ry

     convergence has been achieved in  11 iterations

     Writing all to output data dir calculations_bands/myprefix.save/

     General routines

     Parallel routines

     PAW routines

   This run was terminated on:  12:49:43  23Jun2023

   JOB DONE.