     Program PWSCF v.7.0 starts on 23Jun2023 at  8:19: 3

     K-points division:     npool     =       2
     R & G space division:  proc/nbgrp/npool/nimage =       4

     Reading input from espresso_2601.pwi
Warning: card &CELL ignored
Warning: card / ignored

     Current dimensions of program PWSCF are:
     Max number of different atomic species (ntypx) = 10
     Max number of k-points (npk) =  40000
     Max angular momentum in pseudopotentials (lmaxx) =  4
     file Pb.pbe-dn-kjpaw_psl.0.2.2.UPF: wavefunction(s)  6S renormalized
     file O.pbe-n-kjpaw_psl.0.1.UPF: wavefunction(s)  2P renormalized
     Message from routine setup:
     using ibrav=0 with symmetry is DISCOURAGED, use correct ibrav instead

     Using Slab Decomposition

     bravais-lattice index     =            0
     lattice parameter (alat)  =      11.2425  a.u.
     unit-cell volume          =    2077.5560 (a.u.)^3
     number of atoms/cell      =           20
     number of atomic types    =            3
     number of electrons       =       168.00
     number of Kohn-Sham states=           90
     kinetic-energy cutoff     =      30.0000  Ry
     charge density cutoff     =     240.0000  Ry
     scf convergence threshold =      1.0E-06
     mixing beta               =       0.7000
     number of iterations used =            8  plain     mixing
     Exchange-correlation= SLA  PW   PBX  PBC
                           (   1   4   3   4   0   0   0)

     celldm(1)=  11.242531  celldm(2)=   0.000000  celldm(3)=   0.000000
     celldm(4)=   0.000000  celldm(5)=   0.000000  celldm(6)=   0.000000

     crystal axes: (cart. coord. in units of alat)
               a(1) = (   1.000000   0.000000   0.000000 )
               a(2) = (   0.000000   1.026948   0.000000 )
               a(3) = (   0.000000   0.000000   1.423679 )

     reciprocal axes: (cart. coord. in units 2 pi/alat)
               b(1) = (  1.000000  0.000000  0.000000 )
               b(2) = (  0.000000  0.973759  0.000000 )
               b(3) = (  0.000000  0.000000  0.702406 )

     PseudoPot. # 1 for Sr read from file:
     /home/pragov/projects/rrg-bengioy-ad/pragov/crystal_structure_design/SSSP/Sr_pbe_v1.uspp.F.UPF
     MD5 check sum: 6b418c05fbe9db5448babca5e47b7a5b
     Pseudo is Ultrasoft + core correction, Zval = 10.0
     Generated by new atomic code, or converted to UPF format
     Using radial grid of  883 points,  6 beta functions with:
                l(1) =   0
                l(2) =   0
                l(3) =   1
                l(4) =   1
                l(5) =   2
                l(6) =   2
     Q(r) pseudized with  6 coefficients,  rinner =    1.400   1.400   1.400
                                                       1.400   1.400

     PseudoPot. # 2 for Pb read from file:
     /home/pragov/projects/rrg-bengioy-ad/pragov/crystal_structure_design/SSSP/Pb.pbe-dn-kjpaw_psl.0.2.2.UPF
     MD5 check sum: 9d431e6316058b74ade52399a6cf67da
     Pseudo is Projector augmented-wave + core cor, Zval = 14.0
     Generated using "atomic" code by A. Dal Corso  v.5.0.99 svn rev. 10869
     Shape of augmentation charge: PSQ
     Using radial grid of 1281 points,  6 beta functions with:
                l(1) =   0
                l(2) =   0
                l(3) =   1
                l(4) =   1
                l(5) =   2
                l(6) =   2
     Q(r) pseudized with 0 coefficients

     PseudoPot. # 3 for O  read from file:
     /home/pragov/projects/rrg-bengioy-ad/pragov/crystal_structure_design/SSSP/O.pbe-n-kjpaw_psl.0.1.UPF
     MD5 check sum: 0234752ac141de4415c5fc33072bef88
     Pseudo is Projector augmented-wave + core cor, Zval =  6.0
     Generated using "atomic" code by A. Dal Corso  v.5.0.99 svn rev. 10869
     Shape of augmentation charge: BESSEL
     Using radial grid of 1095 points,  4 beta functions with:
                l(1) =   0
                l(2) =   0
                l(3) =   1
                l(4) =   1
     Q(r) pseudized with 0 coefficients

     atomic species   valence    mass     pseudopotential
        Sr            10.00    87.62000     Sr( 1.00)
        Pb            14.00   207.20000     Pb( 1.00)
        O              6.00    15.99900     O ( 1.00)

      8 Sym. Ops., with inversion, found ( 6 have fractional translation)

                                    s                        frac. trans.

      isym =  1     identity

 cryst.   s( 1) = (     1          0          0      )
                  (     0          1          0      )
                  (     0          0          1      )

 cart.    s( 1) = (  1.0000000  0.0000000  0.0000000 )
                  (  0.0000000  1.0000000  0.0000000 )
                  (  0.0000000  0.0000000  1.0000000 )

      isym =  2     180 deg rotation - cart. axis [0,0,1]

 cryst.   s( 2) = (    -1          0          0      )    f =( -0.0000000 )
                  (     0         -1          0      )       (  0.0000000 )
                  (     0          0          1      )       (  0.5000000 )

 cart.    s( 2) = ( -1.0000000  0.0000000  0.0000000 )    f =( -0.0000000 )
                  (  0.0000000 -1.0000000  0.0000000 )       (  0.0000000 )
                  (  0.0000000  0.0000000  1.0000000 )       (  0.7118393 )

[...]

      isym =  4     180 deg rotation - cart. axis [1,0,0]

[...]

      isym =  5     inversion

 cryst.   s( 5) = (    -1          0          0      )
                  (     0         -1          0      )
                  (     0          0         -1      )

 cart.    s( 5) = ( -1.0000000  0.0000000  0.0000000 )
                  (  0.0000000 -1.0000000  0.0000000 )
                  (  0.0000000  0.0000000 -1.0000000 )

      isym =  6     inv. 180 deg rotation - cart. axis [0,0,1]

[...]

      isym =  8     inv. 180 deg rotation - cart. axis [1,0,0]

 cryst.   s( 8) = (    -1          0          0      )    f =(  0.5000000 )
                  (     0          1          0      )       (  0.5000000 )
                  (     0          0          1      )       (  0.0000000 )

 cart.    s( 8) = ( -1.0000000  0.0000000  0.0000000 )    f =(  0.5000000 )
                  (  0.0000000  1.0000000  0.0000000 )       (  0.5134741 )
                  (  0.0000000  0.0000000  1.0000000 )       (  0.0000000 )

   Cartesian axes

     site n.     atom                  positions (alat units)
         1           Sr  tau(   1) = (   0.4867740   0.0529289   1.0677589  )
         2           Sr  tau(   2) = (   0.9867740   0.4605452   0.3559196  )
         3           Sr  tau(   3) = (   0.5132260   0.9740193   0.3559196  )
         4           Sr  tau(   4) = (   0.0132260   0.5664030   1.0677589  )
         5           Pb  tau(   5) = (   0.0000000   0.0000000   0.7118393  )
         6           Pb  tau(   6) = (   0.5000000   0.5134741   0.0000000  )
         7           Pb  tau(   7) = (   0.5000000   0.5134741   0.7118393  )
         8           Pb  tau(   8) = (   0.0000000   0.0000000   0.0000000  )
         9           O   tau(   9) = (   0.6020730   0.4707387   1.0677589  )
        10           O   tau(  10) = (   0.3008500   0.8189779   1.3473893  )
        11           O   tau(  11) = (   0.1020730   0.0427354   0.3559196  )
        12           O   tau(  12) = (   0.1991500   0.3055038   1.3473893  )
        13           O   tau(  13) = (   0.3008500   0.8189779   0.7881285  )
        14           O   tau(  14) = (   0.8979270   0.9842128   1.0677589  )
        15           O   tau(  15) = (   0.8008500   0.7214445   0.0762892  )
        16           O   tau(  16) = (   0.6991500   0.2079704   0.0762892  )
        17           O   tau(  17) = (   0.3979270   0.5562096   0.3559196  )
        18           O   tau(  18) = (   0.8008500   0.7214445   0.6355500  )
        19           O   tau(  19) = (   0.6991500   0.2079704   0.6355500  )
        20           O   tau(  20) = (   0.1991500   0.3055038   0.7881285  )

   Crystallographic axes

     site n.     atom                  positions (cryst. coord.)
         1           Sr  tau(   1) = (  0.4867740  0.0515400  0.7500000  )
         2           Sr  tau(   2) = (  0.9867740  0.4484600  0.2500000  )
         3           Sr  tau(   3) = (  0.5132260  0.9484600  0.2500000  )
         4           Sr  tau(   4) = (  0.0132260  0.5515400  0.7500000  )
         5           Pb  tau(   5) = (  0.0000000  0.0000000  0.5000000  )
         6           Pb  tau(   6) = (  0.5000000  0.5000000  0.0000000  )
         7           Pb  tau(   7) = (  0.5000000  0.5000000  0.5000000  )
         8           Pb  tau(   8) = (  0.0000000  0.0000000  0.0000000  )
         9           O   tau(   9) = (  0.6020730  0.4583860  0.7500000  )
        10           O   tau(  10) = (  0.3008500  0.7974870  0.9464140  )
        11           O   tau(  11) = (  0.1020730  0.0416140  0.2500000  )
        12           O   tau(  12) = (  0.1991500  0.2974870  0.9464140  )
        13           O   tau(  13) = (  0.3008500  0.7974870  0.5535860  )
        14           O   tau(  14) = (  0.8979270  0.9583860  0.7500000  )
        15           O   tau(  15) = (  0.8008500  0.7025130  0.0535860  )
        16           O   tau(  16) = (  0.6991500  0.2025130  0.0535860  )
        17           O   tau(  17) = (  0.3979270  0.5416140  0.2500000  )
        18           O   tau(  18) = (  0.8008500  0.7025130  0.4464140  )
        19           O   tau(  19) = (  0.6991500  0.2025130  0.4464140  )
        20           O   tau(  20) = (  0.1991500  0.2974870  0.5535860  )

     number of k points=     8
                       cart. coord. in units 2pi/alat
        k(    1) = (   0.0000000   0.0000000   0.0000000), wk =   0.0740741
        k(    2) = (   0.0000000   0.0000000   0.2341352), wk =   0.1481481
        k(    3) = (   0.0000000   0.3245863   0.0000000), wk =   0.1481481
        k(    4) = (   0.0000000   0.3245863   0.2341352), wk =   0.2962963
        k(    5) = (   0.3333333   0.0000000   0.0000000), wk =   0.1481481
        k(    6) = (   0.3333333   0.0000000   0.2341352), wk =   0.2962963
        k(    7) = (   0.3333333   0.3245863   0.0000000), wk =   0.2962963
        k(    8) = (   0.3333333   0.3245863   0.2341352), wk =   0.5925926

                       cryst. coord.
        k(    1) = (   0.0000000   0.0000000   0.0000000), wk =   0.0740741
        k(    2) = (   0.0000000   0.0000000   0.3333333), wk =   0.1481481
        k(    3) = (   0.0000000   0.3333333   0.0000000), wk =   0.1481481
        k(    4) = (   0.0000000   0.3333333   0.3333333), wk =   0.2962963
        k(    5) = (   0.3333333   0.0000000   0.0000000), wk =   0.1481481
        k(    6) = (   0.3333333   0.0000000   0.3333333), wk =   0.2962963
        k(    7) = (   0.3333333   0.3333333   0.0000000), wk =   0.2962963
        k(    8) = (   0.3333333   0.3333333   0.3333333), wk =   0.5925926

     Check: negative core charge=   -0.000010

     Initial potential from superposition of free atoms

     starting charge     167.8560, renormalised to     168.0000

     negative rho (up, down):  2.494E-01 0.000E+00
     Starting wfcs are  136 randomized atomic wfcs
     Checking if some PAW data can be deallocated...

     Self-consistent Calculation

     iteration #  1     ecut=    30.00 Ry     beta= 0.70
     Davidson diagonalization with overlap

     ethr =  1.00E-02,  avg # of iterations =  2.0

     negative rho (up, down):  2.552E-01 0.000E+00

     total energy              =   -4259.91324943 Ry
     estimated scf accuracy    <       5.25332118 Ry

[...]

     c_bands:  1 eigenvalues not converged
     ethr =  1.47E-07,  avg # of iterations = 11.6

[...]

     total energy              =   -4262.76331235 Ry
     estimated scf accuracy    <       0.00000272 Ry

     iteration # 10     ecut=    30.00 Ry     beta= 0.70
     Davidson diagonalization with overlap

     ethr =  1.62E-09,  avg # of iterations =  5.5

     negative rho (up, down):  2.627E-01 0.000E+00

     End of self-consistent calculation

          k = 0.0000 0.0000 0.0000 (  5745 PWs)   bands (ev):

   -24.1145 -24.1070 -24.0965 -24.0905  -9.4241  -9.3992  -9.3629  -9.2708
    -9.2672  -9.1243  -8.5902  -8.5706  -8.1955  -8.1624  -8.1571  -8.0541
    -7.2959  -7.2958  -7.2886  -7.1444  -7.1348  -7.1301  -7.0788  -7.0704
    -7.0615  -7.0502  -7.0323  -7.0261  -6.9982  -6.9974  -6.9901  -6.8885
    -6.4319  -6.2952  -6.2358  -6.2106  -6.1581  -6.1507  -6.1179  -6.0775
    -6.0319  -5.7442  -5.7201  -5.6607  -5.6222  -5.0354  -4.9647  -4.8359
    -0.4542   1.0116   2.4697   4.1094   4.3056   4.3212   4.4316   4.5340
     4.6043   4.7955   5.8681   6.0256   6.1113   6.4808   6.5478   6.6184
     6.7009   6.7596   7.1812   7.1839   7.1888   7.2068   7.2586   7.2600
     7.2811   7.3139   7.4073   7.5741   7.5815   7.6212   7.6286   7.6694
     7.7583   7.7713   7.7920   7.9040   8.6651  10.4580  11.9838  13.2711
    13.6279  13.7512

     occupation numbers
     1.0000   1.0000   1.0000   1.0000   1.0000   1.0000   1.0000   1.0000
     1.0000   1.0000   1.0000   1.0000   1.0000   1.0000   1.0000   1.0000
     1.0000   1.0000   1.0000   1.0000   1.0000   1.0000   1.0000   1.0000
     1.0000   1.0000   1.0000   1.0000   1.0000   1.0000   1.0000   1.0000
     1.0000   1.0000   1.0000   1.0000   1.0000   1.0000   1.0000   1.0000
     1.0000   1.0000   1.0000   1.0000   1.0000   1.0000   1.0000   1.0000
     1.0000   1.0000   1.0000   1.0000   1.0000   1.0000   1.0000   1.0000
     1.0000   1.0000   1.0000   1.0000   1.0000   1.0000   1.0000   1.0000
     1.0000   1.0000   1.0000   1.0000   1.0000   1.0000   1.0000   1.0000
     1.0000   1.0000   1.0000   1.0000   1.0000   1.0000   1.0000   1.0000
     1.0000   1.0000   1.0000   1.0000   0.0000   0.0000   0.0000   0.0000
     0.0000   0.0000

[...]

          k = 0.3333 0.3246 0.2341 (  5770 PWs)   bands (ev):

   -24.1059 -24.1029 -24.1009 -24.0981  -9.3159  -9.2642  -9.2595  -9.2128
    -9.1151  -9.0585  -8.8233  -8.8113  -8.6568  -8.5933  -8.2990  -8.2858
    -7.1259  -7.1036  -7.0960  -7.0819  -7.0667  -7.0613  -7.0514  -7.0443
    -7.0362  -7.0294  -7.0183  -7.0145  -6.9885  -6.9377  -6.8163  -6.6292
    -6.2618  -6.2301  -6.2160  -6.1690  -6.1047  -6.0094  -5.9744  -5.9273
    -5.8755  -5.8105  -5.7509  -5.6078  -5.5470  -5.4949  -5.4748  -5.2474
     0.7383   1.3515   1.4547   2.0631   4.4440   4.6028   4.9818   5.1252
     5.3982   5.5237   5.8897   5.9885   6.0525   6.0622   6.1389   6.2260
     6.6040   6.6924   6.8968   6.9884   7.0309   7.0601   7.1445   7.2427
     7.3355   7.3549   7.4260   7.4711   7.5329   7.5379   7.5606   7.6091
     7.6178   7.7188   7.7663   7.8096  10.0643  10.7411  10.9652  11.5672
    14.3236  14.3863

     occupation numbers
     1.0000   1.0000   1.0000   1.0000   1.0000   1.0000   1.0000   1.0000
     1.0000   1.0000   1.0000   1.0000   1.0000   1.0000   1.0000   1.0000
     1.0000   1.0000   1.0000   1.0000   1.0000   1.0000   1.0000   1.0000
     1.0000   1.0000   1.0000   1.0000   1.0000   1.0000   1.0000   1.0000
     1.0000   1.0000   1.0000   1.0000   1.0000   1.0000   1.0000   1.0000
     1.0000   1.0000   1.0000   1.0000   1.0000   1.0000   1.0000   1.0000
     1.0000   1.0000   1.0000   1.0000   1.0000   1.0000   1.0000   1.0000
     1.0000   1.0000   1.0000   1.0000   1.0000   1.0000   1.0000   1.0000
     1.0000   1.0000   1.0000   1.0000   1.0000   1.0000   1.0000   1.0000
     1.0000   1.0000   1.0000   1.0000   1.0000   1.0000   1.0000   1.0000
     1.0000   1.0000   1.0000   1.0000   0.0000   0.0000   0.0000   0.0000
     0.0000   0.0000

     highest occupied, lowest unoccupied level (ev):     7.9040    8.6651

!    total energy              =   -4262.76331357 Ry
     estimated scf accuracy    <       0.00000067 Ry

     The total energy is the sum of the following terms:
     one-electron contribution =    -256.92933973 Ry
     hartree contribution      =     250.48632896 Ry
     xc contribution           =    -340.64324740 Ry
     ewald contribution        =    -887.21444511 Ry
     one-center paw contrib.   =   -3028.46261030 Ry
      -> PAW hartree energy AE =       0.00000000 Ry
      -> PAW hartree energy PS =       0.00000000 Ry
      -> PAW xc energy AE      =       0.00000000 Ry
      -> PAW xc energy PS      =       0.00000000 Ry
      -> total E_H with PAW    =     250.48632896 Ry
      -> total E_XC with PAW   =    -340.64324740 Ry

     convergence has been achieved in  10 iterations

     Writing all to output data dir calculations_bands/myprefix.save/

     General routines

     Parallel routines

     PAW routines

   This run was terminated on:   8:19:23  23Jun2023

   JOB DONE.