     Program PWSCF v.7.0 starts on  6Jun2023 at 19:31:28

     K-points division:     npool     =       2
     R & G space division:  proc/nbgrp/npool/nimage =       4

     Reading input from espresso_19913.pwi
Warning: card &CELL ignored
Warning: card / ignored

     Current dimensions of program PWSCF are:
     Max number of different atomic species (ntypx) = 10
     Max number of k-points (npk) =  40000
     Max angular momentum in pseudopotentials (lmaxx) =  4
     Message from routine setup:
     using ibrav=0 with symmetry is DISCOURAGED, use correct ibrav instead

     Using Slab Decomposition

     bravais-lattice index     =            0
     lattice parameter (alat)  =      13.5195  a.u.
     unit-cell volume          =    3309.4356 (a.u.)^3
     number of atoms/cell      =           12
     number of atomic types    =            3
     number of electrons       =        80.00
     number of Kohn-Sham states=           64
     kinetic-energy cutoff     =      30.0000  Ry
     charge density cutoff     =     240.0000  Ry
     scf convergence threshold =      1.0E-06
     mixing beta               =       0.7000
     number of iterations used =            8  plain     mixing
     Exchange-correlation= PBE
                           (   1   4   3   4   0   0   0)

     celldm(1)=  13.519481  celldm(2)=   0.000000  celldm(3)=   0.000000
     celldm(4)=   0.000000  celldm(5)=   0.000000  celldm(6)=   0.000000

     crystal axes: (cart. coord. in units of alat)
               a(1) = (   1.000000   0.000000   0.000000 )
               a(2) = (   0.016389   0.999866   0.000000 )
               a(3) = (   0.353166   0.347425   1.339467 )

     reciprocal axes: (cart. coord. in units 2 pi/alat)
               b(1) = (  1.000000 -0.016391 -0.259410 )
               b(2) = (  0.000000  1.000134 -0.259410 )
               b(3) = (  0.000000  0.000000  0.746565 )

     PseudoPot. # 1 for Cs read from file:
     /home/pragov/projects/rrg-bengioy-ad/pragov/crystal_structure_design/SSSP/Cs_pbe_v1.uspp.F.UPF
     MD5 check sum: 3476d69cb178dfad3ffaa59df4e07ca4
     Pseudo is Ultrasoft + core correction, Zval =  9.0
     Generated by new atomic code, or converted to UPF format
     Using radial grid of  905 points,  6 beta functions with:
                l(1) =   0
                l(2) =   0
                l(3) =   1
                l(4) =   1
                l(5) =   2
                l(6) =   2
     Q(r) pseudized with  6 coefficients,  rinner =    1.500   1.500   1.500
                                                       1.500   1.500

     PseudoPot. # 2 for B  read from file:
     /home/pragov/projects/rrg-bengioy-ad/pragov/crystal_structure_design/SSSP/b_pbe_v1.4.uspp.F.UPF
     MD5 check sum: cc6de2960df11db49a60e589f9ebb39b
     Pseudo is Ultrasoft + core correction, Zval =  3.0
     Generated by new atomic code, or converted to UPF format
     Using radial grid of  781 points,  4 beta functions with:
                l(1) =   0
                l(2) =   0
                l(3) =   1
                l(4) =   1
     Q(r) pseudized with  8 coefficients,  rinner =    1.100   1.100   1.100

     PseudoPot. # 3 for As read from file:
     /home/pragov/projects/rrg-bengioy-ad/pragov/crystal_structure_design/SSSP/As.pbe-n-rrkjus_psl.0.2.UPF
     MD5 check sum: 767315de957beeeb34f87d97bf945c8f
     Pseudo is Ultrasoft + core correction, Zval =  5.0
     Generated using "atomic" code by A. Dal Corso  v.5.0.99 svn rev. 10869
     Using radial grid of 1209 points,  4 beta functions with:
                l(1) =   0
                l(2) =   0
                l(3) =   1
                l(4) =   1
     Q(r) pseudized with 0 coefficients

     atomic species   valence    mass     pseudopotential
        Cs             9.00   132.90545     Cs( 1.00)
        B              3.00    10.81000     B ( 1.00)
        As             5.00    74.92159     As( 1.00)

      2 Sym. Ops., with inversion, found

                                    s                        frac. trans.

      isym =  1     identity

 cryst.   s( 1) = (     1          0          0      )
                  (     0          1          0      )
                  (     0          0          1      )

 cart.    s( 1) = (  1.0000000 -0.0000000 -0.0000000 )
                  (  0.0000000  1.0000000 -0.0000000 )
                  (  0.0000000  0.0000000  1.0000000 )

      isym =  2     inversion

 cryst.   s( 2) = (    -1          0          0      )
                  (     0         -1          0      )
                  (     0          0         -1      )

 cart.    s( 2) = ( -1.0000000  0.0000000  0.0000000 )
                  (  0.0000000 -1.0000000  0.0000000 )
                  (  0.0000000  0.0000000 -1.0000000 )

   Cartesian axes

     site n.     atom                  positions (alat units)
         1           Cs  tau(   1) = (   1.1023313   1.1886901   1.3131750  )
         2           Cs  tau(   2) = (   0.7490694   0.4316838   0.3348669  )
         3           Cs  tau(   3) = (   0.2672231   0.1586002   0.0262924  )
         4           Cs  tau(   4) = (   0.6204850   0.9156065   1.0046006  )
         5           Cs  tau(   5) = (   1.0300132   0.9089900   0.6434413  )
         6           Cs  tau(   6) = (   0.3395412   0.4383003   0.6960261  )
         7           B   tau(   7) = (   0.3864099   0.8003363   0.3348669  )
         8           B   tau(   8) = (   0.9831445   0.5469540   1.0046006  )
         9           As  tau(   9) = (   0.8257552   0.3869558   0.8646611  )
        10           As  tau(  10) = (   0.2238538   0.6455904   0.1949273  )
        11           As  tau(  11) = (   1.1457006   0.7016999   1.1445401  )
        12           As  tau(  12) = (   0.5437992   0.9603345   0.4748064  )

   Crystallographic axes

     site n.     atom                  positions (cryst. coord.)
         1           Cs  tau(   1) = (  0.7421970  0.8481990  0.9803710  )
         2           Cs  tau(   2) = (  0.6551260  0.3448740  0.2500000  )
         3           Cs  tau(   3) = (  0.2578030  0.1518010  0.0196290  )
         4           Cs  tau(   4) = (  0.3448740  0.6551260  0.7500000  )
         5           Cs  tau(   5) = (  0.8481990  0.7421970  0.4803710  )
         6           Cs  tau(   6) = (  0.1518010  0.2578030  0.5196290  )
         7           B   tau(   7) = (  0.2864240  0.7135760  0.2500000  )
         8           B   tau(   8) = (  0.7135760  0.2864240  0.7500000  )
         9           As  tau(   9) = (  0.5951110  0.1627060  0.6455260  )
        10           As  tau(  10) = (  0.1627060  0.5951110  0.1455260  )
        11           As  tau(  11) = (  0.8372940  0.4048890  0.8544740  )
        12           As  tau(  12) = (  0.4048890  0.8372940  0.3544740  )

     number of k points=    14
                       cart. coord. in units 2pi/alat
        k(    1) = (   0.0000000   0.0000000   0.0000000), wk =   0.0740741
        k(    2) = (   0.0000000   0.0000000   0.2488551), wk =   0.1481481
        k(    3) = (   0.0000000   0.3333781  -0.0864700), wk =   0.1481481
        k(    4) = (   0.0000000   0.3333781   0.1623851), wk =   0.1481481
        k(    5) = (   0.0000000   0.3333781  -0.3353251), wk =   0.1481481
        k(    6) = (   0.3333333  -0.0054636  -0.0864700), wk =   0.1481481
        k(    7) = (   0.3333333  -0.0054636   0.1623851), wk =   0.1481481
        k(    8) = (   0.3333333  -0.0054636  -0.3353251), wk =   0.1481481
        k(    9) = (   0.3333333   0.3279145  -0.1729400), wk =   0.1481481
        k(   10) = (   0.3333333   0.3279145   0.0759151), wk =   0.1481481
        k(   11) = (   0.3333333   0.3279145  -0.4217951), wk =   0.1481481
        k(   12) = (   0.3333333  -0.3388417  -0.0000000), wk =   0.1481481
        k(   13) = (   0.3333333  -0.3388417   0.2488551), wk =   0.1481481
        k(   14) = (   0.3333333  -0.3388417  -0.2488551), wk =   0.1481481

                       cryst. coord.
        k(    1) = (   0.0000000   0.0000000   0.0000000), wk =   0.0740741
        k(    2) = (   0.0000000   0.0000000   0.3333333), wk =   0.1481481
        k(    3) = (   0.0000000   0.3333333   0.0000000), wk =   0.1481481
        k(    4) = (   0.0000000   0.3333333   0.3333333), wk =   0.1481481
        k(    5) = (   0.0000000   0.3333333  -0.3333333), wk =   0.1481481
        k(    6) = (   0.3333333  -0.0000000  -0.0000000), wk =   0.1481481
        k(    7) = (   0.3333333  -0.0000000   0.3333333), wk =   0.1481481
        k(    8) = (   0.3333333  -0.0000000  -0.3333333), wk =   0.1481481
        k(    9) = (   0.3333333   0.3333333  -0.0000000), wk =   0.1481481
        k(   10) = (   0.3333333   0.3333333   0.3333333), wk =   0.1481481
        k(   11) = (   0.3333333   0.3333333  -0.3333333), wk =   0.1481481
        k(   12) = (   0.3333333  -0.3333333  -0.0000000), wk =   0.1481481
        k(   13) = (   0.3333333  -0.3333333   0.3333333), wk =   0.1481481
        k(   14) = (   0.3333333  -0.3333333  -0.3333333), wk =   0.1481481

     Initial potential from superposition of free atoms

     starting charge      79.7622, renormalised to      80.0000
     Starting wfcs are  102 randomized atomic wfcs

     Self-consistent Calculation

     iteration #  1     ecut=    30.00 Ry     beta= 0.70
     Davidson diagonalization with overlap

     ethr =  1.00E-02,  avg # of iterations =  3.3

     total energy              =    -463.68328953 Ry
     estimated scf accuracy    <       1.29832701 Ry

[...]

     total energy              =    -464.29899150 Ry
     estimated scf accuracy    <       0.00000108 Ry

     iteration #  9     ecut=    30.00 Ry     beta= 0.70
     Davidson diagonalization with overlap

     ethr =  1.35E-09,  avg # of iterations =  2.0

     End of self-consistent calculation

          k = 0.0000 0.0000 0.0000 (  9173 PWs)   bands (ev):

   -17.9179 -17.8990 -17.7631 -17.7472 -17.7109 -17.7040  -6.1664  -6.0113
    -5.5202  -5.2103  -5.0228  -5.0104  -4.9220  -4.8670  -4.8515  -4.8420
    -4.6261  -4.6244  -4.5672  -4.5564  -4.5497  -4.4958  -4.4369  -4.4114
    -4.4046  -4.3586  -4.3251  -4.2567   0.1723   0.3130   2.2171   2.5762
     2.7567   2.8019   2.8169   2.8577   3.8569   3.8654   4.0026   4.1740
     5.7740   6.8814   6.9306   6.9363   7.2632   7.3132   7.3940   7.5966
     7.6115   7.9333   8.0789   8.2214   8.4837   8.4962   8.5984   8.6500
     9.0526   9.2589   9.4562   9.5602   9.6369   9.9469  10.1217  10.1876

     occupation numbers
     1.0000   1.0000   1.0000   1.0000   1.0000   1.0000   1.0000   1.0000
     1.0000   1.0000   1.0000   1.0000   1.0000   1.0000   1.0000   1.0000
     1.0000   1.0000   1.0000   1.0000   1.0000   1.0000   1.0000   1.0000
     1.0000   1.0000   1.0000   1.0000   1.0000   1.0000   1.0000   1.0000
     1.0000   1.0000   1.0000   1.0000   1.0000   1.0000   1.0000   1.0000
     0.0000   0.0000   0.0000   0.0000   0.0000   0.0000   0.0000   0.0000
     0.0000   0.0000   0.0000   0.0000   0.0000   0.0000   0.0000   0.0000
     0.0000   0.0000   0.0000   0.0000   0.0000   0.0000   0.0000   0.0000

[...]

          k = 0.3333-0.3388-0.2489 (  9171 PWs)   bands (ev):

   -17.9059 -17.9028 -17.7547 -17.7513 -17.7157 -17.7117  -6.2023  -6.1910
    -5.4673  -5.4345  -5.0044  -4.9715  -4.9567  -4.8609  -4.7588  -4.7044
    -4.6847  -4.5995  -4.5487  -4.5268  -4.4929  -4.4767  -4.4310  -4.3969
    -4.3563  -4.3258  -4.2398  -4.2191   0.1565   0.2788   2.2734   2.4226
     2.5432   2.6755   2.8256   2.8725   3.9552   4.0459   4.1605   4.2064
     6.3562   6.4901   6.5514   6.6919   7.2323   7.3409   7.4332   7.6236
     7.7443   7.9190   7.9505   7.9998   8.0855   8.2591   8.6095   8.6778
     8.9199   8.9302   9.0555   9.1595   9.2433   9.5619   9.6145   9.9546

     occupation numbers
     1.0000   1.0000   1.0000   1.0000   1.0000   1.0000   1.0000   1.0000
     1.0000   1.0000   1.0000   1.0000   1.0000   1.0000   1.0000   1.0000
     1.0000   1.0000   1.0000   1.0000   1.0000   1.0000   1.0000   1.0000
     1.0000   1.0000   1.0000   1.0000   1.0000   1.0000   1.0000   1.0000
     1.0000   1.0000   1.0000   1.0000   1.0000   1.0000   1.0000   1.0000
     0.0000   0.0000   0.0000   0.0000   0.0000   0.0000   0.0000   0.0000
     0.0000   0.0000   0.0000   0.0000   0.0000   0.0000   0.0000   0.0000
     0.0000   0.0000   0.0000   0.0000   0.0000   0.0000   0.0000   0.0000

     highest occupied, lowest unoccupied level (ev):     4.2835    5.7740

!    total energy              =    -464.29899141 Ry
     estimated scf accuracy    <       0.00000062 Ry

     The total energy is the sum of the following terms:
     one-electron contribution =     -42.10374972 Ry
     hartree contribution      =      48.22215153 Ry
     xc contribution           =    -224.04200126 Ry
     ewald contribution        =    -246.37539196 Ry

     convergence has been achieved in   9 iterations

     Writing all to output data dir calculations_bands/myprefix.save/

     General routines

     Parallel routines

   This run was terminated on:  19:31:55   6Jun2023

   JOB DONE.