     Program PWSCF v.7.1 starts on 13Jul2023 at  3: 4:59

     Reading input from espresso_12751.pwi
Warning: card &CELL ignored
Warning: card / ignored

     Current dimensions of program PWSCF are:
     Max number of different atomic species (ntypx) = 10
     Max number of k-points (npk) =  40000
     Max angular momentum in pseudopotentials (lmaxx) =  4
     Message from routine setup:
     using ibrav=0 with symmetry is DISCOURAGED, use correct ibrav instead

     K-points division:     npool     =       2
     R & G space division:  proc/nbgrp/npool/nimage =       8
     Subspace diagonalization in iterative solution of the eigenvalue problem:
     a serial algorithm will be used

     Using Slab Decomposition

     bravais-lattice index     =            0
     lattice parameter (alat)  =       6.7933  a.u.
     unit-cell volume          =     895.2535 (a.u.)^3
     number of atoms/cell      =           10
     number of atomic types    =            3
     number of electrons       =        80.00
     number of Kohn-Sham states=           64
     kinetic-energy cutoff     =      30.0000  Ry
     charge density cutoff     =     240.0000  Ry
     scf convergence threshold =      1.0E-06
     mixing beta               =       0.7000
     number of iterations used =            8  plain     mixing
     Exchange-correlation= PBE
                           (   1   4   3   4   0   0   0)

     celldm(1)=   6.793282  celldm(2)=   0.000000  celldm(3)=   0.000000
     celldm(4)=   0.000000  celldm(5)=   0.000000  celldm(6)=   0.000000

     crystal axes: (cart. coord. in units of alat)
               a(1) = (   1.000000   0.000000   0.000000 )
               a(2) = (   0.000000   1.673096   0.000000 )
               a(3) = (   0.000000   0.000000   1.706814 )

     reciprocal axes: (cart. coord. in units 2 pi/alat)
               b(1) = (  1.000000  0.000000  0.000000 )
               b(2) = (  0.000000  0.597694  0.000000 )
               b(3) = (  0.000000  0.000000  0.585887 )

     PseudoPot. # 1 for Y  read from file:
     /lustre07/scratch/pragov/crystal_structure_design/utils/SSSP/Y_pbe_v1.uspp.F.UPF
     MD5 check sum: 2cf71db95cafeb975fc457bd7f14888e
     Pseudo is Ultrasoft + core correction, Zval = 11.0
     Generated by new atomic code, or converted to UPF format
     Using radial grid of  885 points,  6 beta functions with:
                l(1) =   0
                l(2) =   0
                l(3) =   1
                l(4) =   1
                l(5) =   2
                l(6) =   2
     Q(r) pseudized with  6 coefficients,  rinner =    1.200   1.200   1.200
                                                       1.200   1.200

     PseudoPot. # 2 for W  read from file:
     /lustre07/scratch/pragov/crystal_structure_design/utils/SSSP/W_pbe_v1.2.uspp.F.UPF
     MD5 check sum: 9c083fa34c2a2ea0f02f1f893e16e1c8
     Pseudo is Ultrasoft + core correction, Zval = 14.0
     Generated by new atomic code, or converted to UPF format
     Using radial grid of  923 points,  8 beta functions with:
                l(1) =   0
                l(2) =   0
                l(3) =   0
                l(4) =   1
                l(5) =   1
                l(6) =   2
                l(7) =   2
                l(8) =   3
     Q(r) pseudized with  6 coefficients,  rinner =    1.350   1.350   1.350
                                                       1.350   1.350   1.350
                                                       1.350

     PseudoPot. # 3 for N  read from file:
     /lustre07/scratch/pragov/crystal_structure_design/utils/SSSP/N.pbe-n-radius_5.UPF
     MD5 check sum: 16739722b17309cd8fe442a2ace49922
     Pseudo is Ultrasoft + core correction, Zval =  5.0
     Generated using "atomic" code by A. Dal Corso  v.5.1
     Using radial grid of 1085 points,  4 beta functions with:
                l(1) =   0
                l(2) =   0
                l(3) =   1
                l(4) =   1
     Q(r) pseudized with 0 coefficients

     atomic species   valence    mass     pseudopotential
        Y             11.00    88.90584     Y ( 1.00)
        W             14.00   183.84000     W ( 1.00)
        N              5.00    14.00700     N ( 1.00)

      4 Sym. Ops. (no inversion) found ( 2 have fractional translation)

                                    s                        frac. trans.

      isym =  1     identity

 cryst.   s( 1) = (     1          0          0      )
                  (     0          1          0      )
                  (     0          0          1      )

 cart.    s( 1) = (  1.0000000  0.0000000  0.0000000 )
                  (  0.0000000  1.0000000  0.0000000 )
                  (  0.0000000  0.0000000  1.0000000 )

      isym =  2     180 deg rotation - cart. axis [0,0,1]

 cryst.   s( 2) = (    -1          0          0      )    f =(  0.0000000 )
                  (     0         -1          0      )       ( -0.0000000 )
                  (     0          0          1      )       ( -0.5000000 )

 cart.    s( 2) = ( -1.0000000  0.0000000  0.0000000 )    f =(  0.0000000 )
                  (  0.0000000 -1.0000000  0.0000000 )       ( -0.0000000 )
                  (  0.0000000  0.0000000  1.0000000 )       ( -0.8534070 )

      isym =  3     inv. 180 deg rotation - cart. axis [0,1,0]

 cryst.   s( 3) = (     1          0          0      )    f =(  0.0000000 )
                  (     0         -1          0      )       ( -0.0000000 )
                  (     0          0          1      )       ( -0.5000000 )

 cart.    s( 3) = (  1.0000000  0.0000000  0.0000000 )    f =(  0.0000000 )
                  (  0.0000000 -1.0000000  0.0000000 )       ( -0.0000000 )
                  (  0.0000000  0.0000000  1.0000000 )       ( -0.8534070 )

      isym =  4     inv. 180 deg rotation - cart. axis [1,0,0]

 cryst.   s( 4) = (    -1          0          0      )
                  (     0          1          0      )
                  (     0          0          1      )

 cart.    s( 4) = ( -1.0000000  0.0000000  0.0000000 )
                  (  0.0000000  1.0000000  0.0000000 )
                  (  0.0000000  0.0000000  1.0000000 )

   Cartesian axes

     site n.     atom                  positions (alat units)
         1           Y   tau(   1) = (   0.0000000   0.2556324   0.4924670  )
         2           Y   tau(   2) = (   0.0000000   1.4174639   1.3458740  )
         3           W   tau(   3) = (   0.5000000   1.1558418   0.5437226  )
         4           W   tau(   4) = (   0.5000000   0.5172544   1.3971296  )
         5           N   tau(   5) = (   0.5000000   0.1785194   0.9994761  )
         6           N   tau(   6) = (   0.5000000   0.9790290   1.1862869  )
         7           N   tau(   7) = (   0.0000000   1.2917139   0.7114512  )
         8           N   tau(   8) = (   0.5000000   1.4945769   0.1460691  )
         9           N   tau(   9) = (   0.0000000   0.3813823   1.5648582  )
        10           N   tau(  10) = (   0.5000000   0.6940672   0.3328799  )

   Crystallographic axes

     site n.     atom                  positions (cryst. coord.)
         1           Y   tau(   1) = (  0.0000000  0.1527900  0.2885300  )
         2           Y   tau(   2) = (  0.0000000  0.8472100  0.7885300  )
         3           W   tau(   3) = (  0.5000000  0.6908400  0.3185600  )
         4           W   tau(   4) = (  0.5000000  0.3091600  0.8185600  )
         5           N   tau(   5) = (  0.5000000  0.1067000  0.5855800  )
         6           N   tau(   6) = (  0.5000000  0.5851600  0.6950300  )
         7           N   tau(   7) = (  0.0000000  0.7720500  0.4168300  )
         8           N   tau(   8) = (  0.5000000  0.8933000  0.0855800  )
         9           N   tau(   9) = (  0.0000000  0.2279500  0.9168300  )
        10           N   tau(  10) = (  0.5000000  0.4148400  0.1950300  )

     number of k points=     8
                       cart. coord. in units 2pi/alat
        k(    1) = (   0.0000000   0.0000000   0.0000000), wk =   0.0740741
        k(    2) = (   0.0000000   0.0000000   0.1952957), wk =   0.1481481
        k(    3) = (   0.0000000   0.1992314   0.0000000), wk =   0.1481481
        k(    4) = (   0.0000000   0.1992314   0.1952957), wk =   0.2962963
        k(    5) = (   0.3333333   0.0000000   0.0000000), wk =   0.1481481
        k(    6) = (   0.3333333   0.0000000   0.1952957), wk =   0.2962963
        k(    7) = (   0.3333333   0.1992314   0.0000000), wk =   0.2962963
        k(    8) = (   0.3333333   0.1992314   0.1952957), wk =   0.5925926

                       cryst. coord.
        k(    1) = (   0.0000000   0.0000000   0.0000000), wk =   0.0740741
        k(    2) = (   0.0000000   0.0000000   0.3333333), wk =   0.1481481
        k(    3) = (   0.0000000   0.3333333   0.0000000), wk =   0.1481481
        k(    4) = (   0.0000000   0.3333333   0.3333333), wk =   0.2962963
        k(    5) = (   0.3333333   0.0000000   0.0000000), wk =   0.1481481
        k(    6) = (   0.3333333   0.0000000   0.3333333), wk =   0.2962963
        k(    7) = (   0.3333333   0.3333333   0.0000000), wk =   0.2962963
        k(    8) = (   0.3333333   0.3333333   0.3333333), wk =   0.5925926

     Check: negative core charge=   -0.000005

     Initial potential from superposition of free atoms

     starting charge      79.7903, renormalised to      80.0000

     negative rho (up, down):  2.104E-01 0.000E+00
     Starting wfcs are   76 randomized atomic wfcs

     Self-consistent Calculation

     iteration #  1     ecut=    30.00 Ry     beta= 0.70
     Davidson diagonalization with overlap

     ethr =  1.00E-02,  avg # of iterations =  3.1

     negative rho (up, down):  2.053E-01 0.000E+00

     total energy              =    -612.44161116 Ry
     estimated scf accuracy    <       4.79204384 Ry

[...]

     total energy              =    -615.03009411 Ry
     estimated scf accuracy    <       0.00000183 Ry

     iteration # 11     ecut=    30.00 Ry     beta= 0.70
     Davidson diagonalization with overlap

     ethr =  2.29E-09,  avg # of iterations =  2.0

     negative rho (up, down):  2.083E-01 0.000E+00

     End of self-consistent calculation

          k = 0.0000 0.0000 0.0000 (  2493 PWs)   bands (ev):

   -62.2828 -62.2823 -29.3440 -29.3168 -26.6759 -26.6742 -26.5690 -26.5571
   -26.5425 -26.5404  -9.6334  -9.5320  -9.4669  -9.2857  -9.2192  -9.1751
    -2.7977  -1.8875  -1.0507  -1.0173  -0.5417  -0.3969   6.9075   7.0443
     7.1336   7.2962   7.5493   7.6667   8.6957   9.1890   9.1905   9.4192
     9.7267   9.7327  10.1874  10.4875  10.9591  11.1217  11.1827  11.3710
    13.7649  14.4388  14.6880  14.8727  15.6268  16.1797  16.3889  16.7063
    16.7430  17.2038  17.2582  17.4677  18.0219  18.5502  18.7295  18.8205
    19.4360  19.5391  19.8311  19.8893  20.4471  20.6263  22.7123  23.0333

     occupation numbers
     1.0000   1.0000   1.0000   1.0000   1.0000   1.0000   1.0000   1.0000
     1.0000   1.0000   1.0000   1.0000   1.0000   1.0000   1.0000   1.0000
     1.0000   1.0000   1.0000   1.0000   1.0000   1.0000   1.0000   1.0000
     1.0000   1.0000   1.0000   1.0000   1.0000   1.0000   1.0000   1.0000
     1.0000   1.0000   1.0000   1.0000   1.0000   1.0000   1.0000   1.0000
     0.0000   0.0000   0.0000   0.0000   0.0000   0.0000   0.0000   0.0000
     0.0000   0.0000   0.0000   0.0000   0.0000   0.0000   0.0000   0.0000
     0.0000   0.0000   0.0000   0.0000   0.0000   0.0000   0.0000   0.0000

[...]

          k = 0.3333 0.1992 0.1953 (  2501 PWs)   bands (ev):

   -62.2813 -62.2811 -29.3194 -29.3061 -26.6709 -26.6703 -26.6120 -26.6107
   -26.5611 -26.5554  -9.5706  -9.5301  -9.5222  -9.4855  -9.3474  -9.2661
    -1.5510  -1.3317  -0.9962  -0.9239  -0.6256  -0.5513   6.5785   6.6981
     6.9859   7.1074   7.7116   7.8274   8.0256   8.4063   9.0646   9.2427
     9.5629   9.8177  10.1521  10.3835  11.0288  11.1707  11.4750  11.6878
    14.2420  14.6252  14.9840  15.1646  15.2606  15.4449  16.1887  16.4080
    16.8630  17.0237  17.5696  17.8921  18.4706  18.7292  18.9484  19.0066
    19.3284  19.5974  19.9254  20.1063  20.9209  21.3090  22.8397  23.4044

     occupation numbers
     1.0000   1.0000   1.0000   1.0000   1.0000   1.0000   1.0000   1.0000
     1.0000   1.0000   1.0000   1.0000   1.0000   1.0000   1.0000   1.0000
     1.0000   1.0000   1.0000   1.0000   1.0000   1.0000   1.0000   1.0000
     1.0000   1.0000   1.0000   1.0000   1.0000   1.0000   1.0000   1.0000
     1.0000   1.0000   1.0000   1.0000   1.0000   1.0000   1.0000   1.0000
     0.0000   0.0000   0.0000   0.0000   0.0000   0.0000   0.0000   0.0000
     0.0000   0.0000   0.0000   0.0000   0.0000   0.0000   0.0000   0.0000
     0.0000   0.0000   0.0000   0.0000   0.0000   0.0000   0.0000   0.0000

     highest occupied, lowest unoccupied level (ev):    12.0116   13.7649

!    total energy              =    -615.03009432 Ry
     estimated scf accuracy    <       0.00000005 Ry

     The total energy is the sum of the following terms:
     one-electron contribution =    -123.64310651 Ry
     hartree contribution      =     101.14883758 Ry
     xc contribution           =    -159.03064533 Ry
     ewald contribution        =    -433.50518007 Ry

     convergence has been achieved in  11 iterations

     Writing all to output data dir bands_nm/myprefix.save/

     General routines

     Parallel routines

   This run was terminated on:   3: 5: 7  13Jul2023

   JOB DONE.