     Program PWSCF v.7.1 starts on 14Jul2023 at 19:12:28

     Reading input from espresso_21694.pwi
Warning: card &CELL ignored
Warning: card / ignored

     Current dimensions of program PWSCF are:
     Max number of different atomic species (ntypx) = 10
     Max number of k-points (npk) =  40000
     Max angular momentum in pseudopotentials (lmaxx) =  4
     file Dy.paw.z_20.atompaw.wentzcovitch.v1.2.upf: wavefunction(s)  6S 0P 5D 0D 4F 0F renormalized
     Message from routine setup:
     using ibrav=0 with symmetry is DISCOURAGED, use correct ibrav instead

     K-points division:     npool     =       2
     R & G space division:  proc/nbgrp/npool/nimage =       4
     Subspace diagonalization in iterative solution of the eigenvalue problem:
     a serial algorithm will be used

     Using Slab Decomposition

     bravais-lattice index     =            0
     lattice parameter (alat)  =      14.0313  a.u.
     unit-cell volume          =    1358.1807 (a.u.)^3
     number of atoms/cell      =            8
     number of atomic types    =            3
     number of electrons       =       102.00
     number of Kohn-Sham states=           64
     kinetic-energy cutoff     =      30.0000  Ry
     charge density cutoff     =     240.0000  Ry
     scf convergence threshold =      1.0E-06
     mixing beta               =       0.7000
     number of iterations used =            8  plain     mixing
     Exchange-correlation= SLA  PW   PBE  PBE
                           (   1   4   3   4   0   0   0)

     celldm(1)=  14.031300  celldm(2)=   0.000000  celldm(3)=   0.000000
     celldm(4)=   0.000000  celldm(5)=   0.000000  celldm(6)=   0.000000

     crystal axes: (cart. coord. in units of alat)
               a(1) = (   1.000000   0.000000   0.000000 )
               a(2) = (   0.415603   0.909546   0.000000 )
               a(3) = (  -0.707801  -0.454773   0.540554 )

     reciprocal axes: (cart. coord. in units 2 pi/alat)
               b(1) = (  1.000000 -0.456934  0.924977 )
               b(2) = (  0.000000  1.099449  0.924977 )
               b(3) = (  0.000000  0.000000  1.849954 )

     PseudoPot. # 1 for Dy read from file:
     /lustre07/scratch/pragov/crystal_structure_design/utils/SSSP/Dy.paw.z_20.atompaw.wentzcovitch.v1.2.upf
     MD5 check sum: fad4f994dc38884d1fc17fd7bf5e13bf
     Pseudo is Projector augmented-wave + core cor, Zval = 20.0
     Generated using ATOMPAW code
     Shape of augmentation charge: BESSEL
     Using radial grid of 1112 points,  8 beta functions with:
                l(1) =   0
                l(2) =   0
                l(3) =   1
                l(4) =   1
                l(5) =   2
                l(6) =   2
                l(7) =   3
                l(8) =   3
     Q(r) pseudized with 0 coefficients

     PseudoPot. # 2 for Ag read from file:
     /lustre07/scratch/pragov/crystal_structure_design/utils/SSSP/Ag_ONCV_PBE-1.0.oncvpsp.upf
     MD5 check sum: 94f47bd0669c641108e45594df92fabc
     Pseudo is Norm-conserving, Zval = 19.0
     Generated using ONCVPSP code by D. R. Hamann
     Using radial grid of 1398 points,  6 beta functions with:
                l(1) =   0
                l(2) =   0
                l(3) =   1
                l(4) =   1
                l(5) =   2
                l(6) =   2

     PseudoPot. # 3 for Se read from file:
     /lustre07/scratch/pragov/crystal_structure_design/utils/SSSP/Se_pbe_v1.uspp.F.UPF
     MD5 check sum: 1b3568f3a8ae88f9a2a0ad0698632c85
     Pseudo is Ultrasoft + core correction, Zval =  6.0
     Generated by new atomic code, or converted to UPF format
     Using radial grid of  877 points,  6 beta functions with:
                l(1) =   0
                l(2) =   0
                l(3) =   1
                l(4) =   1
                l(5) =   2
                l(6) =   2
     Q(r) pseudized with  8 coefficients,  rinner =    1.300   1.300   1.300
                                                       1.300   1.300

     atomic species   valence    mass     pseudopotential
        Dy            20.00   162.50000     Dy( 1.00)
        Ag            19.00   107.86820     Ag( 1.00)
        Se             6.00    78.97100     Se( 1.00)

      2 Sym. Ops. (no inversion) found ( 1 have fractional translation)

                                    s                        frac. trans.

      isym =  1     identity

 cryst.   s( 1) = (     1          0          0      )
                  (     0          1          0      )
                  (     0          0          1      )

 cart.    s( 1) = (  1.0000000 -0.0000000  0.0000000 )
                  (  0.0000000  1.0000000  0.0000000 )
                  (  0.0000000  0.0000000  1.0000000 )

      isym =  2     inv. 180 deg rotation - cart. axis [0,0,1]

 cryst.   s( 2) = (     1          0          0      )    f =(  0.2500000 )
                  (     0          1          0      )       ( -0.2500000 )
                  (    -1         -1         -1      )       (  0.5000000 )

 cart.    s( 2) = (  1.0000000 -0.0000000  0.0000000 )    f =( -0.2078014 )
                  (  0.0000000  1.0000000  0.0000000 )       ( -0.4547731 )
                  (  0.0000000  0.0000000 -1.0000000 )       (  0.2702770 )

   Cartesian axes

     site n.     atom                  positions (alat units)
         1           Dy  tau(   1) = (   0.5010659   0.0006849   0.2702770  )
         2           Dy  tau(   2) = (   0.0010659   0.0006849   0.0000000  )
         3           Ag  tau(   3) = (   0.2645430   0.4912304   0.2702770  )
         4           Ag  tau(   4) = (   0.7645430   0.4912304   0.0000000  )
         5           Se  tau(   5) = (   0.8266956   0.2099069   0.2702770  )
         6           Se  tau(   6) = (   0.3266956   0.2099069   0.0000000  )
         7           Se  tau(   7) = (   0.1721195  -0.2106682   0.2702770  )
         8           Se  tau(   8) = (   1.0877223   0.6988780   0.0000000  )

   Crystallographic axes

     site n.     atom                  positions (cryst. coord.)
         1           Dy  tau(   1) = (  0.7507530  0.2507530  0.5000000  )
         2           Dy  tau(   2) = (  0.0007530  0.0007530  0.0000000  )
         3           Ag  tau(   3) = (  0.2900830  0.7900830  0.5000000  )
         4           Ag  tau(   4) = (  0.5400830  0.5400830  0.0000000  )
         5           Se  tau(   5) = (  0.9807820  0.4807820  0.5000000  )
         6           Se  tau(   6) = (  0.2307820  0.2307820  0.0000000  )
         7           Se  tau(   7) = (  0.5183810  0.0183810  0.5000000  )
         8           Se  tau(   8) = (  0.7683810  0.7683810  0.0000000  )

     number of k points=    10
                       cart. coord. in units 2pi/alat
        k(    1) = (   0.0000000   0.0000000   0.0000000), wk =   0.0740741
        k(    2) = (   0.0000000   0.0000000   0.6166513), wk =   0.1481481
        k(    3) = (   0.0000000   0.3664831   0.3083257), wk =   0.2962963
        k(    4) = (   0.0000000   0.3664831   0.9249770), wk =   0.1481481
        k(    5) = (   0.3333333  -0.1523114   0.3083257), wk =   0.2962963
        k(    6) = (   0.3333333  -0.1523114   0.9249770), wk =   0.1481481
        k(    7) = (   0.3333333   0.2141717   0.6166513), wk =   0.2962963
        k(    8) = (   0.3333333   0.2141717   0.0000000), wk =   0.1481481
        k(    9) = (   0.3333333  -0.5187945   0.0000000), wk =   0.1481481
        k(   10) = (   0.3333333  -0.5187945   0.6166513), wk =   0.2962963

                       cryst. coord.
        k(    1) = (   0.0000000   0.0000000   0.0000000), wk =   0.0740741
        k(    2) = (   0.0000000   0.0000000   0.3333333), wk =   0.1481481
        k(    3) = (   0.0000000   0.3333333   0.0000000), wk =   0.2962963
        k(    4) = (   0.0000000   0.3333333   0.3333333), wk =   0.1481481
        k(    5) = (   0.3333333   0.0000000   0.0000000), wk =   0.2962963
        k(    6) = (   0.3333333   0.0000000   0.3333333), wk =   0.1481481
        k(    7) = (   0.3333333   0.3333333   0.0000000), wk =   0.2962963
        k(    8) = (   0.3333333   0.3333333  -0.3333333), wk =   0.1481481
        k(    9) = (   0.3333333  -0.3333333  -0.0000000), wk =   0.1481481
        k(   10) = (   0.3333333  -0.3333333   0.3333333), wk =   0.2962963

     Initial potential from superposition of free atoms

     starting charge     101.9915, renormalised to     102.0000
     Starting wfcs are  100 randomized atomic wfcs
     Checking if some PAW data can be deallocated...

     Self-consistent Calculation

     iteration #  1     ecut=    30.00 Ry     beta= 0.70
     Davidson diagonalization with overlap

     ethr =  1.00E-02,  avg # of iterations =  2.0

     total energy              =   -2272.41724789 Ry
     estimated scf accuracy    <      25.73926513 Ry

[...]

     total energy              =   -2303.18705899 Ry
     estimated scf accuracy    <       0.00000190 Ry

     iteration #339     ecut=    30.00 Ry     beta= 0.70
     Davidson diagonalization with overlap

     ethr =  1.86E-09,  avg # of iterations =  1.0

     End of self-consistent calculation

          k = 0.0000 0.0000 0.0000 (  3773 PWs)   bands (ev):

   -83.1343 -83.1343 -46.2136 -46.2136 -46.1562 -46.1562 -46.1328 -46.1290
   -35.7148 -35.7100 -11.9669 -11.9630 -11.9626 -11.9278 -11.9235 -11.8530
    -3.7058  -3.2315  -2.8201  -2.7567   5.2544   5.3266   5.4067   5.4072
     5.5083   5.5088   5.5569   5.6841   5.6875   5.7995   5.9341   6.4655
     6.4657   6.7826   6.7831   6.7895   7.5403   7.5854   7.5907   8.1356
     8.1438   8.3706   9.1764   9.1864   9.2044   9.2168   9.2482   9.2545
     9.2598   9.3198   9.3398   9.3620   9.4166   9.7381   9.7515   9.7563
    10.1529  10.8100  11.5675  12.4853  12.4884  12.7828  13.3135  13.3169

     occupation numbers
     1.0000   1.0000   1.0000   1.0000   1.0000   1.0000   1.0000   1.0000
     1.0000   1.0000   1.0000   1.0000   1.0000   1.0000   1.0000   1.0000
     1.0000   1.0000   1.0000   1.0000   1.0000   1.0000   1.0000   1.0000
     1.0000   1.0000   1.0000   1.0000   1.0000   1.0000   1.0000   1.0000
     1.0000   1.0000   1.0000   1.0000   1.0000   1.0000   1.0000   1.0000
     1.0000   1.0000   1.0000   1.0000   1.0000   1.0000   1.0000   1.0000
     1.0000   1.0000   1.0000   0.0000   0.0000   0.0000   0.0000   0.0000
     0.0000   0.0000   0.0000   0.0000   0.0000   0.0000   0.0000   0.0000

[...]

          k = 0.3333-0.5188 0.6167 (  3760 PWs)   bands (ev):

   -83.1343 -83.1343 -46.2133 -46.2125 -46.1558 -46.1551 -46.1339 -46.1313
   -35.7130 -35.7118 -12.0009 -11.9708 -11.9655 -11.9201 -11.9037 -11.8745
    -3.3322  -3.1688  -2.8754  -2.7197   4.7279   5.0451   5.1091   5.1626
     5.3859   5.4734   5.5509   5.6125   5.7006   5.8323   5.8920   6.2019
     6.2464   6.6107   6.7020   7.2220   7.3821   7.4545   7.7808   7.8846
     7.9344   8.0745   9.1672   9.1732   9.1959   9.2009   9.2036   9.2441
     9.2819   9.3170   9.3319   9.3431   9.3495   9.3971   9.4560   9.5625
    11.7734  11.8664  12.2048  12.6953  13.0115  13.1780  13.7116  13.8867

     occupation numbers
     1.0000   1.0000   1.0000   1.0000   1.0000   1.0000   1.0000   1.0000
     1.0000   1.0000   1.0000   1.0000   1.0000   1.0000   1.0000   1.0000
     1.0000   1.0000   1.0000   1.0000   1.0000   1.0000   1.0000   1.0000
     1.0000   1.0000   1.0000   1.0000   1.0000   1.0000   1.0000   1.0000
     1.0000   1.0000   1.0000   1.0000   1.0000   1.0000   1.0000   1.0000
     1.0000   1.0000   1.0000   1.0000   1.0000   1.0000   1.0000   1.0000
     1.0000   1.0000   1.0000   0.0000   0.0000   0.0000   0.0000   0.0000
     0.0000   0.0000   0.0000   0.0000   0.0000   0.0000   0.0000   0.0000

     highest occupied, lowest unoccupied level (ev):     9.3468    9.3306

!    total energy              =   -2303.18705663 Ry
     estimated scf accuracy    <       0.00000088 Ry

     The total energy is the sum of the following terms:
     one-electron contribution =    -750.74874563 Ry
     hartree contribution      =     411.61544235 Ry
     xc contribution           =    -228.43391469 Ry
     ewald contribution        =    -776.27896213 Ry
     one-center paw contrib.   =    -959.34087654 Ry
      -> PAW hartree energy AE =     256.11068752 Ry
      -> PAW hartree energy PS =    -237.25630754 Ry
      -> PAW xc energy AE      =    -525.08350613 Ry
      -> PAW xc energy PS      =      26.55868788 Ry
      -> total E_H with PAW    =     430.46982233 Ry
      -> total E_XC with PAW   =    -726.95873294 Ry

     convergence has been achieved in 339 iterations

     Writing all to output data dir bands_nm/myprefix.save/

     General routines

     Parallel routines

     PAW routines

   This run was terminated on:  19:18: 4  14Jul2023

   JOB DONE.