     Program PWSCF v.7.1 starts on 15Jul2023 at 21: 7:38

     Reading input from espresso_10618.pwi
Warning: card &CELL ignored
Warning: card / ignored

     Current dimensions of program PWSCF are:
     Max number of different atomic species (ntypx) = 10
     Max number of k-points (npk) =  40000
     Max angular momentum in pseudopotentials (lmaxx) =  4
     file O.pbe-n-kjpaw_psl.0.1.UPF: wavefunction(s)  2P renormalized
     Message from routine setup:
     using ibrav=0 with symmetry is DISCOURAGED, use correct ibrav instead

     K-points division:     npool     =       2
     R & G space division:  proc/nbgrp/npool/nimage =       4
     Subspace diagonalization in iterative solution of the eigenvalue problem:
     one sub-group per band group will be used

     Using Slab Decomposition

     bravais-lattice index     =            0
     lattice parameter (alat)  =      19.3177  a.u.
     unit-cell volume          =    2127.2608 (a.u.)^3
     number of atoms/cell      =           16
     number of atomic types    =            3
     number of electrons       =       152.00
     number of Kohn-Sham states=          256
     kinetic-energy cutoff     =      30.0000  Ry
     charge density cutoff     =     240.0000  Ry
     scf convergence threshold =      1.0E-06
     mixing beta               =       0.7000
     number of iterations used =            8  plain     mixing
     Exchange-correlation= SLA  PW   PBX  PBC
                           (   1   4   3   4   0   0   0)

     celldm(1)=  19.317740  celldm(2)=   0.000000  celldm(3)=   0.000000
     celldm(4)=   0.000000  celldm(5)=   0.000000  celldm(6)=   0.000000

     crystal axes: (cart. coord. in units of alat)
               a(1) = (   1.000000   0.000000   0.000000 )
               a(2) = (   0.839148   0.543903   0.000000 )
               a(3) = (   0.156741   0.046354   0.542538 )

     reciprocal axes: (cart. coord. in units 2 pi/alat)
               b(1) = (  1.000000 -1.542827 -0.157086 )
               b(2) = (  0.000000  1.838564 -0.157086 )
               b(3) = (  0.000000  0.000000  1.843187 )

     PseudoPot. # 1 for Bi read from file:
     /lustre07/scratch/pragov/crystal_structure_design/utils/SSSP/Bi_pbe_v1.uspp.F.UPF
     MD5 check sum: cceb9f28ec65b6d7ff33140f5b0b1758
     Pseudo is Ultrasoft + core correction, Zval = 15.0
     Generated by new atomic code, or converted to UPF format
     Using radial grid of  899 points,  6 beta functions with:
                l(1) =   0
                l(2) =   0
                l(3) =   1
                l(4) =   1
                l(5) =   2
                l(6) =   2
     Q(r) pseudized with  6 coefficients,  rinner =    1.000   1.000   1.000
                                                       1.000   1.000

     PseudoPot. # 2 for Cl read from file:
     /lustre07/scratch/pragov/crystal_structure_design/utils/SSSP/cl_pbe_v1.4.uspp.F.UPF
     MD5 check sum: fc6f6913ecf08c9257cb748ef0700058
     Pseudo is Ultrasoft + core correction, Zval =  7.0
     Generated by new atomic code, or converted to UPF format
     Using radial grid of  909 points,  6 beta functions with:
                l(1) =   0
                l(2) =   0
                l(3) =   1
                l(4) =   1
                l(5) =   2
                l(6) =   2
     Q(r) pseudized with  8 coefficients,  rinner =    1.300   1.300   1.300
                                                       1.300   1.300

     PseudoPot. # 3 for O  read from file:
     /lustre07/scratch/pragov/crystal_structure_design/utils/SSSP/O.pbe-n-kjpaw_psl.0.1.UPF
     MD5 check sum: 0234752ac141de4415c5fc33072bef88
     Pseudo is Projector augmented-wave + core cor, Zval =  6.0
     Generated using "atomic" code by A. Dal Corso  v.5.0.99 svn rev. 10869
     Shape of augmentation charge: BESSEL
     Using radial grid of 1095 points,  4 beta functions with:
                l(1) =   0
                l(2) =   0
                l(3) =   1
                l(4) =   1
     Q(r) pseudized with 0 coefficients

     atomic species   valence    mass     pseudopotential
        Bi            15.00   208.98040     Bi( 1.00)
        Cl             7.00    35.45000     Cl( 1.00)
        O              6.00    15.99900     O ( 1.00)

      2 Sym. Ops., with inversion, found

                                    s                        frac. trans.

      isym =  1     identity

 cryst.   s( 1) = (     1          0          0      )
                  (     0          1          0      )
                  (     0          0          1      )

 cart.    s( 1) = (  1.0000000  0.0000000 -0.0000000 )
                  (  0.0000000  1.0000000  0.0000000 )
                  (  0.0000000  0.0000000  1.0000000 )

      isym =  2     inversion

 cryst.   s( 2) = (    -1          0          0      )
                  (     0         -1          0      )
                  (     0          0         -1      )

 cart.    s( 2) = ( -1.0000000  0.0000000  0.0000000 )
                  (  0.0000000 -1.0000000  0.0000000 )
                  (  0.0000000  0.0000000 -1.0000000 )

   Cartesian axes

     site n.     atom                  positions (alat units)
         1           Bi  tau(   1) = (   1.3214677   0.2153092   0.3045583  )
         2           Bi  tau(   2) = (   1.1476439   0.5148966   0.0332891  )
         3           Bi  tau(   3) = (   0.6744219   0.3749477   0.2379801  )
         4           Bi  tau(   4) = (   0.8482457   0.0753603   0.5092493  )
         5           Bi  tau(   5) = (   0.9916979   0.1721622   0.1356346  )
         6           Bi  tau(   6) = (   1.0041917   0.4180947   0.4069038  )
         7           Cl  tau(   7) = (   0.5783707   0.0231770   0.2712692  )
         8           Cl  tau(   8) = (   0.4195741   0.2719514   0.0000000  )
         9           O   tau(   9) = (   0.9639544   0.2458640   0.5387043  )
        10           O   tau(  10) = (   1.1316334   0.2954528   0.2751033  )
        11           O   tau(  11) = (   1.0319351   0.3443929   0.0038341  )
        12           O   tau(  12) = (   0.8642561   0.2948041   0.2674351  )
        13           O   tau(  13) = (   1.7615886   0.5453423   0.3268571  )
        14           O   tau(  14) = (   0.2343009   0.0449146   0.2156813  )
        15           O   tau(  15) = (   0.2994131   0.1129240   0.4869505  )
        16           O   tau(  16) = (   1.6964765   0.4773330   0.0555879  )

   Crystallographic axes

     site n.     atom                  positions (cryst. coord.)
         1           Bi  tau(   1) = (  0.9414410  0.3480180  0.5613580  )
         2           Bi  tau(   2) = (  0.3480180  0.9414410  0.0613580  )
         3           Bi  tau(   3) = (  0.0585590  0.6519820  0.4386420  )
         4           Bi  tau(   4) = (  0.6519820  0.0585590  0.9386420  )
         5           Bi  tau(   5) = (  0.7047750  0.2952250  0.2500000  )
         6           Bi  tau(   6) = (  0.2952250  0.7047750  0.7500000  )
         7           Cl  tau(   7) = (  0.5000000  0.0000000  0.5000000  )
         8           Cl  tau(   8) = ( -0.0000000  0.5000000  0.0000000  )
         9           O   tau(   9) = (  0.5000060  0.3674140  0.9929330  )
        10           O   tau(  10) = (  0.6325860  0.4999940  0.5070670  )
        11           O   tau(  11) = (  0.4999940  0.6325860  0.0070670  )
        12           O   tau(  12) = (  0.3674140  0.5000060  0.4929330  )
        13           O   tau(  13) = (  0.8688750  0.9513020  0.6024590  )
        14           O   tau(  14) = (  0.1311250  0.0486980  0.3975410  )
        15           O   tau(  15) = (  0.0486980  0.1311250  0.8975410  )
        16           O   tau(  16) = (  0.9513020  0.8688750  0.1024590  )

     number of k points=    14
                       cart. coord. in units 2pi/alat
        k(    1) = (   0.0000000   0.0000000   0.0000000), wk =   0.0740741
        k(    2) = (   0.0000000   0.0000000   0.6143958), wk =   0.1481481
        k(    3) = (   0.0000000   0.6128546  -0.0523619), wk =   0.1481481
        k(    4) = (   0.0000000   0.6128546   0.5620340), wk =   0.1481481
        k(    5) = (   0.0000000   0.6128546  -0.6667577), wk =   0.1481481
        k(    6) = (   0.3333333  -0.5142758  -0.0523619), wk =   0.1481481
        k(    7) = (   0.3333333  -0.5142758   0.5620340), wk =   0.1481481
        k(    8) = (   0.3333333  -0.5142758  -0.6667577), wk =   0.1481481
        k(    9) = (   0.3333333   0.0985788  -0.1047237), wk =   0.1481481
        k(   10) = (   0.3333333   0.0985788   0.5096721), wk =   0.1481481
        k(   11) = (   0.3333333   0.0985788  -0.7191195), wk =   0.1481481
        k(   12) = (   0.3333333  -1.1271304   0.0000000), wk =   0.1481481
        k(   13) = (   0.3333333  -1.1271304   0.6143958), wk =   0.1481481
        k(   14) = (   0.3333333  -1.1271304  -0.6143958), wk =   0.1481481

                       cryst. coord.
        k(    1) = (   0.0000000   0.0000000   0.0000000), wk =   0.0740741
        k(    2) = (   0.0000000   0.0000000   0.3333333), wk =   0.1481481
        k(    3) = (   0.0000000   0.3333333  -0.0000000), wk =   0.1481481
        k(    4) = (   0.0000000   0.3333333   0.3333333), wk =   0.1481481
        k(    5) = (   0.0000000   0.3333333  -0.3333333), wk =   0.1481481
        k(    6) = (   0.3333333   0.0000000  -0.0000000), wk =   0.1481481
        k(    7) = (   0.3333333   0.0000000   0.3333333), wk =   0.1481481
        k(    8) = (   0.3333333   0.0000000  -0.3333333), wk =   0.1481481
        k(    9) = (   0.3333333   0.3333333  -0.0000000), wk =   0.1481481
        k(   10) = (   0.3333333   0.3333333   0.3333333), wk =   0.1481481
        k(   11) = (   0.3333333   0.3333333  -0.3333333), wk =   0.1481481
        k(   12) = (   0.3333333  -0.3333333  -0.0000000), wk =   0.1481481
        k(   13) = (   0.3333333  -0.3333333   0.3333333), wk =   0.1481481
        k(   14) = (   0.3333333  -0.3333333  -0.3333333), wk =   0.1481481

     Check: negative core charge=   -0.000009

     Initial potential from superposition of free atoms

     starting charge     145.9997, renormalised to     152.0000

     negative rho (up, down):  2.893E-01 0.000E+00
     Starting wfcs are   94 randomized atomic wfcs +  162 random wfcs
     Checking if some PAW data can be deallocated...

     Self-consistent Calculation

     iteration #  1     ecut=    30.00 Ry     beta= 0.70
     Davidson diagonalization with overlap

     ethr =  1.00E-02,  avg # of iterations =  7.0

     negative rho (up, down):  2.620E-01 0.000E+00

     total energy              =   -1509.73175853 Ry
     estimated scf accuracy    <       3.65860370 Ry

[...]

     c_bands:  2 eigenvalues not converged
     ethr =  1.14E-05,  avg # of iterations =  3.1

[...]

     total energy              =   -1511.33962115 Ry
     estimated scf accuracy    <       0.00000136 Ry

     iteration # 11     ecut=    30.00 Ry     beta= 0.70
     Davidson diagonalization with overlap

     ethr =  8.94E-10,  avg # of iterations =  1.0

     negative rho (up, down):  2.727E-01 0.000E+00

     End of self-consistent calculation

          k = 0.0000 0.0000 0.0000 (  5929 PWs)   bands (ev):

   -15.1901 -15.1896 -15.1120 -15.0914 -15.0507 -15.0394 -14.9237 -14.9214
   -14.9095 -14.9095 -14.8978 -14.8951 -14.8627 -14.8586 -14.8441 -14.8398
   -14.8274 -14.8241 -14.8206 -14.8110 -14.6291 -14.6143 -14.5877 -14.5549
   -14.5278 -14.5276 -14.5171 -14.5096 -14.4860 -14.4716 -11.1291 -10.7349
    -9.7835  -9.6678  -9.3335  -9.1666  -9.0851  -9.0850  -6.5405  -6.3004
    -2.8073  -2.7197  -2.4199  -2.3557  -1.3044   0.1057   2.7267   2.9575
     2.9945   3.1240   3.3939   3.6904   3.7912   3.8426   4.1123   4.5127
     4.5452   4.7008   5.0321   5.1958   5.2424   5.3369   5.4035   5.4604
     5.5197   5.6270   5.7530   5.9734   6.1633   6.3248   6.3726   6.4206
     6.4518   6.4846   6.4942   6.8840   9.8447   9.9529  10.1039  10.4828
    11.1710  11.3007  11.3146  12.0219  12.1433  12.6122  12.7415  12.8381
    13.3646  13.4863  13.5793  13.8410  14.1530  14.4197  14.9144  14.9642
    15.5668  16.0409  16.1570  16.6990  17.6622  18.0153  18.0349  18.5913
    18.7876  19.0212  19.2788  19.2966  19.5237  20.1025  20.3258  20.5242
    20.5801  20.9260  20.9784  21.0856  21.2552  21.4445  21.7230  21.7718
    21.8670  22.1843  22.1926  22.4618  22.4789  22.7703  23.0965  23.1151
    23.4164  23.4765  23.7440  24.0329  24.0879  24.4842  24.4850  24.5176
    24.5671  24.6157  24.7919  25.2288  25.3538  25.7329  25.7569  25.8644
    25.8957  26.1190  26.1930  26.3130  26.4227  26.5094  26.6387  26.7043
    26.9579  27.3018  27.7520  27.8366  27.8504  27.9912  28.0850  28.6381
    28.7817  28.9207  28.9319  29.1270  29.1652  29.5092  29.6355  29.6379
    29.8277  30.0287  30.1661  30.1682  30.2557  30.6766  30.7811  30.8990
    30.9879  31.1096  31.1619  31.4461  31.8515  31.9036  31.9485  32.0710
    32.1564  32.3310  32.5654  32.5951  32.7268  33.1283  33.5245  33.6925
    33.7053  33.8840  33.9213  33.9466  33.9640  33.9644  33.9834  33.9838
    34.0747  34.1684  34.2981  34.3168  34.3299  34.9586  35.0526  35.1939
    35.2166  35.3956  35.6725  35.7937  35.8129  36.0104  36.2801  36.4306
    36.4452  36.5415  36.9269  37.0747  37.2290  37.2582  37.3204  37.3478
    37.4452  37.7206  37.9908  38.2947  38.4706  38.5275  38.6496  38.8471
    38.9196  39.0264  39.3008  39.3256  39.4132  39.4602  39.4843  39.7102
    39.8904  39.9272  39.9473  40.0392  40.3940  40.6880  40.6904  40.7586
    40.8432  41.1493  41.3969  41.5450  41.5906  41.7941  41.8492  41.9962

     occupation numbers
     1.0000   1.0000   1.0000   1.0000   1.0000   1.0000   1.0000   1.0000
     1.0000   1.0000   1.0000   1.0000   1.0000   1.0000   1.0000   1.0000
     1.0000   1.0000   1.0000   1.0000   1.0000   1.0000   1.0000   1.0000
     1.0000   1.0000   1.0000   1.0000   1.0000   1.0000   1.0000   1.0000
     1.0000   1.0000   1.0000   1.0000   1.0000   1.0000   1.0000   1.0000
     1.0000   1.0000   1.0000   1.0000   1.0000   1.0000   1.0000   1.0000
     1.0000   1.0000   1.0000   1.0000   1.0000   1.0000   1.0000   1.0000
     1.0000   1.0000   1.0000   1.0000   1.0000   1.0000   1.0000   1.0000
     1.0000   1.0000   1.0000   1.0000   1.0000   1.0000   1.0000   1.0000
     1.0000   1.0000   1.0000   1.0000   0.0000   0.0000   0.0000   0.0000
     0.0000   0.0000   0.0000   0.0000   0.0000   0.0000   0.0000   0.0000
     0.0000   0.0000   0.0000   0.0000   0.0000   0.0000   0.0000   0.0000
     0.0000   0.0000   0.0000   0.0000   0.0000   0.0000   0.0000   0.0000
     0.0000   0.0000   0.0000   0.0000   0.0000   0.0000   0.0000   0.0000
     0.0000   0.0000   0.0000   0.0000   0.0000   0.0000   0.0000   0.0000
     0.0000   0.0000   0.0000   0.0000   0.0000   0.0000   0.0000   0.0000
     0.0000   0.0000   0.0000   0.0000   0.0000   0.0000   0.0000   0.0000
     0.0000   0.0000   0.0000   0.0000   0.0000   0.0000   0.0000   0.0000
     0.0000   0.0000   0.0000   0.0000   0.0000   0.0000   0.0000   0.0000
     0.0000   0.0000   0.0000   0.0000   0.0000   0.0000   0.0000   0.0000
     0.0000   0.0000   0.0000   0.0000   0.0000   0.0000   0.0000   0.0000
     0.0000   0.0000   0.0000   0.0000   0.0000   0.0000   0.0000   0.0000
     0.0000   0.0000   0.0000   0.0000   0.0000   0.0000   0.0000   0.0000
     0.0000   0.0000   0.0000   0.0000   0.0000   0.0000   0.0000   0.0000
     0.0000   0.0000   0.0000   0.0000   0.0000   0.0000   0.0000   0.0000
     0.0000   0.0000   0.0000   0.0000   0.0000   0.0000   0.0000   0.0000
     0.0000   0.0000   0.0000   0.0000   0.0000   0.0000   0.0000   0.0000
     0.0000   0.0000   0.0000   0.0000   0.0000   0.0000   0.0000   0.0000
     0.0000   0.0000   0.0000   0.0000   0.0000   0.0000   0.0000   0.0000
     0.0000   0.0000   0.0000   0.0000   0.0000   0.0000   0.0000   0.0000
     0.0000   0.0000   0.0000   0.0000   0.0000   0.0000   0.0000   0.0000
     0.0000   0.0000   0.0000   0.0000   0.0000   0.0000   0.0000   0.0000

[...]

          k = 0.3333-1.1271-0.6144 (  5905 PWs)   bands (ev):

   -15.1592 -15.1564 -15.1170 -15.1142 -15.0289 -15.0136 -14.9715 -14.9644
   -14.9075 -14.9068 -14.9026 -14.9019 -14.8530 -14.8501 -14.8433 -14.8395
   -14.8315 -14.8294 -14.8190 -14.8152 -14.6399 -14.6146 -14.5824 -14.5571
   -14.5309 -14.5275 -14.5130 -14.5035 -14.4966 -14.4903 -10.6194 -10.3668
   -10.1411  -9.8599  -9.5527  -9.4096  -9.2405  -9.0801  -6.4274  -6.3674
    -2.6738  -2.3051  -2.0574  -1.8358  -1.6033  -0.8419   2.8782   3.0596
     3.1224   3.2818   3.4812   3.7046   3.7957   3.8551   4.1977   4.2621
     4.4895   4.6177   4.7763   4.8272   5.2204   5.3470   5.4261   5.5542
     5.5805   5.7410   5.8120   5.8250   5.8667   6.0139   6.0430   6.1917
     6.3812   6.6129   6.7515   7.0048  10.3558  10.4480  10.6819  10.8692
    11.1969  11.3618  11.8326  12.1495  12.3274  12.4631  12.6779  12.8219
    13.0638  13.1128  13.4741  13.6729  13.8270  14.0255  15.3933  15.7261
    16.5907  16.8520  17.0090  17.2465  17.4508  17.6962  17.8664  17.9297
    18.1579  18.5438  18.6418  18.8431  19.1502  19.2504  19.8018  19.9363
    20.0617  20.2500  20.4868  20.7645  20.9736  21.0845  21.2004  21.5296
    21.8438  21.8981  22.0463  22.1313  22.4982  22.7158  22.9111  23.1028
    23.2663  23.5290  23.7538  23.8146  24.1335  24.1851  24.2460  24.5612
    24.8134  25.0030  25.1530  25.2097  25.3379  25.4923  25.6591  25.8580
    26.1788  26.2831  26.4897  26.5452  26.6373  26.9241  27.1600  27.4264
    27.4715  27.7920  28.0140  28.2090  28.2305  28.5249  28.5625  28.6774
    28.8696  28.9513  29.2641  29.2767  29.4097  29.4915  29.6594  29.7670
    30.0901  30.1502  30.4182  30.5723  30.6944  30.8287  31.0810  31.1722
    31.3023  31.4837  31.7216  31.7830  32.0400  32.2482  32.2633  32.5081
    32.6273  32.7675  32.9804  33.1183  33.2901  33.4682  33.6825  33.8193
    33.9598  33.9652  33.9689  33.9784  33.9886  34.0615  34.1807  34.3126
    34.3242  34.3717  34.5283  34.6306  34.8373  35.0002  35.0972  35.2223
    35.3238  35.3994  35.5079  35.7229  35.8098  35.9792  36.1808  36.2299
    36.2545  36.4298  36.5242  36.8041  36.8332  36.9546  37.1635  37.2224
    37.3438  37.5319  37.6059  37.7408  37.8387  37.9708  38.1271  38.2123
    38.2523  38.3752  38.5523  38.6287  38.8498  39.0638  39.1714  39.4039
    39.4306  39.5659  39.9179  39.9730  40.0370  40.2094  40.3352  40.5542
    40.5984  40.7920  40.9113  41.1402  41.2547  41.3904  41.4721  41.6449

     occupation numbers
     1.0000   1.0000   1.0000   1.0000   1.0000   1.0000   1.0000   1.0000
     1.0000   1.0000   1.0000   1.0000   1.0000   1.0000   1.0000   1.0000
     1.0000   1.0000   1.0000   1.0000   1.0000   1.0000   1.0000   1.0000
     1.0000   1.0000   1.0000   1.0000   1.0000   1.0000   1.0000   1.0000
     1.0000   1.0000   1.0000   1.0000   1.0000   1.0000   1.0000   1.0000
     1.0000   1.0000   1.0000   1.0000   1.0000   1.0000   1.0000   1.0000
     1.0000   1.0000   1.0000   1.0000   1.0000   1.0000   1.0000   1.0000
     1.0000   1.0000   1.0000   1.0000   1.0000   1.0000   1.0000   1.0000
     1.0000   1.0000   1.0000   1.0000   1.0000   1.0000   1.0000   1.0000
     1.0000   1.0000   1.0000   1.0000   0.0000   0.0000   0.0000   0.0000
     0.0000   0.0000   0.0000   0.0000   0.0000   0.0000   0.0000   0.0000
     0.0000   0.0000   0.0000   0.0000   0.0000   0.0000   0.0000   0.0000
     0.0000   0.0000   0.0000   0.0000   0.0000   0.0000   0.0000   0.0000
     0.0000   0.0000   0.0000   0.0000   0.0000   0.0000   0.0000   0.0000
     0.0000   0.0000   0.0000   0.0000   0.0000   0.0000   0.0000   0.0000
     0.0000   0.0000   0.0000   0.0000   0.0000   0.0000   0.0000   0.0000
     0.0000   0.0000   0.0000   0.0000   0.0000   0.0000   0.0000   0.0000
     0.0000   0.0000   0.0000   0.0000   0.0000   0.0000   0.0000   0.0000
     0.0000   0.0000   0.0000   0.0000   0.0000   0.0000   0.0000   0.0000
     0.0000   0.0000   0.0000   0.0000   0.0000   0.0000   0.0000   0.0000
     0.0000   0.0000   0.0000   0.0000   0.0000   0.0000   0.0000   0.0000
     0.0000   0.0000   0.0000   0.0000   0.0000   0.0000   0.0000   0.0000
     0.0000   0.0000   0.0000   0.0000   0.0000   0.0000   0.0000   0.0000
     0.0000   0.0000   0.0000   0.0000   0.0000   0.0000   0.0000   0.0000
     0.0000   0.0000   0.0000   0.0000   0.0000   0.0000   0.0000   0.0000
     0.0000   0.0000   0.0000   0.0000   0.0000   0.0000   0.0000   0.0000
     0.0000   0.0000   0.0000   0.0000   0.0000   0.0000   0.0000   0.0000
     0.0000   0.0000   0.0000   0.0000   0.0000   0.0000   0.0000   0.0000
     0.0000   0.0000   0.0000   0.0000   0.0000   0.0000   0.0000   0.0000
     0.0000   0.0000   0.0000   0.0000   0.0000   0.0000   0.0000   0.0000
     0.0000   0.0000   0.0000   0.0000   0.0000   0.0000   0.0000   0.0000
     0.0000   0.0000   0.0000   0.0000   0.0000   0.0000   0.0000   0.0000

     highest occupied, lowest unoccupied level (ev):     7.0974    9.5368

!    total energy              =   -1511.33962127 Ry
     estimated scf accuracy    <       0.00000022 Ry

     The total energy is the sum of the following terms:
     one-electron contribution =    -542.21266253 Ry
     hartree contribution      =     365.82880374 Ry
     xc contribution           =    -466.10261861 Ry
     ewald contribution        =    -792.60734301 Ry
     one-center paw contrib.   =     -76.24580087 Ry
      -> PAW hartree energy AE =       0.00000000 Ry
      -> PAW hartree energy PS =       0.00000000 Ry
      -> PAW xc energy AE      =       0.00000000 Ry
      -> PAW xc energy PS      =       0.00000000 Ry
      -> total E_H with PAW    =     365.82880374 Ry
      -> total E_XC with PAW   =    -466.10261861 Ry

     convergence has been achieved in  11 iterations

     Writing all to output data dir bands_nm/myprefix.save/

     General routines

     Parallel routines

     PAW routines

   This run was terminated on:  21: 9:45  15Jul2023

   JOB DONE.