     Program PWSCF v.7.0 starts on  7Jun2023 at  0:19: 0

     K-points division:     npool     =       2
     R & G space division:  proc/nbgrp/npool/nimage =       4

     Reading input from espresso_962.pwi
Warning: card &CELL ignored
Warning: card / ignored

     Current dimensions of program PWSCF are:
     Max number of different atomic species (ntypx) = 10
     Max number of k-points (npk) =  40000
     Max angular momentum in pseudopotentials (lmaxx) =  4
     file O.pbe-n-kjpaw_psl.0.1.UPF: wavefunction(s)  2P renormalized
     Message from routine setup:
     using ibrav=0 with symmetry is DISCOURAGED, use correct ibrav instead

     Using Slab Decomposition

     bravais-lattice index     =            0
     lattice parameter (alat)  =      10.9878  a.u.
     unit-cell volume          =    1079.0368 (a.u.)^3
     number of atoms/cell      =           11
     number of atomic types    =            3
     number of electrons       =        92.00
     number of Kohn-Sham states=           64
     kinetic-energy cutoff     =      30.0000  Ry
     charge density cutoff     =     240.0000  Ry
     scf convergence threshold =      1.0E-06
     mixing beta               =       0.7000
     number of iterations used =            8  plain     mixing
     Exchange-correlation= SLA  PW   PBX  PBC
                           (   1   4   3   4   0   0   0)

     celldm(1)=  10.987760  celldm(2)=   0.000000  celldm(3)=   0.000000
     celldm(4)=   0.000000  celldm(5)=   0.000000  celldm(6)=   0.000000

     crystal axes: (cart. coord. in units of alat)
               a(1) = (   1.000000   0.000000   0.000000 )
               a(2) = (  -0.263242   0.964730   0.000000 )
               a(3) = (   0.111067   0.145434   0.843147 )

     reciprocal axes: (cart. coord. in units 2 pi/alat)
               b(1) = (  1.000000  0.272866 -0.178795 )
               b(2) = (  0.000000  1.036560 -0.178795 )
               b(3) = (  0.000000  0.000000  1.186033 )

     PseudoPot. # 1 for Y  read from file:
     /home/pragov/projects/rrg-bengioy-ad/pragov/crystal_structure_design/SSSP/Y_pbe_v1.uspp.F.UPF
     MD5 check sum: 2cf71db95cafeb975fc457bd7f14888e
     Pseudo is Ultrasoft + core correction, Zval = 11.0
     Generated by new atomic code, or converted to UPF format
     Using radial grid of  885 points,  6 beta functions with:
                l(1) =   0
                l(2) =   0
                l(3) =   1
                l(4) =   1
                l(5) =   2
                l(6) =   2
     Q(r) pseudized with  6 coefficients,  rinner =    1.200   1.200   1.200
                                                       1.200   1.200

     PseudoPot. # 2 for Ge read from file:
     /home/pragov/projects/rrg-bengioy-ad/pragov/crystal_structure_design/SSSP/ge_pbe_v1.4.uspp.F.UPF
     MD5 check sum: 9c9eaa91e581c3f09632fb3098b2c6b2
     Pseudo is Ultrasoft + core correction, Zval = 14.0
     Generated by new atomic code, or converted to UPF format
     Using radial grid of  873 points,  6 beta functions with:
                l(1) =   0
                l(2) =   0
                l(3) =   1
                l(4) =   1
                l(5) =   2
                l(6) =   2
     Q(r) pseudized with  8 coefficients,  rinner =    1.400   1.400   1.400
                                                       1.400   1.400

     PseudoPot. # 3 for O  read from file:
     /home/pragov/projects/rrg-bengioy-ad/pragov/crystal_structure_design/SSSP/O.pbe-n-kjpaw_psl.0.1.UPF
     MD5 check sum: 0234752ac141de4415c5fc33072bef88
     Pseudo is Projector augmented-wave + core cor, Zval =  6.0
     Generated using "atomic" code by A. Dal Corso  v.5.0.99 svn rev. 10869
     Shape of augmentation charge: BESSEL
     Using radial grid of 1095 points,  4 beta functions with:
                l(1) =   0
                l(2) =   0
                l(3) =   1
                l(4) =   1
     Q(r) pseudized with 0 coefficients

     atomic species   valence    mass     pseudopotential
        Y             11.00    88.90584     Y ( 1.00)
        Ge            14.00    72.63000     Ge( 1.00)
        O              6.00    15.99900     O ( 1.00)

      2 Sym. Ops., with inversion, found

                                    s                        frac. trans.

      isym =  1     identity

 cryst.   s( 1) = (     1          0          0      )
                  (     0          1          0      )
                  (     0          0          1      )

 cart.    s( 1) = (  1.0000000 -0.0000000 -0.0000000 )
                  (  0.0000000  1.0000000 -0.0000000 )
                  (  0.0000000  0.0000000  1.0000000 )

      isym =  2     inversion

 cryst.   s( 2) = (    -1          0          0      )
                  (     0         -1          0      )
                  (     0          0         -1      )

 cart.    s( 2) = ( -1.0000000  0.0000000  0.0000000 )
                  (  0.0000000 -1.0000000  0.0000000 )
                  (  0.0000000  0.0000000 -1.0000000 )

   Cartesian axes

     site n.     atom                  positions (alat units)
         1           Y   tau(   1) = (   0.1236476   0.6692650   0.0000000  )
         2           Y   tau(   2) = (   0.6131108   0.2954649   0.0000000  )
         3           Ge  tau(   3) = (   0.6136576   0.8035387   0.3450240  )
         4           Ge  tau(   4) = (   0.2341676   0.3066249   0.4981226  )
         5           O   tau(   5) = (   0.7831510   0.6117701   0.1794292  )
         6           O   tau(   6) = (   0.3840349   0.9165726   0.1794292  )
         7           O   tau(   7) = (   0.5240487   0.6862026   0.6101607  )
         8           O   tau(   8) = (   0.0555334   0.0727168   0.4215733  )
         9           O   tau(   9) = (   0.3237764   0.4239610   0.2329858  )
        10           O   tau(  10) = (   0.0646741   0.4983935   0.6637174  )
        11           O   tau(  11) = (   0.4637902   0.1935909   0.6637174  )

   Crystallographic axes

     site n.     atom                  positions (cryst. coord.)
         1           Y   tau(   1) = (  0.3062670  0.6937330  0.0000000  )
         2           Y   tau(   2) = (  0.6937330  0.3062670  0.0000000  )
         3           Ge  tau(   3) = (  0.7712270  0.7712270  0.4092100  )
         4           Ge  tau(   4) = (  0.2287730  0.2287730  0.5907900  )
         5           O   tau(   5) = (  0.9180010  0.6020550  0.2128090  )
         6           O   tau(   6) = (  0.6020550  0.9180010  0.2128090  )
         7           O   tau(   7) = (  0.6021960  0.6021960  0.7236710  )
         8           O   tau(   8) = ( -0.0000000  0.0000000  0.5000000  )
         9           O   tau(   9) = (  0.3978040  0.3978040  0.2763290  )
        10           O   tau(  10) = (  0.0819990  0.3979450  0.7871910  )
        11           O   tau(  11) = (  0.3979450  0.0819990  0.7871910  )

     number of k points=    14
                       cart. coord. in units 2pi/alat
        k(    1) = (   0.0000000   0.0000000   0.0000000), wk =   0.0740741
        k(    2) = (   0.0000000   0.0000000   0.3953445), wk =   0.1481481
        k(    3) = (   0.0000000   0.3455198  -0.0595984), wk =   0.1481481
        k(    4) = (   0.0000000   0.3455198   0.3357461), wk =   0.1481481
        k(    5) = (   0.0000000   0.3455198  -0.4549429), wk =   0.1481481
        k(    6) = (   0.3333333   0.0909552  -0.0595984), wk =   0.1481481
        k(    7) = (   0.3333333   0.0909552   0.3357461), wk =   0.1481481
        k(    8) = (   0.3333333   0.0909552  -0.4549429), wk =   0.1481481
        k(    9) = (   0.3333333   0.4364751  -0.1191969), wk =   0.1481481
        k(   10) = (   0.3333333   0.4364751   0.2761476), wk =   0.1481481
        k(   11) = (   0.3333333   0.4364751  -0.5145413), wk =   0.1481481
        k(   12) = (   0.3333333  -0.2545646   0.0000000), wk =   0.1481481
        k(   13) = (   0.3333333  -0.2545646   0.3953445), wk =   0.1481481
        k(   14) = (   0.3333333  -0.2545646  -0.3953445), wk =   0.1481481

                       cryst. coord.
        k(    1) = (   0.0000000   0.0000000   0.0000000), wk =   0.0740741
        k(    2) = (   0.0000000   0.0000000   0.3333333), wk =   0.1481481
        k(    3) = (   0.0000000   0.3333333  -0.0000000), wk =   0.1481481
        k(    4) = (   0.0000000   0.3333333   0.3333333), wk =   0.1481481
        k(    5) = (   0.0000000   0.3333333  -0.3333333), wk =   0.1481481
        k(    6) = (   0.3333333   0.0000000  -0.0000000), wk =   0.1481481
        k(    7) = (   0.3333333   0.0000000   0.3333333), wk =   0.1481481
        k(    8) = (   0.3333333   0.0000000  -0.3333333), wk =   0.1481481
        k(    9) = (   0.3333333   0.3333333  -0.0000000), wk =   0.1481481
        k(   10) = (   0.3333333   0.3333333   0.3333333), wk =   0.1481481
        k(   11) = (   0.3333333   0.3333333  -0.3333333), wk =   0.1481481
        k(   12) = (   0.3333333  -0.3333333   0.0000000), wk =   0.1481481
        k(   13) = (   0.3333333  -0.3333333   0.3333333), wk =   0.1481481
        k(   14) = (   0.3333333  -0.3333333  -0.3333333), wk =   0.1481481

     Check: negative core charge=   -0.000012

     Initial potential from superposition of free atoms

     starting charge      91.9893, renormalised to      92.0000

     negative rho (up, down):  8.713E-02 0.000E+00
     Starting wfcs are   72 randomized atomic wfcs
     Checking if some PAW data can be deallocated...

     Self-consistent Calculation

     iteration #  1     ecut=    30.00 Ry     beta= 0.70
     Davidson diagonalization with overlap

     ethr =  1.00E-02,  avg # of iterations =  2.8

     negative rho (up, down):  8.916E-02 0.000E+00

     total energy              =    -893.20050564 Ry
     estimated scf accuracy    <       2.94829640 Ry

[...]

     total energy              =    -894.59474572 Ry
     estimated scf accuracy    <       0.00000552 Ry

     iteration #  9     ecut=    30.00 Ry     beta= 0.70
     Davidson diagonalization with overlap

     ethr =  6.01E-09,  avg # of iterations =  2.0

     negative rho (up, down):  9.063E-02 0.000E+00

     End of self-consistent calculation

          k = 0.0000 0.0000 0.0000 (  3017 PWs)   bands (ev):

   -33.9843 -33.9453 -17.3705 -17.2650 -17.2619 -17.2616 -17.2582 -17.2350
   -17.0459 -17.0362 -17.0316 -17.0252 -14.5623 -14.4776 -14.3741 -14.1023
   -14.0314 -13.9083 -12.1543 -11.1364 -10.4590 -10.0378  -9.9191  -9.8569
    -9.7102  -1.5837  -0.1024   1.8548   1.9844   2.3953   2.5860   3.0877
     3.1544   3.3833   4.0487   4.1368   4.2000   4.6372   5.1181   5.1462
     5.1528   5.2101   5.2624   5.3753   5.4169   5.8688   9.7318  11.6565
    11.8653  12.5651  12.5929  12.6918  12.7242  12.9687  13.5863  14.1664
    14.4440  14.6755  15.2810  15.4140  15.6748  15.8938  16.3362  17.0806

     occupation numbers
     1.0000   1.0000   1.0000   1.0000   1.0000   1.0000   1.0000   1.0000
     1.0000   1.0000   1.0000   1.0000   1.0000   1.0000   1.0000   1.0000
     1.0000   1.0000   1.0000   1.0000   1.0000   1.0000   1.0000   1.0000
     1.0000   1.0000   1.0000   1.0000   1.0000   1.0000   1.0000   1.0000
     1.0000   1.0000   1.0000   1.0000   1.0000   1.0000   1.0000   1.0000
     1.0000   1.0000   1.0000   1.0000   1.0000   1.0000   0.0000   0.0000
     0.0000   0.0000   0.0000   0.0000   0.0000   0.0000   0.0000   0.0000
     0.0000   0.0000   0.0000   0.0000   0.0000   0.0000   0.0000   0.0000

[...]

          k = 0.3333-0.2546-0.3953 (  2993 PWs)   bands (ev):

   -33.9750 -33.9543 -17.3721 -17.2659 -17.2598 -17.2549 -17.2533 -17.2361
   -17.0430 -17.0360 -17.0292 -17.0234 -14.6245 -14.5328 -14.3351 -14.1324
   -14.0644 -13.8718 -11.7951 -11.0641 -10.4262 -10.3063 -10.0931  -9.8613
    -9.7077  -1.6339   0.3170   1.6515   1.9650   2.3943   2.5802   2.7851
     3.2512   3.8105   4.0827   4.1451   4.4223   4.5038   4.7381   5.0880
     5.1245   5.1866   5.3033   5.3888   5.5092   5.7942  11.1665  11.7061
    11.8069  12.1319  12.5670  12.7519  12.8331  12.9464  13.7426  13.9351
    14.5683  14.8300  15.2297  15.4436  15.8959  15.9812  16.2932  16.7755

     occupation numbers
     1.0000   1.0000   1.0000   1.0000   1.0000   1.0000   1.0000   1.0000
     1.0000   1.0000   1.0000   1.0000   1.0000   1.0000   1.0000   1.0000
     1.0000   1.0000   1.0000   1.0000   1.0000   1.0000   1.0000   1.0000
     1.0000   1.0000   1.0000   1.0000   1.0000   1.0000   1.0000   1.0000
     1.0000   1.0000   1.0000   1.0000   1.0000   1.0000   1.0000   1.0000
     1.0000   1.0000   1.0000   1.0000   1.0000   1.0000   0.0000   0.0000
     0.0000   0.0000   0.0000   0.0000   0.0000   0.0000   0.0000   0.0000
     0.0000   0.0000   0.0000   0.0000   0.0000   0.0000   0.0000   0.0000

     highest occupied, lowest unoccupied level (ev):     5.8688    9.7318

!    total energy              =    -894.59474670 Ry
     estimated scf accuracy    <       0.00000033 Ry

     The total energy is the sum of the following terms:
     one-electron contribution =    -448.72414267 Ry
     hartree contribution      =     285.30951776 Ry
     xc contribution           =    -213.30625189 Ry
     ewald contribution        =    -451.24674142 Ry
     one-center paw contrib.   =     -66.62712849 Ry
      -> PAW hartree energy AE =       0.00000000 Ry
      -> PAW hartree energy PS =       0.00000000 Ry
      -> PAW xc energy AE      =       0.00000000 Ry
      -> PAW xc energy PS      =       0.00000000 Ry
      -> total E_H with PAW    =     285.30951776 Ry
      -> total E_XC with PAW   =    -213.30625189 Ry

     convergence has been achieved in   9 iterations

     Writing all to output data dir calculations_bands/myprefix.save/

     General routines

     Parallel routines

     PAW routines

   This run was terminated on:   0:19:12   7Jun2023

   JOB DONE.