     Program PWSCF v.7.1 starts on 14Jul2023 at 19:10:13

     Reading input from espresso_21635.pwi
Warning: card &CELL ignored
Warning: card / ignored

     Current dimensions of program PWSCF are:
     Max number of different atomic species (ntypx) = 10
     Max number of k-points (npk) =  40000
     Max angular momentum in pseudopotentials (lmaxx) =  4
     file O.pbe-n-kjpaw_psl.0.1.UPF: wavefunction(s)  2P renormalized
     Message from routine setup:
     using ibrav=0 with symmetry is DISCOURAGED, use correct ibrav instead

     K-points division:     npool     =       2
     R & G space division:  proc/nbgrp/npool/nimage =       4
     Subspace diagonalization in iterative solution of the eigenvalue problem:
     a serial algorithm will be used

     Using Slab Decomposition

     bravais-lattice index     =            0
     lattice parameter (alat)  =      11.9301  a.u.
     unit-cell volume          =     823.8497 (a.u.)^3
     number of atoms/cell      =           12
     number of atomic types    =            3
     number of electrons       =        80.00
     number of Kohn-Sham states=           64
     kinetic-energy cutoff     =      30.0000  Ry
     charge density cutoff     =     240.0000  Ry
     scf convergence threshold =      1.0E-06
     mixing beta               =       0.7000
     number of iterations used =            8  plain     mixing
     Exchange-correlation= SLA  PW   PBX  PBC
                           (   1   4   3   4   0   0   0)

     celldm(1)=  11.930150  celldm(2)=   0.000000  celldm(3)=   0.000000
     celldm(4)=   0.000000  celldm(5)=   0.000000  celldm(6)=   0.000000

     crystal axes: (cart. coord. in units of alat)
               a(1) = (   1.000000   0.000000   0.000000 )
               a(2) = (   0.425249   0.905077   0.000000 )
               a(3) = (  -0.712624  -0.452538   0.536074 )

     reciprocal axes: (cart. coord. in units 2 pi/alat)
               b(1) = (  1.000000 -0.469848  0.932706 )
               b(2) = (  0.000000  1.104879  0.932706 )
               b(3) = (  0.000000  0.000000  1.865413 )

     PseudoPot. # 1 for Zr read from file:
     /lustre07/scratch/pragov/crystal_structure_design/utils/SSSP/Zr_pbe_v1.uspp.F.UPF
     MD5 check sum: 5db81b1e868ab7776c4564c113de050b
     Pseudo is Ultrasoft + core correction, Zval = 12.0
     Generated by new atomic code, or converted to UPF format
     Using radial grid of  887 points,  6 beta functions with:
                l(1) =   0
                l(2) =   0
                l(3) =   1
                l(4) =   1
                l(5) =   2
                l(6) =   2
     Q(r) pseudized with  6 coefficients,  rinner =    1.200   1.200   1.200
                                                       1.200   1.200

     PseudoPot. # 2 for Si read from file:
     /lustre07/scratch/pragov/crystal_structure_design/utils/SSSP/Si.pbe-n-rrkjus_psl.1.0.0.UPF
     MD5 check sum: 0b0bb1205258b0d07b9f9672cf965d36
     Pseudo is Ultrasoft + core correction, Zval =  4.0
     Generated using "atomic" code by A. Dal Corso  v.5.1
     Using radial grid of 1141 points,  6 beta functions with:
                l(1) =   0
                l(2) =   0
                l(3) =   1
                l(4) =   1
                l(5) =   2
                l(6) =   2
     Q(r) pseudized with 0 coefficients

     PseudoPot. # 3 for O  read from file:
     /lustre07/scratch/pragov/crystal_structure_design/utils/SSSP/O.pbe-n-kjpaw_psl.0.1.UPF
     MD5 check sum: 0234752ac141de4415c5fc33072bef88
     Pseudo is Projector augmented-wave + core cor, Zval =  6.0
     Generated using "atomic" code by A. Dal Corso  v.5.0.99 svn rev. 10869
     Shape of augmentation charge: BESSEL
     Using radial grid of 1095 points,  4 beta functions with:
                l(1) =   0
                l(2) =   0
                l(3) =   1
                l(4) =   1
     Q(r) pseudized with 0 coefficients

     atomic species   valence    mass     pseudopotential
        Zr            12.00    91.22400     Zr( 1.00)
        Si             4.00    28.08500     Si( 1.00)
        O              6.00    15.99900     O ( 1.00)

      2 Sym. Ops., with inversion, found ( 1 have fractional translation)

                                    s                        frac. trans.

      isym =  1     identity

 cryst.   s( 1) = (     1          0          0      )
                  (     0          1          0      )
                  (     0          0          1      )

 cart.    s( 1) = (  1.0000000 -0.0000000  0.0000000 )
                  (  0.0000000  1.0000000  0.0000000 )
                  (  0.0000000  0.0000000  1.0000000 )

      isym =  2     inversion

 cryst.   s( 2) = (    -1          0          0      )    f =(  0.2500000 )
                  (     0         -1          0      )       ( -0.2500000 )
                  (     0          0         -1      )       ( -0.5000000 )

 cart.    s( 2) = ( -1.0000000  0.0000000 -0.0000000 )    f =(  0.5000000 )
                  (  0.0000000 -1.0000000  0.0000000 )       (  0.0000000 )
                  (  0.0000000  0.0000000 -1.0000000 )       ( -0.2680372 )

   Cartesian axes

     site n.     atom                  positions (alat units)
         1           Zr  tau(   1) = (   0.7126243   0.4525383   0.0000000  )
         2           Zr  tau(   2) = (   0.2126243   0.4525383   0.2680372  )
         3           Si  tau(   3) = (   0.0000000   0.0000000   0.0000000  )
         4           Si  tau(   4) = (   0.5000000   0.0000000   0.2680372  )
         5           O   tau(   5) = (   0.3607770  -0.0241674   0.4908908  )
         6           O   tau(   6) = (   0.4345648   0.6470021   0.0542325  )
         7           O   tau(   7) = (   0.0577593  -0.3343606   0.4818418  )
         8           O   tau(   8) = (   0.8441719   0.7893462   0.0451836  )
         9           O   tau(   9) = (   0.0810767   0.1157303   0.2228536  )
        10           O   tau(  10) = (  -0.2703836  -0.1181777   0.3222697  )
        11           O   tau(  11) = (   0.4906838   0.2580744   0.2138047  )
        12           O   tau(  12) = (   0.8518473   0.4767056   0.3132207  )

   Crystallographic axes

     site n.     atom                  positions (cryst. coord.)
         1           Zr  tau(   1) = (  0.5000000  0.5000000  0.0000000  )
         2           Zr  tau(   2) = (  0.2500000  0.7500000  0.5000000  )
         3           Si  tau(   3) = (  0.0000000  0.0000000  0.0000000  )
         4           Si  tau(   4) = (  0.7500000  0.2500000  0.5000000  )
         5           O   tau(   5) = (  0.8299890  0.4311550  0.9157140  )
         6           O   tau(   6) = (  0.1811550  0.7654420  0.1011660  )
         7           O   tau(   7) = (  0.6642750  0.0799890  0.8988340  )
         8           O   tau(   8) = (  0.5154420  0.9142750  0.0842860  )
         9           O   tau(   9) = (  0.2345580  0.3357250  0.4157140  )
        10           O   tau(  10) = (  0.0857250  0.1700110  0.6011660  )
        11           O   tau(  11) = (  0.5688450  0.4845580  0.3988340  )
        12           O   tau(  12) = (  0.9200110  0.8188450  0.5842860  )

     number of k points=    14
                       cart. coord. in units 2pi/alat
        k(    1) = (   0.0000000   0.0000000   0.0000000), wk =   0.0740741
        k(    2) = (   0.0000000   0.0000000   0.6218043), wk =   0.1481481
        k(    3) = (   0.0000000   0.3682930   0.3109022), wk =   0.1481481
        k(    4) = (   0.0000000   0.3682930   0.9327065), wk =   0.1481481
        k(    5) = (   0.3333333  -0.1566161   0.3109022), wk =   0.1481481
        k(    6) = (   0.3333333  -0.1566161   0.9327065), wk =   0.1481481
        k(    7) = (   0.3333333   0.2116769   0.6218043), wk =   0.1481481
        k(    8) = (   0.3333333   0.2116769   0.0000000), wk =   0.1481481
        k(    9) = (   0.3333333  -0.5249090  -0.0000000), wk =   0.1481481
        k(   10) = (   0.3333333  -0.5249090   0.6218043), wk =   0.1481481
        k(   11) = (   0.0000000  -0.3682930   0.3109022), wk =   0.1481481
        k(   12) = (  -0.3333333   0.1566161   0.3109022), wk =   0.1481481
        k(   13) = (  -0.3333333  -0.2116769   0.6218043), wk =   0.1481481
        k(   14) = (  -0.3333333   0.5249090   0.6218043), wk =   0.1481481

                       cryst. coord.
        k(    1) = (   0.0000000   0.0000000   0.0000000), wk =   0.0740741
        k(    2) = (   0.0000000   0.0000000   0.3333333), wk =   0.1481481
        k(    3) = (   0.0000000   0.3333333  -0.0000000), wk =   0.1481481
        k(    4) = (   0.0000000   0.3333333   0.3333333), wk =   0.1481481
        k(    5) = (   0.3333333  -0.0000000   0.0000000), wk =   0.1481481
        k(    6) = (   0.3333333  -0.0000000   0.3333333), wk =   0.1481481
        k(    7) = (   0.3333333   0.3333333   0.0000000), wk =   0.1481481
        k(    8) = (   0.3333333   0.3333333  -0.3333333), wk =   0.1481481
        k(    9) = (   0.3333333  -0.3333333   0.0000000), wk =   0.1481481
        k(   10) = (   0.3333333  -0.3333333   0.3333333), wk =   0.1481481
        k(   11) = (   0.0000000  -0.3333333   0.3333333), wk =   0.1481481
        k(   12) = (  -0.3333333   0.0000000   0.3333333), wk =   0.1481481
        k(   13) = (  -0.3333333  -0.3333333   0.6666667), wk =   0.1481481
        k(   14) = (  -0.3333333   0.3333333   0.3333333), wk =   0.1481481

     Check: negative core charge=   -0.000014

     Initial potential from superposition of free atoms

     starting charge      79.9946, renormalised to      80.0000

     negative rho (up, down):  1.224E-01 0.000E+00
     Starting wfcs are   66 randomized atomic wfcs
     Checking if some PAW data can be deallocated...

     Self-consistent Calculation

     iteration #  1     ecut=    30.00 Ry     beta= 0.70
     Davidson diagonalization with overlap

     ethr =  1.00E-02,  avg # of iterations =  5.6

     negative rho (up, down):  1.279E-01 0.000E+00

     total energy              =    -554.13506822 Ry
     estimated scf accuracy    <       3.02134635 Ry

[...]

     total energy              =    -555.51807744 Ry
     estimated scf accuracy    <       0.00000240 Ry

     iteration #  9     ecut=    30.00 Ry     beta= 0.70
     Davidson diagonalization with overlap

     ethr =  3.00E-09,  avg # of iterations =  1.5

     negative rho (up, down):  1.322E-01 0.000E+00

     End of self-consistent calculation

          k = 0.0000 0.0000 0.0000 (  2273 PWs)   bands (ev):

   -38.4678 -38.4379 -16.6821 -16.5760 -16.5760 -16.5195 -16.5195 -16.3253
    -9.7076  -8.2436  -7.5240  -7.5236  -7.4720  -7.3371  -7.3367  -7.3091
     2.6372   3.3715   4.0160   4.5721   4.5724   4.5725   5.5011   5.7617
     5.8298   5.8301   6.3702   6.3704   6.4954   7.3738   7.5513   7.6926
     8.1607   8.1610   8.3693   8.3695   8.9047   9.2601   9.6991   9.6995
    13.8633  14.4285  15.2501  15.3749  15.5066  15.5066  15.9909  16.0567
    16.2959  16.2959  16.3929  19.6750  19.7141  20.4380  21.2628  21.2629
    21.4837  21.4838  22.6116  22.7757  23.2939  24.5589  24.7845  24.9750

     occupation numbers
     1.0000   1.0000   1.0000   1.0000   1.0000   1.0000   1.0000   1.0000
     1.0000   1.0000   1.0000   1.0000   1.0000   1.0000   1.0000   1.0000
     1.0000   1.0000   1.0000   1.0000   1.0000   1.0000   1.0000   1.0000
     1.0000   1.0000   1.0000   1.0000   1.0000   1.0000   1.0000   1.0000
     1.0000   1.0000   1.0000   1.0000   1.0000   1.0000   1.0000   1.0000
     0.0000   0.0000   0.0000   0.0000   0.0000   0.0000   0.0000   0.0000
     0.0000   0.0000   0.0000   0.0000   0.0000   0.0000   0.0000   0.0000
     0.0000   0.0000   0.0000   0.0000   0.0000   0.0000   0.0000   0.0000

[...]

          k = 0.0000-0.3683 0.3109 (  2280 PWs)   bands (ev):

[...]

          k =-0.3333 0.1566 0.3109 (  2280 PWs)   bands (ev):

[...]

          k =-0.3333 0.5249 0.6218 (  2294 PWs)   bands (ev):

   -38.4565 -38.4490 -16.6946 -16.6355 -16.5628 -16.5043 -16.4499 -16.3831
    -8.7804  -8.7436  -8.0643  -7.7431  -7.4573  -7.4280  -7.3127  -7.0784
     2.5609   3.5592   4.0510   4.5534   4.8642   5.0667   5.7074   5.7870
     6.0368   6.0979   6.4200   6.4349   6.7808   6.9571   6.9654   6.9936
     8.0711   8.1436   8.3407   8.6631   9.1462   9.1613   9.3809   9.5239
    13.9627  14.0203  14.8635  15.0490  15.1761  15.2970  15.7161  15.9880
    16.7488  16.9678  18.6306  19.0273  19.7688  19.7998  20.3510  20.7425
    21.5852  22.0425  22.2032  22.3228  23.0422  23.3605  24.0159  24.8915

     occupation numbers
     1.0000   1.0000   1.0000   1.0000   1.0000   1.0000   1.0000   1.0000
     1.0000   1.0000   1.0000   1.0000   1.0000   1.0000   1.0000   1.0000
     1.0000   1.0000   1.0000   1.0000   1.0000   1.0000   1.0000   1.0000
     1.0000   1.0000   1.0000   1.0000   1.0000   1.0000   1.0000   1.0000
     1.0000   1.0000   1.0000   1.0000   1.0000   1.0000   1.0000   1.0000
     0.0000   0.0000   0.0000   0.0000   0.0000   0.0000   0.0000   0.0000
     0.0000   0.0000   0.0000   0.0000   0.0000   0.0000   0.0000   0.0000
     0.0000   0.0000   0.0000   0.0000   0.0000   0.0000   0.0000   0.0000

     highest occupied, lowest unoccupied level (ev):     9.6995   13.7970

!    total energy              =    -555.51807769 Ry
     estimated scf accuracy    <       0.00000014 Ry

     The total energy is the sum of the following terms:
     one-electron contribution =     -77.02917900 Ry
     hartree contribution      =      90.61363120 Ry
     xc contribution           =    -108.35727928 Ry
     ewald contribution        =    -384.63560753 Ry
     one-center paw contrib.   =     -76.10964308 Ry
      -> PAW hartree energy AE =       0.00000000 Ry
      -> PAW hartree energy PS =       0.00000000 Ry
      -> PAW xc energy AE      =       0.00000000 Ry
      -> PAW xc energy PS      =       0.00000000 Ry
      -> total E_H with PAW    =      90.61363120 Ry
      -> total E_XC with PAW   =    -108.35727928 Ry

     convergence has been achieved in   9 iterations

     Writing all to output data dir bands_nm/myprefix.save/

     General routines

     Parallel routines

     PAW routines

   This run was terminated on:  19:10:25  14Jul2023

   JOB DONE.