     Program PWSCF v.7.1 starts on  9Jul2023 at 19:32:28

     Reading input from espresso_20307.pwi
Warning: card &CELL ignored
Warning: card / ignored

     Current dimensions of program PWSCF are:
     Max number of different atomic species (ntypx) = 10
     Max number of k-points (npk) =  40000
     Max angular momentum in pseudopotentials (lmaxx) =  4
     file In.pbe-dn-rrkjus_psl.0.2.2.UPF: wavefunction(s)  5S renormalized
     Message from routine setup:
     using ibrav=0 with symmetry is DISCOURAGED, use correct ibrav instead

     K-points division:     npool     =       2
     R & G space division:  proc/nbgrp/npool/nimage =       4
     Subspace diagonalization in iterative solution of the eigenvalue problem:
     a serial algorithm will be used

     Using Slab Decomposition

     bravais-lattice index     =            0
     lattice parameter (alat)  =       8.0413  a.u.
     unit-cell volume          =    1468.0716 (a.u.)^3
     number of atoms/cell      =            8
     number of atomic types    =            3
     number of electrons       =        72.00
     number of Kohn-Sham states=           64
     kinetic-energy cutoff     =      30.0000  Ry
     charge density cutoff     =     240.0000  Ry
     scf convergence threshold =      1.0E-06
     mixing beta               =       0.7000
     number of iterations used =            8  plain     mixing
     Exchange-correlation= PBE
                           (   1   4   3   4   0   0   0)

     celldm(1)=   8.041329  celldm(2)=   0.000000  celldm(3)=   0.000000
     celldm(4)=   0.000000  celldm(5)=   0.000000  celldm(6)=   0.000000

     crystal axes: (cart. coord. in units of alat)
               a(1) = (   1.000000   0.000000   0.000000 )
               a(2) = (   0.000000   1.730063   0.000000 )
               a(3) = (   0.000000   0.574384   1.631931 )

     reciprocal axes: (cart. coord. in units 2 pi/alat)
               b(1) = (  1.000000  0.000000  0.000000 )
               b(2) = (  0.000000  0.578014 -0.203441 )
               b(3) = (  0.000000  0.000000  0.612771 )

     PseudoPot. # 1 for In read from file:
     /home/pragov/projects/rrg-bengioy-ad/pragov/crystal_structure_design/SSSP/In.pbe-dn-rrkjus_psl.0.2.2.UPF
     MD5 check sum: 25e7c42c3b55b68f4bf926be2e7201a4
     Pseudo is Ultrasoft + core correction, Zval = 13.0
     Generated using "atomic" code by A. Dal Corso  v.5.0.99 svn rev. 10869
     Using radial grid of 1241 points,  6 beta functions with:
                l(1) =   0
                l(2) =   0
                l(3) =   1
                l(4) =   1
                l(5) =   2
                l(6) =   2
     Q(r) pseudized with 0 coefficients

     PseudoPot. # 2 for As read from file:
     /home/pragov/projects/rrg-bengioy-ad/pragov/crystal_structure_design/SSSP/As.pbe-n-rrkjus_psl.0.2.UPF
     MD5 check sum: 767315de957beeeb34f87d97bf945c8f
     Pseudo is Ultrasoft + core correction, Zval =  5.0
     Generated using "atomic" code by A. Dal Corso  v.5.0.99 svn rev. 10869
     Using radial grid of 1209 points,  4 beta functions with:
                l(1) =   0
                l(2) =   0
                l(3) =   1
                l(4) =   1
     Q(r) pseudized with 0 coefficients

     PseudoPot. # 3 for P  read from file:
     /home/pragov/projects/rrg-bengioy-ad/pragov/crystal_structure_design/SSSP/P.pbe-n-rrkjus_psl.1.0.0.UPF
     MD5 check sum: 8b930f418f0a4573dca56cd030ffe088
     Pseudo is Ultrasoft + core correction, Zval =  5.0
     Generated using "atomic" code by A. Dal Corso  v.5.1
     Using radial grid of 1147 points,  6 beta functions with:
                l(1) =   0
                l(2) =   0
                l(3) =   1
                l(4) =   1
                l(5) =   2
                l(6) =   2
     Q(r) pseudized with 0 coefficients

     atomic species   valence    mass     pseudopotential
        In            13.00   114.81800     In( 1.00)
        As             5.00    74.92159     As( 1.00)
        P              5.00    30.97376     P ( 1.00)

      2 Sym. Ops. (no inversion) found

                                    s                        frac. trans.

      isym =  1     identity

 cryst.   s( 1) = (     1          0          0      )
                  (     0          1          0      )
                  (     0          0          1      )

 cart.    s( 1) = (  1.0000000  0.0000000  0.0000000 )
                  (  0.0000000  1.0000000 -0.0000000 )
                  (  0.0000000  0.0000000  1.0000000 )

      isym =  2     inv. 180 deg rotation - cart. axis [1,0,0]

 cryst.   s( 2) = (    -1          0          0      )
                  (     0          1          0      )
                  (     0          0          1      )

 cart.    s( 2) = ( -1.0000000  0.0000000  0.0000000 )
                  (  0.0000000  1.0000000 -0.0000000 )
                  (  0.0000000  0.0000000  1.0000000 )

   Cartesian axes

     site n.     atom                  positions (alat units)
         1           In  tau(   1) = (   0.0000000   2.3041959   1.6317535  )
         2           In  tau(   2) = (   0.5000000   2.0069537   0.8199509  )
         3           In  tau(   3) = (   0.5000000   1.4397547   1.6208914  )
         4           In  tau(   4) = (   0.0000000   1.1628816   0.8235134  )
         5           As  tau(   5) = (   0.5000000   0.8637298   0.6116642  )
         6           P   tau(   6) = (   0.0000000   1.1511288   1.4281586  )
         7           P   tau(   7) = (   0.0000000   1.7293286   0.6116838  )
         8           P   tau(   8) = (   0.5000000   2.0164833   1.4280052  )

   Crystallographic axes

     site n.     atom                  positions (cryst. coord.)
         1           In  tau(   1) = (  0.0000000  0.9998910  0.9998910  )
         2           In  tau(   2) = (  0.5000000  0.9932350  0.5024420  )
         3           In  tau(   3) = (  0.5000000  0.5024420  0.9932350  )
         4           In  tau(   4) = (  0.0000000  0.5046250  0.5046250  )
         5           As  tau(   5) = (  0.5000000  0.3748100  0.3748100  )
         6           P   tau(   6) = (  0.0000000  0.3748220  0.8751340  )
         7           P   tau(   7) = (  0.0000000  0.8751340  0.3748220  )
         8           P   tau(   8) = (  0.5000000  0.8750400  0.8750400  )

     number of k points=    10
                       cart. coord. in units 2pi/alat
        k(    1) = (   0.0000000   0.0000000   0.0000000), wk =   0.0740741
        k(    2) = (   0.0000000   0.0000000   0.2042570), wk =   0.1481481
        k(    3) = (   0.0000000   0.1926712  -0.0678137), wk =   0.1481481
        k(    4) = (   0.0000000   0.1926712   0.1364432), wk =   0.1481481
        k(    5) = (   0.0000000   0.1926712  -0.2720707), wk =   0.1481481
        k(    6) = (   0.3333333   0.0000000   0.0000000), wk =   0.1481481
        k(    7) = (   0.3333333   0.0000000   0.2042570), wk =   0.2962963
        k(    8) = (   0.3333333   0.1926712  -0.0678137), wk =   0.2962963
        k(    9) = (   0.3333333   0.1926712   0.1364432), wk =   0.2962963
        k(   10) = (   0.3333333   0.1926712  -0.2720707), wk =   0.2962963

                       cryst. coord.
        k(    1) = (   0.0000000   0.0000000   0.0000000), wk =   0.0740741
        k(    2) = (   0.0000000   0.0000000   0.3333333), wk =   0.1481481
        k(    3) = (   0.0000000   0.3333333  -0.0000000), wk =   0.1481481
        k(    4) = (   0.0000000   0.3333333   0.3333333), wk =   0.1481481
        k(    5) = (   0.0000000   0.3333333  -0.3333333), wk =   0.1481481
        k(    6) = (   0.3333333   0.0000000   0.0000000), wk =   0.1481481
        k(    7) = (   0.3333333   0.0000000   0.3333333), wk =   0.2962963
        k(    8) = (   0.3333333   0.3333333  -0.0000000), wk =   0.2962963
        k(    9) = (   0.3333333   0.3333333   0.3333333), wk =   0.2962963
        k(   10) = (   0.3333333   0.3333333  -0.3333333), wk =   0.2962963

     Initial potential from superposition of free atoms

     starting charge      71.9844, renormalised to      72.0000
     Starting wfcs are   52 randomized atomic wfcs +   12 random wfcs

     Self-consistent Calculation

     iteration #  1     ecut=    30.00 Ry     beta= 0.70
     Davidson diagonalization with overlap

     ethr =  1.00E-02,  avg # of iterations =  7.8

     Threshold (ethr) on eigenvalues was too large:
     Diagonalizing with lowered threshold

     Davidson diagonalization with overlap

[...]

     total energy              =    -639.63696118 Ry
     estimated scf accuracy    <       0.40516778 Ry

[...]

     total energy              =    -639.77909188 Ry
     estimated scf accuracy    <       0.00002907 Ry

     iteration #  7     ecut=    30.00 Ry     beta= 0.70
     Davidson diagonalization with overlap

     ethr =  4.04E-08,  avg # of iterations =  2.0

     End of self-consistent calculation

          k = 0.0000 0.0000 0.0000 (  4015 PWs)   bands (ev):

    -8.1399  -8.0900  -8.0804  -8.0102  -7.9957  -7.9865  -7.9531  -7.9487
    -7.9459  -7.9431  -7.9129  -7.8993  -7.8916  -7.8814  -7.8794  -7.8536
    -7.8453  -7.8426  -7.8108  -7.7901  -5.1016  -3.6908  -3.5015  -2.9953
     0.5777   0.6581   0.7371   3.9972   4.0016   5.1561   5.2615   5.2633
     5.3736   6.2081   6.2195   6.2537   6.3490   7.3836   7.3971   7.9589
     8.3699  10.1697  10.1851  10.1898  10.8671  10.8990  10.9619  11.0457
    13.0039  13.2512  14.2488  14.9777  15.2498  15.2761  15.3738  15.4221
    15.5738  15.6386  16.5799  16.5980  16.7445  16.9316  17.1430  17.1635

     occupation numbers
     1.0000   1.0000   1.0000   1.0000   1.0000   1.0000   1.0000   1.0000
     1.0000   1.0000   1.0000   1.0000   1.0000   1.0000   1.0000   1.0000
     1.0000   1.0000   1.0000   1.0000   1.0000   1.0000   1.0000   1.0000
     1.0000   1.0000   1.0000   1.0000   1.0000   1.0000   1.0000   1.0000
     1.0000   1.0000   1.0000   1.0000   0.0000   0.0000   0.0000   0.0000
     0.0000   0.0000   0.0000   0.0000   0.0000   0.0000   0.0000   0.0000
     0.0000   0.0000   0.0000   0.0000   0.0000   0.0000   0.0000   0.0000
     0.0000   0.0000   0.0000   0.0000   0.0000   0.0000   0.0000   0.0000

[...]

          k = 0.3333 0.1927-0.2721 (  4078 PWs)   bands (ev):

    -8.1265  -8.1118  -8.0755  -8.0673  -7.9770  -7.9660  -7.9561  -7.9510
    -7.9261  -7.9217  -7.9187  -7.9015  -7.8851  -7.8807  -7.8688  -7.8598
    -7.8581  -7.8496  -7.8029  -7.8024  -3.8989  -3.6384  -3.5777  -2.9557
     0.6978   1.1924   1.2675   1.7438   3.5514   3.5991   3.9070   4.0371
     4.4014   4.4121   5.2282   5.2851   8.2156   8.5808   8.6370   8.9043
     9.4503   9.6327  10.7014  10.8620  11.3995  11.5017  12.2449  12.3883
    12.7058  13.0411  13.5373  13.5968  13.6657  14.7346  14.8657  15.7401
    15.8341  16.0159  16.6155  16.9857  17.0940  17.2944  17.5808  18.0126

     occupation numbers
     1.0000   1.0000   1.0000   1.0000   1.0000   1.0000   1.0000   1.0000
     1.0000   1.0000   1.0000   1.0000   1.0000   1.0000   1.0000   1.0000
     1.0000   1.0000   1.0000   1.0000   1.0000   1.0000   1.0000   1.0000
     1.0000   1.0000   1.0000   1.0000   1.0000   1.0000   1.0000   1.0000
     1.0000   1.0000   1.0000   1.0000   0.0000   0.0000   0.0000   0.0000
     0.0000   0.0000   0.0000   0.0000   0.0000   0.0000   0.0000   0.0000
     0.0000   0.0000   0.0000   0.0000   0.0000   0.0000   0.0000   0.0000
     0.0000   0.0000   0.0000   0.0000   0.0000   0.0000   0.0000   0.0000

     highest occupied, lowest unoccupied level (ev):     6.2537    6.3490

!    total energy              =    -639.77909884 Ry
     estimated scf accuracy    <       0.00000088 Ry

     The total energy is the sum of the following terms:
     one-electron contribution =    -255.47663536 Ry
     hartree contribution      =     178.19893603 Ry
     xc contribution           =    -212.90959221 Ry
     ewald contribution        =    -349.59180730 Ry

     convergence has been achieved in   7 iterations

     Writing all to output data dir bands_nm/myprefix.save/

     General routines

     Parallel routines

   This run was terminated on:  19:32:38   9Jul2023

   JOB DONE.