     Program PWSCF v.7.1 starts on 15Jul2023 at 19: 0:52

     Reading input from espresso_21436.pwi
Warning: card &CELL ignored
Warning: card / ignored

     Current dimensions of program PWSCF are:
     Max number of different atomic species (ntypx) = 10
     Max number of k-points (npk) =  40000
     Max angular momentum in pseudopotentials (lmaxx) =  4
     file La.paw.z_11.atompaw.wentzcovitch.v1.2.upf: wavefunction(s)  6S 0P 5D 0D 4F 0F renormalized
     file O.pbe-n-kjpaw_psl.0.1.UPF: wavefunction(s)  2P renormalized
     Message from routine setup:
     using ibrav=0 with symmetry is DISCOURAGED, use correct ibrav instead

     K-points division:     npool     =       2
     R & G space division:  proc/nbgrp/npool/nimage =       4
     Subspace diagonalization in iterative solution of the eigenvalue problem:
     one sub-group per band group will be used

     Using Slab Decomposition

     bravais-lattice index     =            0
     lattice parameter (alat)  =      10.5140  a.u.
     unit-cell volume          =    1689.0804 (a.u.)^3
     number of atoms/cell      =           20
     number of atomic types    =            4
     number of electrons       =       160.00
     number of Kohn-Sham states=          256
     kinetic-energy cutoff     =      30.0000  Ry
     charge density cutoff     =     240.0000  Ry
     scf convergence threshold =      1.0E-06
     mixing beta               =       0.7000
     number of iterations used =            8  plain     mixing
     Exchange-correlation= SLA  PW   PBX  PBC
                           (   1   4   3   4   0   0   0)

     celldm(1)=  10.513996  celldm(2)=   0.000000  celldm(3)=   0.000000
     celldm(4)=   0.000000  celldm(5)=   0.000000  celldm(6)=   0.000000

     crystal axes: (cart. coord. in units of alat)
               a(1) = (   1.000000   0.000000   0.000000 )
               a(2) = (   0.000000   1.002052   0.000000 )
               a(3) = (   0.000000   0.002253   1.450296 )

     reciprocal axes: (cart. coord. in units 2 pi/alat)
               b(1) = (  1.000000  0.000000  0.000000 )
               b(2) = (  0.000000  0.997952 -0.001550 )
               b(3) = (  0.000000  0.000000  0.689514 )

     PseudoPot. # 1 for La read from file:
     /lustre07/scratch/pragov/crystal_structure_design/utils/SSSP/La.paw.z_11.atompaw.wentzcovitch.v1.2.upf
     MD5 check sum: 754494e15ae71f30e5b5f678af019e01
     Pseudo is Projector augmented-wave + core cor, Zval = 11.0
     Generated using ATOMPAW code
     Shape of augmentation charge: BESSEL
     Using radial grid of 1101 points,  8 beta functions with:
                l(1) =   0
                l(2) =   0
                l(3) =   1
                l(4) =   1
                l(5) =   2
                l(6) =   2
                l(7) =   3
                l(8) =   3
     Q(r) pseudized with 0 coefficients

     PseudoPot. # 2 for Ti read from file:
     /lustre07/scratch/pragov/crystal_structure_design/utils/SSSP/ti_pbe_v1.4.uspp.F.UPF
     MD5 check sum: 88a00a6731bd790ddea75d31a80cb452
     Pseudo is Ultrasoft + core correction, Zval = 12.0
     Generated by new atomic code, or converted to UPF format
     Using radial grid of  851 points,  6 beta functions with:
                l(1) =   0
                l(2) =   0
                l(3) =   1
                l(4) =   1
                l(5) =   2
                l(6) =   2
     Q(r) pseudized with  6 coefficients,  rinner =    1.000   1.000   1.000
                                                       1.000   1.000

     PseudoPot. # 3 for N  read from file:
     /lustre07/scratch/pragov/crystal_structure_design/utils/SSSP/N.pbe-n-radius_5.UPF
     MD5 check sum: 16739722b17309cd8fe442a2ace49922
     Pseudo is Ultrasoft + core correction, Zval =  5.0
     Generated using "atomic" code by A. Dal Corso  v.5.1
     Using radial grid of 1085 points,  4 beta functions with:
                l(1) =   0
                l(2) =   0
                l(3) =   1
                l(4) =   1
     Q(r) pseudized with 0 coefficients

     PseudoPot. # 4 for O  read from file:
     /lustre07/scratch/pragov/crystal_structure_design/utils/SSSP/O.pbe-n-kjpaw_psl.0.1.UPF
     MD5 check sum: 0234752ac141de4415c5fc33072bef88
     Pseudo is Projector augmented-wave + core cor, Zval =  6.0
     Generated using "atomic" code by A. Dal Corso  v.5.0.99 svn rev. 10869
     Shape of augmentation charge: BESSEL
     Using radial grid of 1095 points,  4 beta functions with:
                l(1) =   0
                l(2) =   0
                l(3) =   1
                l(4) =   1
     Q(r) pseudized with 0 coefficients

     atomic species   valence    mass     pseudopotential
        La            11.00   138.90547     La( 1.00)
        Ti            12.00    47.86700     Ti( 1.00)
        N              5.00    14.00700     N ( 1.00)
        O              6.00    15.99900     O ( 1.00)

      2 Sym. Ops. (no inversion) found ( 1 have fractional translation)

                                    s                        frac. trans.

      isym =  1     identity

 cryst.   s( 1) = (     1          0          0      )
                  (     0          1          0      )
                  (     0          0          1      )

 cart.    s( 1) = (  1.0000000  0.0000000  0.0000000 )
                  (  0.0000000  1.0000000  0.0000000 )
                  (  0.0000000  0.0000000  1.0000000 )

      isym =  2     180 deg rotation - cart. axis [1,0,0]

 cryst.   s( 2) = (     1          0          0      )    f =( -0.5000000 )
                  (     0         -1          0      )       (  0.0000000 )
                  (     0          0         -1      )       (  0.0000000 )

 cart.    s( 2) = (  1.0000000  0.0000000  0.0000000 )    f =( -0.5000000 )
                  (  0.0000000 -1.0000000  0.0000000 )       (  0.0000000 )
                  (  0.0000000  0.0000000 -1.0000000 )       (  0.0000000 )

   Cartesian axes

     site n.     atom                  positions (alat units)
         1           La  tau(   1) = (   0.0064800   0.7505983   0.3510093  )
         2           La  tau(   2) = (   0.0044320   0.7586391   1.0988501  )
         3           La  tau(   3) = (   0.5064800   0.2537067   1.0992867  )
         4           La  tau(   4) = (   0.5044320   0.2456659   0.3514459  )
         5           Ti  tau(   5) = (   0.0073460   0.2651256   0.0036881  )
         6           Ti  tau(   6) = (   0.0036700   0.2489874   0.7034298  )
         7           Ti  tau(   7) = (   0.5073460   0.7391793   1.4466079  )
         8           Ti  tau(   8) = (   0.5036700   0.7553176   0.7468662  )
         9           N   tau(   9) = (   0.7962940   0.5545238   1.4502249  )
        10           N   tau(  10) = (   0.0007480   0.2426323   0.3673382  )
        11           N   tau(  11) = (   0.2962940   0.4497812   0.0000711  )
        12           N   tau(  12) = (   0.5007480   0.7616727   1.0829578  )
        13           O   tau(  13) = (   0.6965000   0.4473501   0.7237702  )
        14           O   tau(  14) = (   0.6794400   0.0625160   1.4500465  )
        15           O   tau(  15) = (   0.8092040   0.9443345   0.7229073  )
        16           O   tau(  16) = (   0.9959440   0.2331941   1.0865966  )
        17           O   tau(  17) = (   0.1965000   0.5569549   0.7265258  )
        18           O   tau(  18) = (   0.1794400   0.9417890   0.0002495  )
        19           O   tau(  19) = (   0.3092040   0.0599705   0.7273887  )
        20           O   tau(  20) = (   0.4959440   0.7711109   0.3636994  )

   Crystallographic axes

     site n.     atom                  positions (cryst. coord.)
         1           La  tau(   1) = (  0.0064800  0.7485170  0.2420260  )
         2           La  tau(   2) = (  0.0044320  0.7553820  0.7576730  )
         3           La  tau(   3) = (  0.5064800  0.2514830  0.7579740  )
         4           La  tau(   4) = (  0.5044320  0.2446180  0.2423270  )
         5           Ti  tau(   5) = (  0.0073460  0.2645770  0.0025430  )
         6           Ti  tau(   6) = (  0.0036700  0.2473870  0.4850250  )
         7           Ti  tau(   7) = (  0.5073460  0.7354230  0.9974570  )
         8           Ti  tau(   8) = (  0.5036700  0.7526130  0.5149750  )
         9           N   tau(   9) = (  0.7962940  0.5511400  0.9999510  )
        10           N   tau(  10) = (  0.0007480  0.2415660  0.2532850  )
        11           N   tau(  11) = (  0.2962940  0.4488600  0.0000490  )
        12           N   tau(  12) = (  0.5007480  0.7584340  0.7467150  )
        13           O   tau(  13) = (  0.6965000  0.4453120  0.4990500  )
        14           O   tau(  14) = (  0.6794400  0.0601400  0.9998280  )
        15           O   tau(  15) = (  0.8092040  0.9412800  0.4984550  )
        16           O   tau(  16) = (  0.9959440  0.2310320  0.7492240  )
        17           O   tau(  17) = (  0.1965000  0.5546880  0.5009500  )
        18           O   tau(  18) = (  0.1794400  0.9398600  0.0001720  )
        19           O   tau(  19) = (  0.3092040  0.0587200  0.5015450  )
        20           O   tau(  20) = (  0.4959440  0.7689680  0.2507760  )

     number of k points=    10
                       cart. coord. in units 2pi/alat
        k(    1) = (   0.0000000   0.0000000   0.0000000), wk =   0.0740741
        k(    2) = (   0.0000000   0.0000000   0.2298381), wk =   0.1481481
        k(    3) = (   0.0000000   0.3326507  -0.0005168), wk =   0.1481481
        k(    4) = (   0.0000000   0.3326507   0.2293214), wk =   0.1481481
        k(    5) = (   0.0000000   0.3326507  -0.2303549), wk =   0.1481481
        k(    6) = (   0.3333333   0.0000000   0.0000000), wk =   0.1481481
        k(    7) = (   0.3333333   0.0000000   0.2298381), wk =   0.2962963
        k(    8) = (   0.3333333   0.3326507  -0.0005168), wk =   0.2962963
        k(    9) = (   0.3333333   0.3326507   0.2293214), wk =   0.2962963
        k(   10) = (   0.3333333   0.3326507  -0.2303549), wk =   0.2962963

                       cryst. coord.
        k(    1) = (   0.0000000   0.0000000   0.0000000), wk =   0.0740741
        k(    2) = (   0.0000000   0.0000000   0.3333333), wk =   0.1481481
        k(    3) = (   0.0000000   0.3333333   0.0000000), wk =   0.1481481
        k(    4) = (   0.0000000   0.3333333   0.3333333), wk =   0.1481481
        k(    5) = (   0.0000000   0.3333333  -0.3333333), wk =   0.1481481
        k(    6) = (   0.3333333   0.0000000   0.0000000), wk =   0.1481481
        k(    7) = (   0.3333333   0.0000000   0.3333333), wk =   0.2962963
        k(    8) = (   0.3333333   0.3333333   0.0000000), wk =   0.2962963
        k(    9) = (   0.3333333   0.3333333   0.3333333), wk =   0.2962963
        k(   10) = (   0.3333333   0.3333333  -0.3333333), wk =   0.2962963

     Check: negative core charge=   -0.000012

     Initial potential from superposition of free atoms

     starting charge     155.9657, renormalised to     160.0000

     negative rho (up, down):  4.868E-03 0.000E+00
     Starting wfcs are  216 randomized atomic wfcs +   40 random wfcs
     Checking if some PAW data can be deallocated...

     Self-consistent Calculation

     iteration #  1     ecut=    30.00 Ry     beta= 0.70
     Davidson diagonalization with overlap

     ethr =  1.00E-02,  avg # of iterations =  6.4

     negative rho (up, down):  8.605E-03 0.000E+00

     total energy              =   -2724.08840516 Ry
     estimated scf accuracy    <       4.07616633 Ry

[...]

     c_bands:  1 eigenvalues not converged
     ethr =  4.43E-05,  avg # of iterations =  8.3

[...]

     total energy              =   -2726.26909287 Ry
     estimated scf accuracy    <       0.00001376 Ry

     iteration # 14     ecut=    30.00 Ry     beta= 0.70
     Davidson diagonalization with overlap

     ethr =  8.60E-09,  avg # of iterations =  1.1

     negative rho (up, down):  4.305E-03 0.000E+00

     End of self-consistent calculation

          k = 0.0000 0.0000 0.0000 (  4675 PWs)   bands (ev):

   -44.7061 -44.7033 -44.0530 -44.0503 -21.0680 -21.0661 -21.0123 -21.0104
   -20.9014 -20.8931 -20.3821 -20.3762 -20.3642 -20.3599 -20.3215 -20.3188
   -18.8584 -18.7889 -18.7614 -18.7149  -6.4526  -5.7228  -5.6697  -5.2996
    -5.2453  -5.1312  -4.9547  -4.8296  -3.0316  -2.9620  -2.9479  -2.9055
    -2.5261  -2.4259  -2.4232  -2.3366  -2.3149  -2.3037  -1.8902  -1.5647
    -0.1782  -0.1685   0.7198   0.7581   7.0264   7.1512   7.5484   7.6882
     8.1230   8.2503   8.2767   8.3536   8.3966   8.5047   8.5830   8.6046
     8.9407   8.9871   9.2331   9.4450   9.5690   9.6566   9.8137   9.8232
     9.9992  10.1278  10.2393  10.4608  10.4672  10.7009  10.7065  10.7194
    11.0701  11.0790  11.1956  11.4900  11.7619  11.8849  12.0489  12.3690
    13.6249  13.8236  13.8640  14.2110  14.7071  14.9370  15.1085  15.1453
    15.5943  15.6356  15.7340  15.8662  15.9386  15.9588  16.0195  16.0409
    16.0657  16.0688  16.1283  16.1615  16.1625  16.1823  16.2464  16.2565
    16.2720  16.2787  16.2996  16.3013  16.3198  16.3400  16.3441  16.3504
    16.3638  16.3643  16.3944  16.4086  16.4622  16.4748  16.5090  16.6536
    16.6554  16.6884  16.7310  16.8619  16.9463  17.0301  17.2484  17.3391
    17.5914  17.7301  17.7437  17.8403  18.2025  18.2383  18.2973  18.8898
    18.9423  18.9539  19.1092  19.3951  19.4403  19.4553  19.6499  19.7528
    19.8070  20.1266  20.1504  20.2124  20.3890  22.8993  23.5337  23.7409
    24.1787  24.3541  24.6000  26.1100  26.1264  26.2650  26.4001  26.5672
    26.9234  27.4477  27.5684  27.9699  28.1574  28.2175  28.3823  28.4116
    28.4742  28.8024  28.8114  28.9494  29.2658  29.4502  29.5454  29.7949
    29.9591  30.2700  30.3453  30.5581  30.6103  31.6933  31.8373  31.9132
    32.0798  32.1381  32.1743  32.2466  32.3247  32.4471  32.6573  32.7268
    33.0496  33.1246  33.6339  33.7521  33.7762  34.0488  34.0891  34.8269
    35.1099  35.5991  35.8178  36.0082  36.8106  37.2595  37.3625  37.6547
    38.0498  38.0676  38.7268  38.9214  39.0435  39.0852  39.2015  39.2819
    39.5921  39.6372  39.6420  39.7838  39.8365  39.8609  39.9806  39.9931
    40.1197  40.1662  40.2872  40.4031  40.5173  40.5995  41.0535  41.3112
    41.7777  41.9072  42.1401  42.3082  42.5172  42.5649  42.6088  42.6709
    42.8658  42.9935  43.0007  43.0038  43.1030  43.6615  44.0631  44.1718
    44.5440  44.7559  44.8346  44.8605  44.8998  44.9962  45.0564  45.1051

     occupation numbers
     1.0000   1.0000   1.0000   1.0000   1.0000   1.0000   1.0000   1.0000
     1.0000   1.0000   1.0000   1.0000   1.0000   1.0000   1.0000   1.0000
     1.0000   1.0000   1.0000   1.0000   1.0000   1.0000   1.0000   1.0000
     1.0000   1.0000   1.0000   1.0000   1.0000   1.0000   1.0000   1.0000
     1.0000   1.0000   1.0000   1.0000   1.0000   1.0000   1.0000   1.0000
     1.0000   1.0000   1.0000   1.0000   1.0000   1.0000   1.0000   1.0000
     1.0000   1.0000   1.0000   1.0000   1.0000   1.0000   1.0000   1.0000
     1.0000   1.0000   1.0000   1.0000   1.0000   1.0000   1.0000   1.0000
     1.0000   1.0000   1.0000   1.0000   1.0000   1.0000   1.0000   1.0000
     1.0000   1.0000   1.0000   1.0000   1.0000   1.0000   1.0000   1.0000
     0.0000   0.0000   0.0000   0.0000   0.0000   0.0000   0.0000   0.0000
     0.0000   0.0000   0.0000   0.0000   0.0000   0.0000   0.0000   0.0000
     0.0000   0.0000   0.0000   0.0000   0.0000   0.0000   0.0000   0.0000
     0.0000   0.0000   0.0000   0.0000   0.0000   0.0000   0.0000   0.0000
     0.0000   0.0000   0.0000   0.0000   0.0000   0.0000   0.0000   0.0000
     0.0000   0.0000   0.0000   0.0000   0.0000   0.0000   0.0000   0.0000
     0.0000   0.0000   0.0000   0.0000   0.0000   0.0000   0.0000   0.0000
     0.0000   0.0000   0.0000   0.0000   0.0000   0.0000   0.0000   0.0000
     0.0000   0.0000   0.0000   0.0000   0.0000   0.0000   0.0000   0.0000
     0.0000   0.0000   0.0000   0.0000   0.0000   0.0000   0.0000   0.0000
     0.0000   0.0000   0.0000   0.0000   0.0000   0.0000   0.0000   0.0000
     0.0000   0.0000   0.0000   0.0000   0.0000   0.0000   0.0000   0.0000
     0.0000   0.0000   0.0000   0.0000   0.0000   0.0000   0.0000   0.0000
     0.0000   0.0000   0.0000   0.0000   0.0000   0.0000   0.0000   0.0000
     0.0000   0.0000   0.0000   0.0000   0.0000   0.0000   0.0000   0.0000
     0.0000   0.0000   0.0000   0.0000   0.0000   0.0000   0.0000   0.0000
     0.0000   0.0000   0.0000   0.0000   0.0000   0.0000   0.0000   0.0000
     0.0000   0.0000   0.0000   0.0000   0.0000   0.0000   0.0000   0.0000
     0.0000   0.0000   0.0000   0.0000   0.0000   0.0000   0.0000   0.0000
     0.0000   0.0000   0.0000   0.0000   0.0000   0.0000   0.0000   0.0000
     0.0000   0.0000   0.0000   0.0000   0.0000   0.0000   0.0000   0.0000
     0.0000   0.0000   0.0000   0.0000   0.0000   0.0000   0.0000   0.0000

[...]

          k = 0.3333 0.3327-0.2304 (  4694 PWs)   bands (ev):

   -44.7051 -44.7044 -44.0521 -44.0513 -21.0718 -21.0581 -21.0236 -21.0097
   -20.8963 -20.8943 -20.3799 -20.3777 -20.3673 -20.3611 -20.3289 -20.3180
   -18.7988 -18.7799 -18.7700 -18.7540  -6.0359  -5.8964  -5.7169  -5.5942
    -5.4274  -5.3669  -5.0337  -5.0137  -3.2776  -3.2280  -2.7644  -2.6431
    -2.4547  -2.3871  -2.2645  -2.1962  -2.1346  -2.0811  -1.7972  -1.7295
     0.4757   0.5580   0.6945   0.7944   7.1894   7.3887   7.7019   7.7828
     7.8337   8.1064   8.1442   8.3765   8.4066   8.5362   8.5991   8.6966
     8.7283   8.8954   8.9693   9.1637   9.2769   9.3121   9.3518   9.4550
     9.6867   9.8247   9.9487  10.0204  10.0864  10.2062  10.3652  10.5634
    10.6132  10.8281  10.8947  11.0873  11.3028  11.5430  11.6967  11.8331
    14.2229  14.3923  14.6100  14.8156  14.9320  15.0185  15.1864  15.2546
    15.4056  15.5916  15.7080  15.7533  15.8522  15.9304  15.9457  15.9704
    16.1410  16.1457  16.1658  16.1744  16.2016  16.2216  16.2291  16.2462
    16.2694  16.2800  16.2865  16.2992  16.3080  16.3196  16.3335  16.3457
    16.3515  16.3744  16.3945  16.4119  16.4255  16.4434  16.4836  16.5106
    16.6032  16.9236  17.2185  17.3118  17.6724  17.7706  17.8412  18.0581
    18.2419  18.3686  18.4878  18.5605  18.6595  18.7269  18.9498  19.0245
    19.0415  19.2814  19.3173  19.4882  19.5555  19.5876  19.6919  19.7393
    19.8883  19.9323  20.0330  20.0998  21.5277  22.5520  23.2882  23.5326
    23.9955  24.3317  25.4789  25.6589  25.8112  26.0765  26.3893  26.5810
    26.7853  26.9989  27.2544  27.3365  27.5664  27.7382  27.9711  28.2393
    28.3336  28.4113  28.5246  28.6218  28.7234  28.9301  29.0671  29.2280
    29.7971  30.0028  30.1260  30.3695  30.6548  31.0642  31.2006  31.2273
    31.4597  31.8033  31.9870  32.2634  32.4606  32.6363  32.7638  33.0981
    33.1737  33.4381  33.7800  33.9358  34.6009  35.1290  35.2031  35.4505
    35.5372  35.7983  35.9470  36.2138  36.2790  36.5976  36.6780  36.8533
    37.0734  37.3509  37.5285  37.6742  37.7620  38.0277  38.3580  38.4965
    38.7193  39.1620  39.3380  39.3860  39.5503  39.6765  39.9075  40.1129
    40.2253  40.3937  40.5830  40.8012  41.3473  41.5167  41.7732  42.0899
    42.2012  42.3732  42.5821  42.6852  42.7612  42.8553  43.0143  43.1877
    43.4804  43.5310  43.7495  44.1253  44.3907  44.4399  44.4842  44.5217
    44.6085  44.8037  44.8915  45.0899  45.2312  45.3970  45.5151  45.6949

     occupation numbers
     1.0000   1.0000   1.0000   1.0000   1.0000   1.0000   1.0000   1.0000
     1.0000   1.0000   1.0000   1.0000   1.0000   1.0000   1.0000   1.0000
     1.0000   1.0000   1.0000   1.0000   1.0000   1.0000   1.0000   1.0000
     1.0000   1.0000   1.0000   1.0000   1.0000   1.0000   1.0000   1.0000
     1.0000   1.0000   1.0000   1.0000   1.0000   1.0000   1.0000   1.0000
     1.0000   1.0000   1.0000   1.0000   1.0000   1.0000   1.0000   1.0000
     1.0000   1.0000   1.0000   1.0000   1.0000   1.0000   1.0000   1.0000
     1.0000   1.0000   1.0000   1.0000   1.0000   1.0000   1.0000   1.0000
     1.0000   1.0000   1.0000   1.0000   1.0000   1.0000   1.0000   1.0000
     1.0000   1.0000   1.0000   1.0000   1.0000   1.0000   1.0000   1.0000
     0.0000   0.0000   0.0000   0.0000   0.0000   0.0000   0.0000   0.0000
     0.0000   0.0000   0.0000   0.0000   0.0000   0.0000   0.0000   0.0000
     0.0000   0.0000   0.0000   0.0000   0.0000   0.0000   0.0000   0.0000
     0.0000   0.0000   0.0000   0.0000   0.0000   0.0000   0.0000   0.0000
     0.0000   0.0000   0.0000   0.0000   0.0000   0.0000   0.0000   0.0000
     0.0000   0.0000   0.0000   0.0000   0.0000   0.0000   0.0000   0.0000
     0.0000   0.0000   0.0000   0.0000   0.0000   0.0000   0.0000   0.0000
     0.0000   0.0000   0.0000   0.0000   0.0000   0.0000   0.0000   0.0000
     0.0000   0.0000   0.0000   0.0000   0.0000   0.0000   0.0000   0.0000
     0.0000   0.0000   0.0000   0.0000   0.0000   0.0000   0.0000   0.0000
     0.0000   0.0000   0.0000   0.0000   0.0000   0.0000   0.0000   0.0000
     0.0000   0.0000   0.0000   0.0000   0.0000   0.0000   0.0000   0.0000
     0.0000   0.0000   0.0000   0.0000   0.0000   0.0000   0.0000   0.0000
     0.0000   0.0000   0.0000   0.0000   0.0000   0.0000   0.0000   0.0000
     0.0000   0.0000   0.0000   0.0000   0.0000   0.0000   0.0000   0.0000
     0.0000   0.0000   0.0000   0.0000   0.0000   0.0000   0.0000   0.0000
     0.0000   0.0000   0.0000   0.0000   0.0000   0.0000   0.0000   0.0000
     0.0000   0.0000   0.0000   0.0000   0.0000   0.0000   0.0000   0.0000
     0.0000   0.0000   0.0000   0.0000   0.0000   0.0000   0.0000   0.0000
     0.0000   0.0000   0.0000   0.0000   0.0000   0.0000   0.0000   0.0000
     0.0000   0.0000   0.0000   0.0000   0.0000   0.0000   0.0000   0.0000
     0.0000   0.0000   0.0000   0.0000   0.0000   0.0000   0.0000   0.0000

     highest occupied, lowest unoccupied level (ev):    12.3690   13.6232

!    total energy              =   -2726.26909481 Ry
     estimated scf accuracy    <       0.00000081 Ry

     The total energy is the sum of the following terms:
     one-electron contribution =    -220.21216072 Ry
     hartree contribution      =     213.39759928 Ry
     xc contribution           =    -206.80134824 Ry
     ewald contribution        =    -862.01860362 Ry
     one-center paw contrib.   =   -1650.63458152 Ry
      -> PAW hartree energy AE =     103.46351240 Ry
      -> PAW hartree energy PS =    -103.46394789 Ry
      -> PAW xc energy AE      =   -1215.99996989 Ry
      -> PAW xc energy PS      =      35.15792551 Ry
      -> total E_H with PAW    =     213.39716379 Ry
      -> total E_XC with PAW   =   -1387.64339262 Ry

     convergence has been achieved in  14 iterations

     Writing all to output data dir bands_nm/myprefix.save/

     General routines

     Parallel routines

     PAW routines

   This run was terminated on:  19: 2: 3  15Jul2023

   JOB DONE.