     Program PWSCF v.7.1 starts on 15Jul2023 at 17:49:42

     Reading input from espresso_20510.pwi
Warning: card &CELL ignored
Warning: card / ignored

     Current dimensions of program PWSCF are:
     Max number of different atomic species (ntypx) = 10
     Max number of k-points (npk) =  40000
     Max angular momentum in pseudopotentials (lmaxx) =  4
     file O.pbe-n-kjpaw_psl.0.1.UPF: wavefunction(s)  2P renormalized
     Message from routine setup:
     using ibrav=0 with symmetry is DISCOURAGED, use correct ibrav instead

     K-points division:     npool     =       2
     R & G space division:  proc/nbgrp/npool/nimage =       4
     Subspace diagonalization in iterative solution of the eigenvalue problem:
     one sub-group per band group will be used

     Using Slab Decomposition

     bravais-lattice index     =            0
     lattice parameter (alat)  =      13.1194  a.u.
     unit-cell volume          =    1596.7074 (a.u.)^3
     number of atoms/cell      =           16
     number of atomic types    =            3
     number of electrons       =       170.00
     number of Kohn-Sham states=          256
     kinetic-energy cutoff     =      30.0000  Ry
     charge density cutoff     =     240.0000  Ry
     scf convergence threshold =      1.0E-06
     mixing beta               =       0.7000
     number of iterations used =            8  plain     mixing
     Exchange-correlation= SLA  PW   PBX  PBC
                           (   1   4   3   4   0   0   0)

     celldm(1)=  13.119384  celldm(2)=   0.000000  celldm(3)=   0.000000
     celldm(4)=   0.000000  celldm(5)=   0.000000  celldm(6)=   0.000000

     crystal axes: (cart. coord. in units of alat)
               a(1) = (   1.000000   0.000000   0.000000 )
               a(2) = (   0.500000   0.866025   0.000000 )
               a(3) = (   0.500000   0.288675   0.816497 )

     reciprocal axes: (cart. coord. in units 2 pi/alat)
               b(1) = (  1.000000 -0.577350 -0.408248 )
               b(2) = (  0.000000  1.154701 -0.408248 )
               b(3) = (  0.000000  0.000000  1.224745 )

     PseudoPot. # 1 for Tl read from file:
     /lustre07/scratch/pragov/crystal_structure_design/utils/SSSP/Tl_pbe_v1.2.uspp.F.UPF
     MD5 check sum: b76cf1f7e72655a2b2c53cf6385d7059
     Pseudo is Ultrasoft + core correction, Zval = 13.0
     Generated by new atomic code, or converted to UPF format
     Using radial grid of  899 points,  6 beta functions with:
                l(1) =   0
                l(2) =   0
                l(3) =   1
                l(4) =   1
                l(5) =   2
                l(6) =   2
     Q(r) pseudized with  6 coefficients,  rinner =    1.100   1.100   1.100
                                                       1.100   1.100

     PseudoPot. # 2 for Pt read from file:
     /lustre07/scratch/pragov/crystal_structure_design/utils/SSSP/pt_pbe_v1.4.uspp.F.UPF
     MD5 check sum: f09d6de1a584b5a045c4fc126da2d0c4
     Pseudo is Ultrasoft + core correction, Zval = 16.0
     Generated by new atomic code, or converted to UPF format
     Using radial grid of  985 points,  6 beta functions with:
                l(1) =   0
                l(2) =   0
                l(3) =   1
                l(4) =   1
                l(5) =   2
                l(6) =   2
     Q(r) pseudized with  8 coefficients,  rinner =    1.300   1.300   1.300
                                                       1.300   1.300

     PseudoPot. # 3 for O  read from file:
     /lustre07/scratch/pragov/crystal_structure_design/utils/SSSP/O.pbe-n-kjpaw_psl.0.1.UPF
     MD5 check sum: 0234752ac141de4415c5fc33072bef88
     Pseudo is Projector augmented-wave + core cor, Zval =  6.0
     Generated using "atomic" code by A. Dal Corso  v.5.0.99 svn rev. 10869
     Shape of augmentation charge: BESSEL
     Using radial grid of 1095 points,  4 beta functions with:
                l(1) =   0
                l(2) =   0
                l(3) =   1
                l(4) =   1
     Q(r) pseudized with 0 coefficients

     atomic species   valence    mass     pseudopotential
        Tl            13.00   204.38000     Tl( 1.00)
        Pt            16.00   195.08400     Pt( 1.00)
        O              6.00    15.99900     O ( 1.00)

     12 Sym. Ops., with inversion, found

                                    s                        frac. trans.

      isym =  1     identity

 cryst.   s( 1) = (     1          0          0      )
                  (     0          1          0      )
                  (     0          0          1      )

 cart.    s( 1) = (  1.0000000  0.0000000  0.0000000 )
                  (  0.0000000  1.0000000  0.0000000 )
                  (  0.0000000  0.0000000  1.0000000 )

      isym =  2     180 deg rotation - cart. axis [1,0,0]

[...]

      isym =  3     120 deg rotation - cryst. axis [0,0,1]

[...]

      isym =  6     180 deg rotation - cryst. axis [1,1,0]

[...]

      isym =  7     inversion

[...]

      isym =  8     inv. 180 deg rotation - cart. axis [1,0,0]

[...]

      isym =  9     inv. 120 deg rotation - cryst. axis [0,0,1]

 cryst.   s( 9) = (     1         -1          0      )
                  (     1          0          0      )
                  (     1          0         -1      )

 cart.    s( 9) = (  0.5000000  0.8660254 -0.0000000 )
                  ( -0.8660254  0.5000000 -0.0000000 )
                  (  0.0000000  0.0000000 -1.0000000 )

[...]

 cryst.   s(10) = (     0          1          0      )
                  (    -1          1          0      )
                  (     0          1         -1      )

 cart.    s(10) = (  0.5000000 -0.8660254  0.0000000 )
                  (  0.8660254  0.5000000 -0.0000000 )
                  (  0.0000000  0.0000000 -1.0000000 )

[...]

      isym = 12     inv. 180 deg rotation - cryst. axis [1,1,0]

 cryst.   s(12) = (     1         -1          0      )
                  (     0         -1          0      )
                  (     0         -1          1      )

 cart.    s(12) = (  0.5000000 -0.8660254  0.0000000 )
                  ( -0.8660254 -0.5000000  0.0000000 )
                  (  0.0000000  0.0000000  1.0000000 )

   Cartesian axes

     site n.     atom                  positions (alat units)
         1           Tl  tau(   1) = (   1.0000000   0.5773503   0.4082483  )
         2           Tl  tau(   2) = (   0.0000000   0.0000000   0.0000000  )
         3           Pt  tau(   3) = (   0.5000000   0.0000000   0.0000000  )
         4           Pt  tau(   4) = (   1.5000000   0.5773503   0.4082483  )
         5           Pt  tau(   5) = (   0.2500000   0.4330127   0.0000000  )
         6           Pt  tau(   6) = (   0.7500000   0.1443376   0.4082483  )
         7           Pt  tau(   7) = (   0.2500000   0.1443376   0.4082483  )
         8           Pt  tau(   8) = (   0.7500000   0.4330127   0.0000000  )
         9           O   tau(   9) = (   0.2848940   0.1644836   0.1163075  )
        10           O   tau(  10) = (   1.7151060   0.9902169   0.7001891  )
        11           O   tau(  11) = (   0.5000000   0.2886751   0.4675741  )
        12           O   tau(  12) = (   0.5000000   0.5370581   0.1163075  )
        13           O   tau(  13) = (   1.5000000   0.8660254   0.3489225  )
        14           O   tau(  14) = (   1.5000000   0.6176424   0.7001891  )
        15           O   tau(  15) = (   0.7151060   0.1644836   0.1163075  )
        16           O   tau(  16) = (   1.2848940   0.9902169   0.7001891  )

   Crystallographic axes

     site n.     atom                  positions (cryst. coord.)
         1           Tl  tau(   1) = (  0.5000000  0.5000000  0.5000000  )
         2           Tl  tau(   2) = (  0.0000000  0.0000000  0.0000000  )
         3           Pt  tau(   3) = (  0.5000000  0.0000000  0.0000000  )
         4           Pt  tau(   4) = (  1.0000000  0.5000000  0.5000000  )
         5           Pt  tau(   5) = (  0.0000000  0.5000000  0.0000000  )
         6           Pt  tau(   6) = (  0.5000000 -0.0000000  0.5000000  )
         7           Pt  tau(   7) = ( -0.0000000 -0.0000000  0.5000000  )
         8           Pt  tau(   8) = (  0.5000000  0.5000000  0.0000000  )
         9           O   tau(   9) = (  0.1424470  0.1424470  0.1424470  )
        10           O   tau(  10) = (  0.8575530  0.8575530  0.8575530  )
        11           O   tau(  11) = (  0.1424470  0.1424470  0.5726590  )
        12           O   tau(  12) = (  0.1424470  0.5726590  0.1424470  )
        13           O   tau(  13) = (  0.8575530  0.8575530  0.4273410  )
        14           O   tau(  14) = (  0.8575530  0.4273410  0.8575530  )
        15           O   tau(  15) = (  0.5726590  0.1424470  0.1424470  )
        16           O   tau(  16) = (  0.4273410  0.8575530  0.8575530  )

     number of k points=     6
                       cart. coord. in units 2pi/alat
        k(    1) = (   0.0000000   0.0000000   0.0000000), wk =   0.0740741
        k(    2) = (   0.0000000   0.0000000   0.4082483), wk =   0.1481481
        k(    3) = (   0.0000000   0.3849002  -0.1360828), wk =   0.4444444
        k(    4) = (   0.0000000   0.3849002   0.2721655), wk =   0.4444444
        k(    5) = (   0.0000000   0.3849002  -0.5443311), wk =   0.4444444
        k(    6) = (   0.3333333  -0.5773503   0.0000000), wk =   0.4444444

                       cryst. coord.
        k(    1) = (   0.0000000   0.0000000   0.0000000), wk =   0.0740741
        k(    2) = (   0.0000000   0.0000000   0.3333333), wk =   0.1481481
        k(    3) = (   0.0000000   0.3333333   0.0000000), wk =   0.4444444
        k(    4) = (   0.0000000   0.3333333   0.3333333), wk =   0.4444444
        k(    5) = (   0.0000000   0.3333333  -0.3333333), wk =   0.4444444
        k(    6) = (   0.3333333  -0.3333333   0.0000000), wk =   0.4444444

     Check: negative core charge=   -0.000008

     Initial potential from superposition of free atoms

     starting charge     166.9902, renormalised to     170.0000

     negative rho (up, down):  1.239E+00 0.000E+00
     Starting wfcs are  122 randomized atomic wfcs +  134 random wfcs
     Checking if some PAW data can be deallocated...

     Self-consistent Calculation

     iteration #  1     ecut=    30.00 Ry     beta= 0.70
     Davidson diagonalization with overlap

     ethr =  1.00E-02,  avg # of iterations = 10.7

     negative rho (up, down):  1.124E+00 0.000E+00

     total energy              =   -1880.60069413 Ry
     estimated scf accuracy    <      10.11046299 Ry

[...]

     c_bands:  1 eigenvalues not converged
     ethr =  1.51E-05,  avg # of iterations = 14.7

[...]

     total energy              =   -1886.37990032 Ry
     estimated scf accuracy    <       0.00000136 Ry

     iteration # 11     ecut=    30.00 Ry     beta= 0.70
     Davidson diagonalization with overlap

     ethr =  8.00E-10,  avg # of iterations =  1.0

     negative rho (up, down):  1.172E+00 0.000E+00

     End of self-consistent calculation

          k = 0.0000 0.0000 0.0000 (  4477 PWs)   bands (ev):

   -40.6045 -40.6044 -40.6044 -40.5852 -40.5852 -40.5851 -40.5550 -40.5279
   -40.5279 -40.5279 -40.5177 -40.5177 -39.7886 -39.7886 -39.7886 -39.7788
   -39.7788 -39.7788  -8.1268  -7.4677  -7.4677  -7.4675  -6.8855  -6.8855
    -6.8853  -6.7317   1.5584   1.5584   1.5834   1.5834   1.5834   1.6275
     1.6275   1.6275   1.6632   1.6632   3.5620   4.6360   4.6360   4.6641
     4.6642   4.6642   4.8257   4.8257   4.8257   6.1311   6.5938   6.5938
     6.5938   7.4141   7.4141   7.4141   7.5977   7.5977   7.5978   7.9447
     8.2679   8.2679   8.5484   8.5484   8.5485   9.4949   9.4949   9.4949
     9.5550   9.5550   9.9273   9.9378   9.9378  10.0362  10.0362  10.0362
    10.7626  10.9183  10.9183  10.9183  11.1127  11.1127  11.1128  11.3050
    11.3050  11.3050  11.5146  11.8229  11.8229  13.4626  13.4626  13.4626
    13.4781  13.7210  13.7210  13.7210  15.7603  15.7604  15.7604  16.2004
    18.3385  18.3385  18.3385  18.7439  18.7439  18.7439  19.5251  20.1841
    20.1841  22.0109  22.0110  22.0110  22.1339  22.1339  22.1340  22.9071
    22.9071  23.6535  23.6535  23.6535  25.1272  25.5894  26.5065  26.5065
    26.5065  26.7426  26.7427  26.7427  27.0057  27.0057  27.0057  28.3408
    28.3408  28.7145  28.7145  29.0545  29.9247  29.9247  29.9247  30.2414
    30.2414  30.2414  31.0013  31.0013  31.0013  31.4002  32.2927  32.2927
    32.2927  32.4549  32.4549  32.4550  33.4759  33.4759  33.7266  33.7266
    33.7266  33.8789  33.8790  33.8790  35.5316  35.6908  35.6908  35.6908
    35.7626  35.7626  37.3279  37.3279  37.3279  38.0152  38.0152  38.0152
    38.2522  38.2522  38.2522  38.9149  38.9149  38.9149  39.0980  39.0980
    39.0980  39.2912  40.0420  40.0420  40.0420  40.4421  40.4421  40.4421
    40.8094  40.8094  40.9103  41.0765  41.0765  41.0765  41.1021  41.1219
    41.1219  41.2146  41.2146  41.2146  41.4075  41.4075  42.5616  42.5616
    42.5616  42.6138  42.8347  42.8347  42.8347  43.2591  43.4205  43.4205
    44.3112  44.3113  44.3113  44.3346  44.3346  45.4799  45.4799  45.4799
    45.5096  45.5096  45.5096  45.5665  45.7048  45.7048  45.7048  46.0967
    46.3781  46.3781  46.3782  46.3907  46.3907  46.3907  47.3840  47.4633
    47.4633  47.4633  47.5916  47.5916  47.5916  47.7405  47.7405  48.3032
    48.3032  48.3032  49.1990  49.1990  49.1990  50.1568  50.1568  50.1568
    50.2143  51.9207  52.0577  52.0577  52.2036  52.2782  52.2782  52.2782

     occupation numbers
     1.0000   1.0000   1.0000   1.0000   1.0000   1.0000   1.0000   1.0000
     1.0000   1.0000   1.0000   1.0000   1.0000   1.0000   1.0000   1.0000
     1.0000   1.0000   1.0000   1.0000   1.0000   1.0000   1.0000   1.0000
     1.0000   1.0000   1.0000   1.0000   1.0000   1.0000   1.0000   1.0000
     1.0000   1.0000   1.0000   1.0000   1.0000   1.0000   1.0000   1.0000
     1.0000   1.0000   1.0000   1.0000   1.0000   1.0000   1.0000   1.0000
     1.0000   1.0000   1.0000   1.0000   1.0000   1.0000   1.0000   1.0000
     1.0000   1.0000   1.0000   1.0000   1.0000   1.0000   1.0000   1.0000
     1.0000   1.0000   1.0000   1.0000   1.0000   1.0000   1.0000   1.0000
     1.0000   1.0000   1.0000   1.0000   1.0000   1.0000   1.0000   1.0000
     1.0000   1.0000   1.0000   1.0000   1.0000   0.0000   0.0000   0.0000
     0.0000   0.0000   0.0000   0.0000   0.0000   0.0000   0.0000   0.0000
     0.0000   0.0000   0.0000   0.0000   0.0000   0.0000   0.0000   0.0000
     0.0000   0.0000   0.0000   0.0000   0.0000   0.0000   0.0000   0.0000
     0.0000   0.0000   0.0000   0.0000   0.0000   0.0000   0.0000   0.0000
     0.0000   0.0000   0.0000   0.0000   0.0000   0.0000   0.0000   0.0000
     0.0000   0.0000   0.0000   0.0000   0.0000   0.0000   0.0000   0.0000
     0.0000   0.0000   0.0000   0.0000   0.0000   0.0000   0.0000   0.0000
     0.0000   0.0000   0.0000   0.0000   0.0000   0.0000   0.0000   0.0000
     0.0000   0.0000   0.0000   0.0000   0.0000   0.0000   0.0000   0.0000
     0.0000   0.0000   0.0000   0.0000   0.0000   0.0000   0.0000   0.0000
     0.0000   0.0000   0.0000   0.0000   0.0000   0.0000   0.0000   0.0000
     0.0000   0.0000   0.0000   0.0000   0.0000   0.0000   0.0000   0.0000
     0.0000   0.0000   0.0000   0.0000   0.0000   0.0000   0.0000   0.0000
     0.0000   0.0000   0.0000   0.0000   0.0000   0.0000   0.0000   0.0000
     0.0000   0.0000   0.0000   0.0000   0.0000   0.0000   0.0000   0.0000
     0.0000   0.0000   0.0000   0.0000   0.0000   0.0000   0.0000   0.0000
     0.0000   0.0000   0.0000   0.0000   0.0000   0.0000   0.0000   0.0000
     0.0000   0.0000   0.0000   0.0000   0.0000   0.0000   0.0000   0.0000
     0.0000   0.0000   0.0000   0.0000   0.0000   0.0000   0.0000   0.0000
     0.0000   0.0000   0.0000   0.0000   0.0000   0.0000   0.0000   0.0000
     0.0000   0.0000   0.0000   0.0000   0.0000   0.0000   0.0000   0.0000

[...]

          k = 0.3333-0.5774 0.0000 (  4426 PWs)   bands (ev):

   -40.6025 -40.5971 -40.5962 -40.5922 -40.5918 -40.5852 -40.5401 -40.5389
   -40.5294 -40.5263 -40.5224 -40.5204 -39.7887 -39.7849 -39.7849 -39.7826
   -39.7824 -39.7788  -7.6593  -7.5716  -7.4269  -7.2702  -7.1056  -7.1045
    -6.9911  -6.9304   1.5933   1.6130   1.6153   1.6169   1.6240   1.6374
     1.6389   1.6413   1.6540   1.6558   4.5321   4.6114   4.7152   4.8438
     5.0137   5.0761   5.2132   5.4700   5.6039   5.7615   5.9905   6.0014
     6.2831   6.3761   6.6135   6.6478   6.8975   6.9356   6.9357   7.1572
     7.4905   7.9884   8.7414   8.8904   9.0947   9.1854   9.2586   9.4910
     9.8745  10.1065  10.1375  10.2794  10.4282  10.4663  10.6367  10.7024
    10.7771  10.8072  10.8780  11.0146  11.0311  11.0423  11.1362  11.2311
    11.3487  11.3540  11.4228  11.6242  11.7527  13.5974  13.7900  13.8663
    14.2437  14.3760  14.6637  15.2891  15.3492  15.4189  15.6331  17.1943
    17.2234  17.6425  18.1429  18.7476  19.1147  19.2506  19.7551  20.1984
    20.2521  20.2572  21.0229  21.0362  21.5265  21.8169  22.3369  22.9365
    23.1390  23.6324  23.8821  23.9421  24.5336  24.6741  25.1961  25.4570
    25.5620  26.5285  26.9011  26.9968  26.9975  27.7579  28.0299  28.2766
    28.8777  28.9358  29.2366  29.7554  29.7735  30.0143  30.4704  30.5122
    30.7764  30.8599  30.9571  31.3377  31.3519  31.7194  31.7229  32.0391
    32.2208  32.4162  32.8636  33.0335  33.1687  33.3768  33.4185  34.0463
    34.0805  34.7489  34.7857  34.9404  34.9805  35.0488  35.1272  35.5479
    35.5918  36.0912  36.3644  36.3822  36.6428  36.7875  36.9625  37.4389
    37.5881  37.7457  37.9514  38.1265  38.3193  38.3598  38.7812  39.0508
    39.0900  39.0953  39.4458  40.1228  40.2350  40.2417  40.3028  40.6097
    40.8991  40.9241  40.9777  40.9789  41.0112  41.0126  41.0871  41.2134
    41.2337  41.5370  41.7221  41.8373  42.2271  42.3511  42.8693  43.0354
    43.0469  43.4451  43.4569  43.6636  43.6690  43.7165  44.0013  44.2058
    44.3395  44.5483  44.6318  44.7569  44.8177  44.9361  45.5974  45.6145
    45.7943  45.7950  46.0003  46.0950  46.1452  46.4061  46.4506  46.4954
    46.8361  47.0079  47.1181  47.2569  47.3380  47.4712  47.7094  47.7131
    48.3295  48.4070  48.5763  48.7046  48.8275  48.8336  48.9662  49.0860
    49.1703  49.6189  49.7668  49.9472  50.1809  50.2040  50.5401  50.7024
    50.7925  50.8540  51.0730  51.3755  51.4839  51.4914  51.5936  51.7563

     occupation numbers
     1.0000   1.0000   1.0000   1.0000   1.0000   1.0000   1.0000   1.0000
     1.0000   1.0000   1.0000   1.0000   1.0000   1.0000   1.0000   1.0000
     1.0000   1.0000   1.0000   1.0000   1.0000   1.0000   1.0000   1.0000
     1.0000   1.0000   1.0000   1.0000   1.0000   1.0000   1.0000   1.0000
     1.0000   1.0000   1.0000   1.0000   1.0000   1.0000   1.0000   1.0000
     1.0000   1.0000   1.0000   1.0000   1.0000   1.0000   1.0000   1.0000
     1.0000   1.0000   1.0000   1.0000   1.0000   1.0000   1.0000   1.0000
     1.0000   1.0000   1.0000   1.0000   1.0000   1.0000   1.0000   1.0000
     1.0000   1.0000   1.0000   1.0000   1.0000   1.0000   1.0000   1.0000
     1.0000   1.0000   1.0000   1.0000   1.0000   1.0000   1.0000   1.0000
     1.0000   1.0000   1.0000   1.0000   1.0000   0.0000   0.0000   0.0000
     0.0000   0.0000   0.0000   0.0000   0.0000   0.0000   0.0000   0.0000
     0.0000   0.0000   0.0000   0.0000   0.0000   0.0000   0.0000   0.0000
     0.0000   0.0000   0.0000   0.0000   0.0000   0.0000   0.0000   0.0000
     0.0000   0.0000   0.0000   0.0000   0.0000   0.0000   0.0000   0.0000
     0.0000   0.0000   0.0000   0.0000   0.0000   0.0000   0.0000   0.0000
     0.0000   0.0000   0.0000   0.0000   0.0000   0.0000   0.0000   0.0000
     0.0000   0.0000   0.0000   0.0000   0.0000   0.0000   0.0000   0.0000
     0.0000   0.0000   0.0000   0.0000   0.0000   0.0000   0.0000   0.0000
     0.0000   0.0000   0.0000   0.0000   0.0000   0.0000   0.0000   0.0000
     0.0000   0.0000   0.0000   0.0000   0.0000   0.0000   0.0000   0.0000
     0.0000   0.0000   0.0000   0.0000   0.0000   0.0000   0.0000   0.0000
     0.0000   0.0000   0.0000   0.0000   0.0000   0.0000   0.0000   0.0000
     0.0000   0.0000   0.0000   0.0000   0.0000   0.0000   0.0000   0.0000
     0.0000   0.0000   0.0000   0.0000   0.0000   0.0000   0.0000   0.0000
     0.0000   0.0000   0.0000   0.0000   0.0000   0.0000   0.0000   0.0000
     0.0000   0.0000   0.0000   0.0000   0.0000   0.0000   0.0000   0.0000
     0.0000   0.0000   0.0000   0.0000   0.0000   0.0000   0.0000   0.0000
     0.0000   0.0000   0.0000   0.0000   0.0000   0.0000   0.0000   0.0000
     0.0000   0.0000   0.0000   0.0000   0.0000   0.0000   0.0000   0.0000
     0.0000   0.0000   0.0000   0.0000   0.0000   0.0000   0.0000   0.0000
     0.0000   0.0000   0.0000   0.0000   0.0000   0.0000   0.0000   0.0000

     highest occupied, lowest unoccupied level (ev):    11.8229   13.3209

!    total energy              =   -1886.37990059 Ry
     estimated scf accuracy    <       0.00000002 Ry

     The total energy is the sum of the following terms:
     one-electron contribution =    -476.33220616 Ry
     hartree contribution      =     356.60131563 Ry
     xc contribution           =    -524.20947322 Ry
     ewald contribution        =   -1166.22340788 Ry
     one-center paw contrib.   =     -76.21612896 Ry
      -> PAW hartree energy AE =       0.00000000 Ry
      -> PAW hartree energy PS =       0.00000000 Ry
      -> PAW xc energy AE      =       0.00000000 Ry
      -> PAW xc energy PS      =       0.00000000 Ry
      -> total E_H with PAW    =     356.60131563 Ry
      -> total E_XC with PAW   =    -524.20947322 Ry

     convergence has been achieved in  11 iterations

     Writing all to output data dir bands_nm/myprefix.save/

     General routines

     Parallel routines

     PAW routines

   This run was terminated on:  17:50:19  15Jul2023

   JOB DONE.