     Program PWSCF v.7.1 starts on 17Jul2023 at  0:28: 8

     Reading input from espresso_1847.pwi
Warning: card &CELL ignored
Warning: card / ignored

     Current dimensions of program PWSCF are:
     Max number of different atomic species (ntypx) = 10
     Max number of k-points (npk) =  40000
     Max angular momentum in pseudopotentials (lmaxx) =  4
     Message from routine setup:
     using ibrav=0 with symmetry is DISCOURAGED, use correct ibrav instead

     K-points division:     npool     =       2
     R & G space division:  proc/nbgrp/npool/nimage =       4
     Subspace diagonalization in iterative solution of the eigenvalue problem:
     one sub-group per band group will be used

     Using Slab Decomposition

     bravais-lattice index     =            0
     lattice parameter (alat)  =      22.9981  a.u.
     unit-cell volume          =    3100.2087 (a.u.)^3
     number of atoms/cell      =           20
     number of atomic types    =            3
     number of electrons       =       136.00
     number of Kohn-Sham states=          256
     kinetic-energy cutoff     =      30.0000  Ry
     charge density cutoff     =     240.0000  Ry
     scf convergence threshold =      1.0E-06
     mixing beta               =       0.7000
     number of iterations used =            8  plain     mixing
     Exchange-correlation=  SLA  PW   PBX  PBC
                           (   1   4   3   4   0   0   0)

     celldm(1)=  22.998112  celldm(2)=   0.000000  celldm(3)=   0.000000
     celldm(4)=   0.000000  celldm(5)=   0.000000  celldm(6)=   0.000000

     crystal axes: (cart. coord. in units of alat)
               a(1) = (   1.000000   0.000000   0.000000 )
               a(2) = (   0.000000   0.479188   0.000000 )
               a(3) = (   0.000000   0.233169   0.531873 )

     reciprocal axes: (cart. coord. in units 2 pi/alat)
               b(1) = (  1.000000  0.000000  0.000000 )
               b(2) = (  0.000000  2.086862 -0.914864 )
               b(3) = (  0.000000  0.000000  1.880147 )

     PseudoPot. # 1 for Tl read from file:
     /lustre07/scratch/pragov/crystal_structure_design/utils/SSSP/Tl_pbe_v1.2.uspp.F.UPF
     MD5 check sum: b76cf1f7e72655a2b2c53cf6385d7059
     Pseudo is Ultrasoft + core correction, Zval = 13.0
     Generated by new atomic code, or converted to UPF format
     Using radial grid of  899 points,  6 beta functions with:
                l(1) =   0
                l(2) =   0
                l(3) =   1
                l(4) =   1
                l(5) =   2
                l(6) =   2
     Q(r) pseudized with  6 coefficients,  rinner =    1.100   1.100   1.100
                                                       1.100   1.100

     PseudoPot. # 2 for B  read from file:
     /lustre07/scratch/pragov/crystal_structure_design/utils/SSSP/b_pbe_v1.4.uspp.F.UPF
     MD5 check sum: cc6de2960df11db49a60e589f9ebb39b
     Pseudo is Ultrasoft + core correction, Zval =  3.0
     Generated by new atomic code, or converted to UPF format
     Using radial grid of  781 points,  4 beta functions with:
                l(1) =   0
                l(2) =   0
                l(3) =   1
                l(4) =   1
     Q(r) pseudized with  8 coefficients,  rinner =    1.100   1.100   1.100

     PseudoPot. # 3 for S  read from file:
     /lustre07/scratch/pragov/crystal_structure_design/utils/SSSP/s_pbe_v1.4.uspp.F.UPF
     MD5 check sum: 88d86576ff6df21479756cfb9bdac1df
     Pseudo is Ultrasoft + core correction, Zval =  6.0
     Generated by new atomic code, or converted to UPF format
     Using radial grid of  907 points,  6 beta functions with:
                l(1) =   0
                l(2) =   0
                l(3) =   1
                l(4) =   1
                l(5) =   2
                l(6) =   2
     Q(r) pseudized with  8 coefficients,  rinner =    1.300   1.300   1.300
                                                       1.300   1.300

     atomic species   valence    mass     pseudopotential
        Tl            13.00   204.38000     Tl( 1.00)
        B              3.00    10.81000     B ( 1.00)
        S              6.00    32.06000     S ( 1.00)

      4 Sym. Ops., with inversion, found ( 2 have fractional translation)

                                    s                        frac. trans.

      isym =  1     identity

 cryst.   s( 1) = (     1          0          0      )
                  (     0          1          0      )
                  (     0          0          1      )

 cart.    s( 1) = (  1.0000000  0.0000000  0.0000000 )
                  (  0.0000000  1.0000000 -0.0000000 )
                  (  0.0000000  0.0000000  1.0000000 )

      isym =  2     180 deg rotation - cart. axis [1,0,0]

 cryst.   s( 2) = (     1          0          0      )    f =(  0.5000000 )
                  (     0         -1          0      )       ( -0.5000000 )
                  (     0          0         -1      )       (  0.0000000 )

 cart.    s( 2) = (  1.0000000  0.0000000  0.0000000 )    f =(  0.5000000 )
                  (  0.0000000 -1.0000000  0.0000000 )       ( -0.2395941 )
                  (  0.0000000  0.0000000 -1.0000000 )       (  0.0000000 )

      isym =  3     inversion

 cryst.   s( 3) = (    -1          0          0      )
                  (     0         -1          0      )
                  (     0          0         -1      )

 cart.    s( 3) = ( -1.0000000  0.0000000  0.0000000 )
                  (  0.0000000 -1.0000000  0.0000000 )
                  (  0.0000000  0.0000000 -1.0000000 )

      isym =  4     inv. 180 deg rotation - cart. axis [1,0,0]

 cryst.   s( 4) = (    -1          0          0      )    f =(  0.5000000 )
                  (     0          1          0      )       ( -0.5000000 )
                  (     0          0          1      )       (  0.0000000 )

 cart.    s( 4) = ( -1.0000000  0.0000000  0.0000000 )    f =(  0.5000000 )
                  (  0.0000000  1.0000000 -0.0000000 )       ( -0.2395941 )
                  (  0.0000000  0.0000000  1.0000000 )       (  0.0000000 )

   Cartesian axes

     site n.     atom                  positions (alat units)
         1           Tl  tau(   1) = (   0.9103350   0.1894622   0.1318291  )
         2           Tl  tau(   2) = (   0.4103350   0.2833009   0.4000442  )
         3           Tl  tau(   3) = (   0.0896650   0.5228950   0.4000442  )
         4           Tl  tau(   4) = (   0.5896650   0.4290563   0.1318291  )
         5           B   tau(   5) = (   0.7695440   0.3353374   0.3724677  )
         6           B   tau(   6) = (   0.2695440   0.1374256   0.1594056  )
         7           B   tau(   7) = (   0.2304560   0.3770198   0.1594056  )
         8           B   tau(   8) = (   0.7304560   0.5749316   0.3724677  )
         9           S   tau(   9) = (   0.8175030   0.6178648   0.5005619  )
        10           S   tau(  10) = (   0.3175030   0.3340865   0.0313114  )
        11           S   tau(  11) = (   0.1824970   0.0944924   0.0313114  )
        12           S   tau(  12) = (   0.6824970   0.3782707   0.5005619  )
        13           S   tau(  13) = (   0.5990450   0.5108115   0.4310700  )
        14           S   tau(  14) = (   0.0990450   0.4411399   0.1008033  )
        15           S   tau(  15) = (   0.4009550   0.2015457   0.1008033  )
        16           S   tau(  16) = (   0.9009550   0.2712173   0.4310700  )
        17           S   tau(  17) = (   0.8011010   0.4623133   0.2856122  )
        18           S   tau(  18) = (   0.3011010   0.4896381   0.2462611  )
        19           S   tau(  19) = (   0.1988990   0.2500439   0.2462611  )
        20           S   tau(  20) = (   0.6988990   0.2227192   0.2856122  )

   Crystallographic axes

     site n.     atom                  positions (cryst. coord.)
         1           Tl  tau(   1) = (  0.9103350  0.2747760  0.2478580  )
         2           Tl  tau(   2) = (  0.4103350  0.2252240  0.7521420  )
         3           Tl  tau(   3) = (  0.0896650  0.7252240  0.7521420  )
         4           Tl  tau(   4) = (  0.5896650  0.7747760  0.2478580  )
         5           B   tau(   5) = (  0.7695440  0.3590460  0.7002940  )
         6           B   tau(   6) = (  0.2695440  0.1409540  0.2997060  )
         7           B   tau(   7) = (  0.2304560  0.6409540  0.2997060  )
         8           B   tau(   8) = (  0.7304560  0.8590460  0.7002940  )
         9           S   tau(   9) = (  0.8175030  0.8314530  0.9411300  )
        10           S   tau(  10) = (  0.3175030  0.6685470  0.0588700  )
        11           S   tau(  11) = (  0.1824970  0.1685470  0.0588700  )
        12           S   tau(  12) = (  0.6824970  0.3314530  0.9411300  )
        13           S   tau(  13) = (  0.5990450  0.6716230  0.8104750  )
        14           S   tau(  14) = (  0.0990450  0.8283770  0.1895250  )
        15           S   tau(  15) = (  0.4009550  0.3283770  0.1895250  )
        16           S   tau(  16) = (  0.9009550  0.1716230  0.8104750  )
        17           S   tau(  17) = (  0.8011010  0.7034880  0.5369930  )
        18           S   tau(  18) = (  0.3011010  0.7965120  0.4630070  )
        19           S   tau(  19) = (  0.1988990  0.2965120  0.4630070  )
        20           S   tau(  20) = (  0.6988990  0.2034880  0.5369930  )

     number of k points=    10
                       cart. coord. in units 2pi/alat
        k(    1) = (   0.0000000   0.0000000   0.0000000), wk =   0.0740741
        k(    2) = (   0.0000000   0.0000000   0.6267157), wk =   0.1481481
        k(    3) = (   0.0000000   0.6956208  -0.3049545), wk =   0.1481481
        k(    4) = (   0.0000000   0.6956208   0.3217611), wk =   0.1481481
        k(    5) = (   0.0000000   0.6956208  -0.9316702), wk =   0.1481481
        k(    6) = (   0.3333333   0.0000000   0.0000000), wk =   0.1481481
        k(    7) = (   0.3333333   0.0000000   0.6267157), wk =   0.2962963
        k(    8) = (   0.3333333   0.6956208  -0.3049545), wk =   0.2962963
        k(    9) = (   0.3333333   0.6956208   0.3217611), wk =   0.2962963
        k(   10) = (   0.3333333   0.6956208  -0.9316702), wk =   0.2962963

                       cryst. coord.
        k(    1) = (   0.0000000   0.0000000   0.0000000), wk =   0.0740741
        k(    2) = (   0.0000000   0.0000000   0.3333333), wk =   0.1481481
        k(    3) = (   0.0000000   0.3333333   0.0000000), wk =   0.1481481
        k(    4) = (   0.0000000   0.3333333   0.3333333), wk =   0.1481481
        k(    5) = (   0.0000000   0.3333333  -0.3333333), wk =   0.1481481
        k(    6) = (   0.3333333   0.0000000   0.0000000), wk =   0.1481481
        k(    7) = (   0.3333333   0.0000000   0.3333333), wk =   0.2962963
        k(    8) = (   0.3333333   0.3333333   0.0000000), wk =   0.2962963
        k(    9) = (   0.3333333   0.3333333   0.3333333), wk =   0.2962963
        k(   10) = (   0.3333333   0.3333333  -0.3333333), wk =   0.2962963

     Check: negative core charge=   -0.000004

     Initial potential from superposition of free atoms

     starting charge     135.9790, renormalised to     136.0000

     negative rho (up, down):  2.020E-01 0.000E+00
     Starting wfcs are  100 randomized atomic wfcs +  156 random wfcs

     Self-consistent Calculation

     iteration #  1     ecut=    30.00 Ry     beta= 0.70
     Davidson diagonalization with overlap

     ethr =  1.00E-02,  avg # of iterations =  7.0

     Threshold (ethr) on eigenvalues was too large:
     Diagonalizing with lowered threshold

     Davidson diagonalization with overlap

[...]

     negative rho (up, down):  2.018E-01 0.000E+00

     total energy              =    -894.73506562 Ry
     estimated scf accuracy    <       0.98968590 Ry

[...]

     total energy              =    -895.12450740 Ry
     estimated scf accuracy    <       0.00000276 Ry

     iteration #  8     ecut=    30.00 Ry     beta= 0.70
     Davidson diagonalization with overlap

     ethr =  2.03E-09,  avg # of iterations =  4.9

     negative rho (up, down):  2.002E-01 0.000E+00

     End of self-consistent calculation

          k = 0.0000 0.0000 0.0000 (  8587 PWs)   bands (ev):

   -10.5139 -10.4457  -9.3958  -9.2758  -7.9795  -7.9585  -6.9821  -6.9653
    -6.6832  -6.6476  -5.6914  -5.6662  -5.3773  -5.3713  -5.3680  -5.3602
    -5.3542  -5.3525  -5.3467  -5.3446  -5.3430  -5.3310  -5.3304  -5.3159
    -5.3112  -5.3041  -5.3015  -5.2924  -5.2917  -5.2903  -5.1965  -5.1592
    -1.9599  -1.9508  -1.9109  -1.5571  -0.6681  -0.4975  -0.4062  -0.3158
    -0.3046   0.2205   0.5049   0.5857   1.1014   1.2250   1.5546   1.8490
     1.9902   2.0072   2.2219   2.2367   2.4642   2.6292   2.8079   3.0326
     3.0896   3.2053   3.4933   3.7542   3.8522   3.9654   4.1847   4.3162
     4.5429   4.7275   5.1357   5.3725   7.3697   7.7080   7.7632   7.8751
     7.9673   8.1698   8.5582   8.6852   8.6927   9.1973   9.2916   9.3026
     9.3508   9.4880   9.8342   9.9702  10.2041  10.2449  10.7491  10.7862
    10.8271  11.0143  11.0347  11.3265  11.4526  11.5698  11.6723  11.8921
    12.0751  12.1804  12.8837  13.0638  13.1217  13.3331  13.6143  13.6449
    13.7508  13.8267  13.9220  14.1668  14.2925  14.5557  14.6046  14.9822
    15.0328  15.0735  15.1055  15.2325  15.3447  15.5097  15.7647  15.8199
    15.8536  16.0337  16.1459  16.5183  16.5847  16.6772  16.7465  16.9788
    17.3019  17.3539  17.4044  17.6646  17.9760  18.0590  18.1017  18.2982
    18.3973  18.5169  18.7483  18.8424  18.9717  19.0167  19.0433  19.3695
    19.4482  19.7618  19.9227  20.0114  20.1029  20.1362  20.2792  20.3730
    20.4676  20.5082  20.6688  20.8574  20.8671  20.9612  21.0771  21.0996
    21.2063  21.5332  21.6070  21.6929  21.8940  21.9166  22.0055  22.2798
    22.4100  22.5442  22.6254  22.7835  22.7856  22.8383  22.9445  23.1708
    23.1820  23.3677  23.3746  23.5868  23.7948  23.8824  24.0176  24.1739
    24.2795  24.3740  24.3812  24.4941  24.5375  24.6326  24.8551  25.1779
    25.1965  25.2434  25.3831  25.5082  25.5973  25.6689  25.7250  25.7460
    25.7846  25.9390  26.1323  26.1517  26.2972  26.3194  26.3991  26.5068
    26.5399  26.6636  26.8756  26.9551  26.9798  27.0427  27.5571  27.6978
    27.7431  27.8183  27.8776  27.8997  28.1022  28.2176  28.2655  28.3213
    28.3859  28.4427  28.6128  28.7558  28.8410  29.1231  29.1413  29.3271
    29.3955  29.5982  29.6055  29.6109  29.8047  29.8051  29.8748  30.1836
    30.2873  30.4278  30.4633  30.6177  30.7578  30.8037  30.9628  31.0051
    31.0272  31.0694  31.2901  31.3774  31.5342  31.6415  31.6595  31.7451

     occupation numbers
     1.0000   1.0000   1.0000   1.0000   1.0000   1.0000   1.0000   1.0000
     1.0000   1.0000   1.0000   1.0000   1.0000   1.0000   1.0000   1.0000
     1.0000   1.0000   1.0000   1.0000   1.0000   1.0000   1.0000   1.0000
     1.0000   1.0000   1.0000   1.0000   1.0000   1.0000   1.0000   1.0000
     1.0000   1.0000   1.0000   1.0000   1.0000   1.0000   1.0000   1.0000
     1.0000   1.0000   1.0000   1.0000   1.0000   1.0000   1.0000   1.0000
     1.0000   1.0000   1.0000   1.0000   1.0000   1.0000   1.0000   1.0000
     1.0000   1.0000   1.0000   1.0000   1.0000   1.0000   1.0000   1.0000
     1.0000   1.0000   1.0000   1.0000   0.0000   0.0000   0.0000   0.0000
     0.0000   0.0000   0.0000   0.0000   0.0000   0.0000   0.0000   0.0000
     0.0000   0.0000   0.0000   0.0000   0.0000   0.0000   0.0000   0.0000
     0.0000   0.0000   0.0000   0.0000   0.0000   0.0000   0.0000   0.0000
     0.0000   0.0000   0.0000   0.0000   0.0000   0.0000   0.0000   0.0000
     0.0000   0.0000   0.0000   0.0000   0.0000   0.0000   0.0000   0.0000
     0.0000   0.0000   0.0000   0.0000   0.0000   0.0000   0.0000   0.0000
     0.0000   0.0000   0.0000   0.0000   0.0000   0.0000   0.0000   0.0000
     0.0000   0.0000   0.0000   0.0000   0.0000   0.0000   0.0000   0.0000
     0.0000   0.0000   0.0000   0.0000   0.0000   0.0000   0.0000   0.0000
     0.0000   0.0000   0.0000   0.0000   0.0000   0.0000   0.0000   0.0000
     0.0000   0.0000   0.0000   0.0000   0.0000   0.0000   0.0000   0.0000
     0.0000   0.0000   0.0000   0.0000   0.0000   0.0000   0.0000   0.0000
     0.0000   0.0000   0.0000   0.0000   0.0000   0.0000   0.0000   0.0000
     0.0000   0.0000   0.0000   0.0000   0.0000   0.0000   0.0000   0.0000
     0.0000   0.0000   0.0000   0.0000   0.0000   0.0000   0.0000   0.0000
     0.0000   0.0000   0.0000   0.0000   0.0000   0.0000   0.0000   0.0000
     0.0000   0.0000   0.0000   0.0000   0.0000   0.0000   0.0000   0.0000
     0.0000   0.0000   0.0000   0.0000   0.0000   0.0000   0.0000   0.0000
     0.0000   0.0000   0.0000   0.0000   0.0000   0.0000   0.0000   0.0000
     0.0000   0.0000   0.0000   0.0000   0.0000   0.0000   0.0000   0.0000
     0.0000   0.0000   0.0000   0.0000   0.0000   0.0000   0.0000   0.0000
     0.0000   0.0000   0.0000   0.0000   0.0000   0.0000   0.0000   0.0000
     0.0000   0.0000   0.0000   0.0000   0.0000   0.0000   0.0000   0.0000

[...]

          k = 0.3333 0.6956-0.9317 (  8591 PWs)   bands (ev):

   -10.2234 -10.1946  -9.6673  -9.6216  -7.9092  -7.8891  -7.5536  -7.5418
    -6.0891  -6.0719  -5.7782  -5.7699  -5.3727  -5.3694  -5.3678  -5.3657
    -5.3574  -5.3554  -5.3496  -5.3468  -5.3440  -5.3410  -5.3329  -5.3247
    -5.3122  -5.3100  -5.3087  -5.3009  -5.2810  -5.2766  -5.2595  -5.2576
    -1.7576  -1.6875  -1.4860  -1.4160  -0.3552  -0.2917  -0.1424  -0.0552
     0.1528   0.2181   0.6359   0.6907   0.8017   0.8161   0.9497   1.1721
     1.3661   1.5605   1.9153   2.1027   2.6342   2.7865   2.9714   3.0250
     3.1659   3.2791   3.3762   3.5400   4.0815   4.1892   4.3168   4.4466
     4.7598   4.8507   4.9231   4.9716   7.2317   7.3484   7.6395   7.7035
     8.0997   8.1412   8.4628   8.6499   8.8923   8.9706   9.0793   9.1141
     9.2816   9.4125   9.6521   9.8365  10.1692  10.3542  10.3701  10.7051
    10.8187  11.0192  11.1530  11.2728  11.8695  12.0680  12.1771  12.2797
    12.4613  12.5552  12.6834  12.7772  13.3755  13.6334  13.8643  13.9572
    14.0468  14.1441  14.1924  14.3373  14.4963  14.5214  14.6637  14.8277
    14.9481  15.1152  15.2699  15.3850  15.5677  15.6987  15.8299  15.9422
    16.0553  16.2577  16.3141  16.4091  16.5934  16.8735  17.0095  17.0860
    17.1763  17.2453  17.4296  17.5362  17.6372  17.8579  18.0347  18.1445
    18.2187  18.3839  18.5153  18.7472  18.8753  18.8962  19.0116  19.0541
    19.2409  19.5089  19.5471  19.6205  19.6936  19.9870  20.1547  20.2127
    20.3007  20.3584  20.5071  20.6017  20.7506  20.8709  21.0468  21.1494
    21.2536  21.3710  21.4360  21.6526  21.8500  21.9364  22.0862  22.1288
    22.2971  22.3883  22.5117  22.6372  22.7725  22.9205  23.0222  23.1837
    23.2283  23.3654  23.4099  23.5781  23.6547  23.7867  23.9586  23.9877
    24.1112  24.1809  24.3548  24.4796  24.5411  24.7913  24.9121  24.9284
    25.1112  25.1929  25.2484  25.3090  25.4343  25.6316  25.7144  25.8439
    25.8793  25.9645  26.0112  26.2301  26.3095  26.3710  26.5299  26.7233
    26.8058  26.9839  27.0056  27.0892  27.1569  27.2789  27.3894  27.5695
    27.6290  27.7965  27.8990  28.0517  28.0896  28.1200  28.3352  28.4361
    28.4503  28.5923  28.7975  28.9424  28.9969  29.0642  29.1930  29.4139
    29.4803  29.5454  29.6882  29.7979  29.8576  29.9063  30.0199  30.0910
    30.1585  30.4072  30.5323  30.6719  30.7306  30.8224  30.9087  31.0394
    31.1753  31.2226  31.4750  31.5807  31.6317  31.7194  31.7403  31.8952

     occupation numbers
     1.0000   1.0000   1.0000   1.0000   1.0000   1.0000   1.0000   1.0000
     1.0000   1.0000   1.0000   1.0000   1.0000   1.0000   1.0000   1.0000
     1.0000   1.0000   1.0000   1.0000   1.0000   1.0000   1.0000   1.0000
     1.0000   1.0000   1.0000   1.0000   1.0000   1.0000   1.0000   1.0000
     1.0000   1.0000   1.0000   1.0000   1.0000   1.0000   1.0000   1.0000
     1.0000   1.0000   1.0000   1.0000   1.0000   1.0000   1.0000   1.0000
     1.0000   1.0000   1.0000   1.0000   1.0000   1.0000   1.0000   1.0000
     1.0000   1.0000   1.0000   1.0000   1.0000   1.0000   1.0000   1.0000
     1.0000   1.0000   1.0000   1.0000   0.0000   0.0000   0.0000   0.0000
     0.0000   0.0000   0.0000   0.0000   0.0000   0.0000   0.0000   0.0000
     0.0000   0.0000   0.0000   0.0000   0.0000   0.0000   0.0000   0.0000
     0.0000   0.0000   0.0000   0.0000   0.0000   0.0000   0.0000   0.0000
     0.0000   0.0000   0.0000   0.0000   0.0000   0.0000   0.0000   0.0000
     0.0000   0.0000   0.0000   0.0000   0.0000   0.0000   0.0000   0.0000
     0.0000   0.0000   0.0000   0.0000   0.0000   0.0000   0.0000   0.0000
     0.0000   0.0000   0.0000   0.0000   0.0000   0.0000   0.0000   0.0000
     0.0000   0.0000   0.0000   0.0000   0.0000   0.0000   0.0000   0.0000
     0.0000   0.0000   0.0000   0.0000   0.0000   0.0000   0.0000   0.0000
     0.0000   0.0000   0.0000   0.0000   0.0000   0.0000   0.0000   0.0000
     0.0000   0.0000   0.0000   0.0000   0.0000   0.0000   0.0000   0.0000
     0.0000   0.0000   0.0000   0.0000   0.0000   0.0000   0.0000   0.0000
     0.0000   0.0000   0.0000   0.0000   0.0000   0.0000   0.0000   0.0000
     0.0000   0.0000   0.0000   0.0000   0.0000   0.0000   0.0000   0.0000
     0.0000   0.0000   0.0000   0.0000   0.0000   0.0000   0.0000   0.0000
     0.0000   0.0000   0.0000   0.0000   0.0000   0.0000   0.0000   0.0000
     0.0000   0.0000   0.0000   0.0000   0.0000   0.0000   0.0000   0.0000
     0.0000   0.0000   0.0000   0.0000   0.0000   0.0000   0.0000   0.0000
     0.0000   0.0000   0.0000   0.0000   0.0000   0.0000   0.0000   0.0000
     0.0000   0.0000   0.0000   0.0000   0.0000   0.0000   0.0000   0.0000
     0.0000   0.0000   0.0000   0.0000   0.0000   0.0000   0.0000   0.0000
     0.0000   0.0000   0.0000   0.0000   0.0000   0.0000   0.0000   0.0000
     0.0000   0.0000   0.0000   0.0000   0.0000   0.0000   0.0000   0.0000

     highest occupied, lowest unoccupied level (ev):     5.3725    7.0651

!    total energy              =    -895.12450869 Ry
     estimated scf accuracy    <       0.00000100 Ry

     The total energy is the sum of the following terms:
     one-electron contribution =    -162.95886847 Ry
     hartree contribution      =     157.35156107 Ry
     xc contribution           =    -361.27781677 Ry
     ewald contribution        =    -528.23938452 Ry

     convergence has been achieved in   8 iterations

     Writing all to output data dir bands_nm/myprefix.save/

     General routines

     Parallel routines

   This run was terminated on:   0:30: 7  17Jul2023

   JOB DONE.