     Program PWSCF v.7.1 starts on 16Jul2023 at  5:52:15

     Reading input from espresso_18815.pwi
Warning: card &CELL ignored
Warning: card / ignored

     Current dimensions of program PWSCF are:
     Max number of different atomic species (ntypx) = 10
     Max number of k-points (npk) =  40000
     Max angular momentum in pseudopotentials (lmaxx) =  4
     file Nb.pbe-spn-kjpaw_psl.0.3.0.UPF: wavefunction(s)  4S 4P renormalized
     file O.pbe-n-kjpaw_psl.0.1.UPF: wavefunction(s)  2P renormalized
     Message from routine setup:
     using ibrav=0 with symmetry is DISCOURAGED, use correct ibrav instead

     K-points division:     npool     =       2
     R & G space division:  proc/nbgrp/npool/nimage =       4
     Subspace diagonalization in iterative solution of the eigenvalue problem:
     a serial algorithm will be used

     Using Slab Decomposition

     bravais-lattice index     =            0
     lattice parameter (alat)  =      11.8508  a.u.
     unit-cell volume          =     863.1379 (a.u.)^3
     number of atoms/cell      =           12
     number of atomic types    =            3
     number of electrons       =       100.00
     number of Kohn-Sham states=           64
     kinetic-energy cutoff     =      30.0000  Ry
     charge density cutoff     =     240.0000  Ry
     scf convergence threshold =      1.0E-06
     mixing beta               =       0.7000
     number of iterations used =            8  plain     mixing
     Exchange-correlation= SLA  PW   PBX  PBC
                           (   1   4   3   4   0   0   0)

     celldm(1)=  11.850827  celldm(2)=   0.000000  celldm(3)=   0.000000
     celldm(4)=   0.000000  celldm(5)=   0.000000  celldm(6)=   0.000000

     crystal axes: (cart. coord. in units of alat)
               a(1) = (   1.000000   0.000000   0.000000 )
               a(2) = (   0.374408   0.927264   0.000000 )
               a(3) = (  -0.687204  -0.463632   0.559282 )

     reciprocal axes: (cart. coord. in units 2 pi/alat)
               b(1) = (  1.000000 -0.403777  0.894004 )
               b(2) = (  0.000000  1.078441  0.894004 )
               b(3) = (  0.000000  0.000000  1.788007 )

     PseudoPot. # 1 for Nb read from file:
     /lustre07/scratch/pragov/crystal_structure_design/utils/SSSP/Nb.pbe-spn-kjpaw_psl.0.3.0.UPF
     MD5 check sum: 411d72ad547312f8017e2943ceca08cc
     Pseudo is Projector augmented-wave + core cor, Zval = 13.0
     Generated using "atomic" code by A. Dal Corso  v.5.0.99 svn rev. 10869
     Shape of augmentation charge: PSQ
     Using radial grid of 1227 points,  6 beta functions with:
                l(1) =   0
                l(2) =   0
                l(3) =   1
                l(4) =   1
                l(5) =   2
                l(6) =   2
     Q(r) pseudized with 0 coefficients

     PseudoPot. # 2 for V  read from file:
     /lustre07/scratch/pragov/crystal_structure_design/utils/SSSP/v_pbe_v1.4.uspp.F.UPF
     MD5 check sum: 22b79981416ebb76fdaf5b1b8640f6fb
     Pseudo is Ultrasoft + core correction, Zval = 13.0
     Generated by new atomic code, or converted to UPF format
     Using radial grid of  853 points,  6 beta functions with:
                l(1) =   0
                l(2) =   0
                l(3) =   1
                l(4) =   1
                l(5) =   2
                l(6) =   2
     Q(r) pseudized with  8 coefficients,  rinner =    1.100   1.100   1.100
                                                       1.100   1.100

     PseudoPot. # 3 for O  read from file:
     /lustre07/scratch/pragov/crystal_structure_design/utils/SSSP/O.pbe-n-kjpaw_psl.0.1.UPF
     MD5 check sum: 0234752ac141de4415c5fc33072bef88
     Pseudo is Projector augmented-wave + core cor, Zval =  6.0
     Generated using "atomic" code by A. Dal Corso  v.5.0.99 svn rev. 10869
     Shape of augmentation charge: BESSEL
     Using radial grid of 1095 points,  4 beta functions with:
                l(1) =   0
                l(2) =   0
                l(3) =   1
                l(4) =   1
     Q(r) pseudized with 0 coefficients

     atomic species   valence    mass     pseudopotential
        Nb            13.00    92.90637     Nb( 1.00)
        V             13.00    50.94150     V ( 1.00)
        O              6.00    15.99900     O ( 1.00)

      2 Sym. Ops., with inversion, found ( 1 have fractional translation)

                                    s                        frac. trans.

      isym =  1     identity

 cryst.   s( 1) = (     1          0          0      )
                  (     0          1          0      )
                  (     0          0          1      )

 cart.    s( 1) = (  1.0000000 -0.0000000  0.0000000 )
                  (  0.0000000  1.0000000 -0.0000000 )
                  (  0.0000000  0.0000000  1.0000000 )

      isym =  2     inversion

 cryst.   s( 2) = (    -1          0          0      )    f =(  0.2500000 )
                  (     0         -1          0      )       ( -0.2500000 )
                  (     0          0         -1      )       ( -0.5000000 )

 cart.    s( 2) = ( -1.0000000  0.0000000  0.0000000 )    f =(  0.5000000 )
                  (  0.0000000 -1.0000000  0.0000000 )       (  0.0000000 )
                  (  0.0000000  0.0000000 -1.0000000 )       ( -0.2796409 )

   Cartesian axes

     site n.     atom                  positions (alat units)
         1           Nb  tau(   1) = (   0.1872038   0.4636321   0.2796409  )
         2           Nb  tau(   2) = (   0.6872038   0.4636321   0.0000000  )
         3           V   tau(   3) = (   0.0000000   0.0000000   0.0000000  )
         4           V   tau(   4) = (   0.5000000  -0.0000000   0.2796409  )
         5           O   tau(   5) = (   0.4668807   0.3139712   0.2632445  )
         6           O   tau(   6) = (   0.1136379   0.0964466   0.2787975  )
         7           O   tau(   7) = (   0.8191808   0.5328932   0.2804843  )
         8           O   tau(   8) = (   0.0340620  -0.3153686   0.5428854  )
         9           O   tau(   9) = (  -0.2212659  -0.1482635   0.2960374  )
        10           O   tau(  10) = (   0.3680230  -0.0692611   0.5584384  )
        11           O   tau(  11) = (   0.7607698   0.8308176   0.0008434  )
        12           O   tau(  12) = (   0.4075269   0.6132930   0.0163965  )

   Crystallographic axes

     site n.     atom                  positions (cryst. coord.)
         1           Nb  tau(   1) = (  0.2500000  0.7500000  0.5000000  )
         2           Nb  tau(   2) = (  0.5000000  0.5000000  0.0000000  )
         3           V   tau(   3) = (  0.0000000  0.0000000  0.0000000  )
         4           V   tau(   4) = (  0.7500000  0.2500000  0.5000000  )
         5           O   tau(   5) = (  0.5754480  0.5739410  0.4706830  )
         6           O   tau(   6) = (  0.3239410  0.3532580  0.4984920  )
         7           O   tau(   7) = (  0.8547650  0.8254480  0.5015080  )
         8           O   tau(   8) = (  0.6467420  0.1452350  0.9706830  )
         9           O   tau(   9) = (  0.1032580  0.1047650  0.5293170  )
        10           O   tau(  10) = (  0.8952350  0.4245520  0.9984920  )
        11           O   tau(  11) = (  0.4260590  0.8967420  0.0015080  )
        12           O   tau(  12) = (  0.1745520  0.6760590  0.0293170  )

     number of k points=    14
                       cart. coord. in units 2pi/alat
        k(    1) = (   0.0000000   0.0000000   0.0000000), wk =   0.0740741
        k(    2) = (   0.0000000   0.0000000   0.5960024), wk =   0.1481481
        k(    3) = (   0.0000000   0.3594804   0.2980012), wk =   0.1481481
        k(    4) = (   0.0000000   0.3594804   0.8940036), wk =   0.1481481
        k(    5) = (   0.3333333  -0.1345922   0.2980012), wk =   0.1481481
        k(    6) = (   0.3333333  -0.1345922   0.8940036), wk =   0.1481481
        k(    7) = (   0.3333333   0.2248882   0.5960024), wk =   0.1481481
        k(    8) = (   0.3333333   0.2248882   0.0000000), wk =   0.1481481
        k(    9) = (   0.3333333  -0.4940727  -0.0000000), wk =   0.1481481
        k(   10) = (   0.3333333  -0.4940727   0.5960024), wk =   0.1481481
        k(   11) = (   0.0000000  -0.3594804   0.2980012), wk =   0.1481481
        k(   12) = (  -0.3333333   0.1345922   0.2980012), wk =   0.1481481
        k(   13) = (  -0.3333333  -0.2248882   0.5960024), wk =   0.1481481
        k(   14) = (  -0.3333333   0.4940727   0.5960024), wk =   0.1481481

                       cryst. coord.
        k(    1) = (   0.0000000   0.0000000   0.0000000), wk =   0.0740741
        k(    2) = (   0.0000000   0.0000000   0.3333333), wk =   0.1481481
        k(    3) = (   0.0000000   0.3333333   0.0000000), wk =   0.1481481
        k(    4) = (   0.0000000   0.3333333   0.3333333), wk =   0.1481481
        k(    5) = (   0.3333333   0.0000000  -0.0000000), wk =   0.1481481
        k(    6) = (   0.3333333   0.0000000   0.3333333), wk =   0.1481481
        k(    7) = (   0.3333333   0.3333333   0.0000000), wk =   0.1481481
        k(    8) = (   0.3333333   0.3333333  -0.3333333), wk =   0.1481481
        k(    9) = (   0.3333333  -0.3333333  -0.0000000), wk =   0.1481481
        k(   10) = (   0.3333333  -0.3333333   0.3333333), wk =   0.1481481
        k(   11) = (   0.0000000  -0.3333333   0.3333333), wk =   0.1481481
        k(   12) = (  -0.3333333   0.0000000   0.3333333), wk =   0.1481481
        k(   13) = (  -0.3333333  -0.3333333   0.6666667), wk =   0.1481481
        k(   14) = (  -0.3333333   0.3333333   0.3333333), wk =   0.1481481

     Check: negative core charge=   -0.000022

     Initial potential from superposition of free atoms

     starting charge      99.9933, renormalised to     100.0000

     negative rho (up, down):  1.790E-03 0.000E+00
     Starting wfcs are   72 randomized atomic wfcs
     Checking if some PAW data can be deallocated...

     Self-consistent Calculation

     iteration #  1     ecut=    30.00 Ry     beta= 0.70
     Davidson diagonalization with overlap

     ethr =  1.00E-02,  avg # of iterations =  2.0

     negative rho (up, down):  2.235E-03 0.000E+00

     total energy              =   -1289.27453392 Ry
     estimated scf accuracy    <       5.51302045 Ry

[...]

     total energy              =   -1292.29902405 Ry
     estimated scf accuracy    <       0.00000145 Ry

     iteration # 17     ecut=    30.00 Ry     beta= 0.70
     Davidson diagonalization with overlap

     ethr =  1.45E-09,  avg # of iterations =  2.9

     negative rho (up, down):  2.114E-03 0.000E+00

     End of self-consistent calculation

          k = 0.0000 0.0000 0.0000 (  2397 PWs)   bands (ev):

   -52.5670 -52.5642 -44.3599 -44.3440 -26.4332 -26.4332 -26.4248 -26.4248
   -26.3436 -26.3153 -20.5364 -20.5037 -20.5037 -20.4512 -20.4512 -20.3421
    -7.9037  -6.4590  -6.4066  -6.2593  -6.2593  -6.2200  -6.2200  -5.6649
     5.2322   5.3955   5.5062   5.5194   5.5971   5.5971   5.9615   6.0432
     7.3398   7.3398   7.7563   7.7563   8.0812   8.1902   8.3502   8.3503
     8.6132   8.6132   8.6254   9.7732   9.8350   9.9679  10.0980  10.0980
    12.5778  13.0716  13.1070  13.3045  13.8973  13.9664  13.9664  14.0106
    14.0106  14.3897  14.4407  14.7125  14.8202  15.3192  16.1204  16.1205

     occupation numbers
     1.0000   1.0000   1.0000   1.0000   1.0000   1.0000   1.0000   1.0000
     1.0000   1.0000   1.0000   1.0000   1.0000   1.0000   1.0000   1.0000
     1.0000   1.0000   1.0000   1.0000   1.0000   1.0000   1.0000   1.0000
     1.0000   1.0000   1.0000   1.0000   1.0000   1.0000   1.0000   1.0000
     1.0000   1.0000   1.0000   1.0000   1.0000   1.0000   1.0000   1.0000
     1.0000   1.0000   1.0000   1.0000   1.0000   1.0000   1.0000   1.0000
     1.0000   1.0000   0.0000   0.0000   0.0000   0.0000   0.0000   0.0000
     0.0000   0.0000   0.0000   0.0000   0.0000   0.0000   0.0000   0.0000

[...]

          k = 0.0000-0.3595 0.2980 (  2384 PWs)   bands (ev):

[...]

          k =-0.3333 0.1346 0.2980 (  2384 PWs)   bands (ev):

[...]

          k =-0.3333 0.4941 0.5960 (  2392 PWs)   bands (ev):

   -52.5660 -52.5653 -44.3539 -44.3500 -26.4378 -26.4368 -26.4242 -26.4200
   -26.3329 -26.3256 -20.5489 -20.5330 -20.4753 -20.4401 -20.4217 -20.3786
    -7.1029  -7.0137  -6.5966  -6.3428  -6.3123  -6.1650  -6.0761  -5.9627
     5.1638   5.5521   5.6031   5.8925   6.0841   6.0897   6.3854   6.4263
     6.6467   7.2134   7.2779   7.2918   8.1171   8.2623   8.3783   8.3935
     8.5549   8.8857   8.9053   9.3627   9.6006   9.6634   9.7468   9.9572
    13.0257  13.0971  13.2288  13.2888  13.5166  13.6079  13.9276  13.9667
    14.2177  14.2925  14.7715  14.8190  14.9320  14.9480  16.0788  16.3098

     occupation numbers
     1.0000   1.0000   1.0000   1.0000   1.0000   1.0000   1.0000   1.0000
     1.0000   1.0000   1.0000   1.0000   1.0000   1.0000   1.0000   1.0000
     1.0000   1.0000   1.0000   1.0000   1.0000   1.0000   1.0000   1.0000
     1.0000   1.0000   1.0000   1.0000   1.0000   1.0000   1.0000   1.0000
     1.0000   1.0000   1.0000   1.0000   1.0000   1.0000   1.0000   1.0000
     1.0000   1.0000   1.0000   1.0000   1.0000   1.0000   1.0000   1.0000
     1.0000   1.0000   0.0000   0.0000   0.0000   0.0000   0.0000   0.0000
     0.0000   0.0000   0.0000   0.0000   0.0000   0.0000   0.0000   0.0000

     highest occupied, lowest unoccupied level (ev):    13.1454   13.0952

!    total energy              =   -1292.29902415 Ry
     estimated scf accuracy    <          5.2E-09 Ry

     The total energy is the sum of the following terms:
     one-electron contribution =    -208.31137154 Ry
     hartree contribution      =     162.62579465 Ry
     xc contribution           =    -156.12523863 Ry
     ewald contribution        =    -597.32452223 Ry
     one-center paw contrib.   =    -493.16368640 Ry
      -> PAW hartree energy AE =     130.40737810 Ry
      -> PAW hartree energy PS =    -129.67674207 Ry
      -> PAW xc energy AE      =    -471.04351170 Ry
      -> PAW xc energy PS      =      53.34448444 Ry
      -> total E_H with PAW    =     163.35643068 Ry
      -> total E_XC with PAW   =    -573.82426589 Ry

     convergence has been achieved in  17 iterations

     Writing all to output data dir bands_nm/myprefix.save/

     General routines

     Parallel routines

     PAW routines

   This run was terminated on:   5:52:40  16Jul2023

   JOB DONE.