     Program PWSCF v.7.0 starts on  7Jun2023 at  8:26:19

     K-points division:     npool     =       2
     R & G space division:  proc/nbgrp/npool/nimage =       4

     Reading input from espresso_5423.pwi
Warning: card &CELL ignored
Warning: card / ignored

     Current dimensions of program PWSCF are:
     Max number of different atomic species (ntypx) = 10
     Max number of k-points (npk) =  40000
     Max angular momentum in pseudopotentials (lmaxx) =  4
     file O.pbe-n-kjpaw_psl.0.1.UPF: wavefunction(s)  2P renormalized
     Message from routine setup:
     using ibrav=0 with symmetry is DISCOURAGED, use correct ibrav instead

     Using Slab Decomposition

     bravais-lattice index     =            0
     lattice parameter (alat)  =      10.1114  a.u.
     unit-cell volume          =    1490.5992 (a.u.)^3
     number of atoms/cell      =           16
     number of atomic types    =            2
     number of electrons       =       128.00
     number of Kohn-Sham states=           64
     kinetic-energy cutoff     =      30.0000  Ry
     charge density cutoff     =     240.0000  Ry
     scf convergence threshold =      1.0E-06
     mixing beta               =       0.7000
     number of iterations used =            8  plain     mixing
     Exchange-correlation= SLA  PW   PBX  PBC
                           (   1   4   3   4   0   0   0)

     celldm(1)=  10.111416  celldm(2)=   0.000000  celldm(3)=   0.000000
     celldm(4)=   0.000000  celldm(5)=   0.000000  celldm(6)=   0.000000

     crystal axes: (cart. coord. in units of alat)
               a(1) = (   1.000000   0.000000   0.000000 )
               a(2) = (   0.000000   1.012624   0.000000 )
               a(3) = (   0.000000   0.000000   1.423890 )

     reciprocal axes: (cart. coord. in units 2 pi/alat)
               b(1) = (  1.000000  0.000000  0.000000 )
               b(2) = (  0.000000  0.987533  0.000000 )
               b(3) = (  0.000000  0.000000  0.702301 )

     PseudoPot. # 1 for W  read from file:
     /home/pragov/projects/rrg-bengioy-ad/pragov/crystal_structure_design/SSSP/W_pbe_v1.2.uspp.F.UPF
     MD5 check sum: 9c083fa34c2a2ea0f02f1f893e16e1c8
     Pseudo is Ultrasoft + core correction, Zval = 14.0
     Generated by new atomic code, or converted to UPF format
     Using radial grid of  923 points,  8 beta functions with:
                l(1) =   0
                l(2) =   0
                l(3) =   0
                l(4) =   1
                l(5) =   1
                l(6) =   2
                l(7) =   2
                l(8) =   3
     Q(r) pseudized with  6 coefficients,  rinner =    1.350   1.350   1.350
                                                       1.350   1.350   1.350
                                                       1.350

     PseudoPot. # 2 for O  read from file:
     /home/pragov/projects/rrg-bengioy-ad/pragov/crystal_structure_design/SSSP/O.pbe-n-kjpaw_psl.0.1.UPF
     MD5 check sum: 0234752ac141de4415c5fc33072bef88
     Pseudo is Projector augmented-wave + core cor, Zval =  6.0
     Generated using "atomic" code by A. Dal Corso  v.5.0.99 svn rev. 10869
     Shape of augmentation charge: BESSEL
     Using radial grid of 1095 points,  4 beta functions with:
                l(1) =   0
                l(2) =   0
                l(3) =   1
                l(4) =   1
     Q(r) pseudized with 0 coefficients

     atomic species   valence    mass     pseudopotential
        W             14.00   183.84000     W ( 1.00)
        O              6.00    15.99900     O ( 1.00)

      8 Sym. Ops., with inversion, found ( 6 have fractional translation)

                                    s                        frac. trans.

      isym =  1     identity

 cryst.   s( 1) = (     1          0          0      )
                  (     0          1          0      )
                  (     0          0          1      )

 cart.    s( 1) = (  1.0000000  0.0000000  0.0000000 )
                  (  0.0000000  1.0000000  0.0000000 )
                  (  0.0000000  0.0000000  1.0000000 )

      isym =  2     180 deg rotation - cart. axis [0,0,1]

 cryst.   s( 2) = (    -1          0          0      )    f =(  0.0000000 )
                  (     0         -1          0      )       (  0.0000000 )
                  (     0          0          1      )       ( -0.5000000 )

 cart.    s( 2) = ( -1.0000000  0.0000000  0.0000000 )    f =(  0.0000000 )
                  (  0.0000000 -1.0000000  0.0000000 )       (  0.0000000 )
                  (  0.0000000  0.0000000  1.0000000 )       ( -0.7119452 )

[...]

      isym =  4     180 deg rotation - cart. axis [1,0,0]

[...]

      isym =  5     inversion

 cryst.   s( 5) = (    -1          0          0      )
                  (     0         -1          0      )
                  (     0          0         -1      )

 cart.    s( 5) = ( -1.0000000  0.0000000  0.0000000 )
                  (  0.0000000 -1.0000000  0.0000000 )
                  (  0.0000000  0.0000000 -1.0000000 )

      isym =  6     inv. 180 deg rotation - cart. axis [0,0,1]

[...]

      isym =  8     inv. 180 deg rotation - cart. axis [1,0,0]

 cryst.   s( 8) = (    -1          0          0      )    f =(  0.5000000 )
                  (     0          1          0      )       (  0.5000000 )
                  (     0          0          1      )       (  0.0000000 )

 cart.    s( 8) = ( -1.0000000  0.0000000  0.0000000 )    f =(  0.5000000 )
                  (  0.0000000  1.0000000  0.0000000 )       (  0.5063122 )
                  (  0.0000000  0.0000000  1.0000000 )       (  0.0000000 )

   Cartesian axes

     site n.     atom                  positions (alat units)
         1           W   tau(   1) = (   0.5000000   0.5063122   0.0000000  )
         2           W   tau(   2) = (   0.0000000   0.0000000   0.7119452  )
         3           W   tau(   3) = (   0.5000000   0.5063122   0.7119452  )
         4           W   tau(   4) = (   0.0000000   0.0000000   0.0000000  )
         5           O   tau(   5) = (   0.7193230   0.7904182   0.6671325  )
         6           O   tau(   6) = (   0.7806770   0.2841060   0.0448127  )
         7           O   tau(   7) = (   0.2806770   0.2222063   0.7567578  )
         8           O   tau(   8) = (   0.2193230   0.7285185   1.3790776  )
         9           O   tau(   9) = (   0.2193230   0.7285185   0.7567578  )
        10           O   tau(  10) = (   0.2806770   0.2222063   1.3790776  )
        11           O   tau(  11) = (   0.7806770   0.2841060   0.6671325  )
        12           O   tau(  12) = (   0.7193230   0.7904182   0.0448127  )
        13           O   tau(  13) = (   0.0633020   1.0053194   0.3559726  )
        14           O   tau(  14) = (   0.4366980   0.4990071   0.3559726  )
        15           O   tau(  15) = (   0.5633020   0.5136173   1.0679177  )
        16           O   tau(  16) = (   0.9366980   0.0073051   1.0679177  )

   Crystallographic axes

     site n.     atom                  positions (cryst. coord.)
         1           W   tau(   1) = (  0.5000000  0.5000000  0.0000000  )
         2           W   tau(   2) = (  0.0000000  0.0000000  0.5000000  )
         3           W   tau(   3) = (  0.5000000  0.5000000  0.5000000  )
         4           W   tau(   4) = (  0.0000000  0.0000000  0.0000000  )
         5           O   tau(   5) = (  0.7193230  0.7805640  0.4685280  )
         6           O   tau(   6) = (  0.7806770  0.2805640  0.0314720  )
         7           O   tau(   7) = (  0.2806770  0.2194360  0.5314720  )
         8           O   tau(   8) = (  0.2193230  0.7194360  0.9685280  )
         9           O   tau(   9) = (  0.2193230  0.7194360  0.5314720  )
        10           O   tau(  10) = (  0.2806770  0.2194360  0.9685280  )
        11           O   tau(  11) = (  0.7806770  0.2805640  0.4685280  )
        12           O   tau(  12) = (  0.7193230  0.7805640  0.0314720  )
        13           O   tau(  13) = (  0.0633020  0.9927860  0.2500000  )
        14           O   tau(  14) = (  0.4366980  0.4927860  0.2500000  )
        15           O   tau(  15) = (  0.5633020  0.5072140  0.7500000  )
        16           O   tau(  16) = (  0.9366980  0.0072140  0.7500000  )

     number of k points=     8
                       cart. coord. in units 2pi/alat
        k(    1) = (   0.0000000   0.0000000   0.0000000), wk =   0.0740741
        k(    2) = (   0.0000000   0.0000000   0.2341004), wk =   0.1481481
        k(    3) = (   0.0000000   0.3291776   0.0000000), wk =   0.1481481
        k(    4) = (   0.0000000   0.3291776   0.2341004), wk =   0.2962963
        k(    5) = (   0.3333333   0.0000000   0.0000000), wk =   0.1481481
        k(    6) = (   0.3333333   0.0000000   0.2341004), wk =   0.2962963
        k(    7) = (   0.3333333   0.3291776   0.0000000), wk =   0.2962963
        k(    8) = (   0.3333333   0.3291776   0.2341004), wk =   0.5925926

                       cryst. coord.
        k(    1) = (   0.0000000   0.0000000   0.0000000), wk =   0.0740741
        k(    2) = (   0.0000000   0.0000000   0.3333333), wk =   0.1481481
        k(    3) = (   0.0000000   0.3333333   0.0000000), wk =   0.1481481
        k(    4) = (   0.0000000   0.3333333   0.3333333), wk =   0.2962963
        k(    5) = (   0.3333333   0.0000000   0.0000000), wk =   0.1481481
        k(    6) = (   0.3333333   0.0000000   0.3333333), wk =   0.2962963
        k(    7) = (   0.3333333   0.3333333   0.0000000), wk =   0.2962963
        k(    8) = (   0.3333333   0.3333333   0.3333333), wk =   0.5925926

     Check: negative core charge=   -0.000010

     Initial potential from superposition of free atoms

     starting charge     127.5986, renormalised to     128.0000

     negative rho (up, down):  2.623E-01 0.000E+00
     Starting wfcs are  100 randomized atomic wfcs
     Checking if some PAW data can be deallocated...

     Self-consistent Calculation

     iteration #  1     ecut=    30.00 Ry     beta= 0.70
     Davidson diagonalization with overlap

     ethr =  1.00E-02,  avg # of iterations =  2.0

     negative rho (up, down):  2.473E-01 0.000E+00

     total energy              =   -1132.66148005 Ry
     estimated scf accuracy    <       6.95280035 Ry

[...]

     total energy              =   -1136.50734617 Ry
     estimated scf accuracy    <       0.00000239 Ry

     iteration # 13     ecut=    30.00 Ry     beta= 0.70
     Davidson diagonalization with overlap

     ethr =  1.86E-09,  avg # of iterations =  5.1

     negative rho (up, down):  2.520E-01 0.000E+00

     End of self-consistent calculation

          k = 0.0000 0.0000 0.0000 (  4145 PWs)   bands (ev):

   -68.8948 -68.8943 -68.8937 -68.8935 -33.1119 -33.1092 -33.1044 -33.1043
   -33.0995 -33.0955 -33.0446 -33.0420 -33.0360 -33.0333 -33.0278 -33.0274
   -12.3371 -12.0365 -11.7342 -11.5661 -11.5558 -11.5273 -10.5027 -10.4538
   -10.4474 -10.3976 -10.3967 -10.3941  -0.7610  -0.7106  -0.7060  -0.6336
    -0.4705  -0.1960   0.7974   0.9204   0.9437   0.9481   2.7318   2.8063
     2.8083   2.8161   3.0103   3.0640   3.0816   3.4233   3.4686   3.6820
     3.8313   4.1789   4.2995   4.6294   4.9124   5.0046   5.0614   5.0628
     5.0714   5.0915   5.0936   5.1005   5.6158   5.7215   5.8539   5.8907

     occupation numbers
     1.0000   1.0000   1.0000   1.0000   1.0000   1.0000   1.0000   1.0000
     1.0000   1.0000   1.0000   1.0000   1.0000   1.0000   1.0000   1.0000
     1.0000   1.0000   1.0000   1.0000   1.0000   1.0000   1.0000   1.0000
     1.0000   1.0000   1.0000   1.0000   1.0000   1.0000   1.0000   1.0000
     1.0000   1.0000   1.0000   1.0000   1.0000   1.0000   1.0000   1.0000
     1.0000   1.0000   1.0000   1.0000   1.0000   1.0000   1.0000   1.0000
     1.0000   1.0000   1.0000   1.0000   1.0000   1.0000   1.0000   1.0000
     1.0000   1.0000   1.0000   1.0000   1.0000   1.0000   1.0000   1.0000

[...]

          k = 0.3333 0.3292 0.2341 (  4145 PWs)   bands (ev):

   -68.8943 -68.8941 -68.8940 -68.8938 -33.1096 -33.1078 -33.0932 -33.0911
   -33.0836 -33.0825 -33.0531 -33.0527 -33.0493 -33.0456 -33.0357 -33.0340
   -11.9402 -11.8080 -11.6797 -11.4857 -11.3745 -11.2797 -10.8768 -10.8353
   -10.7946 -10.7647 -10.4758 -10.4472  -0.6437  -0.6295   0.1432   0.2473
     0.3660   0.4580   1.1447   1.4395   1.8773   1.9426   2.0577   2.1660
     2.2040   2.2308   2.3640   2.4930   2.5966   2.8957   2.9641   3.1873
     3.4305   3.4942   3.9659   4.2237   4.3216   4.3478   4.3977   4.6858
     4.7485   4.9817   5.0943   5.1042   5.1593   5.2347   5.6067   5.7034

     occupation numbers
     1.0000   1.0000   1.0000   1.0000   1.0000   1.0000   1.0000   1.0000
     1.0000   1.0000   1.0000   1.0000   1.0000   1.0000   1.0000   1.0000
     1.0000   1.0000   1.0000   1.0000   1.0000   1.0000   1.0000   1.0000
     1.0000   1.0000   1.0000   1.0000   1.0000   1.0000   1.0000   1.0000
     1.0000   1.0000   1.0000   1.0000   1.0000   1.0000   1.0000   1.0000
     1.0000   1.0000   1.0000   1.0000   1.0000   1.0000   1.0000   1.0000
     1.0000   1.0000   1.0000   1.0000   1.0000   1.0000   1.0000   1.0000
     1.0000   1.0000   1.0000   1.0000   1.0000   1.0000   1.0000   1.0000

     highest occupied level (ev):     5.8907

!    total energy              =   -1136.50734713 Ry
     estimated scf accuracy    <       0.00000020 Ry

     The total energy is the sum of the following terms:
     one-electron contribution =    -458.14781159 Ry
     hartree contribution      =     279.25100299 Ry
     xc contribution           =    -252.89882830 Ry
     ewald contribution        =    -590.44050023 Ry
     one-center paw contrib.   =    -114.27121001 Ry
      -> PAW hartree energy AE =       0.00000000 Ry
      -> PAW hartree energy PS =       0.00000000 Ry
      -> PAW xc energy AE      =       0.00000000 Ry
      -> PAW xc energy PS      =       0.00000000 Ry
      -> total E_H with PAW    =     279.25100299 Ry
      -> total E_XC with PAW   =    -252.89882830 Ry

     convergence has been achieved in  13 iterations

     Writing all to output data dir calculations_bands/myprefix.save/

     General routines

     Parallel routines

     PAW routines

   This run was terminated on:   8:26:32   7Jun2023

   JOB DONE.