     Program PWSCF v.7.1 starts on 17Jul2023 at  1:36:46

     Reading input from espresso_10212.pwi
Warning: card &CELL ignored
Warning: card / ignored

     Current dimensions of program PWSCF are:
     Max number of different atomic species (ntypx) = 10
     Max number of k-points (npk) =  40000
     Max angular momentum in pseudopotentials (lmaxx) =  4
     file Pb.pbe-dn-kjpaw_psl.0.2.2.UPF: wavefunction(s)  6S renormalized
     file O.pbe-n-kjpaw_psl.0.1.UPF: wavefunction(s)  2P renormalized
     Message from routine setup:
     using ibrav=0 with symmetry is DISCOURAGED, use correct ibrav instead

     K-points division:     npool     =       2
     R & G space division:  proc/nbgrp/npool/nimage =       4
     Subspace diagonalization in iterative solution of the eigenvalue problem:
     one sub-group per band group will be used

     Using Slab Decomposition

     bravais-lattice index     =            0
     lattice parameter (alat)  =      11.0602  a.u.
     unit-cell volume          =    1459.6640 (a.u.)^3
     number of atoms/cell      =           15
     number of atomic types    =            4
     number of electrons       =       132.00
     number of Kohn-Sham states=          256
     kinetic-energy cutoff     =      30.0000  Ry
     charge density cutoff     =     240.0000  Ry
     scf convergence threshold =      1.0E-06
     mixing beta               =       0.7000
     number of iterations used =            8  plain     mixing
     Exchange-correlation= SLA  PW   PBX  PBC
                           (   1   4   3   4   0   0   0)

     celldm(1)=  11.060232  celldm(2)=   0.000000  celldm(3)=   0.000000
     celldm(4)=   0.000000  celldm(5)=   0.000000  celldm(6)=   0.000000

     crystal axes: (cart. coord. in units of alat)
               a(1) = (   1.000000   0.000000   0.000000 )
               a(2) = (  -0.500000   0.866026   0.000000 )
               a(3) = (   0.000000   0.000000   1.245746 )

     reciprocal axes: (cart. coord. in units 2 pi/alat)
               b(1) = (  1.000000  0.577350  0.000000 )
               b(2) = (  0.000000  1.154700  0.000000 )
               b(3) = (  0.000000  0.000000  0.802732 )

     PseudoPot. # 1 for Zr read from file:
     /lustre07/scratch/pragov/crystal_structure_design/utils/SSSP/Zr_pbe_v1.uspp.F.UPF
     MD5 check sum: 5db81b1e868ab7776c4564c113de050b
     Pseudo is Ultrasoft + core correction, Zval = 12.0
     Generated by new atomic code, or converted to UPF format
     Using radial grid of  887 points,  6 beta functions with:
                l(1) =   0
                l(2) =   0
                l(3) =   1
                l(4) =   1
                l(5) =   2
                l(6) =   2
     Q(r) pseudized with  6 coefficients,  rinner =    1.200   1.200   1.200
                                                       1.200   1.200

     PseudoPot. # 2 for Ti read from file:
     /lustre07/scratch/pragov/crystal_structure_design/utils/SSSP/ti_pbe_v1.4.uspp.F.UPF
     MD5 check sum: 88a00a6731bd790ddea75d31a80cb452
     Pseudo is Ultrasoft + core correction, Zval = 12.0
     Generated by new atomic code, or converted to UPF format
     Using radial grid of  851 points,  6 beta functions with:
                l(1) =   0
                l(2) =   0
                l(3) =   1
                l(4) =   1
                l(5) =   2
                l(6) =   2
     Q(r) pseudized with  6 coefficients,  rinner =    1.000   1.000   1.000
                                                       1.000   1.000

     PseudoPot. # 3 for Pb read from file:
     /lustre07/scratch/pragov/crystal_structure_design/utils/SSSP/Pb.pbe-dn-kjpaw_psl.0.2.2.UPF
     MD5 check sum: 9d431e6316058b74ade52399a6cf67da
     Pseudo is Projector augmented-wave + core cor, Zval = 14.0
     Generated using "atomic" code by A. Dal Corso  v.5.0.99 svn rev. 10869
     Shape of augmentation charge: PSQ
     Using radial grid of 1281 points,  6 beta functions with:
                l(1) =   0
                l(2) =   0
                l(3) =   1
                l(4) =   1
                l(5) =   2
                l(6) =   2
     Q(r) pseudized with 0 coefficients

     PseudoPot. # 4 for O  read from file:
     /lustre07/scratch/pragov/crystal_structure_design/utils/SSSP/O.pbe-n-kjpaw_psl.0.1.UPF
     MD5 check sum: 0234752ac141de4415c5fc33072bef88
     Pseudo is Projector augmented-wave + core cor, Zval =  6.0
     Generated using "atomic" code by A. Dal Corso  v.5.0.99 svn rev. 10869
     Shape of augmentation charge: BESSEL
     Using radial grid of 1095 points,  4 beta functions with:
                l(1) =   0
                l(2) =   0
                l(3) =   1
                l(4) =   1
     Q(r) pseudized with 0 coefficients

     atomic species   valence    mass     pseudopotential
        Zr            12.00    91.22400     Zr( 1.00)
        Ti            12.00    47.86700     Ti( 1.00)
        Pb            14.00   207.20000     Pb( 1.00)
        O              6.00    15.99900     O ( 1.00)

      6 Sym. Ops. (no inversion) found

                                    s                        frac. trans.

      isym =  1     identity

 cryst.   s( 1) = (     1          0          0      )
                  (     0          1          0      )
                  (     0          0          1      )

 cart.    s( 1) = (  1.0000000  0.0000000  0.0000000 )
                  (  0.0000000  1.0000000  0.0000000 )
                  (  0.0000000  0.0000000  1.0000000 )

      isym =  2     120 deg rotation - cryst. axis [0,0,1]

[...]

      isym =  3     120 deg rotation - cryst. axis [0,0,-1]

[...]

      isym =  4     inv. 180 deg rotation - cart. axis [1,0,0]

[...]

      isym =  5     inv. 180 deg rotation - cryst. axis [0,1,0]

[...]

      isym =  6     inv. 180 deg rotation - cryst. axis [1,1,0]

 cryst.   s( 6) = (     0         -1          0      )
                  (    -1          0          0      )
                  (     0          0          1      )

 cart.    s( 6) = (  0.4999998 -0.8660255  0.0000000 )
                  ( -0.8660255 -0.4999998  0.0000000 )
                  (  0.0000000  0.0000000  1.0000000 )

   Cartesian axes

     site n.     atom                  positions (alat units)
         1           Zr  tau(   1) = (   0.5000006   0.2886749   0.8466787  )
         2           Zr  tau(   2) = (   0.0000000   0.0000000   0.0300125  )
         3           Ti  tau(   3) = (  -0.0000004   0.5773506   0.4423071  )
         4           Pb  tau(   4) = (  -0.0000004   0.5773506   1.1293733  )
         5           Pb  tau(   5) = (   0.5000006   0.2886749   0.2795965  )
         6           Pb  tau(   6) = (   0.0000000   0.0000000   0.6947911  )
         7           O   tau(   7) = (   0.0000002   0.8653448   0.5941946  )
         8           O   tau(   8) = (   0.4999996   0.5900985   1.0195159  )
         9           O   tau(   9) = (  -0.0000004   0.3068995   0.2000419  )
        10           O   tau(  10) = (   0.2494106   0.4333531   0.5941946  )
        11           O   tau(  11) = (   0.7610395   0.1379639   1.0195159  )
        12           O   tau(  12) = (  -0.2342178   0.7125762   0.2000419  )
        13           O   tau(  13) = (  -0.2494104   0.4333531   0.5941946  )
        14           O   tau(  14) = (   0.2389595   0.1379639   1.0195159  )
        15           O   tau(  15) = (   0.2342172   0.7125762   0.2000419  )

   Crystallographic axes

     site n.     atom                  positions (cryst. coord.)
         1           Zr  tau(   1) = (  0.6666670  0.3333330  0.6796560  )
         2           Zr  tau(   2) = (  0.0000000  0.0000000  0.0240920  )
         3           Ti  tau(   3) = (  0.3333330  0.6666670  0.3550540  )
         4           Pb  tau(   4) = (  0.3333330  0.6666670  0.9065840  )
         5           Pb  tau(   5) = (  0.6666670  0.3333330  0.2244410  )
         6           Pb  tau(   6) = (  0.0000000  0.0000000  0.5577310  )
         7           O   tau(   7) = (  0.4996070  0.9992140  0.4769790  )
         8           O   tau(   8) = (  0.8406930  0.6813870  0.8183980  )
         9           O   tau(   9) = (  0.1771880  0.3543770  0.1605800  )
        10           O   tau(  10) = (  0.4996070  0.5003930  0.4769790  )
        11           O   tau(  11) = (  0.8406930  0.1593070  0.8183980  )
        12           O   tau(  12) = (  0.1771880  0.8228120  0.1605800  )
        13           O   tau(  13) = (  0.0007860  0.5003930  0.4769790  )
        14           O   tau(  14) = (  0.3186130  0.1593070  0.8183980  )
        15           O   tau(  15) = (  0.6456230  0.8228120  0.1605800  )

     number of k points=     7
                       cart. coord. in units 2pi/alat
        k(    1) = (   0.0000000   0.0000000   0.0000000), wk =   0.0740741
        k(    2) = (   0.0000000   0.0000000   0.2675773), wk =   0.1481481
        k(    3) = (   0.0000000   0.3849001   0.0000000), wk =   0.4444444
        k(    4) = (   0.0000000   0.3849001   0.2675773), wk =   0.4444444
        k(    5) = (   0.3333333   0.5773501   0.0000000), wk =   0.1481481
        k(    6) = (   0.3333333   0.5773501   0.2675773), wk =   0.2962963
        k(    7) = (   0.0000000  -0.3849001   0.2675773), wk =   0.4444444

                       cryst. coord.
        k(    1) = (   0.0000000   0.0000000   0.0000000), wk =   0.0740741
        k(    2) = (   0.0000000   0.0000000   0.3333333), wk =   0.1481481
        k(    3) = (   0.0000000   0.3333333   0.0000000), wk =   0.4444444
        k(    4) = (   0.0000000   0.3333333   0.3333333), wk =   0.4444444
        k(    5) = (   0.3333333   0.3333333   0.0000000), wk =   0.1481481
        k(    6) = (   0.3333333   0.3333333   0.3333333), wk =   0.2962963
        k(    7) = (   0.0000000  -0.3333333   0.3333333), wk =   0.4444444

     Check: negative core charge=   -0.000011

     Initial potential from superposition of free atoms

     starting charge     130.9886, renormalised to     132.0000

     negative rho (up, down):  1.241E-01 0.000E+00
     Starting wfcs are   99 randomized atomic wfcs +  157 random wfcs
     Checking if some PAW data can be deallocated...

     Self-consistent Calculation

     iteration #  1     ecut=    30.00 Ry     beta= 0.70
     Davidson diagonalization with overlap

     ethr =  1.00E-02,  avg # of iterations =  7.0

     negative rho (up, down):  1.278E-01 0.000E+00

     total energy              =   -3301.87419033 Ry
     estimated scf accuracy    <       5.59871065 Ry

[...]

     total energy              =   -3304.99998676 Ry
     estimated scf accuracy    <       0.00000529 Ry

     iteration # 13     ecut=    30.00 Ry     beta= 0.70
     Davidson diagonalization with overlap

     ethr =  4.01E-09,  avg # of iterations =  1.1

     negative rho (up, down):  1.324E-01 0.000E+00

     End of self-consistent calculation

          k = 0.0000 0.0000 0.0000 (  4081 PWs)   bands (ev):

   -47.2159 -38.3907 -38.2572 -23.4773 -23.4659 -23.4658 -16.6370 -16.6370
   -16.6311 -16.4788 -16.4788 -16.4477  -8.0258  -7.3374  -7.3374  -7.2320
    -7.1408  -7.1289  -7.1289  -6.9111  -6.9110  -6.0784  -6.0784  -6.0260
    -6.0260  -6.0145  -5.9458  -5.9458  -5.9448  -5.8443  -5.8442  -5.7515
    -5.7280  -5.7280  -5.5518  -5.5518   2.4066   2.5169   3.2870   5.3392
     5.3392   5.3666   5.3666   5.6971   5.8052   5.9694   5.9694   6.1678
     6.1679   6.4253   6.4727   6.4727   7.3736   7.5864   7.9415   7.9415
     8.0694   8.2529   8.3326   8.3326   8.5194   8.5194   8.6578   8.6578
     8.8479   8.9829  12.1537  12.1537  12.2590  13.2960  13.4539  13.8198
    13.8198  14.4847  14.5039  14.5039  14.7520  14.7520  15.1610  15.1611
    15.2137  15.2137  15.4075  15.5836  15.5836  16.7220  17.5054  17.5054
    18.6627  18.6627  19.6462  19.7831  19.7832  21.4410  21.4625  21.4625
    21.8436  21.9268  21.9268  23.6367  23.8634  23.8634  23.8650  23.9358
    24.2930  24.2930  25.0422  25.0422  25.1904  25.5680  26.2134  26.7990
    27.4395  27.5881  27.5907  27.5907  27.6053  27.8367  28.5693  28.5693
    28.7709  28.7709  29.0028  29.3075  29.8707  29.8708  30.6472  30.6472
    30.9430  30.9431  31.3913  32.2302  32.3097  32.3097  32.5692  32.7474
    32.7475  33.0150  33.0151  33.7623  33.7623  34.1902  34.3705  34.3706
    35.0441  35.0750  35.2991  35.2992  35.4941  35.6912  35.6912  35.8488
    35.8488  36.5978  37.2403  37.3201  37.3201  37.4797  37.4798  38.2306
    38.2306  38.4198  39.3465  39.3465  39.4388  39.7138  39.7138  39.8329
    39.8896  40.0372  40.0372  40.4655  40.4799  41.2688  41.2688  42.0846
    42.0846  42.1029  42.3044  42.3044  42.5277  42.6989  42.6990  42.8236
    43.1038  43.1038  43.3546  44.0834  44.1674  44.2184  44.3257  44.3258
    44.7753  44.7753  44.7965  45.2641  45.2641  45.6020  45.9281  46.3562
    46.3563  46.6740  46.6741  47.1077  47.2446  47.2446  47.5664  47.5664
    47.8007  47.9484  48.2544  48.2544  48.8558  49.0708  49.2495  49.2495
    49.4753  49.4753  49.6348  49.7922  50.0429  50.3273  50.3273  50.7164
    50.7164  50.9313  50.9313  51.0589  51.1066  51.1066  52.0698  52.1616
    52.1617  52.5008  52.8590  52.8591  52.8984  53.3892  53.4264  53.4264
    53.5617  53.9006  53.9006  53.9449  54.0262  54.0262  54.1499  54.1499
    54.1604  54.3775  54.4124  54.4124  55.0567  55.0568  55.0990  55.3610

     occupation numbers
     1.0000   1.0000   1.0000   1.0000   1.0000   1.0000   1.0000   1.0000
     1.0000   1.0000   1.0000   1.0000   1.0000   1.0000   1.0000   1.0000
     1.0000   1.0000   1.0000   1.0000   1.0000   1.0000   1.0000   1.0000
     1.0000   1.0000   1.0000   1.0000   1.0000   1.0000   1.0000   1.0000
     1.0000   1.0000   1.0000   1.0000   1.0000   1.0000   1.0000   1.0000
     1.0000   1.0000   1.0000   1.0000   1.0000   1.0000   1.0000   1.0000
     1.0000   1.0000   1.0000   1.0000   1.0000   1.0000   1.0000   1.0000
     1.0000   1.0000   1.0000   1.0000   1.0000   1.0000   1.0000   1.0000
     1.0000   1.0000   0.0000   0.0000   0.0000   0.0000   0.0000   0.0000
     0.0000   0.0000   0.0000   0.0000   0.0000   0.0000   0.0000   0.0000
     0.0000   0.0000   0.0000   0.0000   0.0000   0.0000   0.0000   0.0000
     0.0000   0.0000   0.0000   0.0000   0.0000   0.0000   0.0000   0.0000
     0.0000   0.0000   0.0000   0.0000   0.0000   0.0000   0.0000   0.0000
     0.0000   0.0000   0.0000   0.0000   0.0000   0.0000   0.0000   0.0000
     0.0000   0.0000   0.0000   0.0000   0.0000   0.0000   0.0000   0.0000
     0.0000   0.0000   0.0000   0.0000   0.0000   0.0000   0.0000   0.0000
     0.0000   0.0000   0.0000   0.0000   0.0000   0.0000   0.0000   0.0000
     0.0000   0.0000   0.0000   0.0000   0.0000   0.0000   0.0000   0.0000
     0.0000   0.0000   0.0000   0.0000   0.0000   0.0000   0.0000   0.0000
     0.0000   0.0000   0.0000   0.0000   0.0000   0.0000   0.0000   0.0000
     0.0000   0.0000   0.0000   0.0000   0.0000   0.0000   0.0000   0.0000
     0.0000   0.0000   0.0000   0.0000   0.0000   0.0000   0.0000   0.0000
     0.0000   0.0000   0.0000   0.0000   0.0000   0.0000   0.0000   0.0000
     0.0000   0.0000   0.0000   0.0000   0.0000   0.0000   0.0000   0.0000
     0.0000   0.0000   0.0000   0.0000   0.0000   0.0000   0.0000   0.0000
     0.0000   0.0000   0.0000   0.0000   0.0000   0.0000   0.0000   0.0000
     0.0000   0.0000   0.0000   0.0000   0.0000   0.0000   0.0000   0.0000
     0.0000   0.0000   0.0000   0.0000   0.0000   0.0000   0.0000   0.0000
     0.0000   0.0000   0.0000   0.0000   0.0000   0.0000   0.0000   0.0000
     0.0000   0.0000   0.0000   0.0000   0.0000   0.0000   0.0000   0.0000
     0.0000   0.0000   0.0000   0.0000   0.0000   0.0000   0.0000   0.0000
     0.0000   0.0000   0.0000   0.0000   0.0000   0.0000   0.0000   0.0000

[...]

          k = 0.0000-0.3849 0.2676 (  4050 PWs)   bands (ev):

   -47.2157 -38.3907 -38.2573 -23.4773 -23.4660 -23.4659 -16.6451 -16.6384
   -16.6289 -16.4813 -16.4779 -16.4426  -7.7074  -7.5926  -7.3562  -7.3165
    -7.2011  -7.1046  -6.9403  -6.8870  -6.8683  -6.0960  -6.0855  -6.0461
    -6.0384  -6.0196  -5.9841  -5.9255  -5.9240  -5.8550  -5.8542  -5.7925
    -5.7733  -5.7454  -5.5868  -5.5552   2.3474   2.4470   2.6408   5.1075
     5.4059   5.4082   5.5767   5.8022   5.9556   6.0965   6.2044   6.4945
     6.6532   6.7649   7.1945   7.1975   7.3917   7.4468   7.4694   7.7118
     7.8849   7.9865   8.0660   8.2864   8.3034   8.3857   8.5175   8.6992
     8.9783   9.0254  12.2544  12.5005  12.5827  12.8955  13.3791  13.6254
    13.9145  13.9913  14.2403  14.3300  14.3343  14.7726  14.8446  14.9631
    14.9778  15.3417  15.4734  15.7064  15.7168  16.0088  17.2605  17.4339
    18.1255  18.9847  20.3342  20.5498  21.0571  21.4560  21.7734  21.9626
    22.0714  22.2853  22.5253  22.9102  23.0752  23.4949  23.6648  23.8455
    24.3522  24.4969  24.5390  25.2799  25.3590  25.7659  26.1254  26.9349
    27.2764  27.2860  27.4378  27.7697  27.8410  27.9160  28.5079  28.8002
    28.8226  28.8806  29.1652  29.4732  29.8107  30.0934  30.1619  30.2481
    30.4759  30.8545  30.9123  31.2491  31.5671  31.8187  31.9533  32.4809
    32.9558  33.1856  33.2668  33.8339  34.1148  34.3519  34.4363  34.7209
    35.2628  35.2683  35.4935  35.5306  35.8288  36.4534  36.8829  36.8985
    37.0225  37.0675  37.2813  37.3818  37.6918  37.7953  37.9702  38.2380
    38.3761  38.6969  38.9839  39.0501  39.3465  39.5114  39.5651  39.8288
    40.0380  40.2498  40.2757  40.8804  41.0261  41.1714  41.4929  41.5917
    41.6860  41.6985  41.8763  42.1332  42.2889  42.3766  42.6732  42.8801
    43.0854  43.3001  43.3733  43.5637  43.6608  43.8334  44.0216  44.3069
    44.4720  44.5672  44.7830  44.8776  45.1787  45.2517  45.4112  45.5526
    45.7579  45.7886  46.3260  46.4846  46.7210  47.0385  47.1821  47.3459
    47.6541  47.6592  47.9847  48.0363  48.4021  48.5114  48.7589  48.9088
    49.2208  49.2936  49.3493  49.5231  49.8239  49.8770  50.2184  50.3917
    50.5930  50.9348  50.9532  51.2446  51.4349  51.5030  51.8033  51.9539
    52.2015  52.2944  52.5440  52.5745  52.9422  53.1235  53.2068  53.5164
    53.8995  53.9153  54.0622  54.1510  54.3382  54.6879  54.7284  55.1367
    55.2141  55.4452  55.5846  55.7745  55.8299  56.0880  56.2572  56.2686

     occupation numbers
     1.0000   1.0000   1.0000   1.0000   1.0000   1.0000   1.0000   1.0000
     1.0000   1.0000   1.0000   1.0000   1.0000   1.0000   1.0000   1.0000
     1.0000   1.0000   1.0000   1.0000   1.0000   1.0000   1.0000   1.0000
     1.0000   1.0000   1.0000   1.0000   1.0000   1.0000   1.0000   1.0000
     1.0000   1.0000   1.0000   1.0000   1.0000   1.0000   1.0000   1.0000
     1.0000   1.0000   1.0000   1.0000   1.0000   1.0000   1.0000   1.0000
     1.0000   1.0000   1.0000   1.0000   1.0000   1.0000   1.0000   1.0000
     1.0000   1.0000   1.0000   1.0000   1.0000   1.0000   1.0000   1.0000
     1.0000   1.0000   0.0000   0.0000   0.0000   0.0000   0.0000   0.0000
     0.0000   0.0000   0.0000   0.0000   0.0000   0.0000   0.0000   0.0000
     0.0000   0.0000   0.0000   0.0000   0.0000   0.0000   0.0000   0.0000
     0.0000   0.0000   0.0000   0.0000   0.0000   0.0000   0.0000   0.0000
     0.0000   0.0000   0.0000   0.0000   0.0000   0.0000   0.0000   0.0000
     0.0000   0.0000   0.0000   0.0000   0.0000   0.0000   0.0000   0.0000
     0.0000   0.0000   0.0000   0.0000   0.0000   0.0000   0.0000   0.0000
     0.0000   0.0000   0.0000   0.0000   0.0000   0.0000   0.0000   0.0000
     0.0000   0.0000   0.0000   0.0000   0.0000   0.0000   0.0000   0.0000
     0.0000   0.0000   0.0000   0.0000   0.0000   0.0000   0.0000   0.0000
     0.0000   0.0000   0.0000   0.0000   0.0000   0.0000   0.0000   0.0000
     0.0000   0.0000   0.0000   0.0000   0.0000   0.0000   0.0000   0.0000
     0.0000   0.0000   0.0000   0.0000   0.0000   0.0000   0.0000   0.0000
     0.0000   0.0000   0.0000   0.0000   0.0000   0.0000   0.0000   0.0000
     0.0000   0.0000   0.0000   0.0000   0.0000   0.0000   0.0000   0.0000
     0.0000   0.0000   0.0000   0.0000   0.0000   0.0000   0.0000   0.0000
     0.0000   0.0000   0.0000   0.0000   0.0000   0.0000   0.0000   0.0000
     0.0000   0.0000   0.0000   0.0000   0.0000   0.0000   0.0000   0.0000
     0.0000   0.0000   0.0000   0.0000   0.0000   0.0000   0.0000   0.0000
     0.0000   0.0000   0.0000   0.0000   0.0000   0.0000   0.0000   0.0000
     0.0000   0.0000   0.0000   0.0000   0.0000   0.0000   0.0000   0.0000
     0.0000   0.0000   0.0000   0.0000   0.0000   0.0000   0.0000   0.0000
     0.0000   0.0000   0.0000   0.0000   0.0000   0.0000   0.0000   0.0000
     0.0000   0.0000   0.0000   0.0000   0.0000   0.0000   0.0000   0.0000

     highest occupied, lowest unoccupied level (ev):     9.1350   12.1537

!    total energy              =   -3304.99998779 Ry
     estimated scf accuracy    <       0.00000010 Ry

     The total energy is the sum of the following terms:
     one-electron contribution =    -238.80747111 Ry
     hartree contribution      =     210.66023186 Ry
     xc contribution           =    -253.70442065 Ry
     ewald contribution        =    -751.97565807 Ry
     one-center paw contrib.   =   -2271.17266982 Ry
      -> PAW hartree energy AE =       0.00000000 Ry
      -> PAW hartree energy PS =       0.00000000 Ry
      -> PAW xc energy AE      =       0.00000000 Ry
      -> PAW xc energy PS      =       0.00000000 Ry
      -> total E_H with PAW    =     210.66023186 Ry
      -> total E_XC with PAW   =    -253.70442065 Ry

     convergence has been achieved in  13 iterations

     Writing all to output data dir bands_nm/myprefix.save/

     General routines

     Parallel routines

     PAW routines

   This run was terminated on:   1:37:42  17Jul2023

   JOB DONE.