     Program PWSCF v.7.1 starts on 13Jul2023 at  2:20:34

     Reading input from espresso_4713.pwi
Warning: card &CELL ignored
Warning: card / ignored

     Current dimensions of program PWSCF are:
     Max number of different atomic species (ntypx) = 10
     Max number of k-points (npk) =  40000
     Max angular momentum in pseudopotentials (lmaxx) =  4
     file O.pbe-n-kjpaw_psl.0.1.UPF: wavefunction(s)  2P renormalized

     K-points division:     npool     =       2
     R & G space division:  proc/nbgrp/npool/nimage =       8
     Subspace diagonalization in iterative solution of the eigenvalue problem:
     a serial algorithm will be used

     Using Slab Decomposition

     bravais-lattice index     =            0
     lattice parameter (alat)  =      10.5403  a.u.
     unit-cell volume          =    1461.4590 (a.u.)^3
     number of atoms/cell      =           18
     number of atomic types    =            3
     number of electrons       =        96.00
     number of Kohn-Sham states=           64
     kinetic-energy cutoff     =      30.0000  Ry
     charge density cutoff     =     240.0000  Ry
     scf convergence threshold =      1.0E-06
     mixing beta               =       0.7000
     number of iterations used =            8  plain     mixing
     Exchange-correlation= SLA  PW   PBX  PBC
                           (   1   4   3   4   0   0   0)

     celldm(1)=  10.540320  celldm(2)=   0.000000  celldm(3)=   0.000000
     celldm(4)=   0.000000  celldm(5)=   0.000000  celldm(6)=   0.000000

     crystal axes: (cart. coord. in units of alat)
               a(1) = (   1.000000   0.000000   0.000000 )
               a(2) = (   0.002426   1.004895   0.000000 )
               a(3) = (  -0.474933  -0.411849   1.241951 )

     reciprocal axes: (cart. coord. in units 2 pi/alat)
               b(1) = (  1.000000 -0.002414  0.381608 )
               b(2) = (  0.000000  0.995128  0.329999 )
               b(3) = (  0.000000  0.000000  0.805185 )

     PseudoPot. # 1 for Re read from file:
     /lustre07/scratch/pragov/crystal_structure_design/utils/SSSP/Re_pbe_v1.2.uspp.F.UPF
     MD5 check sum: 85f993410f3e006da9d71c142b4ad953
     Pseudo is Ultrasoft + core correction, Zval = 15.0
     Generated by new atomic code, or converted to UPF format
     Using radial grid of  981 points,  8 beta functions with:
                l(1) =   0
                l(2) =   0
                l(3) =   1
                l(4) =   1
                l(5) =   2
                l(6) =   2
                l(7) =   3
                l(8) =   3
     Q(r) pseudized with  8 coefficients,  rinner =    1.150   1.150   1.150
                                                       1.150   1.150   1.150
                                                       1.150

     PseudoPot. # 2 for H  read from file:
     /lustre07/scratch/pragov/crystal_structure_design/utils/SSSP/H.pbe-rrkjus_psl.1.0.0.UPF
     MD5 check sum: f52b6d4d1c606e5624b1dc7b2218f220
     Pseudo is Ultrasoft, Zval =  1.0
     Generated using "atomic" code by A. Dal Corso  v.5.1
     Using radial grid of  929 points,  2 beta functions with:
                l(1) =   0
                l(2) =   0
     Q(r) pseudized with 0 coefficients

     PseudoPot. # 3 for O  read from file:
     /lustre07/scratch/pragov/crystal_structure_design/utils/SSSP/O.pbe-n-kjpaw_psl.0.1.UPF
     MD5 check sum: 0234752ac141de4415c5fc33072bef88
     Pseudo is Projector augmented-wave + core cor, Zval =  6.0
     Generated using "atomic" code by A. Dal Corso  v.5.0.99 svn rev. 10869
     Shape of augmentation charge: BESSEL
     Using radial grid of 1095 points,  4 beta functions with:
                l(1) =   0
                l(2) =   0
                l(3) =   1
                l(4) =   1
     Q(r) pseudized with 0 coefficients

     atomic species   valence    mass     pseudopotential
        Re            15.00   186.20700     Re( 1.00)
        H              1.00     1.00800     H ( 1.00)
        O              6.00    15.99900     O ( 1.00)

     No symmetry found

                                    s                        frac. trans.

      isym =  1     identity

 cryst.   s( 1) = (     1          0          0      )
                  (     0          1          0      )
                  (     0          0          1      )

 cart.    s( 1) = (  1.0000000  0.0000000  0.0000000 )
                  (  0.0000000  1.0000000  0.0000000 )
                  (  0.0000000  0.0000000  1.0000000 )

   Cartesian axes

     site n.     atom                  positions (alat units)
         1           Re  tau(   1) = (   0.5350231   0.3164754   0.9261675  )
         2           Re  tau(   2) = (   0.0237066   0.3041905   0.3035961  )
         3           H   tau(   3) = (  -0.0802793   0.6479410   1.0032169  )
         4           H   tau(   4) = (  -0.0498383  -0.1202048   0.8135002  )
         5           H   tau(   5) = (   0.0376687  -0.0924876   1.0866127  )
         6           H   tau(   6) = (   0.6794904   0.6911200   0.3762552  )
         7           H   tau(   7) = (   0.4187746   0.8029091   0.4633570  )
         8           H   tau(   8) = (   0.4391254   0.6873220   0.2003230  )
         9           O   tau(   9) = (   0.0281843  -0.2045525   0.9497335  )
        10           O   tau(  10) = (   0.5242556   0.7888622   0.3219609  )
        11           O   tau(  11) = (   0.6409129   0.0626000   0.7747749  )
        12           O   tau(  12) = (   0.4082828   0.5115375   0.7185493  )
        13           O   tau(  13) = (   0.2700971   0.4103196   0.1342437  )
        14           O   tau(  14) = (   0.8186413   0.1705501   0.1129207  )
        15           O   tau(  15) = (  -0.1186389   0.5461488   0.4555128  )
        16           O   tau(  16) = (   0.1193285   0.0845368   0.5068017  )
        17           O   tau(  17) = (   0.3147922   0.2292029   1.1308572  )
        18           O   tau(  18) = (  -0.2217948   0.4626783   1.0752600  )

   Crystallographic axes

     site n.     atom                  positions (cryst. coord.)
         1           Re  tau(   1) = (  0.8876920  0.6205680  0.7457360  )
         2           Re  tau(   2) = (  0.1388270  0.4028950  0.2444510  )
         3           H   tau(   3) = (  0.3009920  0.9758450  0.8077750  )
         4           H   tau(   4) = (  0.2608900  0.1488350  0.6550180  )
         5           H   tau(   5) = (  0.4525520  0.2665440  0.8749240  )
         6           H   tau(   6) = (  0.8214040  0.8119170  0.3029550  )
         7           H   tau(   7) = (  0.5936570  0.9519050  0.3730880  )
         8           H   tau(   8) = (  0.5139110  0.7500800  0.1612970  )
         9           O   tau(   9) = (  0.3911040  0.1098550  0.7647110  )
        10           O   tau(  10) = (  0.6452140  0.8912660  0.2592380  )
        11           O   tau(  11) = (  0.9364220  0.3179700  0.6238370  )
        12           O   tau(  12) = (  0.6812520  0.7461660  0.5785650  )
        13           O   tau(  13) = (  0.3203350  0.4526210  0.1080910  )
        14           O   tau(  14) = (  0.8613210  0.2069830  0.0909220  )
        15           O   tau(  15) = (  0.0538700  0.6938070  0.3667720  )
        16           O   tau(  16) = (  0.3125240  0.2513690  0.4080690  )
        17           O   tau(  17) = (  0.7457830  0.6012680  0.9105490  )
        18           O   tau(  18) = (  0.1874160  0.8152590  0.8657830  )

     number of k points=    14
                       cart. coord. in units 2pi/alat
        k(    1) = (   0.0000000   0.0000000   0.0000000), wk =   0.0740741
        k(    2) = (   0.0000000   0.0000000   0.2683949), wk =   0.1481481
        k(    3) = (   0.0000000   0.3317095   0.1099996), wk =   0.1481481
        k(    4) = (   0.0000000   0.3317095   0.3783946), wk =   0.1481481
        k(    5) = (   0.0000000   0.3317095  -0.1583953), wk =   0.1481481
        k(    6) = (   0.3333333  -0.0008047   0.1272026), wk =   0.1481481
        k(    7) = (   0.3333333  -0.0008047   0.3955976), wk =   0.1481481
        k(    8) = (   0.3333333  -0.0008047  -0.1411923), wk =   0.1481481
        k(    9) = (   0.3333333   0.3309048   0.2372023), wk =   0.1481481
        k(   10) = (   0.3333333   0.3309048   0.5055972), wk =   0.1481481
        k(   11) = (   0.3333333   0.3309048  -0.0311926), wk =   0.1481481
        k(   12) = (   0.3333333  -0.3325142   0.0172030), wk =   0.1481481
        k(   13) = (   0.3333333  -0.3325142   0.2855979), wk =   0.1481481
        k(   14) = (   0.3333333  -0.3325142  -0.2511919), wk =   0.1481481

                       cryst. coord.
        k(    1) = (   0.0000000   0.0000000   0.0000000), wk =   0.0740741
        k(    2) = (   0.0000000   0.0000000   0.3333333), wk =   0.1481481
        k(    3) = (   0.0000000   0.3333333   0.0000000), wk =   0.1481481
        k(    4) = (   0.0000000   0.3333333   0.3333333), wk =   0.1481481
        k(    5) = (   0.0000000   0.3333333  -0.3333333), wk =   0.1481481
        k(    6) = (   0.3333333   0.0000000   0.0000000), wk =   0.1481481
        k(    7) = (   0.3333333   0.0000000   0.3333333), wk =   0.1481481
        k(    8) = (   0.3333333   0.0000000  -0.3333333), wk =   0.1481481
        k(    9) = (   0.3333333   0.3333333   0.0000000), wk =   0.1481481
        k(   10) = (   0.3333333   0.3333333   0.3333333), wk =   0.1481481
        k(   11) = (   0.3333333   0.3333333  -0.3333333), wk =   0.1481481
        k(   12) = (   0.3333333  -0.3333333  -0.0000000), wk =   0.1481481
        k(   13) = (   0.3333333  -0.3333333   0.3333333), wk =   0.1481481
        k(   14) = (   0.3333333  -0.3333333  -0.3333333), wk =   0.1481481

     Check: negative core charge=   -0.000012

     Initial potential from superposition of free atoms

     starting charge      94.9998, renormalised to      96.0000

     negative rho (up, down):  2.597E-01 0.000E+00
     Starting wfcs are   72 randomized atomic wfcs
     Checking if some PAW data can be deallocated...

     Self-consistent Calculation

     iteration #  1     ecut=    30.00 Ry     beta= 0.70
     Davidson diagonalization with overlap

     ethr =  1.00E-02,  avg # of iterations =  3.4

     negative rho (up, down):  2.963E-01 0.000E+00

     total energy              =    -802.35861691 Ry
     estimated scf accuracy    <       3.89166747 Ry

[...]

     total energy              =    -804.60025372 Ry
     estimated scf accuracy    <       0.00000153 Ry

     iteration # 12     ecut=    30.00 Ry     beta= 0.70
     Davidson diagonalization with overlap

     ethr =  1.60E-09,  avg # of iterations =  2.0

     negative rho (up, down):  2.750E-01 0.000E+00

     End of self-consistent calculation

          k = 0.0000 0.0000 0.0000 (  4033 PWs)   bands (ev):

   -78.7185 -78.6746 -40.7068 -40.6683 -40.6658 -40.6620 -40.6288 -40.6256
   -19.3318 -19.0848 -15.3435 -15.1601 -14.8015 -14.7876 -14.6027 -14.5670
   -14.5300 -14.4642  -6.2507  -6.1067  -5.9283  -5.8247  -2.6599  -2.4786
    -2.3757  -2.1880  -2.1368  -2.0857  -2.0301  -2.0031  -1.9456  -1.7908
    -1.2998  -1.2280  -1.0303  -0.8747   0.2328   0.3913   0.4945   0.6766
     0.7419   0.8399   0.9976   1.1929   1.2392   1.3559   1.5305   1.6501
     5.5541   5.6843   5.9165   5.9829   7.1554   7.4487   7.5946   7.7031
     7.7999   7.8845   8.2253  10.6659  11.3992  11.5471  11.8355  12.4000

     occupation numbers
     1.0000   1.0000   1.0000   1.0000   1.0000   1.0000   1.0000   1.0000
     1.0000   1.0000   1.0000   1.0000   1.0000   1.0000   1.0000   1.0000
     1.0000   1.0000   1.0000   1.0000   1.0000   1.0000   1.0000   1.0000
     1.0000   1.0000   1.0000   1.0000   1.0000   1.0000   1.0000   1.0000
     1.0000   1.0000   1.0000   1.0000   1.0000   1.0000   1.0000   1.0000
     1.0000   1.0000   1.0000   1.0000   1.0000   1.0000   1.0000   1.0000
     0.0000   0.0000   0.0000   0.0000   0.0000   0.0000   0.0000   0.0000
     0.0000   0.0000   0.0000   0.0000   0.0000   0.0000   0.0000   0.0000

[...]

          k = 0.3333-0.3325-0.2512 (  4054 PWs)   bands (ev):

   -78.7185 -78.6746 -40.7068 -40.6683 -40.6658 -40.6620 -40.6288 -40.6256
   -19.3274 -19.0827 -15.2853 -15.2240 -14.8097 -14.7499 -14.6137 -14.5815
   -14.5179 -14.4894  -6.2338  -6.1226  -5.9240  -5.8325  -2.7715  -2.6036
    -2.4126  -2.2388  -2.1237  -2.0195  -1.9784  -1.9461  -1.8829  -1.7882
    -1.3689  -1.2125  -0.8217  -0.7528   0.1567   0.2672   0.4408   0.5514
     0.7389   0.8698   1.0559   1.1419   1.2422   1.2919   1.4317   1.5340
     5.7699   5.8670   5.9433   5.9833   7.3846   7.4920   7.5732   7.7487
     7.8674   8.1081   9.1857  10.2365  10.4659  10.7687  11.8703  12.2220

     occupation numbers
     1.0000   1.0000   1.0000   1.0000   1.0000   1.0000   1.0000   1.0000
     1.0000   1.0000   1.0000   1.0000   1.0000   1.0000   1.0000   1.0000
     1.0000   1.0000   1.0000   1.0000   1.0000   1.0000   1.0000   1.0000
     1.0000   1.0000   1.0000   1.0000   1.0000   1.0000   1.0000   1.0000
     1.0000   1.0000   1.0000   1.0000   1.0000   1.0000   1.0000   1.0000
     1.0000   1.0000   1.0000   1.0000   1.0000   1.0000   1.0000   1.0000
     0.0000   0.0000   0.0000   0.0000   0.0000   0.0000   0.0000   0.0000
     0.0000   0.0000   0.0000   0.0000   0.0000   0.0000   0.0000   0.0000

     highest occupied, lowest unoccupied level (ev):     1.6501    5.5541

!    total energy              =    -804.60025390 Ry
     estimated scf accuracy    <       0.00000020 Ry

     The total energy is the sum of the following terms:
     one-electron contribution =    -406.67942780 Ry
     hartree contribution      =     234.01981905 Ry
     xc contribution           =    -182.55904914 Ry
     ewald contribution        =    -354.09684933 Ry
     one-center paw contrib.   =     -95.28474667 Ry
      -> PAW hartree energy AE =       0.00000000 Ry
      -> PAW hartree energy PS =       0.00000000 Ry
      -> PAW xc energy AE      =       0.00000000 Ry
      -> PAW xc energy PS      =       0.00000000 Ry
      -> total E_H with PAW    =     234.01981905 Ry
      -> total E_XC with PAW   =    -182.55904914 Ry

     convergence has been achieved in  12 iterations

     Writing all to output data dir bands_nm/myprefix.save/

     General routines

     Parallel routines

     PAW routines

   This run was terminated on:   2:20:48  13Jul2023

   JOB DONE.