     Program PWSCF v.7.1 starts on 15Jul2023 at 21:46:39

     Reading input from espresso_3138.pwi
Warning: card &CELL ignored
Warning: card / ignored

     Current dimensions of program PWSCF are:
     Max number of different atomic species (ntypx) = 10
     Max number of k-points (npk) =  40000
     Max angular momentum in pseudopotentials (lmaxx) =  4
     file Cd.pbe-dn-rrkjus_psl.0.3.1.UPF: wavefunction(s)  4D renormalized
     file Ga.pbe-dn-kjpaw_psl.1.0.0.UPF: wavefunction(s)  4S renormalized
     Message from routine setup:
     using ibrav=0 with symmetry is DISCOURAGED, use correct ibrav instead

     K-points division:     npool     =       2
     R & G space division:  proc/nbgrp/npool/nimage =       4
     Subspace diagonalization in iterative solution of the eigenvalue problem:
     one sub-group per band group will be used

     Using Slab Decomposition

     bravais-lattice index     =            0
     lattice parameter (alat)  =      11.4380  a.u.
     unit-cell volume          =    3177.4848 (a.u.)^3
     number of atoms/cell      =           14
     number of atomic types    =            4
     number of electrons       =       132.00
     number of Kohn-Sham states=          256
     kinetic-energy cutoff     =      30.0000  Ry
     charge density cutoff     =     240.0000  Ry
     scf convergence threshold =      1.0E-06
     mixing beta               =       0.7000
     number of iterations used =            8  plain     mixing
     Exchange-correlation= SLA  PW   PBE  PBE
                           (   1   4   3   4   0   0   0)

     celldm(1)=  11.438027  celldm(2)=   0.000000  celldm(3)=   0.000000
     celldm(4)=   0.000000  celldm(5)=   0.000000  celldm(6)=   0.000000

     crystal axes: (cart. coord. in units of alat)
               a(1) = (   1.000000   0.000000   0.000000 )
               a(2) = (   0.500000   1.172990   0.000000 )
               a(3) = (   0.500000   0.315769   1.810239 )

     reciprocal axes: (cart. coord. in units 2 pi/alat)
               b(1) = (  1.000000 -0.426261 -0.201852 )
               b(2) = (  0.000000  0.852522 -0.148710 )
               b(3) = (  0.000000  0.000000  0.552413 )

     PseudoPot. # 1 for Cd read from file:
     /lustre07/scratch/pragov/crystal_structure_design/utils/SSSP/Cd.pbe-dn-rrkjus_psl.0.3.1.UPF
     MD5 check sum: 558e9f355611b531a870a69ef6ace9e2
     Pseudo is Ultrasoft + core correction, Zval = 12.0
     Generated using "atomic" code by A. Dal Corso  v.5.0.99 svn rev. 10869
     Using radial grid of 1239 points,  6 beta functions with:
                l(1) =   0
                l(2) =   0
                l(3) =   1
                l(4) =   1
                l(5) =   2
                l(6) =   2
     Q(r) pseudized with 0 coefficients

     PseudoPot. # 2 for Ga read from file:
     /lustre07/scratch/pragov/crystal_structure_design/utils/SSSP/Ga.pbe-dn-kjpaw_psl.1.0.0.UPF
     MD5 check sum: a27b4342b1af7e5f338de752e9ed7044
     Pseudo is Projector augmented-wave + core cor, Zval = 13.0
     Generated using "atomic" code by A. Dal Corso  v.5.1
     Shape of augmentation charge: PSQ
     Using radial grid of 1205 points,  6 beta functions with:
                l(1) =   0
                l(2) =   0
                l(3) =   1
                l(4) =   1
                l(5) =   2
                l(6) =   2
     Q(r) pseudized with 0 coefficients

     PseudoPot. # 3 for Hg read from file:
     /lustre07/scratch/pragov/crystal_structure_design/utils/SSSP/Hg_ONCV_PBE-1.0.oncvpsp.upf
     MD5 check sum: dd5a8773074bfcf4280086d4d95875c4
     Pseudo is Norm-conserving, Zval = 20.0
     Generated using ONCVPSP code by D. R. Hamann
     Using radial grid of 1262 points,  8 beta functions with:
                l(1) =   0
                l(2) =   0
                l(3) =   1
                l(4) =   1
                l(5) =   2
                l(6) =   2
                l(7) =   3
                l(8) =   3

     PseudoPot. # 4 for Te read from file:
     /lustre07/scratch/pragov/crystal_structure_design/utils/SSSP/Te_pbe_v1.uspp.F.UPF
     MD5 check sum: c319670d6894cc26e93307826a071b75
     Pseudo is Ultrasoft + core correction, Zval =  6.0
     Generated by new atomic code, or converted to UPF format
     Using radial grid of  891 points,  5 beta functions with:
                l(1) =   0
                l(2) =   0
                l(3) =   1
                l(4) =   1
                l(5) =   2
     Q(r) pseudized with  6 coefficients,  rinner =    1.800   1.800   1.800
                                                       1.800   1.800

     atomic species   valence    mass     pseudopotential
        Cd            12.00   112.41400     Cd( 1.00)
        Ga            13.00    69.72300     Ga( 1.00)
        Hg            20.00   200.59200     Hg( 1.00)
        Te             6.00   127.60000     Te( 1.00)

      2 Sym. Ops. (no inversion) found

                                    s                        frac. trans.

      isym =  1     identity

 cryst.   s( 1) = (     1          0          0      )
                  (     0          1          0      )
                  (     0          0          1      )

 cart.    s( 1) = (  1.0000000  0.0000000  0.0000000 )
                  (  0.0000000  1.0000000  0.0000000 )
                  (  0.0000000  0.0000000  1.0000000 )

      isym =  2     180 deg rotation - cart. axis [1,0,0]

 cryst.   s( 2) = (     1          0          0      )
                  (     1         -1          0      )
                  (     1          0         -1      )

 cart.    s( 2) = (  1.0000000 -0.0000001 -0.0000001 )
                  (  0.0000000 -1.0000000 -0.0000000 )
                  (  0.0000000  0.0000000 -1.0000000 )

   Cartesian axes

     site n.     atom                  positions (alat units)
         1           Cd  tau(   1) = (   1.4999621   0.7443794   0.9051196  )
         2           Ga  tau(   2) = (   0.5005720   0.4794651   0.2260156  )
         3           Ga  tau(   3) = (   0.9994491   1.2236758   1.1315063  )
         4           Ga  tau(   4) = (   1.5005721   1.0092937   1.5842236  )
         5           Ga  tau(   5) = (   0.9994490   0.2650830   0.6787329  )
         6           Hg  tau(   6) = (   0.0004670   0.0000000   0.0000000  )
         7           Te  tau(   7) = (   1.2214496   0.8644703   1.2695624  )
         8           Te  tau(   8) = (   0.7205305   0.1191323   0.3655706  )
         9           Te  tau(   9) = (   0.7800436   0.6742847   1.6700978  )
        10           Te  tau(  10) = (   0.7777416   1.1024380   0.7658344  )
        11           Te  tau(  11) = (   0.7800436   0.8144741   0.1401415  )
        12           Te  tau(  12) = (   0.7777406   0.3863209   1.0444049  )
        13           Te  tau(  13) = (   1.2214496   0.6242885   0.5406768  )
        14           Te  tau(  14) = (   1.7205306   1.3696266   1.4446687  )

   Crystallographic axes

     site n.     atom                  positions (cryst. coord.)
         1           Cd  tau(   1) = (  0.9999620  0.5000000  0.5000000  )
         2           Ga  tau(   2) = (  0.2505730  0.3751440  0.1248540  )
         3           Ga  tau(   3) = (  0.2494470  0.8749450  0.6250590  )
         4           Ga  tau(   4) = (  0.7505710  0.6248560  0.8751460  )
         5           Ga  tau(   5) = (  0.7494510  0.1250550  0.3749410  )
         6           Hg  tau(   6) = (  0.0004670  0.0000000  0.0000000  )
         7           Te  tau(   7) = (  0.5966960  0.5481840  0.7013230  )
         8           Te  tau(   8) = (  0.5959580  0.0471990  0.2019460  )
         9           Te  tau(   9) = (  0.1555100  0.3264830  0.9225840  )
        10           Te  tau(  10) = (  0.1532300  0.8259660  0.4230570  )
        11           Te  tau(  11) = (  0.4045770  0.6735170  0.0774160  )
        12           Te  tau(  12) = (  0.4022520  0.1740340  0.5769430  )
        13           Te  tau(  13) = (  0.8462030  0.4518160  0.2986770  )
        14           Te  tau(  14) = (  0.8451030  0.9528010  0.7980540  )

     number of k points=    10
                       cart. coord. in units 2pi/alat
        k(    1) = (   0.0000000   0.0000000   0.0000000), wk =   0.0740741
        k(    2) = (   0.0000000   0.0000000   0.1841377), wk =   0.1481481
        k(    3) = (   0.0000000   0.2841741  -0.0495699), wk =   0.1481481
        k(    4) = (   0.0000000   0.2841741   0.1345678), wk =   0.1481481
        k(    5) = (   0.0000000   0.2841741  -0.2337076), wk =   0.1481481
        k(    6) = (   0.3333333  -0.1420871  -0.0672839), wk =   0.2962963
        k(    7) = (   0.3333333  -0.1420871   0.1168538), wk =   0.2962963
        k(    8) = (   0.3333333  -0.1420871  -0.2514216), wk =   0.2962963
        k(    9) = (   0.3333333  -0.4262612  -0.0177140), wk =   0.2962963
        k(   10) = (   0.3333333  -0.4262612  -0.2018517), wk =   0.1481481

                       cryst. coord.
        k(    1) = (   0.0000000   0.0000000   0.0000000), wk =   0.0740741
        k(    2) = (   0.0000000   0.0000000   0.3333333), wk =   0.1481481
        k(    3) = (   0.0000000   0.3333333  -0.0000000), wk =   0.1481481
        k(    4) = (   0.0000000   0.3333333   0.3333333), wk =   0.1481481
        k(    5) = (   0.0000000   0.3333333  -0.3333333), wk =   0.1481481
        k(    6) = (   0.3333333   0.0000000   0.0000000), wk =   0.2962963
        k(    7) = (   0.3333333   0.0000000   0.3333333), wk =   0.2962963
        k(    8) = (   0.3333333   0.0000000  -0.3333333), wk =   0.2962963
        k(    9) = (   0.3333333  -0.3333333  -0.0000000), wk =   0.2962963
        k(   10) = (   0.3333333  -0.3333333  -0.3333333), wk =   0.1481481

     Initial potential from superposition of free atoms

     starting charge     131.9815, renormalised to     132.0000
     Starting wfcs are   87 randomized atomic wfcs +  169 random wfcs
     Checking if some PAW data can be deallocated...

     Self-consistent Calculation

     iteration #  1     ecut=    30.00 Ry     beta= 0.70
     Davidson diagonalization with overlap

     ethr =  1.00E-02,  avg # of iterations =  7.0

     Threshold (ethr) on eigenvalues was too large:
     Diagonalizing with lowered threshold

     Davidson diagonalization with overlap

[...]

     total energy              =   -1755.91053872 Ry
     estimated scf accuracy    <       0.32064043 Ry

[...]

     c_bands:  1 eigenvalues not converged
     c_bands:  1 eigenvalues not converged
     ethr =  1.69E-06,  avg # of iterations = 15.0

[...]

     total energy              =   -1756.04273722 Ry
     estimated scf accuracy    <       0.00000439 Ry

     iteration #  9     ecut=    30.00 Ry     beta= 0.70
     Davidson diagonalization with overlap

     ethr =  3.33E-09,  avg # of iterations =  3.0

     End of self-consistent calculation

          k = 0.0000 0.0000 0.0000 (  8799 PWs)   bands (ev):

  -110.6026 -58.4583 -58.4571 -58.4388  -9.9576  -9.9555  -9.9505  -9.9502
    -9.9427  -9.9407  -9.9350  -9.9221  -9.9188  -9.9113  -9.9095  -9.9009
    -9.8972  -9.8930  -9.8864  -9.8832  -9.8829  -9.8784  -9.8679  -9.8629
    -6.7334  -6.0794  -6.0318  -5.4509  -5.4387  -5.4226  -5.2702  -5.2692
    -2.9274  -2.9165  -2.8708  -2.8577  -2.8443  -1.4995  -1.4495  -1.3183
    -1.2963  -1.2840  -1.2647  -0.5793  -0.4459  -0.4008   0.9870   1.6171
     1.7102   1.7904   2.2333   2.5608   2.5648   2.6313   2.6849   2.6974
     2.8906   2.9268   2.9287   3.6925   3.9814   4.0903   4.1662   4.8754
     5.2126   5.2140   5.5236   6.7947   7.0722   7.1171   7.4525   7.7097
     8.0711   8.4939   8.9493   9.1422   9.1424   9.3547   9.3646   9.3674
     9.5791   9.7537   9.8194   9.9110  10.2979  10.3831  10.7092  10.7371
    10.7375  11.2416  11.5371  11.6375  12.0179  12.4178  12.4853  12.8669
    12.9385  13.3412  13.3618  13.8369  14.1859  14.2307  14.4403  14.7048
    14.7985  14.8038  14.9499  15.2662  15.3029  15.4648  15.6072  15.9948
    16.3211  16.4703  16.4730  16.5769  16.5939  16.6614  16.6619  16.8422
    17.1854  17.4392  17.7151  17.7318  18.0500  18.1815  18.3156  18.4898
    18.5676  18.6688  18.7572  18.8724  18.8932  19.2672  19.2677  19.2793
    19.3452  19.4647  19.7830  19.9761  20.1657  20.4169  20.6381  20.6474
    20.6875  20.6996  20.7975  21.3646  21.3742  21.6336  21.6897  21.7115
    21.9875  22.0536  22.2532  22.2788  22.2878  22.6621  22.7515  22.8270
    22.9384  22.9616  22.9655  23.0380  23.3472  23.4253  23.5132  23.5187
    23.6417  23.7470  23.8509  23.8671  23.9596  24.0170  24.4176  24.5799
    24.6784  24.7366  24.7900  24.9391  25.2149  25.4426  25.4868  25.6069
    25.9171  26.0223  26.1180  26.1642  26.3526  26.4779  26.4989  26.6785
    26.8605  27.1238  27.5180  27.6758  27.7018  27.7136  27.7163  27.7831
    27.9006  28.1794  28.1810  28.3179  28.3521  28.5948  28.7207  28.7514
    28.7848  28.8061  28.9247  28.9415  29.0389  29.0993  29.1997  29.2108
    29.2166  29.3019  29.3774  29.4354  29.7634  29.8130  29.8697  30.0196
    30.0506  30.1419  30.1431  30.2505  30.3343  30.3987  30.5538  30.6531
    31.0652  31.1110  31.2162  31.2215  31.2950  31.4621  31.4675  31.7690
    31.8332  32.1127  32.1257  32.2018  32.2311  32.4415  32.4966  32.7635
    33.1396  33.2868  33.6100  33.6363  33.8219  34.0920  34.2631  34.3477

     occupation numbers
     1.0000   1.0000   1.0000   1.0000   1.0000   1.0000   1.0000   1.0000
     1.0000   1.0000   1.0000   1.0000   1.0000   1.0000   1.0000   1.0000
     1.0000   1.0000   1.0000   1.0000   1.0000   1.0000   1.0000   1.0000
     1.0000   1.0000   1.0000   1.0000   1.0000   1.0000   1.0000   1.0000
     1.0000   1.0000   1.0000   1.0000   1.0000   1.0000   1.0000   1.0000
     1.0000   1.0000   1.0000   1.0000   1.0000   1.0000   1.0000   1.0000
     1.0000   1.0000   1.0000   1.0000   1.0000   1.0000   1.0000   1.0000
     1.0000   1.0000   1.0000   1.0000   1.0000   1.0000   1.0000   1.0000
     1.0000   1.0000   0.0000   0.0000   0.0000   0.0000   0.0000   0.0000
     0.0000   0.0000   0.0000   0.0000   0.0000   0.0000   0.0000   0.0000
     0.0000   0.0000   0.0000   0.0000   0.0000   0.0000   0.0000   0.0000
     0.0000   0.0000   0.0000   0.0000   0.0000   0.0000   0.0000   0.0000
     0.0000   0.0000   0.0000   0.0000   0.0000   0.0000   0.0000   0.0000
     0.0000   0.0000   0.0000   0.0000   0.0000   0.0000   0.0000   0.0000
     0.0000   0.0000   0.0000   0.0000   0.0000   0.0000   0.0000   0.0000
     0.0000   0.0000   0.0000   0.0000   0.0000   0.0000   0.0000   0.0000
     0.0000   0.0000   0.0000   0.0000   0.0000   0.0000   0.0000   0.0000
     0.0000   0.0000   0.0000   0.0000   0.0000   0.0000   0.0000   0.0000
     0.0000   0.0000   0.0000   0.0000   0.0000   0.0000   0.0000   0.0000
     0.0000   0.0000   0.0000   0.0000   0.0000   0.0000   0.0000   0.0000
     0.0000   0.0000   0.0000   0.0000   0.0000   0.0000   0.0000   0.0000
     0.0000   0.0000   0.0000   0.0000   0.0000   0.0000   0.0000   0.0000
     0.0000   0.0000   0.0000   0.0000   0.0000   0.0000   0.0000   0.0000
     0.0000   0.0000   0.0000   0.0000   0.0000   0.0000   0.0000   0.0000
     0.0000   0.0000   0.0000   0.0000   0.0000   0.0000   0.0000   0.0000
     0.0000   0.0000   0.0000   0.0000   0.0000   0.0000   0.0000   0.0000
     0.0000   0.0000   0.0000   0.0000   0.0000   0.0000   0.0000   0.0000
     0.0000   0.0000   0.0000   0.0000   0.0000   0.0000   0.0000   0.0000
     0.0000   0.0000   0.0000   0.0000   0.0000   0.0000   0.0000   0.0000
     0.0000   0.0000   0.0000   0.0000   0.0000   0.0000   0.0000   0.0000
     0.0000   0.0000   0.0000   0.0000   0.0000   0.0000   0.0000   0.0000
     0.0000   0.0000   0.0000   0.0000   0.0000   0.0000   0.0000   0.0000

[...]

          k = 0.3333-0.4263-0.2019 (  8800 PWs)   bands (ev):

  -110.6025 -58.4591 -58.4587 -58.4352  -9.9579  -9.9576  -9.9496  -9.9488
    -9.9432  -9.9311  -9.9311  -9.9268  -9.9169  -9.9153  -9.9133  -9.9010
    -9.8983  -9.8973  -9.8848  -9.8836  -9.8818  -9.8793  -9.8670  -9.8645
    -6.2254  -5.9498  -5.9293  -5.7926  -5.6539  -5.5453  -5.4991  -5.3070
    -2.9509  -2.9249  -2.8978  -2.8716  -2.8582  -1.4954  -1.4913  -1.3545
    -1.2935  -1.2187  -0.8934  -0.7070  -0.7035   0.1819   0.3995   1.1182
     1.7572   2.0790   2.2461   2.5113   2.6588   2.7060   2.8700   3.0539
     3.2524   3.2851   3.3790   3.6799   3.6833   3.7179   4.3572   4.3733
     4.5870   4.8048   6.5109   6.5833   6.6773   7.1910   7.1960   7.8025
     8.1016   8.6635   8.7490   8.9288   8.9551   9.3974   9.5075   9.5639
     9.7562   9.8748  10.1630  10.3603  10.4500  10.8369  10.9420  11.0019
    11.3725  11.5493  11.8160  12.1655  12.1844  12.4412  12.5023  12.8060
    13.2250  13.4053  13.5099  13.5462  13.7017  14.0411  14.0596  14.1251
    14.1887  14.7351  14.9006  14.9570  15.2799  15.4382  15.5382  15.6744
    15.9045  15.9406  15.9685  16.1419  16.2583  16.4840  16.5524  16.9502
    17.0623  17.1534  17.1953  17.2316  17.5448  17.8247  17.9872  18.0569
    18.1744  18.5082  18.8496  18.8899  19.0014  19.1803  19.4649  19.5008
    19.5280  19.6121  19.6405  19.6648  19.8463  20.0002  20.2198  20.4703
    20.5193  20.6870  20.8112  20.9345  21.1061  21.2007  21.2298  21.3850
    21.6730  21.7972  21.9569  21.9777  22.1407  22.1413  22.1854  22.5432
    22.5834  22.8942  23.0994  23.1319  23.2183  23.2741  23.7164  23.8536
    23.9524  23.9963  24.2948  24.3432  24.6428  24.7088  24.9131  25.2701
    25.7819  25.7822  25.8633  26.0431  26.0916  26.3373  26.3703  26.4395
    26.5003  26.6004  26.7046  26.8119  26.8147  27.0231  27.1410  27.2860
    27.5244  27.5458  27.6129  27.7545  27.7603  27.9415  27.9667  28.1175
    28.2086  28.3003  28.4828  28.4853  28.5854  28.6450  28.6850  28.8016
    28.8683  28.8706  29.0148  29.0914  29.0968  29.2612  29.3600  29.3796
    29.4985  29.6460  29.7609  29.9783  30.0790  30.1302  30.2140  30.3236
    30.3957  30.3968  30.5025  30.5820  30.7214  30.8436  31.1071  31.1537
    31.4201  31.5042  31.6079  31.7895  31.7919  32.0082  32.2685  32.5329
    32.6165  32.7352  32.8149  32.9357  33.0982  33.1182  33.2144  33.2818
    33.3381  33.4397  33.4754  33.5154  33.7034  33.9206  34.0188  34.1316

     occupation numbers
     1.0000   1.0000   1.0000   1.0000   1.0000   1.0000   1.0000   1.0000
     1.0000   1.0000   1.0000   1.0000   1.0000   1.0000   1.0000   1.0000
     1.0000   1.0000   1.0000   1.0000   1.0000   1.0000   1.0000   1.0000
     1.0000   1.0000   1.0000   1.0000   1.0000   1.0000   1.0000   1.0000
     1.0000   1.0000   1.0000   1.0000   1.0000   1.0000   1.0000   1.0000
     1.0000   1.0000   1.0000   1.0000   1.0000   1.0000   1.0000   1.0000
     1.0000   1.0000   1.0000   1.0000   1.0000   1.0000   1.0000   1.0000
     1.0000   1.0000   1.0000   1.0000   1.0000   1.0000   1.0000   1.0000
     1.0000   1.0000   0.0000   0.0000   0.0000   0.0000   0.0000   0.0000
     0.0000   0.0000   0.0000   0.0000   0.0000   0.0000   0.0000   0.0000
     0.0000   0.0000   0.0000   0.0000   0.0000   0.0000   0.0000   0.0000
     0.0000   0.0000   0.0000   0.0000   0.0000   0.0000   0.0000   0.0000
     0.0000   0.0000   0.0000   0.0000   0.0000   0.0000   0.0000   0.0000
     0.0000   0.0000   0.0000   0.0000   0.0000   0.0000   0.0000   0.0000
     0.0000   0.0000   0.0000   0.0000   0.0000   0.0000   0.0000   0.0000
     0.0000   0.0000   0.0000   0.0000   0.0000   0.0000   0.0000   0.0000
     0.0000   0.0000   0.0000   0.0000   0.0000   0.0000   0.0000   0.0000
     0.0000   0.0000   0.0000   0.0000   0.0000   0.0000   0.0000   0.0000
     0.0000   0.0000   0.0000   0.0000   0.0000   0.0000   0.0000   0.0000
     0.0000   0.0000   0.0000   0.0000   0.0000   0.0000   0.0000   0.0000
     0.0000   0.0000   0.0000   0.0000   0.0000   0.0000   0.0000   0.0000
     0.0000   0.0000   0.0000   0.0000   0.0000   0.0000   0.0000   0.0000
     0.0000   0.0000   0.0000   0.0000   0.0000   0.0000   0.0000   0.0000
     0.0000   0.0000   0.0000   0.0000   0.0000   0.0000   0.0000   0.0000
     0.0000   0.0000   0.0000   0.0000   0.0000   0.0000   0.0000   0.0000
     0.0000   0.0000   0.0000   0.0000   0.0000   0.0000   0.0000   0.0000
     0.0000   0.0000   0.0000   0.0000   0.0000   0.0000   0.0000   0.0000
     0.0000   0.0000   0.0000   0.0000   0.0000   0.0000   0.0000   0.0000
     0.0000   0.0000   0.0000   0.0000   0.0000   0.0000   0.0000   0.0000
     0.0000   0.0000   0.0000   0.0000   0.0000   0.0000   0.0000   0.0000
     0.0000   0.0000   0.0000   0.0000   0.0000   0.0000   0.0000   0.0000
     0.0000   0.0000   0.0000   0.0000   0.0000   0.0000   0.0000   0.0000

     highest occupied, lowest unoccupied level (ev):     5.2140    5.5236

!    total energy              =   -1756.04273827 Ry
     estimated scf accuracy    <       0.00000018 Ry

     The total energy is the sum of the following terms:
     one-electron contribution =    -883.86060820 Ry
     hartree contribution      =     517.12625173 Ry
     xc contribution           =    -337.94487504 Ry
     ewald contribution        =    -607.68477687 Ry
     one-center paw contrib.   =    -443.67872989 Ry
      -> PAW hartree energy AE =     139.46190880 Ry
      -> PAW hartree energy PS =    -137.23299769 Ry
      -> PAW xc energy AE      =    -150.71045700 Ry
      -> PAW xc energy PS      =      37.56189552 Ry
      -> total E_H with PAW    =     519.35516284 Ry
      -> total E_XC with PAW   =    -451.09343652 Ry

     convergence has been achieved in   9 iterations

     Writing all to output data dir bands_nm/myprefix.save/

     General routines

     Parallel routines

     PAW routines

   This run was terminated on:  21:48:13  15Jul2023

   JOB DONE.