     Program PWSCF v.7.1 starts on 15Jul2023 at 14:31: 6

     Reading input from espresso_12284.pwi
Warning: card &CELL ignored
Warning: card / ignored

     Current dimensions of program PWSCF are:
     Max number of different atomic species (ntypx) = 10
     Max number of k-points (npk) =  40000
     Max angular momentum in pseudopotentials (lmaxx) =  4
     file Gd.paw.z_18.atompaw.wentzcovitch.v1.2.upf: wavefunction(s)  6S 0P 5D 0D 4F 0F renormalized
     Message from routine setup:
     the system is metallic, specify occupations
     Message from routine setup:
     using ibrav=0 with symmetry is DISCOURAGED, use correct ibrav instead

     K-points division:     npool     =       2
     R & G space division:  proc/nbgrp/npool/nimage =       4
     Subspace diagonalization in iterative solution of the eigenvalue problem:
     a serial algorithm will be used

     Using Slab Decomposition

     bravais-lattice index     =            0
     lattice parameter (alat)  =      14.2968  a.u.
     unit-cell volume          =    1886.0934 (a.u.)^3
     number of atoms/cell      =           10
     number of atomic types    =            3
     number of electrons       =        87.00 (up:  47.00, down:  40.00)
     number of Kohn-Sham states=           64
     kinetic-energy cutoff     =      30.0000  Ry
     charge density cutoff     =     240.0000  Ry
     scf convergence threshold =      1.0E-06
     mixing beta               =       0.7000
     number of iterations used =            8  plain     mixing
     Exchange-correlation=  SLA  PW   PBX  PBC
                           (   1   4   3   4   0   0   0)

     celldm(1)=  14.296841  celldm(2)=   0.000000  celldm(3)=   0.000000
     celldm(4)=   0.000000  celldm(5)=   0.000000  celldm(6)=   0.000000

     crystal axes: (cart. coord. in units of alat)
               a(1) = (   1.000000   0.000000   0.000000 )
               a(2) = (   0.555854   0.831280   0.000000 )
               a(3) = (   0.555854   0.296988   0.776418 )

     reciprocal axes: (cart. coord. in units 2 pi/alat)
               b(1) = (  1.000000 -0.668672 -0.460146 )
               b(2) = (  0.000000  1.202964 -0.460146 )
               b(3) = (  0.000000  0.000000  1.287966 )

     PseudoPot. # 1 for Na read from file:
     /lustre07/scratch/pragov/crystal_structure_design/utils/SSSP/na_pbe_v1.5.uspp.F.UPF
     MD5 check sum: 44600605ef58000f06b90626533354dc
     Pseudo is Ultrasoft, Zval =  9.0
     Generated by new atomic code, or converted to UPF format
     Using radial grid of  819 points,  5 beta functions with:
                l(1) =   0
                l(2) =   0
                l(3) =   1
                l(4) =   1
                l(5) =   2
     Q(r) pseudized with  8 coefficients,  rinner =    1.250   1.250   1.250
                                                       1.250   1.250

     PseudoPot. # 2 for Gd read from file:
     /lustre07/scratch/pragov/crystal_structure_design/utils/SSSP/Gd.paw.z_18.atompaw.wentzcovitch.v1.2.upf
     MD5 check sum: a44f32af2ba180e1a67c5cef9ff7f39b
     Pseudo is Projector augmented-wave + core cor, Zval = 18.0
     Generated using ATOMPAW code
     Shape of augmentation charge: BESSEL
     Using radial grid of 1110 points,  8 beta functions with:
                l(1) =   0
                l(2) =   0
                l(3) =   1
                l(4) =   1
                l(5) =   2
                l(6) =   2
                l(7) =   3
                l(8) =   3
     Q(r) pseudized with 0 coefficients

     PseudoPot. # 3 for Cl read from file:
     /lustre07/scratch/pragov/crystal_structure_design/utils/SSSP/cl_pbe_v1.4.uspp.F.UPF
     MD5 check sum: fc6f6913ecf08c9257cb748ef0700058
     Pseudo is Ultrasoft + core correction, Zval =  7.0
     Generated by new atomic code, or converted to UPF format
     Using radial grid of  909 points,  6 beta functions with:
                l(1) =   0
                l(2) =   0
                l(3) =   1
                l(4) =   1
                l(5) =   2
                l(6) =   2
     Q(r) pseudized with  8 coefficients,  rinner =    1.300   1.300   1.300
                                                       1.300   1.300

     atomic species   valence    mass     pseudopotential
        Na             9.00    22.98977     Na( 1.00)
        Gd            18.00   157.25000     Gd( 1.00)
        Cl             7.00    35.45000     Cl( 1.00)

     Starting magnetic structure
     atomic species   magnetization
        Na           0.000
        Gd           0.000
        Cl           0.000

      2 Sym. Ops., with inversion, found

                                    s                        frac. trans.

      isym =  1     identity

 cryst.   s( 1) = (     1          0          0      )
                  (     0          1          0      )
                  (     0          0          1      )

 cart.    s( 1) = (  1.0000000  0.0000000  0.0000000 )
                  (  0.0000000  1.0000000  0.0000000 )
                  (  0.0000000  0.0000000  1.0000000 )

      isym =  2     inversion

 cryst.   s( 2) = (    -1          0          0      )
                  (     0         -1          0      )
                  (     0          0         -1      )

 cart.    s( 2) = ( -1.0000000  0.0000000  0.0000000 )
                  (  0.0000000 -1.0000000  0.0000000 )
                  (  0.0000000  0.0000000 -1.0000000 )

   Cartesian axes

     site n.     atom                  positions (alat units)
         1           Na  tau(   1) = (   0.4216467   0.2252825   0.1550281  )
         2           Na  tau(   2) = (   1.0558536   0.5641341   0.3882090  )
         3           Na  tau(   3) = (   1.6900605   0.9029858   0.6213898  )
         4           Gd  tau(   4) = (   0.0000000   0.0000000   0.0000000  )
         5           Cl  tau(   5) = (   0.7466490   0.7570068   0.2903159  )
         6           Cl  tau(   6) = (   0.8652560   0.3196194   0.6033264  )
         7           Cl  tau(   7) = (   1.0443123   0.3425695   0.0829773  )
         8           Cl  tau(   8) = (   1.0673949   0.7856988   0.6934406  )
         9           Cl  tau(   9) = (   1.2464512   0.8086489   0.1730915  )
        10           Cl  tau(  10) = (   1.3650583   0.3712615   0.4861021  )

   Crystallographic axes

     site n.     atom                  positions (cryst. coord.)
         1           Na  tau(   1) = (  0.1996710  0.1996710  0.1996710  )
         2           Na  tau(   2) = (  0.5000000  0.5000000  0.5000000  )
         3           Na  tau(   3) = (  0.8003290  0.8003290  0.8003290  )
         4           Gd  tau(   4) = (  0.0000000  0.0000000  0.0000000  )
         5           Cl  tau(   5) = (  0.1068720  0.7770640  0.3739170  )
         6           Cl  tau(   6) = (  0.3739170  0.1068720  0.7770640  )
         7           Cl  tau(   7) = (  0.7770640  0.3739170  0.1068720  )
         8           Cl  tau(   8) = (  0.2229360  0.6260830  0.8931280  )
         9           Cl  tau(   9) = (  0.6260830  0.8931280  0.2229360  )
        10           Cl  tau(  10) = (  0.8931280  0.2229360  0.6260830  )

     number of k points=    14
                       cart. coord. in units 2pi/alat
        k(    1) = (   0.0000000   0.0000000   0.0000000), wk =   0.0370370
        k(    2) = (   0.0000000   0.0000000   0.4293221), wk =   0.0740741
        k(    3) = (   0.0000000   0.4009880  -0.1533822), wk =   0.0740741
        k(    4) = (   0.0000000   0.4009880   0.2759399), wk =   0.0740741
        k(    5) = (   0.0000000   0.4009880  -0.5827042), wk =   0.0740741
        k(    6) = (   0.3333333  -0.2228906  -0.1533822), wk =   0.0740741
        k(    7) = (   0.3333333  -0.2228906   0.2759399), wk =   0.0740741
        k(    8) = (   0.3333333  -0.2228906  -0.5827042), wk =   0.0740741
        k(    9) = (   0.3333333   0.1780973  -0.3067643), wk =   0.0740741
        k(   10) = (   0.3333333   0.1780973   0.1225577), wk =   0.0740741
        k(   11) = (   0.3333333   0.1780973  -0.7360864), wk =   0.0740741
        k(   12) = (   0.3333333  -0.6238786   0.0000000), wk =   0.0740741
        k(   13) = (   0.3333333  -0.6238786   0.4293221), wk =   0.0740741
        k(   14) = (   0.3333333  -0.6238786  -0.4293221), wk =   0.0740741

                       cryst. coord.
        k(    1) = (   0.0000000   0.0000000   0.0000000), wk =   0.0370370
        k(    2) = (   0.0000000   0.0000000   0.3333333), wk =   0.0740741
        k(    3) = (   0.0000000   0.3333333   0.0000000), wk =   0.0740741
        k(    4) = (   0.0000000   0.3333333   0.3333333), wk =   0.0740741
        k(    5) = (   0.0000000   0.3333333  -0.3333333), wk =   0.0740741
        k(    6) = (   0.3333333  -0.0000000  -0.0000000), wk =   0.0740741
        k(    7) = (   0.3333333  -0.0000000   0.3333333), wk =   0.0740741
        k(    8) = (   0.3333333  -0.0000000  -0.3333333), wk =   0.0740741
        k(    9) = (   0.3333333   0.3333333   0.0000000), wk =   0.0740741
        k(   10) = (   0.3333333   0.3333333   0.3333333), wk =   0.0740741
        k(   11) = (   0.3333333   0.3333333  -0.3333333), wk =   0.0740741
        k(   12) = (   0.3333333  -0.3333333  -0.0000000), wk =   0.0740741
        k(   13) = (   0.3333333  -0.3333333   0.3333333), wk =   0.0740741
        k(   14) = (   0.3333333  -0.3333333  -0.3333333), wk =   0.0740741

     Initial potential from superposition of free atoms

     starting charge      86.9759, renormalised to      87.0000

     negative rho (up, down):  4.455E-02 4.455E-02
     Starting wfcs are   71 randomized atomic wfcs
     Checking if some PAW data can be deallocated...

     Self-consistent Calculation

     iteration #  1     ecut=    30.00 Ry     beta= 0.70
     Davidson diagonalization with overlap

     ethr =  1.00E-02,  avg # of iterations =  7.9

     negative rho (up, down):  4.624E-02 4.575E-02

     total energy              =   -1170.89824545 Ry
     estimated scf accuracy    <       1.47728882 Ry

     total magnetization       =     7.00 Bohr mag/cell
     absolute magnetization    =     7.00 Bohr mag/cell

[...]

     total energy              =   -1171.22912079 Ry
     estimated scf accuracy    <       0.00002854 Ry

[...]

     iteration # 21     ecut=    30.00 Ry     beta= 0.70
     Davidson diagonalization with overlap

     ethr =  3.28E-08,  avg # of iterations =  2.5

     negative rho (up, down):  4.440E-02 4.441E-02

     Magnetic moment per site  (integrated on atomic sphere of radius R)
     atom   1 (R=0.151)  charge=  8.0917  magn=  0.0001
     atom   2 (R=0.151)  charge=  8.0907  magn=  0.0001
     atom   3 (R=0.151)  charge=  8.0917  magn=  0.0001
     atom   4 (R=0.147)  charge= 14.8506  magn=  6.8860
     atom   5 (R=0.147)  charge=  5.9519  magn=  0.0016
     atom   6 (R=0.147)  charge=  5.9519  magn=  0.0016
     atom   7 (R=0.147)  charge=  5.9519  magn=  0.0016
     atom   8 (R=0.147)  charge=  5.9519  magn=  0.0016
     atom   9 (R=0.147)  charge=  5.9519  magn=  0.0016
     atom  10 (R=0.147)  charge=  5.9519  magn=  0.0016

     End of self-consistent calculation

 ------ SPIN UP ------------

          k = 0.0000 0.0000 0.0000 (  5265 PWs)   bands (ev):

   -48.3292 -48.3289 -48.2684 -42.0840 -20.2451 -20.2447 -20.2345 -20.2345
   -20.2293 -20.2293 -20.1773 -20.1773 -20.1701 -19.5103 -19.4981 -19.4981
   -11.9297 -11.6089 -11.6089 -11.4751 -11.4647 -11.4646  -1.4642  -1.4642
    -1.4391  -1.3988  -1.3915  -1.3915  -1.3857  -1.3660  -0.8141  -0.8141
    -0.7685  -0.4593  -0.4593  -0.4573  -0.3801  -0.3800   0.1858   0.2482
     0.5710   0.5711   0.6696   0.6697   0.8270   0.8271   0.8828   6.1207
     6.2053   6.2053   6.2770   8.2912   8.2912   8.4095   9.5526   9.6101
     9.9936   9.9936  10.3102  10.6998  10.7000  10.9225  11.2736  11.4117

     occupation numbers
     1.0000   1.0000   1.0000   1.0000   1.0000   1.0000   1.0000   1.0000
     1.0000   1.0000   1.0000   1.0000   1.0000   1.0000   1.0000   1.0000
     1.0000   1.0000   1.0000   1.0000   1.0000   1.0000   1.0000   1.0000
     1.0000   1.0000   1.0000   1.0000   1.0000   1.0000   1.0000   1.0000
     1.0000   1.0000   1.0000   1.0000   1.0000   1.0000   1.0000   1.0000
     1.0000   1.0000   1.0000   1.0000   1.0000   1.0000   1.0000   0.0000
     0.0000   0.0000   0.0000   0.0000   0.0000   0.0000   0.0000   0.0000
     0.0000   0.0000   0.0000   0.0000   0.0000   0.0000   0.0000   0.0000

[...]

 ------ SPIN DOWN ----------

[...]

          k = 0.3333-0.6239-0.4293 (  5225 PWs)   bands (ev):

   -48.3288 -48.3287 -48.2680 -39.0059 -20.2437 -20.2432 -20.2345 -20.2321
   -20.2285 -20.2280 -20.1763 -20.1760 -20.1689 -17.3706 -17.3455 -17.3451
   -11.7443 -11.6534 -11.6101 -11.4829 -11.4461 -11.4179  -1.1065  -0.9291
    -0.8180  -0.5890  -0.5285  -0.4079  -0.2412  -0.0912   0.0004   0.1589
     0.1983   0.2540   0.3065   0.3185   0.5033   0.5922   0.6969   0.7219
     3.8705   3.9074   3.9235   3.9262   3.9729   3.9990   4.0029   6.7835
     6.8582   6.9332   7.8503   8.2945   8.4668   9.0034   9.1801   9.6022
     9.7625  10.1550  10.1998  10.4951  10.6075  11.1996  11.2839  11.3444

     occupation numbers
     1.0000   1.0000   1.0000   1.0000   1.0000   1.0000   1.0000   1.0000
     1.0000   1.0000   1.0000   1.0000   1.0000   1.0000   1.0000   1.0000
     1.0000   1.0000   1.0000   1.0000   1.0000   1.0000   1.0000   1.0000
     1.0000   1.0000   1.0000   1.0000   1.0000   1.0000   1.0000   1.0000
     1.0000   1.0000   1.0000   1.0000   1.0000   1.0000   1.0000   1.0000
     0.0000   0.0000   0.0000   0.0000   0.0000   0.0000   0.0000   0.0000
     0.0000   0.0000   0.0000   0.0000   0.0000   0.0000   0.0000   0.0000
     0.0000   0.0000   0.0000   0.0000   0.0000   0.0000   0.0000   0.0000

     highest occupied, lowest unoccupied level (ev):     0.8828    3.8692

!    total energy              =   -1171.22912833 Ry
     estimated scf accuracy    <       0.00000029 Ry

     The total energy is the sum of the following terms:
     one-electron contribution =    -475.90534361 Ry
     hartree contribution      =     265.86275115 Ry
     xc contribution           =    -123.63877332 Ry
     ewald contribution        =    -372.01841962 Ry
     one-center paw contrib.   =    -465.52934293 Ry
      -> PAW hartree energy AE =       0.00000000 Ry
      -> PAW hartree energy PS =       0.00000000 Ry
      -> PAW xc energy AE      =       0.00000000 Ry
      -> PAW xc energy PS      =       0.00000000 Ry
      -> total E_H with PAW    =     265.86275115 Ry
      -> total E_XC with PAW   =    -123.63877332 Ry

     total magnetization       =     7.00 Bohr mag/cell
     absolute magnetization    =     7.03 Bohr mag/cell

     convergence has been achieved in  21 iterations

     Writing all to output data dir bands_nm/myprefix.save/

     General routines

     Parallel routines

     PAW routines

   This run was terminated on:  14:32: 6  15Jul2023

   JOB DONE.