     Program PWSCF v.7.1 starts on 16Jul2023 at 15:17:41

     Reading input from espresso_25691.pwi
Warning: card &CELL ignored
Warning: card / ignored

     Current dimensions of program PWSCF are:
     Max number of different atomic species (ntypx) = 10
     Max number of k-points (npk) =  40000
     Max angular momentum in pseudopotentials (lmaxx) =  4
     file K.pbe-spn-kjpaw_psl.1.0.0.UPF: wavefunction(s)  3S renormalized
     Message from routine setup:
     using ibrav=0 with symmetry is DISCOURAGED, use correct ibrav instead

     K-points division:     npool     =       2
     R & G space division:  proc/nbgrp/npool/nimage =       4
     Subspace diagonalization in iterative solution of the eigenvalue problem:
     a serial algorithm will be used

     Using Slab Decomposition

     bravais-lattice index     =            0
     lattice parameter (alat)  =      12.7728  a.u.
     unit-cell volume          =    1907.2905 (a.u.)^3
     number of atoms/cell      =            8
     number of atomic types    =            3
     number of electrons       =       104.00
     number of Kohn-Sham states=           64
     kinetic-energy cutoff     =      30.0000  Ry
     charge density cutoff     =     240.0000  Ry
     scf convergence threshold =      1.0E-06
     mixing beta               =       0.7000
     number of iterations used =            8  plain     mixing
     Exchange-correlation=  SLA  PW   PBX  PBC
                           (   1   4   3   4   0   0   0)

     celldm(1)=  12.772784  celldm(2)=   0.000000  celldm(3)=   0.000000
     celldm(4)=   0.000000  celldm(5)=   0.000000  celldm(6)=   0.000000

     crystal axes: (cart. coord. in units of alat)
               a(1) = (   1.000000   0.000000   0.000000 )
               a(2) = (  -0.232076   0.972698   0.000000 )
               a(3) = (   0.000000   0.000000   0.940984 )

     reciprocal axes: (cart. coord. in units 2 pi/alat)
               b(1) = (  1.000000  0.238590  0.000000 )
               b(2) = (  0.000000  1.028069  0.000000 )
               b(3) = (  0.000000  0.000000  1.062717 )

     PseudoPot. # 1 for K  read from file:
     /lustre07/scratch/pragov/crystal_structure_design/utils/SSSP/K.pbe-spn-kjpaw_psl.1.0.0.UPF
     MD5 check sum: 7d58810084cac21f60fbe77ea2b688fd
     Pseudo is Projector augmented-wave + core cor, Zval =  9.0
     Generated using "atomic" code by A. Dal Corso  v.5.1
     Shape of augmentation charge: PSQ
     Using radial grid of 1165 points,  6 beta functions with:
                l(1) =   0
                l(2) =   0
                l(3) =   1
                l(4) =   1
                l(5) =   2
                l(6) =   2
     Q(r) pseudized with 0 coefficients

     PseudoPot. # 2 for Ag read from file:
     /lustre07/scratch/pragov/crystal_structure_design/utils/SSSP/Ag_ONCV_PBE-1.0.oncvpsp.upf
     MD5 check sum: 94f47bd0669c641108e45594df92fabc
     Pseudo is Norm-conserving, Zval = 19.0
     Generated using ONCVPSP code by D. R. Hamann
     Using radial grid of 1398 points,  6 beta functions with:
                l(1) =   0
                l(2) =   0
                l(3) =   1
                l(4) =   1
                l(5) =   2
                l(6) =   2

     PseudoPot. # 3 for Sb read from file:
     /lustre07/scratch/pragov/crystal_structure_design/utils/SSSP/sb_pbe_v1.4.uspp.F.UPF
     MD5 check sum: 9bc50dfb53373b713f5709b9110fe27f
     Pseudo is Ultrasoft + core correction, Zval = 15.0
     Generated by new atomic code, or converted to UPF format
     Using radial grid of  891 points,  6 beta functions with:
                l(1) =   0
                l(2) =   0
                l(3) =   1
                l(4) =   1
                l(5) =   2
                l(6) =   2
     Q(r) pseudized with  8 coefficients,  rinner =    1.350   1.350   1.350
                                                       1.350   1.350

     atomic species   valence    mass     pseudopotential
        K              9.00    39.09830     K ( 1.00)
        Ag            19.00   107.86820     Ag( 1.00)
        Sb            15.00   121.76000     Sb( 1.00)

      4 Sym. Ops., with inversion, found ( 2 have fractional translation)

                                    s                        frac. trans.

      isym =  1     identity

 cryst.   s( 1) = (     1          0          0      )
                  (     0          1          0      )
                  (     0          0          1      )

 cart.    s( 1) = (  1.0000000  0.0000000  0.0000000 )
                  (  0.0000000  1.0000000  0.0000000 )
                  (  0.0000000  0.0000000  1.0000000 )

      isym =  2     180 deg rotation - cart. axis [0,0,1]

 cryst.   s( 2) = (    -1          0          0      )    f =(  0.0000000 )
                  (     0         -1          0      )       (  0.0000000 )
                  (     0          0          1      )       ( -0.5000000 )

 cart.    s( 2) = ( -1.0000000 -0.0000000  0.0000000 )    f =(  0.0000000 )
                  (  0.0000000 -1.0000000  0.0000000 )       (  0.0000000 )
                  (  0.0000000  0.0000000  1.0000000 )       ( -0.4704920 )

      isym =  3     inversion

 cryst.   s( 3) = (    -1          0          0      )
                  (     0         -1          0      )
                  (     0          0         -1      )

 cart.    s( 3) = ( -1.0000000 -0.0000000  0.0000000 )
                  (  0.0000000 -1.0000000  0.0000000 )
                  (  0.0000000  0.0000000 -1.0000000 )

      isym =  4     inv. 180 deg rotation - cart. axis [0,0,1]

 cryst.   s( 4) = (     1          0          0      )    f =(  0.0000000 )
                  (     0          1          0      )       (  0.0000000 )
                  (     0          0         -1      )       ( -0.5000000 )

 cart.    s( 4) = (  1.0000000  0.0000000  0.0000000 )    f =(  0.0000000 )
                  (  0.0000000  1.0000000  0.0000000 )       (  0.0000000 )
                  (  0.0000000  0.0000000 -1.0000000 )       ( -0.4704920 )

   Cartesian axes

     site n.     atom                  positions (alat units)
         1           K   tau(   1) = (   0.0950106   0.9500640   0.7057380  )
         2           K   tau(   2) = (   0.6729138   0.0226337   0.2352460  )
         3           K   tau(   3) = (   0.9020755   0.3129032   0.7057380  )
         4           K   tau(   4) = (  -0.1341511   0.6597945   0.2352460  )
         5           Ag  tau(   5) = (   0.3839622   0.4863489   0.0000000  )
         6           Ag  tau(   6) = (   0.3839622   0.4863489   0.4704920  )
         7           Sb  tau(   7) = (   0.5874652   0.7441177   0.7057380  )
         8           Sb  tau(   8) = (   0.1804592   0.2285801   0.2352460  )

   Crystallographic axes

     site n.     atom                  positions (cryst. coord.)
         1           K   tau(   1) = (  0.3216860  0.9767310  0.7500000  )
         2           K   tau(   2) = (  0.6783140  0.0232690  0.2500000  )
         3           K   tau(   3) = (  0.9767310  0.3216860  0.7500000  )
         4           K   tau(   4) = (  0.0232690  0.6783140  0.2500000  )
         5           Ag  tau(   5) = (  0.5000000  0.5000000  0.0000000  )
         6           Ag  tau(   6) = (  0.5000000  0.5000000  0.5000000  )
         7           Sb  tau(   7) = (  0.7650040  0.7650040  0.7500000  )
         8           Sb  tau(   8) = (  0.2349960  0.2349960  0.2500000  )

     number of k points=    10
                       cart. coord. in units 2pi/alat
        k(    1) = (   0.0000000   0.0000000   0.0000000), wk =   0.0740741
        k(    2) = (   0.0000000   0.0000000   0.3542391), wk =   0.1481481
        k(    3) = (   0.0000000   0.3426895   0.0000000), wk =   0.1481481
        k(    4) = (   0.0000000   0.3426895   0.3542391), wk =   0.2962963
        k(    5) = (   0.3333333   0.0795299   0.0000000), wk =   0.1481481
        k(    6) = (   0.3333333   0.0795299   0.3542391), wk =   0.2962963
        k(    7) = (   0.3333333   0.4222194   0.0000000), wk =   0.1481481
        k(    8) = (   0.3333333   0.4222194   0.3542391), wk =   0.2962963
        k(    9) = (   0.3333333  -0.2631597   0.0000000), wk =   0.1481481
        k(   10) = (   0.3333333  -0.2631597   0.3542391), wk =   0.2962963

                       cryst. coord.
        k(    1) = (   0.0000000   0.0000000   0.0000000), wk =   0.0740741
        k(    2) = (   0.0000000   0.0000000   0.3333333), wk =   0.1481481
        k(    3) = (   0.0000000   0.3333333   0.0000000), wk =   0.1481481
        k(    4) = (   0.0000000   0.3333333   0.3333333), wk =   0.2962963
        k(    5) = (   0.3333333   0.0000000   0.0000000), wk =   0.1481481
        k(    6) = (   0.3333333   0.0000000   0.3333333), wk =   0.2962963
        k(    7) = (   0.3333333   0.3333333   0.0000000), wk =   0.1481481
        k(    8) = (   0.3333333   0.3333333   0.3333333), wk =   0.2962963
        k(    9) = (   0.3333333  -0.3333333   0.0000000), wk =   0.1481481
        k(   10) = (   0.3333333  -0.3333333   0.3333333), wk =   0.2962963

     Check: negative core charge=   -0.000005

     Initial potential from superposition of free atoms

     starting charge     101.9241, renormalised to     104.0000
     Starting wfcs are   70 randomized atomic wfcs
     Checking if some PAW data can be deallocated...

     Self-consistent Calculation

     iteration #  1     ecut=    30.00 Ry     beta= 0.70
     Davidson diagonalization with overlap

     ethr =  1.00E-02,  avg # of iterations =  7.1

     total energy              =   -1395.77321478 Ry
     estimated scf accuracy    <       1.28887899 Ry

[...]

     total energy              =   -1396.29278505 Ry
     estimated scf accuracy    <       0.00001344 Ry

     iteration #  7     ecut=    30.00 Ry     beta= 0.70
     Davidson diagonalization with overlap

     ethr =  1.29E-08,  avg # of iterations =  2.5

     End of self-consistent calculation

          k = 0.0000 0.0000 0.0000 (  5309 PWs)   bands (ev):

   -86.7994 -86.7982 -49.9045 -49.8971 -49.7995 -49.7910 -49.7851 -49.7821
   -24.9097 -24.8877 -24.8824 -24.8795 -21.7198 -21.7163 -21.7142 -21.7090
   -21.6770 -21.6766 -21.6657 -21.6639 -21.6598 -21.6597  -8.5247  -8.4948
    -8.4699  -8.4374  -8.4216  -8.4068  -8.4052  -8.3800  -8.3540  -8.3224
    -8.2953  -8.2927  -2.6195  -1.8911   1.2977   1.6219   1.6455   1.7035
     2.0136   2.0674   2.1369   2.3288   2.4686   2.4694   3.5703   5.0970
     5.1798   5.2490   5.2772   5.5558   6.9631   6.9844   7.3134   8.4297
     9.0938   9.4045  10.2469  10.5403  10.7878  10.8054  10.9469  11.0621

     occupation numbers
     1.0000   1.0000   1.0000   1.0000   1.0000   1.0000   1.0000   1.0000
     1.0000   1.0000   1.0000   1.0000   1.0000   1.0000   1.0000   1.0000
     1.0000   1.0000   1.0000   1.0000   1.0000   1.0000   1.0000   1.0000
     1.0000   1.0000   1.0000   1.0000   1.0000   1.0000   1.0000   1.0000
     1.0000   1.0000   1.0000   1.0000   1.0000   1.0000   1.0000   1.0000
     1.0000   1.0000   1.0000   1.0000   1.0000   1.0000   1.0000   1.0000
     1.0000   1.0000   1.0000   1.0000   0.0000   0.0000   0.0000   0.0000
     0.0000   0.0000   0.0000   0.0000   0.0000   0.0000   0.0000   0.0000

[...]

          k = 0.3333-0.2632 0.3542 (  5299 PWs)   bands (ev):

   -86.7991 -86.7985 -49.9029 -49.8969 -49.7951 -49.7907 -49.7896 -49.7849
   -24.8988 -24.8961 -24.8856 -24.8788 -21.7151 -21.7146 -21.7100 -21.7096
   -21.6815 -21.6810 -21.6650 -21.6639 -21.6616 -21.6614  -8.5124  -8.5077
    -8.4849  -8.4774  -8.4455  -8.3906  -8.3806  -8.3600  -8.3447  -8.3446
    -8.2894  -8.2851  -2.3697  -2.0577   1.6005   1.7673   1.8130   1.8565
     2.0432   2.0691   2.0780   2.1210   2.2977   2.3011   3.5846   4.1128
     4.5537   4.9144   5.0273   5.5516   8.2229   8.2327   8.4467   8.6937
     8.9393   9.3564  10.1712  10.4273  10.5265  10.8165  10.9024  10.9471

     occupation numbers
     1.0000   1.0000   1.0000   1.0000   1.0000   1.0000   1.0000   1.0000
     1.0000   1.0000   1.0000   1.0000   1.0000   1.0000   1.0000   1.0000
     1.0000   1.0000   1.0000   1.0000   1.0000   1.0000   1.0000   1.0000
     1.0000   1.0000   1.0000   1.0000   1.0000   1.0000   1.0000   1.0000
     1.0000   1.0000   1.0000   1.0000   1.0000   1.0000   1.0000   1.0000
     1.0000   1.0000   1.0000   1.0000   1.0000   1.0000   1.0000   1.0000
     1.0000   1.0000   1.0000   1.0000   0.0000   0.0000   0.0000   0.0000
     0.0000   0.0000   0.0000   0.0000   0.0000   0.0000   0.0000   0.0000

     highest occupied, lowest unoccupied level (ev):     5.6629    6.9631

!    total energy              =   -1396.29278832 Ry
     estimated scf accuracy    <       0.00000083 Ry

     The total energy is the sum of the following terms:
     one-electron contribution =    -820.99299750 Ry
     hartree contribution      =     438.26850017 Ry
     xc contribution           =    -187.14323668 Ry
     ewald contribution        =    -604.75481916 Ry
     one-center paw contrib.   =    -221.67023515 Ry
      -> PAW hartree energy AE =      37.70433027 Ry
      -> PAW hartree energy PS =     -37.49403746 Ry
      -> PAW xc energy AE      =     -66.21819524 Ry
      -> PAW xc energy PS      =      10.59034365 Ry
      -> total E_H with PAW    =     438.47879298 Ry
      -> total E_XC with PAW   =    -242.77108827 Ry

     convergence has been achieved in   7 iterations

     Writing all to output data dir bands_nm/myprefix.save/

     General routines

     Parallel routines

     PAW routines

   This run was terminated on:  15:17:48  16Jul2023

   JOB DONE.