     Program PWSCF v.7.1 starts on 14Jul2023 at 13:48:35

     Reading input from espresso_18547.pwi
Warning: card &CELL ignored
Warning: card / ignored

     Current dimensions of program PWSCF are:
     Max number of different atomic species (ntypx) = 10
     Max number of k-points (npk) =  40000
     Max angular momentum in pseudopotentials (lmaxx) =  4
     file La.paw.z_11.atompaw.wentzcovitch.v1.2.upf: wavefunction(s)  6S 0P 5D 0D 4F 0F renormalized
     Message from routine setup:
     using ibrav=0 with symmetry is DISCOURAGED, use correct ibrav instead

     K-points division:     npool     =       2
     R & G space division:  proc/nbgrp/npool/nimage =       4
     Subspace diagonalization in iterative solution of the eigenvalue problem:
     a serial algorithm will be used

     Using Slab Decomposition

     bravais-lattice index     =            0
     lattice parameter (alat)  =      15.1900  a.u.
     unit-cell volume          =    4480.3412 (a.u.)^3
     number of atoms/cell      =           14
     number of atomic types    =            3
     number of electrons       =       112.00
     number of Kohn-Sham states=           64
     kinetic-energy cutoff     =      30.0000  Ry
     charge density cutoff     =     240.0000  Ry
     scf convergence threshold =      1.0E-06
     mixing beta               =       0.7000
     number of iterations used =            8  plain     mixing
     Exchange-correlation= SLA  PW   PBX  PBC
                           (   1   4   3   4   0   0   0)

     celldm(1)=  15.190002  celldm(2)=   0.000000  celldm(3)=   0.000000
     celldm(4)=   0.000000  celldm(5)=   0.000000  celldm(6)=   0.000000

     crystal axes: (cart. coord. in units of alat)
               a(1) = (   1.000000   0.000000   0.000000 )
               a(2) = (  -0.844589   0.535415   0.000000 )
               a(3) = (   0.000000   0.000000   2.387520 )

     reciprocal axes: (cart. coord. in units 2 pi/alat)
               b(1) = (  1.000000  1.577448  0.000000 )
               b(2) = (  0.000000  1.867710  0.000000 )
               b(3) = (  0.000000  0.000000  0.418845 )

     PseudoPot. # 1 for Ca read from file:
     /lustre07/scratch/pragov/crystal_structure_design/utils/SSSP/Ca_pbe_v1.uspp.F.UPF
     MD5 check sum: 403a4c14b9e4d4dfdc3024c9a3812218
     Pseudo is Ultrasoft + core correction, Zval = 10.0
     Generated by new atomic code, or converted to UPF format
     Using radial grid of  845 points,  6 beta functions with:
                l(1) =   0
                l(2) =   0
                l(3) =   1
                l(4) =   1
                l(5) =   2
                l(6) =   2
     Q(r) pseudized with  8 coefficients,  rinner =    1.500   1.500   1.500
                                                       1.500   1.500

     PseudoPot. # 2 for La read from file:
     /lustre07/scratch/pragov/crystal_structure_design/utils/SSSP/La.paw.z_11.atompaw.wentzcovitch.v1.2.upf
     MD5 check sum: 754494e15ae71f30e5b5f678af019e01
     Pseudo is Projector augmented-wave + core cor, Zval = 11.0
     Generated using ATOMPAW code
     Shape of augmentation charge: BESSEL
     Using radial grid of 1101 points,  8 beta functions with:
                l(1) =   0
                l(2) =   0
                l(3) =   1
                l(4) =   1
                l(5) =   2
                l(6) =   2
                l(7) =   3
                l(8) =   3
     Q(r) pseudized with 0 coefficients

     PseudoPot. # 3 for I  read from file:
     /lustre07/scratch/pragov/crystal_structure_design/utils/SSSP/I.pbe-n-kjpaw_psl.0.2.UPF
     MD5 check sum: d4ef18d9c8f18dc85e5843bca1e50dc0
     Pseudo is Projector augmented-wave + core cor, Zval =  7.0
     Generated using "atomic" code by A. Dal Corso  v.5.0.99 svn rev. 10869
     Shape of augmentation charge: PSQ
     Using radial grid of 1247 points,  4 beta functions with:
                l(1) =   0
                l(2) =   0
                l(3) =   1
                l(4) =   1
     Q(r) pseudized with 0 coefficients

     atomic species   valence    mass     pseudopotential
        Ca            10.00    40.07800     Ca( 1.00)
        La            11.00   138.90547     La( 1.00)
        I              7.00   126.90447     I ( 1.00)

      4 Sym. Ops., with inversion, found ( 2 have fractional translation)

                                    s                        frac. trans.

      isym =  1     identity

 cryst.   s( 1) = (     1          0          0      )
                  (     0          1          0      )
                  (     0          0          1      )

 cart.    s( 1) = (  1.0000000  0.0000000  0.0000000 )
                  (  0.0000000  1.0000000  0.0000000 )
                  (  0.0000000  0.0000000  1.0000000 )

      isym =  2     180 deg rotation - cart. axis [0,0,1]

 cryst.   s( 2) = (    -1          0          0      )    f =(  0.0000000 )
                  (     0         -1          0      )       (  0.0000000 )
                  (     0          0          1      )       (  0.5000000 )

 cart.    s( 2) = ( -1.0000000 -0.0000000  0.0000000 )    f =(  0.0000000 )
                  (  0.0000000 -1.0000000  0.0000000 )       (  0.0000000 )
                  (  0.0000000  0.0000000  1.0000000 )       (  1.1937601 )

      isym =  3     inversion

 cryst.   s( 3) = (    -1          0          0      )
                  (     0         -1          0      )
                  (     0          0         -1      )

 cart.    s( 3) = ( -1.0000000 -0.0000000  0.0000000 )
                  (  0.0000000 -1.0000000  0.0000000 )
                  (  0.0000000  0.0000000 -1.0000000 )

      isym =  4     inv. 180 deg rotation - cart. axis [0,0,1]

 cryst.   s( 4) = (     1          0          0      )    f =(  0.0000000 )
                  (     0          1          0      )       (  0.0000000 )
                  (     0          0         -1      )       ( -0.5000000 )

 cart.    s( 4) = (  1.0000000  0.0000000  0.0000000 )    f =(  0.0000000 )
                  (  0.0000000  1.0000000  0.0000000 )       (  0.0000000 )
                  (  0.0000000  0.0000000 -1.0000000 )       ( -1.1937601 )

   Cartesian axes

     site n.     atom                  positions (alat units)
         1           Ca  tau(   1) = (   0.0961569   0.2623517   0.5968801  )
         2           Ca  tau(   2) = (   0.0592540   0.2730633   1.7906402  )
         3           La  tau(   3) = (   0.0000000   0.0000000   0.0000000  )
         4           La  tau(   4) = (   0.0000000   0.0000000   1.1937601  )
         5           I   tau(   5) = (   0.8250186   0.0507905   0.3535440  )
         6           I   tau(   6) = (   0.7284101   0.0788324   1.7906402  )
         7           I   tau(   7) = (   0.8250186   0.0507905   0.8402161  )
         8           I   tau(   8) = (   0.3126083   0.1995240   0.1359836  )
         9           I   tau(   9) = (   0.3126083   0.1995240   1.0577765  )
        10           I   tau(  10) = (  -0.1571974   0.3358910   1.3297437  )
        11           I   tau(  11) = (  -0.1571974   0.3358910   2.2515366  )
        12           I   tau(  12) = (  -0.5729992   0.4565826   0.5968801  )
        13           I   tau(  13) = (  -0.6696077   0.4846245   1.5473041  )
        14           I   tau(  14) = (  -0.6696077   0.4846245   2.0339762  )

   Crystallographic axes

     site n.     atom                  positions (cryst. coord.)
         1           Ca  tau(   1) = (  0.5100030  0.4899970  0.2500000  )
         2           Ca  tau(   2) = (  0.4899970  0.5100030  0.7500000  )
         3           La  tau(   3) = (  0.0000000  0.0000000  0.0000000  )
         4           La  tau(   4) = (  0.0000000  0.0000000  0.5000000  )
         5           I   tau(   5) = (  0.9051380  0.0948620  0.1480800  )
         6           I   tau(   6) = (  0.8527640  0.1472360  0.7500000  )
         7           I   tau(   7) = (  0.9051380  0.0948620  0.3519200  )
         8           I   tau(   8) = (  0.6273470  0.3726530  0.0569560  )
         9           I   tau(   9) = (  0.6273470  0.3726530  0.4430440  )
        10           I   tau(  10) = (  0.3726530  0.6273470  0.5569560  )
        11           I   tau(  11) = (  0.3726530  0.6273470  0.9430440  )
        12           I   tau(  12) = (  0.1472360  0.8527640  0.2500000  )
        13           I   tau(  13) = (  0.0948620  0.9051380  0.6480800  )
        14           I   tau(  14) = (  0.0948620  0.9051380  0.8519200  )

     number of k points=    10
                       cart. coord. in units 2pi/alat
        k(    1) = (   0.0000000   0.0000000   0.0000000), wk =   0.0740741
        k(    2) = (   0.0000000   0.0000000   0.1396149), wk =   0.1481481
        k(    3) = (   0.0000000   0.6225700   0.0000000), wk =   0.1481481
        k(    4) = (   0.0000000   0.6225700   0.1396149), wk =   0.2962963
        k(    5) = (   0.3333333   0.5258159   0.0000000), wk =   0.1481481
        k(    6) = (   0.3333333   0.5258159   0.1396149), wk =   0.2962963
        k(    7) = (   0.3333333   1.1483859   0.0000000), wk =   0.1481481
        k(    8) = (   0.3333333   1.1483859   0.1396149), wk =   0.2962963
        k(    9) = (   0.3333333  -0.0967542   0.0000000), wk =   0.1481481
        k(   10) = (   0.3333333  -0.0967542   0.1396149), wk =   0.2962963

                       cryst. coord.
        k(    1) = (   0.0000000   0.0000000   0.0000000), wk =   0.0740741
        k(    2) = (   0.0000000   0.0000000   0.3333333), wk =   0.1481481
        k(    3) = (   0.0000000   0.3333333   0.0000000), wk =   0.1481481
        k(    4) = (   0.0000000   0.3333333   0.3333333), wk =   0.2962963
        k(    5) = (   0.3333333   0.0000000   0.0000000), wk =   0.1481481
        k(    6) = (   0.3333333   0.0000000   0.3333333), wk =   0.2962963
        k(    7) = (   0.3333333   0.3333333   0.0000000), wk =   0.1481481
        k(    8) = (   0.3333333   0.3333333   0.3333333), wk =   0.2962963
        k(    9) = (   0.3333333  -0.3333333   0.0000000), wk =   0.1481481
        k(   10) = (   0.3333333  -0.3333333   0.3333333), wk =   0.2962963

     Check: negative core charge=   -0.000001

     Initial potential from superposition of free atoms

     starting charge     111.9713, renormalised to     112.0000

     negative rho (up, down):  2.020E-04 0.000E+00
     Starting wfcs are  124 randomized atomic wfcs
     Checking if some PAW data can be deallocated...

     Self-consistent Calculation

     iteration #  1     ecut=    30.00 Ry     beta= 0.70
     Davidson diagonalization with overlap

     ethr =  1.00E-02,  avg # of iterations =  1.0

     Threshold (ethr) on eigenvalues was too large:
     Diagonalizing with lowered threshold

     Davidson diagonalization with overlap

[...]

     negative rho (up, down):  1.426E-04 0.000E+00

     total energy              =   -4856.93764121 Ry
     estimated scf accuracy    <       0.18889225 Ry

[...]

     c_bands:  2 eigenvalues not converged
     c_bands:  4 eigenvalues not converged
     c_bands:  4 eigenvalues not converged
     ethr =  1.05E-05,  avg # of iterations = 23.0

[...]

     c_bands:  1 eigenvalues not converged
     ethr =  1.32E-07,  avg # of iterations =  8.0

[...]

     total energy              =   -4856.99116758 Ry
     estimated scf accuracy    <       0.00000123 Ry

     iteration #  8     ecut=    30.00 Ry     beta= 0.70
     Davidson diagonalization with overlap

     ethr =  1.10E-09,  avg # of iterations =  5.9

     negative rho (up, down):  2.442E-04 0.000E+00

     End of self-consistent calculation

          k = 0.0000 0.0000 0.0000 ( 12473 PWs)   bands (ev):

   -38.0680 -38.0680 -29.8688 -29.8688 -19.0881 -19.0881 -19.0398 -19.0398
   -18.9882 -18.9882 -13.7182 -13.7181 -13.6075 -13.6069 -13.5231 -13.5231
    -9.2985  -9.2730  -9.0031  -8.9403  -8.8755  -8.8545  -8.8248  -8.6972
    -8.1802  -8.1706  -0.3179  -0.2707  -0.2249   0.0160   0.2016   0.2371
     0.4265   0.4831   0.4899   0.6053   0.7868   0.8689   1.0069   1.0644
     1.3123   1.3392   1.3945   1.4223   1.4726   1.5768   1.6320   1.6432
     1.7647   1.7655   2.0160   2.0575   2.1006   2.1138   2.1576   2.3709
     4.6355   4.6425   4.9375   4.9435   4.9853   4.9863   4.9888   4.9952

     occupation numbers
     1.0000   1.0000   1.0000   1.0000   1.0000   1.0000   1.0000   1.0000
     1.0000   1.0000   1.0000   1.0000   1.0000   1.0000   1.0000   1.0000
     1.0000   1.0000   1.0000   1.0000   1.0000   1.0000   1.0000   1.0000
     1.0000   1.0000   1.0000   1.0000   1.0000   1.0000   1.0000   1.0000
     1.0000   1.0000   1.0000   1.0000   1.0000   1.0000   1.0000   1.0000
     1.0000   1.0000   1.0000   1.0000   1.0000   1.0000   1.0000   1.0000
     1.0000   1.0000   1.0000   1.0000   1.0000   1.0000   1.0000   1.0000
     0.0000   0.0000   0.0000   0.0000   0.0000   0.0000   0.0000   0.0000

[...]

          k = 0.3333-0.0968 0.1396 ( 12462 PWs)   bands (ev):

   -38.0680 -38.0680 -29.8688 -29.8688 -19.0881 -19.0881 -19.0398 -19.0398
   -18.9882 -18.9882 -13.7187 -13.7187 -13.6074 -13.6071 -13.5231 -13.5231
    -9.2587  -9.2482  -8.9969  -8.9537  -8.9021  -8.8980  -8.7812  -8.7231
    -8.1855  -8.1816  -0.3432  -0.2340  -0.0768  -0.0144   0.2240   0.2432
     0.4982   0.5126   0.5161   0.5189   0.8496   0.9958   1.0441   1.0857
     1.2628   1.2788   1.3716   1.4670   1.5006   1.5508   1.6260   1.6608
     1.6948   1.7534   1.8745   1.9115   2.0200   2.0353   2.2493   2.3290
     4.5690   4.5697   4.9304   4.9340   4.9845   4.9851   4.9910   4.9990

     occupation numbers
     1.0000   1.0000   1.0000   1.0000   1.0000   1.0000   1.0000   1.0000
     1.0000   1.0000   1.0000   1.0000   1.0000   1.0000   1.0000   1.0000
     1.0000   1.0000   1.0000   1.0000   1.0000   1.0000   1.0000   1.0000
     1.0000   1.0000   1.0000   1.0000   1.0000   1.0000   1.0000   1.0000
     1.0000   1.0000   1.0000   1.0000   1.0000   1.0000   1.0000   1.0000
     1.0000   1.0000   1.0000   1.0000   1.0000   1.0000   1.0000   1.0000
     1.0000   1.0000   1.0000   1.0000   1.0000   1.0000   1.0000   1.0000
     0.0000   0.0000   0.0000   0.0000   0.0000   0.0000   0.0000   0.0000

     highest occupied, lowest unoccupied level (ev):     2.3743    4.5686

!    total energy              =   -4856.99116864 Ry
     estimated scf accuracy    <       0.00000009 Ry

     The total energy is the sum of the following terms:
     one-electron contribution =    -189.94997916 Ry
     hartree contribution      =     133.68029768 Ry
     xc contribution           =    -467.55684444 Ry
     ewald contribution        =    -340.66829928 Ry
     one-center paw contrib.   =   -3992.49634344 Ry
      -> PAW hartree energy AE =       0.00000000 Ry
      -> PAW hartree energy PS =       0.00000000 Ry
      -> PAW xc energy AE      =       0.00000000 Ry
      -> PAW xc energy PS      =       0.00000000 Ry
      -> total E_H with PAW    =     133.68029768 Ry
      -> total E_XC with PAW   =    -467.55684444 Ry

     convergence has been achieved in   8 iterations

     Writing all to output data dir bands_nm/myprefix.save/

     General routines

     Parallel routines

     PAW routines

   This run was terminated on:  13:49:25  14Jul2023

   JOB DONE.