     Program PWSCF v.7.1 starts on 17Jul2023 at  0: 7:10

     Reading input from espresso_17057.pwi
Warning: card &CELL ignored
Warning: card / ignored

     Current dimensions of program PWSCF are:
     Max number of different atomic species (ntypx) = 10
     Max number of k-points (npk) =  40000
     Max angular momentum in pseudopotentials (lmaxx) =  4
     file Eu.paw.z_17.atompaw.wentzcovitch.v1.2.upf: wavefunction(s)  6S 0P 5D 0D 4F 0F renormalized
     file O.pbe-n-kjpaw_psl.0.1.UPF: wavefunction(s)  2P renormalized
     Message from routine setup:
     the system is metallic, specify occupations
     Message from routine setup:
     using ibrav=0 with symmetry is DISCOURAGED, use correct ibrav instead

     K-points division:     npool     =       2
     R & G space division:  proc/nbgrp/npool/nimage =       4
     Subspace diagonalization in iterative solution of the eigenvalue problem:
     a serial algorithm will be used

     Using Slab Decomposition

     bravais-lattice index     =            0
     lattice parameter (alat)  =      10.7434  a.u.
     unit-cell volume          =     876.8194 (a.u.)^3
     number of atoms/cell      =           10
     number of atomic types    =            4
     number of electrons       =        97.00 (up:  57.00, down:  40.00)
     number of Kohn-Sham states=           64
     kinetic-energy cutoff     =      30.0000  Ry
     charge density cutoff     =     240.0000  Ry
     scf convergence threshold =      1.0E-06
     mixing beta               =       0.7000
     number of iterations used =            8  plain     mixing
     Exchange-correlation= SLA  PW   PBX  PBC
                           (   1   4   3   4   0   0   0)

     celldm(1)=  10.743399  celldm(2)=   0.000000  celldm(3)=   0.000000
     celldm(4)=   0.000000  celldm(5)=   0.000000  celldm(6)=   0.000000

     crystal axes: (cart. coord. in units of alat)
               a(1) = (   1.000000   0.000000   0.000000 )
               a(2) = (   0.500000   0.866025   0.000000 )
               a(3) = (   0.500000   0.288675   0.816497 )

     reciprocal axes: (cart. coord. in units 2 pi/alat)
               b(1) = (  1.000000 -0.577350 -0.408248 )
               b(2) = (  0.000000  1.154701 -0.408248 )
               b(3) = (  0.000000  0.000000  1.224745 )

     PseudoPot. # 1 for Eu read from file:
     /lustre03/project/6004852/pragov/crystal_structure_design/crystal-design/crystal_design/utils/SSSP/Eu.paw.z_17.atompaw.wentzcovitch.v1.2.upf
     MD5 check sum: 52b6e423bc4e840b6e0dc4248fa51623
     Pseudo is Projector augmented-wave + core cor, Zval = 17.0
     Generated using ATOMPAW code
     Shape of augmentation charge: BESSEL
     Using radial grid of 1109 points,  8 beta functions with:
                l(1) =   0
                l(2) =   0
                l(3) =   1
                l(4) =   1
                l(5) =   2
                l(6) =   2
                l(7) =   3
                l(8) =   3
     Q(r) pseudized with 0 coefficients

     PseudoPot. # 2 for V  read from file:
     /lustre03/project/6004852/pragov/crystal_structure_design/crystal-design/crystal_design/utils/SSSP/v_pbe_v1.4.uspp.F.UPF
     MD5 check sum: 22b79981416ebb76fdaf5b1b8640f6fb
     Pseudo is Ultrasoft + core correction, Zval = 13.0
     Generated by new atomic code, or converted to UPF format
     Using radial grid of  853 points,  6 beta functions with:
                l(1) =   0
                l(2) =   0
                l(3) =   1
                l(4) =   1
                l(5) =   2
                l(6) =   2
     Q(r) pseudized with  8 coefficients,  rinner =    1.100   1.100   1.100
                                                       1.100   1.100

     PseudoPot. # 3 for W  read from file:
     /lustre03/project/6004852/pragov/crystal_structure_design/crystal-design/crystal_design/utils/SSSP/W_pbe_v1.2.uspp.F.UPF
     MD5 check sum: 9c083fa34c2a2ea0f02f1f893e16e1c8
     Pseudo is Ultrasoft + core correction, Zval = 14.0
     Generated by new atomic code, or converted to UPF format
     Using radial grid of  923 points,  8 beta functions with:
                l(1) =   0
                l(2) =   0
                l(3) =   0
                l(4) =   1
                l(5) =   1
                l(6) =   2
                l(7) =   2
                l(8) =   3
     Q(r) pseudized with  6 coefficients,  rinner =    1.350   1.350   1.350
                                                       1.350   1.350   1.350
                                                       1.350

     PseudoPot. # 4 for O  read from file:
     /lustre03/project/6004852/pragov/crystal_structure_design/crystal-design/crystal_design/utils/SSSP/O.pbe-n-kjpaw_psl.0.1.UPF
     MD5 check sum: 0234752ac141de4415c5fc33072bef88
     Pseudo is Projector augmented-wave + core cor, Zval =  6.0
     Generated using "atomic" code by A. Dal Corso  v.5.0.99 svn rev. 10869
     Shape of augmentation charge: BESSEL
     Using radial grid of 1095 points,  4 beta functions with:
                l(1) =   0
                l(2) =   0
                l(3) =   1
                l(4) =   1
     Q(r) pseudized with 0 coefficients

     atomic species   valence    mass     pseudopotential
        Eu            17.00   151.96400     Eu( 1.00)
        V             13.00    50.94150     V ( 1.00)
        W             14.00   183.84000     W ( 1.00)
        O              6.00    15.99900     O ( 1.00)

     Starting magnetic structure
     atomic species   magnetization
        Eu           0.000
        V            0.000
        W            0.000
        O            0.000

     12 Sym. Ops., with inversion, found

                                    s                        frac. trans.

      isym =  1     identity

 cryst.   s( 1) = (     1          0          0      )
                  (     0          1          0      )
                  (     0          0          1      )

 cart.    s( 1) = (  1.0000000  0.0000000  0.0000000 )
                  (  0.0000000  1.0000000 -0.0000000 )
                  (  0.0000000  0.0000000  1.0000000 )

      isym =  2     180 deg rotation - cart. axis [1,0,0]

[...]

      isym =  3     120 deg rotation - cryst. axis [0,0,1]

[...]

      isym =  6     180 deg rotation - cryst. axis [1,1,0]

[...]

      isym =  7     inversion

[...]

      isym =  8     inv. 180 deg rotation - cart. axis [1,0,0]

[...]

      isym =  9     inv. 120 deg rotation - cryst. axis [0,0,1]

 cryst.   s( 9) = (     1         -1          0      )
                  (     1          0          0      )
                  (     1          0         -1      )

 cart.    s( 9) = (  0.5000000  0.8660254 -0.0000000 )
                  ( -0.8660254  0.5000000 -0.0000000 )
                  (  0.0000000  0.0000000 -1.0000000 )

[...]

 cryst.   s(10) = (     0          1          0      )
                  (    -1          1          0      )
                  (     0          1         -1      )

 cart.    s(10) = (  0.5000000 -0.8660254  0.0000000 )
                  (  0.8660254  0.5000000 -0.0000000 )
                  (  0.0000000  0.0000000 -1.0000000 )

[...]

      isym = 12     inv. 180 deg rotation - cryst. axis [1,1,0]

 cryst.   s(12) = (     1         -1          0      )
                  (     0         -1          0      )
                  (     0         -1          1      )

 cart.    s(12) = (  0.5000000 -0.8660254  0.0000000 )
                  ( -0.8660254 -0.5000000  0.0000000 )
                  (  0.0000000  0.0000000  1.0000000 )

   Cartesian axes

     site n.     atom                  positions (alat units)
         1           Eu  tau(   1) = (   0.5000000   0.2886751   0.2041241  )
         2           Eu  tau(   2) = (   1.5000000   0.8660254   0.6123724  )
         3           V   tau(   3) = (   0.0000000   0.0000000   0.0000000  )
         4           W   tau(   4) = (   1.0000000   0.5773503   0.4082483  )
         5           O   tau(   5) = (   1.0000000   0.2963670   0.2095631  )
         6           O   tau(   6) = (   1.0000000   0.8583335   0.6069334  )
         7           O   tau(   7) = (   1.2433386   0.4368587   0.6069334  )
         8           O   tau(   8) = (   0.7566614   0.7178419   0.2095631  )
         9           O   tau(   9) = (   1.2433386   0.7178419   0.2095631  )
        10           O   tau(  10) = (   0.7566614   0.4368587   0.6069334  )

   Crystallographic axes

     site n.     atom                  positions (cryst. coord.)
         1           Eu  tau(   1) = (  0.2500000  0.2500000  0.2500000  )
         2           Eu  tau(   2) = (  0.7500000  0.7500000  0.7500000  )
         3           V   tau(   3) = (  0.0000000  0.0000000  0.0000000  )
         4           W   tau(   4) = (  0.5000000  0.5000000  0.5000000  )
         5           O   tau(   5) = (  0.7433386  0.2566614  0.2566614  )
         6           O   tau(   6) = (  0.2566614  0.7433386  0.7433386  )
         7           O   tau(   7) = (  0.7433386  0.2566614  0.7433386  )
         8           O   tau(   8) = (  0.2566614  0.7433386  0.2566614  )
         9           O   tau(   9) = (  0.7433386  0.7433386  0.2566614  )
        10           O   tau(  10) = (  0.2566614  0.2566614  0.7433386  )

     number of k points=     6
                       cart. coord. in units 2pi/alat
        k(    1) = (   0.0000000   0.0000000   0.0000000), wk =   0.0370370
        k(    2) = (   0.0000000   0.0000000   0.4082483), wk =   0.0740741
        k(    3) = (   0.0000000   0.3849002  -0.1360828), wk =   0.2222222
        k(    4) = (   0.0000000   0.3849002   0.2721655), wk =   0.2222222
        k(    5) = (   0.0000000   0.3849002  -0.5443311), wk =   0.2222222
        k(    6) = (   0.3333333  -0.5773503   0.0000000), wk =   0.2222222

                       cryst. coord.
        k(    1) = (   0.0000000   0.0000000   0.0000000), wk =   0.0370370
        k(    2) = (   0.0000000   0.0000000   0.3333333), wk =   0.0740741
        k(    3) = (   0.0000000   0.3333333   0.0000000), wk =   0.2222222
        k(    4) = (   0.0000000   0.3333333   0.3333333), wk =   0.2222222
        k(    5) = (   0.0000000   0.3333333  -0.3333333), wk =   0.2222222
        k(    6) = (   0.3333333  -0.3333333  -0.0000000), wk =   0.2222222

     Check: negative core charge=   -0.000011
     Generating pointlists ...
     new r_m :   0.2063 (alat units)  2.2162 (a.u.) for type    1
     new r_m :   0.1497 (alat units)  1.6086 (a.u.) for type    2
     new r_m :   0.1420 (alat units)  1.5251 (a.u.) for type    3
     new r_m :   0.1420 (alat units)  1.5251 (a.u.) for type    4

     Initial potential from superposition of free atoms

     starting charge      96.8890, renormalised to      97.0000

     negative rho (up, down):  3.235E-02 3.235E-02
     Starting wfcs are  111 randomized atomic wfcs
     Checking if some PAW data can be deallocated...

     Self-consistent Calculation

     iteration #  1     ecut=    30.00 Ry     beta= 0.70
     Davidson diagonalization with overlap

     ethr =  1.00E-02,  avg # of iterations =  2.0

     negative rho (up, down):  3.079E-02 3.109E-02

     total energy              =   -1838.19178021 Ry
     estimated scf accuracy    <       5.08152668 Ry

     total magnetization       =    17.00 Bohr mag/cell
     absolute magnetization    =    17.00 Bohr mag/cell

[...]

     c_bands:  1 eigenvalues not converged
     ethr =  6.41E-05,  avg # of iterations = 11.8

[...]

     c_bands:  1 eigenvalues not converged
     ethr =  2.29E-06,  avg # of iterations =  9.6

[...]

     total energy              =   -1839.87488532 Ry
     estimated scf accuracy    <       0.00000652 Ry

[...]

     iteration # 14     ecut=    30.00 Ry     beta= 0.70
     Davidson diagonalization with overlap

     ethr =  6.73E-09,  avg # of iterations =  2.5

     negative rho (up, down):  3.138E-02 3.118E-02

     Magnetic moment per site  (integrated on atomic sphere of radius R)
     atom   1 (R=0.206)  charge= 14.3528  magn=  6.7406
     atom   2 (R=0.206)  charge= 14.3528  magn=  6.7406
     atom   3 (R=0.150)  charge= 10.0402  magn=  1.7824
     atom   4 (R=0.142)  charge=  8.5601  magn=  0.3346
     atom   5 (R=0.142)  charge=  5.3997  magn=  0.0076
     atom   6 (R=0.142)  charge=  5.3997  magn=  0.0076
     atom   7 (R=0.142)  charge=  5.3997  magn=  0.0076
     atom   8 (R=0.142)  charge=  5.3997  magn=  0.0076
     atom   9 (R=0.142)  charge=  5.3997  magn=  0.0076
     atom  10 (R=0.142)  charge=  5.3997  magn=  0.0076

     End of self-consistent calculation

 ------ SPIN UP ------------

          k = 0.0000 0.0000 0.0000 (  2421 PWs)   bands (ev):

   -62.5562 -51.2931 -27.4039 -27.3790 -26.8952 -26.8952 -26.8952 -25.1667
   -25.1667 -25.1667  -6.4779  -6.3545  -6.3545  -6.3545  -6.1861  -6.1861
    -6.1861  -5.5754  -5.5754  -5.0578  -5.0578  -5.0578   5.9653   6.6417
     6.6417   7.0129   7.0129   7.0129   8.3523   8.3523   8.3523   9.8976
     9.8976   9.8976  10.6093  10.6093  10.6093  11.0245  11.0245  11.0245
    12.5959  12.5959  12.5959  14.2694  14.2694  14.2694  14.3353  14.3811
    14.4135  14.4135  14.4135  14.4551  14.4551  14.4551  14.4769  14.4770
    14.4770  15.4701  15.4703  15.5587  15.5587  15.5587  15.6075  15.8876

     occupation numbers
     1.0000   1.0000   1.0000   1.0000   1.0000   1.0000   1.0000   1.0000
     1.0000   1.0000   1.0000   1.0000   1.0000   1.0000   1.0000   1.0000
     1.0000   1.0000   1.0000   1.0000   1.0000   1.0000   1.0000   1.0000
     1.0000   1.0000   1.0000   1.0000   1.0000   1.0000   1.0000   1.0000
     1.0000   1.0000   1.0000   1.0000   1.0000   1.0000   1.0000   1.0000
     1.0000   1.0000   1.0000   1.0000   1.0000   1.0000   1.0000   1.0000
     1.0000   1.0000   1.0000   1.0000   1.0000   1.0000   1.0000   1.0000
     1.0000   0.0000   0.0000   0.0000   0.0000   0.0000   0.0000   0.0000

[...]

 ------ SPIN DOWN ----------

[...]

          k = 0.3333-0.5774 0.0000 (  2424 PWs)   bands (ev):

   -62.2285 -49.0604 -26.4667 -26.4663 -26.4657 -24.3276 -24.3274 -22.9709
   -22.9705 -22.9701  -6.3990  -6.0532  -5.6348  -5.3198  -5.2537  -5.2278
    -3.9450  -3.8543  -3.6829  -3.6362  -3.5910  -3.5259   6.3605   6.8588
     6.9640   7.2195   7.3071   7.6714   8.2052   8.6111   8.6115   9.0704
     9.3146   9.4502   9.6211   9.7450  10.0776  10.1279  10.2543  10.7214
    14.7834  15.2882  15.3909  16.4241  16.5124  16.5187  17.1480  17.5249
    18.3649  18.4784  18.5086  18.5984  18.7669  18.8580  18.9377  18.9707
    19.0093  19.0472  19.0621  19.0627  19.0905  19.1096  19.1204  19.1491

     occupation numbers
     1.0000   1.0000   1.0000   1.0000   1.0000   1.0000   1.0000   1.0000
     1.0000   1.0000   1.0000   1.0000   1.0000   1.0000   1.0000   1.0000
     1.0000   1.0000   1.0000   1.0000   1.0000   1.0000   1.0000   1.0000
     1.0000   1.0000   1.0000   1.0000   1.0000   1.0000   1.0000   1.0000
     1.0000   1.0000   1.0000   1.0000   1.0000   1.0000   1.0000   1.0000
     0.0000   0.0000   0.0000   0.0000   0.0000   0.0000   0.0000   0.0000
     0.0000   0.0000   0.0000   0.0000   0.0000   0.0000   0.0000   0.0000
     0.0000   0.0000   0.0000   0.0000   0.0000   0.0000   0.0000   0.0000

     highest occupied, lowest unoccupied level (ev):    14.4814   13.9316

!    total energy              =   -1839.87488609 Ry
     estimated scf accuracy    <       0.00000026 Ry

     The total energy is the sum of the following terms:
     one-electron contribution =    -244.27419868 Ry
     hartree contribution      =     191.49007898 Ry
     xc contribution           =    -148.47311907 Ry
     ewald contribution        =    -667.99649845 Ry
     one-center paw contrib.   =    -970.62114887 Ry
      -> PAW hartree energy AE =     319.45958291 Ry
      -> PAW hartree energy PS =    -305.17385678 Ry
      -> PAW xc energy AE      =    -968.55901402 Ry
      -> PAW xc energy PS      =      40.77644763 Ry
      -> total E_H with PAW    =     205.77580510 Ry
      -> total E_XC with PAW   =   -1076.25568547 Ry

     total magnetization       =    17.00 Bohr mag/cell
     absolute magnetization    =    17.08 Bohr mag/cell

     convergence has been achieved in  14 iterations

     Writing all to output data dir bands_nm_v2/myprefix.save/

     General routines

     Parallel routines

     PAW routines

   This run was terminated on:   0: 8:23  17Jul2023

   JOB DONE.