     Program PWSCF v.7.1 starts on 16Jul2023 at 15:40: 9

     Reading input from espresso_24089.pwi
Warning: card &CELL ignored
Warning: card / ignored

     Current dimensions of program PWSCF are:
     Max number of different atomic species (ntypx) = 10
     Max number of k-points (npk) =  40000
     Max angular momentum in pseudopotentials (lmaxx) =  4
     file O.pbe-n-kjpaw_psl.0.1.UPF: wavefunction(s)  2P renormalized
     Message from routine setup:
     using ibrav=0 with symmetry is DISCOURAGED, use correct ibrav instead

     K-points division:     npool     =       2
     R & G space division:  proc/nbgrp/npool/nimage =       4
     Subspace diagonalization in iterative solution of the eigenvalue problem:
     a serial algorithm will be used

     Using Slab Decomposition

     bravais-lattice index     =            0
     lattice parameter (alat)  =      10.4197  a.u.
     unit-cell volume          =     261.5777 (a.u.)^3
     number of atoms/cell      =            4
     number of atomic types    =            3
     number of electrons       =        38.00
     number of Kohn-Sham states=           64
     kinetic-energy cutoff     =      30.0000  Ry
     charge density cutoff     =     240.0000  Ry
     scf convergence threshold =      1.0E-06
     mixing beta               =       0.7000
     number of iterations used =            8  plain     mixing
     Exchange-correlation= SLA  PW   PBX  PBC
                           (   1   4   3   4   0   0   0)

     celldm(1)=  10.419692  celldm(2)=   0.000000  celldm(3)=   0.000000
     celldm(4)=   0.000000  celldm(5)=   0.000000  celldm(6)=   0.000000

     crystal axes: (cart. coord. in units of alat)
               a(1) = (   1.000000   0.000000   0.000000 )
               a(2) = (   0.859788   0.510651   0.000000 )
               a(3) = (   0.859788   0.236076   0.452805 )

     reciprocal axes: (cart. coord. in units 2 pi/alat)
               b(1) = (  1.000000 -1.683708 -1.020978 )
               b(2) = (  0.000000  1.958283 -1.020978 )
               b(3) = (  0.000000  0.000000  2.208454 )

     PseudoPot. # 1 for Na read from file:
     /lustre07/scratch/pragov/crystal_structure_design/utils/SSSP/na_pbe_v1.5.uspp.F.UPF
     MD5 check sum: 44600605ef58000f06b90626533354dc
     Pseudo is Ultrasoft, Zval =  9.0
     Generated by new atomic code, or converted to UPF format
     Using radial grid of  819 points,  5 beta functions with:
                l(1) =   0
                l(2) =   0
                l(3) =   1
                l(4) =   1
                l(5) =   2
     Q(r) pseudized with  8 coefficients,  rinner =    1.250   1.250   1.250
                                                       1.250   1.250

     PseudoPot. # 2 for Co read from file:
     /lustre07/scratch/pragov/crystal_structure_design/utils/SSSP/Co_pbe_v1.2.uspp.F.UPF
     MD5 check sum: 5f91765df6ddd3222702df6e7b74a16d
     Pseudo is Ultrasoft + core correction, Zval = 17.0
     Generated by new atomic code, or converted to UPF format
     Using radial grid of  863 points,  6 beta functions with:
                l(1) =   0
                l(2) =   0
                l(3) =   1
                l(4) =   1
                l(5) =   2
                l(6) =   2
     Q(r) pseudized with  8 coefficients,  rinner =    1.200   1.200   1.200
                                                       1.200   1.200

     PseudoPot. # 3 for O  read from file:
     /lustre07/scratch/pragov/crystal_structure_design/utils/SSSP/O.pbe-n-kjpaw_psl.0.1.UPF
     MD5 check sum: 0234752ac141de4415c5fc33072bef88
     Pseudo is Projector augmented-wave + core cor, Zval =  6.0
     Generated using "atomic" code by A. Dal Corso  v.5.0.99 svn rev. 10869
     Shape of augmentation charge: BESSEL
     Using radial grid of 1095 points,  4 beta functions with:
                l(1) =   0
                l(2) =   0
                l(3) =   1
                l(4) =   1
     Q(r) pseudized with 0 coefficients

     atomic species   valence    mass     pseudopotential
        Na             9.00    22.98977     Na( 1.00)
        Co            17.00    58.93319     Co( 1.00)
        O              6.00    15.99900     O ( 1.00)

      2 Sym. Ops., with inversion, found

                                    s                        frac. trans.

      isym =  1     identity

 cryst.   s( 1) = (     1          0          0      )
                  (     0          1          0      )
                  (     0          0          1      )

 cart.    s( 1) = (  1.0000000  0.0000000  0.0000000 )
                  (  0.0000000  1.0000000  0.0000000 )
                  (  0.0000000  0.0000000  1.0000000 )

      isym =  2     inversion

 cryst.   s( 2) = (    -1          0          0      )
                  (     0         -1          0      )
                  (     0          0         -1      )

 cart.    s( 2) = ( -1.0000000  0.0000000  0.0000000 )
                  (  0.0000000 -1.0000000  0.0000000 )
                  (  0.0000000  0.0000000 -1.0000000 )

   Cartesian axes

     site n.     atom                  positions (alat units)
         1           Na  tau(   1) = (   0.0000000   0.0000000   0.0000000  )
         2           Co  tau(   2) = (   1.3597879   0.3733639   0.2264027  )
         3           O   tau(   3) = (   0.6252876   0.1716884   0.1041095  )
         4           O   tau(   4) = (   2.0942881   0.5750393   0.3486959  )

   Crystallographic axes

     site n.     atom                  positions (cryst. coord.)
         1           Na  tau(   1) = (  0.0000000  0.0000000  0.0000000  )
         2           Co  tau(   2) = (  0.5000000  0.5000000  0.5000000  )
         3           O   tau(   3) = (  0.2299210  0.2299210  0.2299210  )
         4           O   tau(   4) = (  0.7700790  0.7700790  0.7700790  )

     number of k points=    14
                       cart. coord. in units 2pi/alat
        k(    1) = (   0.0000000   0.0000000   0.0000000), wk =   0.0740741
        k(    2) = (   0.0000000   0.0000000   0.7361514), wk =   0.1481481
        k(    3) = (   0.0000000   0.6527610  -0.3403260), wk =   0.1481481
        k(    4) = (   0.0000000   0.6527610   0.3958255), wk =   0.1481481
        k(    5) = (   0.0000000   0.6527610  -1.0764774), wk =   0.1481481
        k(    6) = (   0.3333333  -0.5612360  -0.3403260), wk =   0.1481481
        k(    7) = (   0.3333333  -0.5612360   0.3958255), wk =   0.1481481
        k(    8) = (   0.3333333  -0.5612360  -1.0764774), wk =   0.1481481
        k(    9) = (   0.3333333   0.0915250  -0.6806519), wk =   0.1481481
        k(   10) = (   0.3333333   0.0915250   0.0554995), wk =   0.1481481
        k(   11) = (   0.3333333   0.0915250  -1.4168033), wk =   0.1481481
        k(   12) = (   0.3333333  -1.2139971  -0.0000000), wk =   0.1481481
        k(   13) = (   0.3333333  -1.2139971   0.7361514), wk =   0.1481481
        k(   14) = (   0.3333333  -1.2139971  -0.7361514), wk =   0.1481481

                       cryst. coord.
        k(    1) = (   0.0000000   0.0000000   0.0000000), wk =   0.0740741
        k(    2) = (   0.0000000   0.0000000   0.3333333), wk =   0.1481481
        k(    3) = (   0.0000000   0.3333333  -0.0000000), wk =   0.1481481
        k(    4) = (   0.0000000   0.3333333   0.3333333), wk =   0.1481481
        k(    5) = (   0.0000000   0.3333333  -0.3333333), wk =   0.1481481
        k(    6) = (   0.3333333   0.0000000   0.0000000), wk =   0.1481481
        k(    7) = (   0.3333333   0.0000000   0.3333333), wk =   0.1481481
        k(    8) = (   0.3333333   0.0000000  -0.3333333), wk =   0.1481481
        k(    9) = (   0.3333333   0.3333333   0.0000000), wk =   0.1481481
        k(   10) = (   0.3333333   0.3333333   0.3333333), wk =   0.1481481
        k(   11) = (   0.3333333   0.3333333  -0.3333333), wk =   0.1481481
        k(   12) = (   0.3333333  -0.3333333   0.0000000), wk =   0.1481481
        k(   13) = (   0.3333333  -0.3333333   0.3333333), wk =   0.1481481
        k(   14) = (   0.3333333  -0.3333333  -0.3333333), wk =   0.1481481

     Check: negative core charge=   -0.000023

     Initial potential from superposition of free atoms

     starting charge      36.9937, renormalised to      38.0000
     Starting wfcs are   26 randomized atomic wfcs +   38 random wfcs
     Checking if some PAW data can be deallocated...

     Self-consistent Calculation

     iteration #  1     ecut=    30.00 Ry     beta= 0.70
     Davidson diagonalization with overlap

     ethr =  1.00E-02,  avg # of iterations =  6.3

     total energy              =    -474.83966154 Ry
     estimated scf accuracy    <       3.54789730 Ry

[...]

     total energy              =    -477.09190348 Ry
     estimated scf accuracy    <       0.00000104 Ry

     iteration #  9     ecut=    30.00 Ry     beta= 0.70
     Davidson diagonalization with overlap

     ethr =  2.74E-09,  avg # of iterations =  1.0

     End of self-consistent calculation

          k = 0.0000 0.0000 0.0000 (   713 PWs)   bands (ev):

   -84.9532 -48.2118 -48.2118 -48.1044 -41.1604 -13.1291 -12.9772 -12.9772
    -9.6142  -7.8752   3.7037   5.1696   5.1696   7.8809   8.1497   8.1497
     9.0739   9.0739   9.9663  12.2515  12.2515  13.7769  18.1236  19.9878
    27.3304  27.3304  27.4633  28.3693  28.3693  29.1301  32.5296  32.5296
    32.7631  33.2162  36.5375  36.5375  36.7365  36.7365  36.7680  38.9681
    38.9681  44.8550  46.6476  46.6476  47.8531  48.5149  48.5149  48.6415
    54.5789  54.6436  54.6436  54.9696  54.9697  55.0826  60.8252  61.7476
    61.7476  64.1291  64.1291  64.3313  65.3136  68.2773  68.2773  69.0481

     occupation numbers
     1.0000   1.0000   1.0000   1.0000   1.0000   1.0000   1.0000   1.0000
     1.0000   1.0000   1.0000   1.0000   1.0000   1.0000   1.0000   1.0000
     1.0000   1.0000   1.0000   0.0000   0.0000   0.0000   0.0000   0.0000
     0.0000   0.0000   0.0000   0.0000   0.0000   0.0000   0.0000   0.0000
     0.0000   0.0000   0.0000   0.0000   0.0000   0.0000   0.0000   0.0000
     0.0000   0.0000   0.0000   0.0000   0.0000   0.0000   0.0000   0.0000
     0.0000   0.0000   0.0000   0.0000   0.0000   0.0000   0.0000   0.0000
     0.0000   0.0000   0.0000   0.0000   0.0000   0.0000   0.0000   0.0000

[...]

          k = 0.3333-1.2140-0.7362 (   732 PWs)   bands (ev):

   -84.9509 -48.2494 -48.2239 -48.1095 -41.1367 -13.2238 -13.0448 -13.0260
    -8.6212  -7.9693   3.9265   4.6272   5.5838   5.7761   6.8452   7.5068
     9.2080   9.6887   9.9714  11.2984  12.0895  17.0000  19.8185  21.1564
    22.5951  24.0507  25.2491  27.9132  28.1472  29.3639  29.8165  31.6121
    33.8988  36.7616  36.8762  38.7496  40.0244  41.3822  42.4685  43.0641
    43.9292  44.9801  45.7247  46.1459  47.2259  48.2523  48.7975  50.6697
    51.6559  53.4120  54.0003  56.4560  57.9113  58.9737  59.0752  60.2634
    60.9973  61.4755  62.8211  62.9225  63.4258  64.5158  64.7178  65.3507

     occupation numbers
     1.0000   1.0000   1.0000   1.0000   1.0000   1.0000   1.0000   1.0000
     1.0000   1.0000   1.0000   1.0000   1.0000   1.0000   1.0000   1.0000
     1.0000   1.0000   1.0000   0.0000   0.0000   0.0000   0.0000   0.0000
     0.0000   0.0000   0.0000   0.0000   0.0000   0.0000   0.0000   0.0000
     0.0000   0.0000   0.0000   0.0000   0.0000   0.0000   0.0000   0.0000
     0.0000   0.0000   0.0000   0.0000   0.0000   0.0000   0.0000   0.0000
     0.0000   0.0000   0.0000   0.0000   0.0000   0.0000   0.0000   0.0000
     0.0000   0.0000   0.0000   0.0000   0.0000   0.0000   0.0000   0.0000

     highest occupied, lowest unoccupied level (ev):    10.0428   11.2984

!    total energy              =    -477.09190356 Ry
     estimated scf accuracy    <       0.00000014 Ry

     The total energy is the sum of the following terms:
     one-electron contribution =    -299.66044832 Ry
     hartree contribution      =     169.34739821 Ry
     xc contribution           =     -61.91339652 Ry
     ewald contribution        =    -265.81999475 Ry
     one-center paw contrib.   =     -19.04546219 Ry
      -> PAW hartree energy AE =       0.00000000 Ry
      -> PAW hartree energy PS =       0.00000000 Ry
      -> PAW xc energy AE      =       0.00000000 Ry
      -> PAW xc energy PS      =       0.00000000 Ry
      -> total E_H with PAW    =     169.34739821 Ry
      -> total E_XC with PAW   =     -61.91339652 Ry

     convergence has been achieved in   9 iterations

     Writing all to output data dir bands_nm/myprefix.save/

     General routines

     Parallel routines

     PAW routines

   This run was terminated on:  15:40:21  16Jul2023

   JOB DONE.