     Program PWSCF v.7.1 starts on 15Jul2023 at 13:54:56

     Reading input from espresso_25074.pwi
Warning: card &CELL ignored
Warning: card / ignored

     Current dimensions of program PWSCF are:
     Max number of different atomic species (ntypx) = 10
     Max number of k-points (npk) =  40000
     Max angular momentum in pseudopotentials (lmaxx) =  4
     Message from routine setup:
     the system is metallic, specify occupations
     Message from routine setup:
     using ibrav=0 with symmetry is DISCOURAGED, use correct ibrav instead

     K-points division:     npool     =       2
     R & G space division:  proc/nbgrp/npool/nimage =       4
     Subspace diagonalization in iterative solution of the eigenvalue problem:
     a serial algorithm will be used

     Using Slab Decomposition

     bravais-lattice index     =            0
     lattice parameter (alat)  =      13.3987  a.u.
     unit-cell volume          =    1804.9327 (a.u.)^3
     number of atoms/cell      =            8
     number of atomic types    =            4
     number of electrons       =        79.00 (up:  42.00, down:  37.00)
     number of Kohn-Sham states=           64
     kinetic-energy cutoff     =      30.0000  Ry
     charge density cutoff     =     240.0000  Ry
     scf convergence threshold =      1.0E-06
     mixing beta               =       0.7000
     number of iterations used =            8  plain     mixing
     Exchange-correlation= SLA  PW   PBE  PBE
                           (   1   4   3   4   0   0   0)

     celldm(1)=  13.398655  celldm(2)=   0.000000  celldm(3)=   0.000000
     celldm(4)=   0.000000  celldm(5)=   0.000000  celldm(6)=   0.000000

     crystal axes: (cart. coord. in units of alat)
               a(1) = (   1.000000   0.000000   0.000000 )
               a(2) = (  -0.498499   0.866890   0.000000 )
               a(3) = (  -0.250751  -0.433445   0.865592 )

     reciprocal axes: (cart. coord. in units 2 pi/alat)
               b(1) = (  1.000000  0.575042  0.577639 )
               b(2) = (  0.000000  1.153548  0.577639 )
               b(3) = (  0.000000  0.000000  1.155279 )

     PseudoPot. # 1 for Mn read from file:
     /lustre07/scratch/pragov/crystal_structure_design/utils/SSSP/mn_pbe_v1.5.uspp.F.UPF
     MD5 check sum: 82ef2b46521d7a7d9e736dc3972e4928
     Pseudo is Ultrasoft + core correction, Zval = 15.0
     Generated by new atomic code, or converted to UPF format
     Using radial grid of  859 points,  6 beta functions with:
                l(1) =   0
                l(2) =   0
                l(3) =   1
                l(4) =   1
                l(5) =   2
                l(6) =   2
     Q(r) pseudized with  8 coefficients,  rinner =    0.950   0.950   0.950
                                                       0.950   0.950

     PseudoPot. # 2 for Tl read from file:
     /lustre07/scratch/pragov/crystal_structure_design/utils/SSSP/Tl_pbe_v1.2.uspp.F.UPF
     MD5 check sum: b76cf1f7e72655a2b2c53cf6385d7059
     Pseudo is Ultrasoft + core correction, Zval = 13.0
     Generated by new atomic code, or converted to UPF format
     Using radial grid of  899 points,  6 beta functions with:
                l(1) =   0
                l(2) =   0
                l(3) =   1
                l(4) =   1
                l(5) =   2
                l(6) =   2
     Q(r) pseudized with  6 coefficients,  rinner =    1.100   1.100   1.100
                                                       1.100   1.100

     PseudoPot. # 3 for Sn read from file:
     /lustre07/scratch/pragov/crystal_structure_design/utils/SSSP/Sn_pbe_v1.uspp.F.UPF
     MD5 check sum: 4cf58ce39ec5d5d420df3dd08604eb00
     Pseudo is Ultrasoft + core correction, Zval = 14.0
     Generated by new atomic code, or converted to UPF format
     Using radial grid of  891 points,  6 beta functions with:
                l(1) =   0
                l(2) =   0
                l(3) =   1
                l(4) =   1
                l(5) =   2
                l(6) =   2
     Q(r) pseudized with  6 coefficients,  rinner =    1.200   1.200   1.200
                                                       1.200   1.200

     PseudoPot. # 4 for Te read from file:
     /lustre07/scratch/pragov/crystal_structure_design/utils/SSSP/Te_pbe_v1.uspp.F.UPF
     MD5 check sum: c319670d6894cc26e93307826a071b75
     Pseudo is Ultrasoft + core correction, Zval =  6.0
     Generated by new atomic code, or converted to UPF format
     Using radial grid of  891 points,  5 beta functions with:
                l(1) =   0
                l(2) =   0
                l(3) =   1
                l(4) =   1
                l(5) =   2
     Q(r) pseudized with  6 coefficients,  rinner =    1.800   1.800   1.800
                                                       1.800   1.800

     atomic species   valence    mass     pseudopotential
        Mn            15.00    54.93804     Mn( 1.00)
        Tl            13.00   204.38000     Tl( 1.00)
        Sn            14.00   118.71000     Sn( 1.00)
        Te             6.00   127.60000     Te( 1.00)

     Starting magnetic structure
     atomic species   magnetization
        Mn           0.000
        Tl           0.000
        Sn           0.000
        Te           0.000

      2 Sym. Ops. (no inversion) found

                                    s                        frac. trans.

      isym =  1     identity

 cryst.   s( 1) = (     1          0          0      )
                  (     0          1          0      )
                  (     0          0          1      )

 cart.    s( 1) = (  1.0000000  0.0000000  0.0000000 )
                  (  0.0000000  1.0000000  0.0000000 )
                  (  0.0000000  0.0000000  1.0000000 )

      isym =  2     inv. 180 deg rotation - cart. axis [0,0,1]

 cryst.   s( 2) = (     1          0          0      )
                  (     0          1          0      )
                  (    -1         -1         -1      )

 cart.    s( 2) = (  1.0000000  0.0000000 -0.0000000 )
                  (  0.0000000  1.0000000 -0.0000000 )
                  (  0.0000000  0.0000000 -1.0000000 )

   Cartesian axes

     site n.     atom                  positions (alat units)
         1           Mn  tau(   1) = (   0.2507507   0.4334452   0.0000000  )
         2           Tl  tau(   2) = (  -0.1238740   0.6501679   0.4327959  )
         3           Tl  tau(   3) = (  -0.3746247   0.2167226   0.4327959  )
         4           Sn  tau(   4) = (   0.0000000   0.0000000   0.0000000  )
         5           Te  tau(   5) = (   0.1235213   0.2135177   0.5608239  )
         6           Te  tau(   6) = (   0.3910341   0.0673149   0.0000000  )
         7           Te  tau(   7) = (   0.3742720   0.6469630   0.3047680  )
         8           Te  tau(   8) = (  -0.1365753   0.3725401   0.0000000  )

   Crystallographic axes

     site n.     atom                  positions (cryst. coord.)
         1           Mn  tau(   1) = (  0.5000000  0.5000000  0.0000000  )
         2           Tl  tau(   2) = (  0.5000000  1.0000000  0.5000000  )
         3           Tl  tau(   3) = (  0.0000000  0.5000000  0.5000000  )
         4           Sn  tau(   4) = (  0.0000000  0.0000000  0.0000000  )
         5           Te  tau(   5) = (  0.5702570  0.5702570  0.6479080  )
         6           Te  tau(   6) = (  0.4297430  0.0776510  0.0000000  )
         7           Te  tau(   7) = (  0.9223490  0.9223490  0.3520920  )
         8           Te  tau(   8) = (  0.0776510  0.4297430  0.0000000  )

     number of k points=    10
                       cart. coord. in units 2pi/alat
        k(    1) = (   0.0000000   0.0000000   0.0000000), wk =   0.0370370
        k(    2) = (   0.0000000   0.0000000   0.3850930), wk =   0.0740741
        k(    3) = (   0.0000000   0.3845161   0.1925465), wk =   0.1481481
        k(    4) = (   0.0000000   0.3845161   0.5776394), wk =   0.0740741
        k(    5) = (   0.3333333   0.1916807   0.1925465), wk =   0.1481481
        k(    6) = (   0.3333333   0.1916807   0.5776394), wk =   0.0740741
        k(    7) = (   0.3333333   0.5761968   0.3850930), wk =   0.1481481
        k(    8) = (   0.3333333   0.5761968  -0.0000000), wk =   0.0740741
        k(    9) = (   0.3333333  -0.1928353   0.0000000), wk =   0.0740741
        k(   10) = (   0.3333333  -0.1928353   0.3850930), wk =   0.1481481

                       cryst. coord.
        k(    1) = (   0.0000000   0.0000000   0.0000000), wk =   0.0370370
        k(    2) = (   0.0000000   0.0000000   0.3333333), wk =   0.0740741
        k(    3) = (   0.0000000   0.3333333   0.0000000), wk =   0.1481481
        k(    4) = (   0.0000000   0.3333333   0.3333333), wk =   0.0740741
        k(    5) = (   0.3333333   0.0000000   0.0000000), wk =   0.1481481
        k(    6) = (   0.3333333   0.0000000   0.3333333), wk =   0.0740741
        k(    7) = (   0.3333333   0.3333333   0.0000000), wk =   0.1481481
        k(    8) = (   0.3333333   0.3333333  -0.3333333), wk =   0.0740741
        k(    9) = (   0.3333333  -0.3333333   0.0000000), wk =   0.0740741
        k(   10) = (   0.3333333  -0.3333333   0.3333333), wk =   0.1481481

     Check: negative core charge=   -0.000004
     Generating pointlists ...
     new r_m :   0.1617 (alat units)  2.1670 (a.u.) for type    1
     new r_m :   0.2066 (alat units)  2.7676 (a.u.) for type    2
     new r_m :   0.1637 (alat units)  2.1930 (a.u.) for type    3
     new r_m :   0.1617 (alat units)  2.1670 (a.u.) for type    4

     Initial potential from superposition of free atoms

     starting charge      77.4893, renormalised to      79.0000

     negative rho (up, down):  4.908E-02 4.908E-02
     Starting wfcs are   56 randomized atomic wfcs +    8 random wfcs

     Self-consistent Calculation

     iteration #  1     ecut=    30.00 Ry     beta= 0.70
     Davidson diagonalization with overlap

     ethr =  1.00E-02,  avg # of iterations =  7.1

     negative rho (up, down):  4.773E-02 4.814E-02

     total energy              =    -769.53893996 Ry
     estimated scf accuracy    <       1.58278841 Ry

     total magnetization       =     5.00 Bohr mag/cell
     absolute magnetization    =     5.00 Bohr mag/cell

[...]

     c_bands:  1 eigenvalues not converged
     ethr =  7.66E-06,  avg # of iterations = 13.3

[...]

     c_bands:  1 eigenvalues not converged
     c_bands:  1 eigenvalues not converged
     ethr =  1.18E-06,  avg # of iterations =  4.9

[...]

     total energy              =    -770.47072329 Ry
     estimated scf accuracy    <       0.00000192 Ry

[...]

     iteration # 12     ecut=    30.00 Ry     beta= 0.70
     Davidson diagonalization with overlap

     ethr =  2.43E-09,  avg # of iterations =  1.6

     negative rho (up, down):  4.797E-02 4.846E-02

     Magnetic moment per site  (integrated on atomic sphere of radius R)
     atom   1 (R=0.162)  charge= 13.4815  magn=  4.2593
     atom   2 (R=0.207)  charge= 11.7894  magn=  0.0163
     atom   3 (R=0.207)  charge= 11.7894  magn=  0.0163
     atom   4 (R=0.164)  charge= 11.6305  magn=  0.0191
     atom   5 (R=0.162)  charge=  3.3398  magn=  0.0313
     atom   6 (R=0.162)  charge=  3.3398  magn=  0.0313
     atom   7 (R=0.162)  charge=  3.3398  magn=  0.0313
     atom   8 (R=0.162)  charge=  3.3398  magn=  0.0313

     End of self-consistent calculation

 ------ SPIN UP ------------

          k = 0.0000 0.0000 0.0000 (  5007 PWs)   bands (ev):

   -75.0739 -43.7834 -43.7834 -43.7816 -15.4043 -15.4043 -15.3956 -15.3696
   -15.3677  -5.3192  -4.8068  -4.7394  -4.7394  -4.7212  -4.5552  -4.5358
    -4.5351  -4.4973  -4.4973  -4.4190  -3.9495  -3.7134  -3.7134  -0.5738
     1.0711   1.9832   2.4722   2.6506   2.6506   3.4053   3.4053   3.4852
     3.6415   3.7145   3.7615   3.7615   3.8006   3.9370   5.6504   5.6505
     5.8693   6.2671   7.9982   9.2211   9.5326   9.5326  10.2557  10.6231
    10.6231  10.8755  11.1102  11.1102  12.2018  12.2018  12.4072  13.2296
    13.2586  13.4668  13.5704  14.2113  14.6736  14.6736  14.8952  14.9857

     occupation numbers
     1.0000   1.0000   1.0000   1.0000   1.0000   1.0000   1.0000   1.0000
     1.0000   1.0000   1.0000   1.0000   1.0000   1.0000   1.0000   1.0000
     1.0000   1.0000   1.0000   1.0000   1.0000   1.0000   1.0000   1.0000
     1.0000   1.0000   1.0000   1.0000   1.0000   1.0000   1.0000   1.0000
     1.0000   1.0000   1.0000   1.0000   1.0000   1.0000   1.0000   1.0000
     1.0000   1.0000   0.0000   0.0000   0.0000   0.0000   0.0000   0.0000
     0.0000   0.0000   0.0000   0.0000   0.0000   0.0000   0.0000   0.0000
     0.0000   0.0000   0.0000   0.0000   0.0000   0.0000   0.0000   0.0000

[...]

 ------ SPIN DOWN ----------

[...]

          k = 0.3333-0.1928 0.3851 (  5026 PWs)   bands (ev):

   -70.3342 -39.1609 -39.1404 -39.1404 -15.3979 -15.3978 -15.3864 -15.3654
   -15.3591  -4.8945  -4.8032  -4.6963  -4.6842  -4.6061  -4.5375  -4.5367
    -4.5278  -4.4938  -4.4937  -4.4197  -4.1158  -3.9645  -3.9434  -0.4667
     0.0356   1.6449   3.0745   3.4610   3.6397   4.1593   4.2992   4.4288
     4.6698   5.1920   5.3113   5.3943   5.5827   7.0338   7.4233   7.8387
     8.0029   8.0648   8.2045   8.4161   9.0165   9.2961   9.5556   9.6342
     9.8073  10.3474  10.4052  11.7225  12.2528  12.4762  12.6889  13.1781
    13.4535  13.9140  14.0755  14.2981  14.4762  14.5837  15.1278  16.3543

     occupation numbers
     1.0000   1.0000   1.0000   1.0000   1.0000   1.0000   1.0000   1.0000
     1.0000   1.0000   1.0000   1.0000   1.0000   1.0000   1.0000   1.0000
     1.0000   1.0000   1.0000   1.0000   1.0000   1.0000   1.0000   1.0000
     1.0000   1.0000   1.0000   1.0000   1.0000   1.0000   1.0000   1.0000
     1.0000   1.0000   1.0000   1.0000   1.0000   0.0000   0.0000   0.0000
     0.0000   0.0000   0.0000   0.0000   0.0000   0.0000   0.0000   0.0000
     0.0000   0.0000   0.0000   0.0000   0.0000   0.0000   0.0000   0.0000
     0.0000   0.0000   0.0000   0.0000   0.0000   0.0000   0.0000   0.0000

     highest occupied, lowest unoccupied level (ev):     6.2671    6.8883

!    total energy              =    -770.47072309 Ry
     estimated scf accuracy    <       0.00000044 Ry

     The total energy is the sum of the following terms:
     one-electron contribution =    -333.84544399 Ry
     hartree contribution      =     207.71242675 Ry
     xc contribution           =    -256.06594068 Ry
     ewald contribution        =    -388.27176517 Ry

     total magnetization       =     5.00 Bohr mag/cell
     absolute magnetization    =     5.04 Bohr mag/cell

     convergence has been achieved in  12 iterations

     Writing all to output data dir bands_nm/myprefix.save/

     General routines

     Parallel routines

   This run was terminated on:  13:55:20  15Jul2023

   JOB DONE.