     Program PWSCF v.7.1 starts on 17Jul2023 at  1:16: 7

     Reading input from espresso_3825.pwi
Warning: card &CELL ignored
Warning: card / ignored

     Current dimensions of program PWSCF are:
     Max number of different atomic species (ntypx) = 10
     Max number of k-points (npk) =  40000
     Max angular momentum in pseudopotentials (lmaxx) =  4
     Message from routine setup:
     the system is metallic, specify occupations

     K-points division:     npool     =       2
     R & G space division:  proc/nbgrp/npool/nimage =       4
     Subspace diagonalization in iterative solution of the eigenvalue problem:
     a serial algorithm will be used

     Using Slab Decomposition

     bravais-lattice index     =            0
     lattice parameter (alat)  =      12.3318  a.u.
     unit-cell volume          =    1713.8869 (a.u.)^3
     number of atoms/cell      =           11
     number of atomic types    =            4
     number of electrons       =        69.00 (up:  36.00, down:  33.00)
     number of Kohn-Sham states=           64
     kinetic-energy cutoff     =      30.0000  Ry
     charge density cutoff     =     240.0000  Ry
     scf convergence threshold =      1.0E-06
     mixing beta               =       0.7000
     number of iterations used =            8  plain     mixing
     Exchange-correlation=  SLA  PW   PBX  PBC
                           (   1   4   3   4   0   0   0)

     celldm(1)=  12.331835  celldm(2)=   0.000000  celldm(3)=   0.000000
     celldm(4)=   0.000000  celldm(5)=   0.000000  celldm(6)=   0.000000

     crystal axes: (cart. coord. in units of alat)
               a(1) = (   1.000000   0.000000   0.000000 )
               a(2) = (  -0.136423   0.990651   0.000000 )
               a(3) = (   0.115630   0.132645   0.922526 )

     reciprocal axes: (cart. coord. in units 2 pi/alat)
               b(1) = (  1.000000  0.137711 -0.145142 )
               b(2) = (  0.000000  1.009438 -0.145142 )
               b(3) = (  0.000000  0.000000  1.083980 )

     PseudoPot. # 1 for Li read from file:
     /lustre03/project/6004852/pragov/crystal_structure_design/crystal-design/crystal_design/utils/SSSP/li_pbe_v1.4.uspp.F.UPF
     MD5 check sum: e912e257baa3777c20ea3d68f190483c
     Pseudo is Ultrasoft, Zval =  3.0
     Generated by new atomic code, or converted to UPF format
     Using radial grid of  751 points,  5 beta functions with:
                l(1) =   0
                l(2) =   0
                l(3) =   0
                l(4) =   1
                l(5) =   1
     Q(r) pseudized with 10 coefficients,  rinner =    1.150   1.150   1.150

     PseudoPot. # 2 for Cr read from file:
     /lustre03/project/6004852/pragov/crystal_structure_design/crystal-design/crystal_design/utils/SSSP/cr_pbe_v1.5.uspp.F.UPF
     MD5 check sum: 0d52af634a40206e4dee301ad30da4bf
     Pseudo is Ultrasoft + core correction, Zval = 14.0
     Generated by new atomic code, or converted to UPF format
     Using radial grid of  857 points,  6 beta functions with:
                l(1) =   0
                l(2) =   0
                l(3) =   1
                l(4) =   1
                l(5) =   2
                l(6) =   2
     Q(r) pseudized with  8 coefficients,  rinner =    0.950   0.950   0.950
                                                       0.950   0.950

     PseudoPot. # 3 for P  read from file:
     /lustre03/project/6004852/pragov/crystal_structure_design/crystal-design/crystal_design/utils/SSSP/P.pbe-n-rrkjus_psl.1.0.0.UPF
     MD5 check sum: 8b930f418f0a4573dca56cd030ffe088
     Pseudo is Ultrasoft + core correction, Zval =  5.0
     Generated using "atomic" code by A. Dal Corso  v.5.1
     Using radial grid of 1147 points,  6 beta functions with:
                l(1) =   0
                l(2) =   0
                l(3) =   1
                l(4) =   1
                l(5) =   2
                l(6) =   2
     Q(r) pseudized with 0 coefficients

     PseudoPot. # 4 for S  read from file:
     /lustre03/project/6004852/pragov/crystal_structure_design/crystal-design/crystal_design/utils/SSSP/s_pbe_v1.4.uspp.F.UPF
     MD5 check sum: 88d86576ff6df21479756cfb9bdac1df
     Pseudo is Ultrasoft + core correction, Zval =  6.0
     Generated by new atomic code, or converted to UPF format
     Using radial grid of  907 points,  6 beta functions with:
                l(1) =   0
                l(2) =   0
                l(3) =   1
                l(4) =   1
                l(5) =   2
                l(6) =   2
     Q(r) pseudized with  8 coefficients,  rinner =    1.300   1.300   1.300
                                                       1.300   1.300

     atomic species   valence    mass     pseudopotential
        Li             3.00     6.94000     Li( 1.00)
        Cr            14.00    51.99610     Cr( 1.00)
        P              5.00    30.97376     P ( 1.00)
        S              6.00    32.06000     S ( 1.00)

     Starting magnetic structure
     atomic species   magnetization
        Li           0.000
        Cr           0.000
        P            0.000
        S            0.000

     No symmetry found

                                    s                        frac. trans.

      isym =  1     identity

 cryst.   s( 1) = (     1          0          0      )
                  (     0          1          0      )
                  (     0          0          1      )

 cart.    s( 1) = (  1.0000000  0.0000000  0.0000000 )
                  (  0.0000000  1.0000000  0.0000000 )
                  (  0.0000000  0.0000000  1.0000000 )

   Cartesian axes

     site n.     atom                  positions (alat units)
         1           Li  tau(   1) = (   0.9353394   0.1730879   0.4612629  )
         2           Cr  tau(   2) = (   0.4294939   0.4973254   0.0000000  )
         3           P   tau(   3) = (   0.8690117   0.6370880   0.0752135  )
         4           P   tau(   4) = (   0.4666287   0.1754950   0.8473123  )
         5           S   tau(   5) = (   0.8724232   0.6166831   0.7493106  )
         6           S   tau(   6) = (   0.4767060   0.9324217   0.7022830  )
         7           S   tau(   7) = (   0.6239485   0.6625040   0.2654956  )
         8           S   tau(   8) = (  -0.0963677   0.9557332   0.0000000  )
         9           S   tau(   9) = (   0.4080181   0.4147997   0.6570303  )
        10           S   tau(  10) = (   0.1205366   0.5238426   0.2202429  )
        11           S   tau(  11) = (   0.4873083   0.1748991   0.1732153  )

   Crystallographic axes

     site n.     atom                  positions (cryst. coord.)
         1           Li  tau(   1) = (  0.8922270  0.1077730  0.5000000  )
         2           Cr  tau(   2) = (  0.4979810  0.5020190  0.0000000  )
         3           P   tau(   3) = (  0.9458290  0.6321840  0.0815300  )
         4           P   tau(   4) = (  0.3678160  0.0541710  0.9184700  )
         5           S   tau(   5) = (  0.8485910  0.5137470  0.8122380  )
         6           S   tau(   6) = (  0.5031800  0.8392910  0.7612610  )
         7           S   tau(   7) = (  0.6766480  0.6302220  0.2877920  )
         8           S   tau(   8) = (  0.0352470  0.9647530  0.0000000  )
         9           S   tau(   9) = (  0.3697780  0.3233520  0.7122080  )
        10           S   tau(  10) = (  0.1607090  0.4968200  0.2387390  )
        11           S   tau(  11) = (  0.4862530  0.1514090  0.1877620  )

     number of k points=    14
                       cart. coord. in units 2pi/alat
        k(    1) = (   0.0000000   0.0000000   0.0000000), wk =   0.0370370
        k(    2) = (   0.0000000   0.0000000   0.3613268), wk =   0.0740741
        k(    3) = (   0.0000000   0.3364792  -0.0483805), wk =   0.0740741
        k(    4) = (   0.0000000   0.3364792   0.3129463), wk =   0.0740741
        k(    5) = (   0.0000000   0.3364792  -0.4097074), wk =   0.0740741
        k(    6) = (   0.3333333   0.0459036  -0.0483805), wk =   0.0740741
        k(    7) = (   0.3333333   0.0459036   0.3129463), wk =   0.0740741
        k(    8) = (   0.3333333   0.0459036  -0.4097074), wk =   0.0740741
        k(    9) = (   0.3333333   0.3823828  -0.0967611), wk =   0.0740741
        k(   10) = (   0.3333333   0.3823828   0.2645657), wk =   0.0740741
        k(   11) = (   0.3333333   0.3823828  -0.4580879), wk =   0.0740741
        k(   12) = (   0.3333333  -0.2905756   0.0000000), wk =   0.0740741
        k(   13) = (   0.3333333  -0.2905756   0.3613268), wk =   0.0740741
        k(   14) = (   0.3333333  -0.2905756  -0.3613268), wk =   0.0740741

                       cryst. coord.
        k(    1) = (   0.0000000   0.0000000   0.0000000), wk =   0.0370370
        k(    2) = (   0.0000000   0.0000000   0.3333333), wk =   0.0740741
        k(    3) = (   0.0000000   0.3333333   0.0000000), wk =   0.0740741
        k(    4) = (   0.0000000   0.3333333   0.3333333), wk =   0.0740741
        k(    5) = (   0.0000000   0.3333333  -0.3333333), wk =   0.0740741
        k(    6) = (   0.3333333   0.0000000   0.0000000), wk =   0.0740741
        k(    7) = (   0.3333333   0.0000000   0.3333333), wk =   0.0740741
        k(    8) = (   0.3333333   0.0000000  -0.3333333), wk =   0.0740741
        k(    9) = (   0.3333333   0.3333333   0.0000000), wk =   0.0740741
        k(   10) = (   0.3333333   0.3333333   0.3333333), wk =   0.0740741
        k(   11) = (   0.3333333   0.3333333  -0.3333333), wk =   0.0740741
        k(   12) = (   0.3333333  -0.3333333   0.0000000), wk =   0.0740741
        k(   13) = (   0.3333333  -0.3333333   0.3333333), wk =   0.0740741
        k(   14) = (   0.3333333  -0.3333333  -0.3333333), wk =   0.0740741

     Check: negative core charge=   -0.000003
     Generating pointlists ...
     new r_m :   0.1915 (alat units)  2.3610 (a.u.) for type    1
     new r_m :   0.1519 (alat units)  1.8731 (a.u.) for type    2
     new r_m :   0.1284 (alat units)  1.5836 (a.u.) for type    3
     new r_m :   0.1284 (alat units)  1.5836 (a.u.) for type    4

     Initial potential from superposition of free atoms

     starting charge      67.5487, renormalised to      69.0000

     negative rho (up, down):  1.020E-03 1.020E-03
     Starting wfcs are   51 randomized atomic wfcs +   13 random wfcs

     Self-consistent Calculation

     iteration #  1     ecut=    30.00 Ry     beta= 0.70
     Davidson diagonalization with overlap

     ethr =  1.00E-02,  avg # of iterations =  7.0

     negative rho (up, down):  2.343E-05 1.174E-03

     total energy              =    -385.66833565 Ry
     estimated scf accuracy    <       1.98442126 Ry

     total magnetization       =     3.00 Bohr mag/cell
     absolute magnetization    =     3.00 Bohr mag/cell

[...]

     total energy              =    -387.08238094 Ry
     estimated scf accuracy    <       0.00000168 Ry

[...]

     iteration # 12     ecut=    30.00 Ry     beta= 0.70
     Davidson diagonalization with overlap

     ethr =  2.43E-09,  avg # of iterations =  2.4

     negative rho (up, down):  0.000E+00 3.485E-03

     Magnetic moment per site  (integrated on atomic sphere of radius R)
     atom   1 (R=0.191)  charge=  2.1461  magn=  0.0042
     atom   2 (R=0.152)  charge= 11.8620  magn=  2.6375
     atom   3 (R=0.128)  charge=  1.9950  magn=  0.0125
     atom   4 (R=0.128)  charge=  1.9950  magn=  0.0125
     atom   5 (R=0.128)  charge=  2.9990  magn= -0.0169
     atom   6 (R=0.128)  charge=  2.9970  magn= -0.0102
     atom   7 (R=0.128)  charge=  3.0053  magn= -0.0082
     atom   8 (R=0.128)  charge=  2.9949  magn=  0.0083
     atom   9 (R=0.128)  charge=  3.0054  magn= -0.0082
     atom  10 (R=0.128)  charge=  2.9970  magn= -0.0102
     atom  11 (R=0.128)  charge=  2.9990  magn= -0.0169

     End of self-consistent calculation

 ------ SPIN UP ------------

          k = 0.0000 0.0000 0.0000 (  4761 PWs)   bands (ev):

   -68.4066 -43.3975 -39.7497 -39.7251 -39.7110 -11.8690 -10.9918  -9.0363
    -8.5642  -8.4769  -8.2914  -8.1901  -4.6242  -4.4920  -1.7987  -1.3934
    -1.3046  -1.2501  -0.3579  -0.1281   0.1836   1.0418   1.2606   1.3839
     1.6694   1.8944   2.0357   2.4462   2.6657   2.7620   2.8655   2.9876
     3.3693   3.6456   3.9563   4.0115   5.8505   6.0930   6.4761   6.6218
     7.2920   7.5579   7.9955   8.3501   8.6744   8.8830   9.3026   9.7583
    10.2825  10.8117  11.0757  11.0771  11.5064  11.8471  12.0207  12.0598
    12.5873  12.7392  12.9688  13.0888  13.1291  13.3070  13.6230  13.7133

     occupation numbers
     1.0000   1.0000   1.0000   1.0000   1.0000   1.0000   1.0000   1.0000
     1.0000   1.0000   1.0000   1.0000   1.0000   1.0000   1.0000   1.0000
     1.0000   1.0000   1.0000   1.0000   1.0000   1.0000   1.0000   1.0000
     1.0000   1.0000   1.0000   1.0000   1.0000   1.0000   1.0000   1.0000
     1.0000   1.0000   1.0000   1.0000   0.0000   0.0000   0.0000   0.0000
     0.0000   0.0000   0.0000   0.0000   0.0000   0.0000   0.0000   0.0000
     0.0000   0.0000   0.0000   0.0000   0.0000   0.0000   0.0000   0.0000
     0.0000   0.0000   0.0000   0.0000   0.0000   0.0000   0.0000   0.0000

[...]

 ------ SPIN DOWN ----------

[...]

          k = 0.3333-0.2906-0.3613 (  4756 PWs)   bands (ev):

   -65.4047 -43.3946 -36.8112 -36.7599 -36.7460 -11.7184 -11.0427  -9.0072
    -8.7755  -8.5732  -8.3412  -8.2627  -4.6257  -3.6558  -1.9736  -1.3156
    -1.1529  -0.8765  -0.7161   0.1046   0.7107   1.1366   1.3537   1.4628
     1.5523   1.9519   2.1721   2.5494   2.6025   2.8598   3.1102   3.2101
     3.5294   5.9373   6.0196   6.2693   6.5350   6.8556   6.9815   7.3559
     7.6821   8.0815   8.2946   8.3991   8.6435   8.9043   9.4796  10.0328
    10.3377  10.6841  11.0665  11.2262  11.6198  11.7789  12.0522  12.3865
    12.4874  12.6306  12.9304  13.1479  13.4848  13.6837  13.8430  14.2050

     occupation numbers
     1.0000   1.0000   1.0000   1.0000   1.0000   1.0000   1.0000   1.0000
     1.0000   1.0000   1.0000   1.0000   1.0000   1.0000   1.0000   1.0000
     1.0000   1.0000   1.0000   1.0000   1.0000   1.0000   1.0000   1.0000
     1.0000   1.0000   1.0000   1.0000   1.0000   1.0000   1.0000   1.0000
     1.0000   0.0000   0.0000   0.0000   0.0000   0.0000   0.0000   0.0000
     0.0000   0.0000   0.0000   0.0000   0.0000   0.0000   0.0000   0.0000
     0.0000   0.0000   0.0000   0.0000   0.0000   0.0000   0.0000   0.0000
     0.0000   0.0000   0.0000   0.0000   0.0000   0.0000   0.0000   0.0000

     highest occupied, lowest unoccupied level (ev):     4.1448    5.4453

!    total energy              =    -387.08238129 Ry
     estimated scf accuracy    <       0.00000007 Ry

     The total energy is the sum of the following terms:
     one-electron contribution =    -230.88940332 Ry
     hartree contribution      =     137.11934711 Ry
     xc contribution           =     -93.84923587 Ry
     ewald contribution        =    -199.46308921 Ry

     total magnetization       =     3.00 Bohr mag/cell
     absolute magnetization    =     3.53 Bohr mag/cell

     convergence has been achieved in  12 iterations

     Writing all to output data dir bands_nm_v2/myprefix.save/

     General routines

     Parallel routines

   This run was terminated on:   1:16:53  17Jul2023

   JOB DONE.