     Program PWSCF v.7.1 starts on 16Jul2023 at 23:53:24

     Reading input from espresso_2225.pwi
Warning: card &CELL ignored
Warning: card / ignored

     Current dimensions of program PWSCF are:
     Max number of different atomic species (ntypx) = 10
     Max number of k-points (npk) =  40000
     Max angular momentum in pseudopotentials (lmaxx) =  4
     file O.pbe-n-kjpaw_psl.0.1.UPF: wavefunction(s)  2P renormalized
     Message from routine setup:
     using ibrav=0 with symmetry is DISCOURAGED, use correct ibrav instead

     K-points division:     npool     =       2
     R & G space division:  proc/nbgrp/npool/nimage =       4
     Subspace diagonalization in iterative solution of the eigenvalue problem:
     one sub-group per band group will be used

     Using Slab Decomposition

     bravais-lattice index     =            0
     lattice parameter (alat)  =      13.0062  a.u.
     unit-cell volume          =    1685.1455 (a.u.)^3
     number of atoms/cell      =           20
     number of atomic types    =            4
     number of electrons       =       188.00
     number of Kohn-Sham states=          256
     kinetic-energy cutoff     =      30.0000  Ry
     charge density cutoff     =     240.0000  Ry
     scf convergence threshold =      1.0E-06
     mixing beta               =       0.7000
     number of iterations used =            8  plain     mixing
     Exchange-correlation= SLA  PW   PBX  PBC
                           (   1   4   3   4   0   0   0)

     celldm(1)=  13.006195  celldm(2)=   0.000000  celldm(3)=   0.000000
     celldm(4)=   0.000000  celldm(5)=   0.000000  celldm(6)=   0.000000

     crystal axes: (cart. coord. in units of alat)
               a(1) = (   1.000000   0.000000   0.000000 )
               a(2) = (   0.123729   0.992316   0.000000 )
               a(3) = (   0.160519   0.141747   0.771857 )

     reciprocal axes: (cart. coord. in units 2 pi/alat)
               b(1) = (  1.000000 -0.124687 -0.185067 )
               b(2) = (  0.000000  1.007743 -0.185067 )
               b(3) = (  0.000000  0.000000  1.295578 )

     PseudoPot. # 1 for Ca read from file:
     /lustre07/scratch/pragov/crystal_structure_design/utils/SSSP/Ca_pbe_v1.uspp.F.UPF
     MD5 check sum: 403a4c14b9e4d4dfdc3024c9a3812218
     Pseudo is Ultrasoft + core correction, Zval = 10.0
     Generated by new atomic code, or converted to UPF format
     Using radial grid of  845 points,  6 beta functions with:
                l(1) =   0
                l(2) =   0
                l(3) =   1
                l(4) =   1
                l(5) =   2
                l(6) =   2
     Q(r) pseudized with  8 coefficients,  rinner =    1.500   1.500   1.500
                                                       1.500   1.500

     PseudoPot. # 2 for Zn read from file:
     /lustre07/scratch/pragov/crystal_structure_design/utils/SSSP/Zn_pbe_v1.uspp.F.UPF
     MD5 check sum: df62231357ef9e81f77b2b3087fa5675
     Pseudo is Ultrasoft, Zval = 20.0
     Generated by new atomic code, or converted to UPF format
     Using radial grid of  943 points,  6 beta functions with:
                l(1) =   0
                l(2) =   0
                l(3) =   1
                l(4) =   1
                l(5) =   2
                l(6) =   2
     Q(r) pseudized with  8 coefficients,  rinner =    1.100   1.100   1.100
                                                       1.100   1.100

     PseudoPot. # 3 for Ge read from file:
     /lustre07/scratch/pragov/crystal_structure_design/utils/SSSP/ge_pbe_v1.4.uspp.F.UPF
     MD5 check sum: 9c9eaa91e581c3f09632fb3098b2c6b2
     Pseudo is Ultrasoft + core correction, Zval = 14.0
     Generated by new atomic code, or converted to UPF format
     Using radial grid of  873 points,  6 beta functions with:
                l(1) =   0
                l(2) =   0
                l(3) =   1
                l(4) =   1
                l(5) =   2
                l(6) =   2
     Q(r) pseudized with  8 coefficients,  rinner =    1.400   1.400   1.400
                                                       1.400   1.400

     PseudoPot. # 4 for O  read from file:
     /lustre07/scratch/pragov/crystal_structure_design/utils/SSSP/O.pbe-n-kjpaw_psl.0.1.UPF
     MD5 check sum: 0234752ac141de4415c5fc33072bef88
     Pseudo is Projector augmented-wave + core cor, Zval =  6.0
     Generated using "atomic" code by A. Dal Corso  v.5.0.99 svn rev. 10869
     Shape of augmentation charge: BESSEL
     Using radial grid of 1095 points,  4 beta functions with:
                l(1) =   0
                l(2) =   0
                l(3) =   1
                l(4) =   1
     Q(r) pseudized with 0 coefficients

     atomic species   valence    mass     pseudopotential
        Ca            10.00    40.07800     Ca( 1.00)
        Zn            20.00    65.38000     Zn( 1.00)
        Ge            14.00    72.63000     Ge( 1.00)
        O              6.00    15.99900     O ( 1.00)

      2 Sym. Ops., with inversion, found

                                    s                        frac. trans.

      isym =  1     identity

 cryst.   s( 1) = (     1          0          0      )
                  (     0          1          0      )
                  (     0          0          1      )

 cart.    s( 1) = (  1.0000000  0.0000000  0.0000000 )
                  (  0.0000000  1.0000000  0.0000000 )
                  (  0.0000000  0.0000000  1.0000000 )

      isym =  2     inversion

 cryst.   s( 2) = (    -1          0          0      )
                  (     0         -1          0      )
                  (     0          0         -1      )

 cart.    s( 2) = ( -1.0000000  0.0000000 -0.0000000 )
                  (  0.0000000 -1.0000000  0.0000000 )
                  (  0.0000000  0.0000000 -1.0000000 )

   Cartesian axes

     site n.     atom                  positions (alat units)
         1           Ca  tau(   1) = (   0.8547677   0.4071083   0.5788924  )
         2           Ca  tau(   2) = (   0.4294799   0.7269551   0.1929641  )
         3           Zn  tau(   3) = (   0.3259712   1.0059333   0.5788924  )
         4           Zn  tau(   4) = (   0.9582763   0.1281301   0.1929641  )
         5           Ge  tau(   5) = (   0.3578119   0.4892574   0.5977682  )
         6           Ge  tau(   6) = (   0.8347374   0.9104097   0.5600167  )
         7           Ge  tau(   7) = (   0.9264357   0.6448060   0.1740884  )
         8           Ge  tau(   8) = (   0.4495101   0.2236537   0.2118399  )
         9           O   tau(   9) = (   0.5119363   0.3992875   0.3985396  )
        10           O   tau(  10) = (   0.9049464   0.7463377   0.7592452  )
        11           O   tau(  11) = (   0.7723113   0.7347758   0.3733169  )
        12           O   tau(  12) = (   0.3793012   0.3877256   0.0126114  )
        13           O   tau(  13) = (   0.6619370   0.1243362   0.1194973  )
        14           O   tau(  14) = (   0.9987068   0.4217229   0.2664310  )
        15           O   tau(  15) = (   0.6223106   1.0097272   0.6523593  )
        16           O   tau(  16) = (   0.2855408   0.7123405   0.5054256  )
        17           O   tau(  17) = (   0.1796554   0.3223107   0.6682433  )
        18           O   tau(  18) = (   1.0224444   1.0665411   0.4895415  )
        19           O   tau(  19) = (   1.1045922   0.8117526   0.1036133  )
        20           O   tau(  20) = (   0.2618032   0.0675222   0.2823150  )

   Crystallographic axes

     site n.     atom                  positions (cryst. coord.)
         1           Ca  tau(   1) = (  0.6968730  0.3031270  0.7500000  )
         2           Ca  tau(   2) = (  0.3031270  0.6968730  0.2500000  )
         3           Zn  tau(   3) = (  0.0934110  0.9065890  0.7500000  )
         4           Zn  tau(   4) = (  0.9065890  0.0934110  0.2500000  )
         5           Ge  tau(   5) = (  0.1861810  0.3824190  0.7744550  )
         6           Ge  tau(   6) = (  0.6175810  0.8138190  0.7255450  )
         7           Ge  tau(   7) = (  0.8138190  0.6175810  0.2255450  )
         8           Ge  tau(   8) = (  0.3824190  0.1861810  0.2744550  )
         9           O   tau(   9) = (  0.3883940  0.3286230  0.5163390  )
        10           O   tau(  10) = (  0.6713770  0.6116060  0.9836610  )
        11           O   tau(  11) = (  0.6116060  0.6713770  0.4836610  )
        12           O   tau(  12) = (  0.3286230  0.3883940  0.0163390  )
        13           O   tau(  13) = (  0.6243190  0.1031840  0.1548180  )
        14           O   tau(  14) = (  0.8968160  0.3756810  0.3451820  )
        15           O   tau(  15) = (  0.3756810  0.8968160  0.8451820  )
        16           O   tau(  16) = (  0.1031840  0.6243190  0.6548180  )
        17           O   tau(  17) = (  0.0157980  0.2011370  0.8657610  )
        18           O   tau(  18) = (  0.7988630  0.9842020  0.6342390  )
        19           O   tau(  19) = (  0.9842020  0.7988630  0.1342390  )
        20           O   tau(  20) = (  0.2011370  0.0157980  0.3657610  )

     number of k points=    14
                       cart. coord. in units 2pi/alat
        k(    1) = (   0.0000000   0.0000000   0.0000000), wk =   0.0740741
        k(    2) = (   0.0000000   0.0000000   0.4318592), wk =   0.1481481
        k(    3) = (   0.0000000   0.3359145  -0.0616889), wk =   0.1481481
        k(    4) = (   0.0000000   0.3359145   0.3701703), wk =   0.1481481
        k(    5) = (   0.0000000   0.3359145  -0.4935480), wk =   0.1481481
        k(    6) = (   0.3333333  -0.0415623  -0.0616889), wk =   0.1481481
        k(    7) = (   0.3333333  -0.0415623   0.3701703), wk =   0.1481481
        k(    8) = (   0.3333333  -0.0415623  -0.4935480), wk =   0.1481481
        k(    9) = (   0.3333333   0.2943522  -0.1233778), wk =   0.1481481
        k(   10) = (   0.3333333   0.2943522   0.3084814), wk =   0.1481481
        k(   11) = (   0.3333333   0.2943522  -0.5552369), wk =   0.1481481
        k(   12) = (   0.3333333  -0.3774767  -0.0000000), wk =   0.1481481
        k(   13) = (   0.3333333  -0.3774767   0.4318592), wk =   0.1481481
        k(   14) = (   0.3333333  -0.3774767  -0.4318592), wk =   0.1481481

                       cryst. coord.
        k(    1) = (   0.0000000   0.0000000   0.0000000), wk =   0.0740741
        k(    2) = (   0.0000000   0.0000000   0.3333333), wk =   0.1481481
        k(    3) = (   0.0000000   0.3333333   0.0000000), wk =   0.1481481
        k(    4) = (   0.0000000   0.3333333   0.3333333), wk =   0.1481481
        k(    5) = (   0.0000000   0.3333333  -0.3333333), wk =   0.1481481
        k(    6) = (   0.3333333   0.0000000   0.0000000), wk =   0.1481481
        k(    7) = (   0.3333333   0.0000000   0.3333333), wk =   0.1481481
        k(    8) = (   0.3333333   0.0000000  -0.3333333), wk =   0.1481481
        k(    9) = (   0.3333333   0.3333333   0.0000000), wk =   0.1481481
        k(   10) = (   0.3333333   0.3333333   0.3333333), wk =   0.1481481
        k(   11) = (   0.3333333   0.3333333  -0.3333333), wk =   0.1481481
        k(   12) = (   0.3333333  -0.3333333  -0.0000000), wk =   0.1481481
        k(   13) = (   0.3333333  -0.3333333   0.3333333), wk =   0.1481481
        k(   14) = (   0.3333333  -0.3333333  -0.3333333), wk =   0.1481481

     Check: negative core charge=   -0.000012

     Initial potential from superposition of free atoms

     starting charge     187.9853, renormalised to     188.0000
     Starting wfcs are  130 randomized atomic wfcs +  126 random wfcs
     Checking if some PAW data can be deallocated...

     Self-consistent Calculation

     iteration #  1     ecut=    30.00 Ry     beta= 0.70
     Davidson diagonalization with overlap

     ethr =  1.00E-02,  avg # of iterations =  6.0

     total energy              =   -2425.87563137 Ry
     estimated scf accuracy    <       4.12912832 Ry

[...]

     c_bands:  1 eigenvalues not converged
     ethr =  1.09E-06,  avg # of iterations = 10.1

[...]

     total energy              =   -2427.75420068 Ry
     estimated scf accuracy    <       0.00000491 Ry

     iteration #  9     ecut=    30.00 Ry     beta= 0.70
     Davidson diagonalization with overlap

     ethr =  2.61E-09,  avg # of iterations =  2.0

     End of self-consistent calculation

          k = 0.0000 0.0000 0.0000 (  4665 PWs)   bands (ev):

  -115.9262-115.9254 -70.0714 -70.0699 -70.0694 -70.0659 -70.0576 -70.0526
   -31.1813 -31.1801 -16.9193 -16.9167 -16.8517 -16.8508 -16.8016 -16.7957
   -16.7947 -16.7917 -16.7682 -16.7646 -16.7097 -16.7097 -16.6039 -16.6010
   -16.5934 -16.5926 -16.5764 -16.5753 -16.5634 -16.5630 -12.5028 -12.4700
   -12.3921 -12.3480 -12.3229 -12.3216 -12.1459 -11.7251 -10.4447 -10.4108
   -10.2463 -10.1850 -10.0990  -9.8452  -9.6170  -9.4361  -9.4226  -9.2778
    -1.4809  -1.4514   0.0472   0.8451   1.8244   1.9217   1.9458   2.2026
     2.2524   2.4856   2.5168   2.6206   2.6894   2.7303   2.9625   3.0762
     3.1323   3.1976   3.3380   3.3456   3.4943   3.6477   3.9207   4.0726
     4.3238   4.5885   4.6958   4.7778   4.8373   4.9614   4.9932   5.0358
     5.1968   5.3252   5.3397   5.6421   5.8111   5.8573   6.0790   6.1115
     6.1986   6.3391   6.3660   6.5997   6.6053   6.8255   9.3499  11.5654
    12.7608  12.8044  13.3337  13.5901  13.8230  13.9068  13.9361  13.9526
    14.2942  14.4671  14.5576  14.5968  14.9169  15.2018  15.2703  15.4671
    15.4846  15.5739  15.6916  16.2258  16.4050  16.4461  16.5041  16.8730
    17.0081  17.2007  17.5136  17.9613  18.0977  18.7151  19.1720  19.5131
    19.6266  19.7940  20.1925  20.3483  20.7789  20.8567  20.9148  20.9936
    21.2853  21.4527  21.9421  22.2389  22.3692  23.4408  23.4594  23.4730
    23.6602  23.9335  24.0767  24.1736  24.9479  25.3736  25.5007  25.6011
    26.1869  26.2874  26.3947  26.5046  26.6459  26.7236  27.1627  27.4536
    27.5176  27.8410  28.0566  28.5234  29.2373  29.2798  29.8911  30.2319
    30.3258  30.4463  30.4851  30.8082  31.1083  31.4670  31.7388  31.9644
    32.0688  32.1704  32.2328  32.3540  32.3699  32.5649  32.7481  32.9912
    33.2292  33.5374  33.5750  33.6357  33.8042  34.2965  34.3573  34.5175
    34.7119  35.0454  35.2642  35.2998  35.8674  35.8935  35.9685  36.0303
    36.3105  36.3863  36.4551  36.7601  36.9559  37.1422  37.2698  37.4783
    37.5620  37.6965  38.0046  38.0592  38.1769  38.4055  38.4802  38.8848
    38.9185  38.9265  39.2561  39.7733  39.8370  39.9876  39.9970  40.0604
    40.2820  40.6360  40.8377  40.9798  41.1329  41.5732  41.5882  41.6295
    41.6787  42.1577  42.2387  42.4122  42.8852  42.9225  42.9962  43.0539
    43.6229  43.8499  43.9587  43.9766  44.3805  44.4107  44.6198  44.6568
    45.0954  45.2642  45.3079  45.4458  45.6034  45.6213  45.7349  45.8394

     occupation numbers
     1.0000   1.0000   1.0000   1.0000   1.0000   1.0000   1.0000   1.0000
     1.0000   1.0000   1.0000   1.0000   1.0000   1.0000   1.0000   1.0000
     1.0000   1.0000   1.0000   1.0000   1.0000   1.0000   1.0000   1.0000
     1.0000   1.0000   1.0000   1.0000   1.0000   1.0000   1.0000   1.0000
     1.0000   1.0000   1.0000   1.0000   1.0000   1.0000   1.0000   1.0000
     1.0000   1.0000   1.0000   1.0000   1.0000   1.0000   1.0000   1.0000
     1.0000   1.0000   1.0000   1.0000   1.0000   1.0000   1.0000   1.0000
     1.0000   1.0000   1.0000   1.0000   1.0000   1.0000   1.0000   1.0000
     1.0000   1.0000   1.0000   1.0000   1.0000   1.0000   1.0000   1.0000
     1.0000   1.0000   1.0000   1.0000   1.0000   1.0000   1.0000   1.0000
     1.0000   1.0000   1.0000   1.0000   1.0000   1.0000   1.0000   1.0000
     1.0000   1.0000   1.0000   1.0000   1.0000   1.0000   0.0000   0.0000
     0.0000   0.0000   0.0000   0.0000   0.0000   0.0000   0.0000   0.0000
     0.0000   0.0000   0.0000   0.0000   0.0000   0.0000   0.0000   0.0000
     0.0000   0.0000   0.0000   0.0000   0.0000   0.0000   0.0000   0.0000
     0.0000   0.0000   0.0000   0.0000   0.0000   0.0000   0.0000   0.0000
     0.0000   0.0000   0.0000   0.0000   0.0000   0.0000   0.0000   0.0000
     0.0000   0.0000   0.0000   0.0000   0.0000   0.0000   0.0000   0.0000
     0.0000   0.0000   0.0000   0.0000   0.0000   0.0000   0.0000   0.0000
     0.0000   0.0000   0.0000   0.0000   0.0000   0.0000   0.0000   0.0000
     0.0000   0.0000   0.0000   0.0000   0.0000   0.0000   0.0000   0.0000
     0.0000   0.0000   0.0000   0.0000   0.0000   0.0000   0.0000   0.0000
     0.0000   0.0000   0.0000   0.0000   0.0000   0.0000   0.0000   0.0000
     0.0000   0.0000   0.0000   0.0000   0.0000   0.0000   0.0000   0.0000
     0.0000   0.0000   0.0000   0.0000   0.0000   0.0000   0.0000   0.0000
     0.0000   0.0000   0.0000   0.0000   0.0000   0.0000   0.0000   0.0000
     0.0000   0.0000   0.0000   0.0000   0.0000   0.0000   0.0000   0.0000
     0.0000   0.0000   0.0000   0.0000   0.0000   0.0000   0.0000   0.0000
     0.0000   0.0000   0.0000   0.0000   0.0000   0.0000   0.0000   0.0000
     0.0000   0.0000   0.0000   0.0000   0.0000   0.0000   0.0000   0.0000
     0.0000   0.0000   0.0000   0.0000   0.0000   0.0000   0.0000   0.0000
     0.0000   0.0000   0.0000   0.0000   0.0000   0.0000   0.0000   0.0000

[...]

          k = 0.3333-0.3775-0.4319 (  4665 PWs)   bands (ev):

  -115.9263-115.9258 -70.0726 -70.0711 -70.0679 -70.0660 -70.0580 -70.0549
   -31.1809 -31.1804 -16.9013 -16.8989 -16.8670 -16.8662 -16.7975 -16.7964
   -16.7952 -16.7933 -16.7595 -16.7579 -16.7300 -16.7288 -16.6014 -16.6012
   -16.5974 -16.5967 -16.5716 -16.5708 -16.5646 -16.5644 -12.5691 -12.4883
   -12.4634 -12.3586 -12.3300 -12.3231 -11.5713 -11.4709 -10.9948 -10.9082
   -10.1838 -10.0781  -9.9947  -9.9167  -9.5756  -9.4226  -9.3947  -9.3150
    -0.9564  -0.8595   0.1639   0.4913   1.7303   1.8254   1.9488   2.1224
     2.2803   2.3475   2.4356   2.5671   2.6870   2.9160   2.9335   3.0570
     3.0959   3.1890   3.2623   3.3921   3.4646   3.6253   3.6583   3.8372
     4.1712   4.2683   4.6222   4.6344   4.7530   4.7891   5.1132   5.1316
     5.2970   5.3552   5.4053   5.6556   5.7539   5.8237   5.9996   6.1670
     6.2005   6.2434   6.4116   6.6075   6.6500   6.8182  11.4561  11.7812
    12.4054  12.5195  13.0963  13.3014  13.4224  13.6016  13.8362  13.9971
    14.3219  14.4635  14.6230  14.8834  14.9616  15.1265  15.2883  15.4454
    15.5388  15.7514  15.8891  16.2308  16.3848  16.6028  16.8017  17.1424
    17.3642  17.3756  17.5454  17.9807  18.1670  18.4134  18.7342  19.0361
    19.2236  19.2896  19.7111  20.0181  20.5083  20.6354  21.2040  21.3989
    21.5163  21.8327  22.3122  22.5368  22.7453  22.7717  22.9344  23.5057
    23.7072  24.1335  24.2074  24.4448  24.5979  24.9112  25.1400  25.4345
    25.5250  25.9925  26.0888  26.4344  26.8957  27.0881  27.3432  27.6009
    27.7238  28.1179  28.5390  28.7507  29.2904  29.5032  29.7103  30.0090
    30.1061  30.2869  30.4105  30.7031  30.8094  31.0973  31.3397  31.7993
    31.8222  32.0438  32.3811  32.5531  32.7690  32.9357  33.0401  33.2335
    33.3661  33.6515  34.0278  34.1110  34.2869  34.4746  34.8248  34.8812
    35.1908  35.3244  35.4439  35.5673  35.7088  35.7891  36.1605  36.2716
    36.3827  36.6701  36.7784  37.0865  37.2111  37.3184  37.5461  37.6504
    37.7398  37.9082  38.0229  38.3017  38.4160  38.5188  38.6683  39.0806
    39.1160  39.2347  39.3958  39.6016  39.6440  39.9330  40.0580  40.2878
    40.3658  40.5377  40.7058  40.8418  41.0220  41.1584  41.3880  41.5570
    41.8373  42.0743  42.3673  42.4193  42.5487  42.6528  42.9015  42.9660
    43.2781  43.4578  43.5762  43.7393  43.8816  44.1685  44.2107  44.3601
    44.5010  44.7616  44.9270  45.0668  45.1525  45.3929  45.5001  45.7518

     occupation numbers
     1.0000   1.0000   1.0000   1.0000   1.0000   1.0000   1.0000   1.0000
     1.0000   1.0000   1.0000   1.0000   1.0000   1.0000   1.0000   1.0000
     1.0000   1.0000   1.0000   1.0000   1.0000   1.0000   1.0000   1.0000
     1.0000   1.0000   1.0000   1.0000   1.0000   1.0000   1.0000   1.0000
     1.0000   1.0000   1.0000   1.0000   1.0000   1.0000   1.0000   1.0000
     1.0000   1.0000   1.0000   1.0000   1.0000   1.0000   1.0000   1.0000
     1.0000   1.0000   1.0000   1.0000   1.0000   1.0000   1.0000   1.0000
     1.0000   1.0000   1.0000   1.0000   1.0000   1.0000   1.0000   1.0000
     1.0000   1.0000   1.0000   1.0000   1.0000   1.0000   1.0000   1.0000
     1.0000   1.0000   1.0000   1.0000   1.0000   1.0000   1.0000   1.0000
     1.0000   1.0000   1.0000   1.0000   1.0000   1.0000   1.0000   1.0000
     1.0000   1.0000   1.0000   1.0000   1.0000   1.0000   0.0000   0.0000
     0.0000   0.0000   0.0000   0.0000   0.0000   0.0000   0.0000   0.0000
     0.0000   0.0000   0.0000   0.0000   0.0000   0.0000   0.0000   0.0000
     0.0000   0.0000   0.0000   0.0000   0.0000   0.0000   0.0000   0.0000
     0.0000   0.0000   0.0000   0.0000   0.0000   0.0000   0.0000   0.0000
     0.0000   0.0000   0.0000   0.0000   0.0000   0.0000   0.0000   0.0000
     0.0000   0.0000   0.0000   0.0000   0.0000   0.0000   0.0000   0.0000
     0.0000   0.0000   0.0000   0.0000   0.0000   0.0000   0.0000   0.0000
     0.0000   0.0000   0.0000   0.0000   0.0000   0.0000   0.0000   0.0000
     0.0000   0.0000   0.0000   0.0000   0.0000   0.0000   0.0000   0.0000
     0.0000   0.0000   0.0000   0.0000   0.0000   0.0000   0.0000   0.0000
     0.0000   0.0000   0.0000   0.0000   0.0000   0.0000   0.0000   0.0000
     0.0000   0.0000   0.0000   0.0000   0.0000   0.0000   0.0000   0.0000
     0.0000   0.0000   0.0000   0.0000   0.0000   0.0000   0.0000   0.0000
     0.0000   0.0000   0.0000   0.0000   0.0000   0.0000   0.0000   0.0000
     0.0000   0.0000   0.0000   0.0000   0.0000   0.0000   0.0000   0.0000
     0.0000   0.0000   0.0000   0.0000   0.0000   0.0000   0.0000   0.0000
     0.0000   0.0000   0.0000   0.0000   0.0000   0.0000   0.0000   0.0000
     0.0000   0.0000   0.0000   0.0000   0.0000   0.0000   0.0000   0.0000
     0.0000   0.0000   0.0000   0.0000   0.0000   0.0000   0.0000   0.0000
     0.0000   0.0000   0.0000   0.0000   0.0000   0.0000   0.0000   0.0000

     highest occupied, lowest unoccupied level (ev):     6.9171    9.3499

!    total energy              =   -2427.75420180 Ry
     estimated scf accuracy    <       0.00000082 Ry

     The total energy is the sum of the following terms:
     one-electron contribution =   -1621.94531666 Ry
     hartree contribution      =     932.62543313 Ry
     xc contribution           =    -431.78207645 Ry
     ewald contribution        =   -1192.38069367 Ry
     one-center paw contrib.   =    -114.27154815 Ry
      -> PAW hartree energy AE =       0.00000000 Ry
      -> PAW hartree energy PS =       0.00000000 Ry
      -> PAW xc energy AE      =       0.00000000 Ry
      -> PAW xc energy PS      =       0.00000000 Ry
      -> total E_H with PAW    =     932.62543313 Ry
      -> total E_XC with PAW   =    -431.78207645 Ry

     convergence has been achieved in   9 iterations

     Writing all to output data dir bands_nm/myprefix.save/

     General routines

     Parallel routines

     PAW routines

   This run was terminated on:  23:54:43  16Jul2023

   JOB DONE.