     Program PWSCF v.7.1 starts on 16Jul2023 at 17:44: 1

     Reading input from espresso_16482.pwi
Warning: card &CELL ignored
Warning: card / ignored

     Current dimensions of program PWSCF are:
     Max number of different atomic species (ntypx) = 10
     Max number of k-points (npk) =  40000
     Max angular momentum in pseudopotentials (lmaxx) =  4
     file O.pbe-n-kjpaw_psl.0.1.UPF: wavefunction(s)  2P renormalized

     K-points division:     npool     =       2
     R & G space division:  proc/nbgrp/npool/nimage =       4
     Subspace diagonalization in iterative solution of the eigenvalue problem:
     one sub-group per band group will be used

     Using Slab Decomposition

     bravais-lattice index     =            0
     lattice parameter (alat)  =      12.7516  a.u.
     unit-cell volume          =    1571.2261 (a.u.)^3
     number of atoms/cell      =           20
     number of atomic types    =            6
     number of electrons       =       138.00
     number of Kohn-Sham states=          256
     kinetic-energy cutoff     =      30.0000  Ry
     charge density cutoff     =     240.0000  Ry
     scf convergence threshold =      1.0E-06
     mixing beta               =       0.7000
     number of iterations used =            8  plain     mixing
     Exchange-correlation= SLA  PW   PBX  PBC
                           (   1   4   3   4   0   0   0)

     celldm(1)=  12.751556  celldm(2)=   0.000000  celldm(3)=   0.000000
     celldm(4)=   0.000000  celldm(5)=   0.000000  celldm(6)=   0.000000

     crystal axes: (cart. coord. in units of alat)
               a(1) = (   1.000000   0.000000   0.000000 )
               a(2) = (   0.089525   0.995985   0.000000 )
               a(3) = (   0.165555   0.151342   0.760846 )

     reciprocal axes: (cart. coord. in units 2 pi/alat)
               b(1) = (  1.000000 -0.089886 -0.199714 )
               b(2) = (  0.000000  1.004032 -0.199714 )
               b(3) = (  0.000000  0.000000  1.314327 )

     PseudoPot. # 1 for Na read from file:
     /lustre07/scratch/pragov/crystal_structure_design/utils/SSSP/na_pbe_v1.5.uspp.F.UPF
     MD5 check sum: 44600605ef58000f06b90626533354dc
     Pseudo is Ultrasoft, Zval =  9.0
     Generated by new atomic code, or converted to UPF format
     Using radial grid of  819 points,  5 beta functions with:
                l(1) =   0
                l(2) =   0
                l(3) =   1
                l(4) =   1
                l(5) =   2
     Q(r) pseudized with  8 coefficients,  rinner =    1.250   1.250   1.250
                                                       1.250   1.250

     PseudoPot. # 2 for Ca read from file:
     /lustre07/scratch/pragov/crystal_structure_design/utils/SSSP/Ca_pbe_v1.uspp.F.UPF
     MD5 check sum: 403a4c14b9e4d4dfdc3024c9a3812218
     Pseudo is Ultrasoft + core correction, Zval = 10.0
     Generated by new atomic code, or converted to UPF format
     Using radial grid of  845 points,  6 beta functions with:
                l(1) =   0
                l(2) =   0
                l(3) =   1
                l(4) =   1
                l(5) =   2
                l(6) =   2
     Q(r) pseudized with  8 coefficients,  rinner =    1.500   1.500   1.500
                                                       1.500   1.500

     PseudoPot. # 3 for Sc read from file:
     /lustre07/scratch/pragov/crystal_structure_design/utils/SSSP/Sc_ONCV_PBE-1.0.oncvpsp.upf
     MD5 check sum: e21af8023abb52e52cb7cd3133e4a229
     Pseudo is Norm-conserving, Zval = 11.0
     Generated using ONCVPSP code by D. R. Hamann
     Using radial grid of 1662 points,  6 beta functions with:
                l(1) =   0
                l(2) =   0
                l(3) =   1
                l(4) =   1
                l(5) =   2
                l(6) =   2

     PseudoPot. # 4 for Zn read from file:
     /lustre07/scratch/pragov/crystal_structure_design/utils/SSSP/Zn_pbe_v1.uspp.F.UPF
     MD5 check sum: df62231357ef9e81f77b2b3087fa5675
     Pseudo is Ultrasoft, Zval = 20.0
     Generated by new atomic code, or converted to UPF format
     Using radial grid of  943 points,  6 beta functions with:
                l(1) =   0
                l(2) =   0
                l(3) =   1
                l(4) =   1
                l(5) =   2
                l(6) =   2
     Q(r) pseudized with  8 coefficients,  rinner =    1.100   1.100   1.100
                                                       1.100   1.100

     PseudoPot. # 5 for Si read from file:
     /lustre07/scratch/pragov/crystal_structure_design/utils/SSSP/Si.pbe-n-rrkjus_psl.1.0.0.UPF
     MD5 check sum: 0b0bb1205258b0d07b9f9672cf965d36
     Pseudo is Ultrasoft + core correction, Zval =  4.0
     Generated using "atomic" code by A. Dal Corso  v.5.1
     Using radial grid of 1141 points,  6 beta functions with:
                l(1) =   0
                l(2) =   0
                l(3) =   1
                l(4) =   1
                l(5) =   2
                l(6) =   2
     Q(r) pseudized with 0 coefficients

     PseudoPot. # 6 for O  read from file:
     /lustre07/scratch/pragov/crystal_structure_design/utils/SSSP/O.pbe-n-kjpaw_psl.0.1.UPF
     MD5 check sum: 0234752ac141de4415c5fc33072bef88
     Pseudo is Projector augmented-wave + core cor, Zval =  6.0
     Generated using "atomic" code by A. Dal Corso  v.5.0.99 svn rev. 10869
     Shape of augmentation charge: BESSEL
     Using radial grid of 1095 points,  4 beta functions with:
                l(1) =   0
                l(2) =   0
                l(3) =   1
                l(4) =   1
     Q(r) pseudized with 0 coefficients

     atomic species   valence    mass     pseudopotential
        Na             9.00    22.98977     Na( 1.00)
        Ca            10.00    40.07800     Ca( 1.00)
        Sc            11.00    44.95591     Sc( 1.00)
        Zn            20.00    65.38000     Zn( 1.00)
        Si             4.00    28.08500     Si( 1.00)
        O              6.00    15.99900     O ( 1.00)

     No symmetry found

                                    s                        frac. trans.

      isym =  1     identity

 cryst.   s( 1) = (     1          0          0      )
                  (     0          1          0      )
                  (     0          0          1      )

 cart.    s( 1) = (  1.0000000  0.0000000 -0.0000000 )
                  (  0.0000000  1.0000000 -0.0000000 )
                  (  0.0000000  0.0000000  1.0000000 )

   Cartesian axes

     site n.     atom                  positions (alat units)
         1           Na  tau(   1) = (   0.4473370   0.7707904   0.3804228  )
         2           Ca  tau(   2) = (   0.7267773   0.2988830   0.0000000  )
         3           Sc  tau(   3) = (   0.1826410   0.8941232   0.0000000  )
         4           Zn  tau(   4) = (   0.9922209   0.1747324   0.3804228  )
         5           Si  tau(   5) = (   0.9377814   0.6932181   0.3693822  )
         6           Si  tau(   6) = (   0.4806908   0.2753707   0.3914634  )
         7           Si  tau(   7) = (   0.2339762   0.3789766   0.0096414  )
         8           Si  tau(   8) = (   0.8566786   0.9482174   0.7512042  )
         9           O   tau(   9) = (   0.7641986   0.6698747   0.1924118  )
        10           O   tau(  10) = (   0.5194804   0.4461666   0.5684339  )
        11           O   tau(  11) = (   0.4102145   0.3956455   0.1827939  )
        12           O   tau(  12) = (   0.8242989   0.7741790   0.5780517  )
        13           O   tau(  13) = (   1.0136984   0.4765473   0.4352296  )
        14           O   tau(  14) = (   0.6896951   0.1803610   0.3256161  )
        15           O   tau(  15) = (   0.3208738   0.7483095   0.7146478  )
        16           O   tau(  16) = (   0.4810492   0.8947331   0.0461978  )
        17           O   tau(  17) = (   1.1013312   0.8551799   0.2984493  )
        18           O   tau(  18) = (   0.3047376   0.1269772   0.4623963  )
        19           O   tau(  19) = (   0.0656614   0.2181731   0.0755413  )
        20           O   tau(  20) = (   1.0319048   1.1014604   0.6853043  )

   Crystallographic axes

     site n.     atom                  positions (cryst. coord.)
         1           Na  tau(   1) = (  0.3020780  0.6979220  0.5000000  )
         2           Ca  tau(   2) = (  0.6999120  0.3000880  0.0000000  )
         3           Sc  tau(   3) = (  0.1022720  0.8977280  0.0000000  )
         4           Zn  tau(   4) = (  0.9005390  0.0994610  0.5000000  )
         5           Si  tau(   5) = (  0.8017000  0.6222420  0.4854890  )
         6           Si  tau(   6) = (  0.3777580  0.1983000  0.5145110  )
         7           Si  tau(   7) = (  0.1979860  0.3785790  0.0126720  )
         8           Si  tau(   8) = (  0.6214210  0.8020140  0.9873280  )
         9           O   tau(   9) = (  0.6655590  0.6341480  0.2528920  )
        10           O   tau(  10) = (  0.3658520  0.3344410  0.7471080  )
        11           O   tau(  11) = (  0.3381450  0.3607340  0.2402510  )
        12           O   tau(  12) = (  0.6392660  0.6618550  0.7597490  )
        13           O   tau(  13) = (  0.8839420  0.3915470  0.5720340  )
        14           O   tau(  14) = (  0.6084530  0.1160580  0.4279660  )
        15           O   tau(  15) = (  0.1108860  0.6086010  0.9392810  )
        16           O   tau(  16) = (  0.3913990  0.8891140  0.0607190  )
        17           O   tau(  17) = (  0.9648580  0.7990230  0.3922600  )
        18           O   tau(  18) = (  0.2009770  0.0351420  0.6077400  )
        19           O   tau(  19) = (  0.0309640  0.2039660  0.0992860  )
        20           O   tau(  20) = (  0.7960340  0.9690360  0.9007140  )

     number of k points=    14
                       cart. coord. in units 2pi/alat
        k(    1) = (   0.0000000   0.0000000   0.0000000), wk =   0.0740741
        k(    2) = (   0.0000000   0.0000000   0.4381090), wk =   0.1481481
        k(    3) = (   0.0000000   0.3346772  -0.0665714), wk =   0.1481481
        k(    4) = (   0.0000000   0.3346772   0.3715376), wk =   0.1481481
        k(    5) = (   0.0000000   0.3346772  -0.5046805), wk =   0.1481481
        k(    6) = (   0.3333333  -0.0299619  -0.0665714), wk =   0.1481481
        k(    7) = (   0.3333333  -0.0299619   0.3715376), wk =   0.1481481
        k(    8) = (   0.3333333  -0.0299619  -0.5046805), wk =   0.1481481
        k(    9) = (   0.3333333   0.3047153  -0.1331429), wk =   0.1481481
        k(   10) = (   0.3333333   0.3047153   0.3049661), wk =   0.1481481
        k(   11) = (   0.3333333   0.3047153  -0.5712519), wk =   0.1481481
        k(   12) = (   0.3333333  -0.3646391   0.0000000), wk =   0.1481481
        k(   13) = (   0.3333333  -0.3646391   0.4381090), wk =   0.1481481
        k(   14) = (   0.3333333  -0.3646391  -0.4381090), wk =   0.1481481

                       cryst. coord.
        k(    1) = (   0.0000000   0.0000000   0.0000000), wk =   0.0740741
        k(    2) = (   0.0000000   0.0000000   0.3333333), wk =   0.1481481
        k(    3) = (   0.0000000   0.3333333   0.0000000), wk =   0.1481481
        k(    4) = (   0.0000000   0.3333333   0.3333333), wk =   0.1481481
        k(    5) = (   0.0000000   0.3333333  -0.3333333), wk =   0.1481481
        k(    6) = (   0.3333333   0.0000000  -0.0000000), wk =   0.1481481
        k(    7) = (   0.3333333   0.0000000   0.3333333), wk =   0.1481481
        k(    8) = (   0.3333333   0.0000000  -0.3333333), wk =   0.1481481
        k(    9) = (   0.3333333   0.3333333   0.0000000), wk =   0.1481481
        k(   10) = (   0.3333333   0.3333333   0.3333333), wk =   0.1481481
        k(   11) = (   0.3333333   0.3333333  -0.3333333), wk =   0.1481481
        k(   12) = (   0.3333333  -0.3333333   0.0000000), wk =   0.1481481
        k(   13) = (   0.3333333  -0.3333333   0.3333333), wk =   0.1481481
        k(   14) = (   0.3333333  -0.3333333  -0.3333333), wk =   0.1481481

     Check: negative core charge=   -0.000012

     Initial potential from superposition of free atoms

     starting charge     137.9832, renormalised to     138.0000
     Starting wfcs are  102 randomized atomic wfcs +  154 random wfcs
     Checking if some PAW data can be deallocated...

     Self-consistent Calculation

     iteration #  1     ecut=    30.00 Ry     beta= 0.70
     Davidson diagonalization with overlap

     ethr =  1.00E-02,  avg # of iterations =  7.1

     total energy              =   -1269.07820854 Ry
     estimated scf accuracy    <       4.15397881 Ry

[...]

     total energy              =   -1270.86102502 Ry
     estimated scf accuracy    <       0.00000810 Ry

     iteration #  9     ecut=    30.00 Ry     beta= 0.70
     Davidson diagonalization with overlap

     ethr =  5.87E-09,  avg # of iterations =  1.1

     End of self-consistent calculation

          k = 0.0000 0.0000 0.0000 (  4369 PWs)   bands (ev):

  -116.9026 -71.0719 -71.0324 -71.0320 -43.2159 -41.6072 -32.1636 -20.3323
   -20.2805 -20.2772 -15.1623 -15.1440 -15.1362 -13.6984 -13.6533 -13.3522
   -13.3357 -13.1323 -12.1777 -12.1641 -11.6134 -11.5965 -11.5096 -11.1618
   -10.9204 -10.8304 -10.7855 -10.5272  -2.4482  -2.4049  -0.3149   0.3290
     0.5110   0.7014   0.8275   0.8764   1.2995   1.4010   1.4941   1.6883
     1.9107   2.1384   2.2190   2.3814   2.4143   2.4824   2.7147   2.8766
     3.1418   3.3360   3.5686   3.6610   3.7469   3.7672   3.9358   4.1448
     4.2262   4.3034   4.5207   4.6403   4.6417   4.6882   4.9465   5.1466
     5.1487   5.3390   5.4835   5.4951   5.7187  10.3724  11.2254  11.2473
    11.2558  12.5980  12.6198  12.9563  13.1066  13.1289  13.3046  13.4979
    14.1664  14.3477  14.8342  14.8432  15.0420  15.4087  15.5487  15.7321
    15.7393  15.9709  15.9753  16.1638  16.4873  16.7328  16.7806  17.0140
    17.1859  17.5628  17.7767  18.4414  18.5653  18.7802  19.3514  19.4069
    19.7204  19.9347  20.1257  20.3202  20.4798  20.5408  20.6683  20.9197
    21.2105  21.9563  22.0106  22.2610  22.5453  22.7264  23.2242  23.6027
    23.8622  23.9308  24.7051  24.9341  25.2775  25.2831  25.5115  25.6867
    25.9857  26.0793  26.6537  26.8388  27.0609  27.0886  27.4822  27.5933
    27.7586  28.0767  28.2067  28.2459  28.4314  28.8343  29.0233  29.3283
    29.4982  29.6986  30.1716  30.4290  30.7175  30.8784  31.1054  31.6653
    31.6946  32.0330  32.4086  32.4619  32.5694  32.6831  32.9020  33.1583
    33.2945  33.4607  33.5437  33.9956  34.1504  34.2641  34.3273  34.6258
    34.6459  34.8720  34.9164  35.1785  35.4830  35.5713  35.7743  35.8915
    36.0449  36.0463  36.2277  36.5924  37.0073  37.1310  37.3057  37.3537
    37.6202  38.0122  38.0402  38.5461  38.7761  38.8861  38.9131  39.1286
    39.1322  39.3619  39.8483  39.9590  40.0064  40.1644  40.2927  40.5195
    40.6171  40.9135  41.0059  41.3647  41.6372  41.7660  41.8143  42.0561
    42.0946  42.3771  42.7772  42.8183  42.9146  43.2439  43.4564  43.5241
    43.5799  43.7872  44.0059  44.1524  44.2934  44.6579  44.7433  44.9625
    44.9981  45.2861  45.3119  45.5794  45.7387  45.8161  46.3026  46.3906
    46.4309  46.6960  46.8824  47.0323  47.0393  47.1912  47.5077  47.5324
    47.7151  47.7298  48.1012  48.3828  48.5630  48.5818  49.0320  49.1748
    49.2288  49.3594  49.3926  49.5796  49.8660  49.9278  50.2291  50.2929

     occupation numbers
     1.0000   1.0000   1.0000   1.0000   1.0000   1.0000   1.0000   1.0000
     1.0000   1.0000   1.0000   1.0000   1.0000   1.0000   1.0000   1.0000
     1.0000   1.0000   1.0000   1.0000   1.0000   1.0000   1.0000   1.0000
     1.0000   1.0000   1.0000   1.0000   1.0000   1.0000   1.0000   1.0000
     1.0000   1.0000   1.0000   1.0000   1.0000   1.0000   1.0000   1.0000
     1.0000   1.0000   1.0000   1.0000   1.0000   1.0000   1.0000   1.0000
     1.0000   1.0000   1.0000   1.0000   1.0000   1.0000   1.0000   1.0000
     1.0000   1.0000   1.0000   1.0000   1.0000   1.0000   1.0000   1.0000
     1.0000   1.0000   1.0000   1.0000   1.0000   0.0000   0.0000   0.0000
     0.0000   0.0000   0.0000   0.0000   0.0000   0.0000   0.0000   0.0000
     0.0000   0.0000   0.0000   0.0000   0.0000   0.0000   0.0000   0.0000
     0.0000   0.0000   0.0000   0.0000   0.0000   0.0000   0.0000   0.0000
     0.0000   0.0000   0.0000   0.0000   0.0000   0.0000   0.0000   0.0000
     0.0000   0.0000   0.0000   0.0000   0.0000   0.0000   0.0000   0.0000
     0.0000   0.0000   0.0000   0.0000   0.0000   0.0000   0.0000   0.0000
     0.0000   0.0000   0.0000   0.0000   0.0000   0.0000   0.0000   0.0000
     0.0000   0.0000   0.0000   0.0000   0.0000   0.0000   0.0000   0.0000
     0.0000   0.0000   0.0000   0.0000   0.0000   0.0000   0.0000   0.0000
     0.0000   0.0000   0.0000   0.0000   0.0000   0.0000   0.0000   0.0000
     0.0000   0.0000   0.0000   0.0000   0.0000   0.0000   0.0000   0.0000
     0.0000   0.0000   0.0000   0.0000   0.0000   0.0000   0.0000   0.0000
     0.0000   0.0000   0.0000   0.0000   0.0000   0.0000   0.0000   0.0000
     0.0000   0.0000   0.0000   0.0000   0.0000   0.0000   0.0000   0.0000
     0.0000   0.0000   0.0000   0.0000   0.0000   0.0000   0.0000   0.0000
     0.0000   0.0000   0.0000   0.0000   0.0000   0.0000   0.0000   0.0000
     0.0000   0.0000   0.0000   0.0000   0.0000   0.0000   0.0000   0.0000
     0.0000   0.0000   0.0000   0.0000   0.0000   0.0000   0.0000   0.0000
     0.0000   0.0000   0.0000   0.0000   0.0000   0.0000   0.0000   0.0000
     0.0000   0.0000   0.0000   0.0000   0.0000   0.0000   0.0000   0.0000
     0.0000   0.0000   0.0000   0.0000   0.0000   0.0000   0.0000   0.0000
     0.0000   0.0000   0.0000   0.0000   0.0000   0.0000   0.0000   0.0000
     0.0000   0.0000   0.0000   0.0000   0.0000   0.0000   0.0000   0.0000

[...]

          k = 0.3333-0.3646-0.4381 (  4362 PWs)   bands (ev):

  -116.9022 -71.0683 -71.0331 -71.0316 -43.2158 -41.6072 -32.1635 -20.3342
   -20.2810 -20.2782 -15.1649 -15.1437 -15.1371 -13.6686 -13.6067 -13.4432
   -13.0113 -12.9221 -12.5826 -12.5114 -11.5508 -11.4790 -11.3848 -11.2217
   -10.9713 -10.9095 -10.7472 -10.5822  -1.8343  -1.7534  -0.5562  -0.3491
     0.5299   0.8112   1.0238   1.0843   1.3390   1.4241   1.6087   1.7563
     1.8455   2.0264   2.0928   2.2866   2.3912   2.5226   2.6768   2.8584
     2.9618   3.0447   3.3446   3.4284   3.5938   3.6825   3.8598   3.9670
     4.1372   4.3351   4.5378   4.7002   4.7248   4.8080   4.9024   5.0644
     5.1076   5.2287   5.3570   5.5001   5.7752  11.0861  11.2081  11.2464
    12.3480  12.5776  12.8492  12.9751  13.1321  13.2254  13.4925  13.6108
    14.0260  14.1676  14.4418  14.6543  15.0274  15.2136  15.5010  15.5790
    15.8193  16.0540  16.3256  16.3696  16.8074  16.8786  17.1346  17.3156
    17.4384  17.6010  17.8672  18.2264  18.4178  18.6356  18.9306  19.2688
    19.3745  19.5407  20.0363  20.3202  20.4523  20.5968  20.8325  21.1240
    21.2947  21.8922  22.0510  22.3692  22.5647  22.8982  23.0899  23.1578
    23.6495  23.9928  24.1175  24.4291  24.6926  24.8496  25.0822  25.3921
    25.7573  25.8878  26.1497  26.3191  26.7630  26.9364  27.0934  27.3581
    27.8806  28.0616  28.4706  28.6045  28.8842  29.1545  29.4720  29.5696
    29.7962  30.2672  30.4086  30.7592  30.8149  30.9981  31.3427  31.5116
    31.8215  31.9020  32.0931  32.2420  32.6025  32.7647  33.0204  33.0830
    33.2397  33.4162  33.5686  33.9731  34.2414  34.3751  34.5670  34.8638
    35.0414  35.3043  35.4799  35.6225  35.8471  35.9685  36.1050  36.2425
    36.4589  36.7072  36.8646  36.9503  37.3018  37.4211  37.6374  37.9154
    37.9743  38.1542  38.2893  38.4386  38.6742  38.8369  39.1276  39.1854
    39.3815  39.5231  39.6297  39.8751  40.0088  40.1626  40.3497  40.4328
    40.6553  40.9748  41.0306  41.1952  41.4138  41.5895  41.7594  41.9722
    42.1898  42.2605  42.3836  42.5757  42.7535  42.9932  43.1396  43.3907
    43.4236  43.6443  43.8718  44.0248  44.1558  44.2180  44.3486  44.7463
    44.8550  45.0154  45.1649  45.2801  45.5194  45.5952  45.7654  46.0648
    46.1903  46.3618  46.4951  46.6105  46.7357  46.8294  47.1932  47.4360
    47.4576  47.5961  47.9361  48.1149  48.3444  48.3909  48.6974  48.8413
    49.0466  49.1088  49.2958  49.4601  49.6190  49.8671  50.0625  50.1851

     occupation numbers
     1.0000   1.0000   1.0000   1.0000   1.0000   1.0000   1.0000   1.0000
     1.0000   1.0000   1.0000   1.0000   1.0000   1.0000   1.0000   1.0000
     1.0000   1.0000   1.0000   1.0000   1.0000   1.0000   1.0000   1.0000
     1.0000   1.0000   1.0000   1.0000   1.0000   1.0000   1.0000   1.0000
     1.0000   1.0000   1.0000   1.0000   1.0000   1.0000   1.0000   1.0000
     1.0000   1.0000   1.0000   1.0000   1.0000   1.0000   1.0000   1.0000
     1.0000   1.0000   1.0000   1.0000   1.0000   1.0000   1.0000   1.0000
     1.0000   1.0000   1.0000   1.0000   1.0000   1.0000   1.0000   1.0000
     1.0000   1.0000   1.0000   1.0000   1.0000   0.0000   0.0000   0.0000
     0.0000   0.0000   0.0000   0.0000   0.0000   0.0000   0.0000   0.0000
     0.0000   0.0000   0.0000   0.0000   0.0000   0.0000   0.0000   0.0000
     0.0000   0.0000   0.0000   0.0000   0.0000   0.0000   0.0000   0.0000
     0.0000   0.0000   0.0000   0.0000   0.0000   0.0000   0.0000   0.0000
     0.0000   0.0000   0.0000   0.0000   0.0000   0.0000   0.0000   0.0000
     0.0000   0.0000   0.0000   0.0000   0.0000   0.0000   0.0000   0.0000
     0.0000   0.0000   0.0000   0.0000   0.0000   0.0000   0.0000   0.0000
     0.0000   0.0000   0.0000   0.0000   0.0000   0.0000   0.0000   0.0000
     0.0000   0.0000   0.0000   0.0000   0.0000   0.0000   0.0000   0.0000
     0.0000   0.0000   0.0000   0.0000   0.0000   0.0000   0.0000   0.0000
     0.0000   0.0000   0.0000   0.0000   0.0000   0.0000   0.0000   0.0000
     0.0000   0.0000   0.0000   0.0000   0.0000   0.0000   0.0000   0.0000
     0.0000   0.0000   0.0000   0.0000   0.0000   0.0000   0.0000   0.0000
     0.0000   0.0000   0.0000   0.0000   0.0000   0.0000   0.0000   0.0000
     0.0000   0.0000   0.0000   0.0000   0.0000   0.0000   0.0000   0.0000
     0.0000   0.0000   0.0000   0.0000   0.0000   0.0000   0.0000   0.0000
     0.0000   0.0000   0.0000   0.0000   0.0000   0.0000   0.0000   0.0000
     0.0000   0.0000   0.0000   0.0000   0.0000   0.0000   0.0000   0.0000
     0.0000   0.0000   0.0000   0.0000   0.0000   0.0000   0.0000   0.0000
     0.0000   0.0000   0.0000   0.0000   0.0000   0.0000   0.0000   0.0000
     0.0000   0.0000   0.0000   0.0000   0.0000   0.0000   0.0000   0.0000
     0.0000   0.0000   0.0000   0.0000   0.0000   0.0000   0.0000   0.0000
     0.0000   0.0000   0.0000   0.0000   0.0000   0.0000   0.0000   0.0000

     highest occupied, lowest unoccupied level (ev):     5.8754   10.3724

!    total energy              =   -1270.86102681 Ry
     estimated scf accuracy    <       0.00000046 Ry

     The total energy is the sum of the following terms:
     one-electron contribution =    -759.38514315 Ry
     hartree contribution      =     450.23394108 Ry
     xc contribution           =    -196.23797167 Ry
     ewald contribution        =    -651.32043564 Ry
     one-center paw contrib.   =    -114.15141743 Ry
      -> PAW hartree energy AE =       0.00000000 Ry
      -> PAW hartree energy PS =       0.00000000 Ry
      -> PAW xc energy AE      =       0.00000000 Ry
      -> PAW xc energy PS      =       0.00000000 Ry
      -> total E_H with PAW    =     450.23394108 Ry
      -> total E_XC with PAW   =    -196.23797167 Ry

     convergence has been achieved in   9 iterations

     Writing all to output data dir bands_nm/myprefix.save/

     General routines

     Parallel routines

     PAW routines

   This run was terminated on:  17:45:22  16Jul2023

   JOB DONE.