     Program PWSCF v.7.1 starts on 16Jul2023 at 15:40:35

     Reading input from espresso_25688.pwi
Warning: card &CELL ignored
Warning: card / ignored

     Current dimensions of program PWSCF are:
     Max number of different atomic species (ntypx) = 10
     Max number of k-points (npk) =  40000
     Max angular momentum in pseudopotentials (lmaxx) =  4
     file O.pbe-n-kjpaw_psl.0.1.UPF: wavefunction(s)  2P renormalized
     Message from routine setup:
     using ibrav=0 with symmetry is DISCOURAGED, use correct ibrav instead

     K-points division:     npool     =       2
     R & G space division:  proc/nbgrp/npool/nimage =       4
     Subspace diagonalization in iterative solution of the eigenvalue problem:
     a serial algorithm will be used

     Using Slab Decomposition

     bravais-lattice index     =            0
     lattice parameter (alat)  =       9.8328  a.u.
     unit-cell volume          =    1201.4457 (a.u.)^3
     number of atoms/cell      =           16
     number of atomic types    =            5
     number of electrons       =       106.00
     number of Kohn-Sham states=           64
     kinetic-energy cutoff     =      30.0000  Ry
     charge density cutoff     =     240.0000  Ry
     scf convergence threshold =      1.0E-06
     mixing beta               =       0.7000
     number of iterations used =            8  plain     mixing
     Exchange-correlation=  SLA  PW   PBX  PBC
                           (   1   4   3   4   0   0   0)

     celldm(1)=   9.832821  celldm(2)=   0.000000  celldm(3)=   0.000000
     celldm(4)=   0.000000  celldm(5)=   0.000000  celldm(6)=   0.000000

     crystal axes: (cart. coord. in units of alat)
               a(1) = (   1.000000   0.000000   0.000000 )
               a(2) = (  -0.145173   1.018882   0.000000 )
               a(3) = (  -0.441328  -0.475828   1.240354 )

     reciprocal axes: (cart. coord. in units 2 pi/alat)
               b(1) = (  1.000000  0.142482  0.410467 )
               b(2) = (  0.000000  0.981468  0.376513 )
               b(3) = (  0.000000  0.000000  0.806221 )

     PseudoPot. # 1 for Li read from file:
     /lustre07/scratch/pragov/crystal_structure_design/utils/SSSP/li_pbe_v1.4.uspp.F.UPF
     MD5 check sum: e912e257baa3777c20ea3d68f190483c
     Pseudo is Ultrasoft, Zval =  3.0
     Generated by new atomic code, or converted to UPF format
     Using radial grid of  751 points,  5 beta functions with:
                l(1) =   0
                l(2) =   0
                l(3) =   0
                l(4) =   1
                l(5) =   1
     Q(r) pseudized with 10 coefficients,  rinner =    1.150   1.150   1.150

     PseudoPot. # 2 for Cr read from file:
     /lustre07/scratch/pragov/crystal_structure_design/utils/SSSP/cr_pbe_v1.5.uspp.F.UPF
     MD5 check sum: 0d52af634a40206e4dee301ad30da4bf
     Pseudo is Ultrasoft + core correction, Zval = 14.0
     Generated by new atomic code, or converted to UPF format
     Using radial grid of  857 points,  6 beta functions with:
                l(1) =   0
                l(2) =   0
                l(3) =   1
                l(4) =   1
                l(5) =   2
                l(6) =   2
     Q(r) pseudized with  8 coefficients,  rinner =    0.950   0.950   0.950
                                                       0.950   0.950

     PseudoPot. # 3 for P  read from file:
     /lustre07/scratch/pragov/crystal_structure_design/utils/SSSP/P.pbe-n-rrkjus_psl.1.0.0.UPF
     MD5 check sum: 8b930f418f0a4573dca56cd030ffe088
     Pseudo is Ultrasoft + core correction, Zval =  5.0
     Generated using "atomic" code by A. Dal Corso  v.5.1
     Using radial grid of 1147 points,  6 beta functions with:
                l(1) =   0
                l(2) =   0
                l(3) =   1
                l(4) =   1
                l(5) =   2
                l(6) =   2
     Q(r) pseudized with 0 coefficients

     PseudoPot. # 4 for O  read from file:
     /lustre07/scratch/pragov/crystal_structure_design/utils/SSSP/O.pbe-n-kjpaw_psl.0.1.UPF
     MD5 check sum: 0234752ac141de4415c5fc33072bef88
     Pseudo is Projector augmented-wave + core cor, Zval =  6.0
     Generated using "atomic" code by A. Dal Corso  v.5.0.99 svn rev. 10869
     Shape of augmentation charge: BESSEL
     Using radial grid of 1095 points,  4 beta functions with:
                l(1) =   0
                l(2) =   0
                l(3) =   1
                l(4) =   1
     Q(r) pseudized with 0 coefficients

     PseudoPot. # 5 for F  read from file:
     /lustre07/scratch/pragov/crystal_structure_design/utils/SSSP/f_pbe_v1.4.uspp.F.UPF
     MD5 check sum: 4c38b6a325caf53ec0e86aed9459de46
     Pseudo is Ultrasoft, Zval =  7.0
     Generated by new atomic code, or converted to UPF format
     Using radial grid of  799 points,  4 beta functions with:
                l(1) =   0
                l(2) =   0
                l(3) =   1
                l(4) =   1
     Q(r) pseudized with  8 coefficients,  rinner =    0.950   0.950   0.950

     atomic species   valence    mass     pseudopotential
        Li             3.00     6.94000     Li( 1.00)
        Cr            14.00    51.99610     Cr( 1.00)
        P              5.00    30.97376     P ( 1.00)
        O              6.00    15.99900     O ( 1.00)
        F              7.00    18.99840     F ( 1.00)

      2 Sym. Ops., with inversion, found

                                    s                        frac. trans.

      isym =  1     identity

 cryst.   s( 1) = (     1          0          0      )
                  (     0          1          0      )
                  (     0          0          1      )

 cart.    s( 1) = (  1.0000000 -0.0000000  0.0000000 )
                  (  0.0000000  1.0000000  0.0000000 )
                  (  0.0000000  0.0000000  1.0000000 )

      isym =  2     inversion

 cryst.   s( 2) = (    -1          0          0      )
                  (     0         -1          0      )
                  (     0          0         -1      )

 cart.    s( 2) = ( -1.0000000  0.0000000 -0.0000000 )
                  (  0.0000000 -1.0000000  0.0000000 )
                  (  0.0000000  0.0000000 -1.0000000 )

   Cartesian axes

     site n.     atom                  positions (alat units)
         1           Li  tau(   1) = (   0.0988204   0.5369269   0.2350930  )
         2           Li  tau(   2) = (   0.3146789   0.0061274   1.0052612  )
         3           Cr  tau(   3) = (   0.0000000   0.0000000   0.0000000  )
         4           Cr  tau(   4) = (  -0.2206640  -0.2379140   0.6201771  )
         5           P   tau(   5) = (  -0.1070176   0.2924915   0.9442618  )
         6           P   tau(   6) = (   0.5205169   0.2505628   0.2960924  )
         7           O   tau(   7) = (  -0.0322226   0.0338480   0.8153505  )
         8           O   tau(   8) = (   0.4457219   0.5092063   0.4250036  )
         9           O   tau(   9) = (   0.2970313   0.2107787   0.1025475  )
        10           O   tau(  10) = (   0.5408954   0.0292658   0.4888980  )
        11           O   tau(  11) = (   0.1164680   0.3322756   1.1378066  )
        12           O   tau(  12) = (  -0.1273961   0.5137885   0.7514562  )
        13           O   tau(  13) = (  -0.3649442   0.2570931   1.0989054  )
        14           O   tau(  14) = (   0.7784435   0.2859612   0.1414487  )
        15           F   tau(  15) = (  -0.1255267   0.8246553   0.3264228  )
        16           F   tau(  16) = (   0.5390261  -0.2816010   0.9139314  )

   Crystallographic axes

     site n.     atom                  positions (cryst. coord.)
         1           Li  tau(   1) = (  0.2718210  0.6154920  0.1895370  )
         2           Li  tau(   2) = (  0.7281790  0.3845080  0.8104630  )
         3           Cr  tau(   3) = (  0.0000000  0.0000000  0.0000000  )
         4           Cr  tau(   4) = (  0.0000000  0.0000000  0.5000000  )
         5           P   tau(   5) = (  0.3222460  0.6425980  0.7612840  )
         6           P   tau(   6) = (  0.6777540  0.3574020  0.2387160  )
         7           O   tau(   7) = (  0.3072750  0.3402110  0.6573530  )
         8           O   tau(   8) = (  0.6927250  0.6597890  0.3426470  )
         9           O   tau(   9) = (  0.3691560  0.2454830  0.0826760  )
        10           O   tau(  10) = (  0.7457420  0.2128000  0.3941600  )
        11           O   tau(  11) = (  0.6308440  0.7545170  0.9173240  )
        12           O   tau(  12) = (  0.2542580  0.7872000  0.6058400  )
        13           O   tau(  13) = (  0.1227520  0.6660810  0.8859610  )
        14           O   tau(  14) = (  0.8772480  0.3339190  0.1140390  )
        15           F   tau(  15) = (  0.1259580  0.9322750  0.2631690  )
        16           F   tau(  16) = (  0.8740420  0.0677250  0.7368310  )

     number of k points=    14
                       cart. coord. in units 2pi/alat
        k(    1) = (   0.0000000   0.0000000   0.0000000), wk =   0.0740741
        k(    2) = (   0.0000000   0.0000000   0.2687404), wk =   0.1481481
        k(    3) = (   0.0000000   0.3271559   0.1255044), wk =   0.1481481
        k(    4) = (   0.0000000   0.3271559   0.3942449), wk =   0.1481481
        k(    5) = (   0.0000000   0.3271559  -0.1432360), wk =   0.1481481
        k(    6) = (   0.3333333   0.0474941   0.1368225), wk =   0.1481481
        k(    7) = (   0.3333333   0.0474941   0.4055629), wk =   0.1481481
        k(    8) = (   0.3333333   0.0474941  -0.1319180), wk =   0.1481481
        k(    9) = (   0.3333333   0.3746500   0.2623269), wk =   0.1481481
        k(   10) = (   0.3333333   0.3746500   0.5310674), wk =   0.1481481
        k(   11) = (   0.3333333   0.3746500  -0.0064135), wk =   0.1481481
        k(   12) = (   0.3333333  -0.2796618   0.0113181), wk =   0.1481481
        k(   13) = (   0.3333333  -0.2796618   0.2800585), wk =   0.1481481
        k(   14) = (   0.3333333  -0.2796618  -0.2574224), wk =   0.1481481

                       cryst. coord.
        k(    1) = (   0.0000000   0.0000000   0.0000000), wk =   0.0740741
        k(    2) = (   0.0000000   0.0000000   0.3333333), wk =   0.1481481
        k(    3) = (   0.0000000   0.3333333  -0.0000000), wk =   0.1481481
        k(    4) = (   0.0000000   0.3333333   0.3333333), wk =   0.1481481
        k(    5) = (   0.0000000   0.3333333  -0.3333333), wk =   0.1481481
        k(    6) = (   0.3333333   0.0000000   0.0000000), wk =   0.1481481
        k(    7) = (   0.3333333   0.0000000   0.3333333), wk =   0.1481481
        k(    8) = (   0.3333333   0.0000000  -0.3333333), wk =   0.1481481
        k(    9) = (   0.3333333   0.3333333   0.0000000), wk =   0.1481481
        k(   10) = (   0.3333333   0.3333333   0.3333333), wk =   0.1481481
        k(   11) = (   0.3333333   0.3333333  -0.3333333), wk =   0.1481481
        k(   12) = (   0.3333333  -0.3333333   0.0000000), wk =   0.1481481
        k(   13) = (   0.3333333  -0.3333333   0.3333333), wk =   0.1481481
        k(   14) = (   0.3333333  -0.3333333  -0.3333333), wk =   0.1481481

     Check: negative core charge=   -0.000014

     Initial potential from superposition of free atoms

     starting charge     103.0982, renormalised to     106.0000

     negative rho (up, down):  4.400E-03 0.000E+00
     Starting wfcs are   78 randomized atomic wfcs
     Checking if some PAW data can be deallocated...

     Self-consistent Calculation

     iteration #  1     ecut=    30.00 Ry     beta= 0.70
     Davidson diagonalization with overlap

     ethr =  1.00E-02,  avg # of iterations =  2.4

     negative rho (up, down):  4.997E-03 0.000E+00

     total energy              =    -831.68816976 Ry
     estimated scf accuracy    <       9.35607698 Ry

[...]

     total energy              =    -839.00175785 Ry
     estimated scf accuracy    <       0.00000114 Ry

     iteration # 41     ecut=    30.00 Ry     beta= 0.70
     Davidson diagonalization with overlap

     ethr =  1.08E-09,  avg # of iterations =  1.0

     negative rho (up, down):  4.238E-03 0.000E+00

     End of self-consistent calculation

          k = 0.0000 0.0000 0.0000 (  3343 PWs)   bands (ev):

   -65.7348 -65.6747 -38.5481 -38.5448 -37.1925 -37.1796 -37.0320 -36.9534
   -36.9459 -36.8813 -17.9903 -17.7586 -15.9089 -15.6412 -13.4781 -13.3924
   -13.3816 -13.2590 -13.1579 -13.1313  -3.7500  -3.0973  -1.6769  -1.1906
    -1.0675  -0.8532  -0.7258  -0.4596  -0.1523   0.1193   0.1580   0.4530
     0.5874   1.1355   1.1614   1.2417   1.5903   1.8551   1.8801   2.1125
     2.4362   2.8234   2.9068   3.1259   3.2716   3.4740   3.7163   4.0316
     4.0887   4.1551   6.6069   6.6621   6.7534   6.8536   6.8670   7.0187
     8.0440   8.7912   9.0517   9.1882  10.5421  13.4559  13.5582  13.6392

     occupation numbers
     1.0000   1.0000   1.0000   1.0000   1.0000   1.0000   1.0000   1.0000
     1.0000   1.0000   1.0000   1.0000   1.0000   1.0000   1.0000   1.0000
     1.0000   1.0000   1.0000   1.0000   1.0000   1.0000   1.0000   1.0000
     1.0000   1.0000   1.0000   1.0000   1.0000   1.0000   1.0000   1.0000
     1.0000   1.0000   1.0000   1.0000   1.0000   1.0000   1.0000   1.0000
     1.0000   1.0000   1.0000   1.0000   1.0000   1.0000   1.0000   1.0000
     1.0000   1.0000   1.0000   1.0000   1.0000   0.0000   0.0000   0.0000
     0.0000   0.0000   0.0000   0.0000   0.0000   0.0000   0.0000   0.0000

[...]

          k = 0.3333-0.2797-0.2574 (  3336 PWs)   bands (ev):

   -65.7347 -65.6747 -38.5481 -38.5447 -37.1915 -37.1789 -37.0313 -36.9517
   -36.9452 -36.8837 -17.9273 -17.8156 -15.7819 -15.6863 -13.5583 -13.4691
   -13.3848 -13.2755 -13.1789 -13.1350  -3.1891  -3.1052  -1.4058  -1.1243
    -1.0106  -0.8255  -0.5984  -0.5007  -0.3258   0.0007   0.2475   0.4589
     0.6762   0.8057   1.2859   1.5463   1.5692   1.8223   2.0385   2.1348
     2.3924   2.5656   2.5990   2.7237   3.0500   3.4233   3.5084   3.6075
     3.7898   4.0095   6.7831   6.8386   6.8658   6.9406   6.9618   7.0058
     8.2943   8.5418   8.7072   8.9082  12.4552  13.2539  13.7196  13.8014

     occupation numbers
     1.0000   1.0000   1.0000   1.0000   1.0000   1.0000   1.0000   1.0000
     1.0000   1.0000   1.0000   1.0000   1.0000   1.0000   1.0000   1.0000
     1.0000   1.0000   1.0000   1.0000   1.0000   1.0000   1.0000   1.0000
     1.0000   1.0000   1.0000   1.0000   1.0000   1.0000   1.0000   1.0000
     1.0000   1.0000   1.0000   1.0000   1.0000   1.0000   1.0000   1.0000
     1.0000   1.0000   1.0000   1.0000   1.0000   1.0000   1.0000   1.0000
     1.0000   1.0000   1.0000   1.0000   1.0000   0.0000   0.0000   0.0000
     0.0000   0.0000   0.0000   0.0000   0.0000   0.0000   0.0000   0.0000

     highest occupied, lowest unoccupied level (ev):     6.8877    6.8401

!    total energy              =    -839.00175776 Ry
     estimated scf accuracy    <       0.00000011 Ry

     The total energy is the sum of the following terms:
     one-electron contribution =    -438.18319261 Ry
     hartree contribution      =     266.31843742 Ry
     xc contribution           =    -139.34311389 Ry
     ewald contribution        =    -451.66471769 Ry
     one-center paw contrib.   =     -76.12917100 Ry
      -> PAW hartree energy AE =       0.00000000 Ry
      -> PAW hartree energy PS =       0.00000000 Ry
      -> PAW xc energy AE      =       0.00000000 Ry
      -> PAW xc energy PS      =       0.00000000 Ry
      -> total E_H with PAW    =     266.31843742 Ry
      -> total E_XC with PAW   =    -139.34311389 Ry

     convergence has been achieved in  41 iterations

     Writing all to output data dir bands_nm/myprefix.save/

     General routines

     Parallel routines

     PAW routines

   This run was terminated on:  15:41:13  16Jul2023

   JOB DONE.