     Program PWSCF v.7.1 starts on 14Jul2023 at 13:50:18

     Reading input from espresso_18542.pwi
Warning: card &CELL ignored
Warning: card / ignored

     Current dimensions of program PWSCF are:
     Max number of different atomic species (ntypx) = 10
     Max number of k-points (npk) =  40000
     Max angular momentum in pseudopotentials (lmaxx) =  4
     Message from routine setup:
     using ibrav=0 with symmetry is DISCOURAGED, use correct ibrav instead

     K-points division:     npool     =       2
     R & G space division:  proc/nbgrp/npool/nimage =       4
     Subspace diagonalization in iterative solution of the eigenvalue problem:
     a serial algorithm will be used

     Using Slab Decomposition

     bravais-lattice index     =            0
     lattice parameter (alat)  =      12.1696  a.u.
     unit-cell volume          =    1254.2188 (a.u.)^3
     number of atoms/cell      =            9
     number of atomic types    =            3
     number of electrons       =        74.00
     number of Kohn-Sham states=           64
     kinetic-energy cutoff     =      30.0000  Ry
     charge density cutoff     =     240.0000  Ry
     scf convergence threshold =      1.0E-06
     mixing beta               =       0.7000
     number of iterations used =            8  plain     mixing
     Exchange-correlation=  SLA  PW   PBX  PBC
                           (   1   4   3   4   0   0   0)

     celldm(1)=  12.169619  celldm(2)=   0.000000  celldm(3)=   0.000000
     celldm(4)=   0.000000  celldm(5)=   0.000000  celldm(6)=   0.000000

     crystal axes: (cart. coord. in units of alat)
               a(1) = (   1.000000   0.000000   0.000000 )
               a(2) = (  -0.500000   0.866025   0.000000 )
               a(3) = (   0.000000   0.000000   0.803548 )

     reciprocal axes: (cart. coord. in units 2 pi/alat)
               b(1) = (  1.000000  0.577350  0.000000 )
               b(2) = (  0.000000  1.154700  0.000000 )
               b(3) = (  0.000000  0.000000  1.244481 )

     PseudoPot. # 1 for Cs read from file:
     /lustre07/scratch/pragov/crystal_structure_design/utils/SSSP/Cs_pbe_v1.uspp.F.UPF
     MD5 check sum: 3476d69cb178dfad3ffaa59df4e07ca4
     Pseudo is Ultrasoft + core correction, Zval =  9.0
     Generated by new atomic code, or converted to UPF format
     Using radial grid of  905 points,  6 beta functions with:
                l(1) =   0
                l(2) =   0
                l(3) =   1
                l(4) =   1
                l(5) =   2
                l(6) =   2
     Q(r) pseudized with  6 coefficients,  rinner =    1.500   1.500   1.500
                                                       1.500   1.500

     PseudoPot. # 2 for Sn read from file:
     /lustre07/scratch/pragov/crystal_structure_design/utils/SSSP/Sn_pbe_v1.uspp.F.UPF
     MD5 check sum: 4cf58ce39ec5d5d420df3dd08604eb00
     Pseudo is Ultrasoft + core correction, Zval = 14.0
     Generated by new atomic code, or converted to UPF format
     Using radial grid of  891 points,  6 beta functions with:
                l(1) =   0
                l(2) =   0
                l(3) =   1
                l(4) =   1
                l(5) =   2
                l(6) =   2
     Q(r) pseudized with  6 coefficients,  rinner =    1.200   1.200   1.200
                                                       1.200   1.200

     PseudoPot. # 3 for F  read from file:
     /lustre07/scratch/pragov/crystal_structure_design/utils/SSSP/f_pbe_v1.4.uspp.F.UPF
     MD5 check sum: 4c38b6a325caf53ec0e86aed9459de46
     Pseudo is Ultrasoft, Zval =  7.0
     Generated by new atomic code, or converted to UPF format
     Using radial grid of  799 points,  4 beta functions with:
                l(1) =   0
                l(2) =   0
                l(3) =   1
                l(4) =   1
     Q(r) pseudized with  8 coefficients,  rinner =    0.950   0.950   0.950

     atomic species   valence    mass     pseudopotential
        Cs             9.00   132.90545     Cs( 1.00)
        Sn            14.00   118.71000     Sn( 1.00)
        F              7.00    18.99840     F ( 1.00)

     12 Sym. Ops., with inversion, found

                                    s                        frac. trans.

      isym =  1     identity

 cryst.   s( 1) = (     1          0          0      )
                  (     0          1          0      )
                  (     0          0          1      )

 cart.    s( 1) = (  1.0000000  0.0000000  0.0000000 )
                  (  0.0000000  1.0000000  0.0000000 )
                  (  0.0000000  0.0000000  1.0000000 )

      isym =  2     180 deg rotation - cart. axis [1,0,0]

[...]

      isym =  3     120 deg rotation - cryst. axis [0,0,1]

[...]

      isym =  6     180 deg rotation - cryst. axis [1,1,0]

[...]

      isym =  7     inversion

[...]

      isym =  8     inv. 180 deg rotation - cart. axis [1,0,0]

[...]

      isym =  9     inv. 120 deg rotation - cryst. axis [0,0,1]

 cryst.   s( 9) = (     0         -1          0      )
                  (     1          1          0      )
                  (     0          0         -1      )

 cart.    s( 9) = (  0.4999999  0.8660253  0.0000000 )
                  ( -0.8660255  0.5000001  0.0000000 )
                  (  0.0000000  0.0000000 -1.0000000 )

[...]

 cryst.   s(10) = (     1          1          0      )
                  (    -1          0          0      )
                  (     0          0         -1      )

 cart.    s(10) = (  0.5000001 -0.8660253  0.0000000 )
                  (  0.8660255  0.4999999  0.0000000 )
                  (  0.0000000  0.0000000 -1.0000000 )

[...]

      isym = 12     inv. 180 deg rotation - cryst. axis [1,1,0]

 cryst.   s(12) = (     0         -1          0      )
                  (    -1          0          0      )
                  (     0          0          1      )

 cart.    s(12) = (  0.4999999 -0.8660255  0.0000000 )
                  ( -0.8660255 -0.4999999  0.0000000 )
                  (  0.0000000  0.0000000  1.0000000 )

   Cartesian axes

     site n.     atom                  positions (alat units)
         1           Cs  tau(   1) = (   0.5000005   0.2886749   0.5579273  )
         2           Cs  tau(   2) = (  -0.0000004   0.5773506   0.2456204  )
         3           Sn  tau(   3) = (   0.0000000   0.0000000   0.0000000  )
         4           F   tau(   4) = (   0.2256860   0.1303005   0.1727620  )
         5           F   tau(   5) = (   0.4999996   0.6054254   0.1727620  )
         6           F   tau(   6) = (   0.7743130   0.1303005   0.1727620  )
         7           F   tau(   7) = (   0.2743141   0.7357250   0.6307858  )
         8           F   tau(   8) = (   0.0000005   0.2606001   0.6307858  )
         9           F   tau(   9) = (  -0.2743129   0.7357250   0.6307858  )

   Crystallographic axes

     site n.     atom                  positions (cryst. coord.)
         1           Cs  tau(   1) = (  0.6666670  0.3333330  0.6943300  )
         2           Cs  tau(   2) = (  0.3333330  0.6666670  0.3056700  )
         3           Sn  tau(   3) = (  0.0000000  0.0000000  0.0000000  )
         4           F   tau(   4) = (  0.3009150  0.1504580  0.2149990  )
         5           F   tau(   5) = (  0.8495420  0.6990850  0.2149990  )
         6           F   tau(   6) = (  0.8495420  0.1504580  0.2149990  )
         7           F   tau(   7) = (  0.6990850  0.8495420  0.7850010  )
         8           F   tau(   8) = (  0.1504580  0.3009150  0.7850010  )
         9           F   tau(   9) = (  0.1504580  0.8495420  0.7850010  )

     number of k points=     7
                       cart. coord. in units 2pi/alat
        k(    1) = (   0.0000000   0.0000000   0.0000000), wk =   0.0740741
        k(    2) = (   0.0000000   0.0000000   0.4148271), wk =   0.1481481
        k(    3) = (   0.0000000   0.3849001   0.0000000), wk =   0.4444444
        k(    4) = (   0.0000000   0.3849001   0.4148271), wk =   0.4444444
        k(    5) = (   0.3333333   0.5773502   0.0000000), wk =   0.1481481
        k(    6) = (   0.3333333   0.5773502   0.4148271), wk =   0.2962963
        k(    7) = (   0.0000000   0.3849001  -0.4148271), wk =   0.4444444

                       cryst. coord.
        k(    1) = (   0.0000000   0.0000000   0.0000000), wk =   0.0740741
        k(    2) = (   0.0000000   0.0000000   0.3333333), wk =   0.1481481
        k(    3) = (   0.0000000   0.3333333   0.0000000), wk =   0.4444444
        k(    4) = (   0.0000000   0.3333333   0.3333333), wk =   0.4444444
        k(    5) = (   0.3333333   0.3333333   0.0000000), wk =   0.1481481
        k(    6) = (   0.3333333   0.3333333   0.3333333), wk =   0.2962963
        k(    7) = (   0.0000000   0.3333333  -0.3333333), wk =   0.4444444

     Initial potential from superposition of free atoms

     starting charge      72.9212, renormalised to      74.0000
     Starting wfcs are   59 randomized atomic wfcs +    5 random wfcs

     Self-consistent Calculation

     iteration #  1     ecut=    30.00 Ry     beta= 0.70
     Davidson diagonalization with overlap

     ethr =  1.00E-02,  avg # of iterations =  6.7

     Threshold (ethr) on eigenvalues was too large:
     Diagonalizing with lowered threshold

     Davidson diagonalization with overlap

[...]

     total energy              =    -581.55018948 Ry
     estimated scf accuracy    <       0.69691689 Ry

[...]

     total energy              =    -581.84370246 Ry
     estimated scf accuracy    <       0.00001164 Ry

     iteration #  6     ecut=    30.00 Ry     beta= 0.70
     Davidson diagonalization with overlap

     ethr =  1.57E-08,  avg # of iterations =  3.6

     End of self-consistent calculation

          k = 0.0000 0.0000 0.0000 (  3485 PWs)   bands (ev):

   -19.2333 -19.2333 -18.9032 -18.4119 -18.4118 -18.3279 -16.9957 -16.9905
   -16.9905 -15.8964 -15.8964 -15.8725 -15.8238  -3.8139  -3.1082  -3.1082
    -2.6812  -2.6575  -2.6575  -2.5847  -1.2137  -1.2136  -1.1740   0.1153
     0.4105   0.4105   0.6041   0.6536   0.6536   0.6588   0.6588   0.8574
     0.8574   0.9958   1.1433   1.1913   1.1913   6.5008   9.9849  10.6213
    10.7588  10.7588  10.9537  10.9537  11.6748  11.6749  11.9341  13.0776
    13.0776  13.2476  14.6690  14.9553  14.9553  15.1733  15.8858  15.8858
    16.0608  17.1432  17.1432  18.7594  18.7596  18.7597  19.1225  19.3637

     occupation numbers
     1.0000   1.0000   1.0000   1.0000   1.0000   1.0000   1.0000   1.0000
     1.0000   1.0000   1.0000   1.0000   1.0000   1.0000   1.0000   1.0000
     1.0000   1.0000   1.0000   1.0000   1.0000   1.0000   1.0000   1.0000
     1.0000   1.0000   1.0000   1.0000   1.0000   1.0000   1.0000   1.0000
     1.0000   1.0000   1.0000   1.0000   1.0000   0.0000   0.0000   0.0000
     0.0000   0.0000   0.0000   0.0000   0.0000   0.0000   0.0000   0.0000
     0.0000   0.0000   0.0000   0.0000   0.0000   0.0000   0.0000   0.0000
     0.0000   0.0000   0.0000   0.0000   0.0000   0.0000   0.0000   0.0000

[...]

          k = 0.0000 0.3849-0.4148 (  3475 PWs)   bands (ev):

   -19.2483 -19.2409 -18.8468 -18.4156 -18.3989 -18.3496 -16.9942 -16.9911
   -16.9905 -15.9559 -15.9023 -15.8433 -15.8255  -3.6748  -3.0329  -3.0061
    -2.9323  -2.7359  -2.6697  -2.4939  -1.1715  -1.1138  -0.9913   0.0962
     0.2906   0.3144   0.5006   0.5901   0.5979   0.6033   0.7345   0.7437
     0.8070   0.8949   1.0522   1.1258   1.1809   7.2616  10.2217  10.3678
    10.8809  10.9763  11.1542  11.3130  12.0101  12.5119  12.5837  13.0201
    13.2445  13.4619  13.5690  14.1852  14.4597  15.1838  15.8462  16.2016
    16.4905  17.1670  17.3721  17.4893  17.9449  18.1072  18.2699  18.9662

     occupation numbers
     1.0000   1.0000   1.0000   1.0000   1.0000   1.0000   1.0000   1.0000
     1.0000   1.0000   1.0000   1.0000   1.0000   1.0000   1.0000   1.0000
     1.0000   1.0000   1.0000   1.0000   1.0000   1.0000   1.0000   1.0000
     1.0000   1.0000   1.0000   1.0000   1.0000   1.0000   1.0000   1.0000
     1.0000   1.0000   1.0000   1.0000   1.0000   0.0000   0.0000   0.0000
     0.0000   0.0000   0.0000   0.0000   0.0000   0.0000   0.0000   0.0000
     0.0000   0.0000   0.0000   0.0000   0.0000   0.0000   0.0000   0.0000
     0.0000   0.0000   0.0000   0.0000   0.0000   0.0000   0.0000   0.0000

     highest occupied, lowest unoccupied level (ev):     1.1913    6.5008

!    total energy              =    -581.84370694 Ry
     estimated scf accuracy    <       0.00000053 Ry

     The total energy is the sum of the following terms:
     one-electron contribution =    -325.01935375 Ry
     hartree contribution      =     204.33268788 Ry
     xc contribution           =    -164.59109503 Ry
     ewald contribution        =    -296.56594604 Ry

     convergence has been achieved in   6 iterations

     Writing all to output data dir bands_nm/myprefix.save/

     General routines

     Parallel routines

   This run was terminated on:  13:50:36  14Jul2023

   JOB DONE.