     Program PWSCF v.7.1 starts on 13Jul2023 at  7: 2:57

     Reading input from espresso_3151.pwi
Warning: card &CELL ignored
Warning: card / ignored

     Current dimensions of program PWSCF are:
     Max number of different atomic species (ntypx) = 10
     Max number of k-points (npk) =  40000
     Max angular momentum in pseudopotentials (lmaxx) =  4
     file O.pbe-n-kjpaw_psl.0.1.UPF: wavefunction(s)  2P renormalized
     Found identity + ( -0.0000  0.0000  0.5000) symmetry
     This is a supercell, fractional translations are disabled

     K-points division:     npool     =       2
     R & G space division:  proc/nbgrp/npool/nimage =       8
     Subspace diagonalization in iterative solution of the eigenvalue problem:
     a serial algorithm will be used

     Using Slab Decomposition

     bravais-lattice index     =            0
     lattice parameter (alat)  =       6.0540  a.u.
     unit-cell volume          =     614.8533 (a.u.)^3
     number of atoms/cell      =            8
     number of atomic types    =            2
     number of electrons       =        84.00
     number of Kohn-Sham states=           64
     kinetic-energy cutoff     =      30.0000  Ry
     charge density cutoff     =     240.0000  Ry
     scf convergence threshold =      1.0E-06
     mixing beta               =       0.7000
     number of iterations used =            8  plain     mixing
     Exchange-correlation= SLA  PW   PBX  PBC
                           (   1   4   3   4   0   0   0)

     celldm(1)=   6.054015  celldm(2)=   0.000000  celldm(3)=   0.000000
     celldm(4)=   0.000000  celldm(5)=   0.000000  celldm(6)=   0.000000

     crystal axes: (cart. coord. in units of alat)
               a(1) = (   1.000000   0.000000   0.000000 )
               a(2) = (   0.000000   1.401236   0.000000 )
               a(3) = (  -0.000001   0.000001   1.977559 )

     reciprocal axes: (cart. coord. in units 2 pi/alat)
               b(1) = (  1.000000  0.000000  0.000000 )
               b(2) = (  0.000000  0.713655 -0.000000 )
               b(3) = (  0.000000  0.000000  0.505674 )

     PseudoPot. # 1 for Mn read from file:
     /lustre07/scratch/pragov/crystal_structure_design/utils/SSSP/mn_pbe_v1.5.uspp.F.UPF
     MD5 check sum: 82ef2b46521d7a7d9e736dc3972e4928
     Pseudo is Ultrasoft + core correction, Zval = 15.0
     Generated by new atomic code, or converted to UPF format
     Using radial grid of  859 points,  6 beta functions with:
                l(1) =   0
                l(2) =   0
                l(3) =   1
                l(4) =   1
                l(5) =   2
                l(6) =   2
     Q(r) pseudized with  8 coefficients,  rinner =    0.950   0.950   0.950
                                                       0.950   0.950

     PseudoPot. # 2 for O  read from file:
     /lustre07/scratch/pragov/crystal_structure_design/utils/SSSP/O.pbe-n-kjpaw_psl.0.1.UPF
     MD5 check sum: 0234752ac141de4415c5fc33072bef88
     Pseudo is Projector augmented-wave + core cor, Zval =  6.0
     Generated using "atomic" code by A. Dal Corso  v.5.0.99 svn rev. 10869
     Shape of augmentation charge: BESSEL
     Using radial grid of 1095 points,  4 beta functions with:
                l(1) =   0
                l(2) =   0
                l(3) =   1
                l(4) =   1
     Q(r) pseudized with 0 coefficients

     atomic species   valence    mass     pseudopotential
        Mn            15.00    54.93804     Mn( 1.00)
        O              6.00    15.99900     O ( 1.00)

     No symmetry found

                                    s                        frac. trans.

      isym =  1     identity

 cryst.   s( 1) = (     1          0          0      )
                  (     0          1          0      )
                  (     0          0          1      )

 cart.    s( 1) = (  1.0000000  0.0000000  0.0000000 )
                  (  0.0000000  1.0000000  0.0000000 )
                  (  0.0000000  0.0000000  1.0000000 )

   Cartesian axes

     site n.     atom                  positions (alat units)
         1           Mn  tau(   1) = (   0.5000015   0.7006161   1.4716541  )
         2           Mn  tau(   2) = (   0.0000030   0.0000028   0.0115153  )
         3           Mn  tau(   3) = (   0.4999988   0.7006185   0.4828725  )
         4           Mn  tau(   4) = (   0.9999967   1.4012356   1.0002969  )
         5           O   tau(   5) = (  -0.0000003   0.7006187   0.9806894  )
         6           O   tau(   6) = (   0.4999985   0.0000007   1.4912695  )
         7           O   tau(   7) = (  -0.0000007   0.7006206   1.9694592  )
         8           O   tau(   8) = (   0.4999998   0.0000002   0.5024800  )

   Crystallographic axes

     site n.     atom                  positions (cryst. coord.)
         1           Mn  tau(   1) = (  0.5000020  0.4999980  0.7441770  )
         2           Mn  tau(   2) = (  0.0000030  0.0000020  0.0058230  )
         3           Mn  tau(   3) = (  0.4999990  0.5000000  0.2441760  )
         4           Mn  tau(   4) = (  0.9999970  0.9999990  0.5058240  )
         5           O   tau(   5) = (  0.0000000  0.5000000  0.4959090  )
         6           O   tau(   6) = (  0.4999990 -0.0000000  0.7540960  )
         7           O   tau(   7) = ( -0.0000000  0.5000010  0.9959040  )
         8           O   tau(   8) = (  0.5000000 -0.0000000  0.2540910  )

     number of k points=    14
                       cart. coord. in units 2pi/alat
        k(    1) = (   0.0000000   0.0000000   0.0000000), wk =   0.0740741
        k(    2) = (   0.0000000   0.0000000   0.1685580), wk =   0.1481481
        k(    3) = (   0.0000000   0.2378851  -0.0000001), wk =   0.1481481
        k(    4) = (   0.0000000   0.2378851   0.1685578), wk =   0.1481481
        k(    5) = (   0.0000000   0.2378851  -0.1685581), wk =   0.1481481
        k(    6) = (   0.3333333   0.0000000   0.0000001), wk =   0.1481481
        k(    7) = (   0.3333333   0.0000000   0.1685581), wk =   0.1481481
        k(    8) = (   0.3333333   0.0000000  -0.1685578), wk =   0.1481481
        k(    9) = (   0.3333333   0.2378851  -0.0000000), wk =   0.1481481
        k(   10) = (   0.3333333   0.2378851   0.1685579), wk =   0.1481481
        k(   11) = (   0.3333333   0.2378851  -0.1685580), wk =   0.1481481
        k(   12) = (   0.3333333  -0.2378851   0.0000002), wk =   0.1481481
        k(   13) = (   0.3333333  -0.2378851   0.1685582), wk =   0.1481481
        k(   14) = (   0.3333333  -0.2378851  -0.1685577), wk =   0.1481481

                       cryst. coord.
        k(    1) = (   0.0000000   0.0000000   0.0000000), wk =   0.0740741
        k(    2) = (   0.0000000   0.0000000   0.3333333), wk =   0.1481481
        k(    3) = (   0.0000000   0.3333333   0.0000000), wk =   0.1481481
        k(    4) = (   0.0000000   0.3333333   0.3333333), wk =   0.1481481
        k(    5) = (   0.0000000   0.3333333  -0.3333333), wk =   0.1481481
        k(    6) = (   0.3333333   0.0000000   0.0000000), wk =   0.1481481
        k(    7) = (   0.3333333   0.0000000   0.3333333), wk =   0.1481481
        k(    8) = (   0.3333333   0.0000000  -0.3333333), wk =   0.1481481
        k(    9) = (   0.3333333   0.3333333   0.0000000), wk =   0.1481481
        k(   10) = (   0.3333333   0.3333333   0.3333333), wk =   0.1481481
        k(   11) = (   0.3333333   0.3333333  -0.3333333), wk =   0.1481481
        k(   12) = (   0.3333333  -0.3333333   0.0000000), wk =   0.1481481
        k(   13) = (   0.3333333  -0.3333333   0.3333333), wk =   0.1481481
        k(   14) = (   0.3333333  -0.3333333  -0.3333333), wk =   0.1481481

     Check: negative core charge=   -0.000038

     Initial potential from superposition of free atoms

     starting charge      81.9997, renormalised to      84.0000
     Starting wfcs are   68 randomized atomic wfcs
     Checking if some PAW data can be deallocated...

     Self-consistent Calculation

     iteration #  1     ecut=    30.00 Ry     beta= 0.70
     Davidson diagonalization with overlap

     ethr =  1.00E-02,  avg # of iterations =  2.8

     total energy              =   -1007.19866216 Ry
     estimated scf accuracy    <       5.10114766 Ry

[...]

     total energy              =   -1010.59240147 Ry
     estimated scf accuracy    <       0.00000114 Ry

     iteration # 23     ecut=    30.00 Ry     beta= 0.70
     Davidson diagonalization with overlap

     ethr =  1.36E-09,  avg # of iterations =  1.0

     End of self-consistent calculation

          k = 0.0000 0.0000 0.0000 (  1709 PWs)   bands (ev):

   -67.1364 -67.1326 -67.1317 -67.1315 -35.9315 -35.9295 -35.9167 -35.9131
   -35.8948 -35.8860 -35.8754 -35.8745 -35.8642 -35.8419 -35.8285 -35.8015
    -7.8810  -7.1648  -7.1211  -7.0872   5.5202   5.5559   5.7494   6.8179
     6.9811   7.0507   7.0597   7.5665   7.6445   8.5897   8.6126   8.6134
    10.0088  11.1356  11.1426  11.1899  11.6241  11.6879  11.7562  11.8336
    11.8942  12.0236  12.0272  12.0570  12.0584  12.3020  12.3518  12.3752
    12.3938  12.4039  12.4847  13.7459  13.7763  17.4887  17.5137  18.2178
    20.4300  21.5563  21.9011  22.0988  22.2253  23.5639  25.7761  26.1943

     occupation numbers
     1.0000   1.0000   1.0000   1.0000   1.0000   1.0000   1.0000   1.0000
     1.0000   1.0000   1.0000   1.0000   1.0000   1.0000   1.0000   1.0000
     1.0000   1.0000   1.0000   1.0000   1.0000   1.0000   1.0000   1.0000
     1.0000   1.0000   1.0000   1.0000   1.0000   1.0000   1.0000   1.0000
     1.0000   1.0000   1.0000   1.0000   1.0000   1.0000   1.0000   1.0000
     1.0000   1.0000   0.0000   0.0000   0.0000   0.0000   0.0000   0.0000
     0.0000   0.0000   0.0000   0.0000   0.0000   0.0000   0.0000   0.0000
     0.0000   0.0000   0.0000   0.0000   0.0000   0.0000   0.0000   0.0000

[...]

          k = 0.3333-0.2379-0.1686 (  1700 PWs)   bands (ev):

   -67.1330 -67.1315 -67.1313 -67.1311 -35.9267 -35.9229 -35.9173 -35.9163
   -35.9101 -35.9018 -35.9007 -35.8982 -35.8409 -35.8403 -35.8236 -35.8233
    -7.2445  -7.1354  -7.0601  -7.0285   5.3796   5.5320   5.6383   5.8555
     6.2618   6.7068   7.0428   7.0433   7.1179   7.1436   7.1604   7.3158
    11.2247  11.4521  11.5211  11.7458  11.9135  11.9464  12.0844  12.1126
    12.1512  12.2066  12.2201  12.2380  12.3750  12.4759  12.6476  12.7547
    13.3054  13.4075  13.4953  13.6024  16.5865  17.9125  18.4452  19.8641
    20.2377  20.3364  20.8577  21.6391  21.7922  22.1176  22.4753  24.1269

     occupation numbers
     1.0000   1.0000   1.0000   1.0000   1.0000   1.0000   1.0000   1.0000
     1.0000   1.0000   1.0000   1.0000   1.0000   1.0000   1.0000   1.0000
     1.0000   1.0000   1.0000   1.0000   1.0000   1.0000   1.0000   1.0000
     1.0000   1.0000   1.0000   1.0000   1.0000   1.0000   1.0000   1.0000
     1.0000   1.0000   1.0000   1.0000   1.0000   1.0000   1.0000   1.0000
     1.0000   1.0000   0.0000   0.0000   0.0000   0.0000   0.0000   0.0000
     0.0000   0.0000   0.0000   0.0000   0.0000   0.0000   0.0000   0.0000
     0.0000   0.0000   0.0000   0.0000   0.0000   0.0000   0.0000   0.0000

     highest occupied, lowest unoccupied level (ev):    12.2611   12.0272

!    total energy              =   -1010.59240134 Ry
     estimated scf accuracy    <       0.00000033 Ry

     The total energy is the sum of the following terms:
     one-electron contribution =    -446.74507772 Ry
     hartree contribution      =     264.25558534 Ry
     xc contribution           =    -134.82413812 Ry
     ewald contribution        =    -655.16424093 Ry
     one-center paw contrib.   =     -38.11452992 Ry
      -> PAW hartree energy AE =       0.00000000 Ry
      -> PAW hartree energy PS =       0.00000000 Ry
      -> PAW xc energy AE      =       0.00000000 Ry
      -> PAW xc energy PS      =       0.00000000 Ry
      -> total E_H with PAW    =     264.25558534 Ry
      -> total E_XC with PAW   =    -134.82413812 Ry

     convergence has been achieved in  23 iterations

     Writing all to output data dir bands_nm/myprefix.save/

     General routines

     Parallel routines

     PAW routines

   This run was terminated on:   7: 3:16  13Jul2023

   JOB DONE.