     Program PWSCF v.7.1 starts on 14Jul2023 at 13: 7:46

     Reading input from espresso_18319.pwi
Warning: card &CELL ignored
Warning: card / ignored

     Current dimensions of program PWSCF are:
     Max number of different atomic species (ntypx) = 10
     Max number of k-points (npk) =  40000
     Max angular momentum in pseudopotentials (lmaxx) =  4
     file Cu.paw.z_11.ld1.psl.v1.0.0-low.upf: wavefunction(s)  4S 3D renormalized
     Message from routine setup:
     using ibrav=0 with symmetry is DISCOURAGED, use correct ibrav instead

     K-points division:     npool     =       2
     R & G space division:  proc/nbgrp/npool/nimage =       4
     Subspace diagonalization in iterative solution of the eigenvalue problem:
     a serial algorithm will be used

     Using Slab Decomposition

     bravais-lattice index     =            0
     lattice parameter (alat)  =      17.3663  a.u.
     unit-cell volume          =    2404.2480 (a.u.)^3
     number of atoms/cell      =           12
     number of atomic types    =            4
     number of electrons       =       100.00
     number of Kohn-Sham states=           64
     kinetic-energy cutoff     =      30.0000  Ry
     charge density cutoff     =     240.0000  Ry
     scf convergence threshold =      1.0E-06
     mixing beta               =       0.7000
     number of iterations used =            8  plain     mixing
     Exchange-correlation= SLA  PW   PBE  PBE
                           (   1   4   3   4   0   0   0)

     celldm(1)=  17.366321  celldm(2)=   0.000000  celldm(3)=   0.000000
     celldm(4)=   0.000000  celldm(5)=   0.000000  celldm(6)=   0.000000

     crystal axes: (cart. coord. in units of alat)
               a(1) = (   1.000000   0.000000   0.000000 )
               a(2) = (   0.897682   0.440643   0.000000 )
               a(3) = (   0.430939   0.100064   1.041762 )

     reciprocal axes: (cart. coord. in units 2 pi/alat)
               b(1) = (  1.000000 -2.037208 -0.217984 )
               b(2) = (  0.000000  2.269409 -0.217984 )
               b(3) = (  0.000000  0.000000  0.959912 )

     PseudoPot. # 1 for Cs read from file:
     /lustre07/scratch/pragov/crystal_structure_design/utils/SSSP/Cs_pbe_v1.uspp.F.UPF
     MD5 check sum: 3476d69cb178dfad3ffaa59df4e07ca4
     Pseudo is Ultrasoft + core correction, Zval =  9.0
     Generated by new atomic code, or converted to UPF format
     Using radial grid of  905 points,  6 beta functions with:
                l(1) =   0
                l(2) =   0
                l(3) =   1
                l(4) =   1
                l(5) =   2
                l(6) =   2
     Q(r) pseudized with  6 coefficients,  rinner =    1.500   1.500   1.500
                                                       1.500   1.500

     PseudoPot. # 2 for Sc read from file:
     /lustre07/scratch/pragov/crystal_structure_design/utils/SSSP/Sc_ONCV_PBE-1.0.oncvpsp.upf
     MD5 check sum: e21af8023abb52e52cb7cd3133e4a229
     Pseudo is Norm-conserving, Zval = 11.0
     Generated using ONCVPSP code by D. R. Hamann
     Using radial grid of 1662 points,  6 beta functions with:
                l(1) =   0
                l(2) =   0
                l(3) =   1
                l(4) =   1
                l(5) =   2
                l(6) =   2

     PseudoPot. # 3 for Cu read from file:
     /lustre07/scratch/pragov/crystal_structure_design/utils/SSSP/Cu.paw.z_11.ld1.psl.v1.0.0-low.upf
     MD5 check sum: 619f40885d92a09a85a8b37550532d0c
     Pseudo is Projector augmented-wave + core cor, Zval = 11.0
     Generated using &quot;atomic&quot; code by A. Dal Corso  v.6.3MaX
     Shape of augmentation charge: PSQ
     Using radial grid of 1199 points,  6 beta functions with:
                l(1) =   0
                l(2) =   0
                l(3) =   1
                l(4) =   1
                l(5) =   2
                l(6) =   2
     Q(r) pseudized with 0 coefficients

     PseudoPot. # 4 for Te read from file:
     /lustre07/scratch/pragov/crystal_structure_design/utils/SSSP/Te_pbe_v1.uspp.F.UPF
     MD5 check sum: c319670d6894cc26e93307826a071b75
     Pseudo is Ultrasoft + core correction, Zval =  6.0
     Generated by new atomic code, or converted to UPF format
     Using radial grid of  891 points,  5 beta functions with:
                l(1) =   0
                l(2) =   0
                l(3) =   1
                l(4) =   1
                l(5) =   2
     Q(r) pseudized with  6 coefficients,  rinner =    1.800   1.800   1.800
                                                       1.800   1.800

     atomic species   valence    mass     pseudopotential
        Cs             9.00   132.90545     Cs( 1.00)
        Sc            11.00    44.95591     Sc( 1.00)
        Cu            11.00    63.54600     Cu( 1.00)
        Te             6.00   127.60000     Te( 1.00)

      2 Sym. Ops., with inversion, found

                                    s                        frac. trans.

      isym =  1     identity

 cryst.   s( 1) = (     1          0          0      )
                  (     0          1          0      )
                  (     0          0          1      )

 cart.    s( 1) = (  1.0000000  0.0000000 -0.0000000 )
                  (  0.0000000  1.0000000  0.0000000 )
                  (  0.0000000  0.0000000  1.0000000 )

      isym =  2     inversion

 cryst.   s( 2) = (    -1          0          0      )
                  (     0         -1          0      )
                  (     0          0         -1      )

 cart.    s( 2) = ( -1.0000000  0.0000000  0.0000000 )
                  (  0.0000000 -1.0000000  0.0000000 )
                  (  0.0000000  0.0000000 -1.0000000 )

   Cartesian axes

     site n.     atom                  positions (alat units)
         1           Cs  tau(   1) = (   0.0000000   0.0000000   0.0000000  )
         2           Sc  tau(   2) = (   0.8221158   0.1908960   0.6650036  )
         3           Sc  tau(   3) = (   1.5065059   0.3498119   0.3767585  )
         4           Sc  tau(   4) = (   0.2154697   0.0500322   0.5208810  )
         5           Cu  tau(   5) = (   0.9213298   0.2139335   0.9562438  )
         6           Cu  tau(   6) = (   1.4072919   0.3267743   0.0855182  )
         7           Te  tau(   7) = (   1.2096273   0.2808764   0.3023183  )
         8           Te  tau(   8) = (   0.5156237   0.1197282   0.6032802  )
         9           Te  tau(   9) = (   1.7015487   0.3951010   0.8898721  )
        10           Te  tau(  10) = (   1.8129981   0.4209796   0.4384818  )
        11           Te  tau(  11) = (   1.1189945   0.2598314   0.7394438  )
        12           Te  tau(  12) = (   0.6270731   0.1456069   0.1518900  )

   Crystallographic axes

     site n.     atom                  positions (cryst. coord.)
         1           Cs  tau(   1) = (  0.0000000  0.0000000  0.0000000  )
         2           Sc  tau(   2) = (  0.2882610  0.2882610  0.6383450  )
         3           Sc  tau(   3) = (  0.7117390  0.7117390  0.3616550  )
         4           Sc  tau(   4) = ( -0.0000000  0.0000000  0.5000000  )
         5           Cu  tau(   5) = (  0.2770570  0.2770570  0.9179100  )
         6           Cu  tau(   6) = (  0.7229430  0.7229430  0.0820900  )
         7           Te  tau(   7) = (  0.5715230  0.5715230  0.2901990  )
         8           Te  tau(   8) = (  0.1402070  0.1402070  0.5790960  )
         9           Te  tau(   9) = (  0.7026680  0.7026680  0.8541990  )
        10           Te  tau(  10) = (  0.8597930  0.8597930  0.4209040  )
        11           Te  tau(  11) = (  0.4284770  0.4284770  0.7098010  )
        12           Te  tau(  12) = (  0.2973320  0.2973320  0.1458010  )

     number of k points=    14
                       cart. coord. in units 2pi/alat
        k(    1) = (   0.0000000   0.0000000   0.0000000), wk =   0.0740741
        k(    2) = (   0.0000000   0.0000000   0.3199707), wk =   0.1481481
        k(    3) = (   0.0000000   0.7564696  -0.0726613), wk =   0.1481481
        k(    4) = (   0.0000000   0.7564696   0.2473094), wk =   0.1481481
        k(    5) = (   0.0000000   0.7564696  -0.3926320), wk =   0.1481481
        k(    6) = (   0.3333333  -0.6790694  -0.0726613), wk =   0.1481481
        k(    7) = (   0.3333333  -0.6790694   0.2473094), wk =   0.1481481
        k(    8) = (   0.3333333  -0.6790694  -0.3926320), wk =   0.1481481
        k(    9) = (   0.3333333   0.0774003  -0.1453225), wk =   0.1481481
        k(   10) = (   0.3333333   0.0774003   0.1746482), wk =   0.1481481
        k(   11) = (   0.3333333   0.0774003  -0.4652932), wk =   0.1481481
        k(   12) = (   0.3333333  -1.4355390  -0.0000000), wk =   0.1481481
        k(   13) = (   0.3333333  -1.4355390   0.3199707), wk =   0.1481481
        k(   14) = (   0.3333333  -1.4355390  -0.3199707), wk =   0.1481481

                       cryst. coord.
        k(    1) = (   0.0000000   0.0000000   0.0000000), wk =   0.0740741
        k(    2) = (   0.0000000   0.0000000   0.3333333), wk =   0.1481481
        k(    3) = (   0.0000000   0.3333333  -0.0000000), wk =   0.1481481
        k(    4) = (   0.0000000   0.3333333   0.3333333), wk =   0.1481481
        k(    5) = (   0.0000000   0.3333333  -0.3333333), wk =   0.1481481
        k(    6) = (   0.3333333   0.0000000   0.0000000), wk =   0.1481481
        k(    7) = (   0.3333333   0.0000000   0.3333333), wk =   0.1481481
        k(    8) = (   0.3333333   0.0000000  -0.3333333), wk =   0.1481481
        k(    9) = (   0.3333333   0.3333333   0.0000000), wk =   0.1481481
        k(   10) = (   0.3333333   0.3333333   0.3333333), wk =   0.1481481
        k(   11) = (   0.3333333   0.3333333  -0.3333333), wk =   0.1481481
        k(   12) = (   0.3333333  -0.3333333  -0.0000000), wk =   0.1481481
        k(   13) = (   0.3333333  -0.3333333   0.3333333), wk =   0.1481481
        k(   14) = (   0.3333333  -0.3333333  -0.3333333), wk =   0.1481481

     Initial potential from superposition of free atoms

     starting charge      99.9509, renormalised to     100.0000
     Starting wfcs are   85 randomized atomic wfcs
     Checking if some PAW data can be deallocated...

     Self-consistent Calculation

     iteration #  1     ecut=    30.00 Ry     beta= 0.70
     Davidson diagonalization with overlap

     ethr =  1.00E-02,  avg # of iterations =  2.0

     Threshold (ethr) on eigenvalues was too large:
     Diagonalizing with lowered threshold

     Davidson diagonalization with overlap

[...]

     total energy              =    -924.55632346 Ry
     estimated scf accuracy    <       0.22662461 Ry

[...]

     c_bands:  1 eigenvalues not converged
     c_bands:  1 eigenvalues not converged
     ethr =  5.67E-07,  avg # of iterations = 14.1

[...]

     total energy              =    -924.63337605 Ry
     estimated scf accuracy    <       0.00000103 Ry

     iteration # 11     ecut=    30.00 Ry     beta= 0.70
     Davidson diagonalization with overlap

     ethr =  1.03E-09,  avg # of iterations =  2.7

     End of self-consistent calculation

          k = 0.0000 0.0000 0.0000 (  6665 PWs)   bands (ev):

   -43.5455 -43.4723 -43.4716 -22.1626 -22.0984 -22.0822 -22.0736 -22.0691
   -22.0330 -22.0297 -22.0273 -22.0175 -15.3643  -4.9207  -4.3207  -4.2000
    -3.8327  -3.7870  -3.7585  -2.1426  -2.1111  -1.8856   2.0176   2.4522
     2.4717   2.9568   3.3004   3.3483   3.5204   3.8155   3.8455   3.9786
     4.0548   4.0738   4.3864   4.4107   4.5873   4.6870   4.6915   5.0878
     5.3146   5.3408   5.4408   5.4965   5.6036   5.7569   6.2489   6.5454
     6.7036   7.1765   7.6019   7.7486   7.9050   8.0442   8.0653   8.5842
     8.8010   8.8040   8.9738   9.0386   9.4468   9.7364   9.7408   9.8019

     occupation numbers
     1.0000   1.0000   1.0000   1.0000   1.0000   1.0000   1.0000   1.0000
     1.0000   1.0000   1.0000   1.0000   1.0000   1.0000   1.0000   1.0000
     1.0000   1.0000   1.0000   1.0000   1.0000   1.0000   1.0000   1.0000
     1.0000   1.0000   1.0000   1.0000   1.0000   1.0000   1.0000   1.0000
     1.0000   1.0000   1.0000   1.0000   1.0000   1.0000   1.0000   1.0000
     1.0000   1.0000   1.0000   1.0000   1.0000   1.0000   1.0000   1.0000
     1.0000   1.0000   0.0000   0.0000   0.0000   0.0000   0.0000   0.0000
     0.0000   0.0000   0.0000   0.0000   0.0000   0.0000   0.0000   0.0000

[...]

          k = 0.3333-1.4355-0.3200 (  6667 PWs)   bands (ev):

   -43.5448 -43.4716 -43.4712 -22.1609 -22.1001 -22.0938 -22.0712 -22.0692
   -22.0466 -22.0445 -22.0220 -22.0174 -15.3165  -4.3445  -4.0987  -3.9026
    -3.7480  -3.6414  -3.5392  -2.4365  -2.1005  -2.0919   1.9787   2.1148
     2.7870   3.1016   3.1819   3.2830   3.2899   3.5992   3.7387   3.8985
     4.0032   4.0301   4.0735   4.1258   4.1678   4.4024   4.5329   4.5784
     4.6351   4.9197   5.0132   5.1956   5.2487   5.2995   5.4991   5.7783
     5.8844   5.9965   7.7229   7.7893   8.3618   8.5408   8.5771   8.7240
     8.7975   8.8853   8.9362   9.0112   9.0864   9.6282   9.8761  10.0437

     occupation numbers
     1.0000   1.0000   1.0000   1.0000   1.0000   1.0000   1.0000   1.0000
     1.0000   1.0000   1.0000   1.0000   1.0000   1.0000   1.0000   1.0000
     1.0000   1.0000   1.0000   1.0000   1.0000   1.0000   1.0000   1.0000
     1.0000   1.0000   1.0000   1.0000   1.0000   1.0000   1.0000   1.0000
     1.0000   1.0000   1.0000   1.0000   1.0000   1.0000   1.0000   1.0000
     1.0000   1.0000   1.0000   1.0000   1.0000   1.0000   1.0000   1.0000
     1.0000   1.0000   0.0000   0.0000   0.0000   0.0000   0.0000   0.0000
     0.0000   0.0000   0.0000   0.0000   0.0000   0.0000   0.0000   0.0000

     highest occupied, lowest unoccupied level (ev):     7.1765    7.2940

!    total energy              =    -924.63337627 Ry
     estimated scf accuracy    <       0.00000005 Ry

     The total energy is the sum of the following terms:
     one-electron contribution =    -381.86647214 Ry
     hartree contribution      =     241.95926043 Ry
     xc contribution           =    -242.19504711 Ry
     ewald contribution        =    -362.88726499 Ry
     one-center paw contrib.   =    -179.64385246 Ry
      -> PAW hartree energy AE =       0.00000000 Ry
      -> PAW hartree energy PS =       0.00000000 Ry
      -> PAW xc energy AE      =       0.00000000 Ry
      -> PAW xc energy PS      =       0.00000000 Ry
      -> total E_H with PAW    =     241.95926043 Ry
      -> total E_XC with PAW   =    -242.19504711 Ry

     convergence has been achieved in  11 iterations

     Writing all to output data dir bands_nm/myprefix.save/

     General routines

     Parallel routines

     PAW routines

   This run was terminated on:  13: 8:37  14Jul2023

   JOB DONE.