     Program PWSCF v.7.1 starts on 12Jul2023 at 15: 5:57

     Reading input from espresso_22316.pwi
Warning: card &CELL ignored
Warning: card / ignored

     Current dimensions of program PWSCF are:
     Max number of different atomic species (ntypx) = 10
     Max number of k-points (npk) =  40000
     Max angular momentum in pseudopotentials (lmaxx) =  4
     file O.pbe-n-kjpaw_psl.0.1.UPF: wavefunction(s)  2P renormalized

     K-points division:     npool     =       2
     R & G space division:  proc/nbgrp/npool/nimage =       8
     Subspace diagonalization in iterative solution of the eigenvalue problem:
     a serial algorithm will be used

     Using Slab Decomposition

     bravais-lattice index     =            0
     lattice parameter (alat)  =      10.3031  a.u.
     unit-cell volume          =    1401.1676 (a.u.)^3
     number of atoms/cell      =           20
     number of atomic types    =            5
     number of electrons       =       114.00
     number of Kohn-Sham states=           64
     kinetic-energy cutoff     =      30.0000  Ry
     charge density cutoff     =     240.0000  Ry
     scf convergence threshold =      1.0E-06
     mixing beta               =       0.7000
     number of iterations used =            8  plain     mixing
     Exchange-correlation= SLA  PW   PBX  PBC
                           (   1   4   3   4   0   0   0)

     celldm(1)=  10.303075  celldm(2)=   0.000000  celldm(3)=   0.000000
     celldm(4)=   0.000000  celldm(5)=   0.000000  celldm(6)=   0.000000

     crystal axes: (cart. coord. in units of alat)
               a(1) = (   1.000000   0.000000   0.000000 )
               a(2) = (  -0.069965   1.023878   0.000000 )
               a(3) = (  -0.456102  -0.487056   1.251241 )

     reciprocal axes: (cart. coord. in units 2 pi/alat)
               b(1) = (  1.000000  0.068333  0.391119 )
               b(2) = (  0.000000  0.976678  0.380180 )
               b(3) = (  0.000000  0.000000  0.799206 )

     PseudoPot. # 1 for Li read from file:
     /lustre07/scratch/pragov/crystal_structure_design/utils/SSSP/li_pbe_v1.4.uspp.F.UPF
     MD5 check sum: e912e257baa3777c20ea3d68f190483c
     Pseudo is Ultrasoft, Zval =  3.0
     Generated by new atomic code, or converted to UPF format
     Using radial grid of  751 points,  5 beta functions with:
                l(1) =   0
                l(2) =   0
                l(3) =   0
                l(4) =   1
                l(5) =   1
     Q(r) pseudized with 10 coefficients,  rinner =    1.150   1.150   1.150

     PseudoPot. # 2 for Mn read from file:
     /lustre07/scratch/pragov/crystal_structure_design/utils/SSSP/mn_pbe_v1.5.uspp.F.UPF
     MD5 check sum: 82ef2b46521d7a7d9e736dc3972e4928
     Pseudo is Ultrasoft + core correction, Zval = 15.0
     Generated by new atomic code, or converted to UPF format
     Using radial grid of  859 points,  6 beta functions with:
                l(1) =   0
                l(2) =   0
                l(3) =   1
                l(4) =   1
                l(5) =   2
                l(6) =   2
     Q(r) pseudized with  8 coefficients,  rinner =    0.950   0.950   0.950
                                                       0.950   0.950

     PseudoPot. # 3 for P  read from file:
     /lustre07/scratch/pragov/crystal_structure_design/utils/SSSP/P.pbe-n-rrkjus_psl.1.0.0.UPF
     MD5 check sum: 8b930f418f0a4573dca56cd030ffe088
     Pseudo is Ultrasoft + core correction, Zval =  5.0
     Generated using "atomic" code by A. Dal Corso  v.5.1
     Using radial grid of 1147 points,  6 beta functions with:
                l(1) =   0
                l(2) =   0
                l(3) =   1
                l(4) =   1
                l(5) =   2
                l(6) =   2
     Q(r) pseudized with 0 coefficients

     PseudoPot. # 4 for H  read from file:
     /lustre07/scratch/pragov/crystal_structure_design/utils/SSSP/H.pbe-rrkjus_psl.1.0.0.UPF
     MD5 check sum: f52b6d4d1c606e5624b1dc7b2218f220
     Pseudo is Ultrasoft, Zval =  1.0
     Generated using "atomic" code by A. Dal Corso  v.5.1
     Using radial grid of  929 points,  2 beta functions with:
                l(1) =   0
                l(2) =   0
     Q(r) pseudized with 0 coefficients

     PseudoPot. # 5 for O  read from file:
     /lustre07/scratch/pragov/crystal_structure_design/utils/SSSP/O.pbe-n-kjpaw_psl.0.1.UPF
     MD5 check sum: 0234752ac141de4415c5fc33072bef88
     Pseudo is Projector augmented-wave + core cor, Zval =  6.0
     Generated using "atomic" code by A. Dal Corso  v.5.0.99 svn rev. 10869
     Shape of augmentation charge: BESSEL
     Using radial grid of 1095 points,  4 beta functions with:
                l(1) =   0
                l(2) =   0
                l(3) =   1
                l(4) =   1
     Q(r) pseudized with 0 coefficients

     atomic species   valence    mass     pseudopotential
        Li             3.00     6.94000     Li( 1.00)
        Mn            15.00    54.93804     Mn( 1.00)
        P              5.00    30.97376     P ( 1.00)
        H              1.00     1.00800     H ( 1.00)
        O              6.00    15.99900     O ( 1.00)

     No symmetry found

                                    s                        frac. trans.

      isym =  1     identity

 cryst.   s( 1) = (     1          0          0      )
                  (     0          1          0      )
                  (     0          0          1      )

 cart.    s( 1) = (  1.0000000  0.0000000  0.0000000 )
                  (  0.0000000  1.0000000  0.0000000 )
                  (  0.0000000  0.0000000  1.0000000 )

   Cartesian axes

     site n.     atom                  positions (alat units)
         1           Li  tau(   1) = (   0.0721556   0.4865262   0.2640282  )
         2           Li  tau(   2) = (   0.4016505   0.0505723   0.9870318  )
         3           Li  tau(   3) = (   0.0942807  -0.2774904   1.0414921  )
         4           Li  tau(   4) = (   0.3803488   0.8141468   0.2097644  )
         5           Mn  tau(   5) = (   0.7013389   0.7800664   0.6262789  )
         6           Mn  tau(   6) = (  -0.4558948  -0.4865590   1.2508448  )
         7           P   tau(   7) = (   0.5349278   0.2748722   0.2855045  )
         8           P   tau(   8) = (  -0.0609600   0.2618575   0.9656769  )
         9           H   tau(   9) = (   0.3165942   0.6286231   0.7946684  )
        10           H   tau(  10) = (   0.1568994  -0.0918357   0.4568408  )
        11           O   tau(  11) = (   0.7835095   0.3078617   0.1468332  )
        12           O   tau(  12) = (  -0.3094470   0.2289943   1.1046235  )
        13           O   tau(  13) = (   0.3329841   0.2188946   0.0875594  )
        14           O   tau(  14) = (   0.1411725   0.3179350   1.1633417  )
        15           O   tau(  15) = (  -0.0715445   0.4839858   0.7893845  )
        16           O   tau(  16) = (   0.5455790   0.0526742   0.4616130  )
        17           O   tau(  17) = (   0.4588943   0.5191874   0.4113068  )
        18           O   tau(  18) = (   0.0151524   0.0175926   0.8398583  )
        19           O   tau(  19) = (   0.4812011  -0.2897694   0.9052794  )
        20           O   tau(  20) = (  -0.0075560   0.8265557   0.3460984  )

   Crystallographic axes

     site n.     atom                  positions (cryst. coord.)
         1           Li  tau(   1) = (  0.2086680  0.5755580  0.2110130  )
         2           Li  tau(   2) = (  0.7911530  0.4246430  0.7888420  )
         3           Li  tau(   3) = (  0.4826660  0.1249360  0.8323670  )
         4           Li  tau(   4) = (  0.5180250  0.8749080  0.1676450  )
         5           Mn  tau(   5) = (  0.9995930  0.9999730  0.5005260  )
         6           Mn  tau(   6) = (  0.0000860  0.0003350  0.9996830  )
         7           P   tau(   7) = (  0.6653770  0.3770050  0.2281770  )
         8           P   tau(   8) = (  0.3346280  0.6228820  0.7717750  )
         9           H   tau(   9) = (  0.6703600  0.9160800  0.6351040  )
        10           H   tau(  10) = (  0.3293030  0.0839880  0.3651100  )
        11           O   tau(  11) = (  0.8619760  0.3565050  0.1173500  )
        12           O   tau(  12) = (  0.1382400  0.6436100  0.8828220  )
        13           O   tau(  13) = (  0.3821880  0.2470780  0.0699780  )
        14           O   tau(  14) = (  0.6179030  0.7528000  0.9297500  )
        15           O   tau(  15) = (  0.2702710  0.7728070  0.6308810  )
        16           O   tau(  16) = (  0.7297240  0.2269420  0.3689240  )
        17           O   tau(  17) = (  0.6552420  0.6634500  0.3287190  )
        18           O   tau(  18) = (  0.3448390  0.3364800  0.6712200  )
        19           O   tau(  19) = (  0.8154720  0.0611580  0.7235050  )
        20           O   tau(  20) = (  0.1842910  0.9388590  0.2766040  )

     number of k points=    14
                       cart. coord. in units 2pi/alat
        k(    1) = (   0.0000000   0.0000000   0.0000000), wk =   0.0740741
        k(    2) = (   0.0000000   0.0000000   0.2664021), wk =   0.1481481
        k(    3) = (   0.0000000   0.3255595   0.1267268), wk =   0.1481481
        k(    4) = (   0.0000000   0.3255595   0.3931289), wk =   0.1481481
        k(    5) = (   0.0000000   0.3255595  -0.1396753), wk =   0.1481481
        k(    6) = (   0.3333333   0.0227778   0.1303730), wk =   0.1481481
        k(    7) = (   0.3333333   0.0227778   0.3967750), wk =   0.1481481
        k(    8) = (   0.3333333   0.0227778  -0.1360291), wk =   0.1481481
        k(    9) = (   0.3333333   0.3483373   0.2570998), wk =   0.1481481
        k(   10) = (   0.3333333   0.3483373   0.5235018), wk =   0.1481481
        k(   11) = (   0.3333333   0.3483373  -0.0093023), wk =   0.1481481
        k(   12) = (   0.3333333  -0.3027817   0.0036462), wk =   0.1481481
        k(   13) = (   0.3333333  -0.3027817   0.2700482), wk =   0.1481481
        k(   14) = (   0.3333333  -0.3027817  -0.2627559), wk =   0.1481481

                       cryst. coord.
        k(    1) = (   0.0000000   0.0000000   0.0000000), wk =   0.0740741
        k(    2) = (   0.0000000   0.0000000   0.3333333), wk =   0.1481481
        k(    3) = (   0.0000000   0.3333333   0.0000000), wk =   0.1481481
        k(    4) = (   0.0000000   0.3333333   0.3333333), wk =   0.1481481
        k(    5) = (   0.0000000   0.3333333  -0.3333333), wk =   0.1481481
        k(    6) = (   0.3333333   0.0000000   0.0000000), wk =   0.1481481
        k(    7) = (   0.3333333   0.0000000   0.3333333), wk =   0.1481481
        k(    8) = (   0.3333333   0.0000000  -0.3333333), wk =   0.1481481
        k(    9) = (   0.3333333   0.3333333  -0.0000000), wk =   0.1481481
        k(   10) = (   0.3333333   0.3333333   0.3333333), wk =   0.1481481
        k(   11) = (   0.3333333   0.3333333  -0.3333333), wk =   0.1481481
        k(   12) = (   0.3333333  -0.3333333  -0.0000000), wk =   0.1481481
        k(   13) = (   0.3333333  -0.3333333   0.3333333), wk =   0.1481481
        k(   14) = (   0.3333333  -0.3333333  -0.3333333), wk =   0.1481481

     Check: negative core charge=   -0.000019

     Initial potential from superposition of free atoms

     starting charge     111.1965, renormalised to     114.0000
     Starting wfcs are   96 randomized atomic wfcs
     Checking if some PAW data can be deallocated...

     Self-consistent Calculation

     iteration #  1     ecut=    30.00 Ry     beta= 0.70
     Davidson diagonalization with overlap

     ethr =  1.00E-02,  avg # of iterations =  2.0

     total energy              =    -921.19124190 Ry
     estimated scf accuracy    <       8.84201440 Ry

[...]

     total energy              =    -927.65645230 Ry
     estimated scf accuracy    <       0.00013178 Ry

     iteration # 57     ecut=    30.00 Ry     beta= 0.70
     Davidson diagonalization with overlap

     ethr =  1.30E-09,  avg # of iterations =  1.0

     End of self-consistent calculation

          k = 0.0000 0.0000 0.0000 (  3869 PWs)   bands (ev):

   -72.3307 -72.3214 -41.1333 -41.1305 -41.1083 -41.0990 -41.0027 -40.9877
   -39.2841 -39.2761 -39.1724 -39.1673 -16.3368 -16.1707 -13.9390 -13.8941
   -13.8577 -13.8438 -13.7332 -13.6859 -13.6569 -13.5867  -3.7636  -3.4563
    -1.7095  -1.4261  -1.4074  -1.1631  -1.0425  -0.7845  -0.7178  -0.3981
     0.7388   0.9411   1.0223   1.0366   1.1985   1.3188   1.4930   1.5622
     1.8180   1.8725   2.2763   2.3141   2.6591   2.7927   2.9793   3.0682
     3.2191   3.4092   3.4155   3.5074   6.4415   6.4723   6.5491   6.5777
     6.6335   6.6655   7.5069   7.5965   7.7654   7.9630   8.7486  11.5572

     occupation numbers
     1.0000   1.0000   1.0000   1.0000   1.0000   1.0000   1.0000   1.0000
     1.0000   1.0000   1.0000   1.0000   1.0000   1.0000   1.0000   1.0000
     1.0000   1.0000   1.0000   1.0000   1.0000   1.0000   1.0000   1.0000
     1.0000   1.0000   1.0000   1.0000   1.0000   1.0000   1.0000   1.0000
     1.0000   1.0000   1.0000   1.0000   1.0000   1.0000   1.0000   1.0000
     1.0000   1.0000   1.0000   1.0000   1.0000   1.0000   1.0000   1.0000
     1.0000   1.0000   1.0000   1.0000   1.0000   1.0000   1.0000   1.0000
     1.0000   0.0000   0.0000   0.0000   0.0000   0.0000   0.0000   0.0000

[...]

          k = 0.3333-0.3028-0.2628 (  3886 PWs)   bands (ev):

   -72.3308 -72.3216 -41.1329 -41.1320 -41.1098 -41.1004 -41.0042 -40.9894
   -39.2844 -39.2765 -39.1724 -39.1675 -16.2604 -16.2002 -14.0713 -13.8966
   -13.8452 -13.8220 -13.7751 -13.6620 -13.6289 -13.6020  -3.4088  -3.3636
    -1.6320  -1.3819  -1.2548  -1.0943  -0.9520  -0.8305  -0.7877  -0.5702
     0.6514   0.7742   0.9316   1.1006   1.2962   1.3441   1.4334   1.6460
     1.8027   1.9802   2.0537   2.1575   2.3892   2.5691   2.8114   3.0205
     3.1743   3.2451   3.2486   3.4623   6.5050   6.5770   6.5883   6.6237
     6.6422   6.6620   7.4491   7.5617   7.6256   7.8501  10.5586  11.2982

     occupation numbers
     1.0000   1.0000   1.0000   1.0000   1.0000   1.0000   1.0000   1.0000
     1.0000   1.0000   1.0000   1.0000   1.0000   1.0000   1.0000   1.0000
     1.0000   1.0000   1.0000   1.0000   1.0000   1.0000   1.0000   1.0000
     1.0000   1.0000   1.0000   1.0000   1.0000   1.0000   1.0000   1.0000
     1.0000   1.0000   1.0000   1.0000   1.0000   1.0000   1.0000   1.0000
     1.0000   1.0000   1.0000   1.0000   1.0000   1.0000   1.0000   1.0000
     1.0000   1.0000   1.0000   1.0000   1.0000   1.0000   1.0000   1.0000
     1.0000   0.0000   0.0000   0.0000   0.0000   0.0000   0.0000   0.0000

     highest occupied, lowest unoccupied level (ev):     6.6504    6.6435

!    total energy              =    -927.65645357 Ry
     estimated scf accuracy    <       0.00000017 Ry

     The total energy is the sum of the following terms:
     one-electron contribution =    -489.78561536 Ry
     hartree contribution      =     291.14098389 Ry
     xc contribution           =    -152.09962367 Ry
     ewald contribution        =    -481.74597254 Ry
     one-center paw contrib.   =     -95.16622589 Ry
      -> PAW hartree energy AE =       0.00000000 Ry
      -> PAW hartree energy PS =       0.00000000 Ry
      -> PAW xc energy AE      =       0.00000000 Ry
      -> PAW xc energy PS      =       0.00000000 Ry
      -> total E_H with PAW    =     291.14098389 Ry
      -> total E_XC with PAW   =    -152.09962367 Ry

     convergence has been achieved in  57 iterations

     Writing all to output data dir bands_nm/myprefix.save/

     General routines

     Parallel routines

     PAW routines

   This run was terminated on:  15: 6:31  12Jul2023

   JOB DONE.