     Program PWSCF v.7.1 starts on 16Jul2023 at 17:42:39

     Reading input from espresso_16505.pwi
Warning: card &CELL ignored
Warning: card / ignored

     Current dimensions of program PWSCF are:
     Max number of different atomic species (ntypx) = 10
     Max number of k-points (npk) =  40000
     Max angular momentum in pseudopotentials (lmaxx) =  4
     file Gd.paw.z_18.atompaw.wentzcovitch.v1.2.upf: wavefunction(s)  6S 0P 5D 0D 4F 0F renormalized
     file Tm.paw.z_23.atompaw.wentzcovitch.v1.2.upf: wavefunction(s)  6S 0P 5D 0D 4F 0F renormalized
     file O.pbe-n-kjpaw_psl.0.1.UPF: wavefunction(s)  2P renormalized
     Message from routine setup:
     using ibrav=0 with symmetry is DISCOURAGED, use correct ibrav instead

     K-points division:     npool     =       2
     R & G space division:  proc/nbgrp/npool/nimage =       4
     Subspace diagonalization in iterative solution of the eigenvalue problem:
     one sub-group per band group will be used

     Using Slab Decomposition

     bravais-lattice index     =            0
     lattice parameter (alat)  =      10.7552  a.u.
     unit-cell volume          =    1904.3495 (a.u.)^3
     number of atoms/cell      =           20
     number of atomic types    =            3
     number of electrons       =       236.00
     number of Kohn-Sham states=          256
     kinetic-energy cutoff     =      30.0000  Ry
     charge density cutoff     =     240.0000  Ry
     scf convergence threshold =      1.0E-06
     mixing beta               =       0.7000
     number of iterations used =            8  plain     mixing
     Exchange-correlation= SLA  PW   PBX  PBC
                           (   1   4   3   4   0   0   0)

     celldm(1)=  10.755202  celldm(2)=   0.000000  celldm(3)=   0.000000
     celldm(4)=   0.000000  celldm(5)=   0.000000  celldm(6)=   0.000000

     crystal axes: (cart. coord. in units of alat)
               a(1) = (   1.000000   0.000000   0.000000 )
               a(2) = (   0.000000   1.045398   0.000000 )
               a(3) = (   0.000000   0.000000   1.464229 )

     reciprocal axes: (cart. coord. in units 2 pi/alat)
               b(1) = (  1.000000  0.000000  0.000000 )
               b(2) = (  0.000000  0.956573  0.000000 )
               b(3) = (  0.000000  0.000000  0.682953 )

     PseudoPot. # 1 for Gd read from file:
     /lustre07/scratch/pragov/crystal_structure_design/utils/SSSP/Gd.paw.z_18.atompaw.wentzcovitch.v1.2.upf
     MD5 check sum: a44f32af2ba180e1a67c5cef9ff7f39b
     Pseudo is Projector augmented-wave + core cor, Zval = 18.0
     Generated using ATOMPAW code
     Shape of augmentation charge: BESSEL
     Using radial grid of 1110 points,  8 beta functions with:
                l(1) =   0
                l(2) =   0
                l(3) =   1
                l(4) =   1
                l(5) =   2
                l(6) =   2
                l(7) =   3
                l(8) =   3
     Q(r) pseudized with 0 coefficients

     PseudoPot. # 2 for Tm read from file:
     /lustre07/scratch/pragov/crystal_structure_design/utils/SSSP/Tm.paw.z_23.atompaw.wentzcovitch.v1.2.upf
     MD5 check sum: 65ac1a59d66520b67f41930ed0a84655
     Pseudo is Projector augmented-wave + core cor, Zval = 23.0
     Generated using ATOMPAW code
     Shape of augmentation charge: BESSEL
     Using radial grid of 1116 points,  8 beta functions with:
                l(1) =   0
                l(2) =   0
                l(3) =   1
                l(4) =   1
                l(5) =   2
                l(6) =   2
                l(7) =   3
                l(8) =   3
     Q(r) pseudized with 0 coefficients

     PseudoPot. # 3 for O  read from file:
     /lustre07/scratch/pragov/crystal_structure_design/utils/SSSP/O.pbe-n-kjpaw_psl.0.1.UPF
     MD5 check sum: 0234752ac141de4415c5fc33072bef88
     Pseudo is Projector augmented-wave + core cor, Zval =  6.0
     Generated using "atomic" code by A. Dal Corso  v.5.0.99 svn rev. 10869
     Shape of augmentation charge: BESSEL
     Using radial grid of 1095 points,  4 beta functions with:
                l(1) =   0
                l(2) =   0
                l(3) =   1
                l(4) =   1
     Q(r) pseudized with 0 coefficients

     atomic species   valence    mass     pseudopotential
        Gd            18.00   157.25000     Gd( 1.00)
        Tm            23.00   168.93422     Tm( 1.00)
        O              6.00    15.99900     O ( 1.00)

      8 Sym. Ops., with inversion, found ( 6 have fractional translation)

                                    s                        frac. trans.

      isym =  1     identity

 cryst.   s( 1) = (     1          0          0      )
                  (     0          1          0      )
                  (     0          0          1      )

 cart.    s( 1) = (  1.0000000  0.0000000  0.0000000 )
                  (  0.0000000  1.0000000  0.0000000 )
                  (  0.0000000  0.0000000  1.0000000 )

      isym =  2     180 deg rotation - cart. axis [0,0,1]

 cryst.   s( 2) = (    -1          0          0      )    f =(  0.0000000 )
                  (     0         -1          0      )       ( -0.0000000 )
                  (     0          0          1      )       (  0.5000000 )

 cart.    s( 2) = ( -1.0000000  0.0000000  0.0000000 )    f =(  0.0000000 )
                  (  0.0000000 -1.0000000  0.0000000 )       ( -0.0000000 )
                  (  0.0000000  0.0000000  1.0000000 )       (  0.7321147 )

[...]

      isym =  4     180 deg rotation - cart. axis [1,0,0]

[...]

      isym =  5     inversion

 cryst.   s( 5) = (    -1          0          0      )
                  (     0         -1          0      )
                  (     0          0         -1      )

 cart.    s( 5) = ( -1.0000000  0.0000000  0.0000000 )
                  (  0.0000000 -1.0000000  0.0000000 )
                  (  0.0000000  0.0000000 -1.0000000 )

      isym =  6     inv. 180 deg rotation - cart. axis [0,0,1]

[...]

      isym =  8     inv. 180 deg rotation - cart. axis [1,0,0]

 cryst.   s( 8) = (    -1          0          0      )    f =(  0.5000000 )
                  (     0          1          0      )       ( -0.5000000 )
                  (     0          0          1      )       (  0.0000000 )

 cart.    s( 8) = ( -1.0000000  0.0000000  0.0000000 )    f =(  0.5000000 )
                  (  0.0000000  1.0000000  0.0000000 )       ( -0.5226991 )
                  (  0.0000000  0.0000000  1.0000000 )       (  0.0000000 )

   Cartesian axes

     site n.     atom                  positions (alat units)
         1           Gd  tau(   1) = (   0.9867410   0.0555587   0.3660574  )
         2           Gd  tau(   2) = (   0.4867410   0.4671404   1.0981721  )
         3           Gd  tau(   3) = (   0.5132590   0.5782579   0.3660574  )
         4           Gd  tau(   4) = (   0.0132590   0.9898395   1.0981721  )
         5           Tm  tau(   5) = (   0.5000000   0.0000000   0.0000000  )
         6           Tm  tau(   6) = (   0.5000000   0.0000000   0.7321147  )
         7           Tm  tau(   7) = (   0.0000000   0.5226991   0.0000000  )
         8           Tm  tau(   8) = (   0.0000000   0.5226991   0.7321147  )
         9           O   tau(   9) = (   0.6378750   0.0719767   1.0981721  )
        10           O   tau(  10) = (   0.1801480   0.1921181   0.8365597  )
        11           O   tau(  11) = (   0.1801480   0.1921181   1.3597845  )
        12           O   tau(  12) = (   0.6801480   0.3305811   0.1044449  )
        13           O   tau(  13) = (   0.6801480   0.3305811   0.6276698  )
        14           O   tau(  14) = (   0.1378750   0.4507224   0.3660574  )
        15           O   tau(  15) = (   0.8621250   0.5946758   1.0981721  )
        16           O   tau(  16) = (   0.3198520   0.7148172   1.3597845  )
        17           O   tau(  17) = (   0.3198520   0.7148172   0.8365597  )
        18           O   tau(  18) = (   0.8198520   0.8532802   0.1044449  )
        19           O   tau(  19) = (   0.8198520   0.8532802   0.6276698  )
        20           O   tau(  20) = (   0.3621250   0.9734215   0.3660574  )

   Crystallographic axes

     site n.     atom                  positions (cryst. coord.)
         1           Gd  tau(   1) = (  0.9867410  0.0531460  0.2500000  )
         2           Gd  tau(   2) = (  0.4867410  0.4468540  0.7500000  )
         3           Gd  tau(   3) = (  0.5132590  0.5531460  0.2500000  )
         4           Gd  tau(   4) = (  0.0132590  0.9468540  0.7500000  )
         5           Tm  tau(   5) = (  0.5000000  0.0000000  0.0000000  )
         6           Tm  tau(   6) = (  0.5000000  0.0000000  0.5000000  )
         7           Tm  tau(   7) = (  0.0000000  0.5000000  0.0000000  )
         8           Tm  tau(   8) = (  0.0000000  0.5000000  0.5000000  )
         9           O   tau(   9) = (  0.6378750  0.0688510  0.7500000  )
        10           O   tau(  10) = (  0.1801480  0.1837750  0.5713310  )
        11           O   tau(  11) = (  0.1801480  0.1837750  0.9286690  )
        12           O   tau(  12) = (  0.6801480  0.3162250  0.0713310  )
        13           O   tau(  13) = (  0.6801480  0.3162250  0.4286690  )
        14           O   tau(  14) = (  0.1378750  0.4311490  0.2500000  )
        15           O   tau(  15) = (  0.8621250  0.5688510  0.7500000  )
        16           O   tau(  16) = (  0.3198520  0.6837750  0.9286690  )
        17           O   tau(  17) = (  0.3198520  0.6837750  0.5713310  )
        18           O   tau(  18) = (  0.8198520  0.8162250  0.0713310  )
        19           O   tau(  19) = (  0.8198520  0.8162250  0.4286690  )
        20           O   tau(  20) = (  0.3621250  0.9311490  0.2500000  )

     number of k points=     8
                       cart. coord. in units 2pi/alat
        k(    1) = (   0.0000000   0.0000000   0.0000000), wk =   0.0740741
        k(    2) = (   0.0000000   0.0000000   0.2276510), wk =   0.1481481
        k(    3) = (   0.0000000   0.3188577   0.0000000), wk =   0.1481481
        k(    4) = (   0.0000000   0.3188577   0.2276510), wk =   0.2962963
        k(    5) = (   0.3333333   0.0000000   0.0000000), wk =   0.1481481
        k(    6) = (   0.3333333   0.0000000   0.2276510), wk =   0.2962963
        k(    7) = (   0.3333333   0.3188577   0.0000000), wk =   0.2962963
        k(    8) = (   0.3333333   0.3188577   0.2276510), wk =   0.5925926

                       cryst. coord.
        k(    1) = (   0.0000000   0.0000000   0.0000000), wk =   0.0740741
        k(    2) = (   0.0000000   0.0000000   0.3333333), wk =   0.1481481
        k(    3) = (   0.0000000   0.3333333   0.0000000), wk =   0.1481481
        k(    4) = (   0.0000000   0.3333333   0.3333333), wk =   0.2962963
        k(    5) = (   0.3333333   0.0000000   0.0000000), wk =   0.1481481
        k(    6) = (   0.3333333   0.0000000   0.3333333), wk =   0.2962963
        k(    7) = (   0.3333333   0.3333333   0.0000000), wk =   0.2962963
        k(    8) = (   0.3333333   0.3333333   0.3333333), wk =   0.5925926

     Check: negative core charge=   -0.000012

     Initial potential from superposition of free atoms

     starting charge     235.9619, renormalised to     236.0000
     Starting wfcs are  304 randomized atomic wfcs
     Checking if some PAW data can be deallocated...

     Self-consistent Calculation

     iteration #  1     ecut=    30.00 Ry     beta= 0.70
     Davidson diagonalization with overlap

     ethr =  1.00E-02,  avg # of iterations =  9.5

     total energy              =   -6992.67743266 Ry
     estimated scf accuracy    <      25.52448540 Ry

[...]

     negative rho (up, down):  2.308E-03 0.000E+00

[...]

     negative rho (up, down):  1.185E-04 0.000E+00

[...]

     c_bands:  1 eigenvalues not converged
     ethr =  4.73E-06,  avg # of iterations =  3.6

[...]

     total energy              =   -7021.06094708 Ry
     estimated scf accuracy    <       0.00016280 Ry

     iteration # 66     ecut=    30.00 Ry     beta= 0.70
     Davidson diagonalization with overlap

     ethr =  9.40E-10,  avg # of iterations =  1.0

     End of self-consistent calculation

          k = 0.0000 0.0000 0.0000 (  5307 PWs)   bands (ev):

   -36.2961 -36.2938 -36.2905 -36.2885 -28.9594 -28.9561 -28.9463 -28.9426
   -10.1304 -10.0984 -10.0275  -9.9797  -9.9491  -9.8659  -9.5695  -9.5595
    -9.5435  -9.5352  -9.4960  -9.4916  -7.6271  -7.5752  -7.5482  -7.3464
    -7.2603  -7.2395  -7.0555  -7.0083  -6.9895  -6.9411  -6.9013  -6.8832
    -5.0485  -4.5737  -4.2461  -4.0059  -3.8388  -3.8349  -3.7645  -3.6888
    -3.5664  -3.3664  -3.0703  -2.9684   7.8842   8.2099   8.3156   8.4838
     8.6897   8.8816   8.9114   8.9704   9.0576   9.1042   9.2622   9.2879
     9.5813   9.6190   9.6852   9.6930   9.7082   9.7823   9.7875   9.9432
     9.9908  10.0117  10.0385  10.1712  10.2295  10.3004  10.3488  10.3645
    10.4600  10.4871  10.5352  10.5619  10.5838  10.6015  10.6924  10.8415
    12.4840  12.4931  12.4942  12.5089  12.5197  12.5403  12.5423  12.5761
    12.5843  12.6050  12.6087  12.6091  12.6387  12.6418  12.6538  12.6610
    12.6669  12.6806  12.6820  12.6858  12.6919  12.6996  12.7014  12.7114
    12.7447  12.7549  12.7551  12.7677  12.7698  12.7717  12.7731  12.7793
    12.7828  12.7948  12.7962  12.8136  12.8382  12.8656  12.9053  12.9346
    12.9454  12.9454  12.9475  12.9725  12.9944  13.0075  13.0096  13.0768
    13.0871  13.1030  13.1031  13.1489  13.1704  13.2002  13.2016  13.2068
    16.3197  17.2794  17.3592  17.5509  17.6201  17.7981  17.8626  17.8927
    18.0894  18.0921  18.2036  18.2842  18.5778  18.7456  18.8730  19.0433
    19.1311  19.1356  19.2717  19.5442  19.6588  19.7400  19.8565  19.9160
    20.0934  20.2087  20.2345  20.3370  20.4038  20.5224  20.8443  21.3129
    21.7062  22.1877  22.2281  22.3168  22.7002  22.7753  22.8055  22.8329
    22.9853  23.5677  24.2973  24.5224  24.6039  24.9586  25.0766  25.1339
    25.2230  25.4566  25.4711  25.7122  26.0359  26.0960  26.1803  26.5038
    26.8110  26.8308  27.0288  27.1140  27.1540  27.1926  28.2771  29.0154
    29.1367  29.2798  29.3296  30.3566  30.4863  30.6953  30.6972  30.7760
    30.7964  30.8683  31.0413  32.0401  32.1443  32.2268  32.2554  32.5250
    32.6461  32.6764  33.2486  33.3738  33.4007  33.5144  33.8236  34.2699
    34.8756  34.9444  35.0549  35.2825  35.8460  35.9626  36.0476  36.2023
    36.4251  36.4583  36.5752  36.8805  36.9799  37.1820  37.3199  37.3798
    37.4815  37.9513  37.9832  38.0368  38.1900  38.4738  38.7219  38.8183
    38.8820  39.3366  39.4042  39.4341  39.4910  40.0651  40.0946  40.2452

     occupation numbers
     1.0000   1.0000   1.0000   1.0000   1.0000   1.0000   1.0000   1.0000
     1.0000   1.0000   1.0000   1.0000   1.0000   1.0000   1.0000   1.0000
     1.0000   1.0000   1.0000   1.0000   1.0000   1.0000   1.0000   1.0000
     1.0000   1.0000   1.0000   1.0000   1.0000   1.0000   1.0000   1.0000
     1.0000   1.0000   1.0000   1.0000   1.0000   1.0000   1.0000   1.0000
     1.0000   1.0000   1.0000   1.0000   1.0000   1.0000   1.0000   1.0000
     1.0000   1.0000   1.0000   1.0000   1.0000   1.0000   1.0000   1.0000
     1.0000   1.0000   1.0000   1.0000   1.0000   1.0000   1.0000   1.0000
     1.0000   1.0000   1.0000   1.0000   1.0000   1.0000   1.0000   1.0000
     1.0000   1.0000   1.0000   1.0000   1.0000   1.0000   1.0000   1.0000
     1.0000   1.0000   1.0000   1.0000   1.0000   1.0000   1.0000   1.0000
     1.0000   1.0000   1.0000   1.0000   1.0000   1.0000   1.0000   1.0000
     1.0000   1.0000   1.0000   1.0000   1.0000   1.0000   1.0000   1.0000
     1.0000   1.0000   1.0000   1.0000   1.0000   1.0000   1.0000   1.0000
     1.0000   1.0000   1.0000   1.0000   1.0000   1.0000   0.0000   0.0000
     0.0000   0.0000   0.0000   0.0000   0.0000   0.0000   0.0000   0.0000
     0.0000   0.0000   0.0000   0.0000   0.0000   0.0000   0.0000   0.0000
     0.0000   0.0000   0.0000   0.0000   0.0000   0.0000   0.0000   0.0000
     0.0000   0.0000   0.0000   0.0000   0.0000   0.0000   0.0000   0.0000
     0.0000   0.0000   0.0000   0.0000   0.0000   0.0000   0.0000   0.0000
     0.0000   0.0000   0.0000   0.0000   0.0000   0.0000   0.0000   0.0000
     0.0000   0.0000   0.0000   0.0000   0.0000   0.0000   0.0000   0.0000
     0.0000   0.0000   0.0000   0.0000   0.0000   0.0000   0.0000   0.0000
     0.0000   0.0000   0.0000   0.0000   0.0000   0.0000   0.0000   0.0000
     0.0000   0.0000   0.0000   0.0000   0.0000   0.0000   0.0000   0.0000
     0.0000   0.0000   0.0000   0.0000   0.0000   0.0000   0.0000   0.0000
     0.0000   0.0000   0.0000   0.0000   0.0000   0.0000   0.0000   0.0000
     0.0000   0.0000   0.0000   0.0000   0.0000   0.0000   0.0000   0.0000
     0.0000   0.0000   0.0000   0.0000   0.0000   0.0000   0.0000   0.0000
     0.0000   0.0000   0.0000   0.0000   0.0000   0.0000   0.0000   0.0000
     0.0000   0.0000   0.0000   0.0000   0.0000   0.0000   0.0000   0.0000
     0.0000   0.0000   0.0000   0.0000   0.0000   0.0000   0.0000   0.0000

[...]

          k = 0.3333 0.3189 0.2277 (  5284 PWs)   bands (ev):

   -36.2934 -36.2923 -36.2921 -36.2910 -28.9538 -28.9520 -28.9503 -28.9484
   -10.0662 -10.0608  -9.9704  -9.9593  -9.8710  -9.8550  -9.6962  -9.6679
    -9.6438  -9.6058  -9.5288  -9.5169  -7.5772  -7.5280  -7.4236  -7.3678
    -7.1774  -7.1370  -7.0940  -7.0771  -7.0364  -7.0185  -6.9473  -6.9291
    -4.3871  -4.3216  -4.2895  -4.2015  -3.9638  -3.8979  -3.7516  -3.6515
    -3.4251  -3.3312  -3.3034  -3.2715   8.3191   8.4099   8.4522   8.5107
     8.6563   8.7260   8.8663   9.0040   9.0492   9.1428   9.2301   9.2878
     9.3347   9.4161   9.4496   9.5748   9.6013   9.6659   9.7383   9.8541
     9.8967   9.9595  10.0390  10.1015  10.2209  10.3163  10.3257  10.3813
    10.4407  10.4957  10.5430  10.5812  10.6106  10.6621  10.7275  10.7486
    12.5308  12.5390  12.5492  12.5611  12.5623  12.5686  12.5757  12.5839
    12.5976  12.6035  12.6091  12.6130  12.6194  12.6314  12.6379  12.6399
    12.6556  12.6569  12.6660  12.6717  12.6779  12.6900  12.6925  12.6995
    12.7271  12.7326  12.7497  12.7559  12.7656  12.7681  12.7828  12.7885
    12.7908  12.7993  12.8093  12.8175  12.8340  12.8495  12.8542  12.8870
    12.9067  12.9219  12.9561  12.9624  12.9943  13.0109  13.0281  13.0299
    13.0751  13.0874  13.0960  13.1148  13.1331  13.1397  13.1683  13.1772
    17.0939  17.1967  17.2756  17.4508  17.7735  17.7884  17.8718  18.0487
    18.1968  18.3576  18.3795  18.4669  18.5017  18.6896  18.7957  18.8709
    19.0646  19.1275  19.2599  19.5960  19.7051  19.9780  20.0585  20.0914
    20.1902  20.3690  20.5209  20.6108  20.8434  20.8921  21.0642  21.3054
    21.5438  21.6544  21.9902  22.2869  22.5357  22.6854  22.9575  23.0132
    23.1230  23.3856  23.5996  23.6244  24.4415  24.4741  24.6389  24.6891
    24.9769  25.1657  25.8585  26.0424  26.0906  26.4689  26.6133  26.8095
    27.3118  27.5167  27.6671  27.7062  27.9194  28.1887  28.5092  28.7632
    29.0344  29.1560  29.4710  29.6163  30.0419  30.1756  30.2088  30.3916
    30.6499  31.0510  31.2314  31.4449  31.6986  31.8328  32.3645  32.5761
    32.7415  33.0482  33.2083  33.3219  33.7231  34.1026  34.3050  34.4914
    34.6994  34.9227  34.9736  35.2227  35.2560  35.3017  35.5946  36.0791
    36.1979  36.4119  36.6194  36.6917  36.8328  36.9856  37.2595  37.3340
    37.3864  37.6304  37.8159  37.8733  38.0762  38.2045  38.4263  38.5688
    38.8873  39.2065  39.3437  39.4067  39.6902  39.8860  40.0840  40.1957

     occupation numbers
     1.0000   1.0000   1.0000   1.0000   1.0000   1.0000   1.0000   1.0000
     1.0000   1.0000   1.0000   1.0000   1.0000   1.0000   1.0000   1.0000
     1.0000   1.0000   1.0000   1.0000   1.0000   1.0000   1.0000   1.0000
     1.0000   1.0000   1.0000   1.0000   1.0000   1.0000   1.0000   1.0000
     1.0000   1.0000   1.0000   1.0000   1.0000   1.0000   1.0000   1.0000
     1.0000   1.0000   1.0000   1.0000   1.0000   1.0000   1.0000   1.0000
     1.0000   1.0000   1.0000   1.0000   1.0000   1.0000   1.0000   1.0000
     1.0000   1.0000   1.0000   1.0000   1.0000   1.0000   1.0000   1.0000
     1.0000   1.0000   1.0000   1.0000   1.0000   1.0000   1.0000   1.0000
     1.0000   1.0000   1.0000   1.0000   1.0000   1.0000   1.0000   1.0000
     1.0000   1.0000   1.0000   1.0000   1.0000   1.0000   1.0000   1.0000
     1.0000   1.0000   1.0000   1.0000   1.0000   1.0000   1.0000   1.0000
     1.0000   1.0000   1.0000   1.0000   1.0000   1.0000   1.0000   1.0000
     1.0000   1.0000   1.0000   1.0000   1.0000   1.0000   1.0000   1.0000
     1.0000   1.0000   1.0000   1.0000   1.0000   1.0000   0.0000   0.0000
     0.0000   0.0000   0.0000   0.0000   0.0000   0.0000   0.0000   0.0000
     0.0000   0.0000   0.0000   0.0000   0.0000   0.0000   0.0000   0.0000
     0.0000   0.0000   0.0000   0.0000   0.0000   0.0000   0.0000   0.0000
     0.0000   0.0000   0.0000   0.0000   0.0000   0.0000   0.0000   0.0000
     0.0000   0.0000   0.0000   0.0000   0.0000   0.0000   0.0000   0.0000
     0.0000   0.0000   0.0000   0.0000   0.0000   0.0000   0.0000   0.0000
     0.0000   0.0000   0.0000   0.0000   0.0000   0.0000   0.0000   0.0000
     0.0000   0.0000   0.0000   0.0000   0.0000   0.0000   0.0000   0.0000
     0.0000   0.0000   0.0000   0.0000   0.0000   0.0000   0.0000   0.0000
     0.0000   0.0000   0.0000   0.0000   0.0000   0.0000   0.0000   0.0000
     0.0000   0.0000   0.0000   0.0000   0.0000   0.0000   0.0000   0.0000
     0.0000   0.0000   0.0000   0.0000   0.0000   0.0000   0.0000   0.0000
     0.0000   0.0000   0.0000   0.0000   0.0000   0.0000   0.0000   0.0000
     0.0000   0.0000   0.0000   0.0000   0.0000   0.0000   0.0000   0.0000
     0.0000   0.0000   0.0000   0.0000   0.0000   0.0000   0.0000   0.0000
     0.0000   0.0000   0.0000   0.0000   0.0000   0.0000   0.0000   0.0000
     0.0000   0.0000   0.0000   0.0000   0.0000   0.0000   0.0000   0.0000

     highest occupied, lowest unoccupied level (ev):    12.8656   12.8536

!    total energy              =   -7021.06094722 Ry
     total all-electron energy =     -8327.223656 Ry
     estimated scf accuracy    <       0.00000084 Ry

     The total energy is the sum of the following terms:
     one-electron contribution =   -1582.73611789 Ry
     hartree contribution      =     878.81059363 Ry
     xc contribution           =    -322.57575324 Ry
     ewald contribution        =   -2062.12172347 Ry
     one-center paw contrib.   =   -3932.43794624 Ry
      -> PAW hartree energy AE =     547.31012200 Ry
      -> PAW hartree energy PS =    -520.21361666 Ry
      -> PAW xc energy AE      =   -1489.88062897 Ry
      -> PAW xc energy PS      =      64.02733452 Ry
      -> total E_H with PAW    =     905.90709897 Ry
      -> total E_XC with PAW   =   -1748.42904769 Ry

     convergence has been achieved in  66 iterations

     Writing all to output data dir bands_nm/myprefix.save/

     General routines

     Parallel routines

     PAW routines

   This run was terminated on:  17:47:10  16Jul2023

   JOB DONE.