     Program PWSCF v.7.0 starts on  6Jun2023 at 20:54:58

     K-points division:     npool     =       2
     R & G space division:  proc/nbgrp/npool/nimage =       4

     Reading input from espresso_352.pwi
Warning: card &CELL ignored
Warning: card / ignored

     Current dimensions of program PWSCF are:
     Max number of different atomic species (ntypx) = 10
     Max number of k-points (npk) =  40000
     Max angular momentum in pseudopotentials (lmaxx) =  4
     file O.pbe-n-kjpaw_psl.0.1.UPF: wavefunction(s)  2P renormalized
     Message from routine setup:
     using ibrav=0 with symmetry is DISCOURAGED, use correct ibrav instead

     Using Slab Decomposition

     bravais-lattice index     =            0
     lattice parameter (alat)  =      10.5146  a.u.
     unit-cell volume          =    1329.9903 (a.u.)^3
     number of atoms/cell      =           16
     number of atomic types    =            5
     number of electrons       =       114.00
     number of Kohn-Sham states=           64
     kinetic-energy cutoff     =      30.0000  Ry
     charge density cutoff     =     240.0000  Ry
     scf convergence threshold =      1.0E-06
     mixing beta               =       0.7000
     number of iterations used =            8  plain     mixing
     Exchange-correlation= SLA  PW   PBX  PBC
                           (   1   4   3   4   0   0   0)

     celldm(1)=  10.514635  celldm(2)=   0.000000  celldm(3)=   0.000000
     celldm(4)=   0.000000  celldm(5)=   0.000000  celldm(6)=   0.000000

     crystal axes: (cart. coord. in units of alat)
               a(1) = (   1.000000   0.000000   0.000000 )
               a(2) = (  -0.270270   0.963878   0.000000 )
               a(3) = (  -0.319098  -0.417544   1.186981 )

     reciprocal axes: (cart. coord. in units 2 pi/alat)
               b(1) = (  1.000000  0.280398  0.367467 )
               b(2) = (  0.000000  1.037475  0.364953 )
               b(3) = (  0.000000  0.000000  0.842474 )

     PseudoPot. # 1 for Ca read from file:
     /home/pragov/projects/rrg-bengioy-ad/pragov/crystal_structure_design/SSSP/Ca_pbe_v1.uspp.F.UPF
     MD5 check sum: 403a4c14b9e4d4dfdc3024c9a3812218
     Pseudo is Ultrasoft + core correction, Zval = 10.0
     Generated by new atomic code, or converted to UPF format
     Using radial grid of  845 points,  6 beta functions with:
                l(1) =   0
                l(2) =   0
                l(3) =   1
                l(4) =   1
                l(5) =   2
                l(6) =   2
     Q(r) pseudized with  8 coefficients,  rinner =    1.500   1.500   1.500
                                                       1.500   1.500

     PseudoPot. # 2 for Ti read from file:
     /home/pragov/projects/rrg-bengioy-ad/pragov/crystal_structure_design/SSSP/ti_pbe_v1.4.uspp.F.UPF
     MD5 check sum: 88a00a6731bd790ddea75d31a80cb452
     Pseudo is Ultrasoft + core correction, Zval = 12.0
     Generated by new atomic code, or converted to UPF format
     Using radial grid of  851 points,  6 beta functions with:
                l(1) =   0
                l(2) =   0
                l(3) =   1
                l(4) =   1
                l(5) =   2
                l(6) =   2
     Q(r) pseudized with  6 coefficients,  rinner =    1.000   1.000   1.000
                                                       1.000   1.000

     PseudoPot. # 3 for Si read from file:
     /home/pragov/projects/rrg-bengioy-ad/pragov/crystal_structure_design/SSSP/Si.pbe-n-rrkjus_psl.1.0.0.UPF
     MD5 check sum: 0b0bb1205258b0d07b9f9672cf965d36
     Pseudo is Ultrasoft + core correction, Zval =  4.0
     Generated using "atomic" code by A. Dal Corso  v.5.1
     Using radial grid of 1141 points,  6 beta functions with:
                l(1) =   0
                l(2) =   0
                l(3) =   1
                l(4) =   1
                l(5) =   2
                l(6) =   2
     Q(r) pseudized with 0 coefficients

     PseudoPot. # 4 for Sn read from file:
     /home/pragov/projects/rrg-bengioy-ad/pragov/crystal_structure_design/SSSP/Sn_pbe_v1.uspp.F.UPF
     MD5 check sum: 4cf58ce39ec5d5d420df3dd08604eb00
     Pseudo is Ultrasoft + core correction, Zval = 14.0
     Generated by new atomic code, or converted to UPF format
     Using radial grid of  891 points,  6 beta functions with:
                l(1) =   0
                l(2) =   0
                l(3) =   1
                l(4) =   1
                l(5) =   2
                l(6) =   2
     Q(r) pseudized with  6 coefficients,  rinner =    1.200   1.200   1.200
                                                       1.200   1.200

     PseudoPot. # 5 for O  read from file:
     /home/pragov/projects/rrg-bengioy-ad/pragov/crystal_structure_design/SSSP/O.pbe-n-kjpaw_psl.0.1.UPF
     MD5 check sum: 0234752ac141de4415c5fc33072bef88
     Pseudo is Projector augmented-wave + core cor, Zval =  6.0
     Generated using "atomic" code by A. Dal Corso  v.5.0.99 svn rev. 10869
     Shape of augmentation charge: BESSEL
     Using radial grid of 1095 points,  4 beta functions with:
                l(1) =   0
                l(2) =   0
                l(3) =   1
                l(4) =   1
     Q(r) pseudized with 0 coefficients

     atomic species   valence    mass     pseudopotential
        Ca            10.00    40.07800     Ca( 1.00)
        Ti            12.00    47.86700     Ti( 1.00)
        Si             4.00    28.08500     Si( 1.00)
        Sn            14.00   118.71000     Sn( 1.00)
        O              6.00    15.99900     O ( 1.00)

      2 Sym. Ops., with inversion, found

                                    s                        frac. trans.

      isym =  1     identity

 cryst.   s( 1) = (     1          0          0      )
                  (     0          1          0      )
                  (     0          0          1      )

 cart.    s( 1) = (  1.0000000  0.0000000  0.0000000 )
                  (  0.0000000  1.0000000 -0.0000000 )
                  (  0.0000000  0.0000000  1.0000000 )

      isym =  2     inversion

 cryst.   s( 2) = (    -1          0          0      )
                  (     0         -1          0      )
                  (     0          0         -1      )

 cart.    s( 2) = ( -1.0000000 -0.0000000 -0.0000000 )
                  (  0.0000000 -1.0000000  0.0000000 )
                  (  0.0000000  0.0000000 -1.0000000 )

   Cartesian axes

     site n.     atom                  positions (alat units)
         1           Ca  tau(   1) = (  -0.2946501   0.4923358   0.8964743  )
         2           Ca  tau(   2) = (   0.7052824   0.0539983   0.2905064  )
         3           Ti  tau(   3) = (   0.3648651   0.4819392   0.0000000  )
         4           Si  tau(   4) = (  -0.1226485   0.6821793   0.2925717  )
         5           Si  tau(   5) = (   0.5332807  -0.1358453   0.8944089  )
         6           Sn  tau(   6) = (   0.2053161   0.2731670   0.5934903  )
         7           O   tau(   7) = (   0.0785756  -0.0645391   0.4825765  )
         8           O   tau(   8) = (  -0.2377828  -0.1388806   1.0835294  )
         9           O   tau(   9) = (   0.3320567   0.6108731   0.7044042  )
        10           O   tau(  10) = (   0.6484150   0.6852146   0.1034513  )
        11           O   tau(  11) = (   0.3864220   0.3059146   0.2858867  )
        12           O   tau(  12) = (   0.0242102   0.2404194   0.9010940  )
        13           O   tau(  13) = (   0.2789531  -0.1842092   1.0425085  )
        14           O   tau(  14) = (  -0.1108635   0.4279314   0.4471914  )
        15           O   tau(  15) = (   0.1316791   0.7305432   0.1444722  )
        16           O   tau(  16) = (   0.5214957   0.1184026   0.7397893  )

   Crystallographic axes

     site n.     atom                  positions (cryst. coord.)
         1           Ca  tau(   1) = (  0.1728250  0.8379570  0.7552560  )
         2           Ca  tau(   2) = (  0.8271750  0.1620430  0.2447440  )
         3           Ti  tau(   3) = (  0.5000000  0.5000000  0.0000000  )
         4           Si  tau(   4) = (  0.1761440  0.8145190  0.2464840  )
         5           Si  tau(   5) = (  0.8238560  0.1854810  0.7535160  )
         6           Sn  tau(   6) = (  0.5000000  0.5000000  0.5000000  )
         7           O   tau(   7) = (  0.2378100  0.1091600  0.4065580  )
         8           O   tau(   8) = (  0.1214370  0.2513520  0.9128450  )
         9           O   tau(   9) = (  0.7621900  0.8908400  0.5934420  )
        10           O   tau(  10) = (  0.8785630  0.7486480  0.0871550  )
        11           O   tau(  11) = (  0.5772540  0.4217140  0.2408520  )
        12           O   tau(  12) = (  0.4227460  0.5782860  0.7591480  )
        13           O   tau(  13) = (  0.6103890  0.1893540  0.8782860  )
        14           O   tau(  14) = (  0.1734560  0.6071720  0.3767470  )
        15           O   tau(  15) = (  0.3896110  0.8106460  0.1217140  )
        16           O   tau(  16) = (  0.8265440  0.3928280  0.6232530  )

     number of k points=    14
                       cart. coord. in units 2pi/alat
        k(    1) = (   0.0000000   0.0000000   0.0000000), wk =   0.0740741
        k(    2) = (   0.0000000   0.0000000   0.2808246), wk =   0.1481481
        k(    3) = (   0.0000000   0.3458251   0.1216510), wk =   0.1481481
        k(    4) = (   0.0000000   0.3458251   0.4024755), wk =   0.1481481
        k(    5) = (   0.0000000   0.3458251  -0.1591736), wk =   0.1481481
        k(    6) = (   0.3333333   0.0934661   0.1224891), wk =   0.1481481
        k(    7) = (   0.3333333   0.0934661   0.4033137), wk =   0.1481481
        k(    8) = (   0.3333333   0.0934661  -0.1583355), wk =   0.1481481
        k(    9) = (   0.3333333   0.4392912   0.2441401), wk =   0.1481481
        k(   10) = (   0.3333333   0.4392912   0.5249646), wk =   0.1481481
        k(   11) = (   0.3333333   0.4392912  -0.0366845), wk =   0.1481481
        k(   12) = (   0.3333333  -0.2523590   0.0008382), wk =   0.1481481
        k(   13) = (   0.3333333  -0.2523590   0.2816627), wk =   0.1481481
        k(   14) = (   0.3333333  -0.2523590  -0.2799864), wk =   0.1481481

                       cryst. coord.
        k(    1) = (   0.0000000   0.0000000   0.0000000), wk =   0.0740741
        k(    2) = (   0.0000000   0.0000000   0.3333333), wk =   0.1481481
        k(    3) = (   0.0000000   0.3333333   0.0000000), wk =   0.1481481
        k(    4) = (   0.0000000   0.3333333   0.3333333), wk =   0.1481481
        k(    5) = (   0.0000000   0.3333333  -0.3333333), wk =   0.1481481
        k(    6) = (   0.3333333   0.0000000  -0.0000000), wk =   0.1481481
        k(    7) = (   0.3333333   0.0000000   0.3333333), wk =   0.1481481
        k(    8) = (   0.3333333   0.0000000  -0.3333333), wk =   0.1481481
        k(    9) = (   0.3333333   0.3333333   0.0000000), wk =   0.1481481
        k(   10) = (   0.3333333   0.3333333   0.3333333), wk =   0.1481481
        k(   11) = (   0.3333333   0.3333333  -0.3333333), wk =   0.1481481
        k(   12) = (   0.3333333  -0.3333333  -0.0000000), wk =   0.1481481
        k(   13) = (   0.3333333  -0.3333333   0.3333333), wk =   0.1481481
        k(   14) = (   0.3333333  -0.3333333  -0.3333333), wk =   0.1481481

     Check: negative core charge=   -0.000012

     Initial potential from superposition of free atoms

     starting charge     111.9879, renormalised to     114.0000

     negative rho (up, down):  1.446E-03 0.000E+00
     Starting wfcs are   87 randomized atomic wfcs
     Checking if some PAW data can be deallocated...

     Self-consistent Calculation

     iteration #  1     ecut=    30.00 Ry     beta= 0.70
     Davidson diagonalization with overlap

     ethr =  1.00E-02,  avg # of iterations =  2.0

     negative rho (up, down):  1.508E-03 0.000E+00

     total energy              =    -871.85412884 Ry
     estimated scf accuracy    <       2.63671650 Ry

[...]

     total energy              =    -873.03167314 Ry
     estimated scf accuracy    <       0.00001426 Ry

     iteration # 10     ecut=    30.00 Ry     beta= 0.70
     Davidson diagonalization with overlap

     ethr =  1.25E-08,  avg # of iterations =  2.1

     negative rho (up, down):  1.403E-03 0.000E+00

     End of self-consistent calculation

          k = 0.0000 0.0000 0.0000 (  3705 PWs)   bands (ev):

   -49.7309 -31.3734 -31.3692 -26.0377 -25.9585 -25.9490 -13.7702 -13.5953
   -13.1025 -13.0418 -13.0065 -12.6544 -12.6143 -12.5707 -12.5389 -12.4701
   -12.4163 -11.9815 -11.4343 -10.4544 -10.4114 -10.2245 -10.1776 -10.0471
    -9.7715  -9.3405  -9.0643  -0.9061   0.2213   0.9164   2.0542   2.1381
     2.4566   2.5071   3.0519   3.2561   3.3558   3.5756   3.7755   3.8587
     3.9691   4.2732   4.2985   4.6770   4.9124   5.0005   5.1753   5.4362
     5.4374   5.6603   5.8278   5.8802   5.9751   6.0050   6.1766   6.2986
     6.3927   9.6883   9.8688  10.4261  10.9908  12.1191  12.3857  13.3524

     occupation numbers
     1.0000   1.0000   1.0000   1.0000   1.0000   1.0000   1.0000   1.0000
     1.0000   1.0000   1.0000   1.0000   1.0000   1.0000   1.0000   1.0000
     1.0000   1.0000   1.0000   1.0000   1.0000   1.0000   1.0000   1.0000
     1.0000   1.0000   1.0000   1.0000   1.0000   1.0000   1.0000   1.0000
     1.0000   1.0000   1.0000   1.0000   1.0000   1.0000   1.0000   1.0000
     1.0000   1.0000   1.0000   1.0000   1.0000   1.0000   1.0000   1.0000
     1.0000   1.0000   1.0000   1.0000   1.0000   1.0000   1.0000   1.0000
     1.0000   0.0000   0.0000   0.0000   0.0000   0.0000   0.0000   0.0000

[...]

          k = 0.3333-0.2524-0.2800 (  3680 PWs)   bands (ev):

   -49.7309 -31.3723 -31.3703 -26.0376 -25.9587 -25.9492 -13.7193 -13.6390
   -13.1016 -13.0427 -13.0098 -12.7506 -12.6932 -12.5677 -12.5191 -12.4959
   -12.4644 -11.4626 -11.2564 -10.7363 -10.3909 -10.3475 -10.2794 -10.0769
    -9.8631  -9.6331  -8.7313  -0.3282   0.6557   1.0275   1.8881   2.1712
     2.2818   2.5160   2.9136   3.1249   3.2789   3.4473   3.5971   3.9470
     4.1587   4.2379   4.4754   4.6791   4.7366   4.9884   5.0934   5.2688
     5.3662   5.5658   5.5998   5.7179   5.7908   5.9595   6.1148   6.1468
     6.2641   9.9162  10.1588  10.4221  11.5596  12.0006  12.9075  13.2456

     occupation numbers
     1.0000   1.0000   1.0000   1.0000   1.0000   1.0000   1.0000   1.0000
     1.0000   1.0000   1.0000   1.0000   1.0000   1.0000   1.0000   1.0000
     1.0000   1.0000   1.0000   1.0000   1.0000   1.0000   1.0000   1.0000
     1.0000   1.0000   1.0000   1.0000   1.0000   1.0000   1.0000   1.0000
     1.0000   1.0000   1.0000   1.0000   1.0000   1.0000   1.0000   1.0000
     1.0000   1.0000   1.0000   1.0000   1.0000   1.0000   1.0000   1.0000
     1.0000   1.0000   1.0000   1.0000   1.0000   1.0000   1.0000   1.0000
     1.0000   0.0000   0.0000   0.0000   0.0000   0.0000   0.0000   0.0000

     highest occupied, lowest unoccupied level (ev):     6.4833    9.6733

!    total energy              =    -873.03167562 Ry
     estimated scf accuracy    <       0.00000038 Ry

     The total energy is the sum of the following terms:
     one-electron contribution =    -278.24660586 Ry
     hartree contribution      =     204.11076401 Ry
     xc contribution           =    -177.35031467 Ry
     ewald contribution        =    -526.37987915 Ry
     one-center paw contrib.   =     -95.16563996 Ry
      -> PAW hartree energy AE =       0.00000000 Ry
      -> PAW hartree energy PS =       0.00000000 Ry
      -> PAW xc energy AE      =       0.00000000 Ry
      -> PAW xc energy PS      =       0.00000000 Ry
      -> total E_H with PAW    =     204.11076401 Ry
      -> total E_XC with PAW   =    -177.35031467 Ry

     convergence has been achieved in  10 iterations

     Writing all to output data dir calculations_bands/myprefix.save/

     General routines

     Parallel routines

     PAW routines

   This run was terminated on:  20:55:14   6Jun2023

   JOB DONE.