     Program PWSCF v.7.1 starts on 15Jul2023 at 14:10:45

     Reading input from espresso_11934.pwi
Warning: card &CELL ignored
Warning: card / ignored

     Current dimensions of program PWSCF are:
     Max number of different atomic species (ntypx) = 10
     Max number of k-points (npk) =  40000
     Max angular momentum in pseudopotentials (lmaxx) =  4
     Message from routine setup:
     the system is metallic, specify occupations
     Message from routine setup:
     using ibrav=0 with symmetry is DISCOURAGED, use correct ibrav instead

     K-points division:     npool     =       2
     R & G space division:  proc/nbgrp/npool/nimage =       4
     Subspace diagonalization in iterative solution of the eigenvalue problem:
     a serial algorithm will be used

     Using Slab Decomposition

     bravais-lattice index     =            0
     lattice parameter (alat)  =      10.1725  a.u.
     unit-cell volume          =    1078.9384 (a.u.)^3
     number of atoms/cell      =           13
     number of atomic types    =            3
     number of electrons       =       107.00 (up:  61.00, down:  46.00)
     number of Kohn-Sham states=           64
     kinetic-energy cutoff     =      30.0000  Ry
     charge density cutoff     =     240.0000  Ry
     scf convergence threshold =      1.0E-06
     mixing beta               =       0.7000
     number of iterations used =            8  plain     mixing
     Exchange-correlation=  SLA  PW   PBX  PBC
                           (   1   4   3   4   0   0   0)

     celldm(1)=  10.172454  celldm(2)=   0.000000  celldm(3)=   0.000000
     celldm(4)=   0.000000  celldm(5)=   0.000000  celldm(6)=   0.000000

     crystal axes: (cart. coord. in units of alat)
               a(1) = (   1.000000   0.000000   0.000000 )
               a(2) = (  -0.485434   0.962095   0.000000 )
               a(3) = (   0.004024  -0.398336   1.065373 )

     reciprocal axes: (cart. coord. in units 2 pi/alat)
               b(1) = (  1.000000  0.504560  0.184875 )
               b(2) = (  0.000000  1.039399  0.388624 )
               b(3) = (  0.000000  0.000000  0.938639 )

     PseudoPot. # 1 for Li read from file:
     /lustre07/scratch/pragov/crystal_structure_design/utils/SSSP/li_pbe_v1.4.uspp.F.UPF
     MD5 check sum: e912e257baa3777c20ea3d68f190483c
     Pseudo is Ultrasoft, Zval =  3.0
     Generated by new atomic code, or converted to UPF format
     Using radial grid of  751 points,  5 beta functions with:
                l(1) =   0
                l(2) =   0
                l(3) =   0
                l(4) =   1
                l(5) =   1
     Q(r) pseudized with 10 coefficients,  rinner =    1.150   1.150   1.150

     PseudoPot. # 2 for Mn read from file:
     /lustre07/scratch/pragov/crystal_structure_design/utils/SSSP/mn_pbe_v1.5.uspp.F.UPF
     MD5 check sum: 82ef2b46521d7a7d9e736dc3972e4928
     Pseudo is Ultrasoft + core correction, Zval = 15.0
     Generated by new atomic code, or converted to UPF format
     Using radial grid of  859 points,  6 beta functions with:
                l(1) =   0
                l(2) =   0
                l(3) =   1
                l(4) =   1
                l(5) =   2
                l(6) =   2
     Q(r) pseudized with  8 coefficients,  rinner =    0.950   0.950   0.950
                                                       0.950   0.950

     PseudoPot. # 3 for F  read from file:
     /lustre07/scratch/pragov/crystal_structure_design/utils/SSSP/f_pbe_v1.4.uspp.F.UPF
     MD5 check sum: 4c38b6a325caf53ec0e86aed9459de46
     Pseudo is Ultrasoft, Zval =  7.0
     Generated by new atomic code, or converted to UPF format
     Using radial grid of  799 points,  4 beta functions with:
                l(1) =   0
                l(2) =   0
                l(3) =   1
                l(4) =   1
     Q(r) pseudized with  8 coefficients,  rinner =    0.950   0.950   0.950

     atomic species   valence    mass     pseudopotential
        Li             3.00     6.94000     Li( 1.00)
        Mn            15.00    54.93804     Mn( 1.00)
        F              7.00    18.99840     F ( 1.00)

     Starting magnetic structure
     atomic species   magnetization
        Li           0.000
        Mn           0.000
        F            0.000

      2 Sym. Ops., with inversion, found

                                    s                        frac. trans.

      isym =  1     identity

 cryst.   s( 1) = (     1          0          0      )
                  (     0          1          0      )
                  (     0          0          1      )

 cart.    s( 1) = (  1.0000000  0.0000000 -0.0000000 )
                  (  0.0000000  1.0000000  0.0000000 )
                  (  0.0000000  0.0000000  1.0000000 )

      isym =  2     inversion

 cryst.   s( 2) = (    -1          0          0      )
                  (     0         -1          0      )
                  (     0          0         -1      )

 cart.    s( 2) = ( -1.0000000  0.0000000  0.0000000 )
                  (  0.0000000 -1.0000000  0.0000000 )
                  (  0.0000000  0.0000000 -1.0000000 )

   Cartesian axes

     site n.     atom                  positions (alat units)
         1           Li  tau(   1) = (   0.0008626   0.7699097   0.2688351  )
         2           Li  tau(   2) = (   0.5177266  -0.2061509   0.7965376  )
         3           Mn  tau(   3) = (   0.0000000   0.0000000   0.0000000  )
         4           Mn  tau(   4) = (   0.0081997   0.1878288   0.6878131  )
         5           Mn  tau(   5) = (   0.5103895   0.3759300   0.3775595  )
         6           F   tau(   6) = (  -0.1512660   0.3505248   1.0097922  )
         7           F   tau(   7) = (  -0.1362084   0.5188669   0.4872429  )
         8           F   tau(   8) = (   0.2053666   0.1004099   0.3402438  )
         9           F   tau(   9) = (   0.1799434  -0.1091591   0.8652435  )
        10           F   tau(  10) = (   0.3386458   0.6729179   0.2001292  )
        11           F   tau(  11) = (   0.3132226   0.4633489   0.7251288  )
        12           F   tau(  12) = (   0.6547976   0.0448919   0.5781298  )
        13           F   tau(  13) = (   0.6698553   0.2132339   0.0555805  )

   Crystallographic axes

     site n.     atom                  positions (cryst. coord.)
         1           Li  tau(   1) = (  0.4390290  0.9047190  0.2523390  )
         2           Li  tau(   2) = (  0.5609710  0.0952810  0.7476610  )
         3           Mn  tau(   3) = (  0.0000000  0.0000000  0.0000000  )
         4           Mn  tau(   4) = (  0.2301300  0.4625300  0.6456080  )
         5           Mn  tau(   5) = (  0.7698700  0.5374700  0.3543920  )
         6           F   tau(   6) = (  0.2122800  0.7567650  0.9478300  )
         7           F   tau(   7) = (  0.2156700  0.7286640  0.4573450  )
         8           F   tau(   8) = (  0.3189320  0.2365930  0.3193660  )
         9           F   tau(   9) = (  0.2848280  0.2227950  0.8121510  )
        10           F   tau(  10) = (  0.7151720  0.7772050  0.1878490  )
        11           F   tau(  11) = (  0.6810680  0.7634070  0.6806340  )
        12           F   tau(  12) = (  0.7843300  0.2713360  0.5426550  )
        13           F   tau(  13) = (  0.7877200  0.2432350  0.0521700  )

     number of k points=    14
                       cart. coord. in units 2pi/alat
        k(    1) = (   0.0000000   0.0000000   0.0000000), wk =   0.0370370
        k(    2) = (   0.0000000   0.0000000   0.3128796), wk =   0.0740741
        k(    3) = (   0.0000000   0.3464662   0.1295415), wk =   0.0740741
        k(    4) = (   0.0000000   0.3464662   0.4424211), wk =   0.0740741
        k(    5) = (   0.0000000   0.3464662  -0.1833381), wk =   0.0740741
        k(    6) = (   0.3333333   0.1681866   0.0616250), wk =   0.0740741
        k(    7) = (   0.3333333   0.1681866   0.3745046), wk =   0.0740741
        k(    8) = (   0.3333333   0.1681866  -0.2512546), wk =   0.0740741
        k(    9) = (   0.3333333   0.5146528   0.1911665), wk =   0.0740741
        k(   10) = (   0.3333333   0.5146528   0.5040461), wk =   0.0740741
        k(   11) = (   0.3333333   0.5146528  -0.1217131), wk =   0.0740741
        k(   12) = (   0.3333333  -0.1782796  -0.0679165), wk =   0.0740741
        k(   13) = (   0.3333333  -0.1782796   0.2449631), wk =   0.0740741
        k(   14) = (   0.3333333  -0.1782796  -0.3807961), wk =   0.0740741

                       cryst. coord.
        k(    1) = (   0.0000000   0.0000000   0.0000000), wk =   0.0370370
        k(    2) = (   0.0000000   0.0000000   0.3333333), wk =   0.0740741
        k(    3) = (   0.0000000   0.3333333   0.0000000), wk =   0.0740741
        k(    4) = (   0.0000000   0.3333333   0.3333333), wk =   0.0740741
        k(    5) = (   0.0000000   0.3333333  -0.3333333), wk =   0.0740741
        k(    6) = (   0.3333333   0.0000000  -0.0000000), wk =   0.0740741
        k(    7) = (   0.3333333   0.0000000   0.3333333), wk =   0.0740741
        k(    8) = (   0.3333333   0.0000000  -0.3333333), wk =   0.0740741
        k(    9) = (   0.3333333   0.3333333  -0.0000000), wk =   0.0740741
        k(   10) = (   0.3333333   0.3333333   0.3333333), wk =   0.0740741
        k(   11) = (   0.3333333   0.3333333  -0.3333333), wk =   0.0740741
        k(   12) = (   0.3333333  -0.3333333  -0.0000000), wk =   0.0740741
        k(   13) = (   0.3333333  -0.3333333   0.3333333), wk =   0.0740741
        k(   14) = (   0.3333333  -0.3333333  -0.3333333), wk =   0.0740741

     Check: negative core charge=   -0.000019
     Generating pointlists ...
     new r_m :   0.1477 (alat units)  1.5026 (a.u.) for type    1
     new r_m :   0.1593 (alat units)  1.6207 (a.u.) for type    2
     new r_m :   0.1477 (alat units)  1.5026 (a.u.) for type    3

     Initial potential from superposition of free atoms

     starting charge     104.5983, renormalised to     107.0000
     Starting wfcs are   81 randomized atomic wfcs

     Self-consistent Calculation

     iteration #  1     ecut=    30.00 Ry     beta= 0.70
     Davidson diagonalization with overlap

     ethr =  1.00E-02,  avg # of iterations =  2.0

     total energy              =   -1050.73422459 Ry
     estimated scf accuracy    <       3.46833536 Ry

     total magnetization       =    15.00 Bohr mag/cell
     absolute magnetization    =    15.00 Bohr mag/cell

[...]

     negative rho (up, down):  0.000E+00 3.317E-04

[...]

     total energy              =   -1052.45751233 Ry
     estimated scf accuracy    <       0.00000387 Ry

[...]

     iteration # 12     ecut=    30.00 Ry     beta= 0.70
     Davidson diagonalization with overlap

     ethr =  3.62E-09,  avg # of iterations =  2.5

     negative rho (up, down):  0.000E+00 1.046E-03

     Magnetic moment per site  (integrated on atomic sphere of radius R)
     atom   1 (R=0.148)  charge=  2.0884  magn=  0.0016
     atom   2 (R=0.148)  charge=  2.0884  magn=  0.0016
     atom   3 (R=0.159)  charge= 12.2973  magn=  4.1711
     atom   4 (R=0.159)  charge= 12.2961  magn=  4.1663
     atom   5 (R=0.159)  charge= 12.2961  magn=  4.1663
     atom   6 (R=0.148)  charge=  6.3708  magn=  0.0701
     atom   7 (R=0.148)  charge=  6.3672  magn=  0.0645
     atom   8 (R=0.148)  charge=  6.3612  magn=  0.0837
     atom   9 (R=0.148)  charge=  6.3741  magn=  0.0736
     atom  10 (R=0.148)  charge=  6.3741  magn=  0.0736
     atom  11 (R=0.148)  charge=  6.3612  magn=  0.0837
     atom  12 (R=0.148)  charge=  6.3672  magn=  0.0645
     atom  13 (R=0.148)  charge=  6.3708  magn=  0.0701

     End of self-consistent calculation

 ------ SPIN UP ------------

          k = 0.0000 0.0000 0.0000 (  2993 PWs)   bands (ev):

   -75.4195 -75.4181 -75.3321 -44.1653 -44.1641 -44.1443 -44.1438 -44.1297
   -44.1276 -44.1032 -44.0457 -44.0301 -39.1075 -39.0987 -18.2358 -17.9606
   -17.8037 -17.7112 -17.7007 -17.6474 -17.6260 -17.5838  -1.3948  -1.0606
    -0.8234  -0.6004  -0.5095  -0.4651  -0.3186  -0.2914  -0.2499  -0.1336
     0.1465   0.2131   0.2994   0.6823   0.6977   0.8389   1.0553   1.1220
     1.2234   1.3462   1.3891   1.4354   1.5936   1.7404   3.7401   3.8388
     3.8867   3.9376   3.9507   3.9936   4.0354   4.0908   4.2749   4.7702
     4.8488   4.8636   5.0812   5.3817   5.7371   7.5570  12.2498  12.4083

     occupation numbers
     1.0000   1.0000   1.0000   1.0000   1.0000   1.0000   1.0000   1.0000
     1.0000   1.0000   1.0000   1.0000   1.0000   1.0000   1.0000   1.0000
     1.0000   1.0000   1.0000   1.0000   1.0000   1.0000   1.0000   1.0000
     1.0000   1.0000   1.0000   1.0000   1.0000   1.0000   1.0000   1.0000
     1.0000   1.0000   1.0000   1.0000   1.0000   1.0000   1.0000   1.0000
     1.0000   1.0000   1.0000   1.0000   1.0000   1.0000   1.0000   1.0000
     1.0000   1.0000   1.0000   1.0000   1.0000   1.0000   1.0000   1.0000
     1.0000   1.0000   1.0000   1.0000   1.0000   0.0000   0.0000   0.0000

[...]

 ------ SPIN DOWN ----------

[...]

          k = 0.3333-0.1783-0.3808 (  2996 PWs)   bands (ev):

   -70.1549 -70.1542 -70.0623 -39.1043 -39.0972 -39.0277 -39.0250 -38.9979
   -38.9945 -38.9835 -38.9758 -38.9641 -38.8891 -38.8744 -17.9367 -17.8442
   -17.6695 -17.6362 -17.5347 -17.5255 -17.4797 -17.4493  -0.6589  -0.5911
    -0.3945  -0.2182  -0.1334   0.0634   0.1169   0.2246   0.3160   0.4839
     0.5139   0.5611   0.7039   0.8435   0.8839   1.0315   1.0869   1.1341
     1.2057   1.3065   1.3907   1.6235   1.7660   1.8434   8.0485   8.1467
     8.2946   8.3687   8.3837   8.4571   8.4897   8.5010   8.5591   8.8566
     9.0174   9.1178   9.2390   9.5080   9.5914  10.6378  11.4586  12.2892

     occupation numbers
     1.0000   1.0000   1.0000   1.0000   1.0000   1.0000   1.0000   1.0000
     1.0000   1.0000   1.0000   1.0000   1.0000   1.0000   1.0000   1.0000
     1.0000   1.0000   1.0000   1.0000   1.0000   1.0000   1.0000   1.0000
     1.0000   1.0000   1.0000   1.0000   1.0000   1.0000   1.0000   1.0000
     1.0000   1.0000   1.0000   1.0000   1.0000   1.0000   1.0000   1.0000
     1.0000   1.0000   1.0000   1.0000   1.0000   1.0000   0.0000   0.0000
     0.0000   0.0000   0.0000   0.0000   0.0000   0.0000   0.0000   0.0000
     0.0000   0.0000   0.0000   0.0000   0.0000   0.0000   0.0000   0.0000

     highest occupied, lowest unoccupied level (ev):     5.7371    7.5570

!    total energy              =   -1052.45751337 Ry
     estimated scf accuracy    <       0.00000011 Ry

     The total energy is the sum of the following terms:
     one-electron contribution =    -650.09720343 Ry
     hartree contribution      =     368.67039753 Ry
     xc contribution           =    -162.40727542 Ry
     ewald contribution        =    -608.62343204 Ry

     total magnetization       =    15.00 Bohr mag/cell
     absolute magnetization    =    15.01 Bohr mag/cell

     convergence has been achieved in  12 iterations

     Writing all to output data dir bands_nm/myprefix.save/

     General routines

     Parallel routines

   This run was terminated on:  14:11:56  15Jul2023

   JOB DONE.