     Program PWSCF v.7.1 starts on 14Jul2023 at 18:13:56

     Reading input from espresso_15368.pwi
Warning: card &CELL ignored
Warning: card / ignored

     Current dimensions of program PWSCF are:
     Max number of different atomic species (ntypx) = 10
     Max number of k-points (npk) =  40000
     Max angular momentum in pseudopotentials (lmaxx) =  4
     file Ba.pbe-spn-kjpaw_psl.1.0.0.UPF: wavefunction(s)  5S 6S renormalized
     file O.pbe-n-kjpaw_psl.0.1.UPF: wavefunction(s)  2P renormalized

     K-points division:     npool     =       2
     R & G space division:  proc/nbgrp/npool/nimage =       4
     Subspace diagonalization in iterative solution of the eigenvalue problem:
     a serial algorithm will be used

     Using Slab Decomposition

     bravais-lattice index     =            0
     lattice parameter (alat)  =      10.1142  a.u.
     unit-cell volume          =    2367.4817 (a.u.)^3
     number of atoms/cell      =           19
     number of atomic types    =            3
     number of electrons       =       116.00
     number of Kohn-Sham states=           64
     kinetic-energy cutoff     =      30.0000  Ry
     charge density cutoff     =     240.0000  Ry
     scf convergence threshold =      1.0E-06
     mixing beta               =       0.7000
     number of iterations used =            8  plain     mixing
     Exchange-correlation= SLA  PW   PBX  PBC
                           (   1   4   3   4   0   0   0)

     celldm(1)=  10.114168  celldm(2)=   0.000000  celldm(3)=   0.000000
     celldm(4)=   0.000000  celldm(5)=   0.000000  celldm(6)=   0.000000

     crystal axes: (cart. coord. in units of alat)
               a(1) = (   1.000000   0.000000   0.000000 )
               a(2) = (   0.137723   1.362567   0.000000 )
               a(3) = (   0.120182   0.604972   1.679339 )

     reciprocal axes: (cart. coord. in units 2 pi/alat)
               b(1) = (  1.000000 -0.101076 -0.035153 )
               b(2) = (  0.000000  0.733909 -0.264386 )
               b(3) = (  0.000000  0.000000  0.595472 )

     PseudoPot. # 1 for Ba read from file:
     /lustre07/scratch/pragov/crystal_structure_design/utils/SSSP/Ba.pbe-spn-kjpaw_psl.1.0.0.UPF
     MD5 check sum: c432291d3e53af55f19d5e8866385beb
     Pseudo is Projector augmented-wave + core cor, Zval = 10.0
     Generated using "atomic" code by A. Dal Corso  v.5.1
     Shape of augmentation charge: PSQ
     Using radial grid of 1251 points,  7 beta functions with:
                l(1) =   0
                l(2) =   0
                l(3) =   0
                l(4) =   1
                l(5) =   1
                l(6) =   2
                l(7) =   2
     Q(r) pseudized with 0 coefficients

     PseudoPot. # 2 for As read from file:
     /lustre07/scratch/pragov/crystal_structure_design/utils/SSSP/As.pbe-n-rrkjus_psl.0.2.UPF
     MD5 check sum: 767315de957beeeb34f87d97bf945c8f
     Pseudo is Ultrasoft + core correction, Zval =  5.0
     Generated using "atomic" code by A. Dal Corso  v.5.0.99 svn rev. 10869
     Using radial grid of 1209 points,  4 beta functions with:
                l(1) =   0
                l(2) =   0
                l(3) =   1
                l(4) =   1
     Q(r) pseudized with 0 coefficients

     PseudoPot. # 3 for O  read from file:
     /lustre07/scratch/pragov/crystal_structure_design/utils/SSSP/O.pbe-n-kjpaw_psl.0.1.UPF
     MD5 check sum: 0234752ac141de4415c5fc33072bef88
     Pseudo is Projector augmented-wave + core cor, Zval =  6.0
     Generated using "atomic" code by A. Dal Corso  v.5.0.99 svn rev. 10869
     Shape of augmentation charge: BESSEL
     Using radial grid of 1095 points,  4 beta functions with:
                l(1) =   0
                l(2) =   0
                l(3) =   1
                l(4) =   1
     Q(r) pseudized with 0 coefficients

     atomic species   valence    mass     pseudopotential
        Ba            10.00   137.32700     Ba( 1.00)
        As             5.00    74.92159     As( 1.00)
        O              6.00    15.99900     O ( 1.00)

     No symmetry found

                                    s                        frac. trans.

      isym =  1     identity

 cryst.   s( 1) = (     1          0          0      )
                  (     0          1          0      )
                  (     0          0          1      )

 cart.    s( 1) = (  1.0000000  0.0000000 -0.0000000 )
                  (  0.0000000  1.0000000  0.0000000 )
                  (  0.0000000  0.0000000  1.0000000 )

   Cartesian axes

     site n.     atom                  positions (alat units)
         1           Ba  tau(   1) = (   0.3106515   0.6761112   0.6988906  )
         2           Ba  tau(   2) = (   0.9063230   1.2923397   0.9453504  )
         3           As  tau(   3) = (   0.7767722   0.2866005   0.3128290  )
         4           As  tau(   4) = (   0.4808761   1.7011500   1.3778407  )
         5           As  tau(   5) = (   0.8977894   0.8818311   0.1976683  )
         6           As  tau(   6) = (   0.3621307   1.1223884   1.5254075  )
         7           As  tau(   7) = (   0.4051361   1.3341476   0.4594789  )
         8           As  tau(   8) = (   0.8442674   0.6335167   1.2414128  )
         9           O   tau(   9) = (   1.0313857   0.2267837   0.5376623  )
        10           O   tau(  10) = (   0.2223547   1.7474381   1.1583410  )
        11           O   tau(  11) = (   1.0718455   1.1235656   1.3946290  )
        12           O   tau(  12) = (   0.1929940   0.7062529   0.1366008  )
        13           O   tau(  13) = (   0.7475335   0.6181865   0.3832067  )
        14           O   tau(  14) = (   0.5242056   1.3723897   1.3298838  )
        15           O   tau(  15) = (   0.4223415   1.1927878   0.7482598  )
        16           O   tau(  16) = (   0.8626725   0.7897663   0.9621471  )
        17           O   tau(  17) = (   0.5299684   0.2131106   0.5340433  )
        18           O   tau(  18) = (   0.5754269   0.4223120   1.1403183  )
        19           O   tau(  19) = (   1.0119541   1.0453164   0.4517674  )

   Crystallographic axes

     site n.     atom                  positions (cryst. coord.)
         1           Ba  tau(   1) = (  0.2177450  0.3114270  0.4161700  )
         2           Ba  tau(   2) = (  0.7424670  0.6985220  0.5629300  )
         3           As  tau(   3) = (  0.7368070  0.1276310  0.1862810  )
         4           As  tau(   4) = (  0.2604960  0.8842070  0.8204660  )
         5           As  tau(   5) = (  0.8017090  0.5949230  0.1177060  )
         6           As  tau(   6) = (  0.1950620  0.4204340  0.9083380  )
         7           As  tau(   7) = (  0.2541340  0.8576630  0.2736070  )
         8           As  tau(   8) = (  0.7365950  0.1367310  0.7392270  )
         9           O   tau(   9) = (  0.9895630  0.0242880  0.3201630  )
        10           O   tau(  10) = (  0.0050120  0.9762110  0.6897600  )
        11           O   tau(  11) = (  0.9092550  0.4558740  0.8304630  )
        12           O   tau(  12) = (  0.1168070  0.4822100  0.0813420  )
        13           O   tau(  13) = (  0.6715790  0.3523780  0.2281890  )
        14           O   tau(  14) = (  0.3387410  0.6556060  0.7919090  )
        15           O   tau(  15) = (  0.2754760  0.6775680  0.4455680  )
        16           O   tau(  16) = (  0.7490240  0.3252380  0.5729320  )
        17           O   tau(  17) = (  0.4896550  0.0152100  0.3180080  )
        18           O   tau(  18) = (  0.4926560  0.0084540  0.6790280  )
        19           O   tau(  19) = (  0.8904170  0.6477260  0.2690150  )

     number of k points=    14
                       cart. coord. in units 2pi/alat
        k(    1) = (   0.0000000   0.0000000   0.0000000), wk =   0.0740741
        k(    2) = (   0.0000000   0.0000000   0.1984908), wk =   0.1481481
        k(    3) = (   0.0000000   0.2446363  -0.0881288), wk =   0.1481481
        k(    4) = (   0.0000000   0.2446363   0.1103620), wk =   0.1481481
        k(    5) = (   0.0000000   0.2446363  -0.2866196), wk =   0.1481481
        k(    6) = (   0.3333333  -0.0336919  -0.0117176), wk =   0.1481481
        k(    7) = (   0.3333333  -0.0336919   0.1867732), wk =   0.1481481
        k(    8) = (   0.3333333  -0.0336919  -0.2102084), wk =   0.1481481
        k(    9) = (   0.3333333   0.2109444  -0.0998464), wk =   0.1481481
        k(   10) = (   0.3333333   0.2109444   0.0986444), wk =   0.1481481
        k(   11) = (   0.3333333   0.2109444  -0.2983372), wk =   0.1481481
        k(   12) = (   0.3333333  -0.2783283   0.0764112), wk =   0.1481481
        k(   13) = (   0.3333333  -0.2783283   0.2749020), wk =   0.1481481
        k(   14) = (   0.3333333  -0.2783283  -0.1220796), wk =   0.1481481

                       cryst. coord.
        k(    1) = (   0.0000000   0.0000000   0.0000000), wk =   0.0740741
        k(    2) = (   0.0000000   0.0000000   0.3333333), wk =   0.1481481
        k(    3) = (   0.0000000   0.3333333   0.0000000), wk =   0.1481481
        k(    4) = (   0.0000000   0.3333333   0.3333333), wk =   0.1481481
        k(    5) = (   0.0000000   0.3333333  -0.3333333), wk =   0.1481481
        k(    6) = (   0.3333333   0.0000000  -0.0000000), wk =   0.1481481
        k(    7) = (   0.3333333   0.0000000   0.3333333), wk =   0.1481481
        k(    8) = (   0.3333333   0.0000000  -0.3333333), wk =   0.1481481
        k(    9) = (   0.3333333   0.3333333   0.0000000), wk =   0.1481481
        k(   10) = (   0.3333333   0.3333333   0.3333333), wk =   0.1481481
        k(   11) = (   0.3333333   0.3333333  -0.3333333), wk =   0.1481481
        k(   12) = (   0.3333333  -0.3333333  -0.0000000), wk =   0.1481481
        k(   13) = (   0.3333333  -0.3333333   0.3333333), wk =   0.1481481
        k(   14) = (   0.3333333  -0.3333333  -0.3333333), wk =   0.1481481

     Check: negative core charge=   -0.000006

     Initial potential from superposition of free atoms

     starting charge     115.9646, renormalised to     116.0000
     Starting wfcs are   78 randomized atomic wfcs
     Checking if some PAW data can be deallocated...

     Self-consistent Calculation

     iteration #  1     ecut=    30.00 Ry     beta= 0.70
     Davidson diagonalization with overlap

     ethr =  1.00E-02,  avg # of iterations =  2.0

     negative rho (up, down):  6.736E-02 0.000E+00

     total energy              =   -1436.80450818 Ry
     estimated scf accuracy    <       5.66493558 Ry

[...]

     negative rho (up, down):  1.302E-03 0.000E+00

[...]

     total energy              =   -1439.82510094 Ry
     estimated scf accuracy    <       0.00000102 Ry

     iteration # 15     ecut=    30.00 Ry     beta= 0.70
     Davidson diagonalization with overlap

     ethr =  8.76E-10,  avg # of iterations =  2.0

     End of self-consistent calculation

          k = 0.0000 0.0000 0.0000 (  6561 PWs)   bands (ev):

   -21.4984 -21.0327 -15.5961 -15.5260 -14.7761 -14.3151 -13.8499 -13.7655
   -13.6684 -13.3281 -13.2200 -12.9235 -12.6880  -6.8452  -6.7204  -6.6956
    -6.5508  -6.3386  -6.2993  -6.2020  -6.0240  -5.1052  -4.2565  -3.6417
    -3.5261  -1.4050  -1.0746  -0.9451  -0.9057  -0.6000  -0.2236  -0.0935
     0.1955   0.3281   0.6310   0.7341   0.8821   1.0663   1.2275   1.4089
     1.5515   1.9172   2.1031   2.4118   2.4689   2.5463   2.6712   2.7823
     2.8969   2.9843   3.1224   3.1802   3.2755   3.3421   3.5021   3.7322
     3.8776   4.1721   7.4690   7.8316   8.2803   8.3277   8.6221   8.6620

     occupation numbers
     1.0000   1.0000   1.0000   1.0000   1.0000   1.0000   1.0000   1.0000
     1.0000   1.0000   1.0000   1.0000   1.0000   1.0000   1.0000   1.0000
     1.0000   1.0000   1.0000   1.0000   1.0000   1.0000   1.0000   1.0000
     1.0000   1.0000   1.0000   1.0000   1.0000   1.0000   1.0000   1.0000
     1.0000   1.0000   1.0000   1.0000   1.0000   1.0000   1.0000   1.0000
     1.0000   1.0000   1.0000   1.0000   1.0000   1.0000   1.0000   1.0000
     1.0000   1.0000   1.0000   1.0000   1.0000   1.0000   1.0000   1.0000
     1.0000   1.0000   0.0000   0.0000   0.0000   0.0000   0.0000   0.0000

[...]

          k = 0.3333-0.2783-0.1221 (  6579 PWs)   bands (ev):

   -21.4948 -21.0295 -15.3876 -15.2999 -14.7453 -14.5636 -14.3383 -14.0040
   -13.6313 -13.1792 -13.0954 -12.9336 -12.7120  -6.7693  -6.6874  -6.6650
    -6.3447  -6.3172  -6.2193  -5.9765  -5.6962  -4.9455  -4.4915  -4.0621
    -3.3954  -1.4094  -1.1568  -0.9991  -0.8126  -0.7099  -0.4824  -0.1088
     0.1146   0.3217   0.3485   0.5439   0.8933   1.2592   1.4515   1.5604
     1.6281   1.8591   1.9869   2.1421   2.2330   2.5389   2.5785   2.6988
     2.8590   2.9536   3.0921   3.1754   3.3184   3.4513   3.5365   3.7276
     3.7939   4.2288   7.7077   7.8672   8.0444   8.2019   8.7326   9.0153

     occupation numbers
     1.0000   1.0000   1.0000   1.0000   1.0000   1.0000   1.0000   1.0000
     1.0000   1.0000   1.0000   1.0000   1.0000   1.0000   1.0000   1.0000
     1.0000   1.0000   1.0000   1.0000   1.0000   1.0000   1.0000   1.0000
     1.0000   1.0000   1.0000   1.0000   1.0000   1.0000   1.0000   1.0000
     1.0000   1.0000   1.0000   1.0000   1.0000   1.0000   1.0000   1.0000
     1.0000   1.0000   1.0000   1.0000   1.0000   1.0000   1.0000   1.0000
     1.0000   1.0000   1.0000   1.0000   1.0000   1.0000   1.0000   1.0000
     1.0000   1.0000   0.0000   0.0000   0.0000   0.0000   0.0000   0.0000

     highest occupied, lowest unoccupied level (ev):     4.2795    7.4690

!    total energy              =   -1439.82510104 Ry
     estimated scf accuracy    <       0.00000021 Ry

     The total energy is the sum of the following terms:
     one-electron contribution =    -256.48679522 Ry
     hartree contribution      =     190.64617138 Ry
     xc contribution           =    -177.28750225 Ry
     ewald contribution        =    -341.96157325 Ry
     one-center paw contrib.   =    -854.73540170 Ry
      -> PAW hartree energy AE =      57.05691762 Ry
      -> PAW hartree energy PS =     -56.83043536 Ry
      -> PAW xc energy AE      =    -788.40342456 Ry
      -> PAW xc energy PS      =      38.26902197 Ry
      -> total E_H with PAW    =     190.87265364 Ry
      -> total E_XC with PAW   =    -927.42190484 Ry

     convergence has been achieved in  15 iterations

     Writing all to output data dir bands_nm/myprefix.save/

     General routines

     Parallel routines

     PAW routines

   This run was terminated on:  18:14:50  14Jul2023

   JOB DONE.