     Program PWSCF v.7.1 starts on 14Jul2023 at  2:50:46

     Reading input from espresso_17828.pwi
Warning: card &CELL ignored
Warning: card / ignored

     Current dimensions of program PWSCF are:
     Max number of different atomic species (ntypx) = 10
     Max number of k-points (npk) =  40000
     Max angular momentum in pseudopotentials (lmaxx) =  4
     file Ho.paw.z_21.atompaw.wentzcovitch.v1.2.upf: wavefunction(s)  6S 0P 5D 0D 4F 0F renormalized
     Message from routine setup:
     using ibrav=0 with symmetry is DISCOURAGED, use correct ibrav instead

     K-points division:     npool     =       2
     R & G space division:  proc/nbgrp/npool/nimage =       4
     Subspace diagonalization in iterative solution of the eigenvalue problem:
     a serial algorithm will be used

     Using Slab Decomposition

     bravais-lattice index     =            0
     lattice parameter (alat)  =      18.7498  a.u.
     unit-cell volume          =    2063.4604 (a.u.)^3
     number of atoms/cell      =            8
     number of atomic types    =            2
     number of electrons       =        84.00
     number of Kohn-Sham states=           64
     kinetic-energy cutoff     =      30.0000  Ry
     charge density cutoff     =     240.0000  Ry
     scf convergence threshold =      1.0E-06
     mixing beta               =       0.7000
     number of iterations used =            8  plain     mixing
     Exchange-correlation=  SLA  PW   PBX  PBC
                           (   1   4   3   4   0   0   0)

     celldm(1)=  18.749769  celldm(2)=   0.000000  celldm(3)=   0.000000
     celldm(4)=   0.000000  celldm(5)=   0.000000  celldm(6)=   0.000000

     crystal axes: (cart. coord. in units of alat)
               a(1) = (   1.000000   0.000000   0.000000 )
               a(2) = (  -0.500000   0.866025   0.000000 )
               a(3) = (   0.000000   0.000000   0.361475 )

     reciprocal axes: (cart. coord. in units 2 pi/alat)
               b(1) = (  1.000000  0.577350  0.000000 )
               b(2) = (  0.000000  1.154701  0.000000 )
               b(3) = (  0.000000  0.000000  2.766446 )

     PseudoPot. # 1 for Ho read from file:
     /lustre07/scratch/pragov/crystal_structure_design/utils/SSSP/Ho.paw.z_21.atompaw.wentzcovitch.v1.2.upf
     MD5 check sum: f900adcc49abc9ab8113872cdbacec3e
     Pseudo is Projector augmented-wave + core cor, Zval = 21.0
     Generated using ATOMPAW code
     Shape of augmentation charge: BESSEL
     Using radial grid of 1114 points,  8 beta functions with:
                l(1) =   0
                l(2) =   0
                l(3) =   1
                l(4) =   1
                l(5) =   2
                l(6) =   2
                l(7) =   3
                l(8) =   3
     Q(r) pseudized with 0 coefficients

     PseudoPot. # 2 for Cl read from file:
     /lustre07/scratch/pragov/crystal_structure_design/utils/SSSP/cl_pbe_v1.4.uspp.F.UPF
     MD5 check sum: fc6f6913ecf08c9257cb748ef0700058
     Pseudo is Ultrasoft + core correction, Zval =  7.0
     Generated by new atomic code, or converted to UPF format
     Using radial grid of  909 points,  6 beta functions with:
                l(1) =   0
                l(2) =   0
                l(3) =   1
                l(4) =   1
                l(5) =   2
                l(6) =   2
     Q(r) pseudized with  8 coefficients,  rinner =    1.300   1.300   1.300
                                                       1.300   1.300

     atomic species   valence    mass     pseudopotential
        Ho            21.00   164.93033     Ho( 1.00)
        Cl             7.00    35.45000     Cl( 1.00)

     24 Sym. Ops., with inversion, found (12 have fractional translation)

                                    s                        frac. trans.

      isym =  1     identity

 cryst.   s( 1) = (     1          0          0      )
                  (     0          1          0      )
                  (     0          0          1      )

 cart.    s( 1) = (  1.0000000  0.0000000  0.0000000 )
                  (  0.0000000  1.0000000  0.0000000 )
                  (  0.0000000  0.0000000  1.0000000 )

      isym =  2     180 deg rotation - cart. axis [0,0,1]

 cryst.   s( 2) = (    -1          0          0      )    f =( -0.0000000 )
                  (     0         -1          0      )       ( -0.0000000 )
                  (     0          0          1      )       (  0.5000000 )

 cart.    s( 2) = ( -1.0000000  0.0000000  0.0000000 )    f =( -0.0000000 )
                  (  0.0000000 -1.0000000  0.0000000 )       ( -0.0000000 )
                  (  0.0000000  0.0000000  1.0000000 )       (  0.1807373 )

[...]

      isym =  4     180 deg rotation - cart. axis [1,0,0]

[...]

      isym =  5      60 deg rotation - cryst. axis [0,0,1]

[...]

 cryst.   s( 8) = (    -1         -1          0      )
                  (     1          0          0      )
                  (     0          0          1      )

 cart.    s( 8) = ( -0.5000000  0.8660254  0.0000000 )
                  ( -0.8660254 -0.5000000  0.0000000 )
                  (  0.0000000  0.0000000  1.0000000 )

[...]

 cryst.   s( 9) = (     0         -1          0      )    f =( -0.0000000 )
                  (    -1          0          0      )       ( -0.0000000 )
                  (     0          0         -1      )       (  0.5000000 )

 cart.    s( 9) = (  0.5000000 -0.8660254  0.0000000 )    f =( -0.0000000 )
                  ( -0.8660254 -0.5000000  0.0000000 )       ( -0.0000000 )
                  (  0.0000000  0.0000000 -1.0000000 )       (  0.1807373 )

[...]

 cryst.   s(10) = (     1          1          0      )    f =(  0.0000000 )
                  (     0         -1          0      )       ( -0.0000010 )
                  (     0          0         -1      )       (  0.5000000 )

 cart.    s(10) = (  0.5000000  0.8660254  0.0000000 )    f =(  0.0000005 )
                  (  0.8660254 -0.5000000  0.0000000 )       ( -0.0000009 )
                  (  0.0000000  0.0000000 -1.0000000 )       (  0.1807373 )

[...]

 cryst.   s(11) = (    -1         -1          0      )
                  (     0          1          0      )
                  (     0          0         -1      )

 cart.    s(11) = ( -0.5000000 -0.8660254  0.0000000 )
                  ( -0.8660254  0.5000000  0.0000000 )
                  (  0.0000000  0.0000000 -1.0000000 )

      isym = 12     180 deg rotation - cryst. axis [1,1,0]

[...]

      isym = 13     inversion

[...]

      isym = 14     inv. 180 deg rotation - cart. axis [0,0,1]

[...]

      isym = 16     inv. 180 deg rotation - cart. axis [1,0,0]

[...]

      isym = 17     inv.  60 deg rotation - cryst. axis [0,0,1]

[...]

 cryst.   s(22) = (    -1         -1          0      )    f =( -0.0000000 )
                  (     0          1          0      )       ( -0.0000010 )
                  (     0          0          1      )       (  0.5000000 )

 cart.    s(22) = ( -0.5000000 -0.8660254  0.0000000 )    f =(  0.0000005 )
                  ( -0.8660254  0.5000000  0.0000000 )       ( -0.0000009 )
                  (  0.0000000  0.0000000  1.0000000 )       (  0.1807373 )

[...]

      isym = 24     inv. 180 deg rotation - cryst. axis [1,1,0]

 cryst.   s(24) = (     0         -1          0      )
                  (    -1          0          0      )
                  (     0          0          1      )

 cart.    s(24) = (  0.5000000 -0.8660254  0.0000000 )
                  ( -0.8660254 -0.5000000  0.0000000 )
                  (  0.0000000  0.0000000  1.0000000 )

   Cartesian axes

     site n.     atom                  positions (alat units)
         1           Ho  tau(   1) = (  -0.0000005   0.5773505   0.2711060  )
         2           Ho  tau(   2) = (   0.5000005   0.2886748   0.0903687  )
         3           Cl  tau(   3) = (  -0.0000000   0.3796170   0.0903687  )
         4           Cl  tau(   4) = (   0.1712420   0.6762169   0.0903687  )
         5           Cl  tau(   5) = (  -0.1712420   0.6762169   0.0903687  )
         6           Cl  tau(   6) = (   0.5000000   0.4864084   0.2711060  )
         7           Cl  tau(   7) = (   0.3287580   0.1898085   0.2711060  )
         8           Cl  tau(   8) = (   0.6712420   0.1898085   0.2711060  )

   Crystallographic axes

     site n.     atom                  positions (cryst. coord.)
         1           Ho  tau(   1) = (  0.3333330  0.6666670  0.7500000  )
         2           Ho  tau(   2) = (  0.6666670  0.3333330  0.2500000  )
         3           Cl  tau(   3) = (  0.2191720  0.4383440  0.2500000  )
         4           Cl  tau(   4) = (  0.5616560  0.7808280  0.2500000  )
         5           Cl  tau(   5) = (  0.2191720  0.7808280  0.2500000  )
         6           Cl  tau(   6) = (  0.7808280  0.5616560  0.7500000  )
         7           Cl  tau(   7) = (  0.4383440  0.2191720  0.7500000  )
         8           Cl  tau(   8) = (  0.7808280  0.2191720  0.7500000  )

     number of k points=     6
                       cart. coord. in units 2pi/alat
        k(    1) = (   0.0000000   0.0000000   0.0000000), wk =   0.0740741
        k(    2) = (   0.0000000   0.0000000   0.9221487), wk =   0.1481481
        k(    3) = (   0.0000000   0.3849002   0.0000000), wk =   0.4444444
        k(    4) = (   0.0000000   0.3849002   0.9221487), wk =   0.8888889
        k(    5) = (   0.3333333   0.5773503   0.0000000), wk =   0.1481481
        k(    6) = (   0.3333333   0.5773503   0.9221487), wk =   0.2962963

                       cryst. coord.
        k(    1) = (   0.0000000   0.0000000   0.0000000), wk =   0.0740741
        k(    2) = (   0.0000000   0.0000000   0.3333333), wk =   0.1481481
        k(    3) = (   0.0000000   0.3333333   0.0000000), wk =   0.4444444
        k(    4) = (   0.0000000   0.3333333   0.3333333), wk =   0.8888889
        k(    5) = (   0.3333333   0.3333333   0.0000000), wk =   0.1481481
        k(    6) = (   0.3333333   0.3333333   0.3333333), wk =   0.2962963

     Initial potential from superposition of free atoms

     starting charge      83.9914, renormalised to      84.0000

     negative rho (up, down):  8.572E-02 0.000E+00
     Starting wfcs are   88 randomized atomic wfcs
     Checking if some PAW data can be deallocated...

     Self-consistent Calculation

     iteration #  1     ecut=    30.00 Ry     beta= 0.70
     Davidson diagonalization with overlap

     ethr =  1.00E-02,  avg # of iterations =  8.5

     negative rho (up, down):  8.468E-02 0.000E+00

     total energy              =   -1848.43620565 Ry
     estimated scf accuracy    <       9.25780858 Ry

[...]

     total energy              =   -1859.66428102 Ry
     estimated scf accuracy    <       0.00000198 Ry

     iteration # 42     ecut=    30.00 Ry     beta= 0.70
     Davidson diagonalization with overlap

     ethr =  2.36E-09,  avg # of iterations =  1.0

     negative rho (up, down):  8.605E-02 0.000E+00

     End of self-consistent calculation

          k = 0.0000 0.0000 0.0000 (  5699 PWs)   bands (ev):

   -45.3463 -45.3460 -20.5469 -20.5469 -20.5462 -20.5462 -20.2853 -20.2850
   -13.1873 -13.1023 -12.6143 -12.6140 -12.5737 -12.5734  -2.7407  -2.5130
    -1.5042  -1.5038  -1.3336  -1.3335  -0.9203  -0.9198  -0.8938  -0.8934
    -0.7509  -0.7507  -0.7020  -0.5484  -0.5484  -0.4276  -0.3428  -0.1104
     0.7300   0.7373   0.7438   0.7484   0.7485   0.7492   0.7493   0.7859
     0.8109   0.8109   0.8387   0.8388   0.9035   0.9179   4.3814   4.7921
     6.2539   6.4612   6.4613   6.7543   6.7543   7.7987   7.7987   7.8531
     7.8532   8.6034   8.6532   8.6534   8.6919   8.6921   8.7528  10.4271

     occupation numbers
     1.0000   1.0000   1.0000   1.0000   1.0000   1.0000   1.0000   1.0000
     1.0000   1.0000   1.0000   1.0000   1.0000   1.0000   1.0000   1.0000
     1.0000   1.0000   1.0000   1.0000   1.0000   1.0000   1.0000   1.0000
     1.0000   1.0000   1.0000   1.0000   1.0000   1.0000   1.0000   1.0000
     1.0000   1.0000   1.0000   1.0000   1.0000   1.0000   1.0000   1.0000
     1.0000   1.0000   0.0000   0.0000   0.0000   0.0000   0.0000   0.0000
     0.0000   0.0000   0.0000   0.0000   0.0000   0.0000   0.0000   0.0000
     0.0000   0.0000   0.0000   0.0000   0.0000   0.0000   0.0000   0.0000

[...]

          k = 0.3333 0.5774 0.9221 (  5742 PWs)   bands (ev):

   -45.3341 -45.3338 -20.6542 -20.6539 -20.4683 -20.4681 -20.4677 -20.4676
   -12.6697 -12.6662 -12.6658 -12.6405 -12.6401 -12.6274  -2.0875  -2.0871
    -1.9188  -1.8180  -1.8176  -1.7259  -1.5768  -1.5765  -1.2431  -1.2080
    -1.1994  -1.1990  -0.7280  -0.6036  -0.6033  -0.4889  -0.1497  -0.1493
     0.6727   0.6730   0.6740   0.6758   0.6760   0.6798   0.6815   0.6817
     0.7768   0.7792   0.7794   0.8040   0.8041   0.8216   6.2326   6.2330
     6.3487   6.3533   6.8552   6.8556   7.3942   7.8743   7.8746   8.1687
     8.8755   8.8757   9.5077   9.7013   9.7014  10.1962  10.6756  10.6758

     occupation numbers
     1.0000   1.0000   1.0000   1.0000   1.0000   1.0000   1.0000   1.0000
     1.0000   1.0000   1.0000   1.0000   1.0000   1.0000   1.0000   1.0000
     1.0000   1.0000   1.0000   1.0000   1.0000   1.0000   1.0000   1.0000
     1.0000   1.0000   1.0000   1.0000   1.0000   1.0000   1.0000   1.0000
     1.0000   1.0000   1.0000   1.0000   1.0000   1.0000   1.0000   1.0000
     1.0000   1.0000   0.0000   0.0000   0.0000   0.0000   0.0000   0.0000
     0.0000   0.0000   0.0000   0.0000   0.0000   0.0000   0.0000   0.0000
     0.0000   0.0000   0.0000   0.0000   0.0000   0.0000   0.0000   0.0000

     highest occupied, lowest unoccupied level (ev):     0.8299    0.7794

!    total energy              =   -1859.66428002 Ry
     estimated scf accuracy    <       0.00000031 Ry

     The total energy is the sum of the following terms:
     one-electron contribution =    -962.50267688 Ry
     hartree contribution      =     491.19323736 Ry
     xc contribution           =    -117.26933712 Ry
     ewald contribution        =    -300.99246944 Ry
     one-center paw contrib.   =    -970.09303394 Ry
      -> PAW hartree energy AE =     294.00073949 Ry
      -> PAW hartree energy PS =    -268.79035503 Ry
      -> PAW xc energy AE      =    -539.31174671 Ry
      -> PAW xc energy PS      =      29.05484529 Ry
      -> total E_H with PAW    =     516.40362182 Ry
      -> total E_XC with PAW   =    -627.52623855 Ry

     convergence has been achieved in  42 iterations

     Writing all to output data dir bands_nm/myprefix.save/

     General routines

     Parallel routines

     PAW routines

   This run was terminated on:   2:51:36  14Jul2023

   JOB DONE.