     Program PWSCF v.7.1 starts on 14Jul2023 at 18:15:21

     Reading input from espresso_15461.pwi
Warning: card &CELL ignored
Warning: card / ignored

     Current dimensions of program PWSCF are:
     Max number of different atomic species (ntypx) = 10
     Max number of k-points (npk) =  40000
     Max angular momentum in pseudopotentials (lmaxx) =  4
     Message from routine setup:
     using ibrav=0 with symmetry is DISCOURAGED, use correct ibrav instead

     K-points division:     npool     =       2
     R & G space division:  proc/nbgrp/npool/nimage =       4
     Subspace diagonalization in iterative solution of the eigenvalue problem:
     a serial algorithm will be used

     Using Slab Decomposition

     bravais-lattice index     =            0
     lattice parameter (alat)  =      13.9998  a.u.
     unit-cell volume          =    1717.8030 (a.u.)^3
     number of atoms/cell      =            6
     number of atomic types    =            2
     number of electrons       =        78.00
     number of Kohn-Sham states=           64
     kinetic-energy cutoff     =      30.0000  Ry
     charge density cutoff     =     240.0000  Ry
     scf convergence threshold =      1.0E-06
     mixing beta               =       0.7000
     number of iterations used =            8  plain     mixing
     Exchange-correlation=  SLA  PW   PBX  PBC
                           (   1   4   3   4   0   0   0)

     celldm(1)=  13.999762  celldm(2)=   0.000000  celldm(3)=   0.000000
     celldm(4)=   0.000000  celldm(5)=   0.000000  celldm(6)=   0.000000

     crystal axes: (cart. coord. in units of alat)
               a(1) = (   1.000000   0.000000   0.000000 )
               a(2) = (   0.836327   0.548231   0.000000 )
               a(3) = (   0.275667   0.082300   1.141951 )

     reciprocal axes: (cart. coord. in units 2 pi/alat)
               b(1) = (  1.000000 -1.525499 -0.131458 )
               b(2) = (  0.000000  1.824047 -0.131458 )
               b(3) = (  0.000000  0.000000  0.875694 )

     PseudoPot. # 1 for Rb read from file:
     /lustre07/scratch/pragov/crystal_structure_design/utils/SSSP/Rb_ONCV_PBE-1.0.oncvpsp.upf
     MD5 check sum: 55a5172d6bfbce6759a58e35d43f6aa9
     Pseudo is Norm-conserving, Zval =  9.0
     Generated using ONCVPSP code by D. R. Hamann
     Using radial grid of 2308 points,  6 beta functions with:
                l(1) =   0
                l(2) =   0
                l(3) =   1
                l(4) =   1
                l(5) =   2
                l(6) =   2

     PseudoPot. # 2 for Sb read from file:
     /lustre07/scratch/pragov/crystal_structure_design/utils/SSSP/sb_pbe_v1.4.uspp.F.UPF
     MD5 check sum: 9bc50dfb53373b713f5709b9110fe27f
     Pseudo is Ultrasoft + core correction, Zval = 15.0
     Generated by new atomic code, or converted to UPF format
     Using radial grid of  891 points,  6 beta functions with:
                l(1) =   0
                l(2) =   0
                l(3) =   1
                l(4) =   1
                l(5) =   2
                l(6) =   2
     Q(r) pseudized with  8 coefficients,  rinner =    1.350   1.350   1.350
                                                       1.350   1.350

     atomic species   valence    mass     pseudopotential
        Rb             9.00    85.46780     Rb( 1.00)
        Sb            15.00   121.76000     Sb( 1.00)

      2 Sym. Ops., with inversion, found

                                    s                        frac. trans.

      isym =  1     identity

 cryst.   s( 1) = (     1          0          0      )
                  (     0          1          0      )
                  (     0          0          1      )

 cart.    s( 1) = (  1.0000000  0.0000000 -0.0000000 )
                  (  0.0000000  1.0000000  0.0000000 )
                  (  0.0000000  0.0000000  1.0000000 )

      isym =  2     inversion

 cryst.   s( 2) = (    -1          0          0      )
                  (     0         -1          0      )
                  (     0          0         -1      )

 cart.    s( 2) = ( -1.0000000  0.0000000  0.0000000 )
                  (  0.0000000 -1.0000000  0.0000000 )
                  (  0.0000000  0.0000000 -1.0000000 )

   Cartesian axes

     site n.     atom                  positions (alat units)
         1           Rb  tau(   1) = (   0.3857734   0.1151718   0.3451285  )
         2           Rb  tau(   2) = (   1.7262199   0.5153592   0.7968226  )
         3           Sb  tau(   3) = (   0.8847323   0.2641349   0.3581650  )
         4           Sb  tau(   4) = (   0.4209100   0.1256618   1.0191856  )
         5           Sb  tau(   5) = (   1.6910833   0.5048693   0.1227655  )
         6           Sb  tau(   6) = (   1.2272610   0.3663961   0.7837861  )

   Crystallographic axes

     site n.     atom                  positions (cryst. coord.)
         1           Rb  tau(   1) = (  0.1647090  0.1647090  0.3022270  )
         2           Rb  tau(   2) = (  0.8352910  0.8352910  0.6977730  )
         3           Sb  tau(   3) = (  0.4347110  0.4347110  0.3136430  )
         4           Sb  tau(   4) = (  0.0952330  0.0952330  0.8924950  )
         5           Sb  tau(   5) = (  0.9047670  0.9047670  0.1075050  )
         6           Sb  tau(   6) = (  0.5652890  0.5652890  0.6863570  )

     number of k points=    14
                       cart. coord. in units 2pi/alat
        k(    1) = (   0.0000000   0.0000000   0.0000000), wk =   0.0740741
        k(    2) = (   0.0000000   0.0000000   0.2918981), wk =   0.1481481
        k(    3) = (   0.0000000   0.6080158  -0.0438193), wk =   0.1481481
        k(    4) = (   0.0000000   0.6080158   0.2480788), wk =   0.1481481
        k(    5) = (   0.0000000   0.6080158  -0.3357174), wk =   0.1481481
        k(    6) = (   0.3333333  -0.5084998  -0.0438193), wk =   0.1481481
        k(    7) = (   0.3333333  -0.5084998   0.2480788), wk =   0.1481481
        k(    8) = (   0.3333333  -0.5084998  -0.3357174), wk =   0.1481481
        k(    9) = (   0.3333333   0.0995160  -0.0876386), wk =   0.1481481
        k(   10) = (   0.3333333   0.0995160   0.2042595), wk =   0.1481481
        k(   11) = (   0.3333333   0.0995160  -0.3795367), wk =   0.1481481
        k(   12) = (   0.3333333  -1.1165156  -0.0000000), wk =   0.1481481
        k(   13) = (   0.3333333  -1.1165156   0.2918981), wk =   0.1481481
        k(   14) = (   0.3333333  -1.1165156  -0.2918981), wk =   0.1481481

                       cryst. coord.
        k(    1) = (   0.0000000   0.0000000   0.0000000), wk =   0.0740741
        k(    2) = (   0.0000000   0.0000000   0.3333333), wk =   0.1481481
        k(    3) = (   0.0000000   0.3333333   0.0000000), wk =   0.1481481
        k(    4) = (   0.0000000   0.3333333   0.3333333), wk =   0.1481481
        k(    5) = (   0.0000000   0.3333333  -0.3333333), wk =   0.1481481
        k(    6) = (   0.3333333   0.0000000  -0.0000000), wk =   0.1481481
        k(    7) = (   0.3333333   0.0000000   0.3333333), wk =   0.1481481
        k(    8) = (   0.3333333   0.0000000  -0.3333333), wk =   0.1481481
        k(    9) = (   0.3333333   0.3333333   0.0000000), wk =   0.1481481
        k(   10) = (   0.3333333   0.3333333   0.3333333), wk =   0.1481481
        k(   11) = (   0.3333333   0.3333333  -0.3333333), wk =   0.1481481
        k(   12) = (   0.3333333  -0.3333333  -0.0000000), wk =   0.1481481
        k(   13) = (   0.3333333  -0.3333333   0.3333333), wk =   0.1481481
        k(   14) = (   0.3333333  -0.3333333  -0.3333333), wk =   0.1481481

     Check: negative core charge=   -0.000005

     Initial potential from superposition of free atoms

     starting charge      73.9504, renormalised to      78.0000
     Starting wfcs are   46 randomized atomic wfcs +   18 random wfcs

     Self-consistent Calculation

     iteration #  1     ecut=    30.00 Ry     beta= 0.70
     Davidson diagonalization with overlap

     ethr =  1.00E-02,  avg # of iterations =  6.8

     total energy              =    -836.71221888 Ry
     estimated scf accuracy    <       2.77503074 Ry

[...]

     total energy              =    -837.65400621 Ry
     estimated scf accuracy    <       0.00001708 Ry

     iteration #  8     ecut=    30.00 Ry     beta= 0.70
     Davidson diagonalization with overlap

     ethr =  2.19E-08,  avg # of iterations =  2.0

     End of self-consistent calculation

          k = 0.0000 0.0000 0.0000 (  4751 PWs)   bands (ev):

   -23.3592 -23.3220 -23.3059 -23.2962 -23.2657 -23.2555 -23.2360 -23.2244
   -23.2079 -23.1970 -22.7688 -22.7649 -22.7550 -22.7527 -22.6409 -22.6380
   -22.6364 -22.6338 -22.5975 -22.5903 -21.9006 -21.8982  -6.0717  -6.0277
    -6.0009  -5.9685  -5.9182  -5.9152  -5.3833  -4.4114  -1.7934  -0.7319
     2.5717   3.7857   3.8497   3.8526   4.5374   5.2442   5.5614   6.5843
     6.6802   7.1900   8.0363   8.0915   8.6430   9.5870  10.2073  10.3818
    10.5955  11.0269  11.4053  11.6965  11.9991  12.4339  12.4867  12.6519
    12.7137  13.0758  13.1820  13.4328  13.5586  13.6836  13.8705  14.3463

     occupation numbers
     1.0000   1.0000   1.0000   1.0000   1.0000   1.0000   1.0000   1.0000
     1.0000   1.0000   1.0000   1.0000   1.0000   1.0000   1.0000   1.0000
     1.0000   1.0000   1.0000   1.0000   1.0000   1.0000   1.0000   1.0000
     1.0000   1.0000   1.0000   1.0000   1.0000   1.0000   1.0000   1.0000
     1.0000   1.0000   1.0000   1.0000   1.0000   1.0000   1.0000   0.0000
     0.0000   0.0000   0.0000   0.0000   0.0000   0.0000   0.0000   0.0000
     0.0000   0.0000   0.0000   0.0000   0.0000   0.0000   0.0000   0.0000
     0.0000   0.0000   0.0000   0.0000   0.0000   0.0000   0.0000   0.0000

[...]

          k = 0.3333-1.1165-0.2919 (  4777 PWs)   bands (ev):

   -23.3660 -23.3143 -23.2944 -23.2915 -23.2681 -23.2507 -23.2364 -23.2253
   -23.2134 -23.1994 -22.7784 -22.7764 -22.7717 -22.7697 -22.6442 -22.6412
   -22.6345 -22.6336 -22.5918 -22.5893 -21.8895 -21.8893  -6.1298  -6.1153
    -6.0462  -6.0016  -5.9897  -5.9506  -4.5472  -3.5918  -2.3168  -1.6415
     2.2361   2.4329   3.0363   3.5971   4.1114   4.8875   5.2672   6.8205
     7.2053   7.5369   7.9599   8.7552   9.3482   9.5060   9.8501  10.5264
    10.7081  10.8901  11.4557  11.5578  11.7099  12.0483  12.2101  12.5865
    12.9430  13.0968  13.1661  13.3504  13.6650  14.3271  14.5463  14.7475

     occupation numbers
     1.0000   1.0000   1.0000   1.0000   1.0000   1.0000   1.0000   1.0000
     1.0000   1.0000   1.0000   1.0000   1.0000   1.0000   1.0000   1.0000
     1.0000   1.0000   1.0000   1.0000   1.0000   1.0000   1.0000   1.0000
     1.0000   1.0000   1.0000   1.0000   1.0000   1.0000   1.0000   1.0000
     1.0000   1.0000   1.0000   1.0000   1.0000   1.0000   1.0000   0.0000
     0.0000   0.0000   0.0000   0.0000   0.0000   0.0000   0.0000   0.0000
     0.0000   0.0000   0.0000   0.0000   0.0000   0.0000   0.0000   0.0000
     0.0000   0.0000   0.0000   0.0000   0.0000   0.0000   0.0000   0.0000

     highest occupied, lowest unoccupied level (ev):     5.8353    6.3947

!    total energy              =    -837.65401021 Ry
     estimated scf accuracy    <       0.00000046 Ry

     The total energy is the sum of the following terms:
     one-electron contribution =    -524.43541792 Ry
     hartree contribution      =     291.26868156 Ry
     xc contribution           =    -190.98032991 Ry
     ewald contribution        =    -413.50694395 Ry

     convergence has been achieved in   8 iterations

     Writing all to output data dir bands_nm/myprefix.save/

     General routines

     Parallel routines

   This run was terminated on:  18:15:30  14Jul2023

   JOB DONE.