     Program PWSCF v.7.1 starts on 14Jul2023 at  2:28: 7

     Reading input from espresso_9613.pwi
Warning: card &CELL ignored
Warning: card / ignored

     Current dimensions of program PWSCF are:
     Max number of different atomic species (ntypx) = 10
     Max number of k-points (npk) =  40000
     Max angular momentum in pseudopotentials (lmaxx) =  4
     file Ho.paw.z_21.atompaw.wentzcovitch.v1.2.upf: wavefunction(s)  6S 0P 5D 0D 4F 0F renormalized
     file O.pbe-n-kjpaw_psl.0.1.UPF: wavefunction(s)  2P renormalized
     Message from routine setup:
     using ibrav=0 with symmetry is DISCOURAGED, use correct ibrav instead

     K-points division:     npool     =       2
     R & G space division:  proc/nbgrp/npool/nimage =       4
     Subspace diagonalization in iterative solution of the eigenvalue problem:
     a serial algorithm will be used

     Using Slab Decomposition

     bravais-lattice index     =            0
     lattice parameter (alat)  =      12.3573  a.u.
     unit-cell volume          =    1008.1406 (a.u.)^3
     number of atoms/cell      =           12
     number of atomic types    =            3
     number of electrons       =       116.00
     number of Kohn-Sham states=           64
     kinetic-energy cutoff     =      30.0000  Ry
     charge density cutoff     =     240.0000  Ry
     scf convergence threshold =      1.0E-06
     mixing beta               =       0.7000
     number of iterations used =            8  plain     mixing
     Exchange-correlation= SLA  PW   PBX  PBC
                           (   1   4   3   4   0   0   0)

     celldm(1)=  12.357325  celldm(2)=   0.000000  celldm(3)=   0.000000
     celldm(4)=   0.000000  celldm(5)=   0.000000  celldm(6)=   0.000000

     crystal axes: (cart. coord. in units of alat)
               a(1) = (   1.000000   0.000000   0.000000 )
               a(2) = (  -0.423669   0.905817   0.000000 )
               a(3) = (   0.272800   0.428758   0.589803 )

     reciprocal axes: (cart. coord. in units 2 pi/alat)
               b(1) = (  1.000000  0.467721 -0.802537 )
               b(2) = (  0.000000  1.103976 -0.802537 )
               b(3) = (  0.000000  0.000000  1.695480 )

     PseudoPot. # 1 for Ho read from file:
     /lustre07/scratch/pragov/crystal_structure_design/utils/SSSP/Ho.paw.z_21.atompaw.wentzcovitch.v1.2.upf
     MD5 check sum: f900adcc49abc9ab8113872cdbacec3e
     Pseudo is Projector augmented-wave + core cor, Zval = 21.0
     Generated using ATOMPAW code
     Shape of augmentation charge: BESSEL
     Using radial grid of 1114 points,  8 beta functions with:
                l(1) =   0
                l(2) =   0
                l(3) =   1
                l(4) =   1
                l(5) =   2
                l(6) =   2
                l(7) =   3
                l(8) =   3
     Q(r) pseudized with 0 coefficients

     PseudoPot. # 2 for Ta read from file:
     /lustre07/scratch/pragov/crystal_structure_design/utils/SSSP/Ta_pbe_v1.uspp.F.UPF
     MD5 check sum: f8bbe9446314a3b8ea5d9f3e3836c939
     Pseudo is Ultrasoft + core correction, Zval = 13.0
     Generated by new atomic code, or converted to UPF format
     Using radial grid of  921 points,  7 beta functions with:
                l(1) =   0
                l(2) =   0
                l(3) =   1
                l(4) =   1
                l(5) =   2
                l(6) =   2
                l(7) =   3
     Q(r) pseudized with  6 coefficients,  rinner =    1.300   1.300   1.300
                                                       1.300   1.300   1.300
                                                       1.300

     PseudoPot. # 3 for O  read from file:
     /lustre07/scratch/pragov/crystal_structure_design/utils/SSSP/O.pbe-n-kjpaw_psl.0.1.UPF
     MD5 check sum: 0234752ac141de4415c5fc33072bef88
     Pseudo is Projector augmented-wave + core cor, Zval =  6.0
     Generated using "atomic" code by A. Dal Corso  v.5.0.99 svn rev. 10869
     Shape of augmentation charge: BESSEL
     Using radial grid of 1095 points,  4 beta functions with:
                l(1) =   0
                l(2) =   0
                l(3) =   1
                l(4) =   1
     Q(r) pseudized with 0 coefficients

     atomic species   valence    mass     pseudopotential
        Ho            21.00   164.93033     Ho( 1.00)
        Ta            13.00   180.94788     Ta( 1.00)
        O              6.00    15.99900     O ( 1.00)

      2 Sym. Ops., with inversion, found

                                    s                        frac. trans.

      isym =  1     identity

 cryst.   s( 1) = (     1          0          0      )
                  (     0          1          0      )
                  (     0          0          1      )

 cart.    s( 1) = (  1.0000000 -0.0000000  0.0000000 )
                  (  0.0000000  1.0000000  0.0000000 )
                  (  0.0000000  0.0000000  1.0000000 )

      isym =  2     inversion

 cryst.   s( 2) = (    -1          0          0      )
                  (     0         -1          0      )
                  (     0          0         -1      )

 cart.    s( 2) = ( -1.0000000  0.0000000 -0.0000000 )
                  (  0.0000000 -1.0000000 -0.0000000 )
                  (  0.0000000  0.0000000 -1.0000000 )

   Cartesian axes

     site n.     atom                  positions (alat units)
         1           Ho  tau(   1) = (   0.5435066   0.4410284   0.1474508  )
         2           Ho  tau(   2) = (   0.3056237   0.8935469   0.4423525  )
         3           Ta  tau(   3) = (  -0.2104687   0.9207490   0.1474508  )
         4           Ta  tau(   4) = (   1.0595990   0.4138262   0.4423525  )
         5           O   tau(   5) = (   0.4006120   0.5303046   0.4635607  )
         6           O   tau(   6) = (   0.6748983   0.9613995   0.4211444  )
         7           O   tau(   7) = (   0.4485183   0.8042707   0.1262427  )
         8           O   tau(   8) = (   0.1742320   0.3731758   0.1686590  )
         9           O   tau(   9) = (  -0.1727385   0.6409402   0.0938206  )
        10           O   tau(  10) = (   0.0589720   1.0051188   0.2010811  )
        11           O   tau(  11) = (   1.0218689   0.6936351   0.4959828  )
        12           O   tau(  12) = (   0.7901583   0.3294564   0.3887223  )

   Crystallographic axes

     site n.     atom                  positions (cryst. coord.)
         1           Ho  tau(   1) = (  0.6314500  0.3685500  0.2500000  )
         2           Ho  tau(   2) = (  0.3685500  0.6314500  0.7500000  )
         3           Ta  tau(   3) = (  0.1018500  0.8981500  0.2500000  )
         4           Ta  tau(   4) = (  0.8981500  0.1018500  0.7500000  )
         5           O   tau(   5) = (  0.2766220  0.2134190  0.7859580  )
         6           O   tau(   6) = (  0.7865810  0.7233780  0.7140420  )
         7           O   tau(   7) = (  0.7233780  0.7865810  0.2140420  )
         8           O   tau(   8) = (  0.2134190  0.2766220  0.2859580  )
         9           O   tau(   9) = (  0.0517480  0.6322880  0.1590710  )
        10           O   tau(  10) = (  0.3677120  0.9482520  0.3409290  )
        11           O   tau(  11) = (  0.9482520  0.3677120  0.8409290  )
        12           O   tau(  12) = (  0.6322880  0.0517480  0.6590710  )

     number of k points=    14
                       cart. coord. in units 2pi/alat
        k(    1) = (   0.0000000   0.0000000   0.0000000), wk =   0.0740741
        k(    2) = (   0.0000000   0.0000000   0.5651601), wk =   0.1481481
        k(    3) = (   0.0000000   0.3679920  -0.2675123), wk =   0.1481481
        k(    4) = (   0.0000000   0.3679920   0.2976479), wk =   0.1481481
        k(    5) = (   0.0000000   0.3679920  -0.8326724), wk =   0.1481481
        k(    6) = (   0.3333333   0.1559069  -0.2675123), wk =   0.1481481
        k(    7) = (   0.3333333   0.1559069   0.2976479), wk =   0.1481481
        k(    8) = (   0.3333333   0.1559069  -0.8326724), wk =   0.1481481
        k(    9) = (   0.3333333   0.5238989  -0.5350245), wk =   0.1481481
        k(   10) = (   0.3333333   0.5238989   0.0301356), wk =   0.1481481
        k(   11) = (   0.3333333   0.5238989  -1.1001846), wk =   0.1481481
        k(   12) = (   0.3333333  -0.2120850  -0.0000000), wk =   0.1481481
        k(   13) = (   0.3333333  -0.2120850   0.5651601), wk =   0.1481481
        k(   14) = (   0.3333333  -0.2120850  -0.5651601), wk =   0.1481481

                       cryst. coord.
        k(    1) = (   0.0000000   0.0000000   0.0000000), wk =   0.0740741
        k(    2) = (   0.0000000   0.0000000   0.3333333), wk =   0.1481481
        k(    3) = (   0.0000000   0.3333333   0.0000000), wk =   0.1481481
        k(    4) = (   0.0000000   0.3333333   0.3333333), wk =   0.1481481
        k(    5) = (   0.0000000   0.3333333  -0.3333333), wk =   0.1481481
        k(    6) = (   0.3333333   0.0000000   0.0000000), wk =   0.1481481
        k(    7) = (   0.3333333   0.0000000   0.3333333), wk =   0.1481481
        k(    8) = (   0.3333333   0.0000000  -0.3333333), wk =   0.1481481
        k(    9) = (   0.3333333   0.3333333   0.0000000), wk =   0.1481481
        k(   10) = (   0.3333333   0.3333333   0.3333333), wk =   0.1481481
        k(   11) = (   0.3333333   0.3333333  -0.3333333), wk =   0.1481481
        k(   12) = (   0.3333333  -0.3333333  -0.0000000), wk =   0.1481481
        k(   13) = (   0.3333333  -0.3333333   0.3333333), wk =   0.1481481
        k(   14) = (   0.3333333  -0.3333333  -0.3333333), wk =   0.1481481

     Check: negative core charge=   -0.000010

     Initial potential from superposition of free atoms

     starting charge     115.9892, renormalised to     116.0000

     negative rho (up, down):  1.891E-01 0.000E+00
     Starting wfcs are  122 randomized atomic wfcs
     Checking if some PAW data can be deallocated...

     Self-consistent Calculation

     iteration #  1     ecut=    30.00 Ry     beta= 0.70
     Davidson diagonalization with overlap

     ethr =  1.00E-02,  avg # of iterations =  2.0

     negative rho (up, down):  1.895E-01 0.000E+00

     total energy              =   -2274.25477287 Ry
     estimated scf accuracy    <       4.05551352 Ry

[...]

     total energy              =   -2276.88539874 Ry
     estimated scf accuracy    <       0.00000282 Ry

     iteration # 70     ecut=    30.00 Ry     beta= 0.70
     Davidson diagonalization with overlap

     ethr =  9.40E-10,  avg # of iterations =  1.0

     negative rho (up, down):  1.910E-01 0.000E+00

     End of self-consistent calculation

          k = 0.0000 0.0000 0.0000 (  2793 PWs)   bands (ev):

   -56.5453 -56.5395 -34.2549 -34.2363 -23.2029 -23.1926 -23.1728 -23.1206
   -23.1094 -23.0660  -9.8603  -9.7273  -9.6561  -9.5963  -9.5414  -9.2652
    -7.0441  -5.9048  -5.5417  -5.4492  -5.4255  -5.1686  -5.1608  -5.1131
     6.0268   6.1096   6.2530   6.4482   6.4896   6.5066   7.2648   7.4155
     7.9558   8.2586   8.3548   8.4669   8.5809   8.7898   8.9466   8.9804
     9.4286   9.4453   9.5424   9.5554   9.9769  10.0645  10.1358  10.5095
    11.4943  11.5487  11.5493  11.5561  11.6096  11.6729  11.6842  11.6970
    11.7061  11.7436  11.7580  11.7723  11.8004  11.8308  15.0744  15.2162

     occupation numbers
     1.0000   1.0000   1.0000   1.0000   1.0000   1.0000   1.0000   1.0000
     1.0000   1.0000   1.0000   1.0000   1.0000   1.0000   1.0000   1.0000
     1.0000   1.0000   1.0000   1.0000   1.0000   1.0000   1.0000   1.0000
     1.0000   1.0000   1.0000   1.0000   1.0000   1.0000   1.0000   1.0000
     1.0000   1.0000   1.0000   1.0000   1.0000   1.0000   1.0000   1.0000
     1.0000   1.0000   1.0000   1.0000   1.0000   1.0000   1.0000   1.0000
     1.0000   1.0000   1.0000   1.0000   1.0000   1.0000   1.0000   1.0000
     1.0000   1.0000   0.0000   0.0000   0.0000   0.0000   0.0000   0.0000

[...]

          k = 0.3333-0.2121-0.5652 (  2800 PWs)   bands (ev):

   -56.5438 -56.5410 -34.2480 -34.2431 -23.2020 -23.2007 -23.1653 -23.1405
   -23.0890 -23.0690  -9.8842  -9.8038  -9.7348  -9.5450  -9.4017  -9.3411
    -6.3705  -5.9888  -5.9604  -5.7711  -5.3363  -5.3070  -5.1250  -4.9793
     6.2769   6.4467   6.6077   6.7489   6.8609   7.0569   7.2247   7.4854
     7.6730   7.8790   7.9124   8.2706   8.3932   8.6433   8.8441   9.0863
     9.2001   9.3782   9.4539   9.6119   9.7703  10.0302  10.1350  10.1668
    11.5054  11.5116  11.5296  11.5453  11.6025  11.6317  11.6823  11.6964
    11.7145  11.7360  11.7686  11.7728  11.8020  11.8145  14.9946  15.1893

     occupation numbers
     1.0000   1.0000   1.0000   1.0000   1.0000   1.0000   1.0000   1.0000
     1.0000   1.0000   1.0000   1.0000   1.0000   1.0000   1.0000   1.0000
     1.0000   1.0000   1.0000   1.0000   1.0000   1.0000   1.0000   1.0000
     1.0000   1.0000   1.0000   1.0000   1.0000   1.0000   1.0000   1.0000
     1.0000   1.0000   1.0000   1.0000   1.0000   1.0000   1.0000   1.0000
     1.0000   1.0000   1.0000   1.0000   1.0000   1.0000   1.0000   1.0000
     1.0000   1.0000   1.0000   1.0000   1.0000   1.0000   1.0000   1.0000
     1.0000   1.0000   0.0000   0.0000   0.0000   0.0000   0.0000   0.0000

     highest occupied, lowest unoccupied level (ev):    11.7555   11.7352

!    total energy              =   -2276.88539724 Ry
     estimated scf accuracy    <       0.00000053 Ry

     The total energy is the sum of the following terms:
     one-electron contribution =    -507.99048813 Ry
     hartree contribution      =     313.58590932 Ry
     xc contribution           =    -204.81989191 Ry
     ewald contribution        =    -831.17345317 Ry
     one-center paw contrib.   =   -1046.48747334 Ry
      -> PAW hartree energy AE =     586.28095095 Ry
      -> PAW hartree energy PS =    -536.08632035 Ry
      -> PAW xc energy AE      =   -1078.52121811 Ry
      -> PAW xc energy PS      =      58.01479991 Ry
      -> total E_H with PAW    =     363.78053992 Ry
      -> total E_XC with PAW   =   -1225.32631011 Ry

     convergence has been achieved in  70 iterations

     Writing all to output data dir bands_nm/myprefix.save/

     General routines

     Parallel routines

     PAW routines

   This run was terminated on:   2:29:23  14Jul2023

   JOB DONE.