     Program PWSCF v.7.1 starts on 14Jul2023 at  2:38:19

     Reading input from espresso_10646.pwi
Warning: card &CELL ignored
Warning: card / ignored

     Current dimensions of program PWSCF are:
     Max number of different atomic species (ntypx) = 10
     Max number of k-points (npk) =  40000
     Max angular momentum in pseudopotentials (lmaxx) =  4
     file Ba.pbe-spn-kjpaw_psl.1.0.0.UPF: wavefunction(s)  5S 6S renormalized
     file Mg.pbe-n-kjpaw_psl.0.3.0.UPF: wavefunction(s)  3S renormalized
     file O.pbe-n-kjpaw_psl.0.1.UPF: wavefunction(s)  2P renormalized
     Message from routine setup:
     using ibrav=0 with symmetry is DISCOURAGED, use correct ibrav instead

     K-points division:     npool     =       2
     R & G space division:  proc/nbgrp/npool/nimage =       4
     Subspace diagonalization in iterative solution of the eigenvalue problem:
     a serial algorithm will be used

     Using Slab Decomposition

     bravais-lattice index     =            0
     lattice parameter (alat)  =      11.2919  a.u.
     unit-cell volume          =    1427.0152 (a.u.)^3
     number of atoms/cell      =           12
     number of atomic types    =            3
     number of electrons       =        72.00
     number of Kohn-Sham states=           64
     kinetic-energy cutoff     =      30.0000  Ry
     charge density cutoff     =     240.0000  Ry
     scf convergence threshold =      1.0E-06
     mixing beta               =       0.7000
     number of iterations used =            8  plain     mixing
     Exchange-correlation= SLA  PW   PBX  PBC
                           (   1   4   3   4   0   0   0)

     celldm(1)=  11.291947  celldm(2)=   0.000000  celldm(3)=   0.000000
     celldm(4)=   0.000000  celldm(5)=   0.000000  celldm(6)=   0.000000

     crystal axes: (cart. coord. in units of alat)
               a(1) = (   1.000000   0.000000   0.000000 )
               a(2) = (  -0.500000   0.866025   0.000000 )
               a(3) = (   0.000000   0.000000   1.144436 )

     reciprocal axes: (cart. coord. in units 2 pi/alat)
               b(1) = (  1.000000  0.577351  0.000000 )
               b(2) = (  0.000000  1.154701  0.000000 )
               b(3) = (  0.000000  0.000000  0.873793 )

     PseudoPot. # 1 for Ba read from file:
     /lustre07/scratch/pragov/crystal_structure_design/utils/SSSP/Ba.pbe-spn-kjpaw_psl.1.0.0.UPF
     MD5 check sum: c432291d3e53af55f19d5e8866385beb
     Pseudo is Projector augmented-wave + core cor, Zval = 10.0
     Generated using "atomic" code by A. Dal Corso  v.5.1
     Shape of augmentation charge: PSQ
     Using radial grid of 1251 points,  7 beta functions with:
                l(1) =   0
                l(2) =   0
                l(3) =   0
                l(4) =   1
                l(5) =   1
                l(6) =   2
                l(7) =   2
     Q(r) pseudized with 0 coefficients

     PseudoPot. # 2 for Mg read from file:
     /lustre07/scratch/pragov/crystal_structure_design/utils/SSSP/Mg.pbe-n-kjpaw_psl.0.3.0.UPF
     MD5 check sum: 24ecedc7f3e3cbe212e682f4413594e4
     Pseudo is Projector augmented-wave + core cor, Zval =  2.0
     Generated using "atomic" code by A. Dal Corso  v.5.0.99 svn rev. 10869
     Shape of augmentation charge: PSQ
     Using radial grid of 1129 points,  4 beta functions with:
                l(1) =   0
                l(2) =   0
                l(3) =   1
                l(4) =   1
     Q(r) pseudized with 0 coefficients

     PseudoPot. # 3 for O  read from file:
     /lustre07/scratch/pragov/crystal_structure_design/utils/SSSP/O.pbe-n-kjpaw_psl.0.1.UPF
     MD5 check sum: 0234752ac141de4415c5fc33072bef88
     Pseudo is Projector augmented-wave + core cor, Zval =  6.0
     Generated using "atomic" code by A. Dal Corso  v.5.0.99 svn rev. 10869
     Shape of augmentation charge: BESSEL
     Using radial grid of 1095 points,  4 beta functions with:
                l(1) =   0
                l(2) =   0
                l(3) =   1
                l(4) =   1
     Q(r) pseudized with 0 coefficients

     atomic species   valence    mass     pseudopotential
        Ba            10.00   137.32700     Ba( 1.00)
        Mg             2.00    24.30500     Mg( 1.00)
        O              6.00    15.99900     O ( 1.00)

      6 Sym. Ops. (no inversion) found ( 4 have fractional translation)

                                    s                        frac. trans.

      isym =  1     identity

 cryst.   s( 1) = (     1          0          0      )
                  (     0          1          0      )
                  (     0          0          1      )

 cart.    s( 1) = (  1.0000000  0.0000000  0.0000000 )
                  (  0.0000000  1.0000000  0.0000000 )
                  (  0.0000000  0.0000000  1.0000000 )

      isym =  2     180 deg rotation - cart. axis [1,0,0]

 cryst.   s( 2) = (     1          0          0      )    f =(  0.0000000 )
                  (    -1         -1          0      )       (  0.0000000 )
                  (     0          0         -1      )       (  0.3333330 )

 cart.    s( 2) = (  1.0000000  0.0000004  0.0000000 )    f =( -0.0000000 )
                  (  0.0000000 -1.0000000  0.0000000 )       (  0.0000000 )
                  (  0.0000000  0.0000000 -1.0000000 )       (  0.3814783 )

      isym =  3     120 deg rotation - cryst. axis [0,0,1]

[...]

 cryst.   s( 5) = (    -1         -1          0      )    f =(  0.0000000 )
                  (     0          1          0      )       (  0.0000000 )
                  (     0          0         -1      )       ( -0.3333340 )

 cart.    s( 5) = ( -0.4999998 -0.8660257  0.0000000 )    f =(  0.0000000 )
                  ( -0.8660253  0.4999998  0.0000000 )       (  0.0000000 )
                  (  0.0000000  0.0000000 -1.0000000 )       ( -0.3814794 )

      isym =  6     180 deg rotation - cryst. axis [1,1,0]

 cryst.   s( 6) = (     0          1          0      )
                  (     1          0          0      )
                  (     0          0         -1      )

 cart.    s( 6) = ( -0.5000002  0.8660253  0.0000000 )
                  (  0.8660253  0.5000002  0.0000000 )
                  (  0.0000000  0.0000000 -1.0000000 )

   Cartesian axes

     site n.     atom                  positions (alat units)
         1           Ba  tau(   1) = (  -0.3268251   0.5660774   0.1907397  )
         2           Ba  tau(   2) = (   0.1731749   0.2999479   0.5722180  )
         3           Ba  tau(   3) = (   0.6536500   0.0000000   0.9536963  )
         4           Mg  tau(   4) = (  -0.2873826   0.4977610   0.7629577  )
         5           Mg  tau(   5) = (   0.2126174   0.3682643   0.0000000  )
         6           Mg  tau(   6) = (   0.5747650   0.0000000   0.3814783  )
         7           O   tau(   7) = (  -0.1369111   0.7525916   0.6181374  )
         8           O   tau(   8) = (  -0.0833081   0.3711611   0.9996157  )
         9           O   tau(   9) = (   0.2202189   0.6082979   0.2366591  )
        10           O   tau(  10) = (   0.3630890   0.1134337   0.1448204  )
        11           O   tau(  11) = (   0.4166919   0.4948642   0.9077770  )
        12           O   tau(  12) = (   0.7202189   0.2577274   0.5262987  )

   Crystallographic axes

     site n.     atom                  positions (cryst. coord.)
         1           Ba  tau(   1) = ( -0.0000000  0.6536500  0.1666670  )
         2           Ba  tau(   2) = (  0.3463500  0.3463500  0.5000000  )
         3           Ba  tau(   3) = (  0.6536500  0.0000000  0.8333330  )
         4           Mg  tau(   4) = (  0.0000000  0.5747650  0.6666670  )
         5           Mg  tau(   5) = (  0.4252350  0.4252350  0.0000000  )
         6           Mg  tau(   6) = (  0.5747650  0.0000000  0.3333330  )
         7           O   tau(   7) = (  0.2975980  0.8690180  0.5401240  )
         8           O   tau(   8) = (  0.1309820  0.4285800  0.8734570  )
         9           O   tau(   9) = (  0.5714200  0.7024020  0.2067910  )
        10           O   tau(  10) = (  0.4285800  0.1309820  0.1265430  )
        11           O   tau(  11) = (  0.7024020  0.5714200  0.7932090  )
        12           O   tau(  12) = (  0.8690180  0.2975980  0.4598760  )

     number of k points=     7
                       cart. coord. in units 2pi/alat
        k(    1) = (   0.0000000   0.0000000   0.0000000), wk =   0.0740741
        k(    2) = (   0.0000000   0.0000000   0.2912643), wk =   0.1481481
        k(    3) = (   0.0000000   0.3849002   0.0000000), wk =   0.4444444
        k(    4) = (   0.0000000   0.3849002   0.2912643), wk =   0.4444444
        k(    5) = (   0.3333333   0.5773504   0.0000000), wk =   0.1481481
        k(    6) = (   0.3333333   0.5773504   0.2912643), wk =   0.2962963
        k(    7) = (   0.0000000   0.3849002  -0.2912643), wk =   0.4444444

                       cryst. coord.
        k(    1) = (   0.0000000   0.0000000   0.0000000), wk =   0.0740741
        k(    2) = (   0.0000000   0.0000000   0.3333333), wk =   0.1481481
        k(    3) = (   0.0000000   0.3333333   0.0000000), wk =   0.4444444
        k(    4) = (   0.0000000   0.3333333   0.3333333), wk =   0.4444444
        k(    5) = (   0.3333333   0.3333333   0.0000000), wk =   0.1481481
        k(    6) = (   0.3333333   0.3333333   0.3333333), wk =   0.2962963
        k(    7) = (   0.0000000   0.3333333  -0.3333333), wk =   0.4444444

     Check: negative core charge=   -0.000005

     Initial potential from superposition of free atoms

     starting charge      71.9462, renormalised to      72.0000
     Starting wfcs are   51 randomized atomic wfcs +   13 random wfcs
     Checking if some PAW data can be deallocated...

     Self-consistent Calculation

     iteration #  1     ecut=    30.00 Ry     beta= 0.70
     Davidson diagonalization with overlap

     ethr =  1.00E-02,  avg # of iterations =  6.4

     total energy              =   -1658.79994930 Ry
     estimated scf accuracy    <       3.30574298 Ry

[...]

     total energy              =   -1660.41462396 Ry
     estimated scf accuracy    <       0.00000428 Ry

     iteration #  9     ecut=    30.00 Ry     beta= 0.70
     Davidson diagonalization with overlap

     ethr =  5.94E-09,  avg # of iterations =  2.0

     End of self-consistent calculation

          k = 0.0000 0.0000 0.0000 (  3959 PWs)   bands (ev):

   -19.5846 -19.4703 -19.4703  -9.8663  -9.8139  -9.8138  -9.5882  -9.5881
    -9.5033  -5.0990  -4.9417  -4.8476  -4.8476  -4.7151  -4.7151  -4.6984
    -4.4605  -4.4605   3.0554   3.0555   4.1380   4.3982   4.4565   4.4565
     4.7617   4.7618   5.0533   5.1446   5.1447   5.2483   5.2931   5.2932
     5.3896   5.5707   5.6826   5.6826   8.8901  10.1611  10.1612  11.1978
    11.1978  11.5139  12.0091  12.0092  12.1398  13.1372  13.1373  13.1394
    13.7417  13.8895  13.8895  14.1859  15.7137  15.7137  16.4343  16.4343
    16.8179  16.8179  17.1763  17.3280  17.8228  18.4049  18.4049  18.9703

     occupation numbers
     1.0000   1.0000   1.0000   1.0000   1.0000   1.0000   1.0000   1.0000
     1.0000   1.0000   1.0000   1.0000   1.0000   1.0000   1.0000   1.0000
     1.0000   1.0000   1.0000   1.0000   1.0000   1.0000   1.0000   1.0000
     1.0000   1.0000   1.0000   1.0000   1.0000   1.0000   1.0000   1.0000
     1.0000   1.0000   1.0000   1.0000   0.0000   0.0000   0.0000   0.0000
     0.0000   0.0000   0.0000   0.0000   0.0000   0.0000   0.0000   0.0000
     0.0000   0.0000   0.0000   0.0000   0.0000   0.0000   0.0000   0.0000
     0.0000   0.0000   0.0000   0.0000   0.0000   0.0000   0.0000   0.0000

[...]

          k = 0.0000 0.3849-0.2913 (  3965 PWs)   bands (ev):

   -19.5359 -19.5177 -19.4664 -10.0354  -9.9085  -9.7157  -9.6208  -9.5600
    -9.5073  -4.9635  -4.9451  -4.7898  -4.7236  -4.6790  -4.6395  -4.5580
    -4.4773  -4.4541   2.8868   3.4962   3.8383   4.1311   4.1936   4.2751
     4.5404   4.6572   4.7877   4.8972   5.0109   5.0738   5.2452   5.3757
     5.4097   5.4631   5.5874   5.6726  10.1598  10.4488  10.7788  11.2844
    11.6349  11.9080  12.0786  12.2475  12.5526  12.7071  12.8828  13.2635
    13.6326  13.8296  14.0727  14.3969  14.9685  15.5275  15.6966  15.9910
    16.3082  17.0170  17.3007  17.5543  17.7990  17.9282  18.4616  18.8096

     occupation numbers
     1.0000   1.0000   1.0000   1.0000   1.0000   1.0000   1.0000   1.0000
     1.0000   1.0000   1.0000   1.0000   1.0000   1.0000   1.0000   1.0000
     1.0000   1.0000   1.0000   1.0000   1.0000   1.0000   1.0000   1.0000
     1.0000   1.0000   1.0000   1.0000   1.0000   1.0000   1.0000   1.0000
     1.0000   1.0000   1.0000   1.0000   0.0000   0.0000   0.0000   0.0000
     0.0000   0.0000   0.0000   0.0000   0.0000   0.0000   0.0000   0.0000
     0.0000   0.0000   0.0000   0.0000   0.0000   0.0000   0.0000   0.0000
     0.0000   0.0000   0.0000   0.0000   0.0000   0.0000   0.0000   0.0000

     highest occupied, lowest unoccupied level (ev):     5.7465    8.8901

!    total energy              =   -1660.41462425 Ry
     total all-electron energy =    -50919.937961 Ry
     estimated scf accuracy    <       0.00000013 Ry

     The total energy is the sum of the following terms:
     one-electron contribution =     -88.42786997 Ry
     hartree contribution      =      88.16615454 Ry
     xc contribution           =    -111.15446238 Ry
     ewald contribution        =    -273.08011368 Ry
     one-center paw contrib.   =   -1275.91833277 Ry
      -> PAW hartree energy AE =      57.66089195 Ry
      -> PAW hartree energy PS =     -57.43975338 Ry
      -> PAW xc energy AE      =    -788.49296691 Ry
      -> PAW xc energy PS      =      38.35774920 Ry
      -> total E_H with PAW    =      88.38729311 Ry
      -> total E_XC with PAW   =    -861.28968009 Ry

     convergence has been achieved in   9 iterations

     Writing all to output data dir bands_nm/myprefix.save/

     General routines

     Parallel routines

     PAW routines

   This run was terminated on:   2:38:25  14Jul2023

   JOB DONE.