     Program PWSCF v.7.1 starts on 16Jul2023 at 13:17:50

     Reading input from espresso_3626.pwi
Warning: card &CELL ignored
Warning: card / ignored

     Current dimensions of program PWSCF are:
     Max number of different atomic species (ntypx) = 10
     Max number of k-points (npk) =  40000
     Max angular momentum in pseudopotentials (lmaxx) =  4
     file K.pbe-spn-kjpaw_psl.1.0.0.UPF: wavefunction(s)  3S renormalized
     file Nb.pbe-spn-kjpaw_psl.0.3.0.UPF: wavefunction(s)  4S 4P renormalized
     file O.pbe-n-kjpaw_psl.0.1.UPF: wavefunction(s)  2P renormalized
     Message from routine setup:
     using ibrav=0 with symmetry is DISCOURAGED, use correct ibrav instead

     K-points division:     npool     =       2
     R & G space division:  proc/nbgrp/npool/nimage =       4
     Subspace diagonalization in iterative solution of the eigenvalue problem:
     a serial algorithm will be used

     Using Slab Decomposition

     bravais-lattice index     =            0
     lattice parameter (alat)  =       7.5636  a.u.
     unit-cell volume          =     900.3478 (a.u.)^3
     number of atoms/cell      =           10
     number of atomic types    =            4
     number of electrons       =        80.00
     number of Kohn-Sham states=           64
     kinetic-energy cutoff     =      30.0000  Ry
     charge density cutoff     =     240.0000  Ry
     scf convergence threshold =      1.0E-06
     mixing beta               =       0.7000
     number of iterations used =            8  plain     mixing
     Exchange-correlation= SLA  PW   PBX  PBC
                           (   1   4   3   4   0   0   0)

     celldm(1)=   7.563638  celldm(2)=   0.000000  celldm(3)=   0.000000
     celldm(4)=   0.000000  celldm(5)=   0.000000  celldm(6)=   0.000000

     crystal axes: (cart. coord. in units of alat)
               a(1) = (   1.000000   0.000000   0.000000 )
               a(2) = (   0.000000   1.020302   0.000000 )
               a(3) = (   0.000000   0.013704   2.039339 )

     reciprocal axes: (cart. coord. in units 2 pi/alat)
               b(1) = (  1.000000  0.000000  0.000000 )
               b(2) = (  0.000000  0.980102 -0.006586 )
               b(3) = (  0.000000  0.000000  0.490355 )

     PseudoPot. # 1 for K  read from file:
     /lustre07/scratch/pragov/crystal_structure_design/utils/SSSP/K.pbe-spn-kjpaw_psl.1.0.0.UPF
     MD5 check sum: 7d58810084cac21f60fbe77ea2b688fd
     Pseudo is Projector augmented-wave + core cor, Zval =  9.0
     Generated using "atomic" code by A. Dal Corso  v.5.1
     Shape of augmentation charge: PSQ
     Using radial grid of 1165 points,  6 beta functions with:
                l(1) =   0
                l(2) =   0
                l(3) =   1
                l(4) =   1
                l(5) =   2
                l(6) =   2
     Q(r) pseudized with 0 coefficients

     PseudoPot. # 2 for Na read from file:
     /lustre07/scratch/pragov/crystal_structure_design/utils/SSSP/na_pbe_v1.5.uspp.F.UPF
     MD5 check sum: 44600605ef58000f06b90626533354dc
     Pseudo is Ultrasoft, Zval =  9.0
     Generated by new atomic code, or converted to UPF format
     Using radial grid of  819 points,  5 beta functions with:
                l(1) =   0
                l(2) =   0
                l(3) =   1
                l(4) =   1
                l(5) =   2
     Q(r) pseudized with  8 coefficients,  rinner =    1.250   1.250   1.250
                                                       1.250   1.250

     PseudoPot. # 3 for Nb read from file:
     /lustre07/scratch/pragov/crystal_structure_design/utils/SSSP/Nb.pbe-spn-kjpaw_psl.0.3.0.UPF
     MD5 check sum: 411d72ad547312f8017e2943ceca08cc
     Pseudo is Projector augmented-wave + core cor, Zval = 13.0
     Generated using "atomic" code by A. Dal Corso  v.5.0.99 svn rev. 10869
     Shape of augmentation charge: PSQ
     Using radial grid of 1227 points,  6 beta functions with:
                l(1) =   0
                l(2) =   0
                l(3) =   1
                l(4) =   1
                l(5) =   2
                l(6) =   2
     Q(r) pseudized with 0 coefficients

     PseudoPot. # 4 for O  read from file:
     /lustre07/scratch/pragov/crystal_structure_design/utils/SSSP/O.pbe-n-kjpaw_psl.0.1.UPF
     MD5 check sum: 0234752ac141de4415c5fc33072bef88
     Pseudo is Projector augmented-wave + core cor, Zval =  6.0
     Generated using "atomic" code by A. Dal Corso  v.5.0.99 svn rev. 10869
     Shape of augmentation charge: BESSEL
     Using radial grid of 1095 points,  4 beta functions with:
                l(1) =   0
                l(2) =   0
                l(3) =   1
                l(4) =   1
     Q(r) pseudized with 0 coefficients

     atomic species   valence    mass     pseudopotential
        K              9.00    39.09830     K ( 1.00)
        Na             9.00    22.98977     Na( 1.00)
        Nb            13.00    92.90637     Nb( 1.00)
        O              6.00    15.99900     O ( 1.00)

      2 Sym. Ops. (no inversion) found

                                    s                        frac. trans.

      isym =  1     identity

 cryst.   s( 1) = (     1          0          0      )
                  (     0          1          0      )
                  (     0          0          1      )

 cart.    s( 1) = (  1.0000000  0.0000000  0.0000000 )
                  (  0.0000000  1.0000000  0.0000000 )
                  (  0.0000000  0.0000000  1.0000000 )

      isym =  2     inv. 180 deg rotation - cart. axis [1,0,0]

 cryst.   s( 2) = (    -1          0          0      )
                  (     0          1          0      )
                  (     0          0          1      )

 cart.    s( 2) = ( -1.0000000  0.0000000  0.0000000 )
                  (  0.0000000  1.0000000  0.0000000 )
                  (  0.0000000  0.0000000  1.0000000 )

   Cartesian axes

     site n.     atom                  positions (alat units)
         1           K   tau(   1) = (   0.5000000   0.4994928   0.4969890  )
         2           Na  tau(   2) = (   0.5000000   0.5264661   1.5336791  )
         3           Nb  tau(   3) = (   0.0000000   1.0332795   2.0318611  )
         4           Nb  tau(   4) = (   0.0000000   1.0254718   1.0243540  )
         5           O   tau(   5) = (   0.5000000   0.9865678   0.9886860  )
         6           O   tau(   6) = (   0.5000000   0.9923604   1.9887515  )
         7           O   tau(   7) = (   0.0000000   0.9912576   0.4685607  )
         8           O   tau(   8) = (   0.0000000   0.9879324   1.4949826  )
         9           O   tau(   9) = (   0.0000000   0.4786168   0.9947673  )
        10           O   tau(  10) = (   0.0000000   0.4859883   1.9907990  )

   Crystallographic axes

     site n.     atom                  positions (cryst. coord.)
         1           K   tau(   1) = (  0.5000000  0.4862810  0.2437010  )
         2           Na  tau(   2) = (  0.5000000  0.5058900  0.7520470  )
         3           Nb  tau(   3) = (  0.0000000  0.9993380  0.9963330  )
         4           Nb  tau(   4) = (  0.0000000  0.9983210  0.5022970  )
         5           O   tau(   5) = (  0.5000000  0.9604260  0.4848070  )
         6           O   tau(   6) = (  0.5000000  0.9595170  0.9751940  )
         7           O   tau(   7) = (  0.0000000  0.9684480  0.2297610  )
         8           O   tau(   8) = (  0.0000000  0.9584290  0.7330720  )
         9           O   tau(   9) = (  0.0000000  0.4625420  0.4877890  )
        10           O   tau(  10) = (  0.0000000  0.4632070  0.9761980  )

     number of k points=    10
                       cart. coord. in units 2pi/alat
        k(    1) = (   0.0000000   0.0000000   0.0000000), wk =   0.0740741
        k(    2) = (   0.0000000   0.0000000   0.1634516), wk =   0.1481481
        k(    3) = (   0.0000000   0.3267008  -0.0021953), wk =   0.1481481
        k(    4) = (   0.0000000   0.3267008   0.1612563), wk =   0.1481481
        k(    5) = (   0.0000000   0.3267008  -0.1656469), wk =   0.1481481
        k(    6) = (   0.3333333   0.0000000   0.0000000), wk =   0.1481481
        k(    7) = (   0.3333333   0.0000000   0.1634516), wk =   0.2962963
        k(    8) = (   0.3333333   0.3267008  -0.0021953), wk =   0.2962963
        k(    9) = (   0.3333333   0.3267008   0.1612563), wk =   0.2962963
        k(   10) = (   0.3333333   0.3267008  -0.1656469), wk =   0.2962963

                       cryst. coord.
        k(    1) = (   0.0000000   0.0000000   0.0000000), wk =   0.0740741
        k(    2) = (   0.0000000   0.0000000   0.3333333), wk =   0.1481481
        k(    3) = (   0.0000000   0.3333333   0.0000000), wk =   0.1481481
        k(    4) = (   0.0000000   0.3333333   0.3333333), wk =   0.1481481
        k(    5) = (   0.0000000   0.3333333  -0.3333333), wk =   0.1481481
        k(    6) = (   0.3333333   0.0000000   0.0000000), wk =   0.1481481
        k(    7) = (   0.3333333   0.0000000   0.3333333), wk =   0.2962963
        k(    8) = (   0.3333333   0.3333333   0.0000000), wk =   0.2962963
        k(    9) = (   0.3333333   0.3333333   0.3333333), wk =   0.2962963
        k(   10) = (   0.3333333   0.3333333  -0.3333333), wk =   0.2962963

     Check: negative core charge=   -0.000019

     Initial potential from superposition of free atoms

     starting charge      79.9706, renormalised to      80.0000
     Starting wfcs are   57 randomized atomic wfcs +    7 random wfcs
     Checking if some PAW data can be deallocated...

     Self-consistent Calculation

     iteration #  1     ecut=    30.00 Ry     beta= 0.70
     Davidson diagonalization with overlap

     ethr =  1.00E-02,  avg # of iterations =  6.6

     total energy              =   -1125.12364165 Ry
     estimated scf accuracy    <       4.44107207 Ry

[...]

     total energy              =   -1127.46402207 Ry
     estimated scf accuracy    <       0.00000819 Ry

     iteration # 12     ecut=    30.00 Ry     beta= 0.70
     Davidson diagonalization with overlap

     ethr =  1.02E-08,  avg # of iterations =  1.0

     End of self-consistent calculation

          k = 0.0000 0.0000 0.0000 (  2483 PWs)   bands (ev):

   -47.7693 -47.7569 -42.8581 -23.9757 -23.8877 -23.8624 -23.8435 -23.8182
   -23.7976 -20.2749 -14.7648 -14.7581 -14.7549 -10.0524  -9.9128  -9.5742
    -9.5361  -9.5148  -8.8121  -3.7995  -3.7870  -3.7667   2.2921   4.3287
     4.3568   4.8614   4.9028   4.9340   5.1069   5.2643   5.3038   5.6314
     5.7503   5.8726   5.8852   5.9711   6.0345   6.0900   6.2628   6.2799
     9.1886   9.4681   9.6141   9.7029  11.3608  11.4117  12.3938  12.6240
    12.6329  12.6576  14.5368  15.3530  15.5766  16.3413  16.6614  17.8015
    18.0837  18.1399  19.3630  20.6968  20.9292  21.3222  21.6016  22.3555

     occupation numbers
     1.0000   1.0000   1.0000   1.0000   1.0000   1.0000   1.0000   1.0000
     1.0000   1.0000   1.0000   1.0000   1.0000   1.0000   1.0000   1.0000
     1.0000   1.0000   1.0000   1.0000   1.0000   1.0000   1.0000   1.0000
     1.0000   1.0000   1.0000   1.0000   1.0000   1.0000   1.0000   1.0000
     1.0000   1.0000   1.0000   1.0000   1.0000   1.0000   1.0000   1.0000
     0.0000   0.0000   0.0000   0.0000   0.0000   0.0000   0.0000   0.0000
     0.0000   0.0000   0.0000   0.0000   0.0000   0.0000   0.0000   0.0000
     0.0000   0.0000   0.0000   0.0000   0.0000   0.0000   0.0000   0.0000

[...]

          k = 0.3333 0.3267-0.1656 (  2496 PWs)   bands (ev):

   -47.7664 -47.7541 -42.8580 -23.9597 -23.9492 -23.9181 -23.9125 -23.8932
   -23.8786 -20.2541 -14.7656 -14.7640 -14.7605  -9.5158  -9.1479  -9.0594
    -8.9984  -8.9677  -8.9597  -3.8976  -3.8443  -3.8136   2.6145   2.6709
     2.8831   2.9889   3.2288   3.4538   3.5916   3.6477   3.8192   4.0240
     4.3266   5.0141   6.1554   6.2195   6.6330   6.6913   6.7834   6.8486
    10.8757  11.1202  11.3896  11.5687  11.6516  11.7627  14.4483  14.7717
    15.8384  16.0154  16.2056  16.4906  17.1059  17.2205  17.3220  17.6253
    17.8351  18.2902  18.6793  19.1389  20.3166  20.5023  20.9780  21.3429

     occupation numbers
     1.0000   1.0000   1.0000   1.0000   1.0000   1.0000   1.0000   1.0000
     1.0000   1.0000   1.0000   1.0000   1.0000   1.0000   1.0000   1.0000
     1.0000   1.0000   1.0000   1.0000   1.0000   1.0000   1.0000   1.0000
     1.0000   1.0000   1.0000   1.0000   1.0000   1.0000   1.0000   1.0000
     1.0000   1.0000   1.0000   1.0000   1.0000   1.0000   1.0000   1.0000
     0.0000   0.0000   0.0000   0.0000   0.0000   0.0000   0.0000   0.0000
     0.0000   0.0000   0.0000   0.0000   0.0000   0.0000   0.0000   0.0000
     0.0000   0.0000   0.0000   0.0000   0.0000   0.0000   0.0000   0.0000

     highest occupied, lowest unoccupied level (ev):     6.9415    9.1886

!    total energy              =   -1127.46402326 Ry
     estimated scf accuracy    <       0.00000008 Ry

     The total energy is the sum of the following terms:
     one-electron contribution =    -209.53723191 Ry
     hartree contribution      =     146.06931471 Ry
     xc contribution           =    -127.94532770 Ry
     ewald contribution        =    -406.51994210 Ry
     one-center paw contrib.   =    -529.53083626 Ry
      -> PAW hartree energy AE =      37.98472247 Ry
      -> PAW hartree energy PS =     -37.77381377 Ry
      -> PAW xc energy AE      =     -66.25637829 Ry
      -> PAW xc energy PS      =      10.62677359 Ry
      -> total E_H with PAW    =     146.28022341 Ry
      -> total E_XC with PAW   =    -183.57493240 Ry

     convergence has been achieved in  12 iterations

     Writing all to output data dir bands_nm/myprefix.save/

     General routines

     Parallel routines

     PAW routines

   This run was terminated on:  13:17:57  16Jul2023

   JOB DONE.