     Program PWSCF v.7.1 starts on 13Jul2023 at  0:48:45

     Reading input from espresso_23386.pwi
Warning: card &CELL ignored
Warning: card / ignored

     Current dimensions of program PWSCF are:
     Max number of different atomic species (ntypx) = 10
     Max number of k-points (npk) =  40000
     Max angular momentum in pseudopotentials (lmaxx) =  4
     Message from routine setup:
     using ibrav=0 with symmetry is DISCOURAGED, use correct ibrav instead

     K-points division:     npool     =       2
     R & G space division:  proc/nbgrp/npool/nimage =       8
     Subspace diagonalization in iterative solution of the eigenvalue problem:
     a serial algorithm will be used

     Using Slab Decomposition

     bravais-lattice index     =            0
     lattice parameter (alat)  =       8.8471  a.u.
     unit-cell volume          =    1269.9589 (a.u.)^3
     number of atoms/cell      =           16
     number of atomic types    =            4
     number of electrons       =        40.00
     number of Kohn-Sham states=           64
     kinetic-energy cutoff     =      30.0000  Ry
     charge density cutoff     =     240.0000  Ry
     scf convergence threshold =      1.0E-06
     mixing beta               =       0.7000
     number of iterations used =            8  plain     mixing
     Exchange-correlation=  SLA  PW   PBX  PBC
                           (   1   4   3   4   0   0   0)

     celldm(1)=   8.847145  celldm(2)=   0.000000  celldm(3)=   0.000000
     celldm(4)=   0.000000  celldm(5)=   0.000000  celldm(6)=   0.000000

     crystal axes: (cart. coord. in units of alat)
               a(1) = (   1.000000   0.000000   0.000000 )
               a(2) = (  -0.139383   0.990239   0.000000 )
               a(3) = (   0.000000   0.000000   1.851998 )

     reciprocal axes: (cart. coord. in units 2 pi/alat)
               b(1) = (  1.000000  0.140757  0.000000 )
               b(2) = (  0.000000  1.009858  0.000000 )
               b(3) = (  0.000000  0.000000  0.539958 )

     PseudoPot. # 1 for B  read from file:
     /lustre07/scratch/pragov/crystal_structure_design/utils/SSSP/b_pbe_v1.4.uspp.F.UPF
     MD5 check sum: cc6de2960df11db49a60e589f9ebb39b
     Pseudo is Ultrasoft + core correction, Zval =  3.0
     Generated by new atomic code, or converted to UPF format
     Using radial grid of  781 points,  4 beta functions with:
                l(1) =   0
                l(2) =   0
                l(3) =   1
                l(4) =   1
     Q(r) pseudized with  8 coefficients,  rinner =    1.100   1.100   1.100

     PseudoPot. # 2 for H  read from file:
     /lustre07/scratch/pragov/crystal_structure_design/utils/SSSP/H.pbe-rrkjus_psl.1.0.0.UPF
     MD5 check sum: f52b6d4d1c606e5624b1dc7b2218f220
     Pseudo is Ultrasoft, Zval =  1.0
     Generated using "atomic" code by A. Dal Corso  v.5.1
     Using radial grid of  929 points,  2 beta functions with:
                l(1) =   0
                l(2) =   0
     Q(r) pseudized with 0 coefficients

     PseudoPot. # 3 for N  read from file:
     /lustre07/scratch/pragov/crystal_structure_design/utils/SSSP/N.pbe-n-radius_5.UPF
     MD5 check sum: 16739722b17309cd8fe442a2ace49922
     Pseudo is Ultrasoft + core correction, Zval =  5.0
     Generated using "atomic" code by A. Dal Corso  v.5.1
     Using radial grid of 1085 points,  4 beta functions with:
                l(1) =   0
                l(2) =   0
                l(3) =   1
                l(4) =   1
     Q(r) pseudized with 0 coefficients

     PseudoPot. # 4 for Cl read from file:
     /lustre07/scratch/pragov/crystal_structure_design/utils/SSSP/cl_pbe_v1.4.uspp.F.UPF
     MD5 check sum: fc6f6913ecf08c9257cb748ef0700058
     Pseudo is Ultrasoft + core correction, Zval =  7.0
     Generated by new atomic code, or converted to UPF format
     Using radial grid of  909 points,  6 beta functions with:
                l(1) =   0
                l(2) =   0
                l(3) =   1
                l(4) =   1
                l(5) =   2
                l(6) =   2
     Q(r) pseudized with  8 coefficients,  rinner =    1.300   1.300   1.300
                                                       1.300   1.300

     atomic species   valence    mass     pseudopotential
        B              3.00    10.81000     B ( 1.00)
        H              1.00     1.00800     H ( 1.00)
        N              5.00    14.00700     N ( 1.00)
        Cl             7.00    35.45000     Cl( 1.00)

      2 Sym. Ops. (no inversion) found ( 1 have fractional translation)

                                    s                        frac. trans.

      isym =  1     identity

 cryst.   s( 1) = (     1          0          0      )
                  (     0          1          0      )
                  (     0          0          1      )

 cart.    s( 1) = (  1.0000000  0.0000000  0.0000000 )
                  (  0.0000000  1.0000000  0.0000000 )
                  (  0.0000000  0.0000000  1.0000000 )

      isym =  2     180 deg rotation - cart. axis [0,0,1]

 cryst.   s( 2) = (    -1          0          0      )    f =(  0.0000000 )
                  (     0         -1          0      )       (  0.0000000 )
                  (     0          0          1      )       (  0.5000000 )

 cart.    s( 2) = ( -1.0000000  0.0000000  0.0000000 )    f =(  0.0000000 )
                  (  0.0000000 -1.0000000  0.0000000 )       (  0.0000000 )
                  (  0.0000000  0.0000000  1.0000000 )       (  0.9259988 )

   Cartesian axes

     site n.     atom                  positions (alat units)
         1           B   tau(   1) = (   0.1258480   0.1448026   0.9641073  )
         2           B   tau(   2) = (   0.7347690   0.8454360   0.0381086  )
         3           H   tau(   3) = (   0.6844883   0.7875823   1.0095739  )
         4           H   tau(   4) = (   0.1761287   0.2026563   0.0835751  )
         5           H   tau(   5) = (   0.8835324   0.7459635   0.7213494  )
         6           H   tau(   6) = (   0.6155324   0.9788825   0.7213494  )
         7           H   tau(   7) = (  -0.0229154   0.2442750   1.6473482  )
         8           H   tau(   8) = (   0.2450846   0.0113561   1.6473482  )
         9           H   tau(   9) = (  -0.0142839   0.3146552   1.0981660  )
        10           H   tau(  10) = (   0.3135747   0.0297131   1.0981660  )
        11           H   tau(  11) = (   0.8749009   0.6755833   0.1721673  )
        12           H   tau(  12) = (   0.5470423   0.9605254   0.1721673  )
        13           N   tau(  13) = (   0.7780554   0.8952420   0.8429145  )
        14           N   tau(  14) = (   0.0825616   0.0949966   1.7689133  )
        15           Cl  tau(  15) = (   0.2919979   0.3359770   0.6463027  )
        16           Cl  tau(  16) = (   0.5686191   0.6542615   1.5723015  )

   Crystallographic axes

     site n.     atom                  positions (cryst. coord.)
         1           B   tau(   1) = (  0.1462300  0.1462300  0.5205770  )
         2           B   tau(   2) = (  0.8537700  0.8537700  0.0205770  )
         3           H   tau(   3) = (  0.7953460  0.7953460  0.5451270  )
         4           H   tau(   4) = (  0.2046540  0.2046540  0.0451270  )
         5           H   tau(   5) = (  0.9885320  0.7533170  0.3894980  )
         6           H   tau(   6) = (  0.7533170  0.9885320  0.3894980  )
         7           H   tau(   7) = (  0.0114680  0.2466830  0.8894980  )
         8           H   tau(   8) = (  0.2466830  0.0114680  0.8894980  )
         9           H   tau(   9) = (  0.0300060  0.3177570  0.5929630  )
        10           H   tau(  10) = (  0.3177570  0.0300060  0.5929630  )
        11           H   tau(  11) = (  0.9699940  0.6822430  0.0929630  )
        12           H   tau(  12) = (  0.6822430  0.9699940  0.0929630  )
        13           N   tau(  13) = (  0.9040670  0.9040670  0.4551380  )
        14           N   tau(  14) = (  0.0959330  0.0959330  0.9551380  )
        15           Cl  tau(  15) = (  0.3392890  0.3392890  0.3489760  )
        16           Cl  tau(  16) = (  0.6607110  0.6607110  0.8489760  )

     number of k points=    10
                       cart. coord. in units 2pi/alat
        k(    1) = (   0.0000000   0.0000000   0.0000000), wk =   0.0740741
        k(    2) = (   0.0000000   0.0000000   0.1799858), wk =   0.1481481
        k(    3) = (   0.0000000   0.3366192   0.0000000), wk =   0.1481481
        k(    4) = (   0.0000000   0.3366192   0.1799858), wk =   0.2962963
        k(    5) = (   0.3333333   0.0469190   0.0000000), wk =   0.1481481
        k(    6) = (   0.3333333   0.0469190   0.1799858), wk =   0.2962963
        k(    7) = (   0.3333333   0.3835382   0.0000000), wk =   0.1481481
        k(    8) = (   0.3333333   0.3835382   0.1799858), wk =   0.2962963
        k(    9) = (   0.3333333  -0.2897002   0.0000000), wk =   0.1481481
        k(   10) = (   0.3333333  -0.2897002   0.1799858), wk =   0.2962963

                       cryst. coord.
        k(    1) = (   0.0000000   0.0000000   0.0000000), wk =   0.0740741
        k(    2) = (   0.0000000   0.0000000   0.3333333), wk =   0.1481481
        k(    3) = (   0.0000000   0.3333333   0.0000000), wk =   0.1481481
        k(    4) = (   0.0000000   0.3333333   0.3333333), wk =   0.2962963
        k(    5) = (   0.3333333   0.0000000   0.0000000), wk =   0.1481481
        k(    6) = (   0.3333333   0.0000000   0.3333333), wk =   0.2962963
        k(    7) = (   0.3333333   0.3333333   0.0000000), wk =   0.1481481
        k(    8) = (   0.3333333   0.3333333   0.3333333), wk =   0.2962963
        k(    9) = (   0.3333333  -0.3333333   0.0000000), wk =   0.1481481
        k(   10) = (   0.3333333  -0.3333333   0.3333333), wk =   0.2962963

     Check: negative core charge=   -0.000001

     Initial potential from superposition of free atoms

     starting charge      39.9993, renormalised to      40.0000

     negative rho (up, down):  3.031E-02 0.000E+00
     Starting wfcs are   34 randomized atomic wfcs +   30 random wfcs

     Self-consistent Calculation

     iteration #  1     ecut=    30.00 Ry     beta= 0.70
     Davidson diagonalization with overlap

     ethr =  1.00E-02,  avg # of iterations =  7.2

     negative rho (up, down):  3.069E-02 0.000E+00

     total energy              =    -131.53053747 Ry
     estimated scf accuracy    <       1.38331120 Ry

[...]

     total energy              =    -131.91946487 Ry
     estimated scf accuracy    <       0.00000539 Ry

     iteration #  7     ecut=    30.00 Ry     beta= 0.70
     Davidson diagonalization with overlap

     ethr =  1.35E-08,  avg # of iterations =  2.0

     negative rho (up, down):  3.006E-02 0.000E+00

     End of self-consistent calculation

          k = 0.0000 0.0000 0.0000 (  3517 PWs)   bands (ev):

   -18.3211 -18.2902 -14.6628 -14.6521  -8.2933  -7.9493  -7.9407  -7.9146
    -7.7016  -7.6449  -4.7856  -4.6007  -3.4224  -3.3940  -3.1194  -2.9850
    -1.9785  -1.5940  -1.3861  -1.0333   4.5201   4.6401   5.8705   6.0429
     6.8497   7.3695   7.3722   7.5215   8.2286   8.5824   8.7102   8.7480
     9.2804   9.3792   9.6308  10.0083  10.0450  10.2385  11.3760  11.7542
    12.0375  12.5698  12.8294  13.2654  13.4777  13.5367  14.1914  14.4789
    14.7822  15.0976  15.3666  15.9609  16.0139  16.2502  17.0503  17.8419
    17.9025  18.4625  18.6459  18.6460  19.1724  19.5075  20.2741  20.5285

     occupation numbers
     1.0000   1.0000   1.0000   1.0000   1.0000   1.0000   1.0000   1.0000
     1.0000   1.0000   1.0000   1.0000   1.0000   1.0000   1.0000   1.0000
     1.0000   1.0000   1.0000   1.0000   0.0000   0.0000   0.0000   0.0000
     0.0000   0.0000   0.0000   0.0000   0.0000   0.0000   0.0000   0.0000
     0.0000   0.0000   0.0000   0.0000   0.0000   0.0000   0.0000   0.0000
     0.0000   0.0000   0.0000   0.0000   0.0000   0.0000   0.0000   0.0000
     0.0000   0.0000   0.0000   0.0000   0.0000   0.0000   0.0000   0.0000
     0.0000   0.0000   0.0000   0.0000   0.0000   0.0000   0.0000   0.0000

[...]

          k = 0.3333-0.2897 0.1800 (  3526 PWs)   bands (ev):

   -18.2754 -18.2630 -14.6760 -14.6695  -8.1288  -8.1233  -8.0722  -7.9782
    -7.8486  -7.8261  -4.5960  -4.5810  -3.3630  -3.1984  -3.0962  -3.0889
    -1.8888  -1.8616  -1.5028  -1.2729   5.2721   5.6877   6.2549   6.2803
     6.6211   6.9005   7.4786   7.4869   7.7968   7.8940   8.5425   8.9531
     9.3777   9.4547  10.1303  10.1701  10.8590  11.0516  11.4453  11.5729
    12.5481  12.7089  13.1385  13.4508  14.1407  14.2288  14.6992  14.8067
    15.1386  15.2130  15.7413  15.9290  16.0772  16.1181  16.5742  16.6032
    17.4464  17.4971  17.9804  18.2626  18.6484  18.8321  19.0256  19.4151

     occupation numbers
     1.0000   1.0000   1.0000   1.0000   1.0000   1.0000   1.0000   1.0000
     1.0000   1.0000   1.0000   1.0000   1.0000   1.0000   1.0000   1.0000
     1.0000   1.0000   1.0000   1.0000   0.0000   0.0000   0.0000   0.0000
     0.0000   0.0000   0.0000   0.0000   0.0000   0.0000   0.0000   0.0000
     0.0000   0.0000   0.0000   0.0000   0.0000   0.0000   0.0000   0.0000
     0.0000   0.0000   0.0000   0.0000   0.0000   0.0000   0.0000   0.0000
     0.0000   0.0000   0.0000   0.0000   0.0000   0.0000   0.0000   0.0000
     0.0000   0.0000   0.0000   0.0000   0.0000   0.0000   0.0000   0.0000

     highest occupied, lowest unoccupied level (ev):    -1.0333    4.4008

!    total energy              =    -131.91946655 Ry
     estimated scf accuracy    <       0.00000058 Ry

     The total energy is the sum of the following terms:
     one-electron contribution =     -67.39259220 Ry
     hartree contribution      =      45.26655097 Ry
     xc contribution           =     -42.83853458 Ry
     ewald contribution        =     -66.95489074 Ry

     convergence has been achieved in   7 iterations

     Writing all to output data dir bands_nm/myprefix.save/

     General routines

     Parallel routines

   This run was terminated on:   0:48:55  13Jul2023

   JOB DONE.