     Program PWSCF v.7.1 starts on 15Jul2023 at 22:51:34

     Reading input from espresso_14675.pwi
Warning: card &CELL ignored
Warning: card / ignored

     Current dimensions of program PWSCF are:
     Max number of different atomic species (ntypx) = 10
     Max number of k-points (npk) =  40000
     Max angular momentum in pseudopotentials (lmaxx) =  4
     file Fe.pbe-spn-kjpaw_psl.0.2.1.UPF: wavefunction(s)  3D renormalized
     file O.pbe-n-kjpaw_psl.0.1.UPF: wavefunction(s)  2P renormalized

     K-points division:     npool     =       2
     R & G space division:  proc/nbgrp/npool/nimage =       4
     Subspace diagonalization in iterative solution of the eigenvalue problem:
     one sub-group per band group will be used

     Using Slab Decomposition

     bravais-lattice index     =            0
     lattice parameter (alat)  =      13.0157  a.u.
     unit-cell volume          =    1765.5334 (a.u.)^3
     number of atoms/cell      =           18
     number of atomic types    =            3
     number of electrons       =       156.00
     number of Kohn-Sham states=          256
     kinetic-energy cutoff     =      30.0000  Ry
     charge density cutoff     =     240.0000  Ry
     scf convergence threshold =      1.0E-06
     mixing beta               =       0.7000
     number of iterations used =            8  plain     mixing
     Exchange-correlation= SLA  PW   PBX  PBC
                           (   1   4   3   4   0   0   0)

     celldm(1)=  13.015719  celldm(2)=   0.000000  celldm(3)=   0.000000
     celldm(4)=   0.000000  celldm(5)=   0.000000  celldm(6)=   0.000000

     crystal axes: (cart. coord. in units of alat)
               a(1) = (   1.000000   0.000000   0.000000 )
               a(2) = (  -0.090006   0.995625   0.000000 )
               a(3) = (  -0.223054   0.203591   0.804221 )

     reciprocal axes: (cart. coord. in units 2 pi/alat)
               b(1) = (  1.000000  0.090402  0.254469 )
               b(2) = (  0.000000  1.004394 -0.254265 )
               b(3) = (  0.000000  0.000000  1.243439 )

     PseudoPot. # 1 for V  read from file:
     /lustre07/scratch/pragov/crystal_structure_design/utils/SSSP/v_pbe_v1.4.uspp.F.UPF
     MD5 check sum: 22b79981416ebb76fdaf5b1b8640f6fb
     Pseudo is Ultrasoft + core correction, Zval = 13.0
     Generated by new atomic code, or converted to UPF format
     Using radial grid of  853 points,  6 beta functions with:
                l(1) =   0
                l(2) =   0
                l(3) =   1
                l(4) =   1
                l(5) =   2
                l(6) =   2
     Q(r) pseudized with  8 coefficients,  rinner =    1.100   1.100   1.100
                                                       1.100   1.100

     PseudoPot. # 2 for Fe read from file:
     /lustre07/scratch/pragov/crystal_structure_design/utils/SSSP/Fe.pbe-spn-kjpaw_psl.0.2.1.UPF
     MD5 check sum: e86618425769142926afa95317d90200
     Pseudo is Projector augmented-wave + core cor, Zval = 16.0
     Generated using "atomic" code by A. Dal Corso  v.5.0.99 svn rev. 10869
     Shape of augmentation charge: PSQ
     Using radial grid of 1191 points,  6 beta functions with:
                l(1) =   0
                l(2) =   0
                l(3) =   1
                l(4) =   1
                l(5) =   2
                l(6) =   2
     Q(r) pseudized with 0 coefficients

     PseudoPot. # 3 for O  read from file:
     /lustre07/scratch/pragov/crystal_structure_design/utils/SSSP/O.pbe-n-kjpaw_psl.0.1.UPF
     MD5 check sum: 0234752ac141de4415c5fc33072bef88
     Pseudo is Projector augmented-wave + core cor, Zval =  6.0
     Generated using "atomic" code by A. Dal Corso  v.5.0.99 svn rev. 10869
     Shape of augmentation charge: BESSEL
     Using radial grid of 1095 points,  4 beta functions with:
                l(1) =   0
                l(2) =   0
                l(3) =   1
                l(4) =   1
     Q(r) pseudized with 0 coefficients

     atomic species   valence    mass     pseudopotential
        V             13.00    50.94150     V ( 1.00)
        Fe            16.00    55.84500     Fe( 1.00)
        O              6.00    15.99900     O ( 1.00)

     No symmetry found

                                    s                        frac. trans.

      isym =  1     identity

 cryst.   s( 1) = (     1          0          0      )
                  (     0          1          0      )
                  (     0          0          1      )

 cart.    s( 1) = (  1.0000000  0.0000000  0.0000000 )
                  (  0.0000000  1.0000000  0.0000000 )
                  (  0.0000000  0.0000000  1.0000000 )

   Cartesian axes

     site n.     atom                  positions (alat units)
         1           V   tau(   1) = (  -0.0154945   0.7649977   0.6092932  )
         2           V   tau(   2) = (   0.2578779   0.8403083   0.2071987  )
         3           V   tau(   3) = (   0.4290387   0.3588884   0.5970554  )
         4           V   tau(   4) = (   0.7024429   0.4342512   0.1949432  )
         5           Fe  tau(   5) = (  -0.0878116   0.2395767   0.6032262  )
         6           Fe  tau(   6) = (   0.7747450   0.9595837   0.2010102  )
         7           O   tau(   7) = (  -0.1762486   0.9325639   0.5178549  )
         8           O   tau(   8) = (  -0.1126950   0.5418870   0.6248476  )
         9           O   tau(   9) = (   0.0765942   0.9853101   0.1157154  )
        10           O   tau(  10) = (   0.1868984   0.7575668   0.4448798  )
        11           O   tau(  11) = (   0.2156608   0.2420421   0.5813562  )
        12           O   tau(  12) = (   0.2835272   0.6394235   0.0427154  )
        13           O   tau(  13) = (   0.4034065   0.5598188   0.7614671  )
        14           O   tau(  14) = (   0.4712989   0.9571308   0.2228392  )
        15           O   tau(  15) = (   0.5000045   0.4416561   0.3593244  )
        16           O   tau(  16) = (   0.6103501   0.2139033   0.6885460  )
        17           O   tau(  17) = (   0.7996559   0.6573249   0.1793526  )
        18           O   tau(  18) = (   0.8632016   0.2667119   0.2863654  )

   Crystallographic axes

     site n.     atom                  positions (cryst. coord.)
         1           V   tau(   1) = (  0.2087090  0.6134370  0.7576190  )
         2           V   tau(   2) = (  0.3865690  0.7913170  0.2576390  )
         3           V   tau(   3) = (  0.6134150  0.2086550  0.7424020  )
         4           V   tau(   4) = (  0.7913070  0.3865920  0.2424000  )
         5           Fe  tau(   5) = (  0.0873490  0.0872500  0.7500750  )
         6           Fe  tau(   6) = (  0.9126440  0.9126900  0.2499440  )
         7           O   tau(   7) = (  0.0398350  0.8049890  0.6439210  )
         8           O   tau(   8) = (  0.0952970  0.3853910  0.7769600  )
         9           O   tau(   9) = (  0.1951140  0.9602170  0.1438850  )
        10           O   tau(  10) = (  0.3685920  0.6477780  0.5531810  )
        11           O   tau(  11) = (  0.3854790  0.0952870  0.7228810  )
        12           O   tau(  12) = (  0.3522020  0.6313720  0.0531140  )
        13           O   tau(  13) = (  0.6477850  0.3686640  0.9468380  )
        14           O   tau(  14) = (  0.6145310  0.9046760  0.2770870  )
        15           O   tau(  15) = (  0.6313680  0.3522330  0.4467980  )
        16           O   tau(  16) = (  0.8049010  0.0397700  0.8561650  )
        17           O   tau(  17) = (  0.9047190  0.6146100  0.2230140  )
        18           O   tau(  18) = (  0.9601840  0.1950710  0.3560780  )

     number of k points=    14
                       cart. coord. in units 2pi/alat
        k(    1) = (   0.0000000   0.0000000   0.0000000), wk =   0.0740741
        k(    2) = (   0.0000000   0.0000000   0.4144797), wk =   0.1481481
        k(    3) = (   0.0000000   0.3347979  -0.0847550), wk =   0.1481481
        k(    4) = (   0.0000000   0.3347979   0.3297247), wk =   0.1481481
        k(    5) = (   0.0000000   0.3347979  -0.4992347), wk =   0.1481481
        k(    6) = (   0.3333333   0.0301339   0.0848230), wk =   0.1481481
        k(    7) = (   0.3333333   0.0301339   0.4993027), wk =   0.1481481
        k(    8) = (   0.3333333   0.0301339  -0.3296567), wk =   0.1481481
        k(    9) = (   0.3333333   0.3649319   0.0000680), wk =   0.1481481
        k(   10) = (   0.3333333   0.3649319   0.4145477), wk =   0.1481481
        k(   11) = (   0.3333333   0.3649319  -0.4144117), wk =   0.1481481
        k(   12) = (   0.3333333  -0.3046640   0.1695780), wk =   0.1481481
        k(   13) = (   0.3333333  -0.3046640   0.5840577), wk =   0.1481481
        k(   14) = (   0.3333333  -0.3046640  -0.2449017), wk =   0.1481481

                       cryst. coord.
        k(    1) = (   0.0000000   0.0000000   0.0000000), wk =   0.0740741
        k(    2) = (   0.0000000   0.0000000   0.3333333), wk =   0.1481481
        k(    3) = (   0.0000000   0.3333333  -0.0000000), wk =   0.1481481
        k(    4) = (   0.0000000   0.3333333   0.3333333), wk =   0.1481481
        k(    5) = (   0.0000000   0.3333333  -0.3333333), wk =   0.1481481
        k(    6) = (   0.3333333  -0.0000000   0.0000000), wk =   0.1481481
        k(    7) = (   0.3333333  -0.0000000   0.3333333), wk =   0.1481481
        k(    8) = (   0.3333333  -0.0000000  -0.3333333), wk =   0.1481481
        k(    9) = (   0.3333333   0.3333333  -0.0000000), wk =   0.1481481
        k(   10) = (   0.3333333   0.3333333   0.3333333), wk =   0.1481481
        k(   11) = (   0.3333333   0.3333333  -0.3333333), wk =   0.1481481
        k(   12) = (   0.3333333  -0.3333333   0.0000000), wk =   0.1481481
        k(   13) = (   0.3333333  -0.3333333   0.3333333), wk =   0.1481481
        k(   14) = (   0.3333333  -0.3333333  -0.3333333), wk =   0.1481481

     Check: negative core charge=   -0.000066

     Initial potential from superposition of free atoms

     starting charge     155.9942, renormalised to     156.0000

     negative rho (up, down):  3.198E-03 0.000E+00
     Starting wfcs are  114 randomized atomic wfcs +  142 random wfcs
     Checking if some PAW data can be deallocated...

     Self-consistent Calculation

     iteration #  1     ecut=    30.00 Ry     beta= 0.70
     Davidson diagonalization with overlap

     ethr =  1.00E-02,  avg # of iterations =  6.0

     negative rho (up, down):  1.191E-02 0.000E+00

     total energy              =   -1733.47033639 Ry
     estimated scf accuracy    <       8.13642815 Ry

[...]

     total energy              =   -1738.38418088 Ry
     estimated scf accuracy    <       0.00000131 Ry

     iteration # 19     ecut=    30.00 Ry     beta= 0.70
     Davidson diagonalization with overlap

     ethr =  8.39E-10,  avg # of iterations =  1.0

     negative rho (up, down):  8.324E-03 0.000E+00

     End of self-consistent calculation

          k = 0.0000 0.0000 0.0000 (  4875 PWs)   bands (ev):

   -81.6520 -81.6512 -60.4523 -60.4520 -60.4474 -60.4471 -47.2626 -47.2500
   -47.2370 -47.2267 -47.1695 -47.1668 -34.4058 -34.4053 -34.3850 -34.3828
   -34.3656 -34.3654 -34.3581 -34.3572 -34.3307 -34.3292 -34.3056 -34.3055
   -13.6223 -13.3183 -13.0592 -13.0564 -13.0243 -12.8540 -12.7880 -12.6870
   -12.5185 -12.4717 -12.4475 -12.4184  -0.5762  -0.4953  -0.4277  -0.4119
    -0.4015  -0.2770   0.0581   0.0674   0.1654   0.3160   0.3387   0.5122
     0.6504   0.7476   0.7530   0.8192   0.8877   0.9140   0.9450   1.0527
     1.3059   1.4237   1.5636   1.5804   1.6322   1.7365   2.0912   2.1992
     2.3338   2.4025   2.7464   2.8738   2.8820   2.9775   3.2336   3.2777
     4.6066   4.6391   4.7135   4.8481   4.9247   4.9379   5.7850   5.7862
     5.9954   6.2035   6.5298   6.5729   6.5766   6.8738   6.9520   7.2257
     7.3024   7.3622   7.4507   7.6919   7.9815   8.0008   8.0975   8.2924
     8.9669   9.0207   9.0708   9.1200   9.1434   9.2803   9.3726  13.0618
    13.4596  13.4671  13.6550  14.1115  14.5623  14.7448  15.2522  15.3686
    16.0398  16.1210  16.5481  16.6387  16.7738  16.8081  17.0734  17.4611
    18.2111  18.4646  18.9441  19.5043  19.6326  19.6715  19.6737  19.7153
    20.5126  20.6264  20.6745  20.8613  21.0816  21.3368  21.6337  21.9792
    22.1382  22.5092  22.6882  23.2328  23.3280  23.3369  23.7730  24.1538
    24.6082  24.6134  24.9730  25.0970  25.1718  25.2385  25.6735  25.7520
    25.8572  26.2882  26.4603  27.1344  27.2442  27.3756  27.6239  28.0329
    28.1440  28.5523  28.6244  28.6336  28.8693  29.6503  29.6611  29.6688
    29.9425  30.1307  30.3127  30.3747  30.7747  30.7987  31.0425  31.0751
    31.3523  31.4945  31.5279  32.1823  32.4531  32.5708  32.5759  32.6031
    32.6104  33.1555  33.1790  33.5041  33.6474  34.0508  34.3887  34.5461
    34.7340  34.9411  35.1891  35.2569  35.2920  35.3690  35.5657  35.6632
    36.0290  36.2937  36.2981  36.3376  36.3809  36.6378  36.8467  36.8707
    36.9219  37.0595  37.0882  37.1787  37.5569  37.6242  37.6571  38.2578
    38.2900  38.5365  39.1443  39.1967  39.2900  39.3380  39.7155  39.7959
    40.0972  40.2002  40.2567  40.5112  40.5651  40.8182  40.8869  41.0431
    41.3063  41.7443  41.8083  41.9888  42.0370  42.0815  42.0832  42.5688
    42.7211  42.7518  42.8725  42.9166  43.1002  43.3825  43.5175  43.6332
    43.8525  43.8890  44.1483  44.2421  44.6868  44.9158  45.0312  45.1509

     occupation numbers
     1.0000   1.0000   1.0000   1.0000   1.0000   1.0000   1.0000   1.0000
     1.0000   1.0000   1.0000   1.0000   1.0000   1.0000   1.0000   1.0000
     1.0000   1.0000   1.0000   1.0000   1.0000   1.0000   1.0000   1.0000
     1.0000   1.0000   1.0000   1.0000   1.0000   1.0000   1.0000   1.0000
     1.0000   1.0000   1.0000   1.0000   1.0000   1.0000   1.0000   1.0000
     1.0000   1.0000   1.0000   1.0000   1.0000   1.0000   1.0000   1.0000
     1.0000   1.0000   1.0000   1.0000   1.0000   1.0000   1.0000   1.0000
     1.0000   1.0000   1.0000   1.0000   1.0000   1.0000   1.0000   1.0000
     1.0000   1.0000   1.0000   1.0000   1.0000   1.0000   1.0000   1.0000
     1.0000   1.0000   1.0000   1.0000   1.0000   1.0000   0.0000   0.0000
     0.0000   0.0000   0.0000   0.0000   0.0000   0.0000   0.0000   0.0000
     0.0000   0.0000   0.0000   0.0000   0.0000   0.0000   0.0000   0.0000
     0.0000   0.0000   0.0000   0.0000   0.0000   0.0000   0.0000   0.0000
     0.0000   0.0000   0.0000   0.0000   0.0000   0.0000   0.0000   0.0000
     0.0000   0.0000   0.0000   0.0000   0.0000   0.0000   0.0000   0.0000
     0.0000   0.0000   0.0000   0.0000   0.0000   0.0000   0.0000   0.0000
     0.0000   0.0000   0.0000   0.0000   0.0000   0.0000   0.0000   0.0000
     0.0000   0.0000   0.0000   0.0000   0.0000   0.0000   0.0000   0.0000
     0.0000   0.0000   0.0000   0.0000   0.0000   0.0000   0.0000   0.0000
     0.0000   0.0000   0.0000   0.0000   0.0000   0.0000   0.0000   0.0000
     0.0000   0.0000   0.0000   0.0000   0.0000   0.0000   0.0000   0.0000
     0.0000   0.0000   0.0000   0.0000   0.0000   0.0000   0.0000   0.0000
     0.0000   0.0000   0.0000   0.0000   0.0000   0.0000   0.0000   0.0000
     0.0000   0.0000   0.0000   0.0000   0.0000   0.0000   0.0000   0.0000
     0.0000   0.0000   0.0000   0.0000   0.0000   0.0000   0.0000   0.0000
     0.0000   0.0000   0.0000   0.0000   0.0000   0.0000   0.0000   0.0000
     0.0000   0.0000   0.0000   0.0000   0.0000   0.0000   0.0000   0.0000
     0.0000   0.0000   0.0000   0.0000   0.0000   0.0000   0.0000   0.0000
     0.0000   0.0000   0.0000   0.0000   0.0000   0.0000   0.0000   0.0000
     0.0000   0.0000   0.0000   0.0000   0.0000   0.0000   0.0000   0.0000
     0.0000   0.0000   0.0000   0.0000   0.0000   0.0000   0.0000   0.0000
     0.0000   0.0000   0.0000   0.0000   0.0000   0.0000   0.0000   0.0000

[...]

          k = 0.3333-0.3047-0.2449 (  4883 PWs)   bands (ev):

   -81.6535 -81.6505 -60.4515 -60.4510 -60.4484 -60.4480 -47.2605 -47.2540
   -47.2381 -47.2277 -47.1758 -47.1663 -34.3982 -34.3966 -34.3882 -34.3862
   -34.3654 -34.3641 -34.3628 -34.3596 -34.3259 -34.3255 -34.3133 -34.3127
   -13.4520 -13.2952 -13.2016 -13.1136 -12.9709 -12.8570 -12.7571 -12.7294
   -12.5696 -12.4895 -12.4319 -12.4148  -0.6302  -0.5807  -0.4451  -0.4190
    -0.3641  -0.3633  -0.0212   0.0675   0.1757   0.2245   0.3721   0.3874
     0.5094   0.6214   0.6375   0.7487   0.9984   1.0504   1.1977   1.4459
     1.4827   1.5211   1.6891   1.7232   1.7527   1.8783   2.1171   2.1641
     2.3629   2.4805   2.6104   2.7158   2.8512   2.9278   3.0627   3.1212
     4.6049   4.6425   4.7046   4.7378   4.7660   4.8033   5.7888   5.9212
     6.1049   6.1573   6.3343   6.4796   6.5813   6.6954   6.8083   7.0842
     7.1452   7.3937   7.7992   7.8689   8.0223   8.0987   8.2717   8.6134
     8.6221   8.9257   9.0591   9.0807   9.1103   9.1599  10.7136  12.5586
    12.8915  13.3651  13.4022  13.6933  13.9648  14.2587  15.1185  15.1749
    16.1142  16.5832  16.8307  16.8887  17.6739  17.8552  17.9594  18.1866
    18.4274  18.4319  18.6834  18.8718  19.2239  19.3056  19.4988  19.8184
    19.8332  20.3416  20.5429  20.8637  21.1017  21.3676  21.4711  21.9140
    22.0664  22.2995  22.5226  23.0600  23.1478  23.2682  23.9333  24.0351
    24.3877  24.7576  25.0877  25.2429  25.3335  25.9219  25.9766  26.2563
    26.3142  26.5766  26.9551  27.2118  27.2416  27.3342  27.8742  27.9002
    28.2352  28.3024  28.3978  28.4008  28.7395  29.2201  29.3019  29.3395
    29.7754  30.0005  30.1153  30.3528  30.4138  30.9281  30.9793  31.0557
    31.2435  31.3802  31.7932  31.9632  32.1134  32.3943  32.5795  32.7326
    33.0069  33.2258  33.2669  33.3487  33.4502  34.0361  34.2749  34.3480
    34.4703  34.6973  34.8568  35.0718  35.1422  35.2943  35.7637  35.8248
    36.0936  36.2793  36.2919  36.5182  36.8138  36.8762  36.9218  36.9850
    37.1865  37.2058  37.5257  37.6893  38.0778  38.1178  38.3381  38.5552
    38.6960  38.8210  38.8831  39.3371  39.3782  39.4480  39.5396  39.8284
    39.9988  40.2040  40.2623  40.3026  40.5056  40.7033  40.7148  40.9128
    41.0018  41.1892  41.4558  41.7607  41.7845  41.8448  42.1576  42.3491
    42.4893  42.8164  42.9943  43.2866  43.2919  43.4431  43.4871  43.7351
    43.7499  44.1991  44.2085  44.4369  44.6779  44.6801  44.9477  45.0526

     occupation numbers
     1.0000   1.0000   1.0000   1.0000   1.0000   1.0000   1.0000   1.0000
     1.0000   1.0000   1.0000   1.0000   1.0000   1.0000   1.0000   1.0000
     1.0000   1.0000   1.0000   1.0000   1.0000   1.0000   1.0000   1.0000
     1.0000   1.0000   1.0000   1.0000   1.0000   1.0000   1.0000   1.0000
     1.0000   1.0000   1.0000   1.0000   1.0000   1.0000   1.0000   1.0000
     1.0000   1.0000   1.0000   1.0000   1.0000   1.0000   1.0000   1.0000
     1.0000   1.0000   1.0000   1.0000   1.0000   1.0000   1.0000   1.0000
     1.0000   1.0000   1.0000   1.0000   1.0000   1.0000   1.0000   1.0000
     1.0000   1.0000   1.0000   1.0000   1.0000   1.0000   1.0000   1.0000
     1.0000   1.0000   1.0000   1.0000   1.0000   1.0000   0.0000   0.0000
     0.0000   0.0000   0.0000   0.0000   0.0000   0.0000   0.0000   0.0000
     0.0000   0.0000   0.0000   0.0000   0.0000   0.0000   0.0000   0.0000
     0.0000   0.0000   0.0000   0.0000   0.0000   0.0000   0.0000   0.0000
     0.0000   0.0000   0.0000   0.0000   0.0000   0.0000   0.0000   0.0000
     0.0000   0.0000   0.0000   0.0000   0.0000   0.0000   0.0000   0.0000
     0.0000   0.0000   0.0000   0.0000   0.0000   0.0000   0.0000   0.0000
     0.0000   0.0000   0.0000   0.0000   0.0000   0.0000   0.0000   0.0000
     0.0000   0.0000   0.0000   0.0000   0.0000   0.0000   0.0000   0.0000
     0.0000   0.0000   0.0000   0.0000   0.0000   0.0000   0.0000   0.0000
     0.0000   0.0000   0.0000   0.0000   0.0000   0.0000   0.0000   0.0000
     0.0000   0.0000   0.0000   0.0000   0.0000   0.0000   0.0000   0.0000
     0.0000   0.0000   0.0000   0.0000   0.0000   0.0000   0.0000   0.0000
     0.0000   0.0000   0.0000   0.0000   0.0000   0.0000   0.0000   0.0000
     0.0000   0.0000   0.0000   0.0000   0.0000   0.0000   0.0000   0.0000
     0.0000   0.0000   0.0000   0.0000   0.0000   0.0000   0.0000   0.0000
     0.0000   0.0000   0.0000   0.0000   0.0000   0.0000   0.0000   0.0000
     0.0000   0.0000   0.0000   0.0000   0.0000   0.0000   0.0000   0.0000
     0.0000   0.0000   0.0000   0.0000   0.0000   0.0000   0.0000   0.0000
     0.0000   0.0000   0.0000   0.0000   0.0000   0.0000   0.0000   0.0000
     0.0000   0.0000   0.0000   0.0000   0.0000   0.0000   0.0000   0.0000
     0.0000   0.0000   0.0000   0.0000   0.0000   0.0000   0.0000   0.0000
     0.0000   0.0000   0.0000   0.0000   0.0000   0.0000   0.0000   0.0000

     highest occupied, lowest unoccupied level (ev):     4.9592    5.7298

!    total energy              =   -1738.38418071 Ry
     estimated scf accuracy    <       0.00000049 Ry

     The total energy is the sum of the following terms:
     one-electron contribution =   -1051.72147234 Ry
     hartree contribution      =     576.96076567 Ry
     xc contribution           =    -235.53292894 Ry
     ewald contribution        =    -761.60285208 Ry
     one-center paw contrib.   =    -266.48769303 Ry
      -> PAW hartree energy AE =       0.00000000 Ry
      -> PAW hartree energy PS =       0.00000000 Ry
      -> PAW xc energy AE      =       0.00000000 Ry
      -> PAW xc energy PS      =       0.00000000 Ry
      -> total E_H with PAW    =     576.96076567 Ry
      -> total E_XC with PAW   =    -235.53292894 Ry

     convergence has been achieved in  19 iterations

     Writing all to output data dir bands_nm/myprefix.save/

     General routines

     Parallel routines

     PAW routines

   This run was terminated on:  22:53:26  15Jul2023

   JOB DONE.