     Program PWSCF v.7.1 starts on 15Jul2023 at 18:59:55

     Reading input from espresso_22229.pwi
Warning: card &CELL ignored
Warning: card / ignored

     Current dimensions of program PWSCF are:
     Max number of different atomic species (ntypx) = 10
     Max number of k-points (npk) =  40000
     Max angular momentum in pseudopotentials (lmaxx) =  4
     file Lu.paw.z_25.atompaw.wentzcovitch.v1.2.upf: wavefunction(s)  6S 0P 5D 0D 0F renormalized
     file O.pbe-n-kjpaw_psl.0.1.UPF: wavefunction(s)  2P renormalized
     Message from routine setup:
     using ibrav=0 with symmetry is DISCOURAGED, use correct ibrav instead

     K-points division:     npool     =       2
     R & G space division:  proc/nbgrp/npool/nimage =       4
     Subspace diagonalization in iterative solution of the eigenvalue problem:
     one sub-group per band group will be used

     Using Slab Decomposition

     bravais-lattice index     =            0
     lattice parameter (alat)  =      11.5756  a.u.
     unit-cell volume          =    1319.4407 (a.u.)^3
     number of atoms/cell      =           16
     number of atomic types    =            3
     number of electrons       =       160.00
     number of Kohn-Sham states=          256
     kinetic-energy cutoff     =      30.0000  Ry
     charge density cutoff     =     240.0000  Ry
     scf convergence threshold =      1.0E-06
     mixing beta               =       0.7000
     number of iterations used =            8  plain     mixing
     Exchange-correlation= SLA  PW   PBX  PBC
                           (   1   4   3   4   0   0   0)

     celldm(1)=  11.575608  celldm(2)=   0.000000  celldm(3)=   0.000000
     celldm(4)=   0.000000  celldm(5)=   0.000000  celldm(6)=   0.000000

     crystal axes: (cart. coord. in units of alat)
               a(1) = (   1.000000   0.000000   0.000000 )
               a(2) = (   0.000000   0.978302   0.000000 )
               a(3) = (   0.000000   0.465709   0.869532 )

     reciprocal axes: (cart. coord. in units 2 pi/alat)
               b(1) = (  1.000000  0.000000  0.000000 )
               b(2) = (  0.000000  1.022179 -0.547465 )
               b(3) = (  0.000000  0.000000  1.150045 )

     PseudoPot. # 1 for Li read from file:
     /lustre07/scratch/pragov/crystal_structure_design/utils/SSSP/li_pbe_v1.4.uspp.F.UPF
     MD5 check sum: e912e257baa3777c20ea3d68f190483c
     Pseudo is Ultrasoft, Zval =  3.0
     Generated by new atomic code, or converted to UPF format
     Using radial grid of  751 points,  5 beta functions with:
                l(1) =   0
                l(2) =   0
                l(3) =   0
                l(4) =   1
                l(5) =   1
     Q(r) pseudized with 10 coefficients,  rinner =    1.150   1.150   1.150

     PseudoPot. # 2 for Lu read from file:
     /lustre07/scratch/pragov/crystal_structure_design/utils/SSSP/Lu.paw.z_25.atompaw.wentzcovitch.v1.2.upf
     MD5 check sum: a517b3205eadf2aa79773283867f4cbe
     Pseudo is Projector augmented-wave + core cor, Zval = 25.0
     Generated using ATOMPAW code
     Shape of augmentation charge: BESSEL
     Using radial grid of 1118 points,  8 beta functions with:
                l(1) =   0
                l(2) =   0
                l(3) =   1
                l(4) =   1
                l(5) =   2
                l(6) =   2
                l(7) =   3
                l(8) =   3
     Q(r) pseudized with 0 coefficients

     PseudoPot. # 3 for O  read from file:
     /lustre07/scratch/pragov/crystal_structure_design/utils/SSSP/O.pbe-n-kjpaw_psl.0.1.UPF
     MD5 check sum: 0234752ac141de4415c5fc33072bef88
     Pseudo is Projector augmented-wave + core cor, Zval =  6.0
     Generated using "atomic" code by A. Dal Corso  v.5.0.99 svn rev. 10869
     Shape of augmentation charge: BESSEL
     Using radial grid of 1095 points,  4 beta functions with:
                l(1) =   0
                l(2) =   0
                l(3) =   1
                l(4) =   1
     Q(r) pseudized with 0 coefficients

     atomic species   valence    mass     pseudopotential
        Li             3.00     6.94000     Li( 1.00)
        Lu            25.00   174.96680     Lu( 1.00)
        O              6.00    15.99900     O ( 1.00)

      4 Sym. Ops., with inversion, found ( 2 have fractional translation)

                                    s                        frac. trans.

      isym =  1     identity

 cryst.   s( 1) = (     1          0          0      )
                  (     0          1          0      )
                  (     0          0          1      )

 cart.    s( 1) = (  1.0000000  0.0000000  0.0000000 )
                  (  0.0000000  1.0000000  0.0000000 )
                  (  0.0000000  0.0000000  1.0000000 )

      isym =  2     180 deg rotation - cart. axis [1,0,0]

 cryst.   s( 2) = (     1          0          0      )    f =(  0.5000000 )
                  (     0         -1          0      )       ( -0.0000000 )
                  (     0          0         -1      )       ( -0.5000000 )

 cart.    s( 2) = (  1.0000000  0.0000000  0.0000000 )    f =(  0.5000000 )
                  (  0.0000000 -1.0000000  0.0000000 )       ( -0.2328544 )
                  (  0.0000000  0.0000000 -1.0000000 )       ( -0.4347658 )

      isym =  3     inversion

 cryst.   s( 3) = (    -1          0          0      )
                  (     0         -1          0      )
                  (     0          0         -1      )

 cart.    s( 3) = ( -1.0000000  0.0000000  0.0000000 )
                  (  0.0000000 -1.0000000  0.0000000 )
                  (  0.0000000  0.0000000 -1.0000000 )

      isym =  4     inv. 180 deg rotation - cart. axis [1,0,0]

 cryst.   s( 4) = (    -1          0          0      )    f =( -0.5000000 )
                  (     0          1          0      )       ( -0.0000000 )
                  (     0          0          1      )       ( -0.5000000 )

 cart.    s( 4) = ( -1.0000000  0.0000000  0.0000000 )    f =( -0.5000000 )
                  (  0.0000000  1.0000000  0.0000000 )       ( -0.2328544 )
                  (  0.0000000  0.0000000  1.0000000 )       ( -0.4347658 )

   Cartesian axes

     site n.     atom                  positions (alat units)
         1           Li  tau(   1) = (   0.1474630   0.9599721   0.4743981  )
         2           Li  tau(   2) = (   0.6474630   0.7168935   0.8298991  )
         3           Li  tau(   3) = (   0.3525370   0.7271177   0.0396324  )
         4           Li  tau(   4) = (   0.8525370   0.4840391   0.3951334  )
         5           Lu  tau(   5) = (   0.8714610   1.2037655   0.8573059  )
         6           Lu  tau(   6) = (   0.6285390   0.9709111   0.4225401  )
         7           Lu  tau(   7) = (   0.3714610   0.4731001   0.4469914  )
         8           Lu  tau(   8) = (   0.1285390   0.2402457   0.0122256  )
         9           O   tau(   9) = (   0.1571350   0.3831622   0.7144175  )
        10           O   tau(  10) = (   0.3428650   0.1503078   0.2796518  )
        11           O   tau(  11) = (   0.8875290   0.8863518   0.6657090  )
        12           O   tau(  12) = (   0.3875290   0.7905138   0.6385883  )
        13           O   tau(  13) = (   0.6124710   0.6534974   0.2309432  )
        14           O   tau(  14) = (   0.1124710   0.5576594   0.2038225  )
        15           O   tau(  15) = (   0.6571350   1.2937034   0.5898797  )
        16           O   tau(  16) = (   0.8428650   1.0608490   0.1551140  )

   Crystallographic axes

     site n.     atom                  positions (cryst. coord.)
         1           Li  tau(   1) = (  0.1474630  0.7215470  0.5455790  )
         2           Li  tau(   2) = (  0.6474630  0.2784530  0.9544210  )
         3           Li  tau(   3) = (  0.3525370  0.7215470  0.0455790  )
         4           Li  tau(   4) = (  0.8525370  0.2784530  0.4544210  )
         5           Lu  tau(   5) = (  0.8714610  0.7611190  0.9859400  )
         6           Lu  tau(   6) = (  0.6285390  0.7611190  0.4859400  )
         7           Lu  tau(   7) = (  0.3714610  0.2388810  0.5140600  )
         8           Lu  tau(   8) = (  0.1285390  0.2388810  0.0140600  )
         9           O   tau(   9) = (  0.1571350  0.0005420  0.8216120  )
        10           O   tau(  10) = (  0.3428650  0.0005420  0.3216120  )
        11           O   tau(  11) = (  0.8875290  0.5415580  0.7655950  )
        12           O   tau(  12) = (  0.3875290  0.4584420  0.7344050  )
        13           O   tau(  13) = (  0.6124710  0.5415580  0.2655950  )
        14           O   tau(  14) = (  0.1124710  0.4584420  0.2344050  )
        15           O   tau(  15) = (  0.6571350  0.9994580  0.6783880  )
        16           O   tau(  16) = (  0.8428650  0.9994580  0.1783880  )

     number of k points=    10
                       cart. coord. in units 2pi/alat
        k(    1) = (   0.0000000   0.0000000   0.0000000), wk =   0.0740741
        k(    2) = (   0.0000000   0.0000000   0.3833482), wk =   0.1481481
        k(    3) = (   0.0000000   0.3407263  -0.1824882), wk =   0.1481481
        k(    4) = (   0.0000000   0.3407263   0.2008600), wk =   0.1481481
        k(    5) = (   0.0000000   0.3407263  -0.5658364), wk =   0.1481481
        k(    6) = (   0.3333333   0.0000000   0.0000000), wk =   0.1481481
        k(    7) = (   0.3333333   0.0000000   0.3833482), wk =   0.2962963
        k(    8) = (   0.3333333   0.3407263  -0.1824882), wk =   0.2962963
        k(    9) = (   0.3333333   0.3407263   0.2008600), wk =   0.2962963
        k(   10) = (   0.3333333   0.3407263  -0.5658364), wk =   0.2962963

                       cryst. coord.
        k(    1) = (   0.0000000   0.0000000   0.0000000), wk =   0.0740741
        k(    2) = (   0.0000000   0.0000000   0.3333333), wk =   0.1481481
        k(    3) = (   0.0000000   0.3333333  -0.0000000), wk =   0.1481481
        k(    4) = (   0.0000000   0.3333333   0.3333333), wk =   0.1481481
        k(    5) = (   0.0000000   0.3333333  -0.3333333), wk =   0.1481481
        k(    6) = (   0.3333333   0.0000000   0.0000000), wk =   0.1481481
        k(    7) = (   0.3333333   0.0000000   0.3333333), wk =   0.2962963
        k(    8) = (   0.3333333   0.3333333  -0.0000000), wk =   0.2962963
        k(    9) = (   0.3333333   0.3333333   0.3333333), wk =   0.2962963
        k(   10) = (   0.3333333   0.3333333  -0.3333333), wk =   0.2962963

     Check: negative core charge=   -0.000012

     Initial potential from superposition of free atoms

     starting charge     158.1819, renormalised to     160.0000
     Starting wfcs are  180 randomized atomic wfcs +   76 random wfcs
     Checking if some PAW data can be deallocated...

     Self-consistent Calculation

     iteration #  1     ecut=    30.00 Ry     beta= 0.70
     Davidson diagonalization with overlap

     ethr =  1.00E-02,  avg # of iterations =  9.9

     total energy              =   -4710.86171911 Ry
     estimated scf accuracy    <       4.68872030 Ry

[...]

     c_bands:  1 eigenvalues not converged
     c_bands:  1 eigenvalues not converged
     ethr =  3.12E-06,  avg # of iterations = 12.2

[...]

     total energy              =   -4713.61013237 Ry
     estimated scf accuracy    <       0.00000500 Ry

     iteration #  9     ecut=    30.00 Ry     beta= 0.70
     Davidson diagonalization with overlap

     ethr =  3.12E-09,  avg # of iterations =  3.5

     End of self-consistent calculation

          k = 0.0000 0.0000 0.0000 (  3647 PWs)   bands (ev):

   -43.7398 -43.7223 -43.7212 -43.7067 -34.3705 -34.3684 -34.3667 -34.3665
   -14.9753 -14.9677 -14.9472 -14.7602 -14.7371 -14.6114 -14.6074 -14.5090
   -14.5042 -14.4056 -14.3997 -14.3753  -7.4090  -6.9614  -6.6598  -6.5418
    -6.4101  -6.3963  -6.1131  -6.1062   5.5488   5.7349   6.1611   6.2408
     6.5602   6.5842   6.6983   6.8388   6.9351   6.9762   7.0611   7.0902
     7.1023   7.1930   7.3003   7.3255   7.3754   7.3862   7.3876   7.3999
     7.4238   7.4429   7.6776   7.7135   7.7917   7.8213   7.8366   7.8453
     7.8483   7.8490   7.8541   7.8702   7.8760   7.8855   7.8879   7.8976
     7.9246   7.9302   7.9381   7.9882   8.0012   8.1284   8.1615   8.2889
     8.3289   8.7500   8.7757   8.8596   9.0127   9.2788   9.3752   9.4463
    13.2240  14.4318  15.3595  15.5353  15.7727  15.7980  16.1049  16.2592
    16.2600  16.4668  16.5891  17.0117  17.4997  17.5210  17.5329  17.7999
    18.3036  18.5563  18.8418  19.1528  19.2077  19.7892  20.0879  20.1141
    20.2137  20.7109  21.1121  21.1878  21.3672  21.7216  21.9146  22.0461
    22.2619  22.8495  22.8625  22.9260  23.0978  23.7924  24.0644  24.1249
    25.4698  25.6160  26.0957  26.5000  27.2337  27.4011  27.7445  28.3264
    28.3323  28.4806  28.7108  29.3455  29.5821  29.9644  30.2875  30.4318
    30.7716  31.0508  31.1136  31.3929  31.5167  31.5695  31.8529  32.1411
    32.9153  33.0056  33.7081  33.8239  34.0333  34.4962  34.5792  34.7344
    34.9913  35.0944  35.3931  35.5629  35.7165  36.1804  36.4286  36.6466
    37.0408  37.2592  37.3877  38.0909  38.2217  38.2453  38.5193  38.6926
    38.8952  39.2171  39.2206  39.2464  39.7425  39.8254  40.0886  40.1452
    40.2712  40.4058  41.4349  41.5100  41.6660  41.7610  41.8112  42.0355
    42.2453  42.3406  42.4150  42.9969  43.1194  43.2741  43.8498  43.8613
    44.1903  44.3596  44.7212  44.7516  45.1104  45.2688  46.1040  46.3497
    46.3806  46.5081  46.9614  47.0214  47.2278  47.5509  47.8498  47.9059
    48.0196  48.2217  48.2886  48.4949  48.6669  48.8791  48.9784  49.4067
    50.1965  50.2782  50.4171  50.4764  50.6233  50.8076  50.8273  51.2078
    51.2607  51.3346  51.4305  51.6374  51.7421  51.8575  52.2302  52.6130
    52.6472  52.7861  52.8695  53.3817  53.4295  53.4351  53.8553  53.8582
    53.9393  54.4112  54.5904  54.9870  55.2432  55.5263  55.5970  55.7176
    55.7645  56.3058  56.5047  56.7157  56.8599  57.2300  57.2958  57.5078

     occupation numbers
     1.0000   1.0000   1.0000   1.0000   1.0000   1.0000   1.0000   1.0000
     1.0000   1.0000   1.0000   1.0000   1.0000   1.0000   1.0000   1.0000
     1.0000   1.0000   1.0000   1.0000   1.0000   1.0000   1.0000   1.0000
     1.0000   1.0000   1.0000   1.0000   1.0000   1.0000   1.0000   1.0000
     1.0000   1.0000   1.0000   1.0000   1.0000   1.0000   1.0000   1.0000
     1.0000   1.0000   1.0000   1.0000   1.0000   1.0000   1.0000   1.0000
     1.0000   1.0000   1.0000   1.0000   1.0000   1.0000   1.0000   1.0000
     1.0000   1.0000   1.0000   1.0000   1.0000   1.0000   1.0000   1.0000
     1.0000   1.0000   1.0000   1.0000   1.0000   1.0000   1.0000   1.0000
     1.0000   1.0000   1.0000   1.0000   1.0000   1.0000   1.0000   1.0000
     0.0000   0.0000   0.0000   0.0000   0.0000   0.0000   0.0000   0.0000
     0.0000   0.0000   0.0000   0.0000   0.0000   0.0000   0.0000   0.0000
     0.0000   0.0000   0.0000   0.0000   0.0000   0.0000   0.0000   0.0000
     0.0000   0.0000   0.0000   0.0000   0.0000   0.0000   0.0000   0.0000
     0.0000   0.0000   0.0000   0.0000   0.0000   0.0000   0.0000   0.0000
     0.0000   0.0000   0.0000   0.0000   0.0000   0.0000   0.0000   0.0000
     0.0000   0.0000   0.0000   0.0000   0.0000   0.0000   0.0000   0.0000
     0.0000   0.0000   0.0000   0.0000   0.0000   0.0000   0.0000   0.0000
     0.0000   0.0000   0.0000   0.0000   0.0000   0.0000   0.0000   0.0000
     0.0000   0.0000   0.0000   0.0000   0.0000   0.0000   0.0000   0.0000
     0.0000   0.0000   0.0000   0.0000   0.0000   0.0000   0.0000   0.0000
     0.0000   0.0000   0.0000   0.0000   0.0000   0.0000   0.0000   0.0000
     0.0000   0.0000   0.0000   0.0000   0.0000   0.0000   0.0000   0.0000
     0.0000   0.0000   0.0000   0.0000   0.0000   0.0000   0.0000   0.0000
     0.0000   0.0000   0.0000   0.0000   0.0000   0.0000   0.0000   0.0000
     0.0000   0.0000   0.0000   0.0000   0.0000   0.0000   0.0000   0.0000
     0.0000   0.0000   0.0000   0.0000   0.0000   0.0000   0.0000   0.0000
     0.0000   0.0000   0.0000   0.0000   0.0000   0.0000   0.0000   0.0000
     0.0000   0.0000   0.0000   0.0000   0.0000   0.0000   0.0000   0.0000
     0.0000   0.0000   0.0000   0.0000   0.0000   0.0000   0.0000   0.0000
     0.0000   0.0000   0.0000   0.0000   0.0000   0.0000   0.0000   0.0000
     0.0000   0.0000   0.0000   0.0000   0.0000   0.0000   0.0000   0.0000

[...]

          k = 0.3333 0.3407-0.5658 (  3673 PWs)   bands (ev):

   -43.7297 -43.7269 -43.7184 -43.7150 -34.3696 -34.3690 -34.3677 -34.3674
   -14.9781 -14.9092 -14.8644 -14.8078 -14.6725 -14.6387 -14.6251 -14.5758
   -14.4725 -14.4666 -14.4261 -14.3817  -6.9731  -6.8797  -6.8622  -6.7191
    -6.4150  -6.3649  -6.2162  -6.1839   5.8725   5.9040   5.9482   6.3745
     6.4520   6.5920   6.6131   6.8954   6.9382   7.0022   7.0604   7.1223
     7.1287   7.2341   7.2508   7.3295   7.3502   7.3615   7.4042   7.4235
     7.4331   7.4830   7.5364   7.5769   7.8051   7.8084   7.8178   7.8261
     7.8349   7.8367   7.8485   7.8568   7.8648   7.8735   7.8757   7.8956
     7.9334   7.9806   8.0272   8.0482   8.0665   8.1459   8.2000   8.2647
     8.4872   8.5049   8.6400   8.8291   8.8833   8.9005   9.0677   9.2816
    14.8703  15.0162  15.2790  15.3008  15.5085  15.6436  15.7661  16.0425
    16.1558  16.4746  16.4929  16.9566  17.1009  17.3467  17.5059  17.6942
    17.8761  18.1033  19.4852  19.6440  19.8780  19.9189  20.4673  20.5010
    20.6920  20.9774  21.0321  21.3202  21.5873  21.7844  22.0296  22.4147
    22.4323  22.5457  23.0300  23.3204  23.4870  24.0488  24.4705  25.0051
    25.2334  25.2867  25.6324  25.9780  26.3083  26.6425  26.7703  26.8641
    27.5214  27.8251  27.9182  28.2810  28.6155  29.1640  29.7723  30.3441
    30.6025  30.9185  31.3719  31.6506  32.0158  32.2241  32.5717  32.7428
    32.9993  33.3611  33.4669  33.7133  34.0739  34.1835  34.6089  35.0403
    35.3207  35.4766  35.8988  36.0600  36.4284  36.7123  36.8716  36.9075
    37.0622  37.3745  37.4196  37.7555  37.9111  38.0228  38.3909  38.4124
    38.8850  39.0335  39.1943  39.5372  39.6736  39.9124  40.3374  40.6219
    40.8906  41.0713  41.1774  41.4893  41.6888  41.9428  42.1138  42.2219
    42.5078  42.7945  42.9213  43.1916  43.3392  43.6175  43.9313  44.1360
    44.3598  44.6362  44.7740  45.0119  45.2456  45.4306  45.4979  45.5550
    45.8181  46.0471  46.4636  46.7593  47.0372  47.2693  47.7000  47.9172
    48.0985  48.2037  48.4065  48.5798  48.8571  48.9970  49.0890  49.5400
    49.5868  49.6631  50.0811  50.2207  50.4760  50.6539  50.6934  50.9596
    51.2823  51.5716  51.9925  52.0637  52.2059  52.2543  52.5694  52.9479
    53.0091  53.1920  53.3391  53.5491  53.8292  54.0522  54.0946  54.3752
    54.4788  54.6297  54.8189  54.9368  55.2875  55.5800  55.6368  55.7449
    56.2082  56.4016  56.5192  56.6695  56.8148  56.9655  57.1153  57.3587

     occupation numbers
     1.0000   1.0000   1.0000   1.0000   1.0000   1.0000   1.0000   1.0000
     1.0000   1.0000   1.0000   1.0000   1.0000   1.0000   1.0000   1.0000
     1.0000   1.0000   1.0000   1.0000   1.0000   1.0000   1.0000   1.0000
     1.0000   1.0000   1.0000   1.0000   1.0000   1.0000   1.0000   1.0000
     1.0000   1.0000   1.0000   1.0000   1.0000   1.0000   1.0000   1.0000
     1.0000   1.0000   1.0000   1.0000   1.0000   1.0000   1.0000   1.0000
     1.0000   1.0000   1.0000   1.0000   1.0000   1.0000   1.0000   1.0000
     1.0000   1.0000   1.0000   1.0000   1.0000   1.0000   1.0000   1.0000
     1.0000   1.0000   1.0000   1.0000   1.0000   1.0000   1.0000   1.0000
     1.0000   1.0000   1.0000   1.0000   1.0000   1.0000   1.0000   1.0000
     0.0000   0.0000   0.0000   0.0000   0.0000   0.0000   0.0000   0.0000
     0.0000   0.0000   0.0000   0.0000   0.0000   0.0000   0.0000   0.0000
     0.0000   0.0000   0.0000   0.0000   0.0000   0.0000   0.0000   0.0000
     0.0000   0.0000   0.0000   0.0000   0.0000   0.0000   0.0000   0.0000
     0.0000   0.0000   0.0000   0.0000   0.0000   0.0000   0.0000   0.0000
     0.0000   0.0000   0.0000   0.0000   0.0000   0.0000   0.0000   0.0000
     0.0000   0.0000   0.0000   0.0000   0.0000   0.0000   0.0000   0.0000
     0.0000   0.0000   0.0000   0.0000   0.0000   0.0000   0.0000   0.0000
     0.0000   0.0000   0.0000   0.0000   0.0000   0.0000   0.0000   0.0000
     0.0000   0.0000   0.0000   0.0000   0.0000   0.0000   0.0000   0.0000
     0.0000   0.0000   0.0000   0.0000   0.0000   0.0000   0.0000   0.0000
     0.0000   0.0000   0.0000   0.0000   0.0000   0.0000   0.0000   0.0000
     0.0000   0.0000   0.0000   0.0000   0.0000   0.0000   0.0000   0.0000
     0.0000   0.0000   0.0000   0.0000   0.0000   0.0000   0.0000   0.0000
     0.0000   0.0000   0.0000   0.0000   0.0000   0.0000   0.0000   0.0000
     0.0000   0.0000   0.0000   0.0000   0.0000   0.0000   0.0000   0.0000
     0.0000   0.0000   0.0000   0.0000   0.0000   0.0000   0.0000   0.0000
     0.0000   0.0000   0.0000   0.0000   0.0000   0.0000   0.0000   0.0000
     0.0000   0.0000   0.0000   0.0000   0.0000   0.0000   0.0000   0.0000
     0.0000   0.0000   0.0000   0.0000   0.0000   0.0000   0.0000   0.0000
     0.0000   0.0000   0.0000   0.0000   0.0000   0.0000   0.0000   0.0000
     0.0000   0.0000   0.0000   0.0000   0.0000   0.0000   0.0000   0.0000

     highest occupied, lowest unoccupied level (ev):     9.4463   13.2240

!    total energy              =   -4713.61013356 Ry
     estimated scf accuracy    <       0.00000023 Ry

     The total energy is the sum of the following terms:
     one-electron contribution =   -1967.06613680 Ry
     hartree contribution      =     919.73868451 Ry
     xc contribution           =    -240.52887100 Ry
     ewald contribution        =   -1380.84451301 Ry
     one-center paw contrib.   =   -2044.90929727 Ry
      -> PAW hartree energy AE =       0.00000000 Ry
      -> PAW hartree energy PS =       0.00000000 Ry
      -> PAW xc energy AE      =       0.00000000 Ry
      -> PAW xc energy PS      =       0.00000000 Ry
      -> total E_H with PAW    =     919.73868451 Ry
      -> total E_XC with PAW   =    -240.52887100 Ry

     convergence has been achieved in   9 iterations

     Writing all to output data dir bands_nm/myprefix.save/

     General routines

     Parallel routines

     PAW routines

   This run was terminated on:  19: 0:43  15Jul2023

   JOB DONE.