     Program PWSCF v.7.1 starts on 15Jul2023 at 22:46:46

     Reading input from espresso_20032.pwi
Warning: card &CELL ignored
Warning: card / ignored

     Current dimensions of program PWSCF are:
     Max number of different atomic species (ntypx) = 10
     Max number of k-points (npk) =  40000
     Max angular momentum in pseudopotentials (lmaxx) =  4
     Message from routine setup:
     using ibrav=0 with symmetry is DISCOURAGED, use correct ibrav instead

     K-points division:     npool     =       2
     R & G space division:  proc/nbgrp/npool/nimage =       4
     Subspace diagonalization in iterative solution of the eigenvalue problem:
     one sub-group per band group will be used

     Using Slab Decomposition

     bravais-lattice index     =            0
     lattice parameter (alat)  =      17.9255  a.u.
     unit-cell volume          =    3627.8631 (a.u.)^3
     number of atoms/cell      =           18
     number of atomic types    =            3
     number of electrons       =       182.00
     number of Kohn-Sham states=          256
     kinetic-energy cutoff     =      30.0000  Ry
     charge density cutoff     =     240.0000  Ry
     scf convergence threshold =      1.0E-06
     mixing beta               =       0.7000
     number of iterations used =            8  plain     mixing
     Exchange-correlation=  SLA  PW   PBX  PBC
                           (   1   4   3   4   0   0   0)

     celldm(1)=  17.925465  celldm(2)=   0.000000  celldm(3)=   0.000000
     celldm(4)=   0.000000  celldm(5)=   0.000000  celldm(6)=   0.000000

     crystal axes: (cart. coord. in units of alat)
               a(1) = (   1.000000   0.000000   0.000000 )
               a(2) = (   0.180001   0.983666   0.000000 )
               a(3) = (  -0.590000  -0.491833   0.640312 )

     reciprocal axes: (cart. coord. in units 2 pi/alat)
               b(1) = (  1.000000 -0.182990  0.780869 )
               b(2) = (  0.000000  1.016605  0.780869 )
               b(3) = (  0.000000  0.000000  1.561738 )

     PseudoPot. # 1 for Tl read from file:
     /lustre07/scratch/pragov/crystal_structure_design/utils/SSSP/Tl_pbe_v1.2.uspp.F.UPF
     MD5 check sum: b76cf1f7e72655a2b2c53cf6385d7059
     Pseudo is Ultrasoft + core correction, Zval = 13.0
     Generated by new atomic code, or converted to UPF format
     Using radial grid of  899 points,  6 beta functions with:
                l(1) =   0
                l(2) =   0
                l(3) =   1
                l(4) =   1
                l(5) =   2
                l(6) =   2
     Q(r) pseudized with  6 coefficients,  rinner =    1.100   1.100   1.100
                                                       1.100   1.100

     PseudoPot. # 2 for Co read from file:
     /lustre07/scratch/pragov/crystal_structure_design/utils/SSSP/Co_pbe_v1.2.uspp.F.UPF
     MD5 check sum: 5f91765df6ddd3222702df6e7b74a16d
     Pseudo is Ultrasoft + core correction, Zval = 17.0
     Generated by new atomic code, or converted to UPF format
     Using radial grid of  863 points,  6 beta functions with:
                l(1) =   0
                l(2) =   0
                l(3) =   1
                l(4) =   1
                l(5) =   2
                l(6) =   2
     Q(r) pseudized with  8 coefficients,  rinner =    1.200   1.200   1.200
                                                       1.200   1.200

     PseudoPot. # 3 for Cl read from file:
     /lustre07/scratch/pragov/crystal_structure_design/utils/SSSP/cl_pbe_v1.4.uspp.F.UPF
     MD5 check sum: fc6f6913ecf08c9257cb748ef0700058
     Pseudo is Ultrasoft + core correction, Zval =  7.0
     Generated by new atomic code, or converted to UPF format
     Using radial grid of  909 points,  6 beta functions with:
                l(1) =   0
                l(2) =   0
                l(3) =   1
                l(4) =   1
                l(5) =   2
                l(6) =   2
     Q(r) pseudized with  8 coefficients,  rinner =    1.300   1.300   1.300
                                                       1.300   1.300

     atomic species   valence    mass     pseudopotential
        Tl            13.00   204.38000     Tl( 1.00)
        Co            17.00    58.93319     Co( 1.00)
        Cl             7.00    35.45000     Cl( 1.00)

      4 Sym. Ops., with inversion, found ( 2 have fractional translation)

                                    s                        frac. trans.

      isym =  1     identity

 cryst.   s( 1) = (     1          0          0      )
                  (     0          1          0      )
                  (     0          0          1      )

 cart.    s( 1) = (  1.0000000  0.0000000  0.0000000 )
                  (  0.0000000  1.0000000  0.0000000 )
                  (  0.0000000  0.0000000  1.0000000 )

      isym =  2     180 deg rotation - cart. axis [0,0,1]

 cryst.   s( 2) = (    -1          0          0      )    f =(  0.5000000 )
                  (     0         -1          0      )       ( -0.5000000 )
                  (     1          1          1      )       (  0.0000000 )

 cart.    s( 2) = ( -1.0000000  0.0000000  0.0000000 )    f =(  0.4099997 )
                  (  0.0000000 -1.0000000  0.0000000 )       ( -0.4918332 )
                  (  0.0000000  0.0000000  1.0000000 )       (  0.0000000 )

      isym =  3     inversion

 cryst.   s( 3) = (    -1          0          0      )
                  (     0         -1          0      )
                  (     0          0         -1      )

 cart.    s( 3) = ( -1.0000000  0.0000000  0.0000000 )
                  (  0.0000000 -1.0000000  0.0000000 )
                  (  0.0000000  0.0000000 -1.0000000 )

      isym =  4     inv. 180 deg rotation - cart. axis [0,0,1]

 cryst.   s( 4) = (     1          0          0      )    f =(  0.5000000 )
                  (     0          1          0      )       ( -0.5000000 )
                  (    -1         -1         -1      )       (  0.0000000 )

 cart.    s( 4) = (  1.0000000  0.0000000 -0.0000000 )    f =(  0.4099997 )
                  (  0.0000000  1.0000000 -0.0000000 )       ( -0.4918332 )
                  (  0.0000000  0.0000000 -1.0000000 )       (  0.0000000 )

   Cartesian axes

     site n.     atom                  positions (alat units)
         1           Tl  tau(   1) = (   0.2950002   0.2459166   0.0000000  )
         2           Tl  tau(   2) = (   0.8850005   0.7377499   0.0000000  )
         3           Tl  tau(   3) = (   0.3849999   0.7377494   0.1095081  )
         4           Tl  tau(   4) = (   0.6601193   0.4077189   0.3201561  )
         5           Tl  tau(   5) = (  -0.0701190   0.0841143   0.3201561  )
         6           Tl  tau(   6) = (   0.2050004  -0.2459161   0.5308040  )
         7           Co  tau(   7) = (   0.5000000   0.0000000   0.3201561  )
         8           Co  tau(   8) = (   0.0900003   0.4918332   0.3201561  )
         9           Cl  tau(   9) = (   0.0000000   0.0000000   0.0000000  )
        10           Cl  tau(  10) = (   0.5900003   0.4918332   0.0000000  )
        11           Cl  tau(  11) = (  -0.0210171   0.3992874   0.1316796  )
        12           Cl  tau(  12) = (   0.6110162   0.0925448   0.1316796  )
        13           Cl  tau(  13) = (   0.6110174   0.0925458   0.5086326  )
        14           Cl  tau(  14) = (   0.3217014   0.4396065   0.3201561  )
        15           Cl  tau(  15) = (   0.0803330   0.7291507   0.3201561  )
        16           Cl  tau(  16) = (   0.2682990   0.0522268   0.3201561  )
        17           Cl  tau(  17) = (  -0.0210159   0.3992884   0.5086326  )
        18           Cl  tau(  18) = (   0.5096674  -0.2373174   0.3201561  )

   Crystallographic axes

     site n.     atom                  positions (cryst. coord.)
         1           Tl  tau(   1) = (  0.2500000  0.2500000  0.0000000  )
         2           Tl  tau(   2) = (  0.7500000  0.7500000  0.0000000  )
         3           Tl  tau(   3) = (  0.3355110  0.8355110  0.1710230  )
         4           Tl  tau(   4) = (  0.8355110  0.6644890  0.5000000  )
         5           Tl  tau(   5) = (  0.1644890  0.3355110  0.5000000  )
         6           Tl  tau(   6) = (  0.6644890  0.1644890  0.8289770  )
         7           Co  tau(   7) = (  0.7500000  0.2500000  0.5000000  )
         8           Co  tau(   8) = (  0.2500000  0.7500000  0.5000000  )
         9           Cl  tau(   9) = (  0.0000000  0.0000000  0.0000000  )
        10           Cl  tau(  10) = (  0.5000000  0.5000000  0.0000000  )
        11           Cl  tau(  11) = (  0.0087420  0.5087420  0.2056490  )
        12           Cl  tau(  12) = (  0.6969060  0.1969060  0.2056490  )
        13           Cl  tau(  13) = (  0.9912580  0.4912580  0.7943510  )
        14           Cl  tau(  14) = (  0.4912580  0.6969060  0.5000000  )
        15           Cl  tau(  15) = (  0.1969060  0.9912580  0.5000000  )
        16           Cl  tau(  16) = (  0.5087420  0.3030940  0.5000000  )
        17           Cl  tau(  17) = (  0.3030940  0.8030940  0.7943510  )
        18           Cl  tau(  18) = (  0.8030940  0.0087420  0.5000000  )

     number of k points=    10
                       cart. coord. in units 2pi/alat
        k(    1) = (   0.0000000   0.0000000   0.0000000), wk =   0.0740741
        k(    2) = (   0.0000000   0.0000000   0.5205794), wk =   0.1481481
        k(    3) = (   0.0000000   0.3388682   0.2602897), wk =   0.2962963
        k(    4) = (   0.0000000   0.3388682   0.7808691), wk =   0.1481481
        k(    5) = (   0.3333333  -0.0609965   0.2602897), wk =   0.2962963
        k(    6) = (   0.3333333  -0.0609965   0.7808691), wk =   0.1481481
        k(    7) = (   0.3333333   0.2778717   0.5205794), wk =   0.2962963
        k(    8) = (   0.3333333   0.2778717  -0.0000000), wk =   0.1481481
        k(    9) = (   0.3333333  -0.3998648  -0.0000000), wk =   0.1481481
        k(   10) = (   0.3333333  -0.3998648   0.5205794), wk =   0.2962963

                       cryst. coord.
        k(    1) = (   0.0000000   0.0000000   0.0000000), wk =   0.0740741
        k(    2) = (   0.0000000   0.0000000   0.3333333), wk =   0.1481481
        k(    3) = (   0.0000000   0.3333333   0.0000000), wk =   0.2962963
        k(    4) = (   0.0000000   0.3333333   0.3333333), wk =   0.1481481
        k(    5) = (   0.3333333   0.0000000  -0.0000000), wk =   0.2962963
        k(    6) = (   0.3333333   0.0000000   0.3333333), wk =   0.1481481
        k(    7) = (   0.3333333   0.3333333  -0.0000000), wk =   0.2962963
        k(    8) = (   0.3333333   0.3333333  -0.3333333), wk =   0.1481481
        k(    9) = (   0.3333333  -0.3333333  -0.0000000), wk =   0.1481481
        k(   10) = (   0.3333333  -0.3333333   0.3333333), wk =   0.2962963

     Check: negative core charge=   -0.000007

     Initial potential from superposition of free atoms

     starting charge     179.9707, renormalised to     182.0000

     negative rho (up, down):  4.598E-01 0.000E+00
     Starting wfcs are  120 randomized atomic wfcs +  136 random wfcs

     Self-consistent Calculation

     iteration #  1     ecut=    30.00 Ry     beta= 0.70
     Davidson diagonalization with overlap

     ethr =  1.00E-02,  avg # of iterations =  7.0

     negative rho (up, down):  4.675E-01 0.000E+00

     total energy              =   -1793.71357941 Ry
     estimated scf accuracy    <       8.69603085 Ry

[...]

     c_bands:  1 eigenvalues not converged
     ethr =  6.19E-06,  avg # of iterations = 12.2

[...]

     total energy              =   -1800.46794724 Ry
     estimated scf accuracy    <       0.00000301 Ry

     iteration # 15     ecut=    30.00 Ry     beta= 0.70
     Davidson diagonalization with overlap

     ethr =  1.65E-09,  avg # of iterations =  2.4

     negative rho (up, down):  4.481E-01 0.000E+00

     End of self-consistent calculation

          k = 0.0000 0.0000 0.0000 ( 10069 PWs)   bands (ev):

   -90.0124 -90.0122 -53.4132 -53.4126 -53.2350 -53.2346 -53.2336 -53.2333
   -10.6172 -10.4750 -10.3255 -10.2985 -10.2981 -10.2748 -10.2368 -10.2364
    -9.2861  -9.2581  -6.2281  -6.2218  -6.2190  -6.2181  -6.2163  -6.2163
    -6.2115  -6.2115  -6.2084  -6.1991  -6.0522  -6.0376  -6.0326  -6.0080
    -6.0007  -6.0006  -5.9981  -5.9979  -5.9679  -5.9679  -5.9642  -5.9642
    -5.9532  -5.9499  -5.9497  -5.9449  -5.9378  -5.9376  -5.9068  -5.8920
    -1.0707  -0.8776  -0.8774  -0.8633  -0.7645  -0.4729  -0.3553   0.3444
     0.6019   0.6341   0.6344   0.6826   0.8545   0.8547   1.0766   1.0767
     1.3190   1.3383   1.5229   1.5230   1.5456   1.6515   1.7160   1.8212
     1.8213   1.8748   1.8755   1.8755   2.0135   2.0152   2.3701   2.4713
     2.4714   2.7833   3.2978   3.2978   4.1532   4.1562   4.2415   4.2976
     4.4139   4.6299   4.6302   4.6524   4.6566   4.6568   7.2841   7.5829
     7.7585   7.7814   7.8737   7.8737   8.1929   8.1930   8.4022   8.4650
     8.7026   8.7028   8.8038   9.0476   9.0477   9.2838  10.2497  10.2497
    10.5551  10.8666  11.9588  11.9590  12.0492  12.0492  12.1586  12.5450
    12.8751  12.8815  12.9484  13.0728  13.1126  13.1127  13.2677  13.4617
    13.6931  13.9536  13.9537  14.1129  14.6149  14.8066  14.8066  14.8430
    14.8432  14.9589  14.9662  15.5916  15.6023  15.6024  15.6198  15.9875
    16.0709  16.1178  16.1180  16.4369  16.4900  16.5883  16.6720  16.6720
    16.9811  17.0587  17.2414  17.2499  17.2500  17.3750  17.4176  17.4342
    17.6122  17.6124  18.0062  18.0062  18.1114  18.1114  18.2141  18.3232
    18.6583  19.0097  19.0098  19.2075  19.3012  19.3345  19.3899  19.3900
    19.4480  19.6708  19.7208  19.7992  19.7993  19.8934  19.8934  19.8938
    20.0805  20.0805  20.2417  20.4326  20.5906  20.8599  20.9486  21.0221
    21.1251  21.1272  21.2954  21.2954  21.5151  21.5152  21.6884  21.8177
    21.9213  21.9214  22.0761  22.0761  22.3517  22.4217  22.5435  22.7455
    22.9337  22.9338  22.9885  23.1601  23.2727  23.2727  23.4629  23.6022
    23.6022  23.7520  23.7520  23.8380  24.0444  24.0445  24.1371  24.1685
    24.2755  24.4136  24.4871  24.6285  24.6285  24.9123  24.9124  25.0715
    25.2074  25.2815  25.2816  25.5720  25.5720  25.6256  25.8956  25.8957
    26.0714  26.1112  26.1114  26.3838  26.4104  26.5506  26.5954  26.7221
    26.7222  26.8465  26.9042  26.9268  26.9649  27.5838  27.6162  27.7539

     occupation numbers
     1.0000   1.0000   1.0000   1.0000   1.0000   1.0000   1.0000   1.0000
     1.0000   1.0000   1.0000   1.0000   1.0000   1.0000   1.0000   1.0000
     1.0000   1.0000   1.0000   1.0000   1.0000   1.0000   1.0000   1.0000
     1.0000   1.0000   1.0000   1.0000   1.0000   1.0000   1.0000   1.0000
     1.0000   1.0000   1.0000   1.0000   1.0000   1.0000   1.0000   1.0000
     1.0000   1.0000   1.0000   1.0000   1.0000   1.0000   1.0000   1.0000
     1.0000   1.0000   1.0000   1.0000   1.0000   1.0000   1.0000   1.0000
     1.0000   1.0000   1.0000   1.0000   1.0000   1.0000   1.0000   1.0000
     1.0000   1.0000   1.0000   1.0000   1.0000   1.0000   1.0000   1.0000
     1.0000   1.0000   1.0000   1.0000   1.0000   1.0000   1.0000   1.0000
     1.0000   1.0000   1.0000   1.0000   1.0000   1.0000   1.0000   1.0000
     1.0000   1.0000   1.0000   0.0000   0.0000   0.0000   0.0000   0.0000
     0.0000   0.0000   0.0000   0.0000   0.0000   0.0000   0.0000   0.0000
     0.0000   0.0000   0.0000   0.0000   0.0000   0.0000   0.0000   0.0000
     0.0000   0.0000   0.0000   0.0000   0.0000   0.0000   0.0000   0.0000
     0.0000   0.0000   0.0000   0.0000   0.0000   0.0000   0.0000   0.0000
     0.0000   0.0000   0.0000   0.0000   0.0000   0.0000   0.0000   0.0000
     0.0000   0.0000   0.0000   0.0000   0.0000   0.0000   0.0000   0.0000
     0.0000   0.0000   0.0000   0.0000   0.0000   0.0000   0.0000   0.0000
     0.0000   0.0000   0.0000   0.0000   0.0000   0.0000   0.0000   0.0000
     0.0000   0.0000   0.0000   0.0000   0.0000   0.0000   0.0000   0.0000
     0.0000   0.0000   0.0000   0.0000   0.0000   0.0000   0.0000   0.0000
     0.0000   0.0000   0.0000   0.0000   0.0000   0.0000   0.0000   0.0000
     0.0000   0.0000   0.0000   0.0000   0.0000   0.0000   0.0000   0.0000
     0.0000   0.0000   0.0000   0.0000   0.0000   0.0000   0.0000   0.0000
     0.0000   0.0000   0.0000   0.0000   0.0000   0.0000   0.0000   0.0000
     0.0000   0.0000   0.0000   0.0000   0.0000   0.0000   0.0000   0.0000
     0.0000   0.0000   0.0000   0.0000   0.0000   0.0000   0.0000   0.0000
     0.0000   0.0000   0.0000   0.0000   0.0000   0.0000   0.0000   0.0000
     0.0000   0.0000   0.0000   0.0000   0.0000   0.0000   0.0000   0.0000
     0.0000   0.0000   0.0000   0.0000   0.0000   0.0000   0.0000   0.0000
     0.0000   0.0000   0.0000   0.0000   0.0000   0.0000   0.0000   0.0000

[...]

          k = 0.3333-0.3999 0.5206 ( 10054 PWs)   bands (ev):

   -90.0123 -90.0122 -53.4120 -53.4113 -53.2356 -53.2340 -53.2340 -53.2330
   -10.5595 -10.5209 -10.3265 -10.3184 -10.2871 -10.2853 -10.2375 -10.2323
    -9.2743  -9.2679  -6.2267  -6.2226  -6.2211  -6.2194  -6.2145  -6.2130
    -6.2123  -6.2113  -6.2076  -6.1995  -6.0492  -6.0426  -6.0270  -6.0140
    -5.9982  -5.9959  -5.9946  -5.9899  -5.9732  -5.9728  -5.9668  -5.9601
    -5.9558  -5.9537  -5.9485  -5.9459  -5.9341  -5.9267  -5.9146  -5.8993
    -0.9975  -0.9515  -0.9034  -0.7057  -0.6531  -0.6439  -0.1455   0.3744
     0.4612   0.5583   0.6005   0.6086   0.7057   0.9393   0.9846   1.0805
     1.2286   1.2565   1.2862   1.3498   1.5593   1.6468   1.6557   1.6925
     1.8689   1.9925   2.0189   2.1140   2.1826   2.2105   2.4900   2.6446
     2.6584   2.8331   3.0124   3.0205   4.1205   4.1252   4.2309   4.2394
     4.5853   4.6203   4.6285   4.6460   4.7223   4.7353   7.2621   7.3111
     7.3179   7.7836   7.8826   8.0534   8.2698   8.4097   8.5097   8.5763
     8.6048   8.8185   8.9850   9.1085   9.1457   9.4560   9.6027   9.6076
    11.3632  11.4452  11.5085  11.8384  11.8583  11.9961  12.2627  12.3956
    12.6063  12.7599  13.1632  13.1657  13.1977  13.3242  13.5089  13.7661
    13.9195  14.0189  14.0649  14.2183  14.3425  14.4491  14.5369  14.5640
    14.8720  15.0239  15.3705  15.4336  15.4865  15.5211  15.8013  15.9177
    15.9279  16.0193  16.3282  16.3420  16.3548  16.5033  16.5524  16.6115
    16.8660  16.8906  17.0236  17.2170  17.3831  17.4976  17.5064  17.6785
    17.7363  17.8431  17.9298  17.9621  18.0910  18.3324  18.4279  18.5772
    18.6259  18.7139  18.7820  18.8257  18.9659  19.1209  19.1506  19.2973
    19.3356  19.4106  19.4230  19.5015  19.9443  20.1292  20.1516  20.2348
    20.2798  20.3577  20.3898  20.4579  20.5622  20.5804  20.8318  20.8544
    21.0304  21.0820  21.1084  21.4418  21.6269  21.7977  21.8015  21.9594
    21.9827  22.1856  22.2554  22.3035  22.5031  22.5221  22.5742  22.7447
    22.7507  22.7548  23.1938  23.2305  23.2382  23.2986  23.3436  23.3891
    23.5123  23.7713  23.7817  23.8643  23.8916  24.0446  24.1250  24.3942
    24.4537  24.6243  24.6554  24.7426  24.9350  25.0419  25.0820  25.1028
    25.1567  25.2171  25.3665  25.4573  25.6435  25.8995  26.0800  26.1431
    26.1583  26.3683  26.4238  26.5286  26.5900  26.5946  26.6830  26.7095
    26.8430  26.8807  26.9536  27.2163  27.2382  27.3446  27.3982  27.4949

     occupation numbers
     1.0000   1.0000   1.0000   1.0000   1.0000   1.0000   1.0000   1.0000
     1.0000   1.0000   1.0000   1.0000   1.0000   1.0000   1.0000   1.0000
     1.0000   1.0000   1.0000   1.0000   1.0000   1.0000   1.0000   1.0000
     1.0000   1.0000   1.0000   1.0000   1.0000   1.0000   1.0000   1.0000
     1.0000   1.0000   1.0000   1.0000   1.0000   1.0000   1.0000   1.0000
     1.0000   1.0000   1.0000   1.0000   1.0000   1.0000   1.0000   1.0000
     1.0000   1.0000   1.0000   1.0000   1.0000   1.0000   1.0000   1.0000
     1.0000   1.0000   1.0000   1.0000   1.0000   1.0000   1.0000   1.0000
     1.0000   1.0000   1.0000   1.0000   1.0000   1.0000   1.0000   1.0000
     1.0000   1.0000   1.0000   1.0000   1.0000   1.0000   1.0000   1.0000
     1.0000   1.0000   1.0000   1.0000   1.0000   1.0000   1.0000   1.0000
     1.0000   1.0000   1.0000   0.0000   0.0000   0.0000   0.0000   0.0000
     0.0000   0.0000   0.0000   0.0000   0.0000   0.0000   0.0000   0.0000
     0.0000   0.0000   0.0000   0.0000   0.0000   0.0000   0.0000   0.0000
     0.0000   0.0000   0.0000   0.0000   0.0000   0.0000   0.0000   0.0000
     0.0000   0.0000   0.0000   0.0000   0.0000   0.0000   0.0000   0.0000
     0.0000   0.0000   0.0000   0.0000   0.0000   0.0000   0.0000   0.0000
     0.0000   0.0000   0.0000   0.0000   0.0000   0.0000   0.0000   0.0000
     0.0000   0.0000   0.0000   0.0000   0.0000   0.0000   0.0000   0.0000
     0.0000   0.0000   0.0000   0.0000   0.0000   0.0000   0.0000   0.0000
     0.0000   0.0000   0.0000   0.0000   0.0000   0.0000   0.0000   0.0000
     0.0000   0.0000   0.0000   0.0000   0.0000   0.0000   0.0000   0.0000
     0.0000   0.0000   0.0000   0.0000   0.0000   0.0000   0.0000   0.0000
     0.0000   0.0000   0.0000   0.0000   0.0000   0.0000   0.0000   0.0000
     0.0000   0.0000   0.0000   0.0000   0.0000   0.0000   0.0000   0.0000
     0.0000   0.0000   0.0000   0.0000   0.0000   0.0000   0.0000   0.0000
     0.0000   0.0000   0.0000   0.0000   0.0000   0.0000   0.0000   0.0000
     0.0000   0.0000   0.0000   0.0000   0.0000   0.0000   0.0000   0.0000
     0.0000   0.0000   0.0000   0.0000   0.0000   0.0000   0.0000   0.0000
     0.0000   0.0000   0.0000   0.0000   0.0000   0.0000   0.0000   0.0000
     0.0000   0.0000   0.0000   0.0000   0.0000   0.0000   0.0000   0.0000
     0.0000   0.0000   0.0000   0.0000   0.0000   0.0000   0.0000   0.0000

     highest occupied, lowest unoccupied level (ev):     4.6311    4.6324

!    total energy              =   -1800.46794730 Ry
     estimated scf accuracy    <       0.00000040 Ry

     The total energy is the sum of the following terms:
     one-electron contribution =    -898.29366125 Ry
     hartree contribution      =     540.67707632 Ry
     xc contribution           =    -531.58188931 Ry
     ewald contribution        =    -911.26947307 Ry

     convergence has been achieved in  15 iterations

     Writing all to output data dir bands_nm/myprefix.save/

     General routines

     Parallel routines

   This run was terminated on:  22:50:29  15Jul2023

   JOB DONE.