     Program PWSCF v.7.1 starts on 13Jul2023 at  3:30:28

     Reading input from espresso_24907.pwi
Warning: card &CELL ignored
Warning: card / ignored

     Current dimensions of program PWSCF are:
     Max number of different atomic species (ntypx) = 10
     Max number of k-points (npk) =  40000
     Max angular momentum in pseudopotentials (lmaxx) =  4
     file Ba.pbe-spn-kjpaw_psl.1.0.0.UPF: wavefunction(s)  5S 6S renormalized
     Message from routine setup:
     using ibrav=0 with symmetry is DISCOURAGED, use correct ibrav instead

     K-points division:     npool     =       2
     R & G space division:  proc/nbgrp/npool/nimage =       8
     Subspace diagonalization in iterative solution of the eigenvalue problem:
     a serial algorithm will be used

     Using Slab Decomposition

     bravais-lattice index     =            0
     lattice parameter (alat)  =      18.8184  a.u.
     unit-cell volume          =    1885.6437 (a.u.)^3
     number of atoms/cell      =            6
     number of atomic types    =            3
     number of electrons       =        48.00
     number of Kohn-Sham states=           64
     kinetic-energy cutoff     =      30.0000  Ry
     charge density cutoff     =     240.0000  Ry
     scf convergence threshold =      1.0E-06
     mixing beta               =       0.7000
     number of iterations used =            8  plain     mixing
     Exchange-correlation= SLA  PW   PBX  PBC
                           (   1   4   3   4   0   0   0)

     celldm(1)=  18.818372  celldm(2)=   0.000000  celldm(3)=   0.000000
     celldm(4)=   0.000000  celldm(5)=   0.000000  celldm(6)=   0.000000

     crystal axes: (cart. coord. in units of alat)
               a(1) = (   1.000000   0.000000   0.000000 )
               a(2) = (   0.826267   0.563279   0.000000 )
               a(3) = (   0.826267   0.254847   0.502331 )

     reciprocal axes: (cart. coord. in units 2 pi/alat)
               b(1) = (  1.000000 -1.466887 -0.900671 )
               b(2) = (  0.000000  1.775319 -0.900671 )
               b(3) = (  0.000000  0.000000  1.990720 )

     PseudoPot. # 1 for Ba read from file:
     /lustre07/scratch/pragov/crystal_structure_design/utils/SSSP/Ba.pbe-spn-kjpaw_psl.1.0.0.UPF
     MD5 check sum: c432291d3e53af55f19d5e8866385beb
     Pseudo is Projector augmented-wave + core cor, Zval = 10.0
     Generated using "atomic" code by A. Dal Corso  v.5.1
     Shape of augmentation charge: PSQ
     Using radial grid of 1251 points,  7 beta functions with:
                l(1) =   0
                l(2) =   0
                l(3) =   0
                l(4) =   1
                l(5) =   1
                l(6) =   2
                l(7) =   2
     Q(r) pseudized with 0 coefficients

     PseudoPot. # 2 for Sr read from file:
     /lustre07/scratch/pragov/crystal_structure_design/utils/SSSP/Sr_pbe_v1.uspp.F.UPF
     MD5 check sum: 6b418c05fbe9db5448babca5e47b7a5b
     Pseudo is Ultrasoft + core correction, Zval = 10.0
     Generated by new atomic code, or converted to UPF format
     Using radial grid of  883 points,  6 beta functions with:
                l(1) =   0
                l(2) =   0
                l(3) =   1
                l(4) =   1
                l(5) =   2
                l(6) =   2
     Q(r) pseudized with  6 coefficients,  rinner =    1.400   1.400   1.400
                                                       1.400   1.400

     PseudoPot. # 3 for I  read from file:
     /lustre07/scratch/pragov/crystal_structure_design/utils/SSSP/I.pbe-n-kjpaw_psl.0.2.UPF
     MD5 check sum: d4ef18d9c8f18dc85e5843bca1e50dc0
     Pseudo is Projector augmented-wave + core cor, Zval =  7.0
     Generated using "atomic" code by A. Dal Corso  v.5.0.99 svn rev. 10869
     Shape of augmentation charge: PSQ
     Using radial grid of 1247 points,  4 beta functions with:
                l(1) =   0
                l(2) =   0
                l(3) =   1
                l(4) =   1
     Q(r) pseudized with 0 coefficients

     atomic species   valence    mass     pseudopotential
        Ba            10.00   137.32700     Ba( 1.00)
        Sr            10.00    87.62000     Sr( 1.00)
        I              7.00   126.90447     I ( 1.00)

      2 Sym. Ops., with inversion, found

                                    s                        frac. trans.

      isym =  1     identity

 cryst.   s( 1) = (     1          0          0      )
                  (     0          1          0      )
                  (     0          0          1      )

 cart.    s( 1) = (  1.0000000  0.0000000 -0.0000000 )
                  (  0.0000000  1.0000000  0.0000000 )
                  (  0.0000000  0.0000000  1.0000000 )

      isym =  2     inversion

 cryst.   s( 2) = (    -1          0          0      )
                  (     0         -1          0      )
                  (     0          0         -1      )

 cart.    s( 2) = ( -1.0000000  0.0000000  0.0000000 )
                  (  0.0000000 -1.0000000  0.0000000 )
                  (  0.0000000  0.0000000 -1.0000000 )

   Cartesian axes

     site n.     atom                  positions (alat units)
         1           Ba  tau(   1) = (   0.0000000   0.0000000   0.0000000  )
         2           Sr  tau(   2) = (   1.3262667   0.4090631   0.2511654  )
         3           I   tau(   3) = (   1.6520005   0.5095298   0.3128522  )
         4           I   tau(   4) = (   2.3100993   0.7125086   0.4374814  )
         5           I   tau(   5) = (   0.3424341   0.1056176   0.0648494  )
         6           I   tau(   6) = (   1.0005329   0.3085964   0.1894787  )

   Crystallographic axes

     site n.     atom                  positions (cryst. coord.)
         1           Ba  tau(   1) = (  0.0000000  0.0000000  0.0000000  )
         2           Sr  tau(   2) = (  0.5000000  0.5000000  0.5000000  )
         3           I   tau(   3) = (  0.6228010  0.6228010  0.6228010  )
         4           I   tau(   4) = (  0.8709030  0.8709030  0.8709030  )
         5           I   tau(   5) = (  0.1290970  0.1290970  0.1290970  )
         6           I   tau(   6) = (  0.3771990  0.3771990  0.3771990  )

     number of k points=    14
                       cart. coord. in units 2pi/alat
        k(    1) = (   0.0000000   0.0000000   0.0000000), wk =   0.0740741
        k(    2) = (   0.0000000   0.0000000   0.6635733), wk =   0.1481481
        k(    3) = (   0.0000000   0.5917729  -0.3002237), wk =   0.1481481
        k(    4) = (   0.0000000   0.5917729   0.3633496), wk =   0.1481481
        k(    5) = (   0.0000000   0.5917729  -0.9637970), wk =   0.1481481
        k(    6) = (   0.3333333  -0.4889623  -0.3002237), wk =   0.1481481
        k(    7) = (   0.3333333  -0.4889623   0.3633496), wk =   0.1481481
        k(    8) = (   0.3333333  -0.4889623  -0.9637970), wk =   0.1481481
        k(    9) = (   0.3333333   0.1028107  -0.6004474), wk =   0.1481481
        k(   10) = (   0.3333333   0.1028107   0.0631259), wk =   0.1481481
        k(   11) = (   0.3333333   0.1028107  -1.2640207), wk =   0.1481481
        k(   12) = (   0.3333333  -1.0807352   0.0000000), wk =   0.1481481
        k(   13) = (   0.3333333  -1.0807352   0.6635733), wk =   0.1481481
        k(   14) = (   0.3333333  -1.0807352  -0.6635733), wk =   0.1481481

                       cryst. coord.
        k(    1) = (   0.0000000   0.0000000   0.0000000), wk =   0.0740741
        k(    2) = (   0.0000000   0.0000000   0.3333333), wk =   0.1481481
        k(    3) = (   0.0000000   0.3333333  -0.0000000), wk =   0.1481481
        k(    4) = (   0.0000000   0.3333333   0.3333333), wk =   0.1481481
        k(    5) = (   0.0000000   0.3333333  -0.3333333), wk =   0.1481481
        k(    6) = (   0.3333333  -0.0000000   0.0000000), wk =   0.1481481
        k(    7) = (   0.3333333  -0.0000000   0.3333333), wk =   0.1481481
        k(    8) = (   0.3333333  -0.0000000  -0.3333333), wk =   0.1481481
        k(    9) = (   0.3333333   0.3333333  -0.0000000), wk =   0.1481481
        k(   10) = (   0.3333333   0.3333333   0.3333333), wk =   0.1481481
        k(   11) = (   0.3333333   0.3333333  -0.3333333), wk =   0.1481481
        k(   12) = (   0.3333333  -0.3333333  -0.0000000), wk =   0.1481481
        k(   13) = (   0.3333333  -0.3333333   0.3333333), wk =   0.1481481
        k(   14) = (   0.3333333  -0.3333333  -0.3333333), wk =   0.1481481

     Check: negative core charge=   -0.000001

     Initial potential from superposition of free atoms

     starting charge      47.9490, renormalised to      48.0000

     negative rho (up, down):  6.429E-02 0.000E+00
     Starting wfcs are   34 randomized atomic wfcs +   30 random wfcs
     Checking if some PAW data can be deallocated...

     Self-consistent Calculation

     iteration #  1     ecut=    30.00 Ry     beta= 0.70
     Davidson diagonalization with overlap

     ethr =  1.00E-02,  avg # of iterations =  7.4

     Threshold (ethr) on eigenvalues was too large:
     Diagonalizing with lowered threshold

     Davidson diagonalization with overlap

[...]

     negative rho (up, down):  6.549E-02 0.000E+00

     total energy              =   -2022.71042701 Ry
     estimated scf accuracy    <       0.11508922 Ry

[...]

     total energy              =   -2022.74160656 Ry
     estimated scf accuracy    <       0.00000211 Ry

     iteration #  7     ecut=    30.00 Ry     beta= 0.70
     Davidson diagonalization with overlap

     ethr =  4.40E-09,  avg # of iterations =  4.0

     negative rho (up, down):  6.709E-02 0.000E+00

     End of self-consistent calculation

          k = 0.0000 0.0000 0.0000 (  5227 PWs)   bands (ev):

   -31.6674 -23.8966 -13.6430 -13.6223 -13.6223  -9.1923  -9.0640  -9.0638
    -8.3381  -8.0021  -7.8036  -7.5409   1.0521   1.0521   1.0656   1.5642
     1.5642   1.6143   1.7559   2.0069   2.0069   2.7588   2.8026   2.8026
     6.7738   6.9740   6.9740   7.5902   7.5902   8.1391   8.9063   8.9063
     9.0399   9.1653   9.2814   9.2815   9.3137   9.7477   9.7627   9.7628
    11.1844  11.1844  12.2438  12.2438  12.3049  12.6993  12.7402  12.7402
    13.4135  13.4135  13.9676  13.9676  14.3537  16.2072  16.2072  16.2901
    16.3805  16.3806  16.4827  16.7425  16.7748  17.1568  17.1568  17.5983

     occupation numbers
     1.0000   1.0000   1.0000   1.0000   1.0000   1.0000   1.0000   1.0000
     1.0000   1.0000   1.0000   1.0000   1.0000   1.0000   1.0000   1.0000
     1.0000   1.0000   1.0000   1.0000   1.0000   1.0000   1.0000   1.0000
     0.0000   0.0000   0.0000   0.0000   0.0000   0.0000   0.0000   0.0000
     0.0000   0.0000   0.0000   0.0000   0.0000   0.0000   0.0000   0.0000
     0.0000   0.0000   0.0000   0.0000   0.0000   0.0000   0.0000   0.0000
     0.0000   0.0000   0.0000   0.0000   0.0000   0.0000   0.0000   0.0000
     0.0000   0.0000   0.0000   0.0000   0.0000   0.0000   0.0000   0.0000

[...]

          k = 0.3333-1.0807-0.6636 (  5217 PWs)   bands (ev):

   -31.6673 -23.8958 -13.6414 -13.6343 -13.6238  -9.2815  -9.1468  -9.0728
    -8.0036  -7.9261  -7.8246  -7.7136   0.8751   1.0167   1.1169   1.2060
     1.4557   1.7146   1.8452   1.9934   2.4258   2.7410   2.8017   2.8211
     6.7265   7.4371   7.5089   7.8245   7.9414   8.3056   8.4036   8.4840
     8.5630   8.7563   8.9639   9.1321   9.8122  10.0185  10.6615  10.9307
    11.1150  11.8650  11.9128  11.9369  12.2489  12.3675  12.5371  12.6442
    12.7739  13.2406  13.2711  13.4318  14.6429  14.9310  15.3471  15.5321
    15.7543  15.9844  16.3645  16.5383  16.6587  16.7527  17.3899  17.5685

     occupation numbers
     1.0000   1.0000   1.0000   1.0000   1.0000   1.0000   1.0000   1.0000
     1.0000   1.0000   1.0000   1.0000   1.0000   1.0000   1.0000   1.0000
     1.0000   1.0000   1.0000   1.0000   1.0000   1.0000   1.0000   1.0000
     0.0000   0.0000   0.0000   0.0000   0.0000   0.0000   0.0000   0.0000
     0.0000   0.0000   0.0000   0.0000   0.0000   0.0000   0.0000   0.0000
     0.0000   0.0000   0.0000   0.0000   0.0000   0.0000   0.0000   0.0000
     0.0000   0.0000   0.0000   0.0000   0.0000   0.0000   0.0000   0.0000
     0.0000   0.0000   0.0000   0.0000   0.0000   0.0000   0.0000   0.0000

     highest occupied, lowest unoccupied level (ev):     3.0214    6.7265

!    total energy              =   -2022.74160708 Ry
     estimated scf accuracy    <       0.00000021 Ry

     The total energy is the sum of the following terms:
     one-electron contribution =     -38.19941701 Ry
     hartree contribution      =      37.20405230 Ry
     xc contribution           =    -205.58563726 Ry
     ewald contribution        =    -159.10389868 Ry
     one-center paw contrib.   =   -1657.05670642 Ry
      -> PAW hartree energy AE =      28.43621789 Ry
      -> PAW hartree energy PS =     -28.32479048 Ry
      -> PAW xc energy AE      =    -394.18149962 Ry
      -> PAW xc energy PS      =      19.11932867 Ry
      -> total E_H with PAW    =      37.31547971 Ry
      -> total E_XC with PAW   =    -580.64780822 Ry

     convergence has been achieved in   7 iterations

     Writing all to output data dir bands_nm/myprefix.save/

     General routines

     Parallel routines

     PAW routines

   This run was terminated on:   3:31: 4  13Jul2023

   JOB DONE.