     Program PWSCF v.7.1 starts on 17Jul2023 at  1:36:31

     Reading input from espresso_20147.pwi
Warning: card &CELL ignored
Warning: card / ignored

     Current dimensions of program PWSCF are:
     Max number of different atomic species (ntypx) = 10
     Max number of k-points (npk) =  40000
     Max angular momentum in pseudopotentials (lmaxx) =  4
     file Mg.pbe-n-kjpaw_psl.0.3.0.UPF: wavefunction(s)  3S renormalized
     file O.pbe-n-kjpaw_psl.0.1.UPF: wavefunction(s)  2P renormalized
     Message from routine setup:
     using ibrav=0 with symmetry is DISCOURAGED, use correct ibrav instead

     K-points division:     npool     =       2
     R & G space division:  proc/nbgrp/npool/nimage =       4
     Subspace diagonalization in iterative solution of the eigenvalue problem:
     one sub-group per band group will be used

     Using Slab Decomposition

     bravais-lattice index     =            0
     lattice parameter (alat)  =       9.7908  a.u.
     unit-cell volume          =    1450.6757 (a.u.)^3
     number of atoms/cell      =           20
     number of atomic types    =            4
     number of electrons       =       142.00
     number of Kohn-Sham states=          256
     kinetic-energy cutoff     =      30.0000  Ry
     charge density cutoff     =     240.0000  Ry
     scf convergence threshold =      1.0E-06
     mixing beta               =       0.7000
     number of iterations used =            8  plain     mixing
     Exchange-correlation= SLA  PW   PBX  PBC
                           (   1   4   3   4   0   0   0)

     celldm(1)=   9.790788  celldm(2)=   0.000000  celldm(3)=   0.000000
     celldm(4)=   0.000000  celldm(5)=   0.000000  celldm(6)=   0.000000

     crystal axes: (cart. coord. in units of alat)
               a(1) = (   1.000000   0.000000   0.000000 )
               a(2) = (  -0.000593   1.028433   0.000000 )
               a(3) = (  -0.007107   0.000288   1.502939 )

     reciprocal axes: (cart. coord. in units 2 pi/alat)
               b(1) = (  1.000000  0.000576  0.004728 )
               b(2) = (  0.000000  0.972353 -0.000186 )
               b(3) = (  0.000000  0.000000  0.665363 )

     PseudoPot. # 1 for Mg read from file:
     /lustre07/scratch/pragov/crystal_structure_design/utils/SSSP/Mg.pbe-n-kjpaw_psl.0.3.0.UPF
     MD5 check sum: 24ecedc7f3e3cbe212e682f4413594e4
     Pseudo is Projector augmented-wave + core cor, Zval =  2.0
     Generated using "atomic" code by A. Dal Corso  v.5.0.99 svn rev. 10869
     Shape of augmentation charge: PSQ
     Using radial grid of 1129 points,  4 beta functions with:
                l(1) =   0
                l(2) =   0
                l(3) =   1
                l(4) =   1
     Q(r) pseudized with 0 coefficients

     PseudoPot. # 2 for Co read from file:
     /lustre07/scratch/pragov/crystal_structure_design/utils/SSSP/Co_pbe_v1.2.uspp.F.UPF
     MD5 check sum: 5f91765df6ddd3222702df6e7b74a16d
     Pseudo is Ultrasoft + core correction, Zval = 17.0
     Generated by new atomic code, or converted to UPF format
     Using radial grid of  863 points,  6 beta functions with:
                l(1) =   0
                l(2) =   0
                l(3) =   1
                l(4) =   1
                l(5) =   2
                l(6) =   2
     Q(r) pseudized with  8 coefficients,  rinner =    1.200   1.200   1.200
                                                       1.200   1.200

     PseudoPot. # 3 for W  read from file:
     /lustre07/scratch/pragov/crystal_structure_design/utils/SSSP/W_pbe_v1.2.uspp.F.UPF
     MD5 check sum: 9c083fa34c2a2ea0f02f1f893e16e1c8
     Pseudo is Ultrasoft + core correction, Zval = 14.0
     Generated by new atomic code, or converted to UPF format
     Using radial grid of  923 points,  8 beta functions with:
                l(1) =   0
                l(2) =   0
                l(3) =   0
                l(4) =   1
                l(5) =   1
                l(6) =   2
                l(7) =   2
                l(8) =   3
     Q(r) pseudized with  6 coefficients,  rinner =    1.350   1.350   1.350
                                                       1.350   1.350   1.350
                                                       1.350

     PseudoPot. # 4 for O  read from file:
     /lustre07/scratch/pragov/crystal_structure_design/utils/SSSP/O.pbe-n-kjpaw_psl.0.1.UPF
     MD5 check sum: 0234752ac141de4415c5fc33072bef88
     Pseudo is Projector augmented-wave + core cor, Zval =  6.0
     Generated using "atomic" code by A. Dal Corso  v.5.0.99 svn rev. 10869
     Shape of augmentation charge: BESSEL
     Using radial grid of 1095 points,  4 beta functions with:
                l(1) =   0
                l(2) =   0
                l(3) =   1
                l(4) =   1
     Q(r) pseudized with 0 coefficients

     atomic species   valence    mass     pseudopotential
        Mg             2.00    24.30500     Mg( 1.00)
        Co            17.00    58.93319     Co( 1.00)
        W             14.00   183.84000     W ( 1.00)
        O              6.00    15.99900     O ( 1.00)

      2 Sym. Ops., with inversion, found

                                    s                        frac. trans.

      isym =  1     identity

 cryst.   s( 1) = (     1          0          0      )
                  (     0          1          0      )
                  (     0          0          1      )

 cart.    s( 1) = (  1.0000000  0.0000000  0.0000000 )
                  (  0.0000000  1.0000000  0.0000000 )
                  (  0.0000000  0.0000000  1.0000000 )

      isym =  2     inversion

 cryst.   s( 2) = (    -1          0          0      )
                  (     0         -1          0      )
                  (     0          0         -1      )

 cart.    s( 2) = ( -1.0000000  0.0000000  0.0000000 )
                  (  0.0000000 -1.0000000  0.0000000 )
                  (  0.0000000  0.0000000 -1.0000000 )

   Cartesian axes

     site n.     atom                  positions (alat units)
         1           Mg  tau(   1) = (   0.9923912   0.0495308   0.4048616  )
         2           Mg  tau(   2) = (   0.5042097   0.5641343   0.3464860  )
         3           Mg  tau(   3) = (  -0.0000862   0.9791916   1.0980786  )
         4           Mg  tau(   4) = (   0.4880862   0.4645840   1.1564572  )
         5           Co  tau(   5) = (  -0.0038485   0.5143597   0.7514709  )
         6           Co  tau(   6) = (   0.4999990   0.0000010   0.0000000  )
         7           W   tau(   7) = (   0.4964477   0.0001440   0.7514709  )
         8           W   tau(   8) = (   0.9925962   0.5145047   1.5029357  )
         9           O   tau(   9) = (   0.6639443   0.3090508   0.6138918  )
        10           O   tau(  10) = (   0.8321612   0.8229448   0.1378195  )
        11           O   tau(  11) = (   0.3283617   0.7196654   0.8890484  )
        12           O   tau(  12) = (   0.1601408   0.2057786   1.3651132  )
        13           O   tau(  13) = (   0.1792133   0.1827669   0.8257551  )
        14           O   tau(  14) = (   0.3097489   0.6973429   1.4287025  )
        15           O   tau(  15) = (   0.8130906   0.8459545   0.6771836  )
        16           O   tau(  16) = (   0.6825471   0.3313837   0.0742331  )
        17           O   tau(  17) = (   0.1296488   0.4247487   0.3463162  )
        18           O   tau(  18) = (   0.3661419   0.9390382   0.4048090  )
        19           O   tau(  19) = (   0.6261630   0.0896842   1.0981312  )
        20           O   tau(  20) = (   0.8626491   0.6039727   1.1566210  )

   Crystallographic axes

     site n.     atom                  positions (cryst. coord.)
         1           Mg  tau(   1) = (  0.9943340  0.0480860  0.2693800  )
         2           Mg  tau(   2) = (  0.5061730  0.5484730  0.2305390  )
         3           Mg  tau(   3) = (  0.0056700  0.9519150  0.7306210  )
         4           Mg  tau(   4) = (  0.4938220  0.4515240  0.7694640  )
         5           Co  tau(   5) = (  0.0000010  0.4999990  0.5000010  )
         6           Co  tau(   6) = (  0.4999990  0.0000010  0.0000000  )
         7           W   tau(   7) = (  0.5000010  0.0000000  0.5000010  )
         8           W   tau(   8) = (  0.9999990  0.5000000  0.9999980  )
         9           O   tau(   9) = (  0.6670250  0.3003920  0.4084610  )
        10           O   tau(  10) = (  0.8332870  0.8001670  0.0917000  )
        11           O   tau(  11) = (  0.3329800  0.6996030  0.5915400  )
        12           O   tau(  12) = (  0.1667140  0.1998350  0.9082960  )
        13           O   tau(  13) = (  0.1832230  0.1775600  0.5494270  )
        14           O   tau(  14) = (  0.3169060  0.6777970  0.9506060  )
        15           O   tau(  15) = (  0.8167800  0.8224400  0.4505730  )
        16           O   tau(  16) = (  0.6830890  0.3222080  0.0493920  )
        17           O   tau(  17) = (  0.1315310  0.4129410  0.2304260  )
        18           O   tau(  18) = (  0.3685970  0.9130010  0.2693450  )
        19           O   tau(  19) = (  0.6314070  0.0870000  0.7306560  )
        20           O   tau(  20) = (  0.8684660  0.5870590  0.7695730  )

     number of k points=    14
                       cart. coord. in units 2pi/alat
        k(    1) = (   0.0000000   0.0000000   0.0000000), wk =   0.0740741
        k(    2) = (   0.0000000   0.0000000   0.2217877), wk =   0.1481481
        k(    3) = (   0.0000000   0.3241176  -0.0000621), wk =   0.1481481
        k(    4) = (   0.0000000   0.3241176   0.2217256), wk =   0.1481481
        k(    5) = (   0.0000000   0.3241176  -0.2218498), wk =   0.1481481
        k(    6) = (   0.3333333   0.0001921   0.0015761), wk =   0.1481481
        k(    7) = (   0.3333333   0.0001921   0.2233638), wk =   0.1481481
        k(    8) = (   0.3333333   0.0001921  -0.2202116), wk =   0.1481481
        k(    9) = (   0.3333333   0.3243097   0.0015140), wk =   0.1481481
        k(   10) = (   0.3333333   0.3243097   0.2233017), wk =   0.1481481
        k(   11) = (   0.3333333   0.3243097  -0.2202737), wk =   0.1481481
        k(   12) = (   0.3333333  -0.3239255   0.0016382), wk =   0.1481481
        k(   13) = (   0.3333333  -0.3239255   0.2234259), wk =   0.1481481
        k(   14) = (   0.3333333  -0.3239255  -0.2201495), wk =   0.1481481

                       cryst. coord.
        k(    1) = (   0.0000000   0.0000000   0.0000000), wk =   0.0740741
        k(    2) = (   0.0000000   0.0000000   0.3333333), wk =   0.1481481
        k(    3) = (   0.0000000   0.3333333  -0.0000000), wk =   0.1481481
        k(    4) = (   0.0000000   0.3333333   0.3333333), wk =   0.1481481
        k(    5) = (   0.0000000   0.3333333  -0.3333333), wk =   0.1481481
        k(    6) = (   0.3333333  -0.0000000   0.0000000), wk =   0.1481481
        k(    7) = (   0.3333333  -0.0000000   0.3333333), wk =   0.1481481
        k(    8) = (   0.3333333  -0.0000000  -0.3333333), wk =   0.1481481
        k(    9) = (   0.3333333   0.3333333   0.0000000), wk =   0.1481481
        k(   10) = (   0.3333333   0.3333333   0.3333333), wk =   0.1481481
        k(   11) = (   0.3333333   0.3333333  -0.3333333), wk =   0.1481481
        k(   12) = (   0.3333333  -0.3333333   0.0000000), wk =   0.1481481
        k(   13) = (   0.3333333  -0.3333333   0.3333333), wk =   0.1481481
        k(   14) = (   0.3333333  -0.3333333  -0.3333333), wk =   0.1481481

     Check: negative core charge=   -0.000010

     Initial potential from superposition of free atoms

     starting charge     139.7956, renormalised to     142.0000

     negative rho (up, down):  1.312E-01 0.000E+00
     Starting wfcs are  116 randomized atomic wfcs +  140 random wfcs
     Checking if some PAW data can be deallocated...

     Self-consistent Calculation

     iteration #  1     ecut=    30.00 Ry     beta= 0.70
     Davidson diagonalization with overlap

     ethr =  1.00E-02,  avg # of iterations =  6.5

     negative rho (up, down):  1.216E-01 0.000E+00

     total energy              =   -1546.59626838 Ry
     estimated scf accuracy    <       6.41188084 Ry

[...]

     total energy              =   -1550.05219028 Ry
     estimated scf accuracy    <       0.00000227 Ry

     iteration # 20     ecut=    30.00 Ry     beta= 0.70
     Davidson diagonalization with overlap

     ethr =  1.60E-09,  avg # of iterations =  1.0

     negative rho (up, down):  1.247E-01 0.000E+00

     End of self-consistent calculation

          k = 0.0000 0.0000 0.0000 (  4043 PWs)   bands (ev):

   -85.3190 -85.3175 -66.5782 -66.5752 -48.8859 -48.8828 -48.5545 -48.5513
   -48.2937 -48.2870 -30.8955 -30.8930 -30.7685 -30.7665 -30.7545 -30.7520
   -10.4247  -9.9797  -9.2855  -9.2683  -9.1473  -9.0625  -8.9673  -8.8768
    -8.8434  -8.5744  -8.4424  -8.3628   2.1583   2.2083   2.6061   2.6265
     2.8282   2.9103   3.2772   3.5411   3.6224   3.6548   3.9840   4.2476
     4.3860   4.3991   4.4749   4.5493   4.8588   4.8806   5.1849   5.6411
     5.6467   5.8929   5.9696   6.1686   6.2959   6.3855   6.4550   6.4691
     6.5939   6.8277   6.8516   6.9514   7.0724   7.1347   7.1806   7.3482
     8.5080   8.6013   8.7188   8.7596   8.9670   9.0253   9.2974   9.3601
     9.6289  10.0322  10.9307  11.2165  11.4307  11.5604  11.6591  11.8769
    12.7067  14.7325  15.9161  16.2225  16.3926  16.4700  16.7951  17.4033
    17.4770  17.7781  18.3823  18.5158  18.5454  18.7689  18.9504  19.3988
    19.4161  19.4347  19.7282  20.0215  20.4885  20.5904  20.9005  21.0294
    21.3293  21.8747  22.5071  22.6901  22.7803  22.8082  22.9119  23.2289
    23.2679  23.7008  23.8378  24.0275  24.2273  25.1261  25.4140  26.0273
    26.1644  26.3646  26.6671  27.1213  27.3073  27.3495  27.4612  27.8451
    28.6097  28.7270  29.2555  29.3721  29.8964  29.9520  30.2104  30.4789
    30.5353  30.9405  31.1193  31.4491  31.5711  31.6438  31.8432  32.1565
    32.3344  32.7121  32.9612  32.9916  33.1777  33.3487  33.5581  33.6289
    33.7405  33.8691  33.8892  34.3359  34.6296  34.9373  35.4577  35.5127
    35.9212  36.0821  36.2569  36.5727  36.5766  36.6902  37.3128  37.4800
    37.7256  38.0933  38.1655  38.3352  38.5764  38.7864  39.2354  39.2518
    39.5075  39.8118  40.2580  40.6961  40.9564  41.0798  41.1087  41.4326
    41.4990  41.6648  41.7254  42.1829  42.2946  42.7367  42.9707  43.0041
    43.0101  43.0238  43.3389  43.3610  43.7470  43.7889  44.3893  44.5929
    44.6417  44.8659  45.3754  45.4286  45.5013  45.5163  45.8052  46.2931
    46.5000  46.5516  46.9421  46.9864  47.0974  47.2908  47.2918  47.3349
    47.4301  47.4696  47.5020  47.6918  47.8972  47.9604  48.7621  48.7693
    48.8979  48.9295  49.2053  49.2118  49.2258  49.3721  49.6843  49.7510
    49.9021  50.1649  50.4707  50.5181  50.8026  50.9150  51.0072  51.0795
    51.2212  51.5076  52.0500  52.2475  52.3510  52.6446  52.7459  52.7572
    52.8692  53.2367  53.6796  53.8315  54.2915  54.3276  54.5054  54.6368

     occupation numbers
     1.0000   1.0000   1.0000   1.0000   1.0000   1.0000   1.0000   1.0000
     1.0000   1.0000   1.0000   1.0000   1.0000   1.0000   1.0000   1.0000
     1.0000   1.0000   1.0000   1.0000   1.0000   1.0000   1.0000   1.0000
     1.0000   1.0000   1.0000   1.0000   1.0000   1.0000   1.0000   1.0000
     1.0000   1.0000   1.0000   1.0000   1.0000   1.0000   1.0000   1.0000
     1.0000   1.0000   1.0000   1.0000   1.0000   1.0000   1.0000   1.0000
     1.0000   1.0000   1.0000   1.0000   1.0000   1.0000   1.0000   1.0000
     1.0000   1.0000   1.0000   1.0000   1.0000   1.0000   1.0000   1.0000
     1.0000   1.0000   1.0000   1.0000   1.0000   1.0000   1.0000   0.0000
     0.0000   0.0000   0.0000   0.0000   0.0000   0.0000   0.0000   0.0000
     0.0000   0.0000   0.0000   0.0000   0.0000   0.0000   0.0000   0.0000
     0.0000   0.0000   0.0000   0.0000   0.0000   0.0000   0.0000   0.0000
     0.0000   0.0000   0.0000   0.0000   0.0000   0.0000   0.0000   0.0000
     0.0000   0.0000   0.0000   0.0000   0.0000   0.0000   0.0000   0.0000
     0.0000   0.0000   0.0000   0.0000   0.0000   0.0000   0.0000   0.0000
     0.0000   0.0000   0.0000   0.0000   0.0000   0.0000   0.0000   0.0000
     0.0000   0.0000   0.0000   0.0000   0.0000   0.0000   0.0000   0.0000
     0.0000   0.0000   0.0000   0.0000   0.0000   0.0000   0.0000   0.0000
     0.0000   0.0000   0.0000   0.0000   0.0000   0.0000   0.0000   0.0000
     0.0000   0.0000   0.0000   0.0000   0.0000   0.0000   0.0000   0.0000
     0.0000   0.0000   0.0000   0.0000   0.0000   0.0000   0.0000   0.0000
     0.0000   0.0000   0.0000   0.0000   0.0000   0.0000   0.0000   0.0000
     0.0000   0.0000   0.0000   0.0000   0.0000   0.0000   0.0000   0.0000
     0.0000   0.0000   0.0000   0.0000   0.0000   0.0000   0.0000   0.0000
     0.0000   0.0000   0.0000   0.0000   0.0000   0.0000   0.0000   0.0000
     0.0000   0.0000   0.0000   0.0000   0.0000   0.0000   0.0000   0.0000
     0.0000   0.0000   0.0000   0.0000   0.0000   0.0000   0.0000   0.0000
     0.0000   0.0000   0.0000   0.0000   0.0000   0.0000   0.0000   0.0000
     0.0000   0.0000   0.0000   0.0000   0.0000   0.0000   0.0000   0.0000
     0.0000   0.0000   0.0000   0.0000   0.0000   0.0000   0.0000   0.0000
     0.0000   0.0000   0.0000   0.0000   0.0000   0.0000   0.0000   0.0000
     0.0000   0.0000   0.0000   0.0000   0.0000   0.0000   0.0000   0.0000

[...]

          k = 0.3333-0.3239-0.2201 (  4028 PWs)   bands (ev):

   -85.3188 -85.3173 -66.5781 -66.5751 -48.8842 -48.8817 -48.5535 -48.5517
   -48.2907 -48.2866 -30.8960 -30.8935 -30.7686 -30.7666 -30.7546 -30.7522
    -9.9299  -9.8215  -9.4402  -9.3298  -9.2262  -9.1203  -9.0546  -8.9490
    -8.7616  -8.6840  -8.5614  -8.5082   2.2509   2.4799   2.7068   2.7219
     3.1328   3.2401   3.3139   3.4071   3.5041   3.6823   3.8276   3.8694
     4.3928   4.5499   4.8673   4.9222   5.0629   5.0734   5.2488   5.5753
     5.6307   5.7225   5.8024   5.9343   5.9976   6.1206   6.3115   6.3580
     6.4200   6.5242   6.6224   6.7260   6.7617   6.8802   6.9833   7.0163
     8.7602   8.8638   8.9029   8.9347   9.0211   9.0378   9.6777   9.8863
     9.9791  10.2128  10.9909  11.0572  11.2018  11.3374  11.4792  11.5868
    14.4820  15.0790  15.3711  15.6452  16.1262  16.3333  16.6089  16.9966
    17.4793  17.8646  17.9303  18.0710  18.1613  18.4355  19.3970  19.5548
    19.7509  19.8498  19.9471  20.5037  20.5916  20.8106  20.9903  21.1989
    21.3780  22.0831  22.5190  22.7620  22.9910  23.2032  23.3552  23.5173
    23.6855  23.9173  23.9769  24.1611  24.4362  24.8430  24.9336  25.3580
    25.8336  26.0274  26.2671  26.7278  26.9251  27.2049  27.3528  27.7045
    28.1277  28.4331  28.5288  28.9754  29.2582  29.6191  29.9658  30.1419
    30.3015  30.4422  30.6246  31.0013  31.3972  31.6871  31.9031  32.4664
    32.5817  32.7767  33.0433  33.3921  33.4927  33.8433  33.9456  34.1171
    34.2481  34.4854  34.6734  34.8143  35.3856  35.4813  35.6467  35.9001
    35.9611  36.2618  36.8410  37.0707  37.2369  37.4767  37.5758  37.6687
    38.0253  38.2536  38.6555  38.8354  39.0380  39.1228  39.4621  39.5880
    39.8570  40.0352  40.3876  40.5048  40.6323  40.7655  41.2117  41.2591
    41.7035  41.7490  41.8467  41.9804  42.2444  42.4778  42.6449  42.8857
    43.0417  43.3189  43.4534  43.5266  43.8854  43.9287  44.1201  44.1926
    44.2863  44.4978  44.7441  44.9756  45.0082  45.2519  45.3729  45.5276
    45.5727  45.6523  45.9165  46.2226  46.4979  46.5633  46.6988  46.9336
    47.0578  47.2303  47.3531  47.4546  47.6689  47.8272  47.9985  48.1168
    48.3231  48.4980  48.6921  48.8534  49.1070  49.2804  49.4038  49.6011
    49.8174  49.8476  50.0597  50.3825  50.5772  50.8226  51.0688  51.3272
    51.5664  51.7820  52.0472  52.1150  52.2475  52.6216  52.6663  52.8521
    53.1433  53.1747  53.3755  53.4781  53.5843  53.8512  53.9179  54.2313

     occupation numbers
     1.0000   1.0000   1.0000   1.0000   1.0000   1.0000   1.0000   1.0000
     1.0000   1.0000   1.0000   1.0000   1.0000   1.0000   1.0000   1.0000
     1.0000   1.0000   1.0000   1.0000   1.0000   1.0000   1.0000   1.0000
     1.0000   1.0000   1.0000   1.0000   1.0000   1.0000   1.0000   1.0000
     1.0000   1.0000   1.0000   1.0000   1.0000   1.0000   1.0000   1.0000
     1.0000   1.0000   1.0000   1.0000   1.0000   1.0000   1.0000   1.0000
     1.0000   1.0000   1.0000   1.0000   1.0000   1.0000   1.0000   1.0000
     1.0000   1.0000   1.0000   1.0000   1.0000   1.0000   1.0000   1.0000
     1.0000   1.0000   1.0000   1.0000   1.0000   1.0000   1.0000   0.0000
     0.0000   0.0000   0.0000   0.0000   0.0000   0.0000   0.0000   0.0000
     0.0000   0.0000   0.0000   0.0000   0.0000   0.0000   0.0000   0.0000
     0.0000   0.0000   0.0000   0.0000   0.0000   0.0000   0.0000   0.0000
     0.0000   0.0000   0.0000   0.0000   0.0000   0.0000   0.0000   0.0000
     0.0000   0.0000   0.0000   0.0000   0.0000   0.0000   0.0000   0.0000
     0.0000   0.0000   0.0000   0.0000   0.0000   0.0000   0.0000   0.0000
     0.0000   0.0000   0.0000   0.0000   0.0000   0.0000   0.0000   0.0000
     0.0000   0.0000   0.0000   0.0000   0.0000   0.0000   0.0000   0.0000
     0.0000   0.0000   0.0000   0.0000   0.0000   0.0000   0.0000   0.0000
     0.0000   0.0000   0.0000   0.0000   0.0000   0.0000   0.0000   0.0000
     0.0000   0.0000   0.0000   0.0000   0.0000   0.0000   0.0000   0.0000
     0.0000   0.0000   0.0000   0.0000   0.0000   0.0000   0.0000   0.0000
     0.0000   0.0000   0.0000   0.0000   0.0000   0.0000   0.0000   0.0000
     0.0000   0.0000   0.0000   0.0000   0.0000   0.0000   0.0000   0.0000
     0.0000   0.0000   0.0000   0.0000   0.0000   0.0000   0.0000   0.0000
     0.0000   0.0000   0.0000   0.0000   0.0000   0.0000   0.0000   0.0000
     0.0000   0.0000   0.0000   0.0000   0.0000   0.0000   0.0000   0.0000
     0.0000   0.0000   0.0000   0.0000   0.0000   0.0000   0.0000   0.0000
     0.0000   0.0000   0.0000   0.0000   0.0000   0.0000   0.0000   0.0000
     0.0000   0.0000   0.0000   0.0000   0.0000   0.0000   0.0000   0.0000
     0.0000   0.0000   0.0000   0.0000   0.0000   0.0000   0.0000   0.0000
     0.0000   0.0000   0.0000   0.0000   0.0000   0.0000   0.0000   0.0000
     0.0000   0.0000   0.0000   0.0000   0.0000   0.0000   0.0000   0.0000

     highest occupied, lowest unoccupied level (ev):     9.8833    9.3601

!    total energy              =   -1550.05218971 Ry
     estimated scf accuracy    <       0.00000067 Ry

     The total energy is the sum of the following terms:
     one-electron contribution =    -733.41708564 Ry
     hartree contribution      =     441.48370123 Ry
     xc contribution           =    -243.48079572 Ry
     ewald contribution        =    -775.29739241 Ry
     one-center paw contrib.   =    -239.34061716 Ry
      -> PAW hartree energy AE =       2.08886895 Ry
      -> PAW hartree energy PS =      -2.08565558 Ry
      -> PAW xc energy AE      =     -97.60233910 Ry
      -> PAW xc energy PS      =       3.78519754 Ry
      -> total E_H with PAW    =     441.48691460 Ry
      -> total E_XC with PAW   =    -337.29793728 Ry

     convergence has been achieved in  20 iterations

     Writing all to output data dir bands_nm/myprefix.save/

     General routines

     Parallel routines

     PAW routines

   This run was terminated on:   1:38:42  17Jul2023

   JOB DONE.