     Program PWSCF v.7.1 starts on 15Jul2023 at 19:59:54

     Reading input from espresso_9773.pwi
Warning: card &CELL ignored
Warning: card / ignored

     Current dimensions of program PWSCF are:
     Max number of different atomic species (ntypx) = 10
     Max number of k-points (npk) =  40000
     Max angular momentum in pseudopotentials (lmaxx) =  4
     Message from routine setup:
     using ibrav=0 with symmetry is DISCOURAGED, use correct ibrav instead

     K-points division:     npool     =       2
     R & G space division:  proc/nbgrp/npool/nimage =       4
     Subspace diagonalization in iterative solution of the eigenvalue problem:
     one sub-group per band group will be used

     Using Slab Decomposition

     bravais-lattice index     =            0
     lattice parameter (alat)  =      14.2847  a.u.
     unit-cell volume          =    5360.4169 (a.u.)^3
     number of atoms/cell      =           16
     number of atomic types    =            2
     number of electrons       =       192.00
     number of Kohn-Sham states=          256
     kinetic-energy cutoff     =      30.0000  Ry
     charge density cutoff     =     240.0000  Ry
     scf convergence threshold =      1.0E-06
     mixing beta               =       0.7000
     number of iterations used =            8  plain     mixing
     Exchange-correlation=  SLA  PW   PBX  PBC
                           (   1   4   3   4   0   0   0)

     celldm(1)=  14.284657  celldm(2)=   0.000000  celldm(3)=   0.000000
     celldm(4)=   0.000000  celldm(5)=   0.000000  celldm(6)=   0.000000

     crystal axes: (cart. coord. in units of alat)
               a(1) = (   1.000000   0.000000   0.000000 )
               a(2) = (   0.000000   1.030090   0.000000 )
               a(3) = (   0.000000   0.000000   1.785312 )

     reciprocal axes: (cart. coord. in units 2 pi/alat)
               b(1) = (  1.000000  0.000000  0.000000 )
               b(2) = (  0.000000  0.970789  0.000000 )
               b(3) = (  0.000000  0.000000  0.560126 )

     PseudoPot. # 1 for Cs read from file:
     /lustre07/scratch/pragov/crystal_structure_design/utils/SSSP/Cs_pbe_v1.uspp.F.UPF
     MD5 check sum: 3476d69cb178dfad3ffaa59df4e07ca4
     Pseudo is Ultrasoft + core correction, Zval =  9.0
     Generated by new atomic code, or converted to UPF format
     Using radial grid of  905 points,  6 beta functions with:
                l(1) =   0
                l(2) =   0
                l(3) =   1
                l(4) =   1
                l(5) =   2
                l(6) =   2
     Q(r) pseudized with  6 coefficients,  rinner =    1.500   1.500   1.500
                                                       1.500   1.500

     PseudoPot. # 2 for Sb read from file:
     /lustre07/scratch/pragov/crystal_structure_design/utils/SSSP/sb_pbe_v1.4.uspp.F.UPF
     MD5 check sum: 9bc50dfb53373b713f5709b9110fe27f
     Pseudo is Ultrasoft + core correction, Zval = 15.0
     Generated by new atomic code, or converted to UPF format
     Using radial grid of  891 points,  6 beta functions with:
                l(1) =   0
                l(2) =   0
                l(3) =   1
                l(4) =   1
                l(5) =   2
                l(6) =   2
     Q(r) pseudized with  8 coefficients,  rinner =    1.350   1.350   1.350
                                                       1.350   1.350

     atomic species   valence    mass     pseudopotential
        Cs             9.00   132.90545     Cs( 1.00)
        Sb            15.00   121.76000     Sb( 1.00)

      4 Sym. Ops. (no inversion) found ( 3 have fractional translation)

                                    s                        frac. trans.

      isym =  1     identity

 cryst.   s( 1) = (     1          0          0      )
                  (     0          1          0      )
                  (     0          0          1      )

 cart.    s( 1) = (  1.0000000  0.0000000  0.0000000 )
                  (  0.0000000  1.0000000  0.0000000 )
                  (  0.0000000  0.0000000  1.0000000 )

      isym =  2     180 deg rotation - cart. axis [0,0,1]

 cryst.   s( 2) = (    -1          0          0      )    f =(  0.5000000 )
                  (     0         -1          0      )       ( -0.0000000 )
                  (     0          0          1      )       (  0.5000000 )

 cart.    s( 2) = ( -1.0000000  0.0000000  0.0000000 )    f =(  0.5000000 )
                  (  0.0000000 -1.0000000  0.0000000 )       ( -0.0000000 )
                  (  0.0000000  0.0000000  1.0000000 )       (  0.8926558 )

[...]

      isym =  4     180 deg rotation - cart. axis [1,0,0]

 cryst.   s( 4) = (     1          0          0      )    f =(  0.5000000 )
                  (     0         -1          0      )       (  0.5000000 )
                  (     0          0         -1      )       (  0.0000000 )

 cart.    s( 4) = (  1.0000000  0.0000000  0.0000000 )    f =(  0.5000000 )
                  (  0.0000000 -1.0000000  0.0000000 )       (  0.5150449 )
                  (  0.0000000  0.0000000 -1.0000000 )       (  0.0000000 )

   Cartesian axes

     site n.     atom                  positions (alat units)
         1           Cs  tau(   1) = (   0.5928350   0.9214843   1.0415865  )
         2           Cs  tau(   2) = (   0.8259430   0.3465892   1.2797453  )
         3           Cs  tau(   3) = (   0.4071650   0.4064394   1.6363809  )
         4           Cs  tau(   4) = (   0.3259430   0.1684557   0.5055663  )
         5           Cs  tau(   5) = (   0.0928350   0.6236503   0.7437251  )
         6           Cs  tau(   6) = (   0.9071650   0.1086055   0.1489307  )
         7           Cs  tau(   7) = (   0.1740570   0.8616340   1.3982222  )
         8           Cs  tau(   8) = (   0.6740570   0.6835006   0.3870895  )
         9           Sb  tau(   9) = (   0.5892520   0.4470785   0.8382002  )
        10           Sb  tau(  10) = (   0.0892520   0.0679664   0.9471114  )
        11           Sb  tau(  11) = (   0.6759890   0.8488321   1.5835928  )
        12           Sb  tau(  12) = (   0.4107480   0.9621234   0.0544556  )
        13           Sb  tau(  13) = (   0.3240110   0.3337872   1.0943746  )
        14           Sb  tau(  14) = (   0.8240110   0.1812577   0.6909370  )
        15           Sb  tau(  15) = (   0.9107480   0.5830112   1.7308561  )
        16           Sb  tau(  16) = (   0.1759890   0.6963026   0.2017188  )

   Crystallographic axes

     site n.     atom                  positions (cryst. coord.)
         1           Cs  tau(   1) = (  0.5928350  0.8945670  0.5834200  )
         2           Cs  tau(   2) = (  0.8259430  0.3364650  0.7168190  )
         3           Cs  tau(   3) = (  0.4071650  0.3945670  0.9165800  )
         4           Cs  tau(   4) = (  0.3259430  0.1635350  0.2831810  )
         5           Cs  tau(   5) = (  0.0928350  0.6054330  0.4165800  )
         6           Cs  tau(   6) = (  0.9071650  0.1054330  0.0834200  )
         7           Cs  tau(   7) = (  0.1740570  0.8364650  0.7831810  )
         8           Cs  tau(   8) = (  0.6740570  0.6635350  0.2168190  )
         9           Sb  tau(   9) = (  0.5892520  0.4340190  0.4694980  )
        10           Sb  tau(  10) = (  0.0892520  0.0659810  0.5305020  )
        11           Sb  tau(  11) = (  0.6759890  0.8240370  0.8870120  )
        12           Sb  tau(  12) = (  0.4107480  0.9340190  0.0305020  )
        13           Sb  tau(  13) = (  0.3240110  0.3240370  0.6129880  )
        14           Sb  tau(  14) = (  0.8240110  0.1759630  0.3870120  )
        15           Sb  tau(  15) = (  0.9107480  0.5659810  0.9694980  )
        16           Sb  tau(  16) = (  0.1759890  0.6759630  0.1129880  )

     number of k points=     8
                       cart. coord. in units 2pi/alat
        k(    1) = (   0.0000000   0.0000000   0.0000000), wk =   0.0740741
        k(    2) = (   0.0000000   0.0000000   0.1867088), wk =   0.1481481
        k(    3) = (   0.0000000   0.3235964   0.0000000), wk =   0.1481481
        k(    4) = (   0.0000000   0.3235964   0.1867088), wk =   0.2962963
        k(    5) = (   0.3333333   0.0000000   0.0000000), wk =   0.1481481
        k(    6) = (   0.3333333   0.0000000   0.1867088), wk =   0.2962963
        k(    7) = (   0.3333333   0.3235964   0.0000000), wk =   0.2962963
        k(    8) = (   0.3333333   0.3235964   0.1867088), wk =   0.5925926

                       cryst. coord.
        k(    1) = (   0.0000000   0.0000000   0.0000000), wk =   0.0740741
        k(    2) = (   0.0000000   0.0000000   0.3333333), wk =   0.1481481
        k(    3) = (   0.0000000   0.3333333   0.0000000), wk =   0.1481481
        k(    4) = (   0.0000000   0.3333333   0.3333333), wk =   0.2962963
        k(    5) = (   0.3333333   0.0000000   0.0000000), wk =   0.1481481
        k(    6) = (   0.3333333   0.0000000   0.3333333), wk =   0.2962963
        k(    7) = (   0.3333333   0.3333333   0.0000000), wk =   0.2962963
        k(    8) = (   0.3333333   0.3333333   0.3333333), wk =   0.5925926

     Check: negative core charge=   -0.000003

     Initial potential from superposition of free atoms

     starting charge     183.6848, renormalised to     192.0000
     Starting wfcs are  176 randomized atomic wfcs +   80 random wfcs

     Self-consistent Calculation

     iteration #  1     ecut=    30.00 Ry     beta= 0.70
     Davidson diagonalization with overlap

     ethr =  1.00E-02,  avg # of iterations =  7.8

     total energy              =   -1983.18607554 Ry
     estimated scf accuracy    <       4.14953156 Ry

[...]

     c_bands:  3 eigenvalues not converged
     c_bands:  1 eigenvalues not converged
     c_bands:  3 eigenvalues not converged
     ethr =  4.39E-05,  avg # of iterations = 14.0

[...]

     c_bands:  1 eigenvalues not converged
     c_bands:  2 eigenvalues not converged
     ethr =  5.51E-06,  avg # of iterations = 17.5

[...]

     total energy              =   -1984.44139787 Ry
     estimated scf accuracy    <       0.00000310 Ry

     iteration #  8     ecut=    30.00 Ry     beta= 0.70
     Davidson diagonalization with overlap

     ethr =  1.61E-09,  avg # of iterations =  3.8

     End of self-consistent calculation

          k = 0.0000 0.0000 0.0000 ( 14869 PWs)   bands (ev):

   -22.9479 -22.9463 -22.9169 -22.9128 -22.8985 -22.8967 -22.8959 -22.8932
   -22.8249 -22.8223 -22.8165 -22.8157 -22.7952 -22.7932 -22.7649 -22.7631
   -22.7431 -22.7431 -22.7390 -22.7386 -22.7282 -22.7280 -22.7223 -22.7216
   -22.7096 -22.7075 -22.6949 -22.6934 -22.6887 -22.6872 -22.6796 -22.6790
   -22.6591 -22.6574 -22.6556 -22.6533 -22.6265 -22.6240 -22.6232 -22.6215
   -16.9921 -16.9871 -16.9654 -16.9653 -16.9133 -16.9043 -16.9000 -16.8960
    -4.7597  -4.5630  -4.1564  -4.1401  -4.0993  -4.0733  -4.0448  -3.9808
    -3.9563  -3.9281  -3.9267  -3.8884  -3.8171  -3.8083  -3.7861  -3.7804
    -3.7053  -3.7023  -3.6973  -3.6867  -3.6758  -3.6573  -3.6513  -3.6341
    -3.5638  -3.3753  -2.9284  -2.8669  -2.7915  -2.7771  -0.8716  -0.8208
     2.5072   2.5160   3.2861   3.4147   3.6004   3.6256   3.6905   3.7561
     4.3376   4.4558   4.8326   4.8890   5.0303   5.1514   5.5382   5.5524
     6.1150   6.6501   6.8462   7.0246   7.0894   7.0896   7.2168   7.9212
     8.1010   8.1074   8.3675   8.3706   8.3936   8.4451   8.7130   8.8705
     8.9101   9.0068   9.1513   9.1751   9.3605   9.4187   9.4400   9.5637
     9.8961   9.9430   9.9689  10.0877  10.0963  10.2578  10.3007  10.3017
    10.3881  10.4644  10.4811  10.6158  10.6163  10.6810  10.7562  10.7726
    10.8739  10.9441  10.9973  11.0599  11.0849  11.1126  11.1478  11.4042
    11.4806  11.6333  11.8101  11.8610  11.8897  12.0958  12.1015  12.1206
    12.3334  12.4478  12.4767  12.4831  12.6485  12.7644  12.8006  12.8716
    12.9911  13.0379  13.2443  13.2621  13.3139  13.4041  13.7865  13.8595
    13.9270  13.9321  14.1512  14.2213  14.3244  14.5285  14.5288  14.6407
    14.9061  14.9624  15.1064  15.2013  15.2117  15.2359  15.3073  15.3371
    15.5934  15.5948  15.8182  15.8781  15.8811  15.9819  15.9918  16.1703
    16.2729  16.3050  16.3640  16.4125  16.4278  16.6678  16.8109  16.8943
    16.9182  17.0217  17.0582  17.1554  17.2704  17.5476  17.5761  17.6327
    17.6598  17.7115  17.8957  17.9659  17.9730  18.0034  18.0724  18.1646
    18.2493  18.3527  18.4890  18.5201  18.6946  18.7034  18.7218  18.7814
    18.8438  18.9167  18.9683  19.1207  19.1430  19.2549  19.3667  19.3682
    19.4361  19.5316  19.5451  19.6930  19.7190  19.7956  19.8937  20.0104
    20.1131  20.1352  20.1681  20.1805  20.2687  20.2804  20.3230  20.4472
    20.4523  20.4555  20.6060  20.6168  20.6671  20.6768  20.6985  20.7424

     occupation numbers
     1.0000   1.0000   1.0000   1.0000   1.0000   1.0000   1.0000   1.0000
     1.0000   1.0000   1.0000   1.0000   1.0000   1.0000   1.0000   1.0000
     1.0000   1.0000   1.0000   1.0000   1.0000   1.0000   1.0000   1.0000
     1.0000   1.0000   1.0000   1.0000   1.0000   1.0000   1.0000   1.0000
     1.0000   1.0000   1.0000   1.0000   1.0000   1.0000   1.0000   1.0000
     1.0000   1.0000   1.0000   1.0000   1.0000   1.0000   1.0000   1.0000
     1.0000   1.0000   1.0000   1.0000   1.0000   1.0000   1.0000   1.0000
     1.0000   1.0000   1.0000   1.0000   1.0000   1.0000   1.0000   1.0000
     1.0000   1.0000   1.0000   1.0000   1.0000   1.0000   1.0000   1.0000
     1.0000   1.0000   1.0000   1.0000   1.0000   1.0000   1.0000   1.0000
     1.0000   1.0000   1.0000   1.0000   1.0000   1.0000   1.0000   1.0000
     1.0000   1.0000   1.0000   1.0000   1.0000   1.0000   1.0000   1.0000
     0.0000   0.0000   0.0000   0.0000   0.0000   0.0000   0.0000   0.0000
     0.0000   0.0000   0.0000   0.0000   0.0000   0.0000   0.0000   0.0000
     0.0000   0.0000   0.0000   0.0000   0.0000   0.0000   0.0000   0.0000
     0.0000   0.0000   0.0000   0.0000   0.0000   0.0000   0.0000   0.0000
     0.0000   0.0000   0.0000   0.0000   0.0000   0.0000   0.0000   0.0000
     0.0000   0.0000   0.0000   0.0000   0.0000   0.0000   0.0000   0.0000
     0.0000   0.0000   0.0000   0.0000   0.0000   0.0000   0.0000   0.0000
     0.0000   0.0000   0.0000   0.0000   0.0000   0.0000   0.0000   0.0000
     0.0000   0.0000   0.0000   0.0000   0.0000   0.0000   0.0000   0.0000
     0.0000   0.0000   0.0000   0.0000   0.0000   0.0000   0.0000   0.0000
     0.0000   0.0000   0.0000   0.0000   0.0000   0.0000   0.0000   0.0000
     0.0000   0.0000   0.0000   0.0000   0.0000   0.0000   0.0000   0.0000
     0.0000   0.0000   0.0000   0.0000   0.0000   0.0000   0.0000   0.0000
     0.0000   0.0000   0.0000   0.0000   0.0000   0.0000   0.0000   0.0000
     0.0000   0.0000   0.0000   0.0000   0.0000   0.0000   0.0000   0.0000
     0.0000   0.0000   0.0000   0.0000   0.0000   0.0000   0.0000   0.0000
     0.0000   0.0000   0.0000   0.0000   0.0000   0.0000   0.0000   0.0000
     0.0000   0.0000   0.0000   0.0000   0.0000   0.0000   0.0000   0.0000
     0.0000   0.0000   0.0000   0.0000   0.0000   0.0000   0.0000   0.0000
     0.0000   0.0000   0.0000   0.0000   0.0000   0.0000   0.0000   0.0000

[...]

          k = 0.3333 0.3236 0.1867 ( 14879 PWs)   bands (ev):

   -22.9417 -22.9412 -22.9268 -22.9256 -22.8971 -22.8964 -22.8941 -22.8932
   -22.8185 -22.8181 -22.8145 -22.8140 -22.7899 -22.7889 -22.7656 -22.7654
   -22.7565 -22.7563 -22.7433 -22.7428 -22.7253 -22.7249 -22.7225 -22.7217
   -22.6989 -22.6980 -22.6941 -22.6930 -22.6889 -22.6884 -22.6836 -22.6830
   -22.6583 -22.6580 -22.6558 -22.6555 -22.6248 -22.6241 -22.6236 -22.6230
   -16.9804 -16.9792 -16.9738 -16.9734 -16.9084 -16.9064 -16.9016 -16.9002
    -4.6985  -4.6489  -4.4169  -4.3811  -4.0845  -4.0627  -4.0305  -4.0061
    -3.9589  -3.9463  -3.9042  -3.8820  -3.8036  -3.7702  -3.7505  -3.7374
    -3.7097  -3.6931  -3.6861  -3.6596  -3.6302  -3.6258  -3.6112  -3.6002
    -3.3901  -3.3666  -3.2323  -3.2170  -2.0757  -2.0562  -1.2289  -1.2150
     2.8133   2.8380   3.2075   3.2536   3.5004   3.5549   3.6011   3.6108
     4.5149   4.5427   4.6190   4.7050   5.0052   5.0257   5.1483   5.2850
     6.7165   6.7823   6.9102   6.9819   7.2308   7.3034   7.6001   7.6578
     7.8929   7.9971   8.0442   8.0815   8.3679   8.4750   8.5709   8.6929
     8.7839   8.9024   9.0146   9.0822   9.1428   9.2254   9.3421   9.4990
     9.5955   9.6237   9.6812   9.8181   9.9310  10.0125  10.1130  10.1835
    10.3287  10.3753  10.4539  10.5579  10.6670  10.6989  10.7995  10.8642
    10.9876  11.1295  11.2487  11.3353  11.4117  11.5164  11.5519  11.6449
    11.7658  11.8592  11.9656  12.0426  12.1013  12.1830  12.2031  12.3867
    12.4537  12.6023  12.6839  12.7994  12.9079  13.0734  13.1389  13.2287
    13.3593  13.4244  13.5608  13.6687  13.7666  13.7953  13.8523  13.9444
    14.0677  14.1495  14.2589  14.3683  14.4016  14.4893  14.5610  14.7335
    14.9012  14.9422  15.0628  15.1296  15.2797  15.3743  15.4107  15.5720
    15.6034  15.7212  15.8338  15.8953  15.9352  16.0029  16.1156  16.2365
    16.2885  16.3758  16.4219  16.5485  16.6072  16.7021  16.7623  16.8600
    16.9259  16.9960  17.0509  17.1529  17.2800  17.3123  17.3421  17.4686
    17.5149  17.5929  17.6709  17.7169  17.7603  17.8294  17.8869  18.0014
    18.0514  18.1400  18.2064  18.2658  18.3591  18.4239  18.4583  18.5275
    18.6073  18.6720  18.7157  18.8036  18.8454  18.9428  18.9901  19.0688
    19.1416  19.1968  19.3302  19.3533  19.3869  19.4207  19.5530  19.5961
    19.6420  19.7227  19.7866  19.8690  19.8993  19.9933  20.0318  20.0858
    20.1667  20.2464  20.3381  20.3678  20.4550  20.5122  20.5625  20.6062

     occupation numbers
     1.0000   1.0000   1.0000   1.0000   1.0000   1.0000   1.0000   1.0000
     1.0000   1.0000   1.0000   1.0000   1.0000   1.0000   1.0000   1.0000
     1.0000   1.0000   1.0000   1.0000   1.0000   1.0000   1.0000   1.0000
     1.0000   1.0000   1.0000   1.0000   1.0000   1.0000   1.0000   1.0000
     1.0000   1.0000   1.0000   1.0000   1.0000   1.0000   1.0000   1.0000
     1.0000   1.0000   1.0000   1.0000   1.0000   1.0000   1.0000   1.0000
     1.0000   1.0000   1.0000   1.0000   1.0000   1.0000   1.0000   1.0000
     1.0000   1.0000   1.0000   1.0000   1.0000   1.0000   1.0000   1.0000
     1.0000   1.0000   1.0000   1.0000   1.0000   1.0000   1.0000   1.0000
     1.0000   1.0000   1.0000   1.0000   1.0000   1.0000   1.0000   1.0000
     1.0000   1.0000   1.0000   1.0000   1.0000   1.0000   1.0000   1.0000
     1.0000   1.0000   1.0000   1.0000   1.0000   1.0000   1.0000   1.0000
     0.0000   0.0000   0.0000   0.0000   0.0000   0.0000   0.0000   0.0000
     0.0000   0.0000   0.0000   0.0000   0.0000   0.0000   0.0000   0.0000
     0.0000   0.0000   0.0000   0.0000   0.0000   0.0000   0.0000   0.0000
     0.0000   0.0000   0.0000   0.0000   0.0000   0.0000   0.0000   0.0000
     0.0000   0.0000   0.0000   0.0000   0.0000   0.0000   0.0000   0.0000
     0.0000   0.0000   0.0000   0.0000   0.0000   0.0000   0.0000   0.0000
     0.0000   0.0000   0.0000   0.0000   0.0000   0.0000   0.0000   0.0000
     0.0000   0.0000   0.0000   0.0000   0.0000   0.0000   0.0000   0.0000
     0.0000   0.0000   0.0000   0.0000   0.0000   0.0000   0.0000   0.0000
     0.0000   0.0000   0.0000   0.0000   0.0000   0.0000   0.0000   0.0000
     0.0000   0.0000   0.0000   0.0000   0.0000   0.0000   0.0000   0.0000
     0.0000   0.0000   0.0000   0.0000   0.0000   0.0000   0.0000   0.0000
     0.0000   0.0000   0.0000   0.0000   0.0000   0.0000   0.0000   0.0000
     0.0000   0.0000   0.0000   0.0000   0.0000   0.0000   0.0000   0.0000
     0.0000   0.0000   0.0000   0.0000   0.0000   0.0000   0.0000   0.0000
     0.0000   0.0000   0.0000   0.0000   0.0000   0.0000   0.0000   0.0000
     0.0000   0.0000   0.0000   0.0000   0.0000   0.0000   0.0000   0.0000
     0.0000   0.0000   0.0000   0.0000   0.0000   0.0000   0.0000   0.0000
     0.0000   0.0000   0.0000   0.0000   0.0000   0.0000   0.0000   0.0000
     0.0000   0.0000   0.0000   0.0000   0.0000   0.0000   0.0000   0.0000

     highest occupied, lowest unoccupied level (ev):     5.5524    6.1150

!    total energy              =   -1984.44139907 Ry
     estimated scf accuracy    <       0.00000025 Ry

     The total energy is the sum of the following terms:
     one-electron contribution =   -1130.09670031 Ry
     hartree contribution      =     638.47782260 Ry
     xc contribution           =    -594.17652250 Ry
     ewald contribution        =    -898.64599887 Ry

     convergence has been achieved in   8 iterations

     Writing all to output data dir bands_nm/myprefix.save/

     General routines

     Parallel routines

   This run was terminated on:  20: 1:49  15Jul2023

   JOB DONE.