     Program PWSCF v.7.1 starts on 14Jul2023 at 18:15:37

     Reading input from espresso_15477.pwi
Warning: card &CELL ignored
Warning: card / ignored

     Current dimensions of program PWSCF are:
     Max number of different atomic species (ntypx) = 10
     Max number of k-points (npk) =  40000
     Max angular momentum in pseudopotentials (lmaxx) =  4
     file La.paw.z_11.atompaw.wentzcovitch.v1.2.upf: wavefunction(s)  6S 0P 5D 0D 4F 0F renormalized
     file Mg.pbe-n-kjpaw_psl.0.3.0.UPF: wavefunction(s)  3S renormalized
     file O.pbe-n-kjpaw_psl.0.1.UPF: wavefunction(s)  2P renormalized
     Message from routine setup:
     using ibrav=0 with symmetry is DISCOURAGED, use correct ibrav instead

     K-points division:     npool     =       2
     R & G space division:  proc/nbgrp/npool/nimage =       4
     Subspace diagonalization in iterative solution of the eigenvalue problem:
     a serial algorithm will be used

     Using Slab Decomposition

     bravais-lattice index     =            0
     lattice parameter (alat)  =      10.5822  a.u.
     unit-cell volume          =    1689.2590 (a.u.)^3
     number of atoms/cell      =           20
     number of atomic types    =            5
     number of electrons       =       128.00
     number of Kohn-Sham states=           64
     kinetic-energy cutoff     =      30.0000  Ry
     charge density cutoff     =     240.0000  Ry
     scf convergence threshold =      1.0E-06
     mixing beta               =       0.7000
     number of iterations used =            8  plain     mixing
     Exchange-correlation= SLA  PW   PBX  PBC
                           (   1   4   3   4   0   0   0)

     celldm(1)=  10.582196  celldm(2)=   0.000000  celldm(3)=   0.000000
     celldm(4)=   0.000000  celldm(5)=   0.000000  celldm(6)=   0.000000

     crystal axes: (cart. coord. in units of alat)
               a(1) = (   1.000000   0.000000   0.000000 )
               a(2) = (   0.000000   1.004606   0.000000 )
               a(3) = (   0.000000   0.006529   1.418969 )

     reciprocal axes: (cart. coord. in units 2 pi/alat)
               b(1) = (  1.000000  0.000000  0.000000 )
               b(2) = (  0.000000  0.995415 -0.004580 )
               b(3) = (  0.000000  0.000000  0.704737 )

     PseudoPot. # 1 for Na read from file:
     /lustre07/scratch/pragov/crystal_structure_design/utils/SSSP/na_pbe_v1.5.uspp.F.UPF
     MD5 check sum: 44600605ef58000f06b90626533354dc
     Pseudo is Ultrasoft, Zval =  9.0
     Generated by new atomic code, or converted to UPF format
     Using radial grid of  819 points,  5 beta functions with:
                l(1) =   0
                l(2) =   0
                l(3) =   1
                l(4) =   1
                l(5) =   2
     Q(r) pseudized with  8 coefficients,  rinner =    1.250   1.250   1.250
                                                       1.250   1.250

     PseudoPot. # 2 for La read from file:
     /lustre07/scratch/pragov/crystal_structure_design/utils/SSSP/La.paw.z_11.atompaw.wentzcovitch.v1.2.upf
     MD5 check sum: 754494e15ae71f30e5b5f678af019e01
     Pseudo is Projector augmented-wave + core cor, Zval = 11.0
     Generated using ATOMPAW code
     Shape of augmentation charge: BESSEL
     Using radial grid of 1101 points,  8 beta functions with:
                l(1) =   0
                l(2) =   0
                l(3) =   1
                l(4) =   1
                l(5) =   2
                l(6) =   2
                l(7) =   3
                l(8) =   3
     Q(r) pseudized with 0 coefficients

     PseudoPot. # 3 for Mg read from file:
     /lustre07/scratch/pragov/crystal_structure_design/utils/SSSP/Mg.pbe-n-kjpaw_psl.0.3.0.UPF
     MD5 check sum: 24ecedc7f3e3cbe212e682f4413594e4
     Pseudo is Projector augmented-wave + core cor, Zval =  2.0
     Generated using "atomic" code by A. Dal Corso  v.5.0.99 svn rev. 10869
     Shape of augmentation charge: PSQ
     Using radial grid of 1129 points,  4 beta functions with:
                l(1) =   0
                l(2) =   0
                l(3) =   1
                l(4) =   1
     Q(r) pseudized with 0 coefficients

     PseudoPot. # 4 for Te read from file:
     /lustre07/scratch/pragov/crystal_structure_design/utils/SSSP/Te_pbe_v1.uspp.F.UPF
     MD5 check sum: c319670d6894cc26e93307826a071b75
     Pseudo is Ultrasoft + core correction, Zval =  6.0
     Generated by new atomic code, or converted to UPF format
     Using radial grid of  891 points,  5 beta functions with:
                l(1) =   0
                l(2) =   0
                l(3) =   1
                l(4) =   1
                l(5) =   2
     Q(r) pseudized with  6 coefficients,  rinner =    1.800   1.800   1.800
                                                       1.800   1.800

     PseudoPot. # 5 for O  read from file:
     /lustre07/scratch/pragov/crystal_structure_design/utils/SSSP/O.pbe-n-kjpaw_psl.0.1.UPF
     MD5 check sum: 0234752ac141de4415c5fc33072bef88
     Pseudo is Projector augmented-wave + core cor, Zval =  6.0
     Generated using "atomic" code by A. Dal Corso  v.5.0.99 svn rev. 10869
     Shape of augmentation charge: BESSEL
     Using radial grid of 1095 points,  4 beta functions with:
                l(1) =   0
                l(2) =   0
                l(3) =   1
                l(4) =   1
     Q(r) pseudized with 0 coefficients

     atomic species   valence    mass     pseudopotential
        Na             9.00    22.98977     Na( 1.00)
        La            11.00   138.90547     La( 1.00)
        Mg             2.00    24.30500     Mg( 1.00)
        Te             6.00   127.60000     Te( 1.00)
        O              6.00    15.99900     O ( 1.00)

      4 Sym. Ops., with inversion, found ( 2 have fractional translation)

                                    s                        frac. trans.

      isym =  1     identity

 cryst.   s( 1) = (     1          0          0      )
                  (     0          1          0      )
                  (     0          0          1      )

 cart.    s( 1) = (  1.0000000  0.0000000  0.0000000 )
                  (  0.0000000  1.0000000  0.0000000 )
                  (  0.0000000  0.0000000  1.0000000 )

      isym =  2     180 deg rotation - cart. axis [1,0,0]

 cryst.   s( 2) = (     1          0          0      )    f =( -0.5000000 )
                  (     0         -1          0      )       ( -0.0000000 )
                  (     0          0         -1      )       ( -0.0000000 )

 cart.    s( 2) = (  1.0000000  0.0000000  0.0000000 )    f =( -0.5000000 )
                  (  0.0000000 -1.0000000  0.0000000 )       ( -0.0000000 )
                  (  0.0000000  0.0000000 -1.0000000 )       ( -0.0000000 )

      isym =  3     inversion

 cryst.   s( 3) = (    -1          0          0      )
                  (     0         -1          0      )
                  (     0          0         -1      )

 cart.    s( 3) = ( -1.0000000  0.0000000  0.0000000 )
                  (  0.0000000 -1.0000000  0.0000000 )
                  (  0.0000000  0.0000000 -1.0000000 )

      isym =  4     inv. 180 deg rotation - cart. axis [1,0,0]

 cryst.   s( 4) = (    -1          0          0      )    f =(  0.5000000 )
                  (     0          1          0      )       (  0.0000000 )
                  (     0          0          1      )       (  0.0000000 )

 cart.    s( 4) = ( -1.0000000  0.0000000  0.0000000 )    f =(  0.5000000 )
                  (  0.0000000  1.0000000  0.0000000 )       (  0.0000000 )
                  (  0.0000000  0.0000000  1.0000000 )       (  0.0000000 )

   Cartesian axes

     site n.     atom                  positions (alat units)
         1           Na  tau(   1) = (   0.2500000   0.7721837   0.7083070  )
         2           Na  tau(   2) = (   0.7500000   0.2389516   0.7106625  )
         3           La  tau(   3) = (   0.2500000   0.7580535   0.0025953  )
         4           La  tau(   4) = (   0.7500000   0.2530818   1.4163742  )
         5           Mg  tau(   5) = (   0.7500000   0.7563524   1.0378357  )
         6           Mg  tau(   6) = (   0.2500000   0.2547829   0.3811338  )
         7           Te  tau(   7) = (   0.2500000   0.2616391   1.0559261  )
         8           Te  tau(   8) = (   0.7500000   0.7494962   0.3630433  )
         9           O   tau(   9) = (   0.2500000   0.1949673   1.4098029  )
        10           O   tau(  10) = (   0.7500000   0.8161680   0.0091665  )
        11           O   tau(  11) = (   0.2500000   0.3400957   0.7290750  )
        12           O   tau(  12) = (   0.7500000   0.6710396   0.6898944  )
        13           O   tau(  13) = (   0.4960760   0.0216301   1.0392206  )
        14           O   tau(  14) = (   0.9960760   0.9895051   0.3797489  )
        15           O   tau(  15) = (   0.5039240   0.9895051   0.3797489  )
        16           O   tau(  16) = (   0.0039240   0.0216301   1.0392206  )
        17           O   tau(  17) = (   0.5087910   0.5076697   0.2792518  )
        18           O   tau(  18) = (   0.0087910   0.5034656   1.1397177  )
        19           O   tau(  19) = (   0.4912090   0.5034656   1.1397177  )
        20           O   tau(  20) = (   0.9912090   0.5076697   0.2792518  )

   Crystallographic axes

     site n.     atom                  positions (cryst. coord.)
         1           Na  tau(   1) = (  0.2500000  0.7653990  0.4991700  )
         2           Na  tau(   2) = (  0.7500000  0.2346010  0.5008300  )
         3           La  tau(   3) = (  0.2500000  0.7545660  0.0018290  )
         4           La  tau(   4) = (  0.7500000  0.2454340  0.9981710  )
         5           Mg  tau(   5) = (  0.7500000  0.7481310  0.7314010  )
         6           Mg  tau(   6) = (  0.2500000  0.2518690  0.2685990  )
         7           Te  tau(   7) = (  0.2500000  0.2556030  0.7441500  )
         8           Te  tau(   8) = (  0.7500000  0.7443970  0.2558500  )
         9           O   tau(   9) = (  0.2500000  0.1876160  0.9935400  )
        10           O   tau(  10) = (  0.7500000  0.8123840  0.0064600  )
        11           O   tau(  11) = (  0.2500000  0.3351970  0.5138060  )
        12           O   tau(  12) = (  0.7500000  0.6648030  0.4861940  )
        13           O   tau(  13) = (  0.4960760  0.0167710  0.7323770  )
        14           O   tau(  14) = (  0.9960760  0.9832290  0.2676230  )
        15           O   tau(  15) = (  0.5039240  0.9832290  0.2676230  )
        16           O   tau(  16) = (  0.0039240  0.0167710  0.7323770  )
        17           O   tau(  17) = (  0.5087910  0.5040630  0.1967990  )
        18           O   tau(  18) = (  0.0087910  0.4959370  0.8032010  )
        19           O   tau(  19) = (  0.4912090  0.4959370  0.8032010  )
        20           O   tau(  20) = (  0.9912090  0.5040630  0.1967990  )

     number of k points=    10
                       cart. coord. in units 2pi/alat
        k(    1) = (   0.0000000   0.0000000   0.0000000), wk =   0.0740741
        k(    2) = (   0.0000000   0.0000000   0.2349123), wk =   0.1481481
        k(    3) = (   0.0000000   0.3318050  -0.0015268), wk =   0.1481481
        k(    4) = (   0.0000000   0.3318050   0.2333855), wk =   0.1481481
        k(    5) = (   0.0000000   0.3318050  -0.2364390), wk =   0.1481481
        k(    6) = (   0.3333333   0.0000000   0.0000000), wk =   0.1481481
        k(    7) = (   0.3333333   0.0000000   0.2349123), wk =   0.2962963
        k(    8) = (   0.3333333   0.3318050  -0.0015268), wk =   0.2962963
        k(    9) = (   0.3333333   0.3318050   0.2333855), wk =   0.2962963
        k(   10) = (   0.3333333   0.3318050  -0.2364390), wk =   0.2962963

                       cryst. coord.
        k(    1) = (   0.0000000   0.0000000   0.0000000), wk =   0.0740741
        k(    2) = (   0.0000000   0.0000000   0.3333333), wk =   0.1481481
        k(    3) = (   0.0000000   0.3333333   0.0000000), wk =   0.1481481
        k(    4) = (   0.0000000   0.3333333   0.3333333), wk =   0.1481481
        k(    5) = (   0.0000000   0.3333333  -0.3333333), wk =   0.1481481
        k(    6) = (   0.3333333   0.0000000   0.0000000), wk =   0.1481481
        k(    7) = (   0.3333333   0.0000000   0.3333333), wk =   0.2962963
        k(    8) = (   0.3333333   0.3333333   0.0000000), wk =   0.2962963
        k(    9) = (   0.3333333   0.3333333   0.3333333), wk =   0.2962963
        k(   10) = (   0.3333333   0.3333333  -0.3333333), wk =   0.2962963

     Check: negative core charge=   -0.000008

     Initial potential from superposition of free atoms

     starting charge     127.9681, renormalised to     128.0000

     negative rho (up, down):  1.427E-04 0.000E+00
     Starting wfcs are  138 randomized atomic wfcs
     Checking if some PAW data can be deallocated...

     Self-consistent Calculation

     iteration #  1     ecut=    30.00 Ry     beta= 0.70
     Davidson diagonalization with overlap

     ethr =  1.00E-02,  avg # of iterations =  1.8

     negative rho (up, down):  6.481E-04 0.000E+00

     total energy              =   -1725.39572150 Ry
     estimated scf accuracy    <       4.86753442 Ry

[...]

     total energy              =   -1727.88817265 Ry
     estimated scf accuracy    <       0.00000165 Ry

     iteration # 14     ecut=    30.00 Ry     beta= 0.70
     Davidson diagonalization with overlap

     ethr =  7.98E-10,  avg # of iterations =  2.0

     negative rho (up, down):  4.417E-04 0.000E+00

     End of self-consistent calculation

          k = 0.0000 0.0000 0.0000 (  4695 PWs)   bands (ev):

   -42.2902 -42.2894 -22.8869 -22.7771 -14.2319 -14.2200 -14.2042 -14.1933
   -14.1917 -14.1800 -12.0501 -12.0271 -10.3658 -10.2614  -9.9938  -9.8738
    -9.8287  -9.8271  -9.4424  -9.0509  -9.0159  -8.9314  -6.6654  -6.4779
    -6.4112  -6.3188  -6.0600  -6.0566  -2.5875  -1.7096   1.9576   1.9614
     2.0418   2.0805   2.0999   2.4868   3.6488   3.7626   4.6103   4.6179
     4.6927   4.9149   4.9703   5.2288   5.3406   5.5041   5.5883   5.5934
     5.8670   5.9404   6.0404   6.1197   6.1210   6.1287   6.2800   6.3543
     6.5673   6.6840   6.7021   6.7996   6.8438   7.1803   7.2511   7.2667

     occupation numbers
     1.0000   1.0000   1.0000   1.0000   1.0000   1.0000   1.0000   1.0000
     1.0000   1.0000   1.0000   1.0000   1.0000   1.0000   1.0000   1.0000
     1.0000   1.0000   1.0000   1.0000   1.0000   1.0000   1.0000   1.0000
     1.0000   1.0000   1.0000   1.0000   1.0000   1.0000   1.0000   1.0000
     1.0000   1.0000   1.0000   1.0000   1.0000   1.0000   1.0000   1.0000
     1.0000   1.0000   1.0000   1.0000   1.0000   1.0000   1.0000   1.0000
     1.0000   1.0000   1.0000   1.0000   1.0000   1.0000   1.0000   1.0000
     1.0000   1.0000   1.0000   1.0000   1.0000   1.0000   1.0000   1.0000

[...]

          k = 0.3333 0.3318-0.2364 (  4671 PWs)   bands (ev):

   -42.2898 -42.2897 -22.8427 -22.8151 -14.2266 -14.2215 -14.2090 -14.2063
   -14.1857 -14.1813 -12.0885 -12.0390 -10.4420 -10.1470 -10.0871  -9.9944
    -9.9134  -9.8395  -9.2718  -9.2319  -9.0268  -8.9783  -6.4513  -6.3828
    -6.3492  -6.1884  -6.0393  -5.9249  -1.8381  -1.7018   1.6776   1.7382
     2.0573   2.2164   2.3979   2.4473   3.9499   4.0631   4.3140   4.3780
     4.4455   4.6104   4.6738   4.9033   5.0440   5.0861   5.4107   5.4980
     5.6486   5.7727   5.8448   5.9944   6.0225   6.1439   6.2221   6.3809
     6.4485   6.5161   6.5692   6.6543   6.7299   6.9117   6.9833   7.0725

     occupation numbers
     1.0000   1.0000   1.0000   1.0000   1.0000   1.0000   1.0000   1.0000
     1.0000   1.0000   1.0000   1.0000   1.0000   1.0000   1.0000   1.0000
     1.0000   1.0000   1.0000   1.0000   1.0000   1.0000   1.0000   1.0000
     1.0000   1.0000   1.0000   1.0000   1.0000   1.0000   1.0000   1.0000
     1.0000   1.0000   1.0000   1.0000   1.0000   1.0000   1.0000   1.0000
     1.0000   1.0000   1.0000   1.0000   1.0000   1.0000   1.0000   1.0000
     1.0000   1.0000   1.0000   1.0000   1.0000   1.0000   1.0000   1.0000
     1.0000   1.0000   1.0000   1.0000   1.0000   1.0000   1.0000   1.0000

     highest occupied level (ev):     7.2836

!    total energy              =   -1727.88817230 Ry
     estimated scf accuracy    <       0.00000049 Ry

     The total energy is the sum of the following terms:
     one-electron contribution =    -228.69570648 Ry
     hartree contribution      =     196.86867690 Ry
     xc contribution           =    -177.91420466 Ry
     ewald contribution        =    -554.09931929 Ry
     one-center paw contrib.   =    -964.04761877 Ry
      -> PAW hartree energy AE =      34.29265388 Ry
      -> PAW hartree energy PS =     -34.29534238 Ry
      -> PAW xc energy AE      =    -405.30182354 Ry
      -> PAW xc energy PS      =      11.69509583 Ry
      -> total E_H with PAW    =     196.86598841 Ry
      -> total E_XC with PAW   =    -571.52093238 Ry

     convergence has been achieved in  14 iterations

     Writing all to output data dir bands_nm/myprefix.save/

     General routines

     Parallel routines

     PAW routines

   This run was terminated on:  18:17: 5  14Jul2023

   JOB DONE.