     Program PWSCF v.7.1 starts on 15Jul2023 at 22:51:38

     Reading input from espresso_20348.pwi
Warning: card &CELL ignored
Warning: card / ignored

     Current dimensions of program PWSCF are:
     Max number of different atomic species (ntypx) = 10
     Max number of k-points (npk) =  40000
     Max angular momentum in pseudopotentials (lmaxx) =  4
     file Cd.pbe-dn-rrkjus_psl.0.3.1.UPF: wavefunction(s)  4D renormalized
     file O.pbe-n-kjpaw_psl.0.1.UPF: wavefunction(s)  2P renormalized
     Message from routine setup:
     using ibrav=0 with symmetry is DISCOURAGED, use correct ibrav instead

     K-points division:     npool     =       2
     R & G space division:  proc/nbgrp/npool/nimage =       4
     Subspace diagonalization in iterative solution of the eigenvalue problem:
     one sub-group per band group will be used

     Using Slab Decomposition

     bravais-lattice index     =            0
     lattice parameter (alat)  =      10.4956  a.u.
     unit-cell volume          =    1710.0700 (a.u.)^3
     number of atoms/cell      =           20
     number of atomic types    =            3
     number of electrons       =       176.00
     number of Kohn-Sham states=          256
     kinetic-energy cutoff     =      30.0000  Ry
     charge density cutoff     =     240.0000  Ry
     scf convergence threshold =      1.0E-06
     mixing beta               =       0.7000
     number of iterations used =            8  plain     mixing
     Exchange-correlation= SLA  PW   PBX  PBC
                           (   1   4   3   4   0   0   0)

     celldm(1)=  10.495603  celldm(2)=   0.000000  celldm(3)=   0.000000
     celldm(4)=   0.000000  celldm(5)=   0.000000  celldm(6)=   0.000000

     crystal axes: (cart. coord. in units of alat)
               a(1) = (   1.000000   0.000000   0.000000 )
               a(2) = (   0.000000   1.022297   0.000000 )
               a(3) = (   0.000000   0.000000   1.446820 )

     reciprocal axes: (cart. coord. in units 2 pi/alat)
               b(1) = (  1.000000  0.000000  0.000000 )
               b(2) = (  0.000000  0.978189  0.000000 )
               b(3) = (  0.000000  0.000000  0.691171 )

     PseudoPot. # 1 for Cd read from file:
     /lustre07/scratch/pragov/crystal_structure_design/utils/SSSP/Cd.pbe-dn-rrkjus_psl.0.3.1.UPF
     MD5 check sum: 558e9f355611b531a870a69ef6ace9e2
     Pseudo is Ultrasoft + core correction, Zval = 12.0
     Generated using "atomic" code by A. Dal Corso  v.5.0.99 svn rev. 10869
     Using radial grid of 1239 points,  6 beta functions with:
                l(1) =   0
                l(2) =   0
                l(3) =   1
                l(4) =   1
                l(5) =   2
                l(6) =   2
     Q(r) pseudized with 0 coefficients

     PseudoPot. # 2 for Sn read from file:
     /lustre07/scratch/pragov/crystal_structure_design/utils/SSSP/Sn_pbe_v1.uspp.F.UPF
     MD5 check sum: 4cf58ce39ec5d5d420df3dd08604eb00
     Pseudo is Ultrasoft + core correction, Zval = 14.0
     Generated by new atomic code, or converted to UPF format
     Using radial grid of  891 points,  6 beta functions with:
                l(1) =   0
                l(2) =   0
                l(3) =   1
                l(4) =   1
                l(5) =   2
                l(6) =   2
     Q(r) pseudized with  6 coefficients,  rinner =    1.200   1.200   1.200
                                                       1.200   1.200

     PseudoPot. # 3 for O  read from file:
     /lustre07/scratch/pragov/crystal_structure_design/utils/SSSP/O.pbe-n-kjpaw_psl.0.1.UPF
     MD5 check sum: 0234752ac141de4415c5fc33072bef88
     Pseudo is Projector augmented-wave + core cor, Zval =  6.0
     Generated using "atomic" code by A. Dal Corso  v.5.0.99 svn rev. 10869
     Shape of augmentation charge: BESSEL
     Using radial grid of 1095 points,  4 beta functions with:
                l(1) =   0
                l(2) =   0
                l(3) =   1
                l(4) =   1
     Q(r) pseudized with 0 coefficients

     atomic species   valence    mass     pseudopotential
        Cd            12.00   112.41400     Cd( 1.00)
        Sn            14.00   118.71000     Sn( 1.00)
        O              6.00    15.99900     O ( 1.00)

      8 Sym. Ops., with inversion, found ( 6 have fractional translation)

                                    s                        frac. trans.

      isym =  1     identity

 cryst.   s( 1) = (     1          0          0      )
                  (     0          1          0      )
                  (     0          0          1      )

 cart.    s( 1) = (  1.0000000  0.0000000  0.0000000 )
                  (  0.0000000  1.0000000  0.0000000 )
                  (  0.0000000  0.0000000  1.0000000 )

      isym =  2     180 deg rotation - cart. axis [0,0,1]

 cryst.   s( 2) = (    -1          0          0      )    f =(  0.0000000 )
                  (     0         -1          0      )       (  0.0000000 )
                  (     0          0          1      )       (  0.5000000 )

 cart.    s( 2) = ( -1.0000000  0.0000000  0.0000000 )    f =(  0.0000000 )
                  (  0.0000000 -1.0000000  0.0000000 )       (  0.0000000 )
                  (  0.0000000  0.0000000  1.0000000 )       (  0.7234100 )

[...]

      isym =  4     180 deg rotation - cart. axis [1,0,0]

[...]

      isym =  5     inversion

 cryst.   s( 5) = (    -1          0          0      )
                  (     0         -1          0      )
                  (     0          0         -1      )

 cart.    s( 5) = ( -1.0000000  0.0000000  0.0000000 )
                  (  0.0000000 -1.0000000  0.0000000 )
                  (  0.0000000  0.0000000 -1.0000000 )

      isym =  6     inv. 180 deg rotation - cart. axis [0,0,1]

[...]

      isym =  8     inv. 180 deg rotation - cart. axis [1,0,0]

 cryst.   s( 8) = (    -1          0          0      )    f =(  0.5000000 )
                  (     0          1          0      )       ( -0.5000000 )
                  (     0          0          1      )       (  0.0000000 )

 cart.    s( 8) = ( -1.0000000  0.0000000  0.0000000 )    f =(  0.5000000 )
                  (  0.0000000  1.0000000  0.0000000 )       ( -0.5111486 )
                  (  0.0000000  0.0000000  1.0000000 )       (  0.0000000 )

   Cartesian axes

     site n.     atom                  positions (alat units)
         1           Cd  tau(   1) = (   0.0121100   0.9738985   1.0851151  )
         2           Cd  tau(   2) = (   0.4878900   0.4627500   1.0851151  )
         3           Cd  tau(   3) = (   0.5121100   0.5595472   0.3617050  )
         4           Cd  tau(   4) = (   0.9878900   0.0483986   0.3617050  )
         5           Sn  tau(   5) = (   0.0000000   0.5111486   0.0000000  )
         6           Sn  tau(   6) = (   0.0000000   0.5111486   0.7234100  )
         7           Sn  tau(   7) = (   0.5000000   0.0000000   0.0000000  )
         8           Sn  tau(   8) = (   0.5000000   0.0000000   0.7234100  )
         9           O   tau(   9) = (   0.1135450   0.4592711   0.3617050  )
        10           O   tau(  10) = (   0.1941950   0.2016665   0.8119873  )
        11           O   tau(  11) = (   0.1941950   0.2016665   1.3582429  )
        12           O   tau(  12) = (   0.3058050   0.7128151   0.8119873  )
        13           O   tau(  13) = (   0.3058050   0.7128151   1.3582429  )
        14           O   tau(  14) = (   0.3864550   0.9704196   0.3617050  )
        15           O   tau(  15) = (   0.6135450   0.0518775   1.0851151  )
        16           O   tau(  16) = (   0.6941950   0.3094821   0.0885772  )
        17           O   tau(  17) = (   0.6941950   0.3094821   0.6348328  )
        18           O   tau(  18) = (   0.8058050   0.8206306   0.0885772  )
        19           O   tau(  19) = (   0.8058050   0.8206306   0.6348328  )
        20           O   tau(  20) = (   0.8864550   0.5630261   1.0851151  )

   Crystallographic axes

     site n.     atom                  positions (cryst. coord.)
         1           Cd  tau(   1) = (  0.0121100  0.9526570  0.7500000  )
         2           Cd  tau(   2) = (  0.4878900  0.4526570  0.7500000  )
         3           Cd  tau(   3) = (  0.5121100  0.5473430  0.2500000  )
         4           Cd  tau(   4) = (  0.9878900  0.0473430  0.2500000  )
         5           Sn  tau(   5) = (  0.0000000  0.5000000  0.0000000  )
         6           Sn  tau(   6) = (  0.0000000  0.5000000  0.5000000  )
         7           Sn  tau(   7) = (  0.5000000  0.0000000  0.0000000  )
         8           Sn  tau(   8) = (  0.5000000  0.0000000  0.5000000  )
         9           O   tau(   9) = (  0.1135450  0.4492540  0.2500000  )
        10           O   tau(  10) = (  0.1941950  0.1972680  0.5612220  )
        11           O   tau(  11) = (  0.1941950  0.1972680  0.9387780  )
        12           O   tau(  12) = (  0.3058050  0.6972680  0.5612220  )
        13           O   tau(  13) = (  0.3058050  0.6972680  0.9387780  )
        14           O   tau(  14) = (  0.3864550  0.9492540  0.2500000  )
        15           O   tau(  15) = (  0.6135450  0.0507460  0.7500000  )
        16           O   tau(  16) = (  0.6941950  0.3027320  0.0612220  )
        17           O   tau(  17) = (  0.6941950  0.3027320  0.4387780  )
        18           O   tau(  18) = (  0.8058050  0.8027320  0.0612220  )
        19           O   tau(  19) = (  0.8058050  0.8027320  0.4387780  )
        20           O   tau(  20) = (  0.8864550  0.5507460  0.7500000  )

     number of k points=     8
                       cart. coord. in units 2pi/alat
        k(    1) = (   0.0000000   0.0000000   0.0000000), wk =   0.0740741
        k(    2) = (   0.0000000   0.0000000   0.2303903), wk =   0.1481481
        k(    3) = (   0.0000000   0.3260631   0.0000000), wk =   0.1481481
        k(    4) = (   0.0000000   0.3260631   0.2303903), wk =   0.2962963
        k(    5) = (   0.3333333   0.0000000   0.0000000), wk =   0.1481481
        k(    6) = (   0.3333333   0.0000000   0.2303903), wk =   0.2962963
        k(    7) = (   0.3333333   0.3260631   0.0000000), wk =   0.2962963
        k(    8) = (   0.3333333   0.3260631   0.2303903), wk =   0.5925926

                       cryst. coord.
        k(    1) = (   0.0000000   0.0000000   0.0000000), wk =   0.0740741
        k(    2) = (   0.0000000   0.0000000   0.3333333), wk =   0.1481481
        k(    3) = (   0.0000000   0.3333333   0.0000000), wk =   0.1481481
        k(    4) = (   0.0000000   0.3333333   0.3333333), wk =   0.2962963
        k(    5) = (   0.3333333   0.0000000   0.0000000), wk =   0.1481481
        k(    6) = (   0.3333333   0.0000000   0.3333333), wk =   0.2962963
        k(    7) = (   0.3333333   0.3333333   0.0000000), wk =   0.2962963
        k(    8) = (   0.3333333   0.3333333   0.3333333), wk =   0.5925926

     Check: negative core charge=   -0.000008

     Initial potential from superposition of free atoms

     starting charge     171.9803, renormalised to     176.0000
     Starting wfcs are  120 randomized atomic wfcs +  136 random wfcs
     Checking if some PAW data can be deallocated...

     Self-consistent Calculation

     iteration #  1     ecut=    30.00 Ry     beta= 0.70
     Davidson diagonalization with overlap

     ethr =  1.00E-02,  avg # of iterations =  7.4

     total energy              =   -1639.61768140 Ry
     estimated scf accuracy    <       3.63533306 Ry

[...]

     total energy              =   -1641.33496786 Ry
     estimated scf accuracy    <       0.00000425 Ry

     iteration #  8     ecut=    30.00 Ry     beta= 0.70
     Davidson diagonalization with overlap

     ethr =  2.41E-09,  avg # of iterations =  2.0

     End of self-consistent calculation

          k = 0.0000 0.0000 0.0000 (  4755 PWs)   bands (ev):

   -11.5752 -11.5587 -11.5175 -11.3602 -11.2557 -11.0006 -10.9981 -10.9910
   -10.8548 -10.8541 -10.8437 -10.8434 -10.8362 -10.8337 -10.8315 -10.8309
   -10.8182 -10.8077 -10.8008 -10.7994  -9.0688  -8.0532  -7.9439  -7.8104
    -7.7922  -7.6979  -7.6121  -7.6055  -7.2586  -6.3916  -6.2861  -6.1508
     0.8803   1.9374   2.5263   2.6225   2.6976   2.7458   2.8770   2.8997
     2.9021   3.0037   3.0628   3.0774   3.1708   3.1750   3.1848   3.2077
     3.2364   3.2506   3.2543   3.3055   3.3301   3.5266   4.4456   4.4686
     4.5088   4.7851   4.9272   5.1276   5.3721   5.4138   5.5411   5.6654
     6.0448   6.1140   6.1330   6.3177   6.8031   7.0521   7.6645   7.6979
     7.9326   7.9987   8.0328   8.1675   8.1915   8.2296   8.3680   8.4328
     8.4343   8.4696   8.6022   8.6352   8.7004   8.7122   8.7938   9.0408
     9.6080  13.2709  13.7765  14.0065  14.0142  14.9271  15.1876  15.9582
    16.2386  16.6184  16.6724  16.7335  16.7957  17.1179  18.3766  18.4629
    18.8005  18.8711  19.0851  19.3219  19.5727  19.6818  19.8046  19.9114
    20.2277  20.2408  21.1494  21.4797  21.5144  21.6206  22.0526  22.1444
    22.2233  22.2976  22.3139  23.0116  23.5245  24.3904  24.7311  25.2567
    25.3832  25.4222  25.6535  26.3040  26.3747  26.5241  26.5492  26.7411
    26.8377  26.9435  27.6170  28.1656  28.8390  28.9535  28.9890  29.2765
    29.3551  29.3843  29.7188  29.7205  29.7233  29.7294  29.8119  30.2581
    30.3081  30.3772  30.3853  30.7238  30.8998  30.9907  31.2254  31.4468
    31.7801  31.8072  31.9310  32.0557  33.0642  33.1028  33.2838  33.3355
    33.4022  33.7375  33.8216  34.3927  34.5889  34.6873  34.7026  35.1486
    35.2807  35.3145  35.3520  35.5453  35.7224  35.7414  36.5824  36.6512
    36.7081  36.7641  36.8284  36.8700  37.2231  37.4151  37.4736  37.7714
    37.9266  38.5262  38.5560  38.8316  39.2168  39.3796  39.4525  39.6266
    39.6639  39.7480  40.3797  40.6385  40.6846  40.8760  41.1633  41.4575
    41.5122  41.5738  41.8682  41.8774  42.0236  42.0449  42.2741  42.2905
    42.4030  42.4341  42.6028  42.8034  42.8786  42.9297  43.3394  43.4610
    43.4959  43.6226  43.7952  43.8209  44.0530  44.1813  44.5412  44.7024
    44.8742  45.0628  45.1083  45.4281  45.4667  45.5732  45.7562  45.7595
    45.8425  46.2355  46.3674  46.4649  46.7052  46.8066  46.9269  46.9950
    47.2070  47.2110  47.7507  48.0322  48.1800  48.3338  48.5382  48.7600

     occupation numbers
     1.0000   1.0000   1.0000   1.0000   1.0000   1.0000   1.0000   1.0000
     1.0000   1.0000   1.0000   1.0000   1.0000   1.0000   1.0000   1.0000
     1.0000   1.0000   1.0000   1.0000   1.0000   1.0000   1.0000   1.0000
     1.0000   1.0000   1.0000   1.0000   1.0000   1.0000   1.0000   1.0000
     1.0000   1.0000   1.0000   1.0000   1.0000   1.0000   1.0000   1.0000
     1.0000   1.0000   1.0000   1.0000   1.0000   1.0000   1.0000   1.0000
     1.0000   1.0000   1.0000   1.0000   1.0000   1.0000   1.0000   1.0000
     1.0000   1.0000   1.0000   1.0000   1.0000   1.0000   1.0000   1.0000
     1.0000   1.0000   1.0000   1.0000   1.0000   1.0000   1.0000   1.0000
     1.0000   1.0000   1.0000   1.0000   1.0000   1.0000   1.0000   1.0000
     1.0000   1.0000   1.0000   1.0000   1.0000   1.0000   1.0000   1.0000
     0.0000   0.0000   0.0000   0.0000   0.0000   0.0000   0.0000   0.0000
     0.0000   0.0000   0.0000   0.0000   0.0000   0.0000   0.0000   0.0000
     0.0000   0.0000   0.0000   0.0000   0.0000   0.0000   0.0000   0.0000
     0.0000   0.0000   0.0000   0.0000   0.0000   0.0000   0.0000   0.0000
     0.0000   0.0000   0.0000   0.0000   0.0000   0.0000   0.0000   0.0000
     0.0000   0.0000   0.0000   0.0000   0.0000   0.0000   0.0000   0.0000
     0.0000   0.0000   0.0000   0.0000   0.0000   0.0000   0.0000   0.0000
     0.0000   0.0000   0.0000   0.0000   0.0000   0.0000   0.0000   0.0000
     0.0000   0.0000   0.0000   0.0000   0.0000   0.0000   0.0000   0.0000
     0.0000   0.0000   0.0000   0.0000   0.0000   0.0000   0.0000   0.0000
     0.0000   0.0000   0.0000   0.0000   0.0000   0.0000   0.0000   0.0000
     0.0000   0.0000   0.0000   0.0000   0.0000   0.0000   0.0000   0.0000
     0.0000   0.0000   0.0000   0.0000   0.0000   0.0000   0.0000   0.0000
     0.0000   0.0000   0.0000   0.0000   0.0000   0.0000   0.0000   0.0000
     0.0000   0.0000   0.0000   0.0000   0.0000   0.0000   0.0000   0.0000
     0.0000   0.0000   0.0000   0.0000   0.0000   0.0000   0.0000   0.0000
     0.0000   0.0000   0.0000   0.0000   0.0000   0.0000   0.0000   0.0000
     0.0000   0.0000   0.0000   0.0000   0.0000   0.0000   0.0000   0.0000
     0.0000   0.0000   0.0000   0.0000   0.0000   0.0000   0.0000   0.0000
     0.0000   0.0000   0.0000   0.0000   0.0000   0.0000   0.0000   0.0000
     0.0000   0.0000   0.0000   0.0000   0.0000   0.0000   0.0000   0.0000

[...]

          k = 0.3333 0.3261 0.2304 (  4742 PWs)   bands (ev):

   -11.4971 -11.4547 -11.4163 -11.3464 -11.2757 -11.1739 -11.1542 -11.0673
   -10.8516 -10.8482 -10.8421 -10.8386 -10.8316 -10.8289 -10.8256 -10.8248
   -10.8221 -10.8175 -10.8160 -10.8143  -8.5233  -8.2673  -8.0072  -7.9154
    -7.7935  -7.7439  -7.3996  -7.2359  -7.0117  -6.7613  -6.6590  -6.4968
     1.8687   2.1808   2.2705   2.5362   2.7176   2.7666   2.8481   2.8947
     2.9198   2.9391   2.9573   3.0030   3.0567   3.0812   3.1060   3.1483
     3.1903   3.2066   3.2609   3.2790   3.3744   3.5645   3.6675   3.9180
     4.9794   5.1685   5.2127   5.3493   5.4067   5.6180   5.8523   5.9504
     5.9822   6.1606   6.4323   6.6980   6.9946   7.1078   7.2844   7.4059
     7.5997   7.6903   7.7694   7.8518   7.9303   7.9909   8.2025   8.2585
     8.3614   8.4376   8.5094   8.6056   8.6178   8.6407   8.7470   8.7649
    12.6981  13.5064  13.8253  14.1152  14.4029  14.5089  14.5189  14.7224
    16.1337  16.1938  16.7793  17.0985  17.6296  17.9420  17.9549  18.3756
    18.9090  19.0307  19.3329  19.4171  19.6208  19.6668  19.8126  20.0399
    20.2619  20.4300  20.7687  20.8838  21.0241  21.0488  21.4335  21.6574
    22.5312  22.5995  22.8127  23.0374  23.3704  23.3971  23.6737  24.0297
    24.3831  24.7882  24.9007  25.1163  26.2539  26.6409  26.8279  27.2593
    27.2707  27.6116  28.0355  28.2706  28.5656  28.7146  29.2544  29.3945
    29.6899  29.7192  29.7228  29.7249  29.7374  29.8561  30.1444  30.2114
    30.5062  30.5863  30.8187  31.0974  31.5333  31.7015  31.9211  32.0787
    32.2097  32.7078  32.8490  32.9794  33.2752  33.5017  33.6682  33.8147
    33.9676  34.0918  34.2683  34.4600  34.6136  34.7203  34.8865  35.0280
    35.2321  35.2764  35.5112  35.6180  35.7842  35.9357  36.2201  36.4182
    36.6598  37.0186  37.0987  37.2077  37.4872  37.7123  38.0825  38.2730
    38.3947  38.5557  38.7008  38.8635  39.1489  39.3197  39.5694  39.7481
    39.7859  39.9227  40.1361  40.3315  40.4200  40.7089  40.9026  40.9501
    41.2105  41.3955  41.5024  41.5857  41.6229  41.7454  41.9194  42.0583
    42.2126  42.2901  42.4400  42.5286  42.6133  42.8055  42.9048  43.0800
    43.1231  43.2317  43.3695  43.4490  43.6388  43.9753  44.0722  44.1656
    44.2106  44.4948  44.5904  44.8858  44.9606  45.0839  45.2736  45.5104
    45.6312  45.8099  45.8856  46.0955  46.2100  46.4129  46.5221  46.9099
    46.9449  47.1406  47.1884  47.3584  47.6514  47.7517  47.8484  48.1642

     occupation numbers
     1.0000   1.0000   1.0000   1.0000   1.0000   1.0000   1.0000   1.0000
     1.0000   1.0000   1.0000   1.0000   1.0000   1.0000   1.0000   1.0000
     1.0000   1.0000   1.0000   1.0000   1.0000   1.0000   1.0000   1.0000
     1.0000   1.0000   1.0000   1.0000   1.0000   1.0000   1.0000   1.0000
     1.0000   1.0000   1.0000   1.0000   1.0000   1.0000   1.0000   1.0000
     1.0000   1.0000   1.0000   1.0000   1.0000   1.0000   1.0000   1.0000
     1.0000   1.0000   1.0000   1.0000   1.0000   1.0000   1.0000   1.0000
     1.0000   1.0000   1.0000   1.0000   1.0000   1.0000   1.0000   1.0000
     1.0000   1.0000   1.0000   1.0000   1.0000   1.0000   1.0000   1.0000
     1.0000   1.0000   1.0000   1.0000   1.0000   1.0000   1.0000   1.0000
     1.0000   1.0000   1.0000   1.0000   1.0000   1.0000   1.0000   1.0000
     0.0000   0.0000   0.0000   0.0000   0.0000   0.0000   0.0000   0.0000
     0.0000   0.0000   0.0000   0.0000   0.0000   0.0000   0.0000   0.0000
     0.0000   0.0000   0.0000   0.0000   0.0000   0.0000   0.0000   0.0000
     0.0000   0.0000   0.0000   0.0000   0.0000   0.0000   0.0000   0.0000
     0.0000   0.0000   0.0000   0.0000   0.0000   0.0000   0.0000   0.0000
     0.0000   0.0000   0.0000   0.0000   0.0000   0.0000   0.0000   0.0000
     0.0000   0.0000   0.0000   0.0000   0.0000   0.0000   0.0000   0.0000
     0.0000   0.0000   0.0000   0.0000   0.0000   0.0000   0.0000   0.0000
     0.0000   0.0000   0.0000   0.0000   0.0000   0.0000   0.0000   0.0000
     0.0000   0.0000   0.0000   0.0000   0.0000   0.0000   0.0000   0.0000
     0.0000   0.0000   0.0000   0.0000   0.0000   0.0000   0.0000   0.0000
     0.0000   0.0000   0.0000   0.0000   0.0000   0.0000   0.0000   0.0000
     0.0000   0.0000   0.0000   0.0000   0.0000   0.0000   0.0000   0.0000
     0.0000   0.0000   0.0000   0.0000   0.0000   0.0000   0.0000   0.0000
     0.0000   0.0000   0.0000   0.0000   0.0000   0.0000   0.0000   0.0000
     0.0000   0.0000   0.0000   0.0000   0.0000   0.0000   0.0000   0.0000
     0.0000   0.0000   0.0000   0.0000   0.0000   0.0000   0.0000   0.0000
     0.0000   0.0000   0.0000   0.0000   0.0000   0.0000   0.0000   0.0000
     0.0000   0.0000   0.0000   0.0000   0.0000   0.0000   0.0000   0.0000
     0.0000   0.0000   0.0000   0.0000   0.0000   0.0000   0.0000   0.0000
     0.0000   0.0000   0.0000   0.0000   0.0000   0.0000   0.0000   0.0000

     highest occupied, lowest unoccupied level (ev):     9.0408    9.6080

!    total energy              =   -1641.33496874 Ry
     estimated scf accuracy    <       0.00000027 Ry

     The total energy is the sum of the following terms:
     one-electron contribution =    -347.43738266 Ry
     hartree contribution      =     330.43495702 Ry
     xc contribution           =    -452.16943270 Ry
     ewald contribution        =   -1057.84472340 Ry
     one-center paw contrib.   =    -114.31838700 Ry
      -> PAW hartree energy AE =       0.00000000 Ry
      -> PAW hartree energy PS =       0.00000000 Ry
      -> PAW xc energy AE      =       0.00000000 Ry
      -> PAW xc energy PS      =       0.00000000 Ry
      -> total E_H with PAW    =     330.43495702 Ry
      -> total E_XC with PAW   =    -452.16943270 Ry

     convergence has been achieved in   8 iterations

     Writing all to output data dir bands_nm/myprefix.save/

     General routines

     Parallel routines

     PAW routines

   This run was terminated on:  22:52:20  15Jul2023

   JOB DONE.