     Program PWSCF v.7.1 starts on 15Jul2023 at 18:34:15

     Reading input from espresso_8566.pwi
Warning: card &CELL ignored
Warning: card / ignored

     Current dimensions of program PWSCF are:
     Max number of different atomic species (ntypx) = 10
     Max number of k-points (npk) =  40000
     Max angular momentum in pseudopotentials (lmaxx) =  4
     file O.pbe-n-kjpaw_psl.0.1.UPF: wavefunction(s)  2P renormalized
     Message from routine setup:
     using ibrav=0 with symmetry is DISCOURAGED, use correct ibrav instead

     K-points division:     npool     =       2
     R & G space division:  proc/nbgrp/npool/nimage =       4
     Subspace diagonalization in iterative solution of the eigenvalue problem:
     one sub-group per band group will be used

     Using Slab Decomposition

     bravais-lattice index     =            0
     lattice parameter (alat)  =      12.6425  a.u.
     unit-cell volume          =    1285.5146 (a.u.)^3
     number of atoms/cell      =           14
     number of atomic types    =            3
     number of electrons       =       144.00
     number of Kohn-Sham states=          256
     kinetic-energy cutoff     =      30.0000  Ry
     charge density cutoff     =     240.0000  Ry
     scf convergence threshold =      1.0E-06
     mixing beta               =       0.7000
     number of iterations used =            8  plain     mixing
     Exchange-correlation= SLA  PW   PBX  PBC
                           (   1   4   3   4   0   0   0)

     celldm(1)=  12.642545  celldm(2)=   0.000000  celldm(3)=   0.000000
     celldm(4)=   0.000000  celldm(5)=   0.000000  celldm(6)=   0.000000

     crystal axes: (cart. coord. in units of alat)
               a(1) = (   1.000000   0.000000   0.000000 )
               a(2) = (   0.167274   0.985910   0.000000 )
               a(3) = (  -0.583637  -0.492955   0.645262 )

     reciprocal axes: (cart. coord. in units 2 pi/alat)
               b(1) = (  1.000000 -0.169665  0.774879 )
               b(2) = (  0.000000  1.014291  0.774879 )
               b(3) = (  0.000000  0.000000  1.549758 )

     PseudoPot. # 1 for Ca read from file:
     /lustre07/scratch/pragov/crystal_structure_design/utils/SSSP/Ca_pbe_v1.uspp.F.UPF
     MD5 check sum: 403a4c14b9e4d4dfdc3024c9a3812218
     Pseudo is Ultrasoft + core correction, Zval = 10.0
     Generated by new atomic code, or converted to UPF format
     Using radial grid of  845 points,  6 beta functions with:
                l(1) =   0
                l(2) =   0
                l(3) =   1
                l(4) =   1
                l(5) =   2
                l(6) =   2
     Q(r) pseudized with  8 coefficients,  rinner =    1.500   1.500   1.500
                                                       1.500   1.500

     PseudoPot. # 2 for Au read from file:
     /lustre07/scratch/pragov/crystal_structure_design/utils/SSSP/Au_ONCV_PBE-1.0.oncvpsp.upf
     MD5 check sum: d14007822ba0e19f0206237467fc06c2
     Pseudo is Norm-conserving, Zval = 19.0
     Generated using ONCVPSP code by D. R. Hamann
     Using radial grid of 1278 points,  8 beta functions with:
                l(1) =   0
                l(2) =   0
                l(3) =   1
                l(4) =   1
                l(5) =   2
                l(6) =   2
                l(7) =   3
                l(8) =   3

     PseudoPot. # 3 for O  read from file:
     /lustre07/scratch/pragov/crystal_structure_design/utils/SSSP/O.pbe-n-kjpaw_psl.0.1.UPF
     MD5 check sum: 0234752ac141de4415c5fc33072bef88
     Pseudo is Projector augmented-wave + core cor, Zval =  6.0
     Generated using "atomic" code by A. Dal Corso  v.5.0.99 svn rev. 10869
     Shape of augmentation charge: BESSEL
     Using radial grid of 1095 points,  4 beta functions with:
                l(1) =   0
                l(2) =   0
                l(3) =   1
                l(4) =   1
     Q(r) pseudized with 0 coefficients

     atomic species   valence    mass     pseudopotential
        Ca            10.00    40.07800     Ca( 1.00)
        Au            19.00   196.96657     Au( 1.00)
        O              6.00    15.99900     O ( 1.00)

      2 Sym. Ops., with inversion, found ( 1 have fractional translation)

                                    s                        frac. trans.

      isym =  1     identity

 cryst.   s( 1) = (     1          0          0      )
                  (     0          1          0      )
                  (     0          0          1      )

 cart.    s( 1) = (  1.0000000  0.0000000 -0.0000000 )
                  (  0.0000000  1.0000000  0.0000000 )
                  (  0.0000000  0.0000000  1.0000000 )

      isym =  2     inversion

 cryst.   s( 2) = (    -1          0          0      )    f =(  0.2500000 )
                  (     0         -1          0      )       ( -0.2500000 )
                  (     0          0         -1      )       ( -0.5000000 )

 cart.    s( 2) = ( -1.0000000  0.0000000  0.0000000 )    f =(  0.5000000 )
                  (  0.0000000 -1.0000000  0.0000000 )       ( -0.0000000 )
                  (  0.0000000  0.0000000 -1.0000000 )       ( -0.3226310 )

   Cartesian axes

     site n.     atom                  positions (alat units)
         1           Ca  tau(   1) = (   0.5000000   0.0000000   0.3226310  )
         2           Ca  tau(   2) = (   0.0000000   0.0000000   0.0000000  )
         3           Au  tau(   3) = (   0.0418185   0.2464776   0.4839464  )
         4           Au  tau(   4) = (  -0.0418185  -0.2464776   0.4839464  )
         5           Au  tau(   5) = (   0.8336371   0.4929552   0.1613155  )
         6           Au  tau(   6) = (   0.3336371   0.4929552   0.1613155  )
         7           O   tau(   7) = (   0.0831921   0.3774070   0.0295601  )
         8           O   tau(   8) = (   0.7155258   0.2207310   0.0879873  )
         9           O   tau(   9) = (  -0.2463272   0.1755655   0.5572746  )
        10           O   tau(  10) = (  -0.0303574   0.5118457   0.6157018  )
        11           O   tau(  11) = (   0.5840820   0.6085034   0.2930709  )
        12           O   tau(  12) = (  -0.0482516   0.7651794   0.2346437  )
        13           O   tau(  13) = (   0.1139944  -0.0188905   0.3521910  )
        14           O   tau(  14) = (   0.3299643   0.3173897   0.4106182  )

   Crystallographic axes

     site n.     atom                  positions (cryst. coord.)
         1           Ca  tau(   1) = (  0.7500000  0.2500000  0.5000000  )
         2           Ca  tau(   2) = (  0.0000000  0.0000000  0.0000000  )
         3           Au  tau(   3) = (  0.3750000  0.6250000  0.7500000  )
         4           Au  tau(   4) = (  0.3750000  0.1250000  0.7500000  )
         5           Au  tau(   5) = (  0.8750000  0.6250000  0.2500000  )
         6           Au  tau(   6) = (  0.3750000  0.6250000  0.2500000  )
         7           O   tau(   7) = (  0.0420650  0.4057060  0.0458110  )
         8           O   tau(   8) = (  0.7462550  0.2920650  0.1363590  )
         9           O   tau(   9) = (  0.1557060  0.6098950  0.8636410  )
        10           O   tau(  10) = (  0.3598950  0.9962550  0.9541890  )
        11           O   tau(  11) = (  0.7079350  0.8442940  0.4541890  )
        12           O   tau(  12) = (  0.0037450  0.9579350  0.3636410  )
        13           O   tau(  13) = (  0.3901050  0.2537450  0.5458110  )
        14           O   tau(  14) = (  0.5942940  0.6401050  0.6363590  )

     number of k points=    14
                       cart. coord. in units 2pi/alat
        k(    1) = (   0.0000000   0.0000000   0.0000000), wk =   0.0740741
        k(    2) = (   0.0000000   0.0000000   0.5165861), wk =   0.1481481
        k(    3) = (   0.0000000   0.3380970   0.2582930), wk =   0.1481481
        k(    4) = (   0.0000000   0.3380970   0.7748791), wk =   0.1481481
        k(    5) = (   0.3333333  -0.0565549   0.2582930), wk =   0.1481481
        k(    6) = (   0.3333333  -0.0565549   0.7748791), wk =   0.1481481
        k(    7) = (   0.3333333   0.2815421   0.5165861), wk =   0.1481481
        k(    8) = (   0.3333333   0.2815421   0.0000000), wk =   0.1481481
        k(    9) = (   0.3333333  -0.3946519   0.0000000), wk =   0.1481481
        k(   10) = (   0.3333333  -0.3946519   0.5165861), wk =   0.1481481
        k(   11) = (   0.0000000  -0.3380970   0.2582930), wk =   0.1481481
        k(   12) = (  -0.3333333   0.0565549   0.2582930), wk =   0.1481481
        k(   13) = (  -0.3333333  -0.2815421   0.5165861), wk =   0.1481481
        k(   14) = (  -0.3333333   0.3946519   0.5165861), wk =   0.1481481

                       cryst. coord.
        k(    1) = (   0.0000000   0.0000000   0.0000000), wk =   0.0740741
        k(    2) = (   0.0000000   0.0000000   0.3333333), wk =   0.1481481
        k(    3) = (   0.0000000   0.3333333   0.0000000), wk =   0.1481481
        k(    4) = (   0.0000000   0.3333333   0.3333333), wk =   0.1481481
        k(    5) = (   0.3333333   0.0000000   0.0000000), wk =   0.1481481
        k(    6) = (   0.3333333   0.0000000   0.3333333), wk =   0.1481481
        k(    7) = (   0.3333333   0.3333333  -0.0000000), wk =   0.1481481
        k(    8) = (   0.3333333   0.3333333  -0.3333333), wk =   0.1481481
        k(    9) = (   0.3333333  -0.3333333  -0.0000000), wk =   0.1481481
        k(   10) = (   0.3333333  -0.3333333   0.3333333), wk =   0.1481481
        k(   11) = (   0.0000000  -0.3333333   0.3333333), wk =   0.1481481
        k(   12) = (  -0.3333333   0.0000000   0.3333333), wk =   0.1481481
        k(   13) = (  -0.3333333  -0.3333333   0.6666667), wk =   0.1481481
        k(   14) = (  -0.3333333   0.3333333   0.3333333), wk =   0.1481481

     Check: negative core charge=   -0.000013

     Initial potential from superposition of free atoms

     starting charge     143.9887, renormalised to     144.0000
     Starting wfcs are   92 randomized atomic wfcs +  164 random wfcs
     Checking if some PAW data can be deallocated...

     Self-consistent Calculation

     iteration #  1     ecut=    30.00 Ry     beta= 0.70
     Davidson diagonalization with overlap

     ethr =  1.00E-02,  avg # of iterations =  7.1

     total energy              =   -1578.94168239 Ry
     estimated scf accuracy    <       3.37988617 Ry

[...]

     total energy              =   -1580.83085147 Ry
     estimated scf accuracy    <       0.00000102 Ry

     iteration #  9     ecut=    30.00 Ry     beta= 0.70
     Davidson diagonalization with overlap

     ethr =  7.11E-10,  avg # of iterations =  1.0

     End of self-consistent calculation

          k = 0.0000 0.0000 0.0000 (  3473 PWs)   bands (ev):

   -96.1261 -96.1252 -96.1237 -96.1215 -47.3766 -47.3731 -47.3725 -47.3701
   -47.3162 -47.2983 -47.2980 -47.2952 -46.6648 -46.6642 -46.6102 -46.6095
   -28.2343 -28.2242  -9.4173  -9.4173  -9.4009  -9.3414  -9.3414  -9.2540
    -8.0618  -7.2980  -7.2975  -7.0784  -6.9809  -6.7557  -6.7320  -6.7315
     3.2944   3.5106   3.5660   3.5662   4.0188   4.3855   4.5130   4.5131
     5.1694   5.5108   5.8647   5.8650   6.1922   6.3675   6.5190   6.9385
     6.9803   7.2070   7.3438   7.3439   7.3631   7.3646   7.3650   7.6644
     7.6647   7.7966   8.0497   8.0879   8.1022   8.1025   8.4160   8.7490
     8.7493   9.1601   9.7160   9.8596   9.8600  10.0214  10.1681  10.1684
    11.7321  12.5262  12.5264  13.4018  13.4204  15.0350  15.6755  16.6688
    16.9901  17.0583  17.0583  17.2009  17.2009  17.7877  17.9182  17.9524
    18.5862  18.7356  18.9391  18.9394  19.3516  19.9905  19.9906  20.2693
    22.1172  22.2932  22.8402  22.8404  23.4747  23.9536  23.9537  24.0227
    25.0947  26.1744  26.1896  26.2817  26.2818  26.8975  26.8975  27.4418
    27.6773  27.8549  28.0337  28.0338  28.3618  28.7672  30.2654  30.2655
    30.3426  30.3904  30.3906  30.5158  30.6545  31.4988  31.7987  32.5023
    32.5023  33.4011  33.4785  33.4786  33.5607  34.5132  34.8473  34.9808
    34.9810  35.3822  35.4829  35.5443  35.5444  36.4237  36.4809  37.3889
    37.5270  37.5272  38.0821  38.0822  38.1484  38.2380  38.3037  38.3037
    38.4647  38.9151  39.6744  39.6745  39.8347  40.6962  41.0694  41.0695
    41.3290  41.5863  41.6661  41.6661  42.0169  42.0169  42.2331  42.2952
    43.0692  43.0693  43.2530  43.3656  43.4638  43.8157  44.0457  44.2363
    44.2363  44.2755  44.3807  44.3808  44.6774  44.8412  45.0482  45.4282
    45.4282  45.5896  45.7712  45.7713  45.8186  46.0888  46.3695  46.5250
    46.6182  47.4843  47.4845  47.5913  47.7904  47.7905  48.3642  49.1616
    49.3266  49.3267  49.5546  49.5707  49.7350  49.7351  50.6537  51.2777
    51.2777  51.4052  51.4053  51.4335  51.6289  51.6899  52.9981  53.3466
    53.3467  53.4000  53.4320  53.5329  53.5330  53.8094  55.0004  55.2570
    55.3954  55.3954  55.4062  55.4414  55.4415  55.5951  55.9871  56.1119
    56.1120  56.1417  56.3602  56.3603  56.3900  56.4559  57.4988  57.7210
    57.7210  57.8942  57.9951  58.2740  58.2741  58.3677  58.7600  58.8279
    58.8447  59.2772  59.4100  59.9298  59.9299  60.4662  60.5913  60.5914

     occupation numbers
     1.0000   1.0000   1.0000   1.0000   1.0000   1.0000   1.0000   1.0000
     1.0000   1.0000   1.0000   1.0000   1.0000   1.0000   1.0000   1.0000
     1.0000   1.0000   1.0000   1.0000   1.0000   1.0000   1.0000   1.0000
     1.0000   1.0000   1.0000   1.0000   1.0000   1.0000   1.0000   1.0000
     1.0000   1.0000   1.0000   1.0000   1.0000   1.0000   1.0000   1.0000
     1.0000   1.0000   1.0000   1.0000   1.0000   1.0000   1.0000   1.0000
     1.0000   1.0000   1.0000   1.0000   1.0000   1.0000   1.0000   1.0000
     1.0000   1.0000   1.0000   1.0000   1.0000   1.0000   1.0000   1.0000
     1.0000   1.0000   1.0000   1.0000   1.0000   1.0000   1.0000   1.0000
     0.0000   0.0000   0.0000   0.0000   0.0000   0.0000   0.0000   0.0000
     0.0000   0.0000   0.0000   0.0000   0.0000   0.0000   0.0000   0.0000
     0.0000   0.0000   0.0000   0.0000   0.0000   0.0000   0.0000   0.0000
     0.0000   0.0000   0.0000   0.0000   0.0000   0.0000   0.0000   0.0000
     0.0000   0.0000   0.0000   0.0000   0.0000   0.0000   0.0000   0.0000
     0.0000   0.0000   0.0000   0.0000   0.0000   0.0000   0.0000   0.0000
     0.0000   0.0000   0.0000   0.0000   0.0000   0.0000   0.0000   0.0000
     0.0000   0.0000   0.0000   0.0000   0.0000   0.0000   0.0000   0.0000
     0.0000   0.0000   0.0000   0.0000   0.0000   0.0000   0.0000   0.0000
     0.0000   0.0000   0.0000   0.0000   0.0000   0.0000   0.0000   0.0000
     0.0000   0.0000   0.0000   0.0000   0.0000   0.0000   0.0000   0.0000
     0.0000   0.0000   0.0000   0.0000   0.0000   0.0000   0.0000   0.0000
     0.0000   0.0000   0.0000   0.0000   0.0000   0.0000   0.0000   0.0000
     0.0000   0.0000   0.0000   0.0000   0.0000   0.0000   0.0000   0.0000
     0.0000   0.0000   0.0000   0.0000   0.0000   0.0000   0.0000   0.0000
     0.0000   0.0000   0.0000   0.0000   0.0000   0.0000   0.0000   0.0000
     0.0000   0.0000   0.0000   0.0000   0.0000   0.0000   0.0000   0.0000
     0.0000   0.0000   0.0000   0.0000   0.0000   0.0000   0.0000   0.0000
     0.0000   0.0000   0.0000   0.0000   0.0000   0.0000   0.0000   0.0000
     0.0000   0.0000   0.0000   0.0000   0.0000   0.0000   0.0000   0.0000
     0.0000   0.0000   0.0000   0.0000   0.0000   0.0000   0.0000   0.0000
     0.0000   0.0000   0.0000   0.0000   0.0000   0.0000   0.0000   0.0000
     0.0000   0.0000   0.0000   0.0000   0.0000   0.0000   0.0000   0.0000

[...]

          k = 0.0000-0.3381 0.2583 (  3559 PWs)   bands (ev):

[...]

          k =-0.3333 0.0566 0.2583 (  3559 PWs)   bands (ev):

[...]

          k =-0.3333 0.3947 0.5166 (  3572 PWs)   bands (ev):

   -96.1261 -96.1254 -96.1238 -96.1217 -47.3807 -47.3783 -47.3761 -47.3735
   -47.3138 -47.3083 -47.3058 -47.3019 -46.6680 -46.6541 -46.6285 -46.6161
   -28.2305 -28.2280  -9.5208  -9.4700  -9.3768  -9.3361  -9.2712  -9.2397
    -7.3985  -7.3981  -7.3624  -7.2022  -7.0243  -6.9028  -6.8897  -6.8286
     3.8095   3.8917   3.9797   4.0122   4.5427   4.6997   4.7890   4.7917
     5.0227   5.1280   5.4895   5.5039   5.5495   5.6152   5.7733   5.8007
     6.0622   6.3449   6.3826   6.6930   7.0658   7.0938   7.9411   7.9514
     8.4143   8.5221   8.5648   8.7315   8.7489   8.8972   8.9477   8.9579
     9.0398   9.1025   9.1958   9.5237   9.6391   9.7098   9.7720   9.9768
    12.1316  12.1906  12.4513  12.8239  15.3209  15.5310  15.7676  15.9830
    16.7220  16.9380  17.2079  17.5135  17.6021  17.6435  17.8106  17.8422
    17.9969  18.3400  18.6066  18.6115  19.8418  20.0612  20.2592  21.2421
    21.4013  22.6756  22.7556  22.7611  23.1475  23.4855  24.0501  24.7916
    24.8476  25.3951  25.7586  25.8683  26.1011  26.1601  26.5747  26.7618
    27.3316  27.5181  28.1857  28.7824  28.8214  29.5729  29.8145  30.3682
    30.4120  30.6542  30.8944  31.2694  31.3987  31.7584  32.0536  32.3953
    33.1236  33.2988  33.4813  33.5790  34.0932  34.1479  34.3726  34.8771
    35.2392  35.3367  35.5390  35.8364  36.0355  36.1792  36.3588  36.4405
    36.6691  36.9552  37.1929  37.9825  38.2149  38.2730  38.5612  38.6194
    38.6611  38.8003  38.8828  39.3754  39.5556  39.8689  40.2128  40.3769
    40.4088  40.8536  40.8774  41.4203  41.7829  41.8907  42.0369  42.6232
    42.8468  42.9366  43.1434  43.2222  43.7008  43.8311  44.2058  44.2475
    44.4645  44.7033  44.8842  45.2645  45.2889  45.3865  45.5888  45.7014
    45.9219  45.9326  46.5482  46.7105  46.9733  46.9918  47.1615  47.3506
    47.5099  47.5913  47.8499  48.1299  48.5867  48.6017  48.7188  48.8572
    49.4394  49.6344  49.6469  49.9822  50.0437  50.1556  50.4731  50.7495
    50.8832  51.4639  51.4665  51.6736  51.9381  52.1812  52.3065  52.3158
    52.6063  52.7328  52.8859  53.3461  53.4962  53.7379  53.9664  54.2453
    54.3116  54.4561  54.7101  55.0930  55.1848  55.3631  55.4928  55.8737
    56.0666  56.1418  56.2106  56.5167  56.8737  56.9076  56.9395  57.3615
    57.7525  57.7885  57.9040  58.0999  58.2756  58.5318  58.8651  59.1708
    59.1756  59.4598  59.5391  59.6559  59.9393  60.1691  60.1784  60.8376

     occupation numbers
     1.0000   1.0000   1.0000   1.0000   1.0000   1.0000   1.0000   1.0000
     1.0000   1.0000   1.0000   1.0000   1.0000   1.0000   1.0000   1.0000
     1.0000   1.0000   1.0000   1.0000   1.0000   1.0000   1.0000   1.0000
     1.0000   1.0000   1.0000   1.0000   1.0000   1.0000   1.0000   1.0000
     1.0000   1.0000   1.0000   1.0000   1.0000   1.0000   1.0000   1.0000
     1.0000   1.0000   1.0000   1.0000   1.0000   1.0000   1.0000   1.0000
     1.0000   1.0000   1.0000   1.0000   1.0000   1.0000   1.0000   1.0000
     1.0000   1.0000   1.0000   1.0000   1.0000   1.0000   1.0000   1.0000
     1.0000   1.0000   1.0000   1.0000   1.0000   1.0000   1.0000   1.0000
     0.0000   0.0000   0.0000   0.0000   0.0000   0.0000   0.0000   0.0000
     0.0000   0.0000   0.0000   0.0000   0.0000   0.0000   0.0000   0.0000
     0.0000   0.0000   0.0000   0.0000   0.0000   0.0000   0.0000   0.0000
     0.0000   0.0000   0.0000   0.0000   0.0000   0.0000   0.0000   0.0000
     0.0000   0.0000   0.0000   0.0000   0.0000   0.0000   0.0000   0.0000
     0.0000   0.0000   0.0000   0.0000   0.0000   0.0000   0.0000   0.0000
     0.0000   0.0000   0.0000   0.0000   0.0000   0.0000   0.0000   0.0000
     0.0000   0.0000   0.0000   0.0000   0.0000   0.0000   0.0000   0.0000
     0.0000   0.0000   0.0000   0.0000   0.0000   0.0000   0.0000   0.0000
     0.0000   0.0000   0.0000   0.0000   0.0000   0.0000   0.0000   0.0000
     0.0000   0.0000   0.0000   0.0000   0.0000   0.0000   0.0000   0.0000
     0.0000   0.0000   0.0000   0.0000   0.0000   0.0000   0.0000   0.0000
     0.0000   0.0000   0.0000   0.0000   0.0000   0.0000   0.0000   0.0000
     0.0000   0.0000   0.0000   0.0000   0.0000   0.0000   0.0000   0.0000
     0.0000   0.0000   0.0000   0.0000   0.0000   0.0000   0.0000   0.0000
     0.0000   0.0000   0.0000   0.0000   0.0000   0.0000   0.0000   0.0000
     0.0000   0.0000   0.0000   0.0000   0.0000   0.0000   0.0000   0.0000
     0.0000   0.0000   0.0000   0.0000   0.0000   0.0000   0.0000   0.0000
     0.0000   0.0000   0.0000   0.0000   0.0000   0.0000   0.0000   0.0000
     0.0000   0.0000   0.0000   0.0000   0.0000   0.0000   0.0000   0.0000
     0.0000   0.0000   0.0000   0.0000   0.0000   0.0000   0.0000   0.0000
     0.0000   0.0000   0.0000   0.0000   0.0000   0.0000   0.0000   0.0000
     0.0000   0.0000   0.0000   0.0000   0.0000   0.0000   0.0000   0.0000

     highest occupied, lowest unoccupied level (ev):    10.1684   11.7321

!    total energy              =   -1580.83085156 Ry
     estimated scf accuracy    <       0.00000039 Ry

     The total energy is the sum of the following terms:
     one-electron contribution =    -700.43886314 Ry
     hartree contribution      =     405.54298892 Ry
     xc contribution           =    -183.79847199 Ry
     ewald contribution        =   -1025.89073789 Ry
     one-center paw contrib.   =     -76.24576747 Ry
      -> PAW hartree energy AE =       0.00000000 Ry
      -> PAW hartree energy PS =       0.00000000 Ry
      -> PAW xc energy AE      =       0.00000000 Ry
      -> PAW xc energy PS      =       0.00000000 Ry
      -> total E_H with PAW    =     405.54298892 Ry
      -> total E_XC with PAW   =    -183.79847199 Ry

     convergence has been achieved in   9 iterations

     Writing all to output data dir bands_nm/myprefix.save/

     General routines

     Parallel routines

     PAW routines

   This run was terminated on:  18:35:14  15Jul2023

   JOB DONE.