     Program PWSCF v.7.0 starts on  6Jun2023 at 20: 0:37

     K-points division:     npool     =       2
     R & G space division:  proc/nbgrp/npool/nimage =       4

     Reading input from espresso_19998.pwi
Warning: card &CELL ignored
Warning: card / ignored

     Current dimensions of program PWSCF are:
     Max number of different atomic species (ntypx) = 10
     Max number of k-points (npk) =  40000
     Max angular momentum in pseudopotentials (lmaxx) =  4
     file O.pbe-n-kjpaw_psl.0.1.UPF: wavefunction(s)  2P renormalized
     Message from routine setup:
     using ibrav=0 with symmetry is DISCOURAGED, use correct ibrav instead

     Using Slab Decomposition

     bravais-lattice index     =            0
     lattice parameter (alat)  =      10.7509  a.u.
     unit-cell volume          =     849.8673 (a.u.)^3
     number of atoms/cell      =            8
     number of atomic types    =            3
     number of electrons       =        66.00
     number of Kohn-Sham states=           64
     kinetic-energy cutoff     =      30.0000  Ry
     charge density cutoff     =     240.0000  Ry
     scf convergence threshold =      1.0E-06
     mixing beta               =       0.7000
     number of iterations used =            8  plain     mixing
     Exchange-correlation=  SLA  PW   PBX  PBC
                           (   1   4   3   4   0   0   0)

     celldm(1)=  10.750851  celldm(2)=   0.000000  celldm(3)=   0.000000
     celldm(4)=   0.000000  celldm(5)=   0.000000  celldm(6)=   0.000000

     crystal axes: (cart. coord. in units of alat)
               a(1) = (   1.000000   0.000000   0.000000 )
               a(2) = (   0.531879   0.846821   0.000000 )
               a(3) = (   0.466867   0.258084   0.807665 )

     reciprocal axes: (cart. coord. in units 2 pi/alat)
               b(1) = (  1.000000 -0.628089 -0.377344 )
               b(2) = (  0.000000  1.180888 -0.377344 )
               b(3) = (  0.000000  0.000000  1.238137 )

     PseudoPot. # 1 for W  read from file:
     /home/pragov/projects/rrg-bengioy-ad/pragov/crystal_structure_design/SSSP/W_pbe_v1.2.uspp.F.UPF
     MD5 check sum: 9c083fa34c2a2ea0f02f1f893e16e1c8
     Pseudo is Ultrasoft + core correction, Zval = 14.0
     Generated by new atomic code, or converted to UPF format
     Using radial grid of  923 points,  8 beta functions with:
                l(1) =   0
                l(2) =   0
                l(3) =   0
                l(4) =   1
                l(5) =   1
                l(6) =   2
                l(7) =   2
                l(8) =   3
     Q(r) pseudized with  6 coefficients,  rinner =    1.350   1.350   1.350
                                                       1.350   1.350   1.350
                                                       1.350

     PseudoPot. # 2 for O  read from file:
     /home/pragov/projects/rrg-bengioy-ad/pragov/crystal_structure_design/SSSP/O.pbe-n-kjpaw_psl.0.1.UPF
     MD5 check sum: 0234752ac141de4415c5fc33072bef88
     Pseudo is Projector augmented-wave + core cor, Zval =  6.0
     Generated using "atomic" code by A. Dal Corso  v.5.0.99 svn rev. 10869
     Shape of augmentation charge: BESSEL
     Using radial grid of 1095 points,  4 beta functions with:
                l(1) =   0
                l(2) =   0
                l(3) =   1
                l(4) =   1
     Q(r) pseudized with 0 coefficients

     PseudoPot. # 3 for F  read from file:
     /home/pragov/projects/rrg-bengioy-ad/pragov/crystal_structure_design/SSSP/f_pbe_v1.4.uspp.F.UPF
     MD5 check sum: 4c38b6a325caf53ec0e86aed9459de46
     Pseudo is Ultrasoft, Zval =  7.0
     Generated by new atomic code, or converted to UPF format
     Using radial grid of  799 points,  4 beta functions with:
                l(1) =   0
                l(2) =   0
                l(3) =   1
                l(4) =   1
     Q(r) pseudized with  8 coefficients,  rinner =    0.950   0.950   0.950

     atomic species   valence    mass     pseudopotential
        W             14.00   183.84000     W ( 1.00)
        O              6.00    15.99900     O ( 1.00)
        F              7.00    18.99840     F ( 1.00)

      2 Sym. Ops., with inversion, found

                                    s                        frac. trans.

      isym =  1     identity

 cryst.   s( 1) = (     1          0          0      )
                  (     0          1          0      )
                  (     0          0          1      )

 cart.    s( 1) = (  1.0000000  0.0000000 -0.0000000 )
                  (  0.0000000  1.0000000 -0.0000000 )
                  (  0.0000000  0.0000000  1.0000000 )

      isym =  2     inversion

 cryst.   s( 2) = (    -1          0          0      )
                  (     0         -1          0      )
                  (     0          0         -1      )

 cart.    s( 2) = ( -1.0000000 -0.0000000  0.0000000 )
                  (  0.0000000 -1.0000000  0.0000000 )
                  (  0.0000000  0.0000000 -1.0000000 )

   Cartesian axes

     site n.     atom                  positions (alat units)
         1           W   tau(   1) = (   0.7334336   0.1290418   0.4038324  )
         2           W   tau(   2) = (   0.2659393   0.4234103   0.0000000  )
         3           O   tau(   3) = (   0.5012151   0.2617370   0.2119894  )
         4           O   tau(   4) = (   1.2770823   0.6906354   0.1918430  )
         5           O   tau(   5) = (   0.7216634   0.4142687   0.6158218  )
         6           O   tau(   6) = (   1.4975306   0.8431672   0.5956754  )
         7           F   tau(   7) = (   1.0078848   0.8127130   0.6057486  )
         8           F   tau(   8) = (   0.9908609   0.2921912   0.2019162  )

   Crystallographic axes

     site n.     atom                  positions (cryst. coord.)
         1           W   tau(   1) = (  0.5000000 -0.0000000  0.5000000  )
         2           W   tau(   2) = (  0.0000000  0.5000000  0.0000000  )
         3           O   tau(   3) = (  0.2568280  0.2290890  0.2624720  )
         4           O   tau(   4) = (  0.7709110  0.7431720  0.2375280  )
         5           O   tau(   5) = (  0.2290890  0.2568280  0.7624720  )
         6           O   tau(   6) = (  0.7431720  0.7709110  0.7375280  )
         7           F   tau(   7) = (  0.2688530  0.7311470  0.7500000  )
         8           F   tau(   8) = (  0.7311470  0.2688530  0.2500000  )

     number of k points=    14
                       cart. coord. in units 2pi/alat
        k(    1) = (   0.0000000   0.0000000   0.0000000), wk =   0.0740741
        k(    2) = (   0.0000000   0.0000000   0.4127125), wk =   0.1481481
        k(    3) = (   0.0000000   0.3936292  -0.1257814), wk =   0.1481481
        k(    4) = (   0.0000000   0.3936292   0.2869311), wk =   0.1481481
        k(    5) = (   0.0000000   0.3936292  -0.5384939), wk =   0.1481481
        k(    6) = (   0.3333333  -0.2093630  -0.1257814), wk =   0.1481481
        k(    7) = (   0.3333333  -0.2093630   0.2869311), wk =   0.1481481
        k(    8) = (   0.3333333  -0.2093630  -0.5384939), wk =   0.1481481
        k(    9) = (   0.3333333   0.1842663  -0.2515629), wk =   0.1481481
        k(   10) = (   0.3333333   0.1842663   0.1611496), wk =   0.1481481
        k(   11) = (   0.3333333   0.1842663  -0.6642754), wk =   0.1481481
        k(   12) = (   0.3333333  -0.6029922  -0.0000000), wk =   0.1481481
        k(   13) = (   0.3333333  -0.6029922   0.4127125), wk =   0.1481481
        k(   14) = (   0.3333333  -0.6029922  -0.4127125), wk =   0.1481481

                       cryst. coord.
        k(    1) = (   0.0000000   0.0000000   0.0000000), wk =   0.0740741
        k(    2) = (   0.0000000   0.0000000   0.3333333), wk =   0.1481481
        k(    3) = (   0.0000000   0.3333333  -0.0000000), wk =   0.1481481
        k(    4) = (   0.0000000   0.3333333   0.3333333), wk =   0.1481481
        k(    5) = (   0.0000000   0.3333333  -0.3333333), wk =   0.1481481
        k(    6) = (   0.3333333  -0.0000000  -0.0000000), wk =   0.1481481
        k(    7) = (   0.3333333  -0.0000000   0.3333333), wk =   0.1481481
        k(    8) = (   0.3333333  -0.0000000  -0.3333333), wk =   0.1481481
        k(    9) = (   0.3333333   0.3333333  -0.0000000), wk =   0.1481481
        k(   10) = (   0.3333333   0.3333333   0.3333333), wk =   0.1481481
        k(   11) = (   0.3333333   0.3333333  -0.3333333), wk =   0.1481481
        k(   12) = (   0.3333333  -0.3333333   0.0000000), wk =   0.1481481
        k(   13) = (   0.3333333  -0.3333333   0.3333333), wk =   0.1481481
        k(   14) = (   0.3333333  -0.3333333  -0.3333333), wk =   0.1481481

     Check: negative core charge=   -0.000008

     Initial potential from superposition of free atoms

     starting charge      65.7993, renormalised to      66.0000

     negative rho (up, down):  1.279E-01 0.000E+00
     Starting wfcs are   50 randomized atomic wfcs +   14 random wfcs
     Checking if some PAW data can be deallocated...

     Self-consistent Calculation

     iteration #  1     ecut=    30.00 Ry     beta= 0.70
     Davidson diagonalization with overlap

     ethr =  1.00E-02,  avg # of iterations =  7.7

     negative rho (up, down):  1.224E-01 0.000E+00

     total energy              =    -580.90988553 Ry
     estimated scf accuracy    <       2.38410781 Ry

[...]

     total energy              =    -582.19794552 Ry
     estimated scf accuracy    <       0.00000127 Ry

     iteration # 17     ecut=    30.00 Ry     beta= 0.70
     Davidson diagonalization with overlap

     ethr =  1.92E-09,  avg # of iterations =  1.0

     negative rho (up, down):  1.244E-01 0.000E+00

     End of self-consistent calculation

          k = 0.0000 0.0000 0.0000 (  2361 PWs)   bands (ev):

   -69.6606 -69.6593 -33.9729 -33.9660 -33.9148 -33.8720 -33.7361 -33.7301
   -18.8371 -18.3828 -13.4017 -12.9146 -11.8133 -11.8106  -2.9148  -1.8709
    -1.6672  -0.8853  -0.8017  -0.7965  -0.2217   0.4251   0.4285   2.2322
     2.2557   2.6039   2.6269   2.7626   3.3672   3.6159   3.6219   4.2085
     5.6047   5.6056   6.1250   7.6525   9.1283   9.1656   9.8651  10.1391
    10.7128  12.3626  13.7045  15.7483  16.2357  17.2919  17.3318  17.8889
    17.9749  18.0159  18.3141  18.5306  18.7979  19.1890  19.7230  19.7432
    20.2871  24.4679  24.5509  24.8738  24.8909  25.6605  26.0024  27.1532

     occupation numbers
     1.0000   1.0000   1.0000   1.0000   1.0000   1.0000   1.0000   1.0000
     1.0000   1.0000   1.0000   1.0000   1.0000   1.0000   1.0000   1.0000
     1.0000   1.0000   1.0000   1.0000   1.0000   1.0000   1.0000   1.0000
     1.0000   1.0000   1.0000   1.0000   1.0000   1.0000   1.0000   1.0000
     1.0000   0.0000   0.0000   0.0000   0.0000   0.0000   0.0000   0.0000
     0.0000   0.0000   0.0000   0.0000   0.0000   0.0000   0.0000   0.0000
     0.0000   0.0000   0.0000   0.0000   0.0000   0.0000   0.0000   0.0000
     0.0000   0.0000   0.0000   0.0000   0.0000   0.0000   0.0000   0.0000

[...]

          k = 0.3333-0.6030-0.4127 (  2356 PWs)   bands (ev):

   -69.6600 -69.6600 -33.9702 -33.9670 -33.9065 -33.8806 -33.7357 -33.7321
   -18.7176 -18.5061 -13.1644 -12.9068 -12.1344 -11.8447  -2.4793  -1.7898
    -1.4117  -0.9590  -0.4726  -0.1339   0.1634   0.2378   0.7819   1.3238
     1.6654   1.8530   2.3504   2.5551   2.6101   2.8783   3.0001   3.5971
     6.4668   6.6789   8.1804   8.3942   8.7989   9.0293   9.1217  10.1814
    11.8248  12.5658  13.5527  13.6781  15.5609  16.0801  16.5828  18.0466
    18.8721  18.9230  19.1543  19.5450  19.7967  20.4112  20.7521  21.3385
    21.7362  22.2358  22.7298  23.4673  25.3791  25.8641  25.9685  26.2155

     occupation numbers
     1.0000   1.0000   1.0000   1.0000   1.0000   1.0000   1.0000   1.0000
     1.0000   1.0000   1.0000   1.0000   1.0000   1.0000   1.0000   1.0000
     1.0000   1.0000   1.0000   1.0000   1.0000   1.0000   1.0000   1.0000
     1.0000   1.0000   1.0000   1.0000   1.0000   1.0000   1.0000   1.0000
     1.0000   0.0000   0.0000   0.0000   0.0000   0.0000   0.0000   0.0000
     0.0000   0.0000   0.0000   0.0000   0.0000   0.0000   0.0000   0.0000
     0.0000   0.0000   0.0000   0.0000   0.0000   0.0000   0.0000   0.0000
     0.0000   0.0000   0.0000   0.0000   0.0000   0.0000   0.0000   0.0000

     highest occupied, lowest unoccupied level (ev):     7.1296    5.6056

!    total energy              =    -582.19794518 Ry
     estimated scf accuracy    <       0.00000078 Ry

     The total energy is the sum of the following terms:
     one-electron contribution =    -294.48102918 Ry
     hartree contribution      =     170.81225058 Ry
     xc contribution           =    -130.25773448 Ry
     ewald contribution        =    -290.17604749 Ry
     one-center paw contrib.   =     -38.09538462 Ry
      -> PAW hartree energy AE =       0.00000000 Ry
      -> PAW hartree energy PS =       0.00000000 Ry
      -> PAW xc energy AE      =       0.00000000 Ry
      -> PAW xc energy PS      =       0.00000000 Ry
      -> total E_H with PAW    =     170.81225058 Ry
      -> total E_XC with PAW   =    -130.25773448 Ry

     convergence has been achieved in  17 iterations

     Writing all to output data dir calculations_bands/myprefix.save/

     General routines

     Parallel routines

     PAW routines

   This run was terminated on:  20: 0:54   6Jun2023

   JOB DONE.