     Program PWSCF v.7.1 starts on 17Jul2023 at  1:42:20

     Reading input from espresso_17334.pwi
Warning: card &CELL ignored
Warning: card / ignored

     Current dimensions of program PWSCF are:
     Max number of different atomic species (ntypx) = 10
     Max number of k-points (npk) =  40000
     Max angular momentum in pseudopotentials (lmaxx) =  4
     file Ba.pbe-spn-kjpaw_psl.1.0.0.UPF: wavefunction(s)  5S 6S renormalized
     Message from routine setup:
     using ibrav=0 with symmetry is DISCOURAGED, use correct ibrav instead

     K-points division:     npool     =       2
     R & G space division:  proc/nbgrp/npool/nimage =       4
     Subspace diagonalization in iterative solution of the eigenvalue problem:
     one sub-group per band group will be used

     Using Slab Decomposition

     bravais-lattice index     =            0
     lattice parameter (alat)  =      17.6304  a.u.
     unit-cell volume          =    5313.2821 (a.u.)^3
     number of atoms/cell      =           18
     number of atomic types    =            3
     number of electrons       =       144.00
     number of Kohn-Sham states=          256
     kinetic-energy cutoff     =      30.0000  Ry
     charge density cutoff     =     240.0000  Ry
     scf convergence threshold =      1.0E-06
     mixing beta               =       0.7000
     number of iterations used =            8  plain     mixing
     Exchange-correlation= SLA  PW   PBX  PBC
                           (   1   4   3   4   0   0   0)

     celldm(1)=  17.630365  celldm(2)=   0.000000  celldm(3)=   0.000000
     celldm(4)=   0.000000  celldm(5)=   0.000000  celldm(6)=   0.000000

     crystal axes: (cart. coord. in units of alat)
               a(1) = (   1.000000   0.000000   0.000000 )
               a(2) = (  -0.499966   0.866045   0.000000 )
               a(3) = (   0.022502   0.038972   1.119537 )

     reciprocal axes: (cart. coord. in units 2 pi/alat)
               b(1) = (  1.000000  0.577298 -0.040195 )
               b(2) = (  0.000000  1.154674 -0.040195 )
               b(3) = (  0.000000  0.000000  0.893226 )

     PseudoPot. # 1 for Ba read from file:
     /lustre07/scratch/pragov/crystal_structure_design/utils/SSSP/Ba.pbe-spn-kjpaw_psl.1.0.0.UPF
     MD5 check sum: c432291d3e53af55f19d5e8866385beb
     Pseudo is Projector augmented-wave + core cor, Zval = 10.0
     Generated using "atomic" code by A. Dal Corso  v.5.1
     Shape of augmentation charge: PSQ
     Using radial grid of 1251 points,  7 beta functions with:
                l(1) =   0
                l(2) =   0
                l(3) =   0
                l(4) =   1
                l(5) =   1
                l(6) =   2
                l(7) =   2
     Q(r) pseudized with 0 coefficients

     PseudoPot. # 2 for Sr read from file:
     /lustre07/scratch/pragov/crystal_structure_design/utils/SSSP/Sr_pbe_v1.uspp.F.UPF
     MD5 check sum: 6b418c05fbe9db5448babca5e47b7a5b
     Pseudo is Ultrasoft + core correction, Zval = 10.0
     Generated by new atomic code, or converted to UPF format
     Using radial grid of  883 points,  6 beta functions with:
                l(1) =   0
                l(2) =   0
                l(3) =   1
                l(4) =   1
                l(5) =   2
                l(6) =   2
     Q(r) pseudized with  6 coefficients,  rinner =    1.400   1.400   1.400
                                                       1.400   1.400

     PseudoPot. # 3 for I  read from file:
     /lustre07/scratch/pragov/crystal_structure_design/utils/SSSP/I.pbe-n-kjpaw_psl.0.2.UPF
     MD5 check sum: d4ef18d9c8f18dc85e5843bca1e50dc0
     Pseudo is Projector augmented-wave + core cor, Zval =  7.0
     Generated using "atomic" code by A. Dal Corso  v.5.0.99 svn rev. 10869
     Shape of augmentation charge: PSQ
     Using radial grid of 1247 points,  4 beta functions with:
                l(1) =   0
                l(2) =   0
                l(3) =   1
                l(4) =   1
     Q(r) pseudized with 0 coefficients

     atomic species   valence    mass     pseudopotential
        Ba            10.00   137.32700     Ba( 1.00)
        Sr            10.00    87.62000     Sr( 1.00)
        I              7.00   126.90447     I ( 1.00)

      2 Sym. Ops., with inversion, found

                                    s                        frac. trans.

      isym =  1     identity

 cryst.   s( 1) = (     1          0          0      )
                  (     0          1          0      )
                  (     0          0          1      )

 cart.    s( 1) = (  1.0000000  0.0000000 -0.0000000 )
                  (  0.0000000  1.0000000  0.0000000 )
                  (  0.0000000  0.0000000  1.0000000 )

      isym =  2     inversion

 cryst.   s( 2) = (    -1          0          0      )
                  (     0         -1          0      )
                  (     0          0         -1      )

 cart.    s( 2) = ( -1.0000000  0.0000000  0.0000000 )
                  (  0.0000000 -1.0000000  0.0000000 )
                  (  0.0000000  0.0000000 -1.0000000 )

   Cartesian axes

     site n.     atom                  positions (alat units)
         1           Ba  tau(   1) = (  -0.0124635   0.5479484   0.5508347  )
         2           Ba  tau(   2) = (   0.0305055   0.6223695   0.0089339  )
         3           Ba  tau(   3) = (   0.4920302   0.2826478   1.1106033  )
         4           Ba  tau(   4) = (   0.5349991   0.3570688   0.5687025  )
         5           Sr  tau(   5) = (  -0.4229002   0.8345401   0.2798843  )
         6           Sr  tau(   6) = (   0.9454359   0.0704772   0.8396529  )
         7           I   tau(   7) = (   0.1368457   0.3084932   0.1652717  )
         8           I   tau(   8) = (   0.7122590   0.4910193   0.2370027  )
         9           I   tau(   9) = (  -0.3404992   0.7204708   0.6178110  )
        10           I   tau(  10) = (  -0.2604117   0.8591801   1.0614948  )
        11           I   tau(  11) = (   0.4421453   0.0231898   0.3227659  )
        12           I   tau(  12) = (   0.3125340   0.6127805   0.3944969  )
        13           I   tau(  13) = (   0.2100016   0.2922367   0.7250403  )
        14           I   tau(  14) = (   0.0803904   0.8818274   0.7967713  )
        15           I   tau(  15) = (   0.7829473   0.0458372   0.0580424  )
        16           I   tau(  16) = (   0.8630348   0.1845465   0.5017262  )
        17           I   tau(  17) = (  -0.1897233   0.4139979   0.8825345  )
        18           I   tau(  18) = (   0.3856899   0.5965241   0.9542655  )

   Crystallographic axes

     site n.     atom                  positions (cryst. coord.)
         1           Ba  tau(   1) = (  0.2817250  0.6105610  0.4920200  )
         2           Ba  tau(   2) = (  0.3894390  0.7182750  0.0079800  )
         3           Ba  tau(   3) = (  0.6105610  0.2817250  0.9920200  )
         4           Ba  tau(   4) = (  0.7182750  0.3894390  0.5079800  )
         5           Sr  tau(   5) = (  0.0476280  0.9523720  0.2500000  )
         6           Sr  tau(   6) = (  0.9523720  0.0476280  0.7500000  )
         7           I   tau(   7) = (  0.3082950  0.3495660  0.1476250  )
         8           I   tau(   8) = (  0.9861970  0.5574410  0.2116970  )
         9           I   tau(   9) = (  0.0505940  0.8070760  0.5518450  )
        10           I   tau(  10) = (  0.1929240  0.9494060  0.9481550  )
        11           I   tau(  11) = (  0.4425590  0.0138030  0.2883030  )
        12           I   tau(  12) = (  0.6504340  0.6917050  0.3523750  )
        13           I   tau(  13) = (  0.3495660  0.3082950  0.6476250  )
        14           I   tau(  14) = (  0.5574410  0.9861970  0.7116970  )
        15           I   tau(  15) = (  0.8070760  0.0505940  0.0518450  )
        16           I   tau(  16) = (  0.9494060  0.1929240  0.4481550  )
        17           I   tau(  17) = (  0.0138030  0.4425590  0.7883030  )
        18           I   tau(  18) = (  0.6917050  0.6504340  0.8523750  )

     number of k points=    14
                       cart. coord. in units 2pi/alat
        k(    1) = (   0.0000000   0.0000000   0.0000000), wk =   0.0740741
        k(    2) = (   0.0000000   0.0000000   0.2977421), wk =   0.1481481
        k(    3) = (   0.0000000   0.3848915  -0.0133985), wk =   0.1481481
        k(    4) = (   0.0000000   0.3848915   0.2843436), wk =   0.1481481
        k(    5) = (   0.0000000   0.3848915  -0.3111405), wk =   0.1481481
        k(    6) = (   0.3333333   0.1924327  -0.0133985), wk =   0.1481481
        k(    7) = (   0.3333333   0.1924327   0.2843436), wk =   0.1481481
        k(    8) = (   0.3333333   0.1924327  -0.3111405), wk =   0.1481481
        k(    9) = (   0.3333333   0.5773241  -0.0267969), wk =   0.1481481
        k(   10) = (   0.3333333   0.5773241   0.2709451), wk =   0.1481481
        k(   11) = (   0.3333333   0.5773241  -0.3245390), wk =   0.1481481
        k(   12) = (   0.3333333  -0.1924588  -0.0000000), wk =   0.1481481
        k(   13) = (   0.3333333  -0.1924588   0.2977421), wk =   0.1481481
        k(   14) = (   0.3333333  -0.1924588  -0.2977421), wk =   0.1481481

                       cryst. coord.
        k(    1) = (   0.0000000   0.0000000   0.0000000), wk =   0.0740741
        k(    2) = (   0.0000000   0.0000000   0.3333333), wk =   0.1481481
        k(    3) = (   0.0000000   0.3333333   0.0000000), wk =   0.1481481
        k(    4) = (   0.0000000   0.3333333   0.3333333), wk =   0.1481481
        k(    5) = (   0.0000000   0.3333333  -0.3333333), wk =   0.1481481
        k(    6) = (   0.3333333   0.0000000   0.0000000), wk =   0.1481481
        k(    7) = (   0.3333333   0.0000000   0.3333333), wk =   0.1481481
        k(    8) = (   0.3333333   0.0000000  -0.3333333), wk =   0.1481481
        k(    9) = (   0.3333333   0.3333333   0.0000000), wk =   0.1481481
        k(   10) = (   0.3333333   0.3333333   0.3333333), wk =   0.1481481
        k(   11) = (   0.3333333   0.3333333  -0.3333333), wk =   0.1481481
        k(   12) = (   0.3333333  -0.3333333  -0.0000000), wk =   0.1481481
        k(   13) = (   0.3333333  -0.3333333   0.3333333), wk =   0.1481481
        k(   14) = (   0.3333333  -0.3333333  -0.3333333), wk =   0.1481481

     Check: negative core charge=   -0.000001

     Initial potential from superposition of free atoms

     starting charge     143.8638, renormalised to     144.0000

     negative rho (up, down):  1.259E-01 0.000E+00
     Starting wfcs are   94 randomized atomic wfcs +  162 random wfcs
     Checking if some PAW data can be deallocated...

     Self-consistent Calculation

     iteration #  1     ecut=    30.00 Ry     beta= 0.70
     Davidson diagonalization with overlap

     ethr =  1.00E-02,  avg # of iterations =  7.1

     Threshold (ethr) on eigenvalues was too large:
     Diagonalizing with lowered threshold

     Davidson diagonalization with overlap

[...]

     negative rho (up, down):  3.431E-01 0.000E+00

     total energy              =   -6434.15071218 Ry
     estimated scf accuracy    <       0.69601879 Ry

[...]

     total energy              =   -6434.23428218 Ry
     estimated scf accuracy    <       0.00000253 Ry

     iteration # 15     ecut=    30.00 Ry     beta= 0.70
     Davidson diagonalization with overlap

     ethr =  1.76E-09,  avg # of iterations =  1.0

     negative rho (up, down):  1.313E-01 0.000E+00

     End of self-consistent calculation

          k = 0.0000 0.0000 0.0000 ( 14787 PWs)   bands (ev):

   -30.6575 -30.6573 -23.4061 -23.4047 -23.4001 -23.3988 -12.6812 -12.6740
   -12.6502 -12.6452 -12.6433 -12.6319  -8.7964  -8.7889  -8.7494  -8.6401
    -8.6363  -8.6127  -8.6079  -8.5872  -8.5662  -8.5584  -8.5452  -8.5391
    -7.6594  -7.2713  -7.2428  -7.2054  -7.1897  -7.1536  -7.1520  -7.0962
    -7.0923  -6.9407  -6.9365  -6.8768   1.1237   1.2567   1.4323   1.4333
     1.4799   1.7100   1.8006   1.8091   1.8327   2.0426   2.0881   2.1882
     2.3354   2.3894   2.4633   2.5265   2.5493   2.6286   2.6435   2.6926
     2.7501   2.8518   2.8756   2.9809   2.9829   3.0245   3.0464   3.0658
     3.1607   3.1982   3.2326   3.3972   3.6369   3.6858   3.7994   3.9712
     7.0527   7.2499   7.4399   7.5399   7.6827   7.9174   7.9186   8.0601
     8.2533   8.2974   8.3660   8.4167   8.4778   8.5654   8.6583   8.7135
     8.7150   8.7862   8.8246   8.9216   8.9713   9.0339   9.0751   9.2685
     9.3081   9.3428   9.4042   9.4821   9.4873   9.6374   9.7209   9.7628
    10.0046  10.1724  10.2828  10.5550  10.6445  10.6795  10.8457  10.9165
    10.9359  11.1046  11.1052  11.1792  11.3262  11.5706  11.7155  11.8277
    11.9205  12.0640  12.1321  12.1487  12.2191  12.2719  12.3932  12.4946
    12.5709  12.5892  12.5987  12.7008  12.7293  12.8897  12.8999  12.9317
    13.2520  13.4291  13.5482  13.5735  13.8845  14.1002  14.1174  14.1534
    14.2003  14.3427  14.3556  14.4553  14.4640  14.5956  14.7379  14.7787
    14.9041  15.0350  15.0671  15.1201  15.3993  15.4878  15.5059  15.6316
    15.6360  15.7599  15.8188  15.8603  15.8643  16.2412  16.3574  16.5019
    16.5768  16.6905  16.7742  16.7994  16.8930  17.0169  17.0367  17.1072
    17.1453  17.2739  17.2822  17.2833  17.6385  17.7027  17.7104  17.7317
    17.9409  18.0087  18.0175  18.1138  18.1492  18.1831  18.3230  18.4234
    18.4768  18.5366  18.6003  18.7029  18.7644  18.7920  18.9075  18.9909
    19.0809  19.1244  19.1952  19.2444  19.4270  19.4640  19.4888  19.5495
    19.8544  19.8713  19.9734  20.0482  20.0974  20.1411  20.1546  20.1893
    20.2260  20.2405  20.6065  20.6299  20.8416  20.8668  20.9336  21.0379
    21.2612  21.3015  21.3721  21.4499  21.4714  21.4759  21.6520  21.6680
    21.8031  22.1058  22.1220  22.1390  22.2917  22.3198  22.3385  22.3388
    22.4596  22.5272  22.7406  22.8302  22.8588  22.9043  22.9069  22.9886
    23.0356  23.1663  23.3330  23.3930  23.4059  23.6137  23.6323  23.6431

     occupation numbers
     1.0000   1.0000   1.0000   1.0000   1.0000   1.0000   1.0000   1.0000
     1.0000   1.0000   1.0000   1.0000   1.0000   1.0000   1.0000   1.0000
     1.0000   1.0000   1.0000   1.0000   1.0000   1.0000   1.0000   1.0000
     1.0000   1.0000   1.0000   1.0000   1.0000   1.0000   1.0000   1.0000
     1.0000   1.0000   1.0000   1.0000   1.0000   1.0000   1.0000   1.0000
     1.0000   1.0000   1.0000   1.0000   1.0000   1.0000   1.0000   1.0000
     1.0000   1.0000   1.0000   1.0000   1.0000   1.0000   1.0000   1.0000
     1.0000   1.0000   1.0000   1.0000   1.0000   1.0000   1.0000   1.0000
     1.0000   1.0000   1.0000   1.0000   1.0000   1.0000   1.0000   1.0000
     0.0000   0.0000   0.0000   0.0000   0.0000   0.0000   0.0000   0.0000
     0.0000   0.0000   0.0000   0.0000   0.0000   0.0000   0.0000   0.0000
     0.0000   0.0000   0.0000   0.0000   0.0000   0.0000   0.0000   0.0000
     0.0000   0.0000   0.0000   0.0000   0.0000   0.0000   0.0000   0.0000
     0.0000   0.0000   0.0000   0.0000   0.0000   0.0000   0.0000   0.0000
     0.0000   0.0000   0.0000   0.0000   0.0000   0.0000   0.0000   0.0000
     0.0000   0.0000   0.0000   0.0000   0.0000   0.0000   0.0000   0.0000
     0.0000   0.0000   0.0000   0.0000   0.0000   0.0000   0.0000   0.0000
     0.0000   0.0000   0.0000   0.0000   0.0000   0.0000   0.0000   0.0000
     0.0000   0.0000   0.0000   0.0000   0.0000   0.0000   0.0000   0.0000
     0.0000   0.0000   0.0000   0.0000   0.0000   0.0000   0.0000   0.0000
     0.0000   0.0000   0.0000   0.0000   0.0000   0.0000   0.0000   0.0000
     0.0000   0.0000   0.0000   0.0000   0.0000   0.0000   0.0000   0.0000
     0.0000   0.0000   0.0000   0.0000   0.0000   0.0000   0.0000   0.0000
     0.0000   0.0000   0.0000   0.0000   0.0000   0.0000   0.0000   0.0000
     0.0000   0.0000   0.0000   0.0000   0.0000   0.0000   0.0000   0.0000
     0.0000   0.0000   0.0000   0.0000   0.0000   0.0000   0.0000   0.0000
     0.0000   0.0000   0.0000   0.0000   0.0000   0.0000   0.0000   0.0000
     0.0000   0.0000   0.0000   0.0000   0.0000   0.0000   0.0000   0.0000
     0.0000   0.0000   0.0000   0.0000   0.0000   0.0000   0.0000   0.0000
     0.0000   0.0000   0.0000   0.0000   0.0000   0.0000   0.0000   0.0000
     0.0000   0.0000   0.0000   0.0000   0.0000   0.0000   0.0000   0.0000
     0.0000   0.0000   0.0000   0.0000   0.0000   0.0000   0.0000   0.0000

[...]

          k = 0.3333-0.1925-0.2977 ( 14728 PWs)   bands (ev):

   -30.6575 -30.6574 -23.4052 -23.4045 -23.4003 -23.3996 -12.6790 -12.6754
   -12.6500 -12.6474 -12.6400 -12.6344  -8.7730  -8.7708  -8.7069  -8.6851
    -8.6701  -8.6311  -8.6138  -8.6027  -8.5783  -8.5676  -8.5364  -8.5341
    -7.4442  -7.3193  -7.2434  -7.2308  -7.2040  -7.1858  -7.1205  -7.1122
    -7.0501  -7.0204  -6.9402  -6.9177   1.2347   1.3986   1.4171   1.5393
     1.6336   1.7150   1.7986   1.8352   1.8690   1.9815   2.0230   2.0806
     2.1583   2.2629   2.2743   2.3491   2.4393   2.5741   2.6334   2.6991
     2.7691   2.8057   2.9044   2.9750   3.0803   3.1490   3.1696   3.1994
     3.2536   3.2752   3.3536   3.4147   3.4679   3.6040   3.7833   3.8723
     7.1480   7.4515   7.4921   7.6465   7.9068   7.9294   7.9850   8.1181
     8.1418   8.2003   8.2812   8.3889   8.4653   8.5099   8.6153   8.6570
     8.7751   8.8649   8.9081   8.9489   9.0001   9.0225   9.0733   9.1669
     9.2030   9.2330   9.4005   9.4307   9.4860   9.6003   9.7609   9.7936
     9.8592  10.0699  10.1803  10.3942  10.4901  10.5694  10.7116  10.7540
    11.0476  11.1854  11.2110  11.2861  11.5902  11.6781  11.6890  11.7918
    11.9097  11.9931  12.0539  12.2362  12.2750  12.3692  12.4495  12.4968
    12.5372  12.6847  12.7285  12.8726  12.9950  13.0646  13.1755  13.1979
    13.2650  13.3376  13.3901  13.5129  13.6388  13.7233  13.8276  13.9378
    14.0277  14.1988  14.2995  14.4497  14.5187  14.6226  14.6927  14.7397
    14.8390  14.9021  15.0835  15.1900  15.3008  15.3601  15.5236  15.6187
    15.6481  15.7245  15.8189  15.8904  16.0028  16.1205  16.2296  16.3287
    16.3858  16.5371  16.6469  16.7305  16.8264  16.9514  16.9653  17.1077
    17.2017  17.2814  17.4418  17.5443  17.6159  17.7133  17.8560  17.8937
    17.9824  18.0610  18.1475  18.2296  18.3100  18.4564  18.5447  18.5600
    18.6395  18.6512  18.7664  18.8407  18.8639  18.9075  18.9922  19.0780
    19.1351  19.1577  19.2144  19.3251  19.6186  19.6694  19.7218  19.7830
    19.8104  19.9276  19.9555  20.1611  20.2635  20.2973  20.3746  20.4216
    20.5104  20.6079  20.6371  20.6867  20.7403  20.9533  20.9882  21.0917
    21.1281  21.2443  21.3299  21.3698  21.4700  21.5291  21.6284  21.6855
    21.8061  21.8219  21.8767  21.9049  22.1006  22.1251  22.1600  22.1924
    22.2977  22.4282  22.4744  22.5351  22.6742  22.6947  22.7684  22.8420
    22.9885  23.0521  23.1127  23.2110  23.2793  23.3694  23.4107  23.4964

     occupation numbers
     1.0000   1.0000   1.0000   1.0000   1.0000   1.0000   1.0000   1.0000
     1.0000   1.0000   1.0000   1.0000   1.0000   1.0000   1.0000   1.0000
     1.0000   1.0000   1.0000   1.0000   1.0000   1.0000   1.0000   1.0000
     1.0000   1.0000   1.0000   1.0000   1.0000   1.0000   1.0000   1.0000
     1.0000   1.0000   1.0000   1.0000   1.0000   1.0000   1.0000   1.0000
     1.0000   1.0000   1.0000   1.0000   1.0000   1.0000   1.0000   1.0000
     1.0000   1.0000   1.0000   1.0000   1.0000   1.0000   1.0000   1.0000
     1.0000   1.0000   1.0000   1.0000   1.0000   1.0000   1.0000   1.0000
     1.0000   1.0000   1.0000   1.0000   1.0000   1.0000   1.0000   1.0000
     0.0000   0.0000   0.0000   0.0000   0.0000   0.0000   0.0000   0.0000
     0.0000   0.0000   0.0000   0.0000   0.0000   0.0000   0.0000   0.0000
     0.0000   0.0000   0.0000   0.0000   0.0000   0.0000   0.0000   0.0000
     0.0000   0.0000   0.0000   0.0000   0.0000   0.0000   0.0000   0.0000
     0.0000   0.0000   0.0000   0.0000   0.0000   0.0000   0.0000   0.0000
     0.0000   0.0000   0.0000   0.0000   0.0000   0.0000   0.0000   0.0000
     0.0000   0.0000   0.0000   0.0000   0.0000   0.0000   0.0000   0.0000
     0.0000   0.0000   0.0000   0.0000   0.0000   0.0000   0.0000   0.0000
     0.0000   0.0000   0.0000   0.0000   0.0000   0.0000   0.0000   0.0000
     0.0000   0.0000   0.0000   0.0000   0.0000   0.0000   0.0000   0.0000
     0.0000   0.0000   0.0000   0.0000   0.0000   0.0000   0.0000   0.0000
     0.0000   0.0000   0.0000   0.0000   0.0000   0.0000   0.0000   0.0000
     0.0000   0.0000   0.0000   0.0000   0.0000   0.0000   0.0000   0.0000
     0.0000   0.0000   0.0000   0.0000   0.0000   0.0000   0.0000   0.0000
     0.0000   0.0000   0.0000   0.0000   0.0000   0.0000   0.0000   0.0000
     0.0000   0.0000   0.0000   0.0000   0.0000   0.0000   0.0000   0.0000
     0.0000   0.0000   0.0000   0.0000   0.0000   0.0000   0.0000   0.0000
     0.0000   0.0000   0.0000   0.0000   0.0000   0.0000   0.0000   0.0000
     0.0000   0.0000   0.0000   0.0000   0.0000   0.0000   0.0000   0.0000
     0.0000   0.0000   0.0000   0.0000   0.0000   0.0000   0.0000   0.0000
     0.0000   0.0000   0.0000   0.0000   0.0000   0.0000   0.0000   0.0000
     0.0000   0.0000   0.0000   0.0000   0.0000   0.0000   0.0000   0.0000
     0.0000   0.0000   0.0000   0.0000   0.0000   0.0000   0.0000   0.0000

     highest occupied, lowest unoccupied level (ev):     3.9818    7.0492

!    total energy              =   -6434.23428220 Ry
     estimated scf accuracy    <       0.00000001 Ry

     The total energy is the sum of the following terms:
     one-electron contribution =     -69.48516820 Ry
     hartree contribution      =      94.47352861 Ry
     xc contribution           =    -618.76597303 Ry
     ewald contribution        =    -494.34033333 Ry
     one-center paw contrib.   =   -5346.11633626 Ry
      -> PAW hartree energy AE =      85.25982576 Ry
      -> PAW hartree energy PS =     -84.92621358 Ry
      -> PAW xc energy AE      =   -1182.53431890 Ry
      -> PAW xc energy PS      =      57.35013382 Ry
      -> total E_H with PAW    =      94.80714078 Ry
      -> total E_XC with PAW   =   -1743.95015811 Ry

     convergence has been achieved in  15 iterations

     Writing all to output data dir bands_nm/myprefix.save/

     General routines

     Parallel routines

     PAW routines

   This run was terminated on:   1:46:40  17Jul2023

   JOB DONE.