     Program PWSCF v.7.1 starts on 15Jul2023 at 14: 9:21

     Reading input from espresso_12629.pwi
Warning: card &CELL ignored
Warning: card / ignored

     Current dimensions of program PWSCF are:
     Max number of different atomic species (ntypx) = 10
     Max number of k-points (npk) =  40000
     Max angular momentum in pseudopotentials (lmaxx) =  4
     file Ce.paw.z_12.atompaw.wentzcovitch.v1.2.upf: wavefunction(s)  6S 0P 5D 0D 4F 0F renormalized
     Message from routine setup:
     the system is metallic, specify occupations
     Message from routine setup:
     using ibrav=0 with symmetry is DISCOURAGED, use correct ibrav instead

     K-points division:     npool     =       2
     R & G space division:  proc/nbgrp/npool/nimage =       4
     Subspace diagonalization in iterative solution of the eigenvalue problem:
     a serial algorithm will be used

     Using Slab Decomposition

     bravais-lattice index     =            0
     lattice parameter (alat)  =      16.8083  a.u.
     unit-cell volume          =    3357.8228 (a.u.)^3
     number of atoms/cell      =           10
     number of atomic types    =            4
     number of electrons       =        81.00 (up:  41.00, down:  40.00)
     number of Kohn-Sham states=           64
     kinetic-energy cutoff     =      30.0000  Ry
     charge density cutoff     =     240.0000  Ry
     scf convergence threshold =      1.0E-06
     mixing beta               =       0.7000
     number of iterations used =            8  plain     mixing
     Exchange-correlation= SLA  PW   PBX  PBC
                           (   1   4   3   4   0   0   0)

     celldm(1)=  16.808318  celldm(2)=   0.000000  celldm(3)=   0.000000
     celldm(4)=   0.000000  celldm(5)=   0.000000  celldm(6)=   0.000000

     crystal axes: (cart. coord. in units of alat)
               a(1) = (   1.000000   0.000000   0.000000 )
               a(2) = (   0.500000   0.866025   0.000000 )
               a(3) = (   0.500000   0.288675   0.816497 )

     reciprocal axes: (cart. coord. in units 2 pi/alat)
               b(1) = (  1.000000 -0.577350 -0.408248 )
               b(2) = (  0.000000  1.154701 -0.408248 )
               b(3) = (  0.000000  0.000000  1.224745 )

     PseudoPot. # 1 for Cs read from file:
     /lustre07/scratch/pragov/crystal_structure_design/utils/SSSP/Cs_pbe_v1.uspp.F.UPF
     MD5 check sum: 3476d69cb178dfad3ffaa59df4e07ca4
     Pseudo is Ultrasoft + core correction, Zval =  9.0
     Generated by new atomic code, or converted to UPF format
     Using radial grid of  905 points,  6 beta functions with:
                l(1) =   0
                l(2) =   0
                l(3) =   1
                l(4) =   1
                l(5) =   2
                l(6) =   2
     Q(r) pseudized with  6 coefficients,  rinner =    1.500   1.500   1.500
                                                       1.500   1.500

     PseudoPot. # 2 for Na read from file:
     /lustre07/scratch/pragov/crystal_structure_design/utils/SSSP/na_pbe_v1.5.uspp.F.UPF
     MD5 check sum: 44600605ef58000f06b90626533354dc
     Pseudo is Ultrasoft, Zval =  9.0
     Generated by new atomic code, or converted to UPF format
     Using radial grid of  819 points,  5 beta functions with:
                l(1) =   0
                l(2) =   0
                l(3) =   1
                l(4) =   1
                l(5) =   2
     Q(r) pseudized with  8 coefficients,  rinner =    1.250   1.250   1.250
                                                       1.250   1.250

     PseudoPot. # 3 for Ce read from file:
     /lustre07/scratch/pragov/crystal_structure_design/utils/SSSP/Ce.paw.z_12.atompaw.wentzcovitch.v1.2.upf
     MD5 check sum: 2241420ff980c77e0c917a2dc8a7e08e
     Pseudo is Projector augmented-wave + core cor, Zval = 12.0
     Generated using ATOMPAW code
     Shape of augmentation charge: BESSEL
     Using radial grid of 1102 points,  8 beta functions with:
                l(1) =   0
                l(2) =   0
                l(3) =   1
                l(4) =   1
                l(5) =   2
                l(6) =   2
                l(7) =   3
                l(8) =   3
     Q(r) pseudized with 0 coefficients

     PseudoPot. # 4 for I  read from file:
     /lustre07/scratch/pragov/crystal_structure_design/utils/SSSP/I.pbe-n-kjpaw_psl.0.2.UPF
     MD5 check sum: d4ef18d9c8f18dc85e5843bca1e50dc0
     Pseudo is Projector augmented-wave + core cor, Zval =  7.0
     Generated using "atomic" code by A. Dal Corso  v.5.0.99 svn rev. 10869
     Shape of augmentation charge: PSQ
     Using radial grid of 1247 points,  4 beta functions with:
                l(1) =   0
                l(2) =   0
                l(3) =   1
                l(4) =   1
     Q(r) pseudized with 0 coefficients

     atomic species   valence    mass     pseudopotential
        Cs             9.00   132.90545     Cs( 1.00)
        Na             9.00    22.98977     Na( 1.00)
        Ce            12.00   140.11600     Ce( 1.00)
        I              7.00   126.90447     I ( 1.00)

     Starting magnetic structure
     atomic species   magnetization
        Cs           0.000
        Na           0.000
        Ce           0.000
        I            0.000

     12 Sym. Ops., with inversion, found

                                    s                        frac. trans.

      isym =  1     identity

 cryst.   s( 1) = (     1          0          0      )
                  (     0          1          0      )
                  (     0          0          1      )

 cart.    s( 1) = (  1.0000000  0.0000000  0.0000000 )
                  (  0.0000000  1.0000000  0.0000000 )
                  (  0.0000000  0.0000000  1.0000000 )

      isym =  2     180 deg rotation - cart. axis [1,0,0]

[...]

      isym =  3     120 deg rotation - cryst. axis [0,0,1]

[...]

      isym =  6     180 deg rotation - cryst. axis [1,1,0]

[...]

      isym =  7     inversion

[...]

      isym =  8     inv. 180 deg rotation - cart. axis [1,0,0]

[...]

      isym =  9     inv. 120 deg rotation - cryst. axis [0,0,1]

 cryst.   s( 9) = (     1         -1          0      )
                  (     1          0          0      )
                  (     1          0         -1      )

 cart.    s( 9) = (  0.5000000  0.8660254  0.0000000 )
                  ( -0.8660254  0.5000000 -0.0000000 )
                  (  0.0000000  0.0000000 -1.0000000 )

[...]

 cryst.   s(10) = (     0          1          0      )
                  (    -1          1          0      )
                  (     0          1         -1      )

 cart.    s(10) = (  0.5000000 -0.8660254  0.0000000 )
                  (  0.8660254  0.5000000  0.0000000 )
                  (  0.0000000  0.0000000 -1.0000000 )

[...]

      isym = 12     inv. 180 deg rotation - cryst. axis [1,1,0]

 cryst.   s(12) = (     1         -1          0      )
                  (     0         -1          0      )
                  (     0         -1          1      )

 cart.    s(12) = (  0.5000000 -0.8660254  0.0000000 )
                  ( -0.8660254 -0.5000000  0.0000000 )
                  (  0.0000000  0.0000000  1.0000000 )

   Cartesian axes

     site n.     atom                  positions (alat units)
         1           Cs  tau(   1) = (   1.5000000   0.8660254   0.6123724  )
         2           Cs  tau(   2) = (   0.5000000   0.2886751   0.2041241  )
         3           Na  tau(   3) = (   1.0000000   0.5773503   0.4082483  )
         4           Ce  tau(   4) = (   0.0000000   0.0000000   0.0000000  )
         5           I   tau(   5) = (   1.0000000   0.2870020   0.2029410  )
         6           I   tau(   6) = (   0.7485510   0.4321761   0.6135555  )
         7           I   tau(   7) = (   1.0000000   0.8676986   0.6135555  )
         8           I   tau(   8) = (   0.7485510   0.7225244   0.2029410  )
         9           I   tau(   9) = (   1.2514490   0.4321761   0.6135555  )
        10           I   tau(  10) = (   1.2514490   0.7225244   0.2029410  )

   Crystallographic axes

     site n.     atom                  positions (cryst. coord.)
         1           Cs  tau(   1) = (  0.7500000  0.7500000  0.7500000  )
         2           Cs  tau(   2) = (  0.2500000  0.2500000  0.2500000  )
         3           Na  tau(   3) = (  0.5000000  0.5000000  0.5000000  )
         4           Ce  tau(   4) = (  0.0000000  0.0000000  0.0000000  )
         5           I   tau(   5) = (  0.7514490  0.2485510  0.2485510  )
         6           I   tau(   6) = (  0.2485510  0.2485510  0.7514490  )
         7           I   tau(   7) = (  0.2485510  0.7514490  0.7514490  )
         8           I   tau(   8) = (  0.2485510  0.7514490  0.2485510  )
         9           I   tau(   9) = (  0.7514490  0.2485510  0.7514490  )
        10           I   tau(  10) = (  0.7514490  0.7514490  0.2485510  )

     number of k points=     6
                       cart. coord. in units 2pi/alat
        k(    1) = (   0.0000000   0.0000000   0.0000000), wk =   0.0370370
        k(    2) = (   0.0000000   0.0000000   0.4082483), wk =   0.0740741
        k(    3) = (   0.0000000   0.3849002  -0.1360828), wk =   0.2222222
        k(    4) = (   0.0000000   0.3849002   0.2721655), wk =   0.2222222
        k(    5) = (   0.0000000   0.3849002  -0.5443311), wk =   0.2222222
        k(    6) = (   0.3333333  -0.5773503   0.0000000), wk =   0.2222222

                       cryst. coord.
        k(    1) = (   0.0000000   0.0000000   0.0000000), wk =   0.0370370
        k(    2) = (   0.0000000   0.0000000   0.3333333), wk =   0.0740741
        k(    3) = (   0.0000000   0.3333333   0.0000000), wk =   0.2222222
        k(    4) = (   0.0000000   0.3333333   0.3333333), wk =   0.2222222
        k(    5) = (   0.0000000   0.3333333  -0.3333333), wk =   0.2222222
        k(    6) = (   0.3333333  -0.3333333   0.0000000), wk =   0.2222222

     Check: negative core charge=   -0.000001
     Generating pointlists ...
     new r_m :   0.2063 (alat units)  3.4667 (a.u.) for type    1
     new r_m :   0.1467 (alat units)  2.4655 (a.u.) for type    2
     new r_m :   0.1450 (alat units)  2.4371 (a.u.) for type    3
     new r_m :   0.1450 (alat units)  2.4371 (a.u.) for type    4

     Initial potential from superposition of free atoms

     starting charge      80.9075, renormalised to      81.0000
     Starting wfcs are   87 randomized atomic wfcs
     Checking if some PAW data can be deallocated...

     Self-consistent Calculation

     iteration #  1     ecut=    30.00 Ry     beta= 0.70
     Davidson diagonalization with overlap

     ethr =  1.00E-02,  avg # of iterations =  4.2

     Threshold (ethr) on eigenvalues was too large:
     Diagonalizing with lowered threshold

     Davidson diagonalization with overlap

[...]

     total energy              =   -2976.53707831 Ry
     estimated scf accuracy    <       0.21643279 Ry

     total magnetization       =     1.00 Bohr mag/cell
     absolute magnetization    =     1.38 Bohr mag/cell

[...]

     negative rho (up, down):  0.000E+00 4.309E-05

[...]

     c_bands:  2 eigenvalues not converged
     ethr =  8.19E-06,  avg # of iterations = 10.8

[...]

     total energy              =   -2978.05260746 Ry
     estimated scf accuracy    <       0.00000886 Ry

[...]

     iteration # 11     ecut=    30.00 Ry     beta= 0.70
     Davidson diagonalization with overlap

     ethr =  1.09E-08,  avg # of iterations =  4.0

     negative rho (up, down):  0.000E+00 2.096E-03

     Magnetic moment per site  (integrated on atomic sphere of radius R)
     atom   1 (R=0.206)  charge=  7.9337  magn=  0.0001
     atom   2 (R=0.206)  charge=  7.9337  magn=  0.0001
     atom   3 (R=0.147)  charge=  8.2634  magn= -0.0014
     atom   4 (R=0.145)  charge=  9.3258  magn=  1.0144
     atom   5 (R=0.145)  charge=  5.2004  magn= -0.0078
     atom   6 (R=0.145)  charge=  5.2004  magn= -0.0078
     atom   7 (R=0.145)  charge=  5.2004  magn= -0.0078
     atom   8 (R=0.145)  charge=  5.2004  magn= -0.0078
     atom   9 (R=0.145)  charge=  5.2004  magn= -0.0078
     atom  10 (R=0.145)  charge=  5.2004  magn= -0.0078

     End of self-consistent calculation

 ------ SPIN UP ------------

          k = 0.0000 0.0000 0.0000 (  9377 PWs)   bands (ev):

   -48.8479 -31.3756 -20.7550 -20.7550 -20.7550 -18.6574 -18.6566 -14.3051
   -14.3043 -14.3043  -9.0928  -8.7864  -8.7864  -8.7288  -8.7288  -8.7288
    -5.4569  -5.4569  -5.4569  -5.4397  -5.4397  -5.4397  -0.6377   0.4145
     0.4146   0.4146   0.4344   0.4344   0.4344   0.6310   0.6310   1.4240
     1.4240   1.4240   1.6927   1.6927   1.6927   2.0085   2.0085   2.0085
     3.7344   4.2296   4.2304   4.2304   4.4654   4.4654   4.4658   5.3727
     5.3730   5.3730   5.7666   6.6836   6.7553   6.8406   6.8406   7.1870
     7.1871   7.1871   7.7824   7.7824   8.0942   8.0943   8.0943   8.8355

     occupation numbers
     1.0000   1.0000   1.0000   1.0000   1.0000   1.0000   1.0000   1.0000
     1.0000   1.0000   1.0000   1.0000   1.0000   1.0000   1.0000   1.0000
     1.0000   1.0000   1.0000   1.0000   1.0000   1.0000   1.0000   1.0000
     1.0000   1.0000   1.0000   1.0000   1.0000   1.0000   1.0000   1.0000
     1.0000   1.0000   1.0000   1.0000   1.0000   1.0000   1.0000   1.0000
     1.0000   0.0000   0.0000   0.0000   0.0000   0.0000   0.0000   0.0000
     0.0000   0.0000   0.0000   0.0000   0.0000   0.0000   0.0000   0.0000
     0.0000   0.0000   0.0000   0.0000   0.0000   0.0000   0.0000   0.0000

[...]

 ------ SPIN DOWN ----------

[...]

          k = 0.3333-0.5774 0.0000 (  9318 PWs)   bands (ev):

   -48.8480 -30.9160 -20.7545 -20.7542 -20.7541 -18.6569 -18.6569 -13.9645
   -13.9642 -13.9640  -8.9719  -8.9233  -8.8333  -8.7383  -8.7303  -8.6861
    -5.4406  -5.4390  -5.4331  -5.4323  -5.4323  -5.4317  -0.1582   0.0153
     0.3091   0.4818   0.5370   0.6957   0.7409   0.7495   0.9660   1.1792
     1.1917   1.2285   1.2775   1.2928   1.5346   1.6258   1.6326   1.8034
     4.7306   4.7359   4.7634   4.7740   4.7846   4.7941   5.5438   5.7868
     5.9944   6.0522   6.5826   7.3330   7.3674   7.4415   7.7511   7.9110
     8.0478   8.1283   8.2796   8.4019   8.4977   8.5100   8.5146   8.5971

     occupation numbers
     1.0000   1.0000   1.0000   1.0000   1.0000   1.0000   1.0000   1.0000
     1.0000   1.0000   1.0000   1.0000   1.0000   1.0000   1.0000   1.0000
     1.0000   1.0000   1.0000   1.0000   1.0000   1.0000   1.0000   1.0000
     1.0000   1.0000   1.0000   1.0000   1.0000   1.0000   1.0000   1.0000
     1.0000   1.0000   1.0000   1.0000   1.0000   1.0000   1.0000   1.0000
     0.0000   0.0000   0.0000   0.0000   0.0000   0.0000   0.0000   0.0000
     0.0000   0.0000   0.0000   0.0000   0.0000   0.0000   0.0000   0.0000
     0.0000   0.0000   0.0000   0.0000   0.0000   0.0000   0.0000   0.0000

     highest occupied, lowest unoccupied level (ev):     3.7371    4.1592

!    total energy              =   -2978.05260952 Ry
     estimated scf accuracy    <       0.00000052 Ry

     The total energy is the sum of the following terms:
     one-electron contribution =    -160.03965382 Ry
     hartree contribution      =     109.79776859 Ry
     xc contribution           =    -339.25977205 Ry
     ewald contribution        =    -260.44398416 Ry
     one-center paw contrib.   =   -2328.10696808 Ry
      -> PAW hartree energy AE =       0.00000000 Ry
      -> PAW hartree energy PS =       0.00000000 Ry
      -> PAW xc energy AE      =       0.00000000 Ry
      -> PAW xc energy PS      =       0.00000000 Ry
      -> total E_H with PAW    =     109.79776859 Ry
      -> total E_XC with PAW   =    -339.25977205 Ry

     total magnetization       =     1.00 Bohr mag/cell
     absolute magnetization    =     1.17 Bohr mag/cell

     convergence has been achieved in  11 iterations

     Writing all to output data dir bands_nm/myprefix.save/

     General routines

     Parallel routines

     PAW routines

   This run was terminated on:  14: 9:51  15Jul2023

   JOB DONE.