     Program PWSCF v.7.1 starts on 13Jul2023 at  2:23:32

     Reading input from espresso_4756.pwi
Warning: card &CELL ignored
Warning: card / ignored

     Current dimensions of program PWSCF are:
     Max number of different atomic species (ntypx) = 10
     Max number of k-points (npk) =  40000
     Max angular momentum in pseudopotentials (lmaxx) =  4
     file O.pbe-n-kjpaw_psl.0.1.UPF: wavefunction(s)  2P renormalized
     Message from routine setup:
     using ibrav=0 with symmetry is DISCOURAGED, use correct ibrav instead

     K-points division:     npool     =       2
     R & G space division:  proc/nbgrp/npool/nimage =       8
     Subspace diagonalization in iterative solution of the eigenvalue problem:
     a serial algorithm will be used

     Using Slab Decomposition

     bravais-lattice index     =            0
     lattice parameter (alat)  =      10.3194  a.u.
     unit-cell volume          =    1509.4523 (a.u.)^3
     number of atoms/cell      =           16
     number of atomic types    =            5
     number of electrons       =       124.00
     number of Kohn-Sham states=           64
     kinetic-energy cutoff     =      30.0000  Ry
     charge density cutoff     =     240.0000  Ry
     scf convergence threshold =      1.0E-06
     mixing beta               =       0.7000
     number of iterations used =            8  plain     mixing
     Exchange-correlation= SLA  PW   PBX  PBC
                           (   1   4   3   4   0   0   0)

     celldm(1)=  10.319425  celldm(2)=   0.000000  celldm(3)=   0.000000
     celldm(4)=   0.000000  celldm(5)=   0.000000  celldm(6)=   0.000000

     crystal axes: (cart. coord. in units of alat)
               a(1) = (   1.000000   0.000000   0.000000 )
               a(2) = (   0.348343   0.937367   0.000000 )
               a(3) = (   0.587728   0.408588   1.465356 )

     reciprocal axes: (cart. coord. in units 2 pi/alat)
               b(1) = (  1.000000 -0.371619 -0.297463 )
               b(2) = (  0.000000  1.066818 -0.297463 )
               b(3) = (  0.000000  0.000000  0.682428 )

     PseudoPot. # 1 for Tl read from file:
     /lustre07/scratch/pragov/crystal_structure_design/utils/SSSP/Tl_pbe_v1.2.uspp.F.UPF
     MD5 check sum: b76cf1f7e72655a2b2c53cf6385d7059
     Pseudo is Ultrasoft + core correction, Zval = 13.0
     Generated by new atomic code, or converted to UPF format
     Using radial grid of  899 points,  6 beta functions with:
                l(1) =   0
                l(2) =   0
                l(3) =   1
                l(4) =   1
                l(5) =   2
                l(6) =   2
     Q(r) pseudized with  6 coefficients,  rinner =    1.100   1.100   1.100
                                                       1.100   1.100

     PseudoPot. # 2 for Cu read from file:
     /lustre07/scratch/pragov/crystal_structure_design/utils/SSSP/Cu_pbe_v1.2.uspp.F.UPF
     MD5 check sum: 6e991ff952a84172a2a52a1c1e996048
     Pseudo is Ultrasoft + core correction, Zval = 19.0
     Generated by new atomic code, or converted to UPF format
     Using radial grid of  867 points,  6 beta functions with:
                l(1) =   0
                l(2) =   0
                l(3) =   1
                l(4) =   1
                l(5) =   2
                l(6) =   2
     Q(r) pseudized with  8 coefficients,  rinner =    1.150   1.150   1.150
                                                       1.150   1.150

     PseudoPot. # 3 for H  read from file:
     /lustre07/scratch/pragov/crystal_structure_design/utils/SSSP/H.pbe-rrkjus_psl.1.0.0.UPF
     MD5 check sum: f52b6d4d1c606e5624b1dc7b2218f220
     Pseudo is Ultrasoft, Zval =  1.0
     Generated using "atomic" code by A. Dal Corso  v.5.1
     Using radial grid of  929 points,  2 beta functions with:
                l(1) =   0
                l(2) =   0
     Q(r) pseudized with 0 coefficients

     PseudoPot. # 4 for Se read from file:
     /lustre07/scratch/pragov/crystal_structure_design/utils/SSSP/Se_pbe_v1.uspp.F.UPF
     MD5 check sum: 1b3568f3a8ae88f9a2a0ad0698632c85
     Pseudo is Ultrasoft + core correction, Zval =  6.0
     Generated by new atomic code, or converted to UPF format
     Using radial grid of  877 points,  6 beta functions with:
                l(1) =   0
                l(2) =   0
                l(3) =   1
                l(4) =   1
                l(5) =   2
                l(6) =   2
     Q(r) pseudized with  8 coefficients,  rinner =    1.300   1.300   1.300
                                                       1.300   1.300

     PseudoPot. # 5 for O  read from file:
     /lustre07/scratch/pragov/crystal_structure_design/utils/SSSP/O.pbe-n-kjpaw_psl.0.1.UPF
     MD5 check sum: 0234752ac141de4415c5fc33072bef88
     Pseudo is Projector augmented-wave + core cor, Zval =  6.0
     Generated using "atomic" code by A. Dal Corso  v.5.0.99 svn rev. 10869
     Shape of augmentation charge: BESSEL
     Using radial grid of 1095 points,  4 beta functions with:
                l(1) =   0
                l(2) =   0
                l(3) =   1
                l(4) =   1
     Q(r) pseudized with 0 coefficients

     atomic species   valence    mass     pseudopotential
        Tl            13.00   204.38000     Tl( 1.00)
        Cu            19.00    63.54600     Cu( 1.00)
        H              1.00     1.00800     H ( 1.00)
        Se             6.00    78.97100     Se( 1.00)
        O              6.00    15.99900     O ( 1.00)

      2 Sym. Ops., with inversion, found

                                    s                        frac. trans.

      isym =  1     identity

 cryst.   s( 1) = (     1          0          0      )
                  (     0          1          0      )
                  (     0          0          1      )

 cart.    s( 1) = (  1.0000000  0.0000000  0.0000000 )
                  (  0.0000000  1.0000000  0.0000000 )
                  (  0.0000000  0.0000000  1.0000000 )

      isym =  2     inversion

 cryst.   s( 2) = (    -1          0          0      )
                  (     0         -1          0      )
                  (     0          0         -1      )

 cart.    s( 2) = ( -1.0000000  0.0000000  0.0000000 )
                  (  0.0000000 -1.0000000  0.0000000 )
                  (  0.0000000  0.0000000 -1.0000000 )

   Cartesian axes

     site n.     atom                  positions (alat units)
         1           Tl  tau(   1) = (   0.0000000   0.0000000   0.0000000  )
         2           Cu  tau(   2) = (   0.7938642   0.2042941   0.7326782  )
         3           Cu  tau(   3) = (   0.4680359   0.6729776   0.7326782  )
         4           H   tau(   4) = (   0.2938642   0.2042941   0.7326782  )
         5           Se  tau(   5) = (   0.8870159   0.6166525   0.3429169  )
         6           Se  tau(   6) = (   1.0490559   0.7293026   1.1224396  )
         7           O   tau(   7) = (   0.8972261   0.3104655   0.4178948  )
         8           O   tau(   8) = (   1.0388457   1.0354897   1.0474617  )
         9           O   tau(   9) = (   1.3325089   0.6130737   1.0474617  )
        10           O   tau(  10) = (   0.6035629   0.7328815   0.4178948  )
        11           O   tau(  11) = (   1.4614843   1.0160224   0.7905759  )
        12           O   tau(  12) = (   0.4745875   0.3299327   0.6747805  )
        13           O   tau(  13) = (   1.0214106   0.7100836   1.4219687  )
        14           O   tau(  14) = (   0.9146612   0.6358716   0.0433877  )
        15           O   tau(  15) = (   1.1015715   0.7658114   0.4974079  )
        16           O   tau(  16) = (   0.8345003   0.5801437   0.9679486  )

   Crystallographic axes

     site n.     atom                  positions (cryst. coord.)
         1           Tl  tau(   1) = (  0.0000000  0.0000000  0.0000000  )
         2           Cu  tau(   2) = (  0.5000000  0.0000000  0.5000000  )
         3           Cu  tau(   3) = (  0.0000000  0.5000000  0.5000000  )
         4           H   tau(   4) = ( -0.0000000  0.0000000  0.5000000  )
         5           Se  tau(   5) = (  0.5558510  0.5558510  0.2340160  )
         6           Se  tau(   6) = (  0.4441490  0.4441490  0.7659840  )
         7           O   tau(   7) = (  0.6575430  0.2069020  0.2851830  )
         8           O   tau(   8) = (  0.3424570  0.7930980  0.7148170  )
         9           O   tau(   9) = (  0.7930980  0.3424570  0.7148170  )
        10           O   tau(  10) = (  0.2069020  0.6575430  0.2851830  )
        11           O   tau(  11) = (  0.8487440  0.8487440  0.5395110  )
        12           O   tau(  12) = (  0.1512560  0.1512560  0.4604890  )
        13           O   tau(  13) = (  0.3345470  0.3345470  0.9703910  )
        14           O   tau(  14) = (  0.6654530  0.6654530  0.0296090  )
        15           O   tau(  15) = (  0.6690210  0.6690210  0.3394450  )
        16           O   tau(  16) = (  0.3309790  0.3309790  0.6605550  )

     number of k points=    14
                       cart. coord. in units 2pi/alat
        k(    1) = (   0.0000000   0.0000000   0.0000000), wk =   0.0740741
        k(    2) = (   0.0000000   0.0000000   0.2274759), wk =   0.1481481
        k(    3) = (   0.0000000   0.3556060  -0.0991543), wk =   0.1481481
        k(    4) = (   0.0000000   0.3556060   0.1283216), wk =   0.1481481
        k(    5) = (   0.0000000   0.3556060  -0.3266302), wk =   0.1481481
        k(    6) = (   0.3333333  -0.1238730  -0.0991543), wk =   0.1481481
        k(    7) = (   0.3333333  -0.1238730   0.1283216), wk =   0.1481481
        k(    8) = (   0.3333333  -0.1238730  -0.3266302), wk =   0.1481481
        k(    9) = (   0.3333333   0.2317330  -0.1983086), wk =   0.1481481
        k(   10) = (   0.3333333   0.2317330   0.0291673), wk =   0.1481481
        k(   11) = (   0.3333333   0.2317330  -0.4257846), wk =   0.1481481
        k(   12) = (   0.3333333  -0.4794790   0.0000000), wk =   0.1481481
        k(   13) = (   0.3333333  -0.4794790   0.2274759), wk =   0.1481481
        k(   14) = (   0.3333333  -0.4794790  -0.2274759), wk =   0.1481481

                       cryst. coord.
        k(    1) = (   0.0000000   0.0000000   0.0000000), wk =   0.0740741
        k(    2) = (   0.0000000   0.0000000   0.3333333), wk =   0.1481481
        k(    3) = (   0.0000000   0.3333333   0.0000000), wk =   0.1481481
        k(    4) = (   0.0000000   0.3333333   0.3333333), wk =   0.1481481
        k(    5) = (   0.0000000   0.3333333  -0.3333333), wk =   0.1481481
        k(    6) = (   0.3333333   0.0000000   0.0000000), wk =   0.1481481
        k(    7) = (   0.3333333   0.0000000   0.3333333), wk =   0.1481481
        k(    8) = (   0.3333333   0.0000000  -0.3333333), wk =   0.1481481
        k(    9) = (   0.3333333   0.3333333   0.0000000), wk =   0.1481481
        k(   10) = (   0.3333333   0.3333333   0.3333333), wk =   0.1481481
        k(   11) = (   0.3333333   0.3333333  -0.3333333), wk =   0.1481481
        k(   12) = (   0.3333333  -0.3333333  -0.0000000), wk =   0.1481481
        k(   13) = (   0.3333333  -0.3333333   0.3333333), wk =   0.1481481
        k(   14) = (   0.3333333  -0.3333333  -0.3333333), wk =   0.1481481

     Check: negative core charge=   -0.000011

     Initial potential from superposition of free atoms

     starting charge     121.9950, renormalised to     124.0000

     negative rho (up, down):  4.969E-02 0.000E+00
     Starting wfcs are   84 randomized atomic wfcs
     Checking if some PAW data can be deallocated...

     Self-consistent Calculation

     iteration #  1     ecut=    30.00 Ry     beta= 0.70
     Davidson diagonalization with overlap

     ethr =  1.00E-02,  avg # of iterations =  2.0

     negative rho (up, down):  5.889E-02 0.000E+00

     total energy              =   -1447.32465343 Ry
     estimated scf accuracy    <      12.22080181 Ry

[...]

     total energy              =   -1456.05037552 Ry
     estimated scf accuracy    <       0.00000185 Ry

     iteration # 16     ecut=    30.00 Ry     beta= 0.70
     Davidson diagonalization with overlap

     ethr =  1.49E-09,  avg # of iterations =  2.0

     negative rho (up, down):  4.830E-02 0.000E+00

     End of self-consistent calculation

          k = 0.0000 0.0000 0.0000 (  4167 PWs)   bands (ev):

  -108.8427-108.8423 -66.5622 -66.5548 -66.4191 -66.4188 -65.5387 -65.5359
   -17.4679 -17.3493 -14.4973 -14.3957 -14.3692 -14.1449 -14.1140 -14.0066
   -13.8192 -12.7790  -6.5106  -6.3198  -4.6763  -4.6649  -4.6585  -4.6291
    -4.6217  -2.9613  -2.8186  -2.2451  -1.7351  -1.7330  -1.5941  -1.4291
    -0.9759  -0.5965  -0.0596   0.2543   0.3242   0.6692   0.7008   1.2707
     1.2715   1.4916   1.4975   1.5045   1.7844   1.8755   2.0574   2.1778
     2.2248   2.3666   2.4292   2.4497   2.5260   2.8047   2.8850   2.9265
     2.9673   3.1520   3.1715   3.2094   3.6098   3.7876   4.5487   5.1352

     occupation numbers
     1.0000   1.0000   1.0000   1.0000   1.0000   1.0000   1.0000   1.0000
     1.0000   1.0000   1.0000   1.0000   1.0000   1.0000   1.0000   1.0000
     1.0000   1.0000   1.0000   1.0000   1.0000   1.0000   1.0000   1.0000
     1.0000   1.0000   1.0000   1.0000   1.0000   1.0000   1.0000   1.0000
     1.0000   1.0000   1.0000   1.0000   1.0000   1.0000   1.0000   1.0000
     1.0000   1.0000   1.0000   1.0000   1.0000   1.0000   1.0000   1.0000
     1.0000   1.0000   1.0000   1.0000   1.0000   1.0000   1.0000   1.0000
     1.0000   1.0000   1.0000   1.0000   1.0000   1.0000   0.0000   0.0000

[...]

          k = 0.3333-0.4795-0.2275 (  4180 PWs)   bands (ev):

  -108.8430-108.8424 -66.5608 -66.5571 -66.4190 -66.4187 -65.5386 -65.5378
   -17.3740 -17.3438 -14.5597 -14.5397 -14.2823 -14.2516 -14.0735 -14.0230
   -13.7835 -12.9304  -6.0922  -6.0250  -4.6558  -4.6542  -4.6405  -4.6374
    -4.6182  -2.7275  -2.6873  -2.3423  -1.8645  -1.7546  -1.4188  -1.3197
    -0.7479  -0.5142  -0.1571  -0.0394   0.1574   0.4312   0.5643   0.6887
     0.9464   1.1397   1.4492   1.4890   1.5878   1.6843   1.8687   1.8735
     2.0973   2.1055   2.3593   2.4297   2.6501   2.8435   2.9586   2.9965
     3.1446   3.2541   3.4495   3.5463   3.6979   3.7289   4.7446   4.7756

     occupation numbers
     1.0000   1.0000   1.0000   1.0000   1.0000   1.0000   1.0000   1.0000
     1.0000   1.0000   1.0000   1.0000   1.0000   1.0000   1.0000   1.0000
     1.0000   1.0000   1.0000   1.0000   1.0000   1.0000   1.0000   1.0000
     1.0000   1.0000   1.0000   1.0000   1.0000   1.0000   1.0000   1.0000
     1.0000   1.0000   1.0000   1.0000   1.0000   1.0000   1.0000   1.0000
     1.0000   1.0000   1.0000   1.0000   1.0000   1.0000   1.0000   1.0000
     1.0000   1.0000   1.0000   1.0000   1.0000   1.0000   1.0000   1.0000
     1.0000   1.0000   1.0000   1.0000   1.0000   1.0000   0.0000   0.0000

     highest occupied, lowest unoccupied level (ev):     3.8774    4.4638

!    total energy              =   -1456.05037567 Ry
     estimated scf accuracy    <       0.00000010 Ry

     The total energy is the sum of the following terms:
     one-electron contribution =   -1194.13352407 Ry
     hartree contribution      =     655.90139903 Ry
     xc contribution           =    -273.28768861 Ry
     ewald contribution        =    -549.16731310 Ry
     one-center paw contrib.   =     -95.36324892 Ry
      -> PAW hartree energy AE =       0.00000000 Ry
      -> PAW hartree energy PS =       0.00000000 Ry
      -> PAW xc energy AE      =       0.00000000 Ry
      -> PAW xc energy PS      =       0.00000000 Ry
      -> total E_H with PAW    =     655.90139903 Ry
      -> total E_XC with PAW   =    -273.28768861 Ry

     convergence has been achieved in  16 iterations

     Writing all to output data dir bands_nm/myprefix.save/

     General routines

     Parallel routines

     PAW routines

   This run was terminated on:   2:23:45  13Jul2023

   JOB DONE.