     Program PWSCF v.7.0 starts on  7Jun2023 at  8:54:18

     K-points division:     npool     =       2
     R & G space division:  proc/nbgrp/npool/nimage =       4

     Reading input from espresso_19097.pwi
Warning: card &CELL ignored
Warning: card / ignored

     Current dimensions of program PWSCF are:
     Max number of different atomic species (ntypx) = 10
     Max number of k-points (npk) =  40000
     Max angular momentum in pseudopotentials (lmaxx) =  4
     file O.pbe-n-kjpaw_psl.0.1.UPF: wavefunction(s)  2P renormalized

     Using Slab Decomposition

     bravais-lattice index     =            0
     lattice parameter (alat)  =      11.9502  a.u.
     unit-cell volume          =    1436.8271 (a.u.)^3
     number of atoms/cell      =           20
     number of atomic types    =            5
     number of electrons       =       104.00
     number of Kohn-Sham states=           64
     kinetic-energy cutoff     =      30.0000  Ry
     charge density cutoff     =     240.0000  Ry
     scf convergence threshold =      1.0E-06
     mixing beta               =       0.7000
     number of iterations used =            8  plain     mixing
     Exchange-correlation= SLA  PW   PBX  PBC
                           (   1   4   3   4   0   0   0)

     celldm(1)=  11.950235  celldm(2)=   0.000000  celldm(3)=   0.000000
     celldm(4)=   0.000000  celldm(5)=   0.000000  celldm(6)=   0.000000

     crystal axes: (cart. coord. in units of alat)
               a(1) = (   1.000000   0.000000   0.000000 )
               a(2) = (   0.493861   0.910174   0.000000 )
               a(3) = (   0.494738   0.063773   0.925019 )

     reciprocal axes: (cart. coord. in units 2 pi/alat)
               b(1) = (  1.000000 -0.542600 -0.497433 )
               b(2) = (  0.000000  1.098691 -0.075746 )
               b(3) = (  0.000000  0.000000  1.081059 )

     PseudoPot. # 1 for Ca read from file:
     /home/pragov/projects/rrg-bengioy-ad/pragov/crystal_structure_design/SSSP/Ca_pbe_v1.uspp.F.UPF
     MD5 check sum: 403a4c14b9e4d4dfdc3024c9a3812218
     Pseudo is Ultrasoft + core correction, Zval = 10.0
     Generated by new atomic code, or converted to UPF format
     Using radial grid of  845 points,  6 beta functions with:
                l(1) =   0
                l(2) =   0
                l(3) =   1
                l(4) =   1
                l(5) =   2
                l(6) =   2
     Q(r) pseudized with  8 coefficients,  rinner =    1.500   1.500   1.500
                                                       1.500   1.500

     PseudoPot. # 2 for B  read from file:
     /home/pragov/projects/rrg-bengioy-ad/pragov/crystal_structure_design/SSSP/b_pbe_v1.4.uspp.F.UPF
     MD5 check sum: cc6de2960df11db49a60e589f9ebb39b
     Pseudo is Ultrasoft + core correction, Zval =  3.0
     Generated by new atomic code, or converted to UPF format
     Using radial grid of  781 points,  4 beta functions with:
                l(1) =   0
                l(2) =   0
                l(3) =   1
                l(4) =   1
     Q(r) pseudized with  8 coefficients,  rinner =    1.100   1.100   1.100

     PseudoPot. # 3 for H  read from file:
     /home/pragov/projects/rrg-bengioy-ad/pragov/crystal_structure_design/SSSP/H.pbe-rrkjus_psl.1.0.0.UPF
     MD5 check sum: f52b6d4d1c606e5624b1dc7b2218f220
     Pseudo is Ultrasoft, Zval =  1.0
     Generated using "atomic" code by A. Dal Corso  v.5.1
     Using radial grid of  929 points,  2 beta functions with:
                l(1) =   0
                l(2) =   0
     Q(r) pseudized with 0 coefficients

     PseudoPot. # 4 for Cl read from file:
     /home/pragov/projects/rrg-bengioy-ad/pragov/crystal_structure_design/SSSP/cl_pbe_v1.4.uspp.F.UPF
     MD5 check sum: fc6f6913ecf08c9257cb748ef0700058
     Pseudo is Ultrasoft + core correction, Zval =  7.0
     Generated by new atomic code, or converted to UPF format
     Using radial grid of  909 points,  6 beta functions with:
                l(1) =   0
                l(2) =   0
                l(3) =   1
                l(4) =   1
                l(5) =   2
                l(6) =   2
     Q(r) pseudized with  8 coefficients,  rinner =    1.300   1.300   1.300
                                                       1.300   1.300

     PseudoPot. # 5 for O  read from file:
     /home/pragov/projects/rrg-bengioy-ad/pragov/crystal_structure_design/SSSP/O.pbe-n-kjpaw_psl.0.1.UPF
     MD5 check sum: 0234752ac141de4415c5fc33072bef88
     Pseudo is Projector augmented-wave + core cor, Zval =  6.0
     Generated using "atomic" code by A. Dal Corso  v.5.0.99 svn rev. 10869
     Shape of augmentation charge: BESSEL
     Using radial grid of 1095 points,  4 beta functions with:
                l(1) =   0
                l(2) =   0
                l(3) =   1
                l(4) =   1
     Q(r) pseudized with 0 coefficients

     atomic species   valence    mass     pseudopotential
        Ca            10.00    40.07800     Ca( 1.00)
        B              3.00    10.81000     B ( 1.00)
        H              1.00     1.00800     H ( 1.00)
        Cl             7.00    35.45000     Cl( 1.00)
        O              6.00    15.99900     O ( 1.00)

     No symmetry found

                                    s                        frac. trans.

      isym =  1     identity

 cryst.   s( 1) = (     1          0          0      )
                  (     0          1          0      )
                  (     0          0          1      )

 cart.    s( 1) = (  1.0000000  0.0000000 -0.0000000 )
                  (  0.0000000  1.0000000  0.0000000 )
                  (  0.0000000  0.0000000  1.0000000 )

   Cartesian axes

     site n.     atom                  positions (alat units)
         1           Ca  tau(   1) = (   1.3405635   0.4395256   0.4094440  )
         2           Ca  tau(   2) = (   1.4931796   0.0685278   0.9244696  )
         3           B   tau(   3) = (   0.8270239   0.4410416   0.1209361  )
         4           B   tau(   4) = (   1.0115672   0.3575676   0.8426886  )
         5           B   tau(   5) = (   1.6841335   0.5624772   0.8995671  )
         6           B   tau(   6) = (   1.4459513   0.8650589   0.9207658  )
         7           B   tau(   7) = (   0.7963997   0.4458328   0.5362326  )
         8           H   tau(   8) = (   1.2878934   0.9128693   0.4282755  )
         9           H   tau(   9) = (   1.5339623   0.8780283   0.4712815  )
        10           Cl  tau(  10) = (   0.9350728   0.9335425   0.4910963  )
        11           O   tau(  11) = (   1.4148735   0.8335703   0.3819089  )
        12           O   tau(  12) = (   0.7262168   0.4325380   0.3323677  )
        13           O   tau(  13) = (   0.7901831   0.6605585   0.0371182  )
        14           O   tau(  14) = (   1.0548074   0.3922630   0.1333776  )
        15           O   tau(  15) = (   1.2295962   0.3437786   0.9056778  )
        16           O   tau(  16) = (   0.8875293   0.1567417   0.8776266  )
        17           O   tau(  17) = (   0.9994105   0.4014155   0.6044481  )
        18           O   tau(  18) = (   0.4067737   0.4625475   0.0317596  )
        19           O   tau(  19) = (   1.6523405   0.7977153   0.9113954  )
        20           O   tau(  20) = (   0.6347646   0.4905105   0.6798575  )

   Crystallographic axes

     site n.     atom                  positions (cryst. coord.)
         1           Ca  tau(   1) = (  0.8984060  0.4518890  0.4426330  )
         2           Ca  tau(   2) = (  0.9961350  0.0052660  0.9994060  )
         3           B   tau(   3) = (  0.5275570  0.4754080  0.1307390  )
         4           B   tau(   4) = (  0.3983700  0.3290260  0.9109960  )
         5           B   tau(   5) = (  0.9314590  0.5498500  0.9724850  )
         6           B   tau(   6) = (  0.5185510  0.8806880  0.9954020  )
         7           B   tau(   7) = (  0.2877510  0.4492150  0.5796990  )
         8           H   tau(   8) = (  0.5795320  0.9705210  0.4629910  )
         9           H   tau(   9) = (  0.8231130  0.9289840  0.5094830  )
        10           Cl  tau(  10) = (  0.1842450  0.9884760  0.5309040  )
        11           O   tau(  11) = (  0.7726040  0.8869080  0.4128660  )
        12           O   tau(  12) = (  0.3261910  0.4500500  0.3593090  )
        13           O   tau(  13) = (  0.4133000  0.7229380  0.0401270  )
        14           O   tau(  14) = (  0.7756190  0.4208730  0.1441890  )
        15           O   tau(  15) = (  0.5925480  0.3091050  0.9790910  )
        16           O   tau(  16) = (  0.3659210  0.1057340  0.9487660  )
        17           O   tau(  17) = (  0.4809300  0.3952470  0.6534440  )
        18           O   tau(  18) = (  0.1399970  0.5057910  0.0343340  )
        19           O   tau(  19) = (  0.7661420  0.8074080  0.9852720  )
        20           O   tau(  20) = (  0.0304300  0.4874230  0.7349660  )

     number of k points=    14
                       cart. coord. in units 2pi/alat
        k(    1) = (   0.0000000   0.0000000   0.0000000), wk =   0.0740741
        k(    2) = (   0.0000000   0.0000000   0.3603529), wk =   0.1481481
        k(    3) = (   0.0000000   0.3662303  -0.0252486), wk =   0.1481481
        k(    4) = (   0.0000000   0.3662303   0.3351043), wk =   0.1481481
        k(    5) = (   0.0000000   0.3662303  -0.3856016), wk =   0.1481481
        k(    6) = (   0.3333333  -0.1808668  -0.1658109), wk =   0.1481481
        k(    7) = (   0.3333333  -0.1808668   0.1945420), wk =   0.1481481
        k(    8) = (   0.3333333  -0.1808668  -0.5261639), wk =   0.1481481
        k(    9) = (   0.3333333   0.1853635  -0.1910596), wk =   0.1481481
        k(   10) = (   0.3333333   0.1853635   0.1692934), wk =   0.1481481
        k(   11) = (   0.3333333   0.1853635  -0.5514125), wk =   0.1481481
        k(   12) = (   0.3333333  -0.5470971  -0.1405623), wk =   0.1481481
        k(   13) = (   0.3333333  -0.5470971   0.2197907), wk =   0.1481481
        k(   14) = (   0.3333333  -0.5470971  -0.5009152), wk =   0.1481481

                       cryst. coord.
        k(    1) = (   0.0000000   0.0000000   0.0000000), wk =   0.0740741
        k(    2) = (   0.0000000   0.0000000   0.3333333), wk =   0.1481481
        k(    3) = (   0.0000000   0.3333333   0.0000000), wk =   0.1481481
        k(    4) = (   0.0000000   0.3333333   0.3333333), wk =   0.1481481
        k(    5) = (   0.0000000   0.3333333  -0.3333333), wk =   0.1481481
        k(    6) = (   0.3333333   0.0000000  -0.0000000), wk =   0.1481481
        k(    7) = (   0.3333333   0.0000000   0.3333333), wk =   0.1481481
        k(    8) = (   0.3333333   0.0000000  -0.3333333), wk =   0.1481481
        k(    9) = (   0.3333333   0.3333333  -0.0000000), wk =   0.1481481
        k(   10) = (   0.3333333   0.3333333   0.3333333), wk =   0.1481481
        k(   11) = (   0.3333333   0.3333333  -0.3333333), wk =   0.1481481
        k(   12) = (   0.3333333  -0.3333333   0.0000000), wk =   0.1481481
        k(   13) = (   0.3333333  -0.3333333   0.3333333), wk =   0.1481481
        k(   14) = (   0.3333333  -0.3333333  -0.3333333), wk =   0.1481481

     Check: negative core charge=   -0.000013

     Initial potential from superposition of free atoms

     starting charge     103.9876, renormalised to     104.0000

     negative rho (up, down):  1.471E-02 0.000E+00
     Starting wfcs are   86 randomized atomic wfcs
     Checking if some PAW data can be deallocated...

     Self-consistent Calculation

     iteration #  1     ecut=    30.00 Ry     beta= 0.70
     Davidson diagonalization with overlap

     ethr =  1.00E-02,  avg # of iterations =  2.0

     negative rho (up, down):  1.512E-02 0.000E+00

     total energy              =    -634.56297111 Ry
     estimated scf accuracy    <       2.47988691 Ry

[...]

     total energy              =    -635.53851934 Ry
     estimated scf accuracy    <       0.00000352 Ry

     iteration #  9     ecut=    30.00 Ry     beta= 0.70
     Davidson diagonalization with overlap

     ethr =  3.38E-09,  avg # of iterations =  2.0

     negative rho (up, down):  1.463E-02 0.000E+00

     End of self-consistent calculation

          k = 0.0000 0.0000 0.0000 (  3969 PWs)   bands (ev):

   -34.3068 -34.1194 -16.3051 -16.1389 -15.5059 -15.4038 -15.3367 -15.3207
   -15.2791 -15.1136 -14.7991 -14.5595 -14.4491 -13.8755 -13.5308 -13.4879
   -13.1982 -13.1367  -8.8016  -3.9855  -3.9249  -3.5450  -3.2353  -2.5555
    -1.9733  -1.5782  -1.3816  -1.1509  -0.7778  -0.6059  -0.4566  -0.3220
     0.5302   0.6779   1.3333   1.4062   1.6414   2.0851   2.2246   2.3559
     2.4804   2.6045   2.8369   3.0145   3.1033   3.1908   3.3331   3.3681
     3.5095   3.6918   3.8521   4.0670   9.1934  10.3632  10.6464  10.9575
    11.1632  11.4007  11.5152  11.6494  11.7401  11.9806  12.0452  12.2994

     occupation numbers
     1.0000   1.0000   1.0000   1.0000   1.0000   1.0000   1.0000   1.0000
     1.0000   1.0000   1.0000   1.0000   1.0000   1.0000   1.0000   1.0000
     1.0000   1.0000   1.0000   1.0000   1.0000   1.0000   1.0000   1.0000
     1.0000   1.0000   1.0000   1.0000   1.0000   1.0000   1.0000   1.0000
     1.0000   1.0000   1.0000   1.0000   1.0000   1.0000   1.0000   1.0000
     1.0000   1.0000   1.0000   1.0000   1.0000   1.0000   1.0000   1.0000
     1.0000   1.0000   1.0000   1.0000   0.0000   0.0000   0.0000   0.0000
     0.0000   0.0000   0.0000   0.0000   0.0000   0.0000   0.0000   0.0000

[...]

          k = 0.3333-0.5471-0.5009 (  3972 PWs)   bands (ev):

   -34.3068 -34.1194 -16.2834 -16.0511 -15.8318 -15.5122 -15.3243 -15.2826
   -15.1036 -14.9969 -14.8811 -14.6992 -14.1655 -13.8838 -13.5544 -13.4301
   -13.3465 -13.0236  -8.8283  -4.4415  -4.0659  -3.8181  -2.9488  -2.5234
    -1.9788  -1.7046  -1.3478  -0.7552  -0.6820  -0.3819   0.0052   0.0497
     0.4963   0.9990   1.1464   1.3610   1.6177   1.9268   2.1319   2.3397
     2.4711   2.5939   2.6440   2.7856   2.9350   2.9931   3.2336   3.3211
     3.3942   3.5797   3.8459   4.1752  10.3267  10.5164  10.7523  10.9854
    11.1273  11.3180  11.5129  11.5888  11.7631  11.9034  12.0683  12.2207

     occupation numbers
     1.0000   1.0000   1.0000   1.0000   1.0000   1.0000   1.0000   1.0000
     1.0000   1.0000   1.0000   1.0000   1.0000   1.0000   1.0000   1.0000
     1.0000   1.0000   1.0000   1.0000   1.0000   1.0000   1.0000   1.0000
     1.0000   1.0000   1.0000   1.0000   1.0000   1.0000   1.0000   1.0000
     1.0000   1.0000   1.0000   1.0000   1.0000   1.0000   1.0000   1.0000
     1.0000   1.0000   1.0000   1.0000   1.0000   1.0000   1.0000   1.0000
     1.0000   1.0000   1.0000   1.0000   0.0000   0.0000   0.0000   0.0000
     0.0000   0.0000   0.0000   0.0000   0.0000   0.0000   0.0000   0.0000

     highest occupied, lowest unoccupied level (ev):     4.1805    9.1934

!    total energy              =    -635.53852025 Ry
     estimated scf accuracy    <       0.00000008 Ry

     The total energy is the sum of the following terms:
     one-electron contribution =    -237.35789895 Ry
     hartree contribution      =     171.06697264 Ry
     xc contribution           =    -124.96586752 Ry
     ewald contribution        =    -349.19925392 Ry
     one-center paw contrib.   =     -95.08247250 Ry
      -> PAW hartree energy AE =       0.00000000 Ry
      -> PAW hartree energy PS =       0.00000000 Ry
      -> PAW xc energy AE      =       0.00000000 Ry
      -> PAW xc energy PS      =       0.00000000 Ry
      -> total E_H with PAW    =     171.06697264 Ry
      -> total E_XC with PAW   =    -124.96586752 Ry

     convergence has been achieved in   9 iterations

     Writing all to output data dir calculations_bands/myprefix.save/

     General routines

     Parallel routines

     PAW routines

   This run was terminated on:   8:54:32   7Jun2023

   JOB DONE.