     Program PWSCF v.7.1 starts on 13Jul2023 at  3: 9:37

     Reading input from espresso_12786.pwi
Warning: card &CELL ignored
Warning: card / ignored

     Current dimensions of program PWSCF are:
     Max number of different atomic species (ntypx) = 10
     Max number of k-points (npk) =  40000
     Max angular momentum in pseudopotentials (lmaxx) =  4
     file O.pbe-n-kjpaw_psl.0.1.UPF: wavefunction(s)  2P renormalized
     Message from routine setup:
     using ibrav=0 with symmetry is DISCOURAGED, use correct ibrav instead

     K-points division:     npool     =       2
     R & G space division:  proc/nbgrp/npool/nimage =       8
     Subspace diagonalization in iterative solution of the eigenvalue problem:
     a serial algorithm will be used

     Using Slab Decomposition

     bravais-lattice index     =            0
     lattice parameter (alat)  =      12.0149  a.u.
     unit-cell volume          =    1895.4431 (a.u.)^3
     number of atoms/cell      =           14
     number of atomic types    =            4
     number of electrons       =       112.00
     number of Kohn-Sham states=           64
     kinetic-energy cutoff     =      30.0000  Ry
     charge density cutoff     =     240.0000  Ry
     scf convergence threshold =      1.0E-06
     mixing beta               =       0.7000
     number of iterations used =            8  plain     mixing
     Exchange-correlation= SLA  PW   PBX  PBC
                           (   1   4   3   4   0   0   0)

     celldm(1)=  12.014867  celldm(2)=   0.000000  celldm(3)=   0.000000
     celldm(4)=   0.000000  celldm(5)=   0.000000  celldm(6)=   0.000000

     crystal axes: (cart. coord. in units of alat)
               a(1) = (   1.000000   0.000000   0.000000 )
               a(2) = (  -0.500036   0.866046   0.000000 )
               a(3) = (  -0.000098  -0.000056   1.261865 )

     reciprocal axes: (cart. coord. in units 2 pi/alat)
               b(1) = (  1.000000  0.577378  0.000103 )
               b(2) = (  0.000000  1.154673  0.000052 )
               b(3) = (  0.000000  0.000000  0.792478 )

     PseudoPot. # 1 for Rb read from file:
     /lustre07/scratch/pragov/crystal_structure_design/utils/SSSP/Rb_ONCV_PBE-1.0.oncvpsp.upf
     MD5 check sum: 55a5172d6bfbce6759a58e35d43f6aa9
     Pseudo is Norm-conserving, Zval =  9.0
     Generated using ONCVPSP code by D. R. Hamann
     Using radial grid of 2308 points,  6 beta functions with:
                l(1) =   0
                l(2) =   0
                l(3) =   1
                l(4) =   1
                l(5) =   2
                l(6) =   2

     PseudoPot. # 2 for Na read from file:
     /lustre07/scratch/pragov/crystal_structure_design/utils/SSSP/na_pbe_v1.5.uspp.F.UPF
     MD5 check sum: 44600605ef58000f06b90626533354dc
     Pseudo is Ultrasoft, Zval =  9.0
     Generated by new atomic code, or converted to UPF format
     Using radial grid of  819 points,  5 beta functions with:
                l(1) =   0
                l(2) =   0
                l(3) =   1
                l(4) =   1
                l(5) =   2
     Q(r) pseudized with  8 coefficients,  rinner =    1.250   1.250   1.250
                                                       1.250   1.250

     PseudoPot. # 3 for W  read from file:
     /lustre07/scratch/pragov/crystal_structure_design/utils/SSSP/W_pbe_v1.2.uspp.F.UPF
     MD5 check sum: 9c083fa34c2a2ea0f02f1f893e16e1c8
     Pseudo is Ultrasoft + core correction, Zval = 14.0
     Generated by new atomic code, or converted to UPF format
     Using radial grid of  923 points,  8 beta functions with:
                l(1) =   0
                l(2) =   0
                l(3) =   0
                l(4) =   1
                l(5) =   1
                l(6) =   2
                l(7) =   2
                l(8) =   3
     Q(r) pseudized with  6 coefficients,  rinner =    1.350   1.350   1.350
                                                       1.350   1.350   1.350
                                                       1.350

     PseudoPot. # 4 for O  read from file:
     /lustre07/scratch/pragov/crystal_structure_design/utils/SSSP/O.pbe-n-kjpaw_psl.0.1.UPF
     MD5 check sum: 0234752ac141de4415c5fc33072bef88
     Pseudo is Projector augmented-wave + core cor, Zval =  6.0
     Generated using "atomic" code by A. Dal Corso  v.5.0.99 svn rev. 10869
     Shape of augmentation charge: BESSEL
     Using radial grid of 1095 points,  4 beta functions with:
                l(1) =   0
                l(2) =   0
                l(3) =   1
                l(4) =   1
     Q(r) pseudized with 0 coefficients

     atomic species   valence    mass     pseudopotential
        Rb             9.00    85.46780     Rb( 1.00)
        Na             9.00    22.98977     Na( 1.00)
        W             14.00   183.84000     W ( 1.00)
        O              6.00    15.99900     O ( 1.00)

      2 Sym. Ops., with inversion, found

                                    s                        frac. trans.

      isym =  1     identity

 cryst.   s( 1) = (     1          0          0      )
                  (     0          1          0      )
                  (     0          0          1      )

 cart.    s( 1) = (  1.0000000  0.0000000  0.0000000 )
                  (  0.0000000  1.0000000  0.0000000 )
                  (  0.0000000  0.0000000  1.0000000 )

      isym =  2     inversion

 cryst.   s( 2) = (    -1          0          0      )
                  (     0         -1          0      )
                  (     0          0         -1      )

 cart.    s( 2) = ( -1.0000000  0.0000000  0.0000000 )
                  (  0.0000000 -1.0000000  0.0000000 )
                  (  0.0000000  0.0000000 -1.0000000 )

   Cartesian axes

     site n.     atom                  positions (alat units)
         1           Rb  tau(   1) = (  -0.0000489  -0.0000282   0.6309323  )
         2           Rb  tau(   2) = (  -0.0000663   0.5773392   1.0490978  )
         3           Rb  tau(   3) = (   0.4999326   0.2886506   0.2127668  )
         4           Na  tau(   4) = (   0.0000000   0.0000000   0.0000000  )
         5           W   tau(   5) = (  -0.0000324   0.5773593   0.3487112  )
         6           W   tau(   6) = (   0.4998987   0.2886305   0.9131533  )
         7           O   tau(   7) = (  -0.2323015   0.7114650   0.2465418  )
         8           O   tau(   8) = (  -0.0000169   0.3091554   0.2465418  )
         9           O   tau(   9) = (   0.2322235   0.7114581   0.2465229  )
        10           O   tau(  10) = (   0.7321678   0.1545248   1.0153227  )
        11           O   tau(  11) = (   0.4998832   0.5568344   1.0153227  )
        12           O   tau(  12) = (   0.2676428   0.1545317   1.0153416  )
        13           O   tau(  13) = (  -0.0000275   0.5773621   0.6326471  )
        14           O   tau(  14) = (   0.4998938   0.2886277   0.6292174  )

   Crystallographic axes

     site n.     atom                  positions (cryst. coord.)
         1           Rb  tau(   1) = ( -0.0000000  0.0000000  0.5000000  )
         2           Rb  tau(   2) = (  0.3333850  0.6666920  0.8313870  )
         3           Rb  tau(   3) = (  0.6666150  0.3333080  0.1686130  )
         4           Na  tau(   4) = (  0.0000000  0.0000000  0.0000000  )
         5           W   tau(   5) = (  0.3333580  0.6666790  0.2763460  )
         6           W   tau(   6) = (  0.6666420  0.3333210  0.7236540  )
         7           O   tau(   7) = (  0.1785080  0.8215220  0.1953790  )
         8           O   tau(   8) = (  0.1785080  0.3569860  0.1953790  )
         9           O   tau(   9) = (  0.6430290  0.8215140  0.1953640  )
        10           O   tau(  10) = (  0.8214920  0.1784780  0.8046210  )
        11           O   tau(  11) = (  0.8214920  0.6430140  0.8046210  )
        12           O   tau(  12) = (  0.3569710  0.1784860  0.8046360  )
        13           O   tau(  13) = (  0.3333940  0.6666970  0.5013590  )
        14           O   tau(  14) = (  0.6666060  0.3333030  0.4986410  )

     number of k points=    14
                       cart. coord. in units 2pi/alat
        k(    1) = (   0.0000000   0.0000000   0.0000000), wk =   0.0740741
        k(    2) = (   0.0000000   0.0000000   0.2641594), wk =   0.1481481
        k(    3) = (   0.0000000   0.3848909   0.0000172), wk =   0.1481481
        k(    4) = (   0.0000000   0.3848909   0.2641766), wk =   0.1481481
        k(    5) = (   0.0000000   0.3848909  -0.2641421), wk =   0.1481481
        k(    6) = (   0.3333333   0.1924592   0.0000345), wk =   0.1481481
        k(    7) = (   0.3333333   0.1924592   0.2641938), wk =   0.1481481
        k(    8) = (   0.3333333   0.1924592  -0.2641249), wk =   0.1481481
        k(    9) = (   0.3333333   0.5773501   0.0000517), wk =   0.1481481
        k(   10) = (   0.3333333   0.5773501   0.2642111), wk =   0.1481481
        k(   11) = (   0.3333333   0.5773501  -0.2641077), wk =   0.1481481
        k(   12) = (   0.3333333  -0.1924317   0.0000172), wk =   0.1481481
        k(   13) = (   0.3333333  -0.1924317   0.2641766), wk =   0.1481481
        k(   14) = (   0.3333333  -0.1924317  -0.2641421), wk =   0.1481481

                       cryst. coord.
        k(    1) = (   0.0000000   0.0000000   0.0000000), wk =   0.0740741
        k(    2) = (   0.0000000   0.0000000   0.3333333), wk =   0.1481481
        k(    3) = (   0.0000000   0.3333333   0.0000000), wk =   0.1481481
        k(    4) = (   0.0000000   0.3333333   0.3333333), wk =   0.1481481
        k(    5) = (   0.0000000   0.3333333  -0.3333333), wk =   0.1481481
        k(    6) = (   0.3333333  -0.0000000  -0.0000000), wk =   0.1481481
        k(    7) = (   0.3333333  -0.0000000   0.3333333), wk =   0.1481481
        k(    8) = (   0.3333333  -0.0000000  -0.3333333), wk =   0.1481481
        k(    9) = (   0.3333333   0.3333333  -0.0000000), wk =   0.1481481
        k(   10) = (   0.3333333   0.3333333   0.3333333), wk =   0.1481481
        k(   11) = (   0.3333333   0.3333333  -0.3333333), wk =   0.1481481
        k(   12) = (   0.3333333  -0.3333333  -0.0000000), wk =   0.1481481
        k(   13) = (   0.3333333  -0.3333333   0.3333333), wk =   0.1481481
        k(   14) = (   0.3333333  -0.3333333  -0.3333333), wk =   0.1481481

     Check: negative core charge=   -0.000009

     Initial potential from superposition of free atoms

     starting charge     111.7187, renormalised to     112.0000

     negative rho (up, down):  1.233E-01 0.000E+00
     Starting wfcs are   78 randomized atomic wfcs
     Checking if some PAW data can be deallocated...

     Self-consistent Calculation

     iteration #  1     ecut=    30.00 Ry     beta= 0.70
     Davidson diagonalization with overlap

     ethr =  1.00E-02,  avg # of iterations =  2.0

     negative rho (up, down):  1.162E-01 0.000E+00

     total energy              =    -891.58378263 Ry
     estimated scf accuracy    <       4.70846179 Ry

[...]

     c_bands:  1 eigenvalues not converged
     c_bands:  1 eigenvalues not converged
     ethr =  1.77E-06,  avg # of iterations = 12.6

[...]

     total energy              =    -894.29081797 Ry
     estimated scf accuracy    <       0.00000722 Ry

     iteration # 10     ecut=    30.00 Ry     beta= 0.70
     Davidson diagonalization with overlap

     ethr =  6.44E-09,  avg # of iterations =  2.0

     negative rho (up, down):  1.175E-01 0.000E+00

     End of self-consistent calculation

          k = 0.0000 0.0000 0.0000 (  5271 PWs)   bands (ev):

   -69.9236 -69.9236 -45.6189 -34.3298 -34.3296 -34.3296 -34.3295 -34.3295
   -34.3294 -20.9884 -20.9719 -20.9679 -17.5413 -17.5412 -17.5123 -13.1007
   -13.0399 -12.5453 -12.5452 -12.5373 -12.5372 -12.4712 -12.4304  -5.2308
    -5.1942  -5.1940  -5.1609  -5.1609  -5.1382  -5.0761  -5.0760  -5.0143
     0.1501   0.3034   0.3035   0.4613   0.4613   0.4693   0.4694   0.4763
     0.5225   0.5226   0.7693   0.8867   2.0727   2.1711   2.1712   2.1733
     2.2809   2.2810   2.9333   2.9402   2.9403   3.0226   3.0228   3.0254
     7.6918   8.0983   8.0985   8.2414   8.2417   9.3209   9.4227   9.5656

     occupation numbers
     1.0000   1.0000   1.0000   1.0000   1.0000   1.0000   1.0000   1.0000
     1.0000   1.0000   1.0000   1.0000   1.0000   1.0000   1.0000   1.0000
     1.0000   1.0000   1.0000   1.0000   1.0000   1.0000   1.0000   1.0000
     1.0000   1.0000   1.0000   1.0000   1.0000   1.0000   1.0000   1.0000
     1.0000   1.0000   1.0000   1.0000   1.0000   1.0000   1.0000   1.0000
     1.0000   1.0000   1.0000   1.0000   1.0000   1.0000   1.0000   1.0000
     1.0000   1.0000   1.0000   1.0000   1.0000   1.0000   1.0000   1.0000
     0.0000   0.0000   0.0000   0.0000   0.0000   0.0000   0.0000   0.0000

[...]

          k = 0.3333-0.1924-0.2641 (  5266 PWs)   bands (ev):

   -69.9236 -69.9235 -45.6188 -34.3297 -34.3296 -34.3296 -34.3295 -34.3295
   -34.3294 -20.9831 -20.9750 -20.9681 -17.5414 -17.5409 -17.5120 -13.0657
   -13.0556 -12.5971 -12.5589 -12.5469 -12.5374 -12.4467 -12.4310  -5.1968
    -5.1951  -5.1290  -5.1236  -5.1072  -5.0983  -5.0761  -5.0544  -5.0060
     0.0080   0.0984   0.2327   0.3084   0.3225   0.3574   0.4161   0.4577
     0.4734   0.5489   0.9140   0.9980   2.0907   2.1516   2.1680   2.3264
     2.4384   2.4708   2.7764   2.8481   2.8579   2.8626   2.9358   3.0355
     8.0586   8.1790   8.2602   8.3515   8.9648   9.3126   9.5438   9.6350

     occupation numbers
     1.0000   1.0000   1.0000   1.0000   1.0000   1.0000   1.0000   1.0000
     1.0000   1.0000   1.0000   1.0000   1.0000   1.0000   1.0000   1.0000
     1.0000   1.0000   1.0000   1.0000   1.0000   1.0000   1.0000   1.0000
     1.0000   1.0000   1.0000   1.0000   1.0000   1.0000   1.0000   1.0000
     1.0000   1.0000   1.0000   1.0000   1.0000   1.0000   1.0000   1.0000
     1.0000   1.0000   1.0000   1.0000   1.0000   1.0000   1.0000   1.0000
     1.0000   1.0000   1.0000   1.0000   1.0000   1.0000   1.0000   1.0000
     0.0000   0.0000   0.0000   0.0000   0.0000   0.0000   0.0000   0.0000

     highest occupied, lowest unoccupied level (ev):     3.0551    7.6918

!    total energy              =    -894.29081828 Ry
     estimated scf accuracy    <       0.00000061 Ry

     The total energy is the sum of the following terms:
     one-electron contribution =    -434.91091301 Ry
     hartree contribution      =     256.29037288 Ry
     xc contribution           =    -178.34480385 Ry
     ewald contribution        =    -461.09174170 Ry
     one-center paw contrib.   =     -76.23373260 Ry
      -> PAW hartree energy AE =       0.00000000 Ry
      -> PAW hartree energy PS =       0.00000000 Ry
      -> PAW xc energy AE      =       0.00000000 Ry
      -> PAW xc energy PS      =       0.00000000 Ry
      -> total E_H with PAW    =     256.29037288 Ry
      -> total E_XC with PAW   =    -178.34480385 Ry

     convergence has been achieved in  10 iterations

     Writing all to output data dir bands_nm/myprefix.save/

     General routines

     Parallel routines

     PAW routines

   This run was terminated on:   3: 9:48  13Jul2023

   JOB DONE.