     Program PWSCF v.7.1 starts on 15Jul2023 at 18:38:26

     Reading input from espresso_19714.pwi
Warning: card &CELL ignored
Warning: card / ignored

     Current dimensions of program PWSCF are:
     Max number of different atomic species (ntypx) = 10
     Max number of k-points (npk) =  40000
     Max angular momentum in pseudopotentials (lmaxx) =  4
     Message from routine setup:
     using ibrav=0 with symmetry is DISCOURAGED, use correct ibrav instead

     K-points division:     npool     =       2
     R & G space division:  proc/nbgrp/npool/nimage =       4
     Subspace diagonalization in iterative solution of the eigenvalue problem:
     one sub-group per band group will be used

     Using Slab Decomposition

     bravais-lattice index     =            0
     lattice parameter (alat)  =      13.6075  a.u.
     unit-cell volume          =    3702.5547 (a.u.)^3
     number of atoms/cell      =           18
     number of atomic types    =            3
     number of electrons       =       220.00
     number of Kohn-Sham states=          256
     kinetic-energy cutoff     =      30.0000  Ry
     charge density cutoff     =     240.0000  Ry
     scf convergence threshold =      1.0E-06
     mixing beta               =       0.7000
     number of iterations used =            8  plain     mixing
     Exchange-correlation= SLA  PW   PBE  PBE
                           (   1   4   3   4   0   0   0)

     celldm(1)=  13.607480  celldm(2)=   0.000000  celldm(3)=   0.000000
     celldm(4)=   0.000000  celldm(5)=   0.000000  celldm(6)=   0.000000

     crystal axes: (cart. coord. in units of alat)
               a(1) = (   1.000000   0.000000   0.000000 )
               a(2) = (   0.521598   0.853191   0.000000 )
               a(3) = (   0.752177   0.421761   1.722353 )

     reciprocal axes: (cart. coord. in units 2 pi/alat)
               b(1) = (  1.000000 -0.611350 -0.287011 )
               b(2) = (  0.000000  1.172070 -0.287011 )
               b(3) = (  0.000000  0.000000  0.580601 )

     PseudoPot. # 1 for Tl read from file:
     /lustre07/scratch/pragov/crystal_structure_design/utils/SSSP/Tl_pbe_v1.2.uspp.F.UPF
     MD5 check sum: b76cf1f7e72655a2b2c53cf6385d7059
     Pseudo is Ultrasoft + core correction, Zval = 13.0
     Generated by new atomic code, or converted to UPF format
     Using radial grid of  899 points,  6 beta functions with:
                l(1) =   0
                l(2) =   0
                l(3) =   1
                l(4) =   1
                l(5) =   2
                l(6) =   2
     Q(r) pseudized with  6 coefficients,  rinner =    1.100   1.100   1.100
                                                       1.100   1.100

     PseudoPot. # 2 for Hg read from file:
     /lustre07/scratch/pragov/crystal_structure_design/utils/SSSP/Hg_ONCV_PBE-1.0.oncvpsp.upf
     MD5 check sum: dd5a8773074bfcf4280086d4d95875c4
     Pseudo is Norm-conserving, Zval = 20.0
     Generated using ONCVPSP code by D. R. Hamann
     Using radial grid of 1262 points,  8 beta functions with:
                l(1) =   0
                l(2) =   0
                l(3) =   1
                l(4) =   1
                l(5) =   2
                l(6) =   2
                l(7) =   3
                l(8) =   3

     PseudoPot. # 3 for Se read from file:
     /lustre07/scratch/pragov/crystal_structure_design/utils/SSSP/Se_pbe_v1.uspp.F.UPF
     MD5 check sum: 1b3568f3a8ae88f9a2a0ad0698632c85
     Pseudo is Ultrasoft + core correction, Zval =  6.0
     Generated by new atomic code, or converted to UPF format
     Using radial grid of  877 points,  6 beta functions with:
                l(1) =   0
                l(2) =   0
                l(3) =   1
                l(4) =   1
                l(5) =   2
                l(6) =   2
     Q(r) pseudized with  8 coefficients,  rinner =    1.300   1.300   1.300
                                                       1.300   1.300

     atomic species   valence    mass     pseudopotential
        Tl            13.00   204.38000     Tl( 1.00)
        Hg            20.00   200.59200     Hg( 1.00)
        Se             6.00    78.97100     Se( 1.00)

      2 Sym. Ops., with inversion, found

                                    s                        frac. trans.

      isym =  1     identity

 cryst.   s( 1) = (     1          0          0      )
                  (     0          1          0      )
                  (     0          0          1      )

 cart.    s( 1) = (  1.0000000  0.0000000  0.0000000 )
                  (  0.0000000  1.0000000  0.0000000 )
                  (  0.0000000  0.0000000  1.0000000 )

      isym =  2     inversion

 cryst.   s( 2) = (    -1          0          0      )
                  (     0         -1          0      )
                  (     0          0         -1      )

 cart.    s( 2) = ( -1.0000000  0.0000000  0.0000000 )
                  (  0.0000000 -1.0000000 -0.0000000 )
                  (  0.0000000  0.0000000 -1.0000000 )

   Cartesian axes

     site n.     atom                  positions (alat units)
         1           Tl  tau(   1) = (   0.9339111   0.6165148   1.6331124  )
         2           Tl  tau(   2) = (   1.6367329   1.0106012   0.9504166  )
         3           Tl  tau(   3) = (   1.3398646   0.6584374   0.0892403  )
         4           Tl  tau(   4) = (   0.6370429   0.2643510   0.7719361  )
         5           Hg  tau(   5) = (   0.7732649   0.8451664   0.4305882  )
         6           Hg  tau(   6) = (   1.5005109   0.4297859   1.2917645  )
         7           Hg  tau(   7) = (   0.8395892   0.3391585   0.2627380  )
         8           Hg  tau(   8) = (   1.1703917   0.5246462   0.5984383  )
         9           Hg  tau(   9) = (   1.4341866   0.9357937   1.4596146  )
        10           Hg  tau(  10) = (   1.1033841   0.7503060   1.1239143  )
        11           Se  tau(  11) = (   1.3936362   0.8958377   0.4476549  )
        12           Se  tau(  12) = (   0.4064479   0.3423012   0.4135214  )
        13           Se  tau(  13) = (   0.8801396   0.3791145   1.2746977  )
        14           Se  tau(  14) = (   1.8673279   0.9326510   1.3088313  )
        15           Se  tau(  15) = (   0.8727346   0.6481251   0.7406840  )
        16           Se  tau(  16) = (   0.8894955   0.6575233   0.1204923  )
        17           Se  tau(  17) = (   1.4010412   0.6268271   0.9816687  )
        18           Se  tau(  18) = (   1.3842803   0.6174289   1.6018603  )

   Crystallographic axes

     site n.     atom                  positions (cryst. coord.)
         1           Tl  tau(   1) = (  0.0882840  0.2538780  0.9481870  )
         2           Tl  tau(   2) = (  0.7461220  0.9117160  0.5518130  )
         3           Tl  tau(   3) = (  0.9117160  0.7461220  0.0518130  )
         4           Tl  tau(   4) = (  0.2538780  0.0882840  0.4481870  )
         5           Hg  tau(   5) = (  0.1329890  0.8670110  0.2500000  )
         6           Hg  tau(   6) = (  0.8670110  0.1329890  0.7500000  )
         7           Hg  tau(   7) = (  0.5568360  0.3221090  0.1525460  )
         8           Hg  tau(   8) = (  0.6778910  0.4431640  0.3474540  )
         9           Hg  tau(   9) = (  0.4431640  0.6778910  0.8474540  )
        10           Hg  tau(  10) = (  0.3221090  0.5568360  0.6525460  )
        11           Se  tau(  11) = (  0.7174840  0.9215030  0.2599090  )
        12           Se  tau(  12) = (  0.0784970  0.2825160  0.2400910  )
        13           Se  tau(  13) = (  0.2825160  0.0784970  0.7400910  )
        14           Se  tau(  14) = (  0.9215030  0.7174840  0.7599090  )
        15           Se  tau(  15) = (  0.2639190  0.5470640  0.4300420  )
        16           Se  tau(  16) = (  0.4529360  0.7360810  0.0699580  )
        17           Se  tau(  17) = (  0.7360810  0.4529360  0.5699580  )
        18           Se  tau(  18) = (  0.5470640  0.2639190  0.9300420  )

     number of k points=    14
                       cart. coord. in units 2pi/alat
        k(    1) = (   0.0000000   0.0000000   0.0000000), wk =   0.0740741
        k(    2) = (   0.0000000   0.0000000   0.1935337), wk =   0.1481481
        k(    3) = (   0.0000000   0.3906901  -0.0956702), wk =   0.1481481
        k(    4) = (   0.0000000   0.3906901   0.0978635), wk =   0.1481481
        k(    5) = (   0.0000000   0.3906901  -0.2892040), wk =   0.1481481
        k(    6) = (   0.3333333  -0.2037834  -0.0956702), wk =   0.1481481
        k(    7) = (   0.3333333  -0.2037834   0.0978635), wk =   0.1481481
        k(    8) = (   0.3333333  -0.2037834  -0.2892040), wk =   0.1481481
        k(    9) = (   0.3333333   0.1869068  -0.1913405), wk =   0.1481481
        k(   10) = (   0.3333333   0.1869068   0.0021933), wk =   0.1481481
        k(   11) = (   0.3333333   0.1869068  -0.3848742), wk =   0.1481481
        k(   12) = (   0.3333333  -0.5944735   0.0000000), wk =   0.1481481
        k(   13) = (   0.3333333  -0.5944735   0.1935337), wk =   0.1481481
        k(   14) = (   0.3333333  -0.5944735  -0.1935337), wk =   0.1481481

                       cryst. coord.
        k(    1) = (   0.0000000   0.0000000   0.0000000), wk =   0.0740741
        k(    2) = (   0.0000000   0.0000000   0.3333333), wk =   0.1481481
        k(    3) = (   0.0000000   0.3333333   0.0000000), wk =   0.1481481
        k(    4) = (   0.0000000   0.3333333   0.3333333), wk =   0.1481481
        k(    5) = (   0.0000000   0.3333333  -0.3333333), wk =   0.1481481
        k(    6) = (   0.3333333   0.0000000  -0.0000000), wk =   0.1481481
        k(    7) = (   0.3333333   0.0000000   0.3333333), wk =   0.1481481
        k(    8) = (   0.3333333   0.0000000  -0.3333333), wk =   0.1481481
        k(    9) = (   0.3333333   0.3333333  -0.0000000), wk =   0.1481481
        k(   10) = (   0.3333333   0.3333333   0.3333333), wk =   0.1481481
        k(   11) = (   0.3333333   0.3333333  -0.3333333), wk =   0.1481481
        k(   12) = (   0.3333333  -0.3333333  -0.0000000), wk =   0.1481481
        k(   13) = (   0.3333333  -0.3333333   0.3333333), wk =   0.1481481
        k(   14) = (   0.3333333  -0.3333333  -0.3333333), wk =   0.1481481

     Check: negative core charge=   -0.000003

     Initial potential from superposition of free atoms

     starting charge     219.9795, renormalised to     220.0000

     negative rho (up, down):  2.014E-01 0.000E+00
     Starting wfcs are  128 randomized atomic wfcs +  128 random wfcs

     Self-consistent Calculation

     iteration #  1     ecut=    30.00 Ry     beta= 0.70
     Davidson diagonalization with overlap

     ethr =  1.00E-02,  avg # of iterations =  6.9

     Threshold (ethr) on eigenvalues was too large:
     Diagonalizing with lowered threshold

     Davidson diagonalization with overlap

[...]

     negative rho (up, down):  2.011E-01 0.000E+00

     total energy              =   -2787.99673549 Ry
     estimated scf accuracy    <       1.11597967 Ry

[...]

     c_bands:  1 eigenvalues not converged
     c_bands:  2 eigenvalues not converged
     c_bands:  2 eigenvalues not converged
     c_bands:  3 eigenvalues not converged
     c_bands:  1 eigenvalues not converged
     c_bands:  1 eigenvalues not converged
     ethr =  7.84E-06,  avg # of iterations = 18.8

[...]

     c_bands:  1 eigenvalues not converged
     ethr =  3.11E-06,  avg # of iterations = 10.4

[...]

     total energy              =   -2788.54555267 Ry
     estimated scf accuracy    <       0.00003005 Ry

     iteration #  9     ecut=    30.00 Ry     beta= 0.70
     Davidson diagonalization with overlap

     ethr =  5.26E-09,  avg # of iterations =  1.0

     negative rho (up, down):  2.012E-01 0.000E+00

     End of self-consistent calculation

          k = 0.0000 0.0000 0.0000 ( 10281 PWs)   bands (ev):

  -108.9263-108.9263-108.9255-108.9254-108.4605-108.4604 -56.8990 -56.8988
   -56.8977 -56.8966 -56.7306 -56.7302 -56.7293 -56.7292 -56.7129 -56.7097
   -56.7068 -56.7027 -56.3242 -56.3214 -56.3155 -56.3132 -56.3119 -56.3097
    -5.8784  -5.7083  -5.5286  -5.4354  -5.2644  -5.2509  -5.2098  -5.1261
    -3.7877  -3.7804  -3.7494  -3.7410  -3.7362  -3.7184  -3.7160  -3.7141
    -3.7128  -3.7066  -3.6960  -3.6916  -3.6789  -3.6783  -3.6769  -3.6739
    -3.6367  -3.6348  -3.6302  -3.6153  -0.2544  -0.0988  -0.0844   0.0314
     0.2178   0.2228   0.2425   0.2579   0.2692   0.2922   0.3417   0.3658
     0.4875   0.5154   0.5226   0.5741   0.6404   0.6612   0.6780   0.6873
     0.6964   0.7861   0.7913   0.8573   0.8701   0.8743   0.8895   0.8996
     0.9672   1.0021   1.5608   1.8598   2.0969   2.1621   2.5979   2.6508
     2.7034   2.9182   3.1465   3.2773   3.6495   4.4599   4.4677   4.4749
     4.6011   4.6421   4.9164   5.0002   5.3281   5.5463   5.7966   5.8286
     5.9037   6.0705   6.0928   6.1893   6.2524   6.5440   7.6051   8.6001
     8.9867   9.0749   9.2291   9.5972   9.9333  10.0968  10.1937  10.1997
    10.2865  10.5267  10.5434  11.0574  11.4230  11.5921  11.6138  11.8614
    11.9187  12.2797  12.5577  12.6577  12.9675  12.9954  13.2624  13.4441
    13.9126  13.9504  14.0434  14.1422  14.3388  14.3419  14.5213  14.7793
    15.5272  15.5779  15.6487  15.9311  15.9620  16.0710  16.1049  16.1773
    16.2084  16.3129  16.6175  16.7736  16.8073  16.8892  17.0098  17.0276
    17.2984  17.3496  17.3726  17.5222  17.7501  17.7640  18.1699  18.1790
    18.2854  18.4139  18.4724  18.8690  18.9582  19.0647  19.1851  19.2982
    19.3031  19.3580  19.4605  19.6786  19.8936  19.9782  20.0084  20.1049
    20.2342  20.4118  20.4694  20.5604  20.5682  20.5850  20.9136  20.9494
    21.1046  21.1532  21.2817  21.4911  21.4973  21.6537  21.7359  21.7931
    22.1077  22.3102  22.7126  22.9565  23.1136  23.1612  23.2983  23.3723
    23.6281  23.6934  24.0370  24.0976  24.1218  24.2022  24.2487  24.5663
    24.6546  24.7023  24.7105  24.9068  25.0082  25.3629  25.3630  25.5265
    25.5812  25.6551  25.8789  25.9354  25.9857  26.0497  26.1667  26.2098
    26.2176  26.5733  26.6505  26.6957  26.8960  26.9829  27.0174  27.0958
    27.1532  27.1849  27.4533  27.4543  27.5629  27.7406  27.7648  27.7968
    27.8893  27.9047  27.9530  28.1539  28.2546  28.3004  28.4293  28.6454

     occupation numbers
     1.0000   1.0000   1.0000   1.0000   1.0000   1.0000   1.0000   1.0000
     1.0000   1.0000   1.0000   1.0000   1.0000   1.0000   1.0000   1.0000
     1.0000   1.0000   1.0000   1.0000   1.0000   1.0000   1.0000   1.0000
     1.0000   1.0000   1.0000   1.0000   1.0000   1.0000   1.0000   1.0000
     1.0000   1.0000   1.0000   1.0000   1.0000   1.0000   1.0000   1.0000
     1.0000   1.0000   1.0000   1.0000   1.0000   1.0000   1.0000   1.0000
     1.0000   1.0000   1.0000   1.0000   1.0000   1.0000   1.0000   1.0000
     1.0000   1.0000   1.0000   1.0000   1.0000   1.0000   1.0000   1.0000
     1.0000   1.0000   1.0000   1.0000   1.0000   1.0000   1.0000   1.0000
     1.0000   1.0000   1.0000   1.0000   1.0000   1.0000   1.0000   1.0000
     1.0000   1.0000   1.0000   1.0000   1.0000   1.0000   1.0000   1.0000
     1.0000   1.0000   1.0000   1.0000   1.0000   1.0000   1.0000   1.0000
     1.0000   1.0000   1.0000   1.0000   1.0000   1.0000   1.0000   1.0000
     1.0000   1.0000   1.0000   1.0000   1.0000   1.0000   0.0000   0.0000
     0.0000   0.0000   0.0000   0.0000   0.0000   0.0000   0.0000   0.0000
     0.0000   0.0000   0.0000   0.0000   0.0000   0.0000   0.0000   0.0000
     0.0000   0.0000   0.0000   0.0000   0.0000   0.0000   0.0000   0.0000
     0.0000   0.0000   0.0000   0.0000   0.0000   0.0000   0.0000   0.0000
     0.0000   0.0000   0.0000   0.0000   0.0000   0.0000   0.0000   0.0000
     0.0000   0.0000   0.0000   0.0000   0.0000   0.0000   0.0000   0.0000
     0.0000   0.0000   0.0000   0.0000   0.0000   0.0000   0.0000   0.0000
     0.0000   0.0000   0.0000   0.0000   0.0000   0.0000   0.0000   0.0000
     0.0000   0.0000   0.0000   0.0000   0.0000   0.0000   0.0000   0.0000
     0.0000   0.0000   0.0000   0.0000   0.0000   0.0000   0.0000   0.0000
     0.0000   0.0000   0.0000   0.0000   0.0000   0.0000   0.0000   0.0000
     0.0000   0.0000   0.0000   0.0000   0.0000   0.0000   0.0000   0.0000
     0.0000   0.0000   0.0000   0.0000   0.0000   0.0000   0.0000   0.0000
     0.0000   0.0000   0.0000   0.0000   0.0000   0.0000   0.0000   0.0000
     0.0000   0.0000   0.0000   0.0000   0.0000   0.0000   0.0000   0.0000
     0.0000   0.0000   0.0000   0.0000   0.0000   0.0000   0.0000   0.0000
     0.0000   0.0000   0.0000   0.0000   0.0000   0.0000   0.0000   0.0000
     0.0000   0.0000   0.0000   0.0000   0.0000   0.0000   0.0000   0.0000

[...]

          k = 0.3333-0.5945-0.1935 ( 10300 PWs)   bands (ev):

  -108.9263-108.9263-108.9255-108.9254-108.4605-108.4605 -56.8999 -56.8979
   -56.8976 -56.8963 -56.7308 -56.7305 -56.7299 -56.7290 -56.7117 -56.7114
   -56.7057 -56.7046 -56.3226 -56.3222 -56.3141 -56.3137 -56.3129 -56.3113
    -5.6111  -5.5891  -5.5370  -5.5301  -5.3425  -5.3041  -5.2351  -5.2116
    -3.7954  -3.7926  -3.7680  -3.7641  -3.7433  -3.7349  -3.7100  -3.7073
    -3.7039  -3.7011  -3.6967  -3.6955  -3.6853  -3.6804  -3.6759  -3.6755
    -3.6596  -3.6459  -3.6327  -3.6307  -0.1045  -0.0839  -0.0308  -0.0019
     0.1476   0.1813   0.2322   0.2365   0.2570   0.2646   0.2886   0.3006
     0.5234   0.5415   0.6053   0.6268   0.6347   0.6451   0.6550   0.6637
     0.7258   0.7420   0.7750   0.8186   0.8429   0.8709   0.8892   0.8987
     0.9191   0.9227   1.4772   1.5138   1.8875   2.0111   2.1953   2.3736
     2.6626   2.8430   3.2980   3.4769   4.4926   4.6740   4.8980   4.9753
     5.0379   5.0817   5.3142   5.5456   5.6709   5.6946   5.6956   5.7941
     5.9634   5.9849   6.2056   6.2360   6.4804   6.5758   8.1915   8.4286
     8.5364   8.8817   8.9844   9.2151   9.3876   9.4342   9.8487  10.1145
    10.2178  10.3760  10.4636  10.5477  10.9947  11.1357  11.3100  11.5861
    11.8207  11.9388  12.0314  12.1042  12.4874  12.5724  12.8930  12.9214
    13.2834  13.4177  13.6210  13.8582  13.9792  14.1197  14.5788  14.7463
    14.8773  14.9658  15.5033  15.7813  15.9525  16.1096  16.4398  16.5173
    16.5424  16.9538  17.0000  17.1062  17.2446  17.4932  17.6086  17.7248
    17.8609  18.0701  18.1226  18.1465  18.2474  18.3374  18.4142  18.6206
    18.7024  18.8736  19.1438  19.2926  19.3244  19.4617  19.5409  19.6419
    19.6793  19.9081  20.0441  20.0945  20.1947  20.3179  20.4014  20.5576
    20.6687  20.7160  20.7990  20.9611  21.0172  21.1341  21.2309  21.5270
    21.6154  21.6883  21.8865  22.0600  22.1925  22.2455  22.4199  22.5239
    22.6487  22.9068  22.9557  23.0033  23.0791  23.1954  23.2464  23.3479
    23.3844  23.5208  23.6636  23.7268  23.7822  23.8606  23.9595  24.1062
    24.1713  24.2831  24.2882  24.3850  24.6100  24.7244  24.7514  24.8877
    24.9501  25.0774  25.2593  25.3335  25.4014  25.5928  25.6892  25.7871
    25.8702  25.9231  26.0132  26.0912  26.1534  26.2962  26.4580  26.5215
    26.6010  26.7359  26.8688  26.9109  26.9958  27.0329  27.1694  27.3085
    27.4182  27.5388  27.5502  27.6417  27.7482  27.9132  27.9291  28.0233

     occupation numbers
     1.0000   1.0000   1.0000   1.0000   1.0000   1.0000   1.0000   1.0000
     1.0000   1.0000   1.0000   1.0000   1.0000   1.0000   1.0000   1.0000
     1.0000   1.0000   1.0000   1.0000   1.0000   1.0000   1.0000   1.0000
     1.0000   1.0000   1.0000   1.0000   1.0000   1.0000   1.0000   1.0000
     1.0000   1.0000   1.0000   1.0000   1.0000   1.0000   1.0000   1.0000
     1.0000   1.0000   1.0000   1.0000   1.0000   1.0000   1.0000   1.0000
     1.0000   1.0000   1.0000   1.0000   1.0000   1.0000   1.0000   1.0000
     1.0000   1.0000   1.0000   1.0000   1.0000   1.0000   1.0000   1.0000
     1.0000   1.0000   1.0000   1.0000   1.0000   1.0000   1.0000   1.0000
     1.0000   1.0000   1.0000   1.0000   1.0000   1.0000   1.0000   1.0000
     1.0000   1.0000   1.0000   1.0000   1.0000   1.0000   1.0000   1.0000
     1.0000   1.0000   1.0000   1.0000   1.0000   1.0000   1.0000   1.0000
     1.0000   1.0000   1.0000   1.0000   1.0000   1.0000   1.0000   1.0000
     1.0000   1.0000   1.0000   1.0000   1.0000   1.0000   0.0000   0.0000
     0.0000   0.0000   0.0000   0.0000   0.0000   0.0000   0.0000   0.0000
     0.0000   0.0000   0.0000   0.0000   0.0000   0.0000   0.0000   0.0000
     0.0000   0.0000   0.0000   0.0000   0.0000   0.0000   0.0000   0.0000
     0.0000   0.0000   0.0000   0.0000   0.0000   0.0000   0.0000   0.0000
     0.0000   0.0000   0.0000   0.0000   0.0000   0.0000   0.0000   0.0000
     0.0000   0.0000   0.0000   0.0000   0.0000   0.0000   0.0000   0.0000
     0.0000   0.0000   0.0000   0.0000   0.0000   0.0000   0.0000   0.0000
     0.0000   0.0000   0.0000   0.0000   0.0000   0.0000   0.0000   0.0000
     0.0000   0.0000   0.0000   0.0000   0.0000   0.0000   0.0000   0.0000
     0.0000   0.0000   0.0000   0.0000   0.0000   0.0000   0.0000   0.0000
     0.0000   0.0000   0.0000   0.0000   0.0000   0.0000   0.0000   0.0000
     0.0000   0.0000   0.0000   0.0000   0.0000   0.0000   0.0000   0.0000
     0.0000   0.0000   0.0000   0.0000   0.0000   0.0000   0.0000   0.0000
     0.0000   0.0000   0.0000   0.0000   0.0000   0.0000   0.0000   0.0000
     0.0000   0.0000   0.0000   0.0000   0.0000   0.0000   0.0000   0.0000
     0.0000   0.0000   0.0000   0.0000   0.0000   0.0000   0.0000   0.0000
     0.0000   0.0000   0.0000   0.0000   0.0000   0.0000   0.0000   0.0000
     0.0000   0.0000   0.0000   0.0000   0.0000   0.0000   0.0000   0.0000

     highest occupied, lowest unoccupied level (ev):     6.5758    7.6051

!    total energy              =   -2788.54555657 Ry
     estimated scf accuracy    <       0.00000072 Ry

     The total energy is the sum of the following terms:
     one-electron contribution =   -1497.72389702 Ry
     hartree contribution      =     802.74300327 Ry
     xc contribution           =    -649.93596137 Ry
     ewald contribution        =   -1443.62870145 Ry

     convergence has been achieved in   9 iterations

     Writing all to output data dir bands_nm/myprefix.save/

     General routines

     Parallel routines

   This run was terminated on:  18:41:38  15Jul2023

   JOB DONE.