     Program PWSCF v.7.1 starts on 15Jul2023 at 18:32:13

     Reading input from espresso_25552.pwi
Warning: card &CELL ignored
Warning: card / ignored

     Current dimensions of program PWSCF are:
     Max number of different atomic species (ntypx) = 10
     Max number of k-points (npk) =  40000
     Max angular momentum in pseudopotentials (lmaxx) =  4
     Message from routine setup:
     using ibrav=0 with symmetry is DISCOURAGED, use correct ibrav instead

     K-points division:     npool     =       2
     R & G space division:  proc/nbgrp/npool/nimage =       4
     Subspace diagonalization in iterative solution of the eigenvalue problem:
     one sub-group per band group will be used

     Using Slab Decomposition

     bravais-lattice index     =            0
     lattice parameter (alat)  =      17.3742  a.u.
     unit-cell volume          =    2415.6713 (a.u.)^3
     number of atoms/cell      =           12
     number of atomic types    =            3
     number of electrons       =       156.00
     number of Kohn-Sham states=          256
     kinetic-energy cutoff     =      30.0000  Ry
     charge density cutoff     =     240.0000  Ry
     scf convergence threshold =      1.0E-06
     mixing beta               =       0.7000
     number of iterations used =            8  plain     mixing
     Exchange-correlation= SLA  PW   PBE  PBE
                           (   1   4   3   4   0   0   0)

     celldm(1)=  17.374222  celldm(2)=   0.000000  celldm(3)=   0.000000
     celldm(4)=   0.000000  celldm(5)=   0.000000  celldm(6)=   0.000000

     crystal axes: (cart. coord. in units of alat)
               a(1) = (   1.000000   0.000000   0.000000 )
               a(2) = (   0.871743   0.489964   0.000000 )
               a(3) = (   0.383250   0.100323   0.940065 )

     reciprocal axes: (cart. coord. in units 2 pi/alat)
               b(1) = (  1.000000 -1.779199 -0.217810 )
               b(2) = (  0.000000  2.040968 -0.217810 )
               b(3) = (  0.000000  0.000000  1.063756 )

     PseudoPot. # 1 for Rb read from file:
     /lustre07/scratch/pragov/crystal_structure_design/utils/SSSP/Rb_ONCV_PBE-1.0.oncvpsp.upf
     MD5 check sum: 55a5172d6bfbce6759a58e35d43f6aa9
     Pseudo is Norm-conserving, Zval =  9.0
     Generated using ONCVPSP code by D. R. Hamann
     Using radial grid of 2308 points,  6 beta functions with:
                l(1) =   0
                l(2) =   0
                l(3) =   1
                l(4) =   1
                l(5) =   2
                l(6) =   2

     PseudoPot. # 2 for Ag read from file:
     /lustre07/scratch/pragov/crystal_structure_design/utils/SSSP/Ag_ONCV_PBE-1.0.oncvpsp.upf
     MD5 check sum: 94f47bd0669c641108e45594df92fabc
     Pseudo is Norm-conserving, Zval = 19.0
     Generated using ONCVPSP code by D. R. Hamann
     Using radial grid of 1398 points,  6 beta functions with:
                l(1) =   0
                l(2) =   0
                l(3) =   1
                l(4) =   1
                l(5) =   2
                l(6) =   2

     PseudoPot. # 3 for Te read from file:
     /lustre07/scratch/pragov/crystal_structure_design/utils/SSSP/Te_pbe_v1.uspp.F.UPF
     MD5 check sum: c319670d6894cc26e93307826a071b75
     Pseudo is Ultrasoft + core correction, Zval =  6.0
     Generated by new atomic code, or converted to UPF format
     Using radial grid of  891 points,  5 beta functions with:
                l(1) =   0
                l(2) =   0
                l(3) =   1
                l(4) =   1
                l(5) =   2
     Q(r) pseudized with  6 coefficients,  rinner =    1.800   1.800   1.800
                                                       1.800   1.800

     atomic species   valence    mass     pseudopotential
        Rb             9.00    85.46780     Rb( 1.00)
        Ag            19.00   107.86820     Ag( 1.00)
        Te             6.00   127.60000     Te( 1.00)

      2 Sym. Ops., with inversion, found

                                    s                        frac. trans.

      isym =  1     identity

 cryst.   s( 1) = (     1          0          0      )
                  (     0          1          0      )
                  (     0          0          1      )

 cart.    s( 1) = (  1.0000000 -0.0000000  0.0000000 )
                  (  0.0000000  1.0000000 -0.0000000 )
                  (  0.0000000  0.0000000  1.0000000 )

      isym =  2     inversion

 cryst.   s( 2) = (    -1          0          0      )
                  (     0         -1          0      )
                  (     0          0         -1      )

 cart.    s( 2) = ( -1.0000000  0.0000000  0.0000000 )
                  (  0.0000000 -1.0000000  0.0000000 )
                  (  0.0000000  0.0000000 -1.0000000 )

   Cartesian axes

     site n.     atom                  positions (alat units)
         1           Rb  tau(   1) = (   0.6180461   0.1617851   0.8935130  )
         2           Rb  tau(   2) = (   1.6369468   0.4285013   0.0465520  )
         3           Ag  tau(   3) = (   1.9120025   0.5005023   0.3844180  )
         4           Ag  tau(   4) = (   1.2423305   0.3252032   0.3515505  )
         5           Ag  tau(   5) = (   0.3429905   0.0897841   0.5556471  )
         6           Ag  tau(   6) = (   0.7526769   0.1970272   0.4269785  )
         7           Ag  tau(   7) = (   1.0126624   0.2650833   0.5885146  )
         8           Ag  tau(   8) = (   1.5023160   0.3932592   0.5130866  )
         9           Te  tau(   9) = (   0.4911656   0.1285718   0.2846555  )
        10           Te  tau(  10) = (   0.9839123   0.2575574   0.2107861  )
        11           Te  tau(  11) = (   1.2710807   0.3327291   0.7292790  )
        12           Te  tau(  12) = (   1.7638273   0.4617147   0.6554096  )

   Crystallographic axes

     site n.     atom                  positions (cryst. coord.)
         1           Rb  tau(   1) = (  0.1355820  0.1355820  0.9504800  )
         2           Rb  tau(   2) = (  0.8644180  0.8644180  0.0495200  )
         3           Ag  tau(   3) = (  0.9377790  0.9377790  0.4089270  )
         4           Ag  tau(   4) = (  0.5871580  0.5871580  0.3739640  )
         5           Ag  tau(   5) = (  0.0622210  0.0622210  0.5910730  )
         6           Ag  tau(   6) = (  0.3091260  0.3091260  0.4542010  )
         7           Ag  tau(   7) = (  0.4128420  0.4128420  0.6260360  )
         8           Ag  tau(   8) = (  0.6908740  0.6908740  0.5457990  )
         9           Te  tau(   9) = (  0.2004100  0.2004100  0.3028040  )
        10           Te  tau(  10) = (  0.4797550  0.4797550  0.2242250  )
        11           Te  tau(  11) = (  0.5202450  0.5202450  0.7757750  )
        12           Te  tau(  12) = (  0.7995900  0.7995900  0.6971960  )

     number of k points=    14
                       cart. coord. in units 2pi/alat
        k(    1) = (   0.0000000   0.0000000   0.0000000), wk =   0.0740741
        k(    2) = (   0.0000000   0.0000000   0.3545854), wk =   0.1481481
        k(    3) = (   0.0000000   0.6803227  -0.0726034), wk =   0.1481481
        k(    4) = (   0.0000000   0.6803227   0.2819820), wk =   0.1481481
        k(    5) = (   0.0000000   0.6803227  -0.4271888), wk =   0.1481481
        k(    6) = (   0.3333333  -0.5930664  -0.0726034), wk =   0.1481481
        k(    7) = (   0.3333333  -0.5930664   0.2819820), wk =   0.1481481
        k(    8) = (   0.3333333  -0.5930664  -0.4271888), wk =   0.1481481
        k(    9) = (   0.3333333   0.0872562  -0.1452068), wk =   0.1481481
        k(   10) = (   0.3333333   0.0872562   0.2093786), wk =   0.1481481
        k(   11) = (   0.3333333   0.0872562  -0.4997922), wk =   0.1481481
        k(   12) = (   0.3333333  -1.2733891  -0.0000000), wk =   0.1481481
        k(   13) = (   0.3333333  -1.2733891   0.3545854), wk =   0.1481481
        k(   14) = (   0.3333333  -1.2733891  -0.3545854), wk =   0.1481481

                       cryst. coord.
        k(    1) = (   0.0000000   0.0000000   0.0000000), wk =   0.0740741
        k(    2) = (   0.0000000   0.0000000   0.3333333), wk =   0.1481481
        k(    3) = (   0.0000000   0.3333333   0.0000000), wk =   0.1481481
        k(    4) = (   0.0000000   0.3333333   0.3333333), wk =   0.1481481
        k(    5) = (   0.0000000   0.3333333  -0.3333333), wk =   0.1481481
        k(    6) = (   0.3333333   0.0000000  -0.0000000), wk =   0.1481481
        k(    7) = (   0.3333333   0.0000000   0.3333333), wk =   0.1481481
        k(    8) = (   0.3333333   0.0000000  -0.3333333), wk =   0.1481481
        k(    9) = (   0.3333333   0.3333333  -0.0000000), wk =   0.1481481
        k(   10) = (   0.3333333   0.3333333   0.3333333), wk =   0.1481481
        k(   11) = (   0.3333333   0.3333333  -0.3333333), wk =   0.1481481
        k(   12) = (   0.3333333  -0.3333333  -0.0000000), wk =   0.1481481
        k(   13) = (   0.3333333  -0.3333333   0.3333333), wk =   0.1481481
        k(   14) = (   0.3333333  -0.3333333  -0.3333333), wk =   0.1481481

     Initial potential from superposition of free atoms

     starting charge     155.9479, renormalised to     156.0000
     Starting wfcs are   86 randomized atomic wfcs +  170 random wfcs

     Self-consistent Calculation

     iteration #  1     ecut=    30.00 Ry     beta= 0.70
     Davidson diagonalization with overlap

     ethr =  1.00E-02,  avg # of iterations =  7.7

     Threshold (ethr) on eigenvalues was too large:
     Diagonalizing with lowered threshold

     Davidson diagonalization with overlap

[...]

     total energy              =   -1926.53101579 Ry
     estimated scf accuracy    <       0.45528694 Ry

[...]

     total energy              =   -1926.69469958 Ry
     estimated scf accuracy    <       0.00000458 Ry

     iteration #  9     ecut=    30.00 Ry     beta= 0.70
     Davidson diagonalization with overlap

     ethr =  2.94E-09,  avg # of iterations =  1.0

     End of self-consistent calculation

          k = 0.0000 0.0000 0.0000 (  6725 PWs)   bands (ev):

   -84.7939 -84.7935 -84.7475 -84.7466 -84.7166 -84.7141 -47.8496 -47.8485
   -47.8464 -47.8433 -47.8310 -47.8302 -47.8103 -47.8026 -47.7922 -47.7820
   -47.7677 -47.7603 -47.7589 -47.7512 -47.7465 -47.7250 -47.7174 -47.7161
   -19.2414 -19.2371  -3.5916  -3.5138  -3.3418  -3.3311  -3.3097  -3.3065
    -3.1422  -2.7428  -2.5398  -2.5296   2.7476   2.7612   2.8431   3.0591
     3.1294   3.2266   3.2373   3.2447   3.3466   3.3683   3.4363   3.4673
     3.6684   3.7859   3.8337   3.8425   3.9321   3.9871   4.0239   4.1303
     4.2299   4.2802   4.3743   4.3847   4.4389   4.5220   4.5354   4.5357
     4.5466   4.6042   4.7360   4.8153   5.0619   6.1565   6.7507   6.7679
     6.9013   7.1246   7.6091   7.8662   7.8713   8.0772   8.3456   9.3168
     9.7505  10.3098  10.6314  11.1413  11.6289  11.6724  11.7979  12.1219
    12.6072  12.6181  13.0457  13.1863  13.4667  13.8599  13.8673  13.9824
    14.5893  14.6624  14.6668  15.2747  15.3435  15.4445  15.4835  15.7287
    15.8767  16.0189  16.0309  16.2978  16.3950  16.7502  17.0402  17.0615
    17.0730  17.1287  17.3453  17.6866  18.0180  18.2307  18.7619  18.8135
    18.9716  19.4006  19.4416  19.9845  20.1912  20.4621  20.5688  20.7954
    21.4111  21.6186  21.7245  21.8626  22.1137  22.1372  22.2246  22.6589
    22.7707  22.9584  23.1069  23.3653  23.6025  23.7871  23.8411  24.0312
    24.1064  24.2427  24.2485  24.4518  24.5808  24.6745  24.9040  25.6753
    25.8863  25.8877  26.1568  26.2396  26.5464  26.6480  26.8496  26.9530
    27.0127  27.1413  27.6441  27.8233  28.0924  28.1471  28.2537  28.5269
    28.6948  28.9987  29.0337  29.2307  29.4417  29.4854  29.5686  29.7965
    30.1744  30.2021  30.2312  30.3972  30.3975  30.4869  30.9430  31.0018
    31.0817  31.2031  31.3447  31.3990  31.4825  31.6216  31.8420  32.0031
    32.2279  32.2650  32.3669  32.4652  32.8953  33.1000  33.1210  33.2235
    33.3025  33.6859  33.7926  34.0080  34.0678  34.0753  34.1105  34.3304
    34.4397  34.4559  34.6929  35.1119  35.1358  35.1589  35.4144  35.4798
    35.4808  35.8971  36.0118  36.0613  36.0881  36.2531  36.4352  36.6023
    36.6694  36.7218  36.7445  36.8641  36.9451  37.0379  37.0441  37.1698
    37.2201  37.3141  37.3181  37.4156  37.6394  37.7488  37.7638  37.7993
    37.9715  38.0753  38.1799  38.1895  38.3000  38.6067  38.7381  38.9135
    38.9904  39.1876  39.2426  39.4484  39.4845  39.8308  39.9136  40.0154

     occupation numbers
     1.0000   1.0000   1.0000   1.0000   1.0000   1.0000   1.0000   1.0000
     1.0000   1.0000   1.0000   1.0000   1.0000   1.0000   1.0000   1.0000
     1.0000   1.0000   1.0000   1.0000   1.0000   1.0000   1.0000   1.0000
     1.0000   1.0000   1.0000   1.0000   1.0000   1.0000   1.0000   1.0000
     1.0000   1.0000   1.0000   1.0000   1.0000   1.0000   1.0000   1.0000
     1.0000   1.0000   1.0000   1.0000   1.0000   1.0000   1.0000   1.0000
     1.0000   1.0000   1.0000   1.0000   1.0000   1.0000   1.0000   1.0000
     1.0000   1.0000   1.0000   1.0000   1.0000   1.0000   1.0000   1.0000
     1.0000   1.0000   1.0000   1.0000   1.0000   1.0000   1.0000   1.0000
     1.0000   1.0000   1.0000   1.0000   1.0000   1.0000   0.0000   0.0000
     0.0000   0.0000   0.0000   0.0000   0.0000   0.0000   0.0000   0.0000
     0.0000   0.0000   0.0000   0.0000   0.0000   0.0000   0.0000   0.0000
     0.0000   0.0000   0.0000   0.0000   0.0000   0.0000   0.0000   0.0000
     0.0000   0.0000   0.0000   0.0000   0.0000   0.0000   0.0000   0.0000
     0.0000   0.0000   0.0000   0.0000   0.0000   0.0000   0.0000   0.0000
     0.0000   0.0000   0.0000   0.0000   0.0000   0.0000   0.0000   0.0000
     0.0000   0.0000   0.0000   0.0000   0.0000   0.0000   0.0000   0.0000
     0.0000   0.0000   0.0000   0.0000   0.0000   0.0000   0.0000   0.0000
     0.0000   0.0000   0.0000   0.0000   0.0000   0.0000   0.0000   0.0000
     0.0000   0.0000   0.0000   0.0000   0.0000   0.0000   0.0000   0.0000
     0.0000   0.0000   0.0000   0.0000   0.0000   0.0000   0.0000   0.0000
     0.0000   0.0000   0.0000   0.0000   0.0000   0.0000   0.0000   0.0000
     0.0000   0.0000   0.0000   0.0000   0.0000   0.0000   0.0000   0.0000
     0.0000   0.0000   0.0000   0.0000   0.0000   0.0000   0.0000   0.0000
     0.0000   0.0000   0.0000   0.0000   0.0000   0.0000   0.0000   0.0000
     0.0000   0.0000   0.0000   0.0000   0.0000   0.0000   0.0000   0.0000
     0.0000   0.0000   0.0000   0.0000   0.0000   0.0000   0.0000   0.0000
     0.0000   0.0000   0.0000   0.0000   0.0000   0.0000   0.0000   0.0000
     0.0000   0.0000   0.0000   0.0000   0.0000   0.0000   0.0000   0.0000
     0.0000   0.0000   0.0000   0.0000   0.0000   0.0000   0.0000   0.0000
     0.0000   0.0000   0.0000   0.0000   0.0000   0.0000   0.0000   0.0000
     0.0000   0.0000   0.0000   0.0000   0.0000   0.0000   0.0000   0.0000

[...]

          k = 0.3333-1.2734-0.3546 (  6700 PWs)   bands (ev):

   -84.7938 -84.7934 -84.7476 -84.7466 -84.7160 -84.7147 -47.8501 -47.8488
   -47.8433 -47.8428 -47.8312 -47.8271 -47.8094 -47.8040 -47.7915 -47.7876
   -47.7683 -47.7578 -47.7552 -47.7512 -47.7365 -47.7290 -47.7168 -47.7141
   -19.2372 -19.2350  -3.5562  -3.4491  -3.4121  -3.3629  -3.3509  -3.3383
    -2.6949  -2.6864  -2.5931  -2.5777   2.7453   2.7925   2.9252   3.1547
     3.2381   3.3049   3.3283   3.3553   3.4221   3.5055   3.5278   3.6565
     3.7196   3.7663   3.7769   3.8174   3.9213   4.0682   4.0902   4.1821
     4.2049   4.2703   4.2828   4.3459   4.4092   4.4718   4.5189   4.5633
     4.5754   4.6104   4.7194   4.8746   5.0215   5.3981   5.9858   6.2707
     6.3702   6.5881   6.6009   6.6694   7.0614   7.1594   9.6239  10.0475
    10.3106  10.5302  10.8712  11.2685  11.5278  11.9658  12.1513  12.4934
    12.9971  13.1059  13.2538  13.4018  13.7438  13.7900  14.1923  14.3705
    14.4486  14.6631  14.7603  14.8714  14.9775  15.3210  15.4494  15.7423
    15.9281  16.0617  16.3966  16.4971  16.6601  17.2360  17.3099  17.5516
    17.8088  18.0411  18.0725  18.6520  18.7860  18.9699  19.2414  19.5184
    19.6849  19.9437  20.1217  20.2111  20.4196  20.5288  20.8637  20.8968
    21.2297  21.3802  21.5567  21.8671  22.0382  22.2090  22.3656  22.4386
    22.7130  22.7644  22.9499  23.2238  23.4133  23.4873  23.8654  24.0630
    24.1141  24.3325  24.5239  24.6178  24.7093  25.0149  25.0954  25.3842
    25.6521  25.7058  25.8676  26.0867  26.1665  26.3051  26.6127  26.7186
    26.7753  26.9754  27.1369  27.2366  27.3626  27.6416  27.6706  27.8105
    27.8885  27.9868  28.1633  28.4104  28.4643  28.4870  28.6140  28.7792
    29.0422  29.0519  29.2171  29.4539  29.5991  29.6912  29.8880  29.9888
    30.2537  30.6319  30.6685  31.0506  31.1795  31.2582  31.5326  31.5786
    31.6733  31.9683  31.9967  32.3581  32.4516  32.5552  32.7153  32.7718
    33.0019  33.1892  33.2682  33.6111  33.7637  33.8641  34.0336  34.2001
    34.3293  34.4327  34.5006  34.6548  34.7118  34.8667  34.9813  35.0375
    35.3215  35.4438  35.4839  35.6899  35.7403  35.9246  36.1149  36.2896
    36.3869  36.5750  36.5838  36.8757  37.0536  37.2342  37.3499  37.4837
    37.6144  37.7908  37.8736  37.9716  38.2021  38.3792  38.4959  38.7276
    38.8065  39.0477  39.0842  39.3261  39.3651  39.4859  39.6765  39.8318
    39.8426  39.9702  40.0233  40.2110  40.3300  40.3753  40.5983  40.6904

     occupation numbers
     1.0000   1.0000   1.0000   1.0000   1.0000   1.0000   1.0000   1.0000
     1.0000   1.0000   1.0000   1.0000   1.0000   1.0000   1.0000   1.0000
     1.0000   1.0000   1.0000   1.0000   1.0000   1.0000   1.0000   1.0000
     1.0000   1.0000   1.0000   1.0000   1.0000   1.0000   1.0000   1.0000
     1.0000   1.0000   1.0000   1.0000   1.0000   1.0000   1.0000   1.0000
     1.0000   1.0000   1.0000   1.0000   1.0000   1.0000   1.0000   1.0000
     1.0000   1.0000   1.0000   1.0000   1.0000   1.0000   1.0000   1.0000
     1.0000   1.0000   1.0000   1.0000   1.0000   1.0000   1.0000   1.0000
     1.0000   1.0000   1.0000   1.0000   1.0000   1.0000   1.0000   1.0000
     1.0000   1.0000   1.0000   1.0000   1.0000   1.0000   0.0000   0.0000
     0.0000   0.0000   0.0000   0.0000   0.0000   0.0000   0.0000   0.0000
     0.0000   0.0000   0.0000   0.0000   0.0000   0.0000   0.0000   0.0000
     0.0000   0.0000   0.0000   0.0000   0.0000   0.0000   0.0000   0.0000
     0.0000   0.0000   0.0000   0.0000   0.0000   0.0000   0.0000   0.0000
     0.0000   0.0000   0.0000   0.0000   0.0000   0.0000   0.0000   0.0000
     0.0000   0.0000   0.0000   0.0000   0.0000   0.0000   0.0000   0.0000
     0.0000   0.0000   0.0000   0.0000   0.0000   0.0000   0.0000   0.0000
     0.0000   0.0000   0.0000   0.0000   0.0000   0.0000   0.0000   0.0000
     0.0000   0.0000   0.0000   0.0000   0.0000   0.0000   0.0000   0.0000
     0.0000   0.0000   0.0000   0.0000   0.0000   0.0000   0.0000   0.0000
     0.0000   0.0000   0.0000   0.0000   0.0000   0.0000   0.0000   0.0000
     0.0000   0.0000   0.0000   0.0000   0.0000   0.0000   0.0000   0.0000
     0.0000   0.0000   0.0000   0.0000   0.0000   0.0000   0.0000   0.0000
     0.0000   0.0000   0.0000   0.0000   0.0000   0.0000   0.0000   0.0000
     0.0000   0.0000   0.0000   0.0000   0.0000   0.0000   0.0000   0.0000
     0.0000   0.0000   0.0000   0.0000   0.0000   0.0000   0.0000   0.0000
     0.0000   0.0000   0.0000   0.0000   0.0000   0.0000   0.0000   0.0000
     0.0000   0.0000   0.0000   0.0000   0.0000   0.0000   0.0000   0.0000
     0.0000   0.0000   0.0000   0.0000   0.0000   0.0000   0.0000   0.0000
     0.0000   0.0000   0.0000   0.0000   0.0000   0.0000   0.0000   0.0000
     0.0000   0.0000   0.0000   0.0000   0.0000   0.0000   0.0000   0.0000
     0.0000   0.0000   0.0000   0.0000   0.0000   0.0000   0.0000   0.0000

     highest occupied, lowest unoccupied level (ev):     8.0956    8.3456

!    total energy              =   -1926.69470052 Ry
     estimated scf accuracy    <       0.00000064 Ry

     The total energy is the sum of the following terms:
     one-electron contribution =   -1844.71052528 Ry
     hartree contribution      =     956.93128870 Ry
     xc contribution           =    -235.11792618 Ry
     ewald contribution        =    -803.79753775 Ry

     convergence has been achieved in   9 iterations

     Writing all to output data dir bands_nm/myprefix.save/

     General routines

     Parallel routines

   This run was terminated on:  18:33:59  15Jul2023

   JOB DONE.