     Program PWSCF v.7.1 starts on 17Jul2023 at  1:37:26

     Reading input from espresso_4286.pwi
Warning: card &CELL ignored
Warning: card / ignored

     Current dimensions of program PWSCF are:
     Max number of different atomic species (ntypx) = 10
     Max number of k-points (npk) =  40000
     Max angular momentum in pseudopotentials (lmaxx) =  4
     file Ba.pbe-spn-kjpaw_psl.1.0.0.UPF: wavefunction(s)  5S 6S renormalized
     file O.pbe-n-kjpaw_psl.0.1.UPF: wavefunction(s)  2P renormalized
     Message from routine setup:
     using ibrav=0 with symmetry is DISCOURAGED, use correct ibrav instead

     K-points division:     npool     =       2
     R & G space division:  proc/nbgrp/npool/nimage =       4
     Subspace diagonalization in iterative solution of the eigenvalue problem:
     one sub-group per band group will be used

     Using Slab Decomposition

     bravais-lattice index     =            0
     lattice parameter (alat)  =      13.1992  a.u.
     unit-cell volume          =    2356.7323 (a.u.)^3
     number of atoms/cell      =           18
     number of atomic types    =            4
     number of electrons       =       224.00
     number of Kohn-Sham states=          256
     kinetic-energy cutoff     =      30.0000  Ry
     charge density cutoff     =     240.0000  Ry
     scf convergence threshold =      1.0E-06
     mixing beta               =       0.7000
     number of iterations used =            8  plain     mixing
     Exchange-correlation= SLA  PW   PBX  PBC
                           (   1   4   3   4   0   0   0)

     celldm(1)=  13.199166  celldm(2)=   0.000000  celldm(3)=   0.000000
     celldm(4)=   0.000000  celldm(5)=   0.000000  celldm(6)=   0.000000

     crystal axes: (cart. coord. in units of alat)
               a(1) = (   1.000000   0.000000   0.000000 )
               a(2) = (   0.000000   1.000000   0.000000 )
               a(3) = (   0.000000   0.000000   1.024875 )

     reciprocal axes: (cart. coord. in units 2 pi/alat)
               b(1) = (  1.000000  0.000000  0.000000 )
               b(2) = (  0.000000  1.000000  0.000000 )
               b(3) = (  0.000000  0.000000  0.975729 )

     PseudoPot. # 1 for Ba read from file:
     /lustre07/scratch/pragov/crystal_structure_design/utils/SSSP/Ba.pbe-spn-kjpaw_psl.1.0.0.UPF
     MD5 check sum: c432291d3e53af55f19d5e8866385beb
     Pseudo is Projector augmented-wave + core cor, Zval = 10.0
     Generated using "atomic" code by A. Dal Corso  v.5.1
     Shape of augmentation charge: PSQ
     Using radial grid of 1251 points,  7 beta functions with:
                l(1) =   0
                l(2) =   0
                l(3) =   0
                l(4) =   1
                l(5) =   1
                l(6) =   2
                l(7) =   2
     Q(r) pseudized with 0 coefficients

     PseudoPot. # 2 for Ag read from file:
     /lustre07/scratch/pragov/crystal_structure_design/utils/SSSP/Ag_ONCV_PBE-1.0.oncvpsp.upf
     MD5 check sum: 94f47bd0669c641108e45594df92fabc
     Pseudo is Norm-conserving, Zval = 19.0
     Generated using ONCVPSP code by D. R. Hamann
     Using radial grid of 1398 points,  6 beta functions with:
                l(1) =   0
                l(2) =   0
                l(3) =   1
                l(4) =   1
                l(5) =   2
                l(6) =   2

     PseudoPot. # 3 for Hg read from file:
     /lustre07/scratch/pragov/crystal_structure_design/utils/SSSP/Hg_ONCV_PBE-1.0.oncvpsp.upf
     MD5 check sum: dd5a8773074bfcf4280086d4d95875c4
     Pseudo is Norm-conserving, Zval = 20.0
     Generated using ONCVPSP code by D. R. Hamann
     Using radial grid of 1262 points,  8 beta functions with:
                l(1) =   0
                l(2) =   0
                l(3) =   1
                l(4) =   1
                l(5) =   2
                l(6) =   2
                l(7) =   3
                l(8) =   3

     PseudoPot. # 4 for O  read from file:
     /lustre07/scratch/pragov/crystal_structure_design/utils/SSSP/O.pbe-n-kjpaw_psl.0.1.UPF
     MD5 check sum: 0234752ac141de4415c5fc33072bef88
     Pseudo is Projector augmented-wave + core cor, Zval =  6.0
     Generated using "atomic" code by A. Dal Corso  v.5.0.99 svn rev. 10869
     Shape of augmentation charge: BESSEL
     Using radial grid of 1095 points,  4 beta functions with:
                l(1) =   0
                l(2) =   0
                l(3) =   1
                l(4) =   1
     Q(r) pseudized with 0 coefficients

     atomic species   valence    mass     pseudopotential
        Ba            10.00   137.32700     Ba( 1.00)
        Ag            19.00   107.86820     Ag( 1.00)
        Hg            20.00   200.59200     Hg( 1.00)
        O              6.00    15.99900     O ( 1.00)

     16 Sym. Ops., with inversion, found ( 8 have fractional translation)

                                    s                        frac. trans.

      isym =  1     identity

 cryst.   s( 1) = (     1          0          0      )
                  (     0          1          0      )
                  (     0          0          1      )

 cart.    s( 1) = (  1.0000000  0.0000000  0.0000000 )
                  (  0.0000000  1.0000000  0.0000000 )
                  (  0.0000000  0.0000000  1.0000000 )

      isym =  2     180 deg rotation - cart. axis [0,0,1]

[...]

      isym =  8      90 deg rotation - cart. axis [0,0,1]

 cryst.   s( 8) = (     0          1          0      )
                  (    -1          0          0      )
                  (     0          0          1      )

 cart.    s( 8) = (  0.0000000 -1.0000000  0.0000000 )
                  (  1.0000000  0.0000000  0.0000000 )
                  (  0.0000000  0.0000000  1.0000000 )

      isym =  9     inversion

 cryst.   s( 9) = (    -1          0          0      )    f =(  0.5000000 )
                  (     0         -1          0      )       (  0.5000000 )
                  (     0          0         -1      )       (  0.0000000 )

 cart.    s( 9) = ( -1.0000000  0.0000000  0.0000000 )    f =(  0.5000000 )
                  (  0.0000000 -1.0000000  0.0000000 )       (  0.5000000 )
                  (  0.0000000  0.0000000 -1.0000000 )       (  0.0000000 )

      isym = 10     inv. 180 deg rotation - cart. axis [0,0,1]

 cryst.   s(10) = (     1          0          0      )    f =( -0.5000000 )
                  (     0          1          0      )       ( -0.5000000 )
                  (     0          0         -1      )       (  0.0000000 )

 cart.    s(10) = (  1.0000000  0.0000000  0.0000000 )    f =( -0.5000000 )
                  (  0.0000000  1.0000000  0.0000000 )       ( -0.5000000 )
                  (  0.0000000  0.0000000 -1.0000000 )       (  0.0000000 )

[...]

      isym = 16     inv.  90 deg rotation - cart. axis [0,0,1]

 cryst.   s(16) = (     0         -1          0      )    f =( -0.5000000 )
                  (     1          0          0      )       (  0.5000000 )
                  (     0          0         -1      )       (  0.0000000 )

 cart.    s(16) = (  0.0000000  1.0000000  0.0000000 )    f =( -0.5000000 )
                  ( -1.0000000  0.0000000  0.0000000 )       (  0.5000000 )
                  (  0.0000000  0.0000000 -1.0000000 )       (  0.0000000 )

   Cartesian axes

     site n.     atom                  positions (alat units)
         1           Ba  tau(   1) = (   0.0000000   0.0000000   0.0000000  )
         2           Ba  tau(   2) = (   0.5000000   0.5000000   0.0000000  )
         3           Ag  tau(   3) = (   0.2500000   0.7500000   0.5124373  )
         4           Ag  tau(   4) = (   0.7500000   0.2500000   0.5124373  )
         5           Ag  tau(   5) = (   0.7500000   0.7500000   0.5124373  )
         6           Ag  tau(   6) = (   0.2500000   0.2500000   0.5124373  )
         7           Hg  tau(   7) = (   0.0000000   0.5000000   0.7976958  )
         8           Hg  tau(   8) = (   0.0000000   0.5000000   0.2271788  )
         9           Hg  tau(   9) = (   0.5000000   0.0000000   0.2271788  )
        10           Hg  tau(  10) = (   0.5000000   0.0000000   0.7976958  )
        11           O   tau(  11) = (   0.2930240   0.7930240   0.8094491  )
        12           O   tau(  12) = (   0.2069760   0.7069760   0.2154256  )
        13           O   tau(  13) = (   0.7069760   0.2069760   0.8094491  )
        14           O   tau(  14) = (   0.7930240   0.2930240   0.2154256  )
        15           O   tau(  15) = (   0.2069760   0.2930240   0.8094491  )
        16           O   tau(  16) = (   0.7069760   0.7930240   0.2154256  )
        17           O   tau(  17) = (   0.2930240   0.2069760   0.2154256  )
        18           O   tau(  18) = (   0.7930240   0.7069760   0.8094491  )

   Crystallographic axes

     site n.     atom                  positions (cryst. coord.)
         1           Ba  tau(   1) = (  0.0000000  0.0000000  0.0000000  )
         2           Ba  tau(   2) = (  0.5000000  0.5000000  0.0000000  )
         3           Ag  tau(   3) = (  0.2500000  0.7500000  0.5000000  )
         4           Ag  tau(   4) = (  0.7500000  0.2500000  0.5000000  )
         5           Ag  tau(   5) = (  0.7500000  0.7500000  0.5000000  )
         6           Ag  tau(   6) = (  0.2500000  0.2500000  0.5000000  )
         7           Hg  tau(   7) = (  0.0000000  0.5000000  0.7783350  )
         8           Hg  tau(   8) = (  0.0000000  0.5000000  0.2216650  )
         9           Hg  tau(   9) = (  0.5000000  0.0000000  0.2216650  )
        10           Hg  tau(  10) = (  0.5000000  0.0000000  0.7783350  )
        11           O   tau(  11) = (  0.2930240  0.7930240  0.7898030  )
        12           O   tau(  12) = (  0.2069760  0.7069760  0.2101970  )
        13           O   tau(  13) = (  0.7069760  0.2069760  0.7898030  )
        14           O   tau(  14) = (  0.7930240  0.2930240  0.2101970  )
        15           O   tau(  15) = (  0.2069760  0.2930240  0.7898030  )
        16           O   tau(  16) = (  0.7069760  0.7930240  0.2101970  )
        17           O   tau(  17) = (  0.2930240  0.2069760  0.2101970  )
        18           O   tau(  18) = (  0.7930240  0.7069760  0.7898030  )

     number of k points=     6
                       cart. coord. in units 2pi/alat
        k(    1) = (   0.0000000   0.0000000   0.0000000), wk =   0.0740741
        k(    2) = (   0.0000000   0.0000000   0.3252430), wk =   0.1481481
        k(    3) = (   0.0000000   0.3333333   0.0000000), wk =   0.2962963
        k(    4) = (   0.0000000   0.3333333   0.3252430), wk =   0.5925926
        k(    5) = (   0.3333333   0.3333333   0.0000000), wk =   0.2962963
        k(    6) = (   0.3333333   0.3333333   0.3252430), wk =   0.5925926

                       cryst. coord.
        k(    1) = (   0.0000000   0.0000000   0.0000000), wk =   0.0740741
        k(    2) = (   0.0000000   0.0000000   0.3333333), wk =   0.1481481
        k(    3) = (   0.0000000   0.3333333   0.0000000), wk =   0.2962963
        k(    4) = (   0.0000000   0.3333333   0.3333333), wk =   0.5925926
        k(    5) = (   0.3333333   0.3333333   0.0000000), wk =   0.2962963
        k(    6) = (   0.3333333   0.3333333   0.3333333), wk =   0.5925926

     Check: negative core charge=   -0.000009

     Initial potential from superposition of free atoms

     starting charge     223.9645, renormalised to     224.0000
     Starting wfcs are  122 randomized atomic wfcs +  134 random wfcs
     Checking if some PAW data can be deallocated...

     Self-consistent Calculation

     iteration #  1     ecut=    30.00 Ry     beta= 0.70
     Davidson diagonalization with overlap

     ethr =  1.00E-02,  avg # of iterations =  7.7

     total energy              =   -3590.54149178 Ry
     estimated scf accuracy    <       4.91270520 Ry

[...]

     total energy              =   -3593.22064352 Ry
     estimated scf accuracy    <       0.00000629 Ry

     iteration #  9     ecut=    30.00 Ry     beta= 0.70
     Davidson diagonalization with overlap

     ethr =  2.81E-09,  avg # of iterations =  5.0

     End of self-consistent calculation

          k = 0.0000 0.0000 0.0000 (  6587 PWs)   bands (ev):

  -106.3601-106.3599-106.3597-106.3597 -82.6904 -82.6902 -82.6902 -82.6899
   -54.3758 -54.3758 -54.3736 -54.3736 -54.2017 -54.1976 -54.1966 -54.1885
   -54.0960 -54.0960 -54.0936 -54.0936 -45.8388 -45.8388 -45.8363 -45.8362
   -45.7409 -45.7359 -45.7359 -45.7329 -45.6290 -45.6232 -45.6232 -45.6206
   -16.7548 -16.7356  -8.3750  -8.2471  -8.2327  -8.0520  -8.0108  -8.0108
    -7.7227  -7.7227  -2.0269  -1.9651  -1.9651  -1.8535  -1.8535  -1.8235
     1.8196   2.0356   2.1462   2.2022   2.3812   2.3812   2.6028   2.6218
     2.6218   2.6313   2.7778   2.8017   2.8897   2.9666   3.1479   3.1479
     3.2074   3.2074   3.4773   3.5923   3.8839   4.2798   4.3723   4.7985
     4.8394   4.8394   4.8671   5.2649   5.2649   5.7674   5.7674   5.7879
     5.8118   6.0141   6.0141   6.1144   6.1308   6.1670   6.1670   6.3397
     6.3397   6.4526   6.5796   6.7931   6.8836   6.9323   7.1144   7.2703
     7.3947   7.4873   7.4981   7.4981   7.5650   7.5650   7.8154   7.8154
     7.9325   7.9556   7.9556   8.4610   8.4610   8.6558   8.6681   8.6743
    10.4339  10.4575  11.5882  12.0995  12.7001  12.7001  12.7355  12.8965
    13.8883  13.8883  14.1443  14.4393  14.5839  14.5839  15.3196  15.5576
    15.5897  16.0717  16.4228  16.6566  16.6566  16.9717  17.0759  17.0834
    17.0834  17.3061  17.4699  17.4699  18.5807  18.8192  18.9224  18.9224
    19.2106  19.4455  20.0088  20.3005  20.3005  20.4128  20.4128  20.8780
    21.8191  21.8191  21.8227  22.1217  22.1830  22.2608  22.3416  23.7301
    23.7301  23.7367  23.8777  23.8777  23.9481  24.1576  24.1576  24.5107
    24.7620  24.9053  25.3550  25.3550  25.6013  25.6807  26.1704  26.1704
    26.5242  26.6021  26.7743  26.7860  26.7860  27.0459  27.4435  27.5853
    27.9972  28.0136  28.1338  28.1391  28.1391  28.1605  28.1605  28.4753
    28.4753  29.1809  29.1809  29.6452  29.7086  29.8184  29.8184  29.9800
    29.9800  30.4388  30.5868  30.6237  30.6237  31.1206  31.1206  31.5809
    31.5935  31.7306  32.1385  32.2047  32.2317  32.2348  32.3004  32.3004
    32.5606  33.1656  33.1992  33.1992  33.4265  33.5334  34.1139  34.2616
    34.2616  34.3389  34.3574  34.3574  34.8197  35.0307  35.0454  35.1761
    35.2153  35.3318  35.3925  35.3925  35.7354  35.7354  35.8236  36.0058
    36.2674  36.4015  36.4015  36.8396  36.8396  37.0054  37.0054  37.0757
    37.1036  37.2715  37.2821  37.2821  37.3603  37.4504  37.8163  37.8164

     occupation numbers
     1.0000   1.0000   1.0000   1.0000   1.0000   1.0000   1.0000   1.0000
     1.0000   1.0000   1.0000   1.0000   1.0000   1.0000   1.0000   1.0000
     1.0000   1.0000   1.0000   1.0000   1.0000   1.0000   1.0000   1.0000
     1.0000   1.0000   1.0000   1.0000   1.0000   1.0000   1.0000   1.0000
     1.0000   1.0000   1.0000   1.0000   1.0000   1.0000   1.0000   1.0000
     1.0000   1.0000   1.0000   1.0000   1.0000   1.0000   1.0000   1.0000
     1.0000   1.0000   1.0000   1.0000   1.0000   1.0000   1.0000   1.0000
     1.0000   1.0000   1.0000   1.0000   1.0000   1.0000   1.0000   1.0000
     1.0000   1.0000   1.0000   1.0000   1.0000   1.0000   1.0000   1.0000
     1.0000   1.0000   1.0000   1.0000   1.0000   1.0000   1.0000   1.0000
     1.0000   1.0000   1.0000   1.0000   1.0000   1.0000   1.0000   1.0000
     1.0000   1.0000   1.0000   1.0000   1.0000   1.0000   1.0000   1.0000
     1.0000   1.0000   1.0000   1.0000   1.0000   1.0000   1.0000   1.0000
     1.0000   1.0000   1.0000   1.0000   1.0000   1.0000   1.0000   1.0000
     0.0000   0.0000   0.0000   0.0000   0.0000   0.0000   0.0000   0.0000
     0.0000   0.0000   0.0000   0.0000   0.0000   0.0000   0.0000   0.0000
     0.0000   0.0000   0.0000   0.0000   0.0000   0.0000   0.0000   0.0000
     0.0000   0.0000   0.0000   0.0000   0.0000   0.0000   0.0000   0.0000
     0.0000   0.0000   0.0000   0.0000   0.0000   0.0000   0.0000   0.0000
     0.0000   0.0000   0.0000   0.0000   0.0000   0.0000   0.0000   0.0000
     0.0000   0.0000   0.0000   0.0000   0.0000   0.0000   0.0000   0.0000
     0.0000   0.0000   0.0000   0.0000   0.0000   0.0000   0.0000   0.0000
     0.0000   0.0000   0.0000   0.0000   0.0000   0.0000   0.0000   0.0000
     0.0000   0.0000   0.0000   0.0000   0.0000   0.0000   0.0000   0.0000
     0.0000   0.0000   0.0000   0.0000   0.0000   0.0000   0.0000   0.0000
     0.0000   0.0000   0.0000   0.0000   0.0000   0.0000   0.0000   0.0000
     0.0000   0.0000   0.0000   0.0000   0.0000   0.0000   0.0000   0.0000
     0.0000   0.0000   0.0000   0.0000   0.0000   0.0000   0.0000   0.0000
     0.0000   0.0000   0.0000   0.0000   0.0000   0.0000   0.0000   0.0000
     0.0000   0.0000   0.0000   0.0000   0.0000   0.0000   0.0000   0.0000
     0.0000   0.0000   0.0000   0.0000   0.0000   0.0000   0.0000   0.0000
     0.0000   0.0000   0.0000   0.0000   0.0000   0.0000   0.0000   0.0000

[...]

          k = 0.3333 0.3333 0.3252 (  6540 PWs)   bands (ev):

  -106.3599-106.3599-106.3597-106.3597 -82.6902 -82.6901 -82.6901 -82.6900
   -54.3732 -54.3722 -54.3712 -54.3703 -54.2018 -54.2011 -54.1848 -54.1832
   -54.0931 -54.0920 -54.0911 -54.0901 -45.8366 -45.8360 -45.8357 -45.8355
   -45.7367 -45.7356 -45.7341 -45.7333 -45.6241 -45.6237 -45.6217 -45.6209
   -16.7472 -16.7424  -8.3229  -8.2978  -8.2102  -8.1927  -7.9051  -7.8740
    -7.7996  -7.7840  -1.9760  -1.9378  -1.9303  -1.9036  -1.8971  -1.8485
     1.9684   2.0706   2.1507   2.2215   2.4040   2.4411   2.5439   2.5728
     2.7803   2.7882   2.8126   2.8451   2.8557   2.9056   3.1220   3.1345
     3.1706   3.2038   3.3497   3.4148   4.1209   4.5625   4.6636   4.8438
     4.8699   4.9163   5.0410   5.0848   5.3844   5.6087   5.6093   5.7949
     5.9012   5.9101   6.0306   6.1091   6.1918   6.2353   6.2546   6.3318
     6.3392   6.4087   6.5494   6.5929   6.6752   6.7615   6.9771   7.0868
     7.1255   7.1780   7.2568   7.3085   7.5887   7.6116   7.6327   7.8554
     7.9628   8.0798   8.1503   8.3015   8.3935   8.5943   8.6590   8.6641
    11.2506  11.4003  11.8963  12.0981  12.1015  12.5768  13.4831  13.5663
    14.1181  14.1455  14.2929  14.6858  14.7639  14.8280  14.9750  15.2377
    15.4455  15.4703  15.9147  16.3121  16.5731  16.6339  16.8456  17.1425
    17.1645  17.3581  17.5519  17.6764  18.1358  18.3957  18.7710  19.1259
    19.5582  19.6364  19.7171  20.0559  20.1846  21.0444  21.1364  21.4261
    21.6968  21.8973  22.0535  22.2413  22.2660  22.5004  22.5742  22.9615
    23.1454  23.2362  23.3639  23.5957  23.6312  24.0553  24.5292  24.5956
    24.8361  25.0586  25.1403  25.2119  25.4491  25.9124  26.0391  26.2216
    26.2851  26.6501  26.9780  27.1895  27.2618  27.3724  27.4416  27.5935
    27.8029  27.9814  28.1458  28.1796  28.2404  28.3613  28.4194  28.6595
    29.0672  29.2168  29.3575  29.7406  29.7502  29.9692  30.0477  30.1448
    30.3397  30.4127  30.5243  30.6459  30.8369  30.8455  31.0150  31.0156
    31.4177  31.4886  31.6343  31.7159  31.8780  31.9386  32.2358  32.3454
    32.6470  32.7618  32.8554  33.1863  33.2610  33.3747  33.6257  33.7586
    33.7899  33.9371  34.0956  34.1800  34.2924  34.3863  34.6277  34.7540
    34.8820  34.9222  34.9995  35.1230  35.1930  35.4385  35.5935  35.6013
    36.1603  36.1710  36.3756  36.4556  36.6472  36.9061  36.9392  36.9783
    37.1784  37.2654  37.4661  37.5174  37.6944  38.0166  38.2463  38.3891

     occupation numbers
     1.0000   1.0000   1.0000   1.0000   1.0000   1.0000   1.0000   1.0000
     1.0000   1.0000   1.0000   1.0000   1.0000   1.0000   1.0000   1.0000
     1.0000   1.0000   1.0000   1.0000   1.0000   1.0000   1.0000   1.0000
     1.0000   1.0000   1.0000   1.0000   1.0000   1.0000   1.0000   1.0000
     1.0000   1.0000   1.0000   1.0000   1.0000   1.0000   1.0000   1.0000
     1.0000   1.0000   1.0000   1.0000   1.0000   1.0000   1.0000   1.0000
     1.0000   1.0000   1.0000   1.0000   1.0000   1.0000   1.0000   1.0000
     1.0000   1.0000   1.0000   1.0000   1.0000   1.0000   1.0000   1.0000
     1.0000   1.0000   1.0000   1.0000   1.0000   1.0000   1.0000   1.0000
     1.0000   1.0000   1.0000   1.0000   1.0000   1.0000   1.0000   1.0000
     1.0000   1.0000   1.0000   1.0000   1.0000   1.0000   1.0000   1.0000
     1.0000   1.0000   1.0000   1.0000   1.0000   1.0000   1.0000   1.0000
     1.0000   1.0000   1.0000   1.0000   1.0000   1.0000   1.0000   1.0000
     1.0000   1.0000   1.0000   1.0000   1.0000   1.0000   1.0000   1.0000
     0.0000   0.0000   0.0000   0.0000   0.0000   0.0000   0.0000   0.0000
     0.0000   0.0000   0.0000   0.0000   0.0000   0.0000   0.0000   0.0000
     0.0000   0.0000   0.0000   0.0000   0.0000   0.0000   0.0000   0.0000
     0.0000   0.0000   0.0000   0.0000   0.0000   0.0000   0.0000   0.0000
     0.0000   0.0000   0.0000   0.0000   0.0000   0.0000   0.0000   0.0000
     0.0000   0.0000   0.0000   0.0000   0.0000   0.0000   0.0000   0.0000
     0.0000   0.0000   0.0000   0.0000   0.0000   0.0000   0.0000   0.0000
     0.0000   0.0000   0.0000   0.0000   0.0000   0.0000   0.0000   0.0000
     0.0000   0.0000   0.0000   0.0000   0.0000   0.0000   0.0000   0.0000
     0.0000   0.0000   0.0000   0.0000   0.0000   0.0000   0.0000   0.0000
     0.0000   0.0000   0.0000   0.0000   0.0000   0.0000   0.0000   0.0000
     0.0000   0.0000   0.0000   0.0000   0.0000   0.0000   0.0000   0.0000
     0.0000   0.0000   0.0000   0.0000   0.0000   0.0000   0.0000   0.0000
     0.0000   0.0000   0.0000   0.0000   0.0000   0.0000   0.0000   0.0000
     0.0000   0.0000   0.0000   0.0000   0.0000   0.0000   0.0000   0.0000
     0.0000   0.0000   0.0000   0.0000   0.0000   0.0000   0.0000   0.0000
     0.0000   0.0000   0.0000   0.0000   0.0000   0.0000   0.0000   0.0000
     0.0000   0.0000   0.0000   0.0000   0.0000   0.0000   0.0000   0.0000

     highest occupied, lowest unoccupied level (ev):     8.9491   10.4339

!    total energy              =   -3593.22064460 Ry
     estimated scf accuracy    <       0.00000025 Ry

     The total energy is the sum of the following terms:
     one-electron contribution =   -1656.43004169 Ry
     hartree contribution      =     893.56442690 Ry
     xc contribution           =    -317.11979357 Ry
     ewald contribution        =   -1687.05639244 Ry
     one-center paw contrib.   =    -826.17884380 Ry
      -> PAW hartree energy AE =      57.02593961 Ry
      -> PAW hartree energy PS =     -56.80086004 Ry
      -> PAW xc energy AE      =    -788.39392011 Ry
      -> PAW xc energy PS      =      38.26304115 Ry
      -> total E_H with PAW    =     893.78950647 Ry
      -> total E_XC with PAW   =   -1067.25067253 Ry

     convergence has been achieved in   9 iterations

     Writing all to output data dir bands_nm/myprefix.save/

     General routines

     Parallel routines

     PAW routines

   This run was terminated on:   1:38: 9  17Jul2023

   JOB DONE.