     Program PWSCF v.7.0 starts on  5Jun2023 at 22:54: 7

     K-points division:     npool     =       2
     R & G space division:  proc/nbgrp/npool/nimage =       4

     Reading input from espresso_12211.pwi
Warning: card &CELL ignored
Warning: card / ignored

     Current dimensions of program PWSCF are:
     Max number of different atomic species (ntypx) = 10
     Max number of k-points (npk) =  40000
     Max angular momentum in pseudopotentials (lmaxx) =  4
     file Fe.pbe-spn-kjpaw_psl.0.2.1.UPF: wavefunction(s)  3D renormalized
     Message from routine setup:
     using ibrav=0 with symmetry is DISCOURAGED, use correct ibrav instead

     Using Slab Decomposition

     bravais-lattice index     =            0
     lattice parameter (alat)  =       7.3624  a.u.
     unit-cell volume          =     865.5412 (a.u.)^3
     number of atoms/cell      =            6
     number of atomic types    =            2
     number of electrons       =        56.00
     number of Kohn-Sham states=           64
     kinetic-energy cutoff     =      30.0000  Ry
     charge density cutoff     =     240.0000  Ry
     scf convergence threshold =      1.0E-06
     mixing beta               =       0.7000
     number of iterations used =            8  plain     mixing
     Exchange-correlation= SLA  PW   PBE  PBE
                           (   1   4   3   4   0   0   0)

     celldm(1)=   7.362426  celldm(2)=   0.000000  celldm(3)=   0.000000
     celldm(4)=   0.000000  celldm(5)=   0.000000  celldm(6)=   0.000000

     crystal axes: (cart. coord. in units of alat)
               a(1) = (   1.000000   0.000000   0.000000 )
               a(2) = (   0.000000   1.350095   0.000000 )
               a(3) = (   0.000000   0.000000   1.606425 )

     reciprocal axes: (cart. coord. in units 2 pi/alat)
               b(1) = (  1.000000  0.000000  0.000000 )
               b(2) = (  0.000000  0.740688  0.000000 )
               b(3) = (  0.000000  0.000000  0.622500 )

     PseudoPot. # 1 for Fe read from file:
     /home/pragov/projects/rrg-bengioy-ad/pragov/crystal_structure_design/SSSP/Fe.pbe-spn-kjpaw_psl.0.2.1.UPF
     MD5 check sum: e86618425769142926afa95317d90200
     Pseudo is Projector augmented-wave + core cor, Zval = 16.0
     Generated using "atomic" code by A. Dal Corso  v.5.0.99 svn rev. 10869
     Shape of augmentation charge: PSQ
     Using radial grid of 1191 points,  6 beta functions with:
                l(1) =   0
                l(2) =   0
                l(3) =   1
                l(4) =   1
                l(5) =   2
                l(6) =   2
     Q(r) pseudized with 0 coefficients

     PseudoPot. # 2 for Te read from file:
     /home/pragov/projects/rrg-bengioy-ad/pragov/crystal_structure_design/SSSP/Te_pbe_v1.uspp.F.UPF
     MD5 check sum: c319670d6894cc26e93307826a071b75
     Pseudo is Ultrasoft + core correction, Zval =  6.0
     Generated by new atomic code, or converted to UPF format
     Using radial grid of  891 points,  5 beta functions with:
                l(1) =   0
                l(2) =   0
                l(3) =   1
                l(4) =   1
                l(5) =   2
     Q(r) pseudized with  6 coefficients,  rinner =    1.800   1.800   1.800
                                                       1.800   1.800

     atomic species   valence    mass     pseudopotential
        Fe            16.00    55.84500     Fe( 1.00)
        Te             6.00   127.60000     Te( 1.00)

      8 Sym. Ops., with inversion, found ( 4 have fractional translation)

                                    s                        frac. trans.

      isym =  1     identity

 cryst.   s( 1) = (     1          0          0      )
                  (     0          1          0      )
                  (     0          0          1      )

 cart.    s( 1) = (  1.0000000  0.0000000  0.0000000 )
                  (  0.0000000  1.0000000  0.0000000 )
                  (  0.0000000  0.0000000  1.0000000 )

      isym =  2     180 deg rotation - cart. axis [0,0,1]

 cryst.   s( 2) = (    -1          0          0      )    f =(  0.5000000 )
                  (     0         -1          0      )       (  0.5000000 )
                  (     0          0          1      )       ( -0.5000000 )

 cart.    s( 2) = ( -1.0000000  0.0000000  0.0000000 )    f =(  0.5000000 )
                  (  0.0000000 -1.0000000  0.0000000 )       (  0.6750476 )
                  (  0.0000000  0.0000000  1.0000000 )       ( -0.8032127 )

[...]

      isym =  4     180 deg rotation - cart. axis [1,0,0]

[...]

      isym =  5     inversion

[...]

      isym =  6     inv. 180 deg rotation - cart. axis [0,0,1]

[...]

 cryst.   s( 7) = (     1          0          0      )    f =( -0.5000000 )
                  (     0         -1          0      )       (  0.5000000 )
                  (     0          0          1      )       ( -0.5000000 )

 cart.    s( 7) = (  1.0000000  0.0000000  0.0000000 )    f =( -0.5000000 )
                  (  0.0000000 -1.0000000  0.0000000 )       (  0.6750476 )
                  (  0.0000000  0.0000000  1.0000000 )       ( -0.8032127 )

      isym =  8     inv. 180 deg rotation - cart. axis [1,0,0]

 cryst.   s( 8) = (    -1          0          0      )
                  (     0          1          0      )
                  (     0          0          1      )

 cart.    s( 8) = ( -1.0000000  0.0000000  0.0000000 )
                  (  0.0000000  1.0000000  0.0000000 )
                  (  0.0000000  0.0000000  1.0000000 )

   Cartesian axes

     site n.     atom                  positions (alat units)
         1           Fe  tau(   1) = (   0.0000000   0.0000000   0.0000000  )
         2           Fe  tau(   2) = (   0.5000000   0.6750476   0.8032127  )
         3           Te  tau(   3) = (   0.0000000   0.3073303   0.5805203  )
         4           Te  tau(   4) = (   0.0000000   1.0427650   1.0259050  )
         5           Te  tau(   5) = (   0.5000000   0.3677173   1.3837330  )
         6           Te  tau(   6) = (   0.5000000   0.9823779   0.2226923  )

   Crystallographic axes

     site n.     atom                  positions (cryst. coord.)
         1           Fe  tau(   1) = (  0.0000000  0.0000000  0.0000000  )
         2           Fe  tau(   2) = (  0.5000000  0.5000000  0.5000000  )
         3           Te  tau(   3) = (  0.0000000  0.2276360  0.3613740  )
         4           Te  tau(   4) = (  0.0000000  0.7723640  0.6386260  )
         5           Te  tau(   5) = (  0.5000000  0.2723640  0.8613740  )
         6           Te  tau(   6) = (  0.5000000  0.7276360  0.1386260  )

     number of k points=     8
                       cart. coord. in units 2pi/alat
        k(    1) = (   0.0000000   0.0000000   0.0000000), wk =   0.0740741
        k(    2) = (   0.0000000   0.0000000   0.2075001), wk =   0.1481481
        k(    3) = (   0.0000000   0.2468962   0.0000000), wk =   0.1481481
        k(    4) = (   0.0000000   0.2468962   0.2075001), wk =   0.2962963
        k(    5) = (   0.3333333   0.0000000   0.0000000), wk =   0.1481481
        k(    6) = (   0.3333333   0.0000000   0.2075001), wk =   0.2962963
        k(    7) = (   0.3333333   0.2468962   0.0000000), wk =   0.2962963
        k(    8) = (   0.3333333   0.2468962   0.2075001), wk =   0.5925926

                       cryst. coord.
        k(    1) = (   0.0000000   0.0000000   0.0000000), wk =   0.0740741
        k(    2) = (   0.0000000   0.0000000   0.3333333), wk =   0.1481481
        k(    3) = (   0.0000000   0.3333333   0.0000000), wk =   0.1481481
        k(    4) = (   0.0000000   0.3333333   0.3333333), wk =   0.2962963
        k(    5) = (   0.3333333   0.0000000   0.0000000), wk =   0.1481481
        k(    6) = (   0.3333333   0.0000000   0.3333333), wk =   0.2962963
        k(    7) = (   0.3333333   0.3333333   0.0000000), wk =   0.2962963
        k(    8) = (   0.3333333   0.3333333   0.3333333), wk =   0.5925926

     Check: negative core charge=   -0.000066

     Initial potential from superposition of free atoms

     starting charge      55.9983, renormalised to      56.0000
     Starting wfcs are   42 randomized atomic wfcs +   22 random wfcs
     Checking if some PAW data can be deallocated...

     Self-consistent Calculation

     iteration #  1     ecut=    30.00 Ry     beta= 0.70
     Davidson diagonalization with overlap

     ethr =  1.00E-02,  avg # of iterations =  6.6

     total energy              =    -761.19475047 Ry
     estimated scf accuracy    <       3.73757921 Ry

[...]

     total energy              =    -763.95048201 Ry
     estimated scf accuracy    <       0.00000323 Ry

     iteration # 10     ecut=    30.00 Ry     beta= 0.70
     Davidson diagonalization with overlap

     ethr =  5.77E-09,  avg # of iterations =  2.4

     End of self-consistent calculation

          k = 0.0000 0.0000 0.0000 (  2417 PWs)   bands (ev):

   -76.1751 -76.1660 -41.8872 -41.8589 -41.7950 -41.7772 -41.7687 -41.7624
    -3.4760  -0.9860  -0.4141   0.2180   4.0942   5.3506   6.5423   6.8135
     7.6669   7.7852   7.9836   8.0305   8.1146   9.1681   9.4123   9.5284
     9.5611   9.6601  10.0419  10.7063  11.0446  12.0381  12.9838  13.2369
    13.4276  13.5378  14.2433  15.2285  16.7953  16.9959  17.3531  17.9831
    18.2797  18.4002  20.1068  20.5300  21.2398  21.3021  21.4279  22.6785
    23.1715  23.4867  23.9641  24.0142  24.1016  24.5263  24.7642  25.1958
    25.4282  26.0370  26.8461  27.3825  28.5379  29.0269  29.2482  29.6207

     occupation numbers
     1.0000   1.0000   1.0000   1.0000   1.0000   1.0000   1.0000   1.0000
     1.0000   1.0000   1.0000   1.0000   1.0000   1.0000   1.0000   1.0000
     1.0000   1.0000   1.0000   1.0000   1.0000   1.0000   1.0000   1.0000
     1.0000   1.0000   1.0000   1.0000   0.0000   0.0000   0.0000   0.0000
     0.0000   0.0000   0.0000   0.0000   0.0000   0.0000   0.0000   0.0000
     0.0000   0.0000   0.0000   0.0000   0.0000   0.0000   0.0000   0.0000
     0.0000   0.0000   0.0000   0.0000   0.0000   0.0000   0.0000   0.0000
     0.0000   0.0000   0.0000   0.0000   0.0000   0.0000   0.0000   0.0000

[...]

          k = 0.3333 0.2469 0.2075 (  2402 PWs)   bands (ev):

   -76.1688 -76.1688 -41.8623 -41.8582 -41.7859 -41.7787 -41.7637 -41.7599
    -1.8774  -1.2938  -0.5427  -0.3146   4.6337   5.0061   5.5022   6.1404
     7.0244   7.7615   7.8854   8.2363   8.4189   8.8000   9.1646   9.3678
     9.5766   9.6863   9.8681   9.8761  11.0661  11.4067  11.9385  12.3718
    12.6857  13.3796  15.3827  16.2094  16.3944  17.0423  18.0170  18.6465
    19.1072  19.6951  20.0486  20.4019  20.8026  21.6628  22.2603  22.6154
    22.8462  23.3801  24.1718  24.8833  25.2400  26.6582  26.8587  27.3810
    28.2072  28.2315  28.4523  29.1847  29.3107  29.3912  29.5270  30.2959

     occupation numbers
     1.0000   1.0000   1.0000   1.0000   1.0000   1.0000   1.0000   1.0000
     1.0000   1.0000   1.0000   1.0000   1.0000   1.0000   1.0000   1.0000
     1.0000   1.0000   1.0000   1.0000   1.0000   1.0000   1.0000   1.0000
     1.0000   1.0000   1.0000   1.0000   0.0000   0.0000   0.0000   0.0000
     0.0000   0.0000   0.0000   0.0000   0.0000   0.0000   0.0000   0.0000
     0.0000   0.0000   0.0000   0.0000   0.0000   0.0000   0.0000   0.0000
     0.0000   0.0000   0.0000   0.0000   0.0000   0.0000   0.0000   0.0000
     0.0000   0.0000   0.0000   0.0000   0.0000   0.0000   0.0000   0.0000

     highest occupied, lowest unoccupied level (ev):    10.9183   11.0247

!    total energy              =    -763.95048264 Ry
     estimated scf accuracy    <       0.00000013 Ry

     The total energy is the sum of the following terms:
     one-electron contribution =    -401.92671031 Ry
     hartree contribution      =     228.37402438 Ry
     xc contribution           =    -127.60084039 Ry
     ewald contribution        =    -310.65532792 Ry
     one-center paw contrib.   =    -152.14162840 Ry
      -> PAW hartree energy AE =     214.69272188 Ry
      -> PAW hartree energy PS =    -213.90975311 Ry
      -> PAW xc energy AE      =    -111.37143185 Ry
      -> PAW xc energy PS      =      34.51764888 Ry
      -> total E_H with PAW    =     229.15699315 Ry
      -> total E_XC with PAW   =    -204.45462336 Ry

     convergence has been achieved in  10 iterations

     Writing all to output data dir calculations_bands/myprefix.save/

     General routines

     Parallel routines

     PAW routines

   This run was terminated on:  22:54:14   5Jun2023

   JOB DONE.