     Program PWSCF v.7.1 starts on 15Jul2023 at 18:42:34

     Reading input from espresso_4556.pwi
Warning: card &CELL ignored
Warning: card / ignored

     Current dimensions of program PWSCF are:
     Max number of different atomic species (ntypx) = 10
     Max number of k-points (npk) =  40000
     Max angular momentum in pseudopotentials (lmaxx) =  4
     file O.pbe-n-kjpaw_psl.0.1.UPF: wavefunction(s)  2P renormalized
     Message from routine setup:
     using ibrav=0 with symmetry is DISCOURAGED, use correct ibrav instead

     K-points division:     npool     =       2
     R & G space division:  proc/nbgrp/npool/nimage =       4
     Subspace diagonalization in iterative solution of the eigenvalue problem:
     one sub-group per band group will be used

     Using Slab Decomposition

     bravais-lattice index     =            0
     lattice parameter (alat)  =      10.7038  a.u.
     unit-cell volume          =    1774.1266 (a.u.)^3
     number of atoms/cell      =           16
     number of atomic types    =            3
     number of electrons       =       130.00
     number of Kohn-Sham states=          256
     kinetic-energy cutoff     =      30.0000  Ry
     charge density cutoff     =     240.0000  Ry
     scf convergence threshold =      1.0E-06
     mixing beta               =       0.7000
     number of iterations used =            8  plain     mixing
     Exchange-correlation= SLA  PW   PBX  PBC
                           (   1   4   3   4   0   0   0)

     celldm(1)=  10.703806  celldm(2)=   0.000000  celldm(3)=   0.000000
     celldm(4)=   0.000000  celldm(5)=   0.000000  celldm(6)=   0.000000

     crystal axes: (cart. coord. in units of alat)
               a(1) = (   1.000000   0.000000   0.000000 )
               a(2) = (   0.000000   1.097560   0.000000 )
               a(3) = (   0.000000   0.000000   1.318080 )

     reciprocal axes: (cart. coord. in units 2 pi/alat)
               b(1) = (  1.000000  0.000000  0.000000 )
               b(2) = (  0.000000  0.911112  0.000000 )
               b(3) = (  0.000000  0.000000  0.758679 )

     PseudoPot. # 1 for Na read from file:
     /lustre07/scratch/pragov/crystal_structure_design/utils/SSSP/na_pbe_v1.5.uspp.F.UPF
     MD5 check sum: 44600605ef58000f06b90626533354dc
     Pseudo is Ultrasoft, Zval =  9.0
     Generated by new atomic code, or converted to UPF format
     Using radial grid of  819 points,  5 beta functions with:
                l(1) =   0
                l(2) =   0
                l(3) =   1
                l(4) =   1
                l(5) =   2
     Q(r) pseudized with  8 coefficients,  rinner =    1.250   1.250   1.250
                                                       1.250   1.250

     PseudoPot. # 2 for Mo read from file:
     /lustre07/scratch/pragov/crystal_structure_design/utils/SSSP/Mo_ONCV_PBE-1.0.oncvpsp.upf
     MD5 check sum: 1b5d28e075c9ccadda658a603575cd1f
     Pseudo is Norm-conserving, Zval = 14.0
     Generated using ONCVPSP code by D. R. Hamann
     Using radial grid of 1526 points,  6 beta functions with:
                l(1) =   0
                l(2) =   0
                l(3) =   1
                l(4) =   1
                l(5) =   2
                l(6) =   2

     PseudoPot. # 3 for O  read from file:
     /lustre07/scratch/pragov/crystal_structure_design/utils/SSSP/O.pbe-n-kjpaw_psl.0.1.UPF
     MD5 check sum: 0234752ac141de4415c5fc33072bef88
     Pseudo is Projector augmented-wave + core cor, Zval =  6.0
     Generated using "atomic" code by A. Dal Corso  v.5.0.99 svn rev. 10869
     Shape of augmentation charge: BESSEL
     Using radial grid of 1095 points,  4 beta functions with:
                l(1) =   0
                l(2) =   0
                l(3) =   1
                l(4) =   1
     Q(r) pseudized with 0 coefficients

     atomic species   valence    mass     pseudopotential
        Na             9.00    22.98977     Na( 1.00)
        Mo            14.00    95.95000     Mo( 1.00)
        O              6.00    15.99900     O ( 1.00)

      4 Sym. Ops. (no inversion) found ( 2 have fractional translation)

                                    s                        frac. trans.

      isym =  1     identity

 cryst.   s( 1) = (     1          0          0      )
                  (     0          1          0      )
                  (     0          0          1      )

 cart.    s( 1) = (  1.0000000  0.0000000  0.0000000 )
                  (  0.0000000  1.0000000  0.0000000 )
                  (  0.0000000  0.0000000  1.0000000 )

      isym =  2     180 deg rotation - cart. axis [1,0,0]

 cryst.   s( 2) = (     1          0          0      )    f =(  0.5000000 )
                  (     0         -1          0      )       (  0.0000000 )
                  (     0          0         -1      )       ( -0.5000000 )

 cart.    s( 2) = (  1.0000000  0.0000000  0.0000000 )    f =(  0.5000000 )
                  (  0.0000000 -1.0000000  0.0000000 )       (  0.0000000 )
                  (  0.0000000  0.0000000 -1.0000000 )       ( -0.6590398 )

      isym =  3     inv. 180 deg rotation - cart. axis [0,0,1]

 cryst.   s( 3) = (     1          0          0      )
                  (     0          1          0      )
                  (     0          0         -1      )

 cart.    s( 3) = (  1.0000000  0.0000000  0.0000000 )
                  (  0.0000000  1.0000000  0.0000000 )
                  (  0.0000000  0.0000000 -1.0000000 )

      isym =  4     inv. 180 deg rotation - cart. axis [0,1,0]

 cryst.   s( 4) = (     1          0          0      )    f =(  0.5000000 )
                  (     0         -1          0      )       (  0.0000000 )
                  (     0          0          1      )       (  0.5000000 )

 cart.    s( 4) = (  1.0000000  0.0000000  0.0000000 )    f =(  0.5000000 )
                  (  0.0000000 -1.0000000  0.0000000 )       (  0.0000000 )
                  (  0.0000000  0.0000000  1.0000000 )       (  0.6590398 )

   Cartesian axes

     site n.     atom                  positions (alat units)
         1           Na  tau(   1) = (   0.5041660   0.9089675   0.3371700  )
         2           Na  tau(   2) = (   0.0041660   0.1885927   0.3218698  )
         3           Na  tau(   3) = (   0.0041660   0.1885927   0.9962099  )
         4           Na  tau(   4) = (   0.5041660   0.9089675   0.9809096  )
         5           Na  tau(   5) = (   0.4997430   0.3740660   0.0000000  )
         6           Na  tau(   6) = (   0.9997430   0.7234941   0.6590398  )
         7           Mo  tau(   7) = (   0.0145030   0.7410858   0.0000000  )
         8           Mo  tau(   8) = (   0.5145030   0.3564744   0.6590398  )
         9           O   tau(   9) = (   0.9201680   0.8831496   0.2838590  )
        10           O   tau(  10) = (   0.4201680   0.2144106   0.3751808  )
        11           O   tau(  11) = (   0.4201680   0.2144106   0.9428988  )
        12           O   tau(  12) = (   0.9201680   0.8831496   1.0342207  )
        13           O   tau(  13) = (   0.3444270   0.7595401   0.0000000  )
        14           O   tau(  14) = (   0.8444270   0.3380200   0.6590398  )
        15           O   tau(  15) = (   0.9055600   0.4281417   0.0000000  )
        16           O   tau(  16) = (   0.4055600   0.6694195   0.6590398  )

   Crystallographic axes

     site n.     atom                  positions (cryst. coord.)
         1           Na  tau(   1) = (  0.5041660  0.8281710  0.2558040  )
         2           Na  tau(   2) = (  0.0041660  0.1718290  0.2441960  )
         3           Na  tau(   3) = (  0.0041660  0.1718290  0.7558040  )
         4           Na  tau(   4) = (  0.5041660  0.8281710  0.7441960  )
         5           Na  tau(   5) = (  0.4997430  0.3408160  0.0000000  )
         6           Na  tau(   6) = (  0.9997430  0.6591840  0.5000000  )
         7           Mo  tau(   7) = (  0.0145030  0.6752120  0.0000000  )
         8           Mo  tau(   8) = (  0.5145030  0.3247880  0.5000000  )
         9           O   tau(   9) = (  0.9201680  0.8046480  0.2153580  )
        10           O   tau(  10) = (  0.4201680  0.1953520  0.2846420  )
        11           O   tau(  11) = (  0.4201680  0.1953520  0.7153580  )
        12           O   tau(  12) = (  0.9201680  0.8046480  0.7846420  )
        13           O   tau(  13) = (  0.3444270  0.6920260  0.0000000  )
        14           O   tau(  14) = (  0.8444270  0.3079740  0.5000000  )
        15           O   tau(  15) = (  0.9055600  0.3900850  0.0000000  )
        16           O   tau(  16) = (  0.4055600  0.6099160  0.5000000  )

     number of k points=     8
                       cart. coord. in units 2pi/alat
        k(    1) = (   0.0000000   0.0000000   0.0000000), wk =   0.0740741
        k(    2) = (   0.0000000   0.0000000   0.2528932), wk =   0.1481481
        k(    3) = (   0.0000000   0.3037039   0.0000000), wk =   0.1481481
        k(    4) = (   0.0000000   0.3037039   0.2528932), wk =   0.2962963
        k(    5) = (   0.3333333   0.0000000   0.0000000), wk =   0.1481481
        k(    6) = (   0.3333333   0.0000000   0.2528932), wk =   0.2962963
        k(    7) = (   0.3333333   0.3037039   0.0000000), wk =   0.2962963
        k(    8) = (   0.3333333   0.3037039   0.2528932), wk =   0.5925926

                       cryst. coord.
        k(    1) = (   0.0000000   0.0000000   0.0000000), wk =   0.0740741
        k(    2) = (   0.0000000   0.0000000   0.3333333), wk =   0.1481481
        k(    3) = (   0.0000000   0.3333333   0.0000000), wk =   0.1481481
        k(    4) = (   0.0000000   0.3333333   0.3333333), wk =   0.2962963
        k(    5) = (   0.3333333   0.0000000   0.0000000), wk =   0.1481481
        k(    6) = (   0.3333333   0.0000000   0.3333333), wk =   0.2962963
        k(    7) = (   0.3333333   0.3333333   0.0000000), wk =   0.2962963
        k(    8) = (   0.3333333   0.3333333   0.3333333), wk =   0.5925926

     Check: negative core charge=   -0.000011

     Initial potential from superposition of free atoms

     starting charge     129.9603, renormalised to     130.0000
     Starting wfcs are   82 randomized atomic wfcs +  174 random wfcs
     Checking if some PAW data can be deallocated...

     Self-consistent Calculation

     iteration #  1     ecut=    30.00 Ry     beta= 0.70
     Davidson diagonalization with overlap

     ethr =  1.00E-02,  avg # of iterations =  7.6

     total energy              =   -1177.61877525 Ry
     estimated scf accuracy    <       4.57268226 Ry

[...]

     total energy              =   -1180.09111444 Ry
     estimated scf accuracy    <       0.00001072 Ry

     iteration # 11     ecut=    30.00 Ry     beta= 0.70
     Davidson diagonalization with overlap

     ethr =  8.25E-09,  avg # of iterations =  1.0

     End of self-consistent calculation

          k = 0.0000 0.0000 0.0000 (  4971 PWs)   bands (ev):

   -57.1635 -57.1632 -46.2329 -46.2320 -46.2309 -46.2308 -46.1911 -46.1908
   -31.4904 -31.4901 -31.4769 -31.4767 -31.1826 -31.1824 -18.2040 -18.2037
   -18.1936 -18.1851 -18.1844 -18.1712 -18.1620 -18.1598 -18.1534 -18.1517
   -18.1441 -18.1402 -18.1304 -18.1242 -18.1192 -18.1140 -18.0999 -18.0952
   -13.3264 -13.1534 -12.9556 -12.9049 -12.8799 -12.8402 -12.8243 -12.7912
    -0.2318  -0.1896  -0.1180  -0.0026   0.0660   0.1478   0.1927   0.2186
     0.2989   0.3701   0.8177   0.8495   1.2592   1.3555   1.4874   1.6341
     1.6776   1.8587   1.9921   2.1548   2.1622   2.1629   2.1657   2.3227
     6.3372   6.7195   6.7797   6.8187   6.8317   7.5958   7.7197   7.7457
     7.9401   8.1270   8.4301   9.9558  10.3276  10.6533  11.1317  11.5608
    11.8917  11.9188  12.8400  12.9566  13.0590  13.3079  13.4685  13.9279
    14.5578  14.7463  14.9172  14.9186  15.3027  15.9353  16.5651  16.7219
    16.7400  17.1817  17.9909  18.0966  18.2864  18.8386  18.9083  19.0617
    19.2674  19.2952  19.9054  20.1567  20.3415  20.4610  21.1248  21.2594
    21.2758  21.6160  21.8086  21.9701  22.0544  22.0956  22.4720  23.2514
    23.4564  23.5453  23.8844  24.0431  24.0555  24.1538  24.3377  24.6774
    24.7747  24.8638  24.9291  25.1479  25.4234  25.4771  25.5567  25.6962
    25.8201  25.9013  25.9941  26.1967  26.2235  26.6238  26.7880  26.7967
    27.5868  27.6541  27.7705  27.8944  27.9146  28.0120  28.2428  28.4522
    29.1069  29.1347  29.6098  29.6632  29.9862  30.1594  30.5466  30.7274
    31.2598  31.2939  31.4827  31.8595  31.9187  32.1011  32.2397  32.2619
    32.4708  32.7758  33.0374  33.2601  33.3379  33.4695  33.5960  33.8737
    33.9251  33.9804  34.4450  34.5242  34.5967  34.7609  34.8185  34.8496
    34.9227  35.2611  35.5235  35.7272  36.3383  36.3795  36.4730  36.7469
    36.7638  37.1082  37.2857  37.3944  37.7587  37.9618  38.3904  38.4100
    38.4491  39.3125  39.3558  39.4460  39.5112  39.8949  39.9479  40.1931
    40.2879  40.5249  40.5461  40.6695  40.8385  41.0062  41.3872  41.4754
    41.7460  41.7764  41.8987  41.9216  41.9378  42.5334  42.7983  42.8737
    42.9886  43.0401  43.1368  43.4936  43.5314  43.6437  43.8385  44.0598
    44.1786  44.1892  44.5042  44.5370  44.6545  44.6935  44.8240  44.8833
    45.0142  45.3287  45.4864  45.4871  45.5743  45.8810  45.9899  46.1458
    46.3614  46.3746  46.5983  46.7117  46.8540  47.0809  47.2283  47.3598

     occupation numbers
     1.0000   1.0000   1.0000   1.0000   1.0000   1.0000   1.0000   1.0000
     1.0000   1.0000   1.0000   1.0000   1.0000   1.0000   1.0000   1.0000
     1.0000   1.0000   1.0000   1.0000   1.0000   1.0000   1.0000   1.0000
     1.0000   1.0000   1.0000   1.0000   1.0000   1.0000   1.0000   1.0000
     1.0000   1.0000   1.0000   1.0000   1.0000   1.0000   1.0000   1.0000
     1.0000   1.0000   1.0000   1.0000   1.0000   1.0000   1.0000   1.0000
     1.0000   1.0000   1.0000   1.0000   1.0000   1.0000   1.0000   1.0000
     1.0000   1.0000   1.0000   1.0000   1.0000   1.0000   1.0000   1.0000
     1.0000   0.0000   0.0000   0.0000   0.0000   0.0000   0.0000   0.0000
     0.0000   0.0000   0.0000   0.0000   0.0000   0.0000   0.0000   0.0000
     0.0000   0.0000   0.0000   0.0000   0.0000   0.0000   0.0000   0.0000
     0.0000   0.0000   0.0000   0.0000   0.0000   0.0000   0.0000   0.0000
     0.0000   0.0000   0.0000   0.0000   0.0000   0.0000   0.0000   0.0000
     0.0000   0.0000   0.0000   0.0000   0.0000   0.0000   0.0000   0.0000
     0.0000   0.0000   0.0000   0.0000   0.0000   0.0000   0.0000   0.0000
     0.0000   0.0000   0.0000   0.0000   0.0000   0.0000   0.0000   0.0000
     0.0000   0.0000   0.0000   0.0000   0.0000   0.0000   0.0000   0.0000
     0.0000   0.0000   0.0000   0.0000   0.0000   0.0000   0.0000   0.0000
     0.0000   0.0000   0.0000   0.0000   0.0000   0.0000   0.0000   0.0000
     0.0000   0.0000   0.0000   0.0000   0.0000   0.0000   0.0000   0.0000
     0.0000   0.0000   0.0000   0.0000   0.0000   0.0000   0.0000   0.0000
     0.0000   0.0000   0.0000   0.0000   0.0000   0.0000   0.0000   0.0000
     0.0000   0.0000   0.0000   0.0000   0.0000   0.0000   0.0000   0.0000
     0.0000   0.0000   0.0000   0.0000   0.0000   0.0000   0.0000   0.0000
     0.0000   0.0000   0.0000   0.0000   0.0000   0.0000   0.0000   0.0000
     0.0000   0.0000   0.0000   0.0000   0.0000   0.0000   0.0000   0.0000
     0.0000   0.0000   0.0000   0.0000   0.0000   0.0000   0.0000   0.0000
     0.0000   0.0000   0.0000   0.0000   0.0000   0.0000   0.0000   0.0000
     0.0000   0.0000   0.0000   0.0000   0.0000   0.0000   0.0000   0.0000
     0.0000   0.0000   0.0000   0.0000   0.0000   0.0000   0.0000   0.0000
     0.0000   0.0000   0.0000   0.0000   0.0000   0.0000   0.0000   0.0000
     0.0000   0.0000   0.0000   0.0000   0.0000   0.0000   0.0000   0.0000

[...]

          k = 0.3333 0.3037 0.2529 (  4911 PWs)   bands (ev):

   -57.1633 -57.1631 -46.2320 -46.2315 -46.2309 -46.2309 -46.1906 -46.1906
   -31.4902 -31.4901 -31.4768 -31.4767 -31.1825 -31.1824 -18.1991 -18.1978
   -18.1882 -18.1857 -18.1849 -18.1770 -18.1693 -18.1642 -18.1498 -18.1485
   -18.1427 -18.1417 -18.1293 -18.1268 -18.1165 -18.1144 -18.0932 -18.0916
   -13.1923 -13.1622 -12.9484 -12.9388 -12.8772 -12.8593 -12.8279 -12.8146
    -0.4070  -0.3653  -0.2652  -0.1678  -0.0447   0.0119   0.0585   0.0940
     0.3216   0.3513   0.7549   0.7799   1.4357   1.5204   1.6405   1.7029
     1.8056   1.8735   2.1674   2.2005   2.2364   2.2723   2.3478   2.3547
     6.5910   6.6249   6.7199   6.7402   7.6932   7.7959   7.9789   8.1041
     8.3560   8.5266   8.6823   9.2310   9.7492  10.1206  10.4947  10.7905
    11.3072  11.8236  12.5131  13.1423  13.4543  13.8466  13.9785  14.2766
    14.8135  15.0648  15.4059  15.6657  15.8447  16.1160  16.2878  16.3388
    16.6895  17.0284  17.6067  17.6977  17.9580  18.2885  18.5265  18.7175
    19.1665  19.4523  19.6768  19.9905  20.2915  20.5943  20.7678  21.0871
    21.2416  21.4468  21.7577  21.8121  22.0593  22.2562  22.5274  22.6961
    22.7754  23.1011  23.2971  23.5274  23.6577  23.7078  23.9246  24.1613
    24.4827  24.7307  24.8980  25.1045  25.2450  25.3829  25.6144  25.7568
    25.8815  26.1327  26.4887  26.6527  26.8357  27.1339  27.1878  27.3183
    27.6494  27.9037  28.1543  28.3279  28.5112  28.8282  28.9319  29.2251
    29.3885  29.7675  29.9142  30.3143  30.4095  30.5220  30.6899  30.8530
    31.0334  31.2456  31.5068  31.8191  31.9693  32.0954  32.3339  32.5728
    32.7155  32.9044  33.0548  33.2108  33.3837  33.6269  33.8182  33.9264
    34.1349  34.3631  34.5850  34.7566  34.8656  34.9337  35.1545  35.3338
    35.4767  35.7653  35.9225  36.0618  36.2694  36.4895  36.7369  36.8487
    36.9450  37.1469  37.3048  37.5181  37.6244  37.7401  38.0107  38.2443
    38.4727  38.5422  38.7799  38.8768  38.9973  39.1313  39.3050  39.6097
    39.7178  40.0659  40.1378  40.3488  40.5039  40.6102  40.8779  40.9417
    41.1451  41.3660  41.4318  41.5481  41.6993  41.9706  42.1025  42.3068
    42.3938  42.6089  42.7747  42.8782  42.9675  43.2426  43.3053  43.4245
    43.7414  43.8518  43.9631  44.1884  44.3303  44.5344  44.6773  44.7969
    44.9462  45.1724  45.3058  45.4033  45.7401  45.9160  46.0340  46.1558
    46.2544  46.3631  46.5408  46.7064  47.0302  47.1687  47.2572  47.4037

     occupation numbers
     1.0000   1.0000   1.0000   1.0000   1.0000   1.0000   1.0000   1.0000
     1.0000   1.0000   1.0000   1.0000   1.0000   1.0000   1.0000   1.0000
     1.0000   1.0000   1.0000   1.0000   1.0000   1.0000   1.0000   1.0000
     1.0000   1.0000   1.0000   1.0000   1.0000   1.0000   1.0000   1.0000
     1.0000   1.0000   1.0000   1.0000   1.0000   1.0000   1.0000   1.0000
     1.0000   1.0000   1.0000   1.0000   1.0000   1.0000   1.0000   1.0000
     1.0000   1.0000   1.0000   1.0000   1.0000   1.0000   1.0000   1.0000
     1.0000   1.0000   1.0000   1.0000   1.0000   1.0000   1.0000   1.0000
     1.0000   0.0000   0.0000   0.0000   0.0000   0.0000   0.0000   0.0000
     0.0000   0.0000   0.0000   0.0000   0.0000   0.0000   0.0000   0.0000
     0.0000   0.0000   0.0000   0.0000   0.0000   0.0000   0.0000   0.0000
     0.0000   0.0000   0.0000   0.0000   0.0000   0.0000   0.0000   0.0000
     0.0000   0.0000   0.0000   0.0000   0.0000   0.0000   0.0000   0.0000
     0.0000   0.0000   0.0000   0.0000   0.0000   0.0000   0.0000   0.0000
     0.0000   0.0000   0.0000   0.0000   0.0000   0.0000   0.0000   0.0000
     0.0000   0.0000   0.0000   0.0000   0.0000   0.0000   0.0000   0.0000
     0.0000   0.0000   0.0000   0.0000   0.0000   0.0000   0.0000   0.0000
     0.0000   0.0000   0.0000   0.0000   0.0000   0.0000   0.0000   0.0000
     0.0000   0.0000   0.0000   0.0000   0.0000   0.0000   0.0000   0.0000
     0.0000   0.0000   0.0000   0.0000   0.0000   0.0000   0.0000   0.0000
     0.0000   0.0000   0.0000   0.0000   0.0000   0.0000   0.0000   0.0000
     0.0000   0.0000   0.0000   0.0000   0.0000   0.0000   0.0000   0.0000
     0.0000   0.0000   0.0000   0.0000   0.0000   0.0000   0.0000   0.0000
     0.0000   0.0000   0.0000   0.0000   0.0000   0.0000   0.0000   0.0000
     0.0000   0.0000   0.0000   0.0000   0.0000   0.0000   0.0000   0.0000
     0.0000   0.0000   0.0000   0.0000   0.0000   0.0000   0.0000   0.0000
     0.0000   0.0000   0.0000   0.0000   0.0000   0.0000   0.0000   0.0000
     0.0000   0.0000   0.0000   0.0000   0.0000   0.0000   0.0000   0.0000
     0.0000   0.0000   0.0000   0.0000   0.0000   0.0000   0.0000   0.0000
     0.0000   0.0000   0.0000   0.0000   0.0000   0.0000   0.0000   0.0000
     0.0000   0.0000   0.0000   0.0000   0.0000   0.0000   0.0000   0.0000
     0.0000   0.0000   0.0000   0.0000   0.0000   0.0000   0.0000   0.0000

     highest occupied, lowest unoccupied level (ev):     6.6530    6.6249

!    total energy              =   -1180.09111626 Ry
     estimated scf accuracy    <       0.00000045 Ry

     The total energy is the sum of the following terms:
     one-electron contribution =    -729.61815176 Ry
     hartree contribution      =     406.78722758 Ry
     xc contribution           =    -176.70756802 Ry
     ewald contribution        =    -604.33295357 Ry
     one-center paw contrib.   =     -76.21967049 Ry
      -> PAW hartree energy AE =       0.00000000 Ry
      -> PAW hartree energy PS =       0.00000000 Ry
      -> PAW xc energy AE      =       0.00000000 Ry
      -> PAW xc energy PS      =       0.00000000 Ry
      -> total E_H with PAW    =     406.78722758 Ry
      -> total E_XC with PAW   =    -176.70756802 Ry

     convergence has been achieved in  11 iterations

     Writing all to output data dir bands_nm/myprefix.save/

     General routines

     Parallel routines

     PAW routines

   This run was terminated on:  18:43:17  15Jul2023

   JOB DONE.