     Program PWSCF v.7.1 starts on 12Jul2023 at 15: 7:51

     Reading input from espresso_22338.pwi
Warning: card &CELL ignored
Warning: card / ignored

     Current dimensions of program PWSCF are:
     Max number of different atomic species (ntypx) = 10
     Max number of k-points (npk) =  40000
     Max angular momentum in pseudopotentials (lmaxx) =  4
     file O.pbe-n-kjpaw_psl.0.1.UPF: wavefunction(s)  2P renormalized
     Message from routine setup:
     using ibrav=0 with symmetry is DISCOURAGED, use correct ibrav instead

     K-points division:     npool     =       2
     R & G space division:  proc/nbgrp/npool/nimage =       8
     Subspace diagonalization in iterative solution of the eigenvalue problem:
     a serial algorithm will be used

     Using Slab Decomposition

     bravais-lattice index     =            0
     lattice parameter (alat)  =      21.3310  a.u.
     unit-cell volume          =    1129.1121 (a.u.)^3
     number of atoms/cell      =           11
     number of atomic types    =            4
     number of electrons       =        98.00
     number of Kohn-Sham states=           64
     kinetic-energy cutoff     =      30.0000  Ry
     charge density cutoff     =     240.0000  Ry
     scf convergence threshold =      1.0E-06
     mixing beta               =       0.7000
     number of iterations used =            8  plain     mixing
     Exchange-correlation= SLA  PW   PBX  PBC
                           (   1   4   3   4   0   0   0)

     celldm(1)=  21.330999  celldm(2)=   0.000000  celldm(3)=   0.000000
     celldm(4)=   0.000000  celldm(5)=   0.000000  celldm(6)=   0.000000

     crystal axes: (cart. coord. in units of alat)
               a(1) = (   1.000000   0.000000   0.000000 )
               a(2) = (   0.880012   0.474952   0.000000 )
               a(3) = (  -0.940006  -0.237476   0.244937 )

     reciprocal axes: (cart. coord. in units 2 pi/alat)
               b(1) = (  1.000000 -1.852845  2.041343 )
               b(2) = (  0.000000  2.105478  2.041343 )
               b(3) = (  0.000000  0.000000  4.082685 )

     PseudoPot. # 1 for La read from file:
     /lustre07/scratch/pragov/crystal_structure_design/utils/SSSP/La.GGA-PBE-paw-v1.0.UPF
     MD5 check sum: 436541e95c1ad8901025bd0b0ed42ae2
     Pseudo is Projector augmented-wave + core cor, Zval = 11.0
     Generated using ATOMPAW code
     Shape of augmentation charge: BESSEL
     Using radial grid of 1101 points,  8 beta functions with:
                l(1) =   0
                l(2) =   0
                l(3) =   1
                l(4) =   1
                l(5) =   2
                l(6) =   2
                l(7) =   3
                l(8) =   3
     Q(r) pseudized with 0 coefficients

     PseudoPot. # 2 for Ta read from file:
     /lustre07/scratch/pragov/crystal_structure_design/utils/SSSP/Ta_pbe_v1.uspp.F.UPF
     MD5 check sum: f8bbe9446314a3b8ea5d9f3e3836c939
     Pseudo is Ultrasoft + core correction, Zval = 13.0
     Generated by new atomic code, or converted to UPF format
     Using radial grid of  921 points,  7 beta functions with:
                l(1) =   0
                l(2) =   0
                l(3) =   1
                l(4) =   1
                l(5) =   2
                l(6) =   2
                l(7) =   3
     Q(r) pseudized with  6 coefficients,  rinner =    1.300   1.300   1.300
                                                       1.300   1.300   1.300
                                                       1.300

     PseudoPot. # 3 for Ag read from file:
     /lustre07/scratch/pragov/crystal_structure_design/utils/SSSP/Ag_ONCV_PBE-1.0.oncvpsp.upf
     MD5 check sum: 94f47bd0669c641108e45594df92fabc
     Pseudo is Norm-conserving, Zval = 19.0
     Generated using ONCVPSP code by D. R. Hamann
     Using radial grid of 1398 points,  6 beta functions with:
                l(1) =   0
                l(2) =   0
                l(3) =   1
                l(4) =   1
                l(5) =   2
                l(6) =   2

     PseudoPot. # 4 for O  read from file:
     /lustre07/scratch/pragov/crystal_structure_design/utils/SSSP/O.pbe-n-kjpaw_psl.0.1.UPF
     MD5 check sum: 0234752ac141de4415c5fc33072bef88
     Pseudo is Projector augmented-wave + core cor, Zval =  6.0
     Generated using "atomic" code by A. Dal Corso  v.5.0.99 svn rev. 10869
     Shape of augmentation charge: BESSEL
     Using radial grid of 1095 points,  4 beta functions with:
                l(1) =   0
                l(2) =   0
                l(3) =   1
                l(4) =   1
     Q(r) pseudized with 0 coefficients

     atomic species   valence    mass     pseudopotential
        La            11.00   138.90547     La( 1.00)
        Ta            13.00   180.94788     Ta( 1.00)
        Ag            19.00   107.86820     Ag( 1.00)
        O              6.00    15.99900     O ( 1.00)

      2 Sym. Ops. (no inversion) found

                                    s                        frac. trans.

      isym =  1     identity

 cryst.   s( 1) = (     1          0          0      )
                  (     0          1          0      )
                  (     0          0          1      )

 cart.    s( 1) = (  1.0000000 -0.0000000  0.0000000 )
                  (  0.0000000  1.0000000 -0.0000000 )
                  (  0.0000000  0.0000000  1.0000000 )

      isym =  2     180 deg rotation - cart. axis [0,0,1]

 cryst.   s( 2) = (    -1          0          0      )
                  (     0         -1          0      )
                  (     1          1          1      )

 cart.    s( 2) = ( -1.0000000  0.0000000 -0.0000000 )
                  (  0.0000000 -1.0000000 -0.0000000 )
                  (  0.0000000  0.0000000  1.0000000 )

   Cartesian axes

     site n.     atom                  positions (alat units)
         1           La  tau(   1) = (   0.0000000   0.0000000   0.0000000  )
         2           Ta  tau(   2) = (   1.1359257   0.2869715   0.0000000  )
         3           Ta  tau(   3) = (   0.7440861   0.1879802   0.0000000  )
         4           Ag  tau(   4) = (   0.4400059   0.2374758   0.1224684  )
         5           O   tau(   5) = (   0.7504034   0.3158922   0.1224684  )
         6           O   tau(   6) = (   0.8117831   0.0787665   0.1224684  )
         7           O   tau(   7) = (   0.1882169  -0.0787665   0.1224684  )
         8           O   tau(   8) = (   0.1296085   0.1590594   0.1224684  )
         9           O   tau(   9) = (   1.2917487   0.3263374   0.0000000  )
        10           O   tau(  10) = (   0.5882632   0.1486143   0.0000000  )
        11           O   tau(  11) = (   0.9400059   0.2374758   0.0000000  )

   Crystallographic axes

     site n.     atom                  positions (cryst. coord.)
         1           La  tau(   1) = (  0.0000000  0.0000000  0.0000000  )
         2           Ta  tau(   2) = (  0.6042120  0.6042120  0.0000000  )
         3           Ta  tau(   3) = (  0.3957880  0.3957880  0.0000000  )
         4           Ag  tau(   4) = (  0.2500000  0.7500000  0.5000000  )
         5           O   tau(   5) = (  0.4151040  0.9151040  0.5000000  )
         6           O   tau(   6) = (  0.9158410  0.4158410  0.5000000  )
         7           O   tau(   7) = (  0.5841590  0.0841590  0.5000000  )
         8           O   tau(   8) = (  0.0848960  0.5848960  0.5000000  )
         9           O   tau(   9) = (  0.6870960  0.6870960  0.0000000  )
        10           O   tau(  10) = (  0.3129040  0.3129040  0.0000000  )
        11           O   tau(  11) = (  0.5000000  0.5000000  0.0000000  )

     number of k points=    10
                       cart. coord. in units 2pi/alat
        k(    1) = (   0.0000000   0.0000000   0.0000000), wk =   0.0740741
        k(    2) = (   0.0000000   0.0000000   1.3608951), wk =   0.1481481
        k(    3) = (   0.0000000   0.7018258   0.6804476), wk =   0.2962963
        k(    4) = (   0.0000000   0.7018258   2.0413427), wk =   0.1481481
        k(    5) = (   0.3333333  -0.6176151   0.6804476), wk =   0.2962963
        k(    6) = (   0.3333333  -0.6176151   2.0413427), wk =   0.1481481
        k(    7) = (   0.3333333   0.0842108   1.3608951), wk =   0.2962963
        k(    8) = (   0.3333333   0.0842108   0.0000000), wk =   0.1481481
        k(    9) = (   0.3333333  -1.3194409  -0.0000000), wk =   0.1481481
        k(   10) = (   0.3333333  -1.3194409   1.3608951), wk =   0.2962963

                       cryst. coord.
        k(    1) = (   0.0000000   0.0000000   0.0000000), wk =   0.0740741
        k(    2) = (   0.0000000   0.0000000   0.3333333), wk =   0.1481481
        k(    3) = (   0.0000000   0.3333333   0.0000000), wk =   0.2962963
        k(    4) = (   0.0000000   0.3333333   0.3333333), wk =   0.1481481
        k(    5) = (   0.3333333   0.0000000   0.0000000), wk =   0.2962963
        k(    6) = (   0.3333333   0.0000000   0.3333333), wk =   0.1481481
        k(    7) = (   0.3333333   0.3333333   0.0000000), wk =   0.2962963
        k(    8) = (   0.3333333   0.3333333  -0.3333333), wk =   0.1481481
        k(    9) = (   0.3333333  -0.3333333   0.0000000), wk =   0.1481481
        k(   10) = (   0.3333333  -0.3333333   0.3333333), wk =   0.2962963

     Check: negative core charge=   -0.000008

     Initial potential from superposition of free atoms

     starting charge      97.9889, renormalised to      98.0000

     negative rho (up, down):  1.903E-01 0.000E+00
     Starting wfcs are   96 randomized atomic wfcs
     Checking if some PAW data can be deallocated...

     Self-consistent Calculation

     iteration #  1     ecut=    30.00 Ry     beta= 0.70
     Davidson diagonalization with overlap

     ethr =  1.00E-02,  avg # of iterations =  2.0

     negative rho (up, down):  1.907E-01 0.000E+00

     total energy              =   -1319.60772864 Ry
     estimated scf accuracy    <       3.44796346 Ry

[...]

     total energy              =   -1321.41747819 Ry
     estimated scf accuracy    <       0.00000716 Ry

     iteration # 15     ecut=    30.00 Ry     beta= 0.70
     Davidson diagonalization with overlap

     ethr =  7.31E-09,  avg # of iterations =  2.4

     negative rho (up, down):  1.929E-01 0.000E+00

     End of self-consistent calculation

          k = 0.0000 0.0000 0.0000 (  3161 PWs)   bands (ev):

   -81.4438 -59.5451 -59.5449 -44.5174 -44.4948 -44.4948 -26.1426 -26.1426
   -26.1137 -26.1137 -26.1072 -26.0974 -22.8185 -10.5652 -10.2202  -9.6067
    -9.5754  -8.3161  -8.0848  -7.6749  -6.3183  -6.3182  -5.9763   3.6684
     3.9291   3.9291   4.0775   4.0775   4.4981   4.9294   5.1587   5.3056
     5.4244   5.4244   5.5717   5.9486   5.9486   6.2251   6.2251   6.7889
     6.7889   7.0559   7.4565   7.5070   7.5205   7.5205   8.4005   8.4703
     8.4703  10.1122  10.1677  11.3944  12.1458  12.2509  12.3129  12.3129
    12.3622  12.4808  12.4808  12.5293  12.7669  12.9562  12.9562  13.5193

     occupation numbers
     1.0000   1.0000   1.0000   1.0000   1.0000   1.0000   1.0000   1.0000
     1.0000   1.0000   1.0000   1.0000   1.0000   1.0000   1.0000   1.0000
     1.0000   1.0000   1.0000   1.0000   1.0000   1.0000   1.0000   1.0000
     1.0000   1.0000   1.0000   1.0000   1.0000   1.0000   1.0000   1.0000
     1.0000   1.0000   1.0000   1.0000   1.0000   1.0000   1.0000   1.0000
     1.0000   1.0000   1.0000   1.0000   1.0000   1.0000   1.0000   1.0000
     1.0000   0.0000   0.0000   0.0000   0.0000   0.0000   0.0000   0.0000
     0.0000   0.0000   0.0000   0.0000   0.0000   0.0000   0.0000   0.0000

[...]

          k = 0.3333-1.3194 1.3609 (  3148 PWs)   bands (ev):

   -81.4438 -59.5443 -59.5443 -44.5166 -44.4957 -44.4954 -26.2257 -26.1955
   -26.1395 -26.1106 -26.1002 -26.0925 -22.7765 -10.2453 -10.0752  -9.3492
    -9.1769  -8.4167  -8.1120  -7.8860  -6.2439  -6.0915  -5.7247   2.6459
     2.7051   3.6568   3.9653   4.1041   4.2933   4.8601   4.8952   4.9926
     5.0572   5.2719   5.3905   5.5758   5.6611   5.7734   5.9658   6.4034
     6.5140   7.0080   7.0685   7.4013   7.4384   7.6800   8.1484   8.2501
     8.3914  11.7309  11.7856  11.9368  12.0819  12.2036  12.2372  12.2683
    12.2940  12.3971  12.5137  12.6816  13.1568  13.2508  13.4829  14.1266

     occupation numbers
     1.0000   1.0000   1.0000   1.0000   1.0000   1.0000   1.0000   1.0000
     1.0000   1.0000   1.0000   1.0000   1.0000   1.0000   1.0000   1.0000
     1.0000   1.0000   1.0000   1.0000   1.0000   1.0000   1.0000   1.0000
     1.0000   1.0000   1.0000   1.0000   1.0000   1.0000   1.0000   1.0000
     1.0000   1.0000   1.0000   1.0000   1.0000   1.0000   1.0000   1.0000
     1.0000   1.0000   1.0000   1.0000   1.0000   1.0000   1.0000   1.0000
     1.0000   0.0000   0.0000   0.0000   0.0000   0.0000   0.0000   0.0000
     0.0000   0.0000   0.0000   0.0000   0.0000   0.0000   0.0000   0.0000

     highest occupied, lowest unoccupied level (ev):     8.4703   10.1113

!    total energy              =   -1321.41747953 Ry
     estimated scf accuracy    <       0.00000049 Ry

     The total energy is the sum of the following terms:
     one-electron contribution =    -387.29990964 Ry
     hartree contribution      =     239.61606854 Ry
     xc contribution           =    -172.46680021 Ry
     ewald contribution        =    -536.52693592 Ry
     one-center paw contrib.   =    -464.73990231 Ry
      -> PAW hartree energy AE =      34.31261493 Ry
      -> PAW hartree energy PS =     -34.36379752 Ry
      -> PAW xc energy AE      =    -405.26679768 Ry
      -> PAW xc energy PS      =       7.23120707 Ry
      -> total E_H with PAW    =     239.56488595 Ry
      -> total E_XC with PAW   =    -570.50239082 Ry

     convergence has been achieved in  15 iterations

     Writing all to output data dir bands_nm/myprefix.save/

     General routines

     Parallel routines

     PAW routines

   This run was terminated on:  15: 8:14  12Jul2023

   JOB DONE.