     Program PWSCF v.7.0 starts on  6Jun2023 at  0:12:26

     K-points division:     npool     =       2
     R & G space division:  proc/nbgrp/npool/nimage =       4

     Reading input from espresso_12477.pwi
Warning: card &CELL ignored
Warning: card / ignored

     Current dimensions of program PWSCF are:
     Max number of different atomic species (ntypx) = 10
     Max number of k-points (npk) =  40000
     Max angular momentum in pseudopotentials (lmaxx) =  4
     file O.pbe-n-kjpaw_psl.0.1.UPF: wavefunction(s)  2P renormalized
     Message from routine setup:
     using ibrav=0 with symmetry is DISCOURAGED, use correct ibrav instead

     Using Slab Decomposition

     bravais-lattice index     =            0
     lattice parameter (alat)  =      13.8390  a.u.
     unit-cell volume          =    1485.1168 (a.u.)^3
     number of atoms/cell      =           10
     number of atomic types    =            4
     number of electrons       =        92.00
     number of Kohn-Sham states=           64
     kinetic-energy cutoff     =      30.0000  Ry
     charge density cutoff     =     240.0000  Ry
     scf convergence threshold =      1.0E-06
     mixing beta               =       0.7000
     number of iterations used =            8  plain     mixing
     Exchange-correlation= SLA  PW   PBX  PBC
                           (   1   4   3   4   0   0   0)

     celldm(1)=  13.839037  celldm(2)=   0.000000  celldm(3)=   0.000000
     celldm(4)=   0.000000  celldm(5)=   0.000000  celldm(6)=   0.000000

     crystal axes: (cart. coord. in units of alat)
               a(1) = (   1.000000   0.000000   0.000000 )
               a(2) = (  -0.695506   0.718520   0.000000 )
               a(3) = (   0.000000   0.000000   0.779837 )

     reciprocal axes: (cart. coord. in units 2 pi/alat)
               b(1) = (  1.000000  0.967970  0.000000 )
               b(2) = (  0.000000  1.391750  0.000000 )
               b(3) = (  0.000000  0.000000  1.282318 )

     PseudoPot. # 1 for Na read from file:
     /home/pragov/projects/rrg-bengioy-ad/pragov/crystal_structure_design/SSSP/na_pbe_v1.5.uspp.F.UPF
     MD5 check sum: 44600605ef58000f06b90626533354dc
     Pseudo is Ultrasoft, Zval =  9.0
     Generated by new atomic code, or converted to UPF format
     Using radial grid of  819 points,  5 beta functions with:
                l(1) =   0
                l(2) =   0
                l(3) =   1
                l(4) =   1
                l(5) =   2
     Q(r) pseudized with  8 coefficients,  rinner =    1.250   1.250   1.250
                                                       1.250   1.250

     PseudoPot. # 2 for Bi read from file:
     /home/pragov/projects/rrg-bengioy-ad/pragov/crystal_structure_design/SSSP/Bi_pbe_v1.uspp.F.UPF
     MD5 check sum: cceb9f28ec65b6d7ff33140f5b0b1758
     Pseudo is Ultrasoft + core correction, Zval = 15.0
     Generated by new atomic code, or converted to UPF format
     Using radial grid of  899 points,  6 beta functions with:
                l(1) =   0
                l(2) =   0
                l(3) =   1
                l(4) =   1
                l(5) =   2
                l(6) =   2
     Q(r) pseudized with  6 coefficients,  rinner =    1.000   1.000   1.000
                                                       1.000   1.000

     PseudoPot. # 3 for I  read from file:
     /home/pragov/projects/rrg-bengioy-ad/pragov/crystal_structure_design/SSSP/I.pbe-n-kjpaw_psl.0.2.UPF
     MD5 check sum: d4ef18d9c8f18dc85e5843bca1e50dc0
     Pseudo is Projector augmented-wave + core cor, Zval =  7.0
     Generated using "atomic" code by A. Dal Corso  v.5.0.99 svn rev. 10869
     Shape of augmentation charge: PSQ
     Using radial grid of 1247 points,  4 beta functions with:
                l(1) =   0
                l(2) =   0
                l(3) =   1
                l(4) =   1
     Q(r) pseudized with 0 coefficients

     PseudoPot. # 4 for O  read from file:
     /home/pragov/projects/rrg-bengioy-ad/pragov/crystal_structure_design/SSSP/O.pbe-n-kjpaw_psl.0.1.UPF
     MD5 check sum: 0234752ac141de4415c5fc33072bef88
     Pseudo is Projector augmented-wave + core cor, Zval =  6.0
     Generated using "atomic" code by A. Dal Corso  v.5.0.99 svn rev. 10869
     Shape of augmentation charge: BESSEL
     Using radial grid of 1095 points,  4 beta functions with:
                l(1) =   0
                l(2) =   0
                l(3) =   1
                l(4) =   1
     Q(r) pseudized with 0 coefficients

     atomic species   valence    mass     pseudopotential
        Na             9.00    22.98977     Na( 1.00)
        Bi            15.00   208.98040     Bi( 1.00)
        I              7.00   126.90447     I ( 1.00)
        O              6.00    15.99900     O ( 1.00)

      2 Sym. Ops. (no inversion) found

                                    s                        frac. trans.

      isym =  1     identity

 cryst.   s( 1) = (     1          0          0      )
                  (     0          1          0      )
                  (     0          0          1      )

 cart.    s( 1) = (  1.0000000 -0.0000000  0.0000000 )
                  (  0.0000000  1.0000000  0.0000000 )
                  (  0.0000000  0.0000000  1.0000000 )

      isym =  2     inv. 180 deg rotation - cart. axis [0,0,1]

 cryst.   s( 2) = (     1          0          0      )
                  (     0          1          0      )
                  (     0          0         -1      )

 cart.    s( 2) = (  1.0000000 -0.0000000  0.0000000 )
                  (  0.0000000  1.0000000  0.0000000 )
                  (  0.0000000  0.0000000 -1.0000000 )

   Cartesian axes

     site n.     atom                  positions (alat units)
         1           Na  tau(   1) = (  -0.1219877   0.4754749   0.3899187  )
         2           Bi  tau(   2) = (   0.7172099   0.1198405   0.0000000  )
         3           Bi  tau(   3) = (  -0.4099931   0.5975256   0.0000000  )
         4           Bi  tau(   4) = (   0.4364849   0.2388059   0.3899187  )
         5           I   tau(   5) = (   0.1479064   0.3610995   0.0000000  )
         6           I   tau(   6) = (  -0.6912725   0.7167259   0.3899187  )
         7           O   tau(   7) = (   0.4994798   0.0075552   0.5912307  )
         8           O   tau(   8) = (   0.6464565   0.3543791   0.1886068  )
         9           O   tau(   9) = (   0.6464565   0.3543791   0.5912307  )
        10           O   tau(  10) = (   0.4994798   0.0075552   0.1886068  )

   Crystallographic axes

     site n.     atom                  positions (cryst. coord.)
         1           Na  tau(   1) = (  0.3382580  0.6617420  0.5000000  )
         2           Bi  tau(   2) = (  0.8332120  0.1667880  0.0000000  )
         3           Bi  tau(   3) = (  0.1683940  0.8316060  0.0000000  )
         4           Bi  tau(   4) = (  0.6676420  0.3323580  0.5000000  )
         5           I   tau(   5) = (  0.4974400  0.5025600  0.0000000  )
         6           I   tau(   6) = (  0.0024970  0.9975030  0.5000000  )
         7           O   tau(   7) = (  0.5067930  0.0105150  0.7581460  )
         8           O   tau(   8) = (  0.9894850  0.4932070  0.2418540  )
         9           O   tau(   9) = (  0.9894850  0.4932070  0.7581460  )
        10           O   tau(  10) = (  0.5067930  0.0105150  0.2418540  )

     number of k points=    10
                       cart. coord. in units 2pi/alat
        k(    1) = (   0.0000000   0.0000000   0.0000000), wk =   0.0740741
        k(    2) = (   0.0000000   0.0000000   0.4274395), wk =   0.1481481
        k(    3) = (   0.0000000   0.4639165   0.0000000), wk =   0.1481481
        k(    4) = (   0.0000000   0.4639165   0.4274395), wk =   0.2962963
        k(    5) = (   0.3333333   0.3226568   0.0000000), wk =   0.1481481
        k(    6) = (   0.3333333   0.3226568   0.4274395), wk =   0.2962963
        k(    7) = (   0.3333333   0.7865733   0.0000000), wk =   0.1481481
        k(    8) = (   0.3333333   0.7865733   0.4274395), wk =   0.2962963
        k(    9) = (   0.3333333  -0.1412597   0.0000000), wk =   0.1481481
        k(   10) = (   0.3333333  -0.1412597   0.4274395), wk =   0.2962963

                       cryst. coord.
        k(    1) = (   0.0000000   0.0000000   0.0000000), wk =   0.0740741
        k(    2) = (   0.0000000   0.0000000   0.3333333), wk =   0.1481481
        k(    3) = (   0.0000000   0.3333333   0.0000000), wk =   0.1481481
        k(    4) = (   0.0000000   0.3333333   0.3333333), wk =   0.2962963
        k(    5) = (   0.3333333   0.0000000   0.0000000), wk =   0.1481481
        k(    6) = (   0.3333333   0.0000000   0.3333333), wk =   0.2962963
        k(    7) = (   0.3333333   0.3333333   0.0000000), wk =   0.1481481
        k(    8) = (   0.3333333   0.3333333   0.3333333), wk =   0.2962963
        k(    9) = (   0.3333333  -0.3333333   0.0000000), wk =   0.1481481
        k(   10) = (   0.3333333  -0.3333333   0.3333333), wk =   0.2962963

     Check: negative core charge=   -0.000006

     Initial potential from superposition of free atoms

     starting charge      88.9934, renormalised to      92.0000

     negative rho (up, down):  1.326E-01 0.000E+00
     Starting wfcs are   56 randomized atomic wfcs +    8 random wfcs
     Checking if some PAW data can be deallocated...

     Self-consistent Calculation

     iteration #  1     ecut=    30.00 Ry     beta= 0.70
     Davidson diagonalization with overlap

     ethr =  1.00E-02,  avg # of iterations =  7.0

     negative rho (up, down):  1.201E-01 0.000E+00

     total energy              =   -1574.73415922 Ry
     estimated scf accuracy    <       2.02823445 Ry

[...]

     total energy              =   -1575.68697946 Ry
     estimated scf accuracy    <       0.00000260 Ry

     iteration # 10     ecut=    30.00 Ry     beta= 0.70
     Davidson diagonalization with overlap

     ethr =  2.83E-09,  avg # of iterations =  2.5

     negative rho (up, down):  1.263E-01 0.000E+00

     End of self-consistent calculation

          k = 0.0000 0.0000 0.0000 (  4125 PWs)   bands (ev):

   -43.1605 -15.7099 -15.6812 -15.6804 -15.5874 -15.5671 -15.5633 -15.5543
   -15.5152 -15.4906 -15.4874 -15.4040 -15.3812 -15.3800 -15.3617 -15.3510
   -15.1004 -15.0676 -15.0675 -11.6187 -10.1596 -10.1592  -9.3968  -4.9071
    -4.1963  -3.6918  -3.3602  -1.0048   2.1690   2.2198   3.0946   3.1190
     3.3405   3.8711   4.3199   4.9397   5.0852   5.3032   5.3722   5.3900
     5.5925   5.7595   5.8610   6.1110   6.2401   6.2953   8.7209   9.0746
    10.2447  10.4375  11.2762  11.7981  12.0778  12.2123  12.8283  13.0442
    13.1717  13.8235  14.1897  15.7958  15.8520  15.9647  16.7952  16.8982

     occupation numbers
     1.0000   1.0000   1.0000   1.0000   1.0000   1.0000   1.0000   1.0000
     1.0000   1.0000   1.0000   1.0000   1.0000   1.0000   1.0000   1.0000
     1.0000   1.0000   1.0000   1.0000   1.0000   1.0000   1.0000   1.0000
     1.0000   1.0000   1.0000   1.0000   1.0000   1.0000   1.0000   1.0000
     1.0000   1.0000   1.0000   1.0000   1.0000   1.0000   1.0000   1.0000
     1.0000   1.0000   1.0000   1.0000   1.0000   1.0000   0.0000   0.0000
     0.0000   0.0000   0.0000   0.0000   0.0000   0.0000   0.0000   0.0000
     0.0000   0.0000   0.0000   0.0000   0.0000   0.0000   0.0000   0.0000

[...]

          k = 0.3333-0.1413 0.4274 (  4129 PWs)   bands (ev):

   -43.1606 -15.6965 -15.6792 -15.6493 -15.5969 -15.5690 -15.5578 -15.5573
   -15.5200 -15.5118 -15.4982 -15.4065 -15.4012 -15.3745 -15.3590 -15.3509
   -15.0997 -15.0685 -15.0672 -11.3616 -10.5168 -10.0109  -9.5663  -4.8170
    -4.3774  -3.3625  -2.8939  -1.6325   1.9963   2.4848   2.7923   3.4349
     3.5835   4.1292   4.2874   4.6118   4.9513   5.1212   5.1828   5.4207
     5.5248   5.5589   5.7956   5.8790   5.8967   6.3774   9.4347   9.7806
    10.5524  11.0055  11.0958  11.3440  11.8118  12.2847  12.5105  13.1718
    14.0007  14.3786  14.5356  15.6826  15.8238  15.9813  16.8107  17.3203

     occupation numbers
     1.0000   1.0000   1.0000   1.0000   1.0000   1.0000   1.0000   1.0000
     1.0000   1.0000   1.0000   1.0000   1.0000   1.0000   1.0000   1.0000
     1.0000   1.0000   1.0000   1.0000   1.0000   1.0000   1.0000   1.0000
     1.0000   1.0000   1.0000   1.0000   1.0000   1.0000   1.0000   1.0000
     1.0000   1.0000   1.0000   1.0000   1.0000   1.0000   1.0000   1.0000
     1.0000   1.0000   1.0000   1.0000   1.0000   1.0000   0.0000   0.0000
     0.0000   0.0000   0.0000   0.0000   0.0000   0.0000   0.0000   0.0000
     0.0000   0.0000   0.0000   0.0000   0.0000   0.0000   0.0000   0.0000

     highest occupied, lowest unoccupied level (ev):     6.6614    8.6622

!    total energy              =   -1575.68697994 Ry
     estimated scf accuracy    <       0.00000042 Ry

     The total energy is the sum of the following terms:
     one-electron contribution =    -403.59228997 Ry
     hartree contribution      =     255.23704648 Ry
     xc contribution           =    -321.57197412 Ry
     ewald contribution        =    -426.58327823 Ry
     one-center paw contrib.   =    -679.17648409 Ry
      -> PAW hartree energy AE =       0.00000000 Ry
      -> PAW hartree energy PS =       0.00000000 Ry
      -> PAW xc energy AE      =       0.00000000 Ry
      -> PAW xc energy PS      =       0.00000000 Ry
      -> total E_H with PAW    =     255.23704648 Ry
      -> total E_XC with PAW   =    -321.57197412 Ry

     convergence has been achieved in  10 iterations

     Writing all to output data dir calculations_bands/myprefix.save/

     General routines

     Parallel routines

     PAW routines

   This run was terminated on:   0:12:40   6Jun2023

   JOB DONE.