     Program PWSCF v.7.1 starts on 14Jul2023 at  2:48:20

     Reading input from espresso_17676.pwi
Warning: card &CELL ignored
Warning: card / ignored

     Current dimensions of program PWSCF are:
     Max number of different atomic species (ntypx) = 10
     Max number of k-points (npk) =  40000
     Max angular momentum in pseudopotentials (lmaxx) =  4
     file La.paw.z_11.atompaw.wentzcovitch.v1.2.upf: wavefunction(s)  6S 0P 5D 0D 4F 0F renormalized
     file O.pbe-n-kjpaw_psl.0.1.UPF: wavefunction(s)  2P renormalized
     Message from routine setup:
     using ibrav=0 with symmetry is DISCOURAGED, use correct ibrav instead

     K-points division:     npool     =       2
     R & G space division:  proc/nbgrp/npool/nimage =       4
     Subspace diagonalization in iterative solution of the eigenvalue problem:
     a serial algorithm will be used

     Using Slab Decomposition

     bravais-lattice index     =            0
     lattice parameter (alat)  =      13.7870  a.u.
     unit-cell volume          =    1590.3940 (a.u.)^3
     number of atoms/cell      =           12
     number of atomic types    =            3
     number of electrons       =        92.00
     number of Kohn-Sham states=           64
     kinetic-energy cutoff     =      30.0000  Ry
     charge density cutoff     =     240.0000  Ry
     scf convergence threshold =      1.0E-06
     mixing beta               =       0.7000
     number of iterations used =            8  plain     mixing
     Exchange-correlation= SLA  PW   PBX  PBC
                           (   1   4   3   4   0   0   0)

     celldm(1)=  13.787043  celldm(2)=   0.000000  celldm(3)=   0.000000
     celldm(4)=   0.000000  celldm(5)=   0.000000  celldm(6)=   0.000000

     crystal axes: (cart. coord. in units of alat)
               a(1) = (   1.000000   0.000000   0.000000 )
               a(2) = (  -0.667397   0.744702   0.000000 )
               a(3) = (   0.000000   0.000000   0.814908 )

     reciprocal axes: (cart. coord. in units 2 pi/alat)
               b(1) = (  1.000000  0.896194  0.000000 )
               b(2) = (  0.000000  1.342819  0.000000 )
               b(3) = (  0.000000  0.000000  1.227132 )

     PseudoPot. # 1 for La read from file:
     /lustre07/scratch/pragov/crystal_structure_design/utils/SSSP/La.paw.z_11.atompaw.wentzcovitch.v1.2.upf
     MD5 check sum: 754494e15ae71f30e5b5f678af019e01
     Pseudo is Projector augmented-wave + core cor, Zval = 11.0
     Generated using ATOMPAW code
     Shape of augmentation charge: BESSEL
     Using radial grid of 1101 points,  8 beta functions with:
                l(1) =   0
                l(2) =   0
                l(3) =   1
                l(4) =   1
                l(5) =   2
                l(6) =   2
                l(7) =   3
                l(8) =   3
     Q(r) pseudized with 0 coefficients

     PseudoPot. # 2 for S  read from file:
     /lustre07/scratch/pragov/crystal_structure_design/utils/SSSP/s_pbe_v1.4.uspp.F.UPF
     MD5 check sum: 88d86576ff6df21479756cfb9bdac1df
     Pseudo is Ultrasoft + core correction, Zval =  6.0
     Generated by new atomic code, or converted to UPF format
     Using radial grid of  907 points,  6 beta functions with:
                l(1) =   0
                l(2) =   0
                l(3) =   1
                l(4) =   1
                l(5) =   2
                l(6) =   2
     Q(r) pseudized with  8 coefficients,  rinner =    1.300   1.300   1.300
                                                       1.300   1.300

     PseudoPot. # 3 for O  read from file:
     /lustre07/scratch/pragov/crystal_structure_design/utils/SSSP/O.pbe-n-kjpaw_psl.0.1.UPF
     MD5 check sum: 0234752ac141de4415c5fc33072bef88
     Pseudo is Projector augmented-wave + core cor, Zval =  6.0
     Generated using "atomic" code by A. Dal Corso  v.5.0.99 svn rev. 10869
     Shape of augmentation charge: BESSEL
     Using radial grid of 1095 points,  4 beta functions with:
                l(1) =   0
                l(2) =   0
                l(3) =   1
                l(4) =   1
     Q(r) pseudized with 0 coefficients

     atomic species   valence    mass     pseudopotential
        La            11.00   138.90547     La( 1.00)
        S              6.00    32.06000     S ( 1.00)
        O              6.00    15.99900     O ( 1.00)

      4 Sym. Ops., with inversion, found ( 2 have fractional translation)

                                    s                        frac. trans.

      isym =  1     identity

 cryst.   s( 1) = (     1          0          0      )
                  (     0          1          0      )
                  (     0          0          1      )

 cart.    s( 1) = (  1.0000000  0.0000000  0.0000000 )
                  (  0.0000000  1.0000000  0.0000000 )
                  (  0.0000000  0.0000000  1.0000000 )

      isym =  2     180 deg rotation - cart. axis [0,0,1]

 cryst.   s( 2) = (    -1          0          0      )    f =(  0.5000000 )
                  (     0         -1          0      )       (  0.5000000 )
                  (     0          0          1      )       (  0.5000000 )

 cart.    s( 2) = ( -1.0000000  0.0000000  0.0000000 )    f =(  0.1663014 )
                  (  0.0000000 -1.0000000  0.0000000 )       (  0.3723510 )
                  (  0.0000000  0.0000000  1.0000000 )       (  0.4074542 )

      isym =  3     inversion

 cryst.   s( 3) = (    -1          0          0      )
                  (     0         -1          0      )
                  (     0          0         -1      )

 cart.    s( 3) = ( -1.0000000  0.0000000  0.0000000 )
                  (  0.0000000 -1.0000000  0.0000000 )
                  (  0.0000000  0.0000000 -1.0000000 )

      isym =  4     inv. 180 deg rotation - cart. axis [0,0,1]

 cryst.   s( 4) = (     1          0          0      )    f =(  0.5000000 )
                  (     0          1          0      )       (  0.5000000 )
                  (     0          0         -1      )       (  0.5000000 )

 cart.    s( 4) = (  1.0000000  0.0000000  0.0000000 )    f =(  0.1663014 )
                  (  0.0000000  1.0000000  0.0000000 )       (  0.3723510 )
                  (  0.0000000  0.0000000 -1.0000000 )       (  0.4074542 )

   Cartesian axes

     site n.     atom                  positions (alat units)
         1           La  tau(   1) = (  -0.3988111   0.6247446   0.4074542  )
         2           La  tau(   2) = (  -0.1022846   0.4923083   0.0000000  )
         3           La  tau(   3) = (   0.7314140   0.1199573   0.4074542  )
         4           La  tau(   4) = (   0.4348874   0.2523937   0.0000000  )
         5           S   tau(   5) = (   0.2079606   0.4656264   0.5097741  )
         6           S   tau(   6) = (   0.2909437   0.6514266   0.1023199  )
         7           S   tau(   7) = (   0.0416592   0.0932754   0.7125885  )
         8           S   tau(   8) = (   0.1246423   0.2790756   0.3051343  )
         9           O   tau(   9) = (  -0.3318902   0.3763999   0.6111813  )
        10           O   tau(  10) = (  -0.1692055   0.7406530   0.2037271  )
        11           O   tau(  11) = (   0.6644931   0.3683021   0.2037271  )
        12           O   tau(  12) = (   0.5018084   0.0040489   0.6111813  )

   Crystallographic axes

     site n.     atom                  positions (cryst. coord.)
         1           La  tau(   1) = (  0.1610810  0.8389190  0.5000000  )
         2           La  tau(   2) = (  0.3389190  0.6610810  0.0000000  )
         3           La  tau(   3) = (  0.8389190  0.1610810  0.5000000  )
         4           La  tau(   4) = (  0.6610810  0.3389190  0.0000000  )
         5           S   tau(   5) = (  0.6252520  0.6252520  0.6255600  )
         6           S   tau(   6) = (  0.8747480  0.8747480  0.1255600  )
         7           S   tau(   7) = (  0.1252520  0.1252520  0.8744400  )
         8           S   tau(   8) = (  0.3747480  0.3747480  0.3744400  )
         9           O   tau(   9) = (  0.0054370  0.5054370  0.7500000  )
        10           O   tau(  10) = (  0.4945630  0.9945630  0.2500000  )
        11           O   tau(  11) = (  0.9945630  0.4945630  0.2500000  )
        12           O   tau(  12) = (  0.5054370  0.0054370  0.7500000  )

     number of k points=    10
                       cart. coord. in units 2pi/alat
        k(    1) = (   0.0000000   0.0000000   0.0000000), wk =   0.0740741
        k(    2) = (   0.0000000   0.0000000   0.4090439), wk =   0.1481481
        k(    3) = (   0.0000000   0.4476063   0.0000000), wk =   0.1481481
        k(    4) = (   0.0000000   0.4476063   0.4090439), wk =   0.2962963
        k(    5) = (   0.3333333   0.2987312   0.0000000), wk =   0.1481481
        k(    6) = (   0.3333333   0.2987312   0.4090439), wk =   0.2962963
        k(    7) = (   0.3333333   0.7463375   0.0000000), wk =   0.1481481
        k(    8) = (   0.3333333   0.7463375   0.4090439), wk =   0.2962963
        k(    9) = (   0.3333333  -0.1488751   0.0000000), wk =   0.1481481
        k(   10) = (   0.3333333  -0.1488751   0.4090439), wk =   0.2962963

                       cryst. coord.
        k(    1) = (   0.0000000   0.0000000   0.0000000), wk =   0.0740741
        k(    2) = (   0.0000000   0.0000000   0.3333333), wk =   0.1481481
        k(    3) = (   0.0000000   0.3333333   0.0000000), wk =   0.1481481
        k(    4) = (   0.0000000   0.3333333   0.3333333), wk =   0.2962963
        k(    5) = (   0.3333333   0.0000000   0.0000000), wk =   0.1481481
        k(    6) = (   0.3333333   0.0000000   0.3333333), wk =   0.2962963
        k(    7) = (   0.3333333   0.3333333   0.0000000), wk =   0.1481481
        k(    8) = (   0.3333333   0.3333333   0.3333333), wk =   0.2962963
        k(    9) = (   0.3333333  -0.3333333   0.0000000), wk =   0.1481481
        k(   10) = (   0.3333333  -0.3333333   0.3333333), wk =   0.2962963

     Check: negative core charge=   -0.000006

     Initial potential from superposition of free atoms

     starting charge      91.9657, renormalised to      92.0000

     negative rho (up, down):  3.207E-04 0.000E+00
     Starting wfcs are  160 randomized atomic wfcs
     Checking if some PAW data can be deallocated...

     Self-consistent Calculation

     iteration #  1     ecut=    30.00 Ry     beta= 0.70
     Davidson diagonalization with overlap

     ethr =  1.00E-02,  avg # of iterations =  2.0

     negative rho (up, down):  7.593E-04 0.000E+00

     total energy              =   -2095.98752091 Ry
     estimated scf accuracy    <       2.62656709 Ry

[...]

     c_bands:  2 eigenvalues not converged
     c_bands:  5 eigenvalues not converged
     c_bands:  2 eigenvalues not converged
     c_bands:  2 eigenvalues not converged
     c_bands:  2 eigenvalues not converged
     ethr =  2.23E-05,  avg # of iterations = 20.0

[...]

     c_bands:  1 eigenvalues not converged
     ethr =  4.78E-08,  avg # of iterations =  5.5

[...]

     total energy              =   -2097.47269899 Ry
     estimated scf accuracy    <       0.00000336 Ry

     iteration # 12     ecut=    30.00 Ry     beta= 0.70
     Davidson diagonalization with overlap

     ethr =  3.65E-09,  avg # of iterations =  4.0

     negative rho (up, down):  5.954E-04 0.000E+00

     End of self-consistent calculation

          k = 0.0000 0.0000 0.0000 (  4387 PWs)   bands (ev):

   -22.0260 -21.8661 -21.8594 -21.8319  -9.3800  -9.3743  -8.9642  -7.8901
    -5.9072  -5.8999  -5.8999  -5.7756  -5.7613  -5.6926  -5.6153  -5.4779
    -5.4734  -5.4721  -4.4847  -4.0286  -4.0150  -3.9000  -1.0132  -0.9611
     4.5250   4.7371   5.0948   5.4800   5.6307   5.6524   5.6796   6.0449
     6.0515   6.1911   6.7065   6.7947   6.8674   6.8867   7.2504   7.2933
     7.3141   7.3567   7.4216   8.2640   8.3042   9.7171  11.8440  12.0420
    12.0957  12.3918  12.5296  12.6923  12.8198  12.8801  12.9220  12.9660
    12.9667  12.9852  12.9936  13.0108  13.0241  13.0689  13.1018  13.1087

     occupation numbers
     1.0000   1.0000   1.0000   1.0000   1.0000   1.0000   1.0000   1.0000
     1.0000   1.0000   1.0000   1.0000   1.0000   1.0000   1.0000   1.0000
     1.0000   1.0000   1.0000   1.0000   1.0000   1.0000   1.0000   1.0000
     1.0000   1.0000   1.0000   1.0000   1.0000   1.0000   1.0000   1.0000
     1.0000   1.0000   1.0000   1.0000   1.0000   1.0000   1.0000   1.0000
     1.0000   1.0000   1.0000   1.0000   1.0000   1.0000   0.0000   0.0000
     0.0000   0.0000   0.0000   0.0000   0.0000   0.0000   0.0000   0.0000
     0.0000   0.0000   0.0000   0.0000   0.0000   0.0000   0.0000   0.0000

[...]

          k = 0.3333-0.1489 0.4090 (  4414 PWs)   bands (ev):

   -21.9809 -21.9014 -21.8579 -21.8448  -9.2624  -9.1237  -9.0403  -8.4438
    -6.2616  -6.1338  -5.7656  -5.7016  -5.6506  -5.5656  -5.5244  -5.5200
    -5.2369  -4.6391  -4.5656  -4.3388  -4.2235  -3.9668  -1.0099  -0.9736
     4.1237   4.3359   5.2843   5.4587   5.9175   5.9460   5.9479   6.1865
     6.2440   6.3733   6.6132   6.6798   6.7678   6.7810   6.9899   7.1627
     7.3452   7.5235   7.6276   8.4131   8.4808   8.9745  11.4360  11.5744
    12.3555  12.3889  12.4691  12.7868  12.7976  12.8374  12.8988  12.9186
    12.9572  12.9588  12.9863  12.9967  13.0242  13.0475  13.0540  13.1141

     occupation numbers
     1.0000   1.0000   1.0000   1.0000   1.0000   1.0000   1.0000   1.0000
     1.0000   1.0000   1.0000   1.0000   1.0000   1.0000   1.0000   1.0000
     1.0000   1.0000   1.0000   1.0000   1.0000   1.0000   1.0000   1.0000
     1.0000   1.0000   1.0000   1.0000   1.0000   1.0000   1.0000   1.0000
     1.0000   1.0000   1.0000   1.0000   1.0000   1.0000   1.0000   1.0000
     1.0000   1.0000   1.0000   1.0000   1.0000   1.0000   0.0000   0.0000
     0.0000   0.0000   0.0000   0.0000   0.0000   0.0000   0.0000   0.0000
     0.0000   0.0000   0.0000   0.0000   0.0000   0.0000   0.0000   0.0000

     highest occupied, lowest unoccupied level (ev):     9.7290   11.3964

!    total energy              =   -2097.47269979 Ry
     estimated scf accuracy    <       0.00000003 Ry

     The total energy is the sum of the following terms:
     one-electron contribution =     -69.66756467 Ry
     hartree contribution      =      91.88103550 Ry
     xc contribution           =    -116.81011370 Ry
     ewald contribution        =    -390.31141115 Ry
     one-center paw contrib.   =   -1612.56464575 Ry
      -> PAW hartree energy AE =      69.32171490 Ry
      -> PAW hartree energy PS =     -69.32213848 Ry
      -> PAW xc energy AE      =    -810.71412129 Ry
      -> PAW xc energy PS      =      23.48217269 Ry
      -> total E_H with PAW    =      91.88061192 Ry
      -> total E_XC with PAW   =    -904.04206230 Ry

     convergence has been achieved in  12 iterations

     Writing all to output data dir bands_nm/myprefix.save/

     General routines

     Parallel routines

     PAW routines

   This run was terminated on:   2:48:41  14Jul2023

   JOB DONE.