     Program PWSCF v.7.1 starts on 13Jul2023 at  0:55: 5

     Reading input from espresso_23424.pwi
Warning: card &CELL ignored
Warning: card / ignored

     Current dimensions of program PWSCF are:
     Max number of different atomic species (ntypx) = 10
     Max number of k-points (npk) =  40000
     Max angular momentum in pseudopotentials (lmaxx) =  4
     file K.pbe-spn-kjpaw_psl.1.0.0.UPF: wavefunction(s)  3S renormalized
     Message from routine setup:
     using ibrav=0 with symmetry is DISCOURAGED, use correct ibrav instead

     K-points division:     npool     =       2
     R & G space division:  proc/nbgrp/npool/nimage =       8
     Subspace diagonalization in iterative solution of the eigenvalue problem:
     a serial algorithm will be used

     Using Slab Decomposition

     bravais-lattice index     =            0
     lattice parameter (alat)  =      11.5257  a.u.
     unit-cell volume          =    1082.6609 (a.u.)^3
     number of atoms/cell      =            9
     number of atomic types    =            3
     number of electrons       =        74.00
     number of Kohn-Sham states=           64
     kinetic-energy cutoff     =      30.0000  Ry
     charge density cutoff     =     240.0000  Ry
     scf convergence threshold =      1.0E-06
     mixing beta               =       0.7000
     number of iterations used =            8  plain     mixing
     Exchange-correlation=  SLA  PW   PBX  PBC
                           (   1   4   3   4   0   0   0)

     celldm(1)=  11.525749  celldm(2)=   0.000000  celldm(3)=   0.000000
     celldm(4)=   0.000000  celldm(5)=   0.000000  celldm(6)=   0.000000

     crystal axes: (cart. coord. in units of alat)
               a(1) = (   1.000000   0.000000   0.000000 )
               a(2) = (   0.500000   0.866025   0.000000 )
               a(3) = (   0.500000   0.288675   0.816497 )

     reciprocal axes: (cart. coord. in units 2 pi/alat)
               b(1) = (  1.000000 -0.577350 -0.408248 )
               b(2) = (  0.000000  1.154701 -0.408248 )
               b(3) = (  0.000000  0.000000  1.224745 )

     PseudoPot. # 1 for K  read from file:
     /lustre07/scratch/pragov/crystal_structure_design/utils/SSSP/K.pbe-spn-kjpaw_psl.1.0.0.UPF
     MD5 check sum: 7d58810084cac21f60fbe77ea2b688fd
     Pseudo is Projector augmented-wave + core cor, Zval =  9.0
     Generated using "atomic" code by A. Dal Corso  v.5.1
     Shape of augmentation charge: PSQ
     Using radial grid of 1165 points,  6 beta functions with:
                l(1) =   0
                l(2) =   0
                l(3) =   1
                l(4) =   1
                l(5) =   2
                l(6) =   2
     Q(r) pseudized with 0 coefficients

     PseudoPot. # 2 for Sn read from file:
     /lustre07/scratch/pragov/crystal_structure_design/utils/SSSP/Sn_pbe_v1.uspp.F.UPF
     MD5 check sum: 4cf58ce39ec5d5d420df3dd08604eb00
     Pseudo is Ultrasoft + core correction, Zval = 14.0
     Generated by new atomic code, or converted to UPF format
     Using radial grid of  891 points,  6 beta functions with:
                l(1) =   0
                l(2) =   0
                l(3) =   1
                l(4) =   1
                l(5) =   2
                l(6) =   2
     Q(r) pseudized with  6 coefficients,  rinner =    1.200   1.200   1.200
                                                       1.200   1.200

     PseudoPot. # 3 for F  read from file:
     /lustre07/scratch/pragov/crystal_structure_design/utils/SSSP/f_pbe_v1.4.uspp.F.UPF
     MD5 check sum: 4c38b6a325caf53ec0e86aed9459de46
     Pseudo is Ultrasoft, Zval =  7.0
     Generated by new atomic code, or converted to UPF format
     Using radial grid of  799 points,  4 beta functions with:
                l(1) =   0
                l(2) =   0
                l(3) =   1
                l(4) =   1
     Q(r) pseudized with  8 coefficients,  rinner =    0.950   0.950   0.950

     atomic species   valence    mass     pseudopotential
        K              9.00    39.09830     K ( 1.00)
        Sn            14.00   118.71000     Sn( 1.00)
        F              7.00    18.99840     F ( 1.00)

     12 Sym. Ops., with inversion, found

                                    s                        frac. trans.

      isym =  1     identity

 cryst.   s( 1) = (     1          0          0      )
                  (     0          1          0      )
                  (     0          0          1      )

 cart.    s( 1) = (  1.0000000  0.0000000  0.0000000 )
                  (  0.0000000  1.0000000  0.0000000 )
                  (  0.0000000  0.0000000  1.0000000 )

      isym =  2     180 deg rotation - cart. axis [1,0,0]

[...]

      isym =  3     120 deg rotation - cryst. axis [0,0,1]

[...]

      isym =  6     180 deg rotation - cryst. axis [1,1,0]

[...]

      isym =  7     inversion

[...]

      isym =  8     inv. 180 deg rotation - cart. axis [1,0,0]

[...]

      isym =  9     inv. 120 deg rotation - cryst. axis [0,0,1]

 cryst.   s( 9) = (     1         -1          0      )
                  (     1          0          0      )
                  (     1          0         -1      )

 cart.    s( 9) = (  0.5000000  0.8660254  0.0000000 )
                  ( -0.8660254  0.5000000  0.0000000 )
                  (  0.0000000  0.0000000 -1.0000000 )

[...]

 cryst.   s(10) = (     0          1          0      )
                  (    -1          1          0      )
                  (     0          1         -1      )

 cart.    s(10) = (  0.5000000 -0.8660254 -0.0000000 )
                  (  0.8660254  0.5000000  0.0000000 )
                  (  0.0000000  0.0000000 -1.0000000 )

[...]

      isym = 12     inv. 180 deg rotation - cryst. axis [1,1,0]

 cryst.   s(12) = (     1         -1          0      )
                  (     0         -1          0      )
                  (     0         -1          1      )

 cart.    s(12) = (  0.5000000 -0.8660254 -0.0000000 )
                  ( -0.8660254 -0.5000000 -0.0000000 )
                  (  0.0000000  0.0000000  1.0000000 )

   Cartesian axes

     site n.     atom                  positions (alat units)
         1           K   tau(   1) = (   0.5000000   0.2886751   0.2041241  )
         2           K   tau(   2) = (   1.5000000   0.8660254   0.6123724  )
         3           Sn  tau(   3) = (   0.0000000   0.0000000   0.0000000  )
         4           F   tau(   4) = (   1.0000000   0.2676550   0.1892606  )
         5           F   tau(   5) = (   1.0000000   0.8870456   0.6272359  )
         6           F   tau(   6) = (   0.7317960   0.7321979   0.1892606  )
         7           F   tau(   7) = (   1.2682040   0.4225026   0.6272359  )
         8           F   tau(   8) = (   0.7317960   0.4225026   0.6272359  )
         9           F   tau(   9) = (   1.2682040   0.7321979   0.1892606  )

   Crystallographic axes

     site n.     atom                  positions (cryst. coord.)
         1           K   tau(   1) = (  0.2500000  0.2500000  0.2500000  )
         2           K   tau(   2) = (  0.7500000  0.7500000  0.7500000  )
         3           Sn  tau(   3) = (  0.0000000  0.0000000  0.0000000  )
         4           F   tau(   4) = (  0.7682040  0.2317960  0.2317960  )
         5           F   tau(   5) = (  0.2317960  0.7682040  0.7682040  )
         6           F   tau(   6) = (  0.2317960  0.7682040  0.2317960  )
         7           F   tau(   7) = (  0.7682040  0.2317960  0.7682040  )
         8           F   tau(   8) = (  0.2317960  0.2317960  0.7682040  )
         9           F   tau(   9) = (  0.7682040  0.7682040  0.2317960  )

     number of k points=     6
                       cart. coord. in units 2pi/alat
        k(    1) = (   0.0000000   0.0000000   0.0000000), wk =   0.0740741
        k(    2) = (   0.0000000   0.0000000   0.4082483), wk =   0.1481481
        k(    3) = (   0.0000000   0.3849002  -0.1360828), wk =   0.4444444
        k(    4) = (   0.0000000   0.3849002   0.2721655), wk =   0.4444444
        k(    5) = (   0.0000000   0.3849002  -0.5443311), wk =   0.4444444
        k(    6) = (   0.3333333  -0.5773503  -0.0000000), wk =   0.4444444

                       cryst. coord.
        k(    1) = (   0.0000000   0.0000000   0.0000000), wk =   0.0740741
        k(    2) = (   0.0000000   0.0000000   0.3333333), wk =   0.1481481
        k(    3) = (   0.0000000   0.3333333   0.0000000), wk =   0.4444444
        k(    4) = (   0.0000000   0.3333333   0.3333333), wk =   0.4444444
        k(    5) = (   0.0000000   0.3333333  -0.3333333), wk =   0.4444444
        k(    6) = (   0.3333333  -0.3333333   0.0000000), wk =   0.4444444

     Check: negative core charge=   -0.000003

     Initial potential from superposition of free atoms

     starting charge      72.9623, renormalised to      74.0000
     Starting wfcs are   49 randomized atomic wfcs +   15 random wfcs
     Checking if some PAW data can be deallocated...

     Self-consistent Calculation

     iteration #  1     ecut=    30.00 Ry     beta= 0.70
     Davidson diagonalization with overlap

     ethr =  1.00E-02,  avg # of iterations =  7.2

     Threshold (ethr) on eigenvalues was too large:
     Diagonalizing with lowered threshold

     Davidson diagonalization with overlap

[...]

     total energy              =    -681.41086211 Ry
     estimated scf accuracy    <       0.66243584 Ry

[...]

     total energy              =    -681.68967147 Ry
     estimated scf accuracy    <       0.00000514 Ry

     iteration #  6     ecut=    30.00 Ry     beta= 0.70
     Davidson diagonalization with overlap

     ethr =  6.94E-09,  avg # of iterations =  2.0

     End of self-consistent calculation

          k = 0.0000 0.0000 0.0000 (  2975 PWs)   bands (ev):

   -25.4792 -25.4615 -20.1790 -20.1790 -19.8375 -19.3086 -19.3086 -19.3086
   -17.7879 -17.7879 -17.7879 -16.6355 -16.6355  -9.0111  -9.0111  -9.0111
    -8.9395  -8.9395  -8.9395  -4.5885  -2.0837  -2.0837  -2.0837  -0.9033
    -0.9033  -0.9033  -0.1696  -0.1696  -0.1696  -0.0896  -0.0896  -0.0896
     0.0075   0.0075   0.3310   0.3310   0.3310   5.6422   9.7311  10.1081
    10.1081  10.1081  10.5187  10.5187  12.5438  12.5438  12.5438  12.8101
    13.6984  13.6984  13.9338  13.9338  13.9338  14.1177  14.1177  14.1177
    14.7308  16.7725  16.7725  16.7725  19.7292  19.7293  19.7298  20.0895

     occupation numbers
     1.0000   1.0000   1.0000   1.0000   1.0000   1.0000   1.0000   1.0000
     1.0000   1.0000   1.0000   1.0000   1.0000   1.0000   1.0000   1.0000
     1.0000   1.0000   1.0000   1.0000   1.0000   1.0000   1.0000   1.0000
     1.0000   1.0000   1.0000   1.0000   1.0000   1.0000   1.0000   1.0000
     1.0000   1.0000   1.0000   1.0000   1.0000   0.0000   0.0000   0.0000
     0.0000   0.0000   0.0000   0.0000   0.0000   0.0000   0.0000   0.0000
     0.0000   0.0000   0.0000   0.0000   0.0000   0.0000   0.0000   0.0000
     0.0000   0.0000   0.0000   0.0000   0.0000   0.0000   0.0000   0.0000

[...]

          k = 0.3333-0.5774-0.0000 (  3024 PWs)   bands (ev):

   -25.4690 -25.4689 -20.1998 -20.1872 -19.8023 -19.3294 -19.3122 -19.2979
   -17.7877 -17.7875 -17.7875 -16.6578 -16.6444  -8.9728  -8.9728  -8.9563
    -8.9426  -8.9277  -8.9120  -4.3900  -2.1184  -1.9685  -1.9128  -0.9635
    -0.8768  -0.7266  -0.4476  -0.3658  -0.3519  -0.3358  -0.2813  -0.2013
    -0.1427  -0.0430   0.0913   0.1426   0.2414   6.7558   9.7752   9.8451
    10.9118  11.1872  11.5935  11.8852  11.9914  12.0533  12.4356  12.5917
    12.6637  12.6879  13.5000  13.5446  14.0490  14.0864  14.7320  15.7790
    15.9304  16.0232  16.1389  16.7789  18.4272  18.9833  19.7809  19.8185

     occupation numbers
     1.0000   1.0000   1.0000   1.0000   1.0000   1.0000   1.0000   1.0000
     1.0000   1.0000   1.0000   1.0000   1.0000   1.0000   1.0000   1.0000
     1.0000   1.0000   1.0000   1.0000   1.0000   1.0000   1.0000   1.0000
     1.0000   1.0000   1.0000   1.0000   1.0000   1.0000   1.0000   1.0000
     1.0000   1.0000   1.0000   1.0000   1.0000   0.0000   0.0000   0.0000
     0.0000   0.0000   0.0000   0.0000   0.0000   0.0000   0.0000   0.0000
     0.0000   0.0000   0.0000   0.0000   0.0000   0.0000   0.0000   0.0000
     0.0000   0.0000   0.0000   0.0000   0.0000   0.0000   0.0000   0.0000

     highest occupied, lowest unoccupied level (ev):     0.3310    5.6422

!    total energy              =    -681.68967308 Ry
     estimated scf accuracy    <       0.00000041 Ry

     The total energy is the sum of the following terms:
     one-electron contribution =    -323.78150954 Ry
     hartree contribution      =     200.99280482 Ry
     xc contribution           =    -126.59205525 Ry
     ewald contribution        =    -321.47555428 Ry
     one-center paw contrib.   =    -110.83335883 Ry
      -> PAW hartree energy AE =      37.60841709 Ry
      -> PAW hartree energy PS =     -37.39842558 Ry
      -> PAW xc energy AE      =     -66.20657388 Ry
      -> PAW xc energy PS      =      10.57990295 Ry
      -> total E_H with PAW    =     201.20279634 Ry
      -> total E_XC with PAW   =    -182.21872619 Ry

     convergence has been achieved in   6 iterations

     Writing all to output data dir bands_nm/myprefix.save/

     General routines

     Parallel routines

     PAW routines

   This run was terminated on:   0:55:15  13Jul2023

   JOB DONE.