     Program PWSCF v.7.0 starts on  7Jun2023 at  6:26:18

     K-points division:     npool     =       2
     R & G space division:  proc/nbgrp/npool/nimage =       4

     Reading input from espresso_4042.pwi
Warning: card &CELL ignored
Warning: card / ignored

     Current dimensions of program PWSCF are:
     Max number of different atomic species (ntypx) = 10
     Max number of k-points (npk) =  40000
     Max angular momentum in pseudopotentials (lmaxx) =  4
     Message from routine setup:
     using ibrav=0 with symmetry is DISCOURAGED, use correct ibrav instead

     Using Slab Decomposition

     bravais-lattice index     =            0
     lattice parameter (alat)  =      16.5180  a.u.
     unit-cell volume          =    4660.8101 (a.u.)^3
     number of atoms/cell      =           20
     number of atomic types    =            2
     number of electrons       =       128.00
     number of Kohn-Sham states=           64
     kinetic-energy cutoff     =      30.0000  Ry
     charge density cutoff     =     240.0000  Ry
     scf convergence threshold =      1.0E-06
     mixing beta               =       0.7000
     number of iterations used =            8  plain     mixing
     Exchange-correlation=  SLA  PW   PBX  PBC
                           (   1   4   3   4   0   0   0)

     celldm(1)=  16.517981  celldm(2)=   0.000000  celldm(3)=   0.000000
     celldm(4)=   0.000000  celldm(5)=   0.000000  celldm(6)=   0.000000

     crystal axes: (cart. coord. in units of alat)
               a(1) = (   1.000000   0.000000   0.000000 )
               a(2) = (   0.000000   0.864035   0.000000 )
               a(3) = (   0.000000   0.709155   1.196904 )

     reciprocal axes: (cart. coord. in units 2 pi/alat)
               b(1) = (  1.000000  0.000000  0.000000 )
               b(2) = (  0.000000  1.157361 -0.685726 )
               b(3) = (  0.000000  0.000000  0.835489 )

     PseudoPot. # 1 for Te read from file:
     /home/pragov/projects/rrg-bengioy-ad/pragov/crystal_structure_design/SSSP/Te_pbe_v1.uspp.F.UPF
     MD5 check sum: c319670d6894cc26e93307826a071b75
     Pseudo is Ultrasoft + core correction, Zval =  6.0
     Generated by new atomic code, or converted to UPF format
     Using radial grid of  891 points,  5 beta functions with:
                l(1) =   0
                l(2) =   0
                l(3) =   1
                l(4) =   1
                l(5) =   2
     Q(r) pseudized with  6 coefficients,  rinner =    1.800   1.800   1.800
                                                       1.800   1.800

     PseudoPot. # 2 for Cl read from file:
     /home/pragov/projects/rrg-bengioy-ad/pragov/crystal_structure_design/SSSP/cl_pbe_v1.4.uspp.F.UPF
     MD5 check sum: fc6f6913ecf08c9257cb748ef0700058
     Pseudo is Ultrasoft + core correction, Zval =  7.0
     Generated by new atomic code, or converted to UPF format
     Using radial grid of  909 points,  6 beta functions with:
                l(1) =   0
                l(2) =   0
                l(3) =   1
                l(4) =   1
                l(5) =   2
                l(6) =   2
     Q(r) pseudized with  8 coefficients,  rinner =    1.300   1.300   1.300
                                                       1.300   1.300

     atomic species   valence    mass     pseudopotential
        Te             6.00   127.60000     Te( 1.00)
        Cl             7.00    35.45000     Cl( 1.00)

      4 Sym. Ops., with inversion, found ( 2 have fractional translation)

                                    s                        frac. trans.

      isym =  1     identity

 cryst.   s( 1) = (     1          0          0      )
                  (     0          1          0      )
                  (     0          0          1      )

 cart.    s( 1) = (  1.0000000  0.0000000  0.0000000 )
                  (  0.0000000  1.0000000  0.0000000 )
                  (  0.0000000  0.0000000  1.0000000 )

      isym =  2     180 deg rotation - cart. axis [1,0,0]

 cryst.   s( 2) = (     1          0          0      )    f =(  0.5000000 )
                  (     0         -1          0      )       ( -0.0000000 )
                  (     0          0         -1      )       (  0.5000000 )

 cart.    s( 2) = (  1.0000000  0.0000000  0.0000000 )    f =(  0.5000000 )
                  (  0.0000000 -1.0000000 -0.0000000 )       (  0.3545773 )
                  (  0.0000000  0.0000000 -1.0000000 )       (  0.5984522 )

      isym =  3     inversion

 cryst.   s( 3) = (    -1          0          0      )
                  (     0         -1          0      )
                  (     0          0         -1      )

 cart.    s( 3) = ( -1.0000000  0.0000000  0.0000000 )
                  (  0.0000000 -1.0000000 -0.0000000 )
                  (  0.0000000  0.0000000 -1.0000000 )

      isym =  4     inv. 180 deg rotation - cart. axis [1,0,0]

 cryst.   s( 4) = (    -1          0          0      )    f =(  0.5000000 )
                  (     0          1          0      )       ( -0.0000000 )
                  (     0          0          1      )       ( -0.5000000 )

 cart.    s( 4) = ( -1.0000000  0.0000000  0.0000000 )    f =(  0.5000000 )
                  (  0.0000000  1.0000000  0.0000000 )       ( -0.3545773 )
                  (  0.0000000  0.0000000  1.0000000 )       ( -0.5984522 )

   Cartesian axes

     site n.     atom                  positions (alat units)
         1           Te  tau(   1) = (   0.6582170   0.8552323   0.4249202  )
         2           Te  tau(   2) = (   0.1582170   0.3633795   0.1735320  )
         3           Te  tau(   3) = (   0.3417830   0.7179568   0.7719842  )
         4           Te  tau(   4) = (   0.8417830   1.2098096   1.0233724  )
         5           Te  tau(   5) = (   0.6489220   0.7269193   0.7909754  )
         6           Te  tau(   6) = (   0.1489220   1.2008471   1.0043811  )
         7           Te  tau(   7) = (   0.3510780   0.8462698   0.4059289  )
         8           Te  tau(   8) = (   0.8510780   0.3723420   0.1925233  )
         9           Te  tau(   9) = (   0.7549350   0.4238473   0.7079689  )
        10           Te  tau(  10) = (   0.2549350   1.5039191   1.0873876  )
        11           Te  tau(  11) = (   0.2450650   1.1493418   0.4889354  )
        12           Te  tau(  12) = (   0.7450650   0.0692700   0.1095167  )
        13           Cl  tau(  13) = (   0.5147520   1.1527181   0.8013179  )
        14           Cl  tau(  14) = (   0.0147520   0.7750483   0.9940386  )
        15           Cl  tau(  15) = (   0.4852480   0.4204710   0.3955865  )
        16           Cl  tau(  16) = (   0.9852480   0.7981408   0.2028657  )
        17           Cl  tau(  17) = (   0.9937260   0.5664163   0.6239307  )
        18           Cl  tau(  18) = (   0.4937260   1.3613501   1.1714259  )
        19           Cl  tau(  19) = (   0.0062740   1.0067728   0.5729737  )
        20           Cl  tau(  20) = (   0.5062740   0.2118390   0.0254785  )

   Crystallographic axes

     site n.     atom                  positions (cryst. coord.)
         1           Te  tau(   1) = (  0.6582170  0.6984340  0.3550160  )
         2           Te  tau(   2) = (  0.1582170  0.3015660  0.1449840  )
         3           Te  tau(   3) = (  0.3417830  0.3015660  0.6449840  )
         4           Te  tau(   4) = (  0.8417830  0.6984340  0.8550160  )
         5           Te  tau(   5) = (  0.6489220  0.2989160  0.6608510  )
         6           Te  tau(   6) = (  0.1489220  0.7010840  0.8391490  )
         7           Te  tau(   7) = (  0.3510780  0.7010840  0.3391490  )
         8           Te  tau(   8) = (  0.8510780  0.2989160  0.1608510  )
         9           Te  tau(   9) = (  0.7549350  0.0050720  0.5915000  )
        10           Te  tau(  10) = (  0.2549350  0.9949280  0.9085000  )
        11           Te  tau(  11) = (  0.2450650  0.9949280  0.4085000  )
        12           Te  tau(  12) = (  0.7450650  0.0050720  0.0915000  )
        13           Cl  tau(  13) = (  0.5147520  0.7846270  0.6694920  )
        14           Cl  tau(  14) = (  0.0147520  0.2153730  0.8305080  )
        15           Cl  tau(  15) = (  0.4852480  0.2153730  0.3305080  )
        16           Cl  tau(  16) = (  0.9852480  0.7846270  0.1694920  )
        17           Cl  tau(  17) = (  0.9937260  0.2277030  0.5212870  )
        18           Cl  tau(  18) = (  0.4937260  0.7722970  0.9787130  )
        19           Cl  tau(  19) = (  0.0062740  0.7722970  0.4787130  )
        20           Cl  tau(  20) = (  0.5062740  0.2277030  0.0212870  )

     number of k points=    10
                       cart. coord. in units 2pi/alat
        k(    1) = (   0.0000000   0.0000000   0.0000000), wk =   0.0740741
        k(    2) = (   0.0000000   0.0000000   0.2784962), wk =   0.1481481
        k(    3) = (   0.0000000   0.3857871  -0.2285752), wk =   0.1481481
        k(    4) = (   0.0000000   0.3857871   0.0499210), wk =   0.1481481
        k(    5) = (   0.0000000   0.3857871  -0.5070714), wk =   0.1481481
        k(    6) = (   0.3333333   0.0000000   0.0000000), wk =   0.1481481
        k(    7) = (   0.3333333   0.0000000   0.2784962), wk =   0.2962963
        k(    8) = (   0.3333333   0.3857871  -0.2285752), wk =   0.2962963
        k(    9) = (   0.3333333   0.3857871   0.0499210), wk =   0.2962963
        k(   10) = (   0.3333333   0.3857871  -0.5070714), wk =   0.2962963

                       cryst. coord.
        k(    1) = (   0.0000000   0.0000000   0.0000000), wk =   0.0740741
        k(    2) = (   0.0000000   0.0000000   0.3333333), wk =   0.1481481
        k(    3) = (   0.0000000   0.3333333   0.0000000), wk =   0.1481481
        k(    4) = (   0.0000000   0.3333333   0.3333333), wk =   0.1481481
        k(    5) = (   0.0000000   0.3333333  -0.3333333), wk =   0.1481481
        k(    6) = (   0.3333333   0.0000000   0.0000000), wk =   0.1481481
        k(    7) = (   0.3333333   0.0000000   0.3333333), wk =   0.2962963
        k(    8) = (   0.3333333   0.3333333   0.0000000), wk =   0.2962963
        k(    9) = (   0.3333333   0.3333333   0.3333333), wk =   0.2962963
        k(   10) = (   0.3333333   0.3333333  -0.3333333), wk =   0.2962963

     Initial potential from superposition of free atoms

     starting charge     127.9973, renormalised to     128.0000

     negative rho (up, down):  1.224E-01 0.000E+00
     Starting wfcs are   80 randomized atomic wfcs

     Self-consistent Calculation

     iteration #  1     ecut=    30.00 Ry     beta= 0.70
     Davidson diagonalization with overlap

     ethr =  1.00E-02,  avg # of iterations =  2.0

     Threshold (ethr) on eigenvalues was too large:
     Diagonalizing with lowered threshold

     Davidson diagonalization with overlap

[...]

     negative rho (up, down):  1.270E-01 0.000E+00

     total energy              =    -584.27254529 Ry
     estimated scf accuracy    <       0.98934732 Ry

[...]

     total energy              =    -584.73345097 Ry
     estimated scf accuracy    <       0.00000125 Ry

     iteration #  9     ecut=    30.00 Ry     beta= 0.70
     Davidson diagonalization with overlap

     ethr =  9.80E-10,  avg # of iterations =  6.4

     negative rho (up, down):  1.220E-01 0.000E+00

     End of self-consistent calculation

          k = 0.0000 0.0000 0.0000 ( 12935 PWs)   bands (ev):

   -11.7194 -11.5713 -11.4622 -11.3628 -11.3010 -11.2041 -11.1676 -11.1104
    -9.0859  -8.8436  -8.8376  -8.4101  -8.2896  -8.0807  -7.2210  -7.2135
    -6.5688  -6.0094  -5.8915  -5.4404  -1.6969  -1.6161  -1.5864  -1.5847
    -1.3173  -1.0708  -1.0269  -0.9811  -0.6050  -0.5739  -0.3936  -0.2811
    -0.1865  -0.1132  -0.0906   0.4322   0.4483   0.6437   0.7548   0.9214
     0.9751   1.0028   1.1088   1.2030   1.2153   1.2325   1.2433   1.3727
     1.4163   1.4837   1.4852   1.6022   1.6664   1.6682   1.8268   1.8576
     2.1353   2.2201   2.4917   2.5728   2.7548   2.7972   2.9348   3.0142

     occupation numbers
     1.0000   1.0000   1.0000   1.0000   1.0000   1.0000   1.0000   1.0000
     1.0000   1.0000   1.0000   1.0000   1.0000   1.0000   1.0000   1.0000
     1.0000   1.0000   1.0000   1.0000   1.0000   1.0000   1.0000   1.0000
     1.0000   1.0000   1.0000   1.0000   1.0000   1.0000   1.0000   1.0000
     1.0000   1.0000   1.0000   1.0000   1.0000   1.0000   1.0000   1.0000
     1.0000   1.0000   1.0000   1.0000   1.0000   1.0000   1.0000   1.0000
     1.0000   1.0000   1.0000   1.0000   1.0000   1.0000   1.0000   1.0000
     1.0000   1.0000   1.0000   1.0000   1.0000   1.0000   1.0000   1.0000

[...]

          k = 0.3333 0.3858-0.5071 ( 12930 PWs)   bands (ev):

   -11.5969 -11.5869 -11.4973 -11.4704 -11.2262 -11.1912 -11.1801 -11.1375
    -9.1507  -9.0202  -8.7775  -8.6394  -7.9261  -7.7539  -7.5276  -7.2432
    -6.4156  -6.0645  -5.8535  -5.5525  -1.8230  -1.7550  -1.7178  -1.6624
    -1.1572  -1.0036  -0.8816  -0.7923  -0.5084  -0.4084  -0.3093  -0.1334
    -0.0387   0.1188   0.1741   0.5428   0.6761   0.7056   0.7614   0.8098
     0.8946   0.9162   0.9209   1.0219   1.0754   1.1190   1.1623   1.2671
     1.2821   1.3539   1.3973   1.4892   1.5101   1.5275   1.7222   1.8611
     2.1046   2.2907   2.3325   2.5441   2.6627   2.7544   2.9108   3.0871

     occupation numbers
     1.0000   1.0000   1.0000   1.0000   1.0000   1.0000   1.0000   1.0000
     1.0000   1.0000   1.0000   1.0000   1.0000   1.0000   1.0000   1.0000
     1.0000   1.0000   1.0000   1.0000   1.0000   1.0000   1.0000   1.0000
     1.0000   1.0000   1.0000   1.0000   1.0000   1.0000   1.0000   1.0000
     1.0000   1.0000   1.0000   1.0000   1.0000   1.0000   1.0000   1.0000
     1.0000   1.0000   1.0000   1.0000   1.0000   1.0000   1.0000   1.0000
     1.0000   1.0000   1.0000   1.0000   1.0000   1.0000   1.0000   1.0000
     1.0000   1.0000   1.0000   1.0000   1.0000   1.0000   1.0000   1.0000

     highest occupied level (ev):     3.0871

!    total energy              =    -584.73345265 Ry
     estimated scf accuracy    <       0.00000011 Ry

     The total energy is the sum of the following terms:
     one-electron contribution =     -47.62305299 Ry
     hartree contribution      =      75.91389879 Ry
     xc contribution           =    -247.80604651 Ry
     ewald contribution        =    -365.21825194 Ry

     convergence has been achieved in   9 iterations

     Writing all to output data dir calculations_bands/myprefix.save/

     General routines

     Parallel routines

   This run was terminated on:   6:26:51   7Jun2023

   JOB DONE.