     Program PWSCF v.7.1 starts on 13Jul2023 at  2:30:56

     Reading input from espresso_12655.pwi
Warning: card &CELL ignored
Warning: card / ignored

     Current dimensions of program PWSCF are:
     Max number of different atomic species (ntypx) = 10
     Max number of k-points (npk) =  40000
     Max angular momentum in pseudopotentials (lmaxx) =  4
     Message from routine setup:
     using ibrav=0 with symmetry is DISCOURAGED, use correct ibrav instead

     K-points division:     npool     =       2
     R & G space division:  proc/nbgrp/npool/nimage =       8
     Subspace diagonalization in iterative solution of the eigenvalue problem:
     a serial algorithm will be used

     Using Slab Decomposition

     bravais-lattice index     =            0
     lattice parameter (alat)  =      10.7325  a.u.
     unit-cell volume          =     951.6535 (a.u.)^3
     number of atoms/cell      =            7
     number of atomic types    =            2
     number of electrons       =        56.00
     number of Kohn-Sham states=           64
     kinetic-energy cutoff     =      30.0000  Ry
     charge density cutoff     =     240.0000  Ry
     scf convergence threshold =      1.0E-06
     mixing beta               =       0.7000
     number of iterations used =            8  plain     mixing
     Exchange-correlation=  SLA  PW   PBX  PBC
                           (   1   4   3   4   0   0   0)

     celldm(1)=  10.732484  celldm(2)=   0.000000  celldm(3)=   0.000000
     celldm(4)=   0.000000  celldm(5)=   0.000000  celldm(6)=   0.000000

     crystal axes: (cart. coord. in units of alat)
               a(1) = (   1.000000   0.000000   0.000000 )
               a(2) = (  -0.333333   0.942809   0.000000 )
               a(3) = (  -0.333333  -0.471405   0.816497 )

     reciprocal axes: (cart. coord. in units 2 pi/alat)
               b(1) = (  1.000000  0.353553  0.612372 )
               b(2) = (  0.000000  1.060660  0.612372 )
               b(3) = (  0.000000  0.000000  1.224745 )

     PseudoPot. # 1 for Mo read from file:
     /lustre07/scratch/pragov/crystal_structure_design/utils/SSSP/Mo_ONCV_PBE-1.0.oncvpsp.upf
     MD5 check sum: 1b5d28e075c9ccadda658a603575cd1f
     Pseudo is Norm-conserving, Zval = 14.0
     Generated using ONCVPSP code by D. R. Hamann
     Using radial grid of 1526 points,  6 beta functions with:
                l(1) =   0
                l(2) =   0
                l(3) =   1
                l(4) =   1
                l(5) =   2
                l(6) =   2

     PseudoPot. # 2 for F  read from file:
     /lustre07/scratch/pragov/crystal_structure_design/utils/SSSP/f_pbe_v1.4.uspp.F.UPF
     MD5 check sum: 4c38b6a325caf53ec0e86aed9459de46
     Pseudo is Ultrasoft, Zval =  7.0
     Generated by new atomic code, or converted to UPF format
     Using radial grid of  799 points,  4 beta functions with:
                l(1) =   0
                l(2) =   0
                l(3) =   1
                l(4) =   1
     Q(r) pseudized with  8 coefficients,  rinner =    0.950   0.950   0.950

     atomic species   valence    mass     pseudopotential
        Mo            14.00    95.95000     Mo( 1.00)
        F              7.00    18.99840     F ( 1.00)

      4 Sym. Ops., with inversion, found

                                    s                        frac. trans.

      isym =  1     identity

 cryst.   s( 1) = (     1          0          0      )
                  (     0          1          0      )
                  (     0          0          1      )

 cart.    s( 1) = (  1.0000000  0.0000000  0.0000000 )
                  (  0.0000000  1.0000000  0.0000000 )
                  (  0.0000000  0.0000000  1.0000000 )

      isym =  2     180 deg rotation - cart. axis [0,0,1]

[...]

      isym =  3     inversion

[...]

      isym =  4     inv. 180 deg rotation - cart. axis [0,0,1]

 cryst.   s( 4) = (     1          0          0      )
                  (     0          1          0      )
                  (    -1         -1         -1      )

 cart.    s( 4) = (  1.0000000  0.0000000 -0.0000000 )
                  (  0.0000000  1.0000000 -0.0000000 )
                  (  0.0000000  0.0000000 -1.0000000 )

   Cartesian axes

     site n.     atom                  positions (alat units)
         1           Mo  tau(   1) = (   0.0000000   0.0000000   0.0000000  )
         2           F   tau(   2) = (   0.4767380   0.6742093   0.0000000  )
         3           F   tau(   3) = (   0.1899287   0.2685997   0.0000000  )
         4           F   tau(   4) = (  -0.1899287   0.1342998   0.2326142  )
         5           F   tau(   5) = (  -0.4767380   0.3371047   0.5838824  )
         6           F   tau(   6) = (   0.4767380  -0.3371047   0.5838824  )
         7           F   tau(   7) = (   0.1899287  -0.1342998   0.2326142  )

   Crystallographic axes

     site n.     atom                  positions (cryst. coord.)
         1           Mo  tau(   1) = (  0.0000000  0.0000000  0.0000000  )
         2           F   tau(   2) = (  0.7151070  0.7151070  0.0000000  )
         3           F   tau(   3) = (  0.2848930  0.2848930  0.0000000  )
         4           F   tau(   4) = (  0.0000000  0.2848930  0.2848930  )
         5           F   tau(   5) = ( -0.0000000  0.7151070  0.7151070  )
         6           F   tau(   6) = (  0.7151070 -0.0000000  0.7151070  )
         7           F   tau(   7) = (  0.2848930  0.0000000  0.2848930  )

     number of k points=    10
                       cart. coord. in units 2pi/alat
        k(    1) = (   0.0000000   0.0000000   0.0000000), wk =   0.0740741
        k(    2) = (   0.0000000   0.0000000   0.4082483), wk =   0.1481481
        k(    3) = (   0.0000000   0.3535534   0.2041241), wk =   0.2962963
        k(    4) = (   0.0000000   0.3535534   0.6123724), wk =   0.1481481
        k(    5) = (   0.3333333   0.1178511   0.2041241), wk =   0.2962963
        k(    6) = (   0.3333333   0.1178511   0.6123724), wk =   0.1481481
        k(    7) = (   0.3333333   0.4714045   0.4082483), wk =   0.2962963
        k(    8) = (   0.3333333   0.4714045  -0.0000000), wk =   0.1481481
        k(    9) = (   0.3333333  -0.2357023   0.0000000), wk =   0.1481481
        k(   10) = (   0.3333333  -0.2357023   0.4082483), wk =   0.2962963

                       cryst. coord.
        k(    1) = (   0.0000000   0.0000000   0.0000000), wk =   0.0740741
        k(    2) = (   0.0000000   0.0000000   0.3333333), wk =   0.1481481
        k(    3) = (   0.0000000   0.3333333  -0.0000000), wk =   0.2962963
        k(    4) = (   0.0000000   0.3333333   0.3333333), wk =   0.1481481
        k(    5) = (   0.3333333   0.0000000   0.0000000), wk =   0.2962963
        k(    6) = (   0.3333333   0.0000000   0.3333333), wk =   0.1481481
        k(    7) = (   0.3333333   0.3333333   0.0000000), wk =   0.2962963
        k(    8) = (   0.3333333   0.3333333  -0.3333333), wk =   0.1481481
        k(    9) = (   0.3333333  -0.3333333   0.0000000), wk =   0.1481481
        k(   10) = (   0.3333333  -0.3333333   0.3333333), wk =   0.2962963

     Initial potential from superposition of free atoms

     starting charge      55.9990, renormalised to      56.0000
     Starting wfcs are   34 randomized atomic wfcs +   30 random wfcs

     Self-consistent Calculation

     iteration #  1     ecut=    30.00 Ry     beta= 0.70
     Davidson diagonalization with overlap

     ethr =  1.00E-02,  avg # of iterations =  6.9

     total energy              =    -427.97354325 Ry
     estimated scf accuracy    <       1.92559108 Ry

[...]

     total energy              =    -429.08397691 Ry
     estimated scf accuracy    <       0.00000209 Ry

     iteration #  9     ecut=    30.00 Ry     beta= 0.70
     Davidson diagonalization with overlap

     ethr =  3.73E-09,  avg # of iterations =  1.0

     End of self-consistent calculation

          k = 0.0000 0.0000 0.0000 (  2659 PWs)   bands (ev):

   -64.4474 -38.6013 -38.6013 -38.6013 -23.7099 -23.6333 -23.6333 -22.8432
   -22.8432 -22.8432  -7.3103  -7.3103  -6.3690  -6.3690  -6.3690  -6.0498
    -4.5756  -4.5756  -4.5756  -4.2252  -4.2252  -4.2252  -3.8783  -3.8783
    -3.8783  -3.4628  -3.4628  -3.4628   0.6120   0.6120   0.6120   4.7052
     4.7052   5.4453  11.4894  11.4894  11.4894  11.6734  11.6734  11.6734
    12.7345  12.7345  12.7345  13.9596  14.0576  14.0576  17.4466  17.5435
    18.6970  18.6970  18.6970  18.9388  18.9388  20.4789  20.4789  20.4789
    22.6620  22.6620  23.2034  23.2034  23.2034  23.3807  23.3807  23.3807

     occupation numbers
     1.0000   1.0000   1.0000   1.0000   1.0000   1.0000   1.0000   1.0000
     1.0000   1.0000   1.0000   1.0000   1.0000   1.0000   1.0000   1.0000
     1.0000   1.0000   1.0000   1.0000   1.0000   1.0000   1.0000   1.0000
     1.0000   1.0000   1.0000   1.0000   0.0000   0.0000   0.0000   0.0000
     0.0000   0.0000   0.0000   0.0000   0.0000   0.0000   0.0000   0.0000
     0.0000   0.0000   0.0000   0.0000   0.0000   0.0000   0.0000   0.0000
     0.0000   0.0000   0.0000   0.0000   0.0000   0.0000   0.0000   0.0000
     0.0000   0.0000   0.0000   0.0000   0.0000   0.0000   0.0000   0.0000

[...]

          k = 0.3333-0.2357 0.4082 (  2627 PWs)   bands (ev):

   -64.4473 -38.6014 -38.6013 -38.6013 -23.6789 -23.6425 -23.6096 -22.8927
   -22.8445 -22.8445  -7.3392  -7.1754  -6.3438  -6.3438  -6.3205  -5.8538
    -4.8104  -4.6670  -4.6670  -4.2449  -4.0692  -4.0353  -4.0353  -3.9399
    -3.9399  -3.5188  -3.5188  -3.4831   0.5853   0.5853   0.6132   4.5898
     4.7935   7.4513   9.3036   9.3036  10.0909  10.4489  11.6531  12.0705
    13.3211  13.3211  14.2841  16.4799  16.7075  16.7075  16.9246  17.4084
    17.5321  17.5321  19.1557  19.1557  19.3879  19.4376  19.8743  20.3469
    21.0396  21.8065  21.8065  22.2874  22.8609  22.8609  23.1710  23.5221

     occupation numbers
     1.0000   1.0000   1.0000   1.0000   1.0000   1.0000   1.0000   1.0000
     1.0000   1.0000   1.0000   1.0000   1.0000   1.0000   1.0000   1.0000
     1.0000   1.0000   1.0000   1.0000   1.0000   1.0000   1.0000   1.0000
     1.0000   1.0000   1.0000   1.0000   0.0000   0.0000   0.0000   0.0000
     0.0000   0.0000   0.0000   0.0000   0.0000   0.0000   0.0000   0.0000
     0.0000   0.0000   0.0000   0.0000   0.0000   0.0000   0.0000   0.0000
     0.0000   0.0000   0.0000   0.0000   0.0000   0.0000   0.0000   0.0000
     0.0000   0.0000   0.0000   0.0000   0.0000   0.0000   0.0000   0.0000

     highest occupied, lowest unoccupied level (ev):    -3.4628    0.5175

!    total energy              =    -429.08397724 Ry
     estimated scf accuracy    <       0.00000008 Ry

     The total energy is the sum of the following terms:
     one-electron contribution =    -375.48620153 Ry
     hartree contribution      =     203.88886671 Ry
     xc contribution           =     -70.99475201 Ry
     ewald contribution        =    -186.49189041 Ry

     convergence has been achieved in   9 iterations

     Writing all to output data dir bands_nm/myprefix.save/

     General routines

     Parallel routines

   This run was terminated on:   2:31: 0  13Jul2023

   JOB DONE.