     Program PWSCF v.7.1 starts on 14Jul2023 at 13:51:14

     Reading input from espresso_18511.pwi
Warning: card &CELL ignored
Warning: card / ignored

     Current dimensions of program PWSCF are:
     Max number of different atomic species (ntypx) = 10
     Max number of k-points (npk) =  40000
     Max angular momentum in pseudopotentials (lmaxx) =  4
     file Cu.paw.z_11.ld1.psl.v1.0.0-low.upf: wavefunction(s)  4S 3D renormalized
     file Pb.pbe-dn-kjpaw_psl.0.2.2.UPF: wavefunction(s)  6S renormalized
     Message from routine setup:
     using ibrav=0 with symmetry is DISCOURAGED, use correct ibrav instead

     K-points division:     npool     =       2
     R & G space division:  proc/nbgrp/npool/nimage =       4
     Subspace diagonalization in iterative solution of the eigenvalue problem:
     a serial algorithm will be used

     Using Slab Decomposition

     bravais-lattice index     =            0
     lattice parameter (alat)  =      12.8803  a.u.
     unit-cell volume          =    1778.8897 (a.u.)^3
     number of atoms/cell      =           12
     number of atomic types    =            4
     number of electrons       =       108.00
     number of Kohn-Sham states=           64
     kinetic-energy cutoff     =      30.0000  Ry
     charge density cutoff     =     240.0000  Ry
     scf convergence threshold =      1.0E-06
     mixing beta               =       0.7000
     number of iterations used =            8  plain     mixing
     Exchange-correlation=  SLA  PW   PBX  PBC
                           (   1   4   3   4   0   0   0)

     celldm(1)=  12.880272  celldm(2)=   0.000000  celldm(3)=   0.000000
     celldm(4)=   0.000000  celldm(5)=   0.000000  celldm(6)=   0.000000

     crystal axes: (cart. coord. in units of alat)
               a(1) = (   1.000000   0.000000   0.000000 )
               a(2) = (  -0.833793   0.552078   0.000000 )
               a(3) = (   0.000000   0.000000   1.507903 )

     reciprocal axes: (cart. coord. in units 2 pi/alat)
               b(1) = (  1.000000  1.510280  0.000000 )
               b(2) = (  0.000000  1.811338  0.000000 )
               b(3) = (  0.000000  0.000000  0.663172 )

     PseudoPot. # 1 for Y  read from file:
     /lustre07/scratch/pragov/crystal_structure_design/utils/SSSP/Y_pbe_v1.uspp.F.UPF
     MD5 check sum: 2cf71db95cafeb975fc457bd7f14888e
     Pseudo is Ultrasoft + core correction, Zval = 11.0
     Generated by new atomic code, or converted to UPF format
     Using radial grid of  885 points,  6 beta functions with:
                l(1) =   0
                l(2) =   0
                l(3) =   1
                l(4) =   1
                l(5) =   2
                l(6) =   2
     Q(r) pseudized with  6 coefficients,  rinner =    1.200   1.200   1.200
                                                       1.200   1.200

     PseudoPot. # 2 for Cu read from file:
     /lustre07/scratch/pragov/crystal_structure_design/utils/SSSP/Cu.paw.z_11.ld1.psl.v1.0.0-low.upf
     MD5 check sum: 619f40885d92a09a85a8b37550532d0c
     Pseudo is Projector augmented-wave + core cor, Zval = 11.0
     Generated using &quot;atomic&quot; code by A. Dal Corso  v.6.3MaX
     Shape of augmentation charge: PSQ
     Using radial grid of 1199 points,  6 beta functions with:
                l(1) =   0
                l(2) =   0
                l(3) =   1
                l(4) =   1
                l(5) =   2
                l(6) =   2
     Q(r) pseudized with 0 coefficients

     PseudoPot. # 3 for Pb read from file:
     /lustre07/scratch/pragov/crystal_structure_design/utils/SSSP/Pb.pbe-dn-kjpaw_psl.0.2.2.UPF
     MD5 check sum: 9d431e6316058b74ade52399a6cf67da
     Pseudo is Projector augmented-wave + core cor, Zval = 14.0
     Generated using "atomic" code by A. Dal Corso  v.5.0.99 svn rev. 10869
     Shape of augmentation charge: PSQ
     Using radial grid of 1281 points,  6 beta functions with:
                l(1) =   0
                l(2) =   0
                l(3) =   1
                l(4) =   1
                l(5) =   2
                l(6) =   2
     Q(r) pseudized with 0 coefficients

     PseudoPot. # 4 for S  read from file:
     /lustre07/scratch/pragov/crystal_structure_design/utils/SSSP/s_pbe_v1.4.uspp.F.UPF
     MD5 check sum: 88d86576ff6df21479756cfb9bdac1df
     Pseudo is Ultrasoft + core correction, Zval =  6.0
     Generated by new atomic code, or converted to UPF format
     Using radial grid of  907 points,  6 beta functions with:
                l(1) =   0
                l(2) =   0
                l(3) =   1
                l(4) =   1
                l(5) =   2
                l(6) =   2
     Q(r) pseudized with  8 coefficients,  rinner =    1.300   1.300   1.300
                                                       1.300   1.300

     atomic species   valence    mass     pseudopotential
        Y             11.00    88.90584     Y ( 1.00)
        Cu            11.00    63.54600     Cu( 1.00)
        Pb            14.00   207.20000     Pb( 1.00)
        S              6.00    32.06000     S ( 1.00)

      4 Sym. Ops., with inversion, found ( 2 have fractional translation)

                                    s                        frac. trans.

      isym =  1     identity

 cryst.   s( 1) = (     1          0          0      )
                  (     0          1          0      )
                  (     0          0          1      )

 cart.    s( 1) = (  1.0000000  0.0000000  0.0000000 )
                  (  0.0000000  1.0000000  0.0000000 )
                  (  0.0000000  0.0000000  1.0000000 )

      isym =  2     180 deg rotation - cart. axis [0,0,1]

 cryst.   s( 2) = (    -1          0          0      )    f =( -0.0000000 )
                  (     0         -1          0      )       (  0.0000000 )
                  (     0          0          1      )       (  0.5000000 )

 cart.    s( 2) = ( -1.0000000  0.0000000  0.0000000 )    f =( -0.0000000 )
                  (  0.0000000 -1.0000000  0.0000000 )       (  0.0000000 )
                  (  0.0000000  0.0000000  1.0000000 )       (  0.7539517 )

      isym =  3     inversion

 cryst.   s( 3) = (    -1          0          0      )
                  (     0         -1          0      )
                  (     0          0         -1      )

 cart.    s( 3) = ( -1.0000000  0.0000000  0.0000000 )
                  (  0.0000000 -1.0000000  0.0000000 )
                  (  0.0000000  0.0000000 -1.0000000 )

      isym =  4     inv. 180 deg rotation - cart. axis [0,0,1]

 cryst.   s( 4) = (     1          0          0      )    f =(  0.0000000 )
                  (     0          1          0      )       (  0.0000000 )
                  (     0          0         -1      )       (  0.5000000 )

 cart.    s( 4) = (  1.0000000  0.0000000  0.0000000 )    f =(  0.0000000 )
                  (  0.0000000  1.0000000  0.0000000 )       (  0.0000000 )
                  (  0.0000000  0.0000000 -1.0000000 )       (  0.7539517 )

   Cartesian axes

     site n.     atom                  positions (alat units)
         1           Y   tau(   1) = (   0.0831037   0.2760390   0.7539517  )
         2           Y   tau(   2) = (   0.0831037   0.2760390   0.0000000  )
         3           Cu  tau(   3) = (   0.9373063   0.0188744   0.3769759  )
         4           Cu  tau(   4) = (  -0.7710988   0.5332035   1.1309276  )
         5           Pb  tau(   5) = (  -0.3726065   0.4132342   0.3769759  )
         6           Pb  tau(   6) = (   0.5388140   0.1388437   1.1309276  )
         7           S   tau(   7) = (  -0.0525070   0.3168657   1.1309276  )
         8           S   tau(   8) = (   0.2187145   0.2352123   0.3769759  )
         9           S   tau(   9) = (  -0.5800286   0.4756803   1.4050418  )
        10           S   tau(  10) = (  -0.5800286   0.4756803   0.8568134  )
        11           S   tau(  11) = (   0.7462361   0.0763977   0.1028616  )
        12           S   tau(  12) = (   0.7462361   0.0763977   0.6510901  )

   Crystallographic axes

     site n.     atom                  positions (cryst. coord.)
         1           Y   tau(   1) = (  0.5000000  0.5000000  0.5000000  )
         2           Y   tau(   2) = (  0.5000000  0.5000000  0.0000000  )
         3           Cu  tau(   3) = (  0.9658120  0.0341880  0.2500000  )
         4           Cu  tau(   4) = (  0.0341880  0.9658120  0.7500000  )
         5           Pb  tau(   5) = (  0.2514930  0.7485070  0.2500000  )
         6           Pb  tau(   6) = (  0.7485070  0.2514930  0.7500000  )
         7           S   tau(   7) = (  0.4260490  0.5739510  0.7500000  )
         8           S   tau(   8) = (  0.5739510  0.4260490  0.2500000  )
         9           S   tau(   9) = (  0.1383820  0.8616180  0.9317850  )
        10           S   tau(  10) = (  0.1383820  0.8616180  0.5682150  )
        11           S   tau(  11) = (  0.8616180  0.1383820  0.0682150  )
        12           S   tau(  12) = (  0.8616180  0.1383820  0.4317850  )

     number of k points=    10
                       cart. coord. in units 2pi/alat
        k(    1) = (   0.0000000   0.0000000   0.0000000), wk =   0.0740741
        k(    2) = (   0.0000000   0.0000000   0.2210575), wk =   0.1481481
        k(    3) = (   0.0000000   0.6037795   0.0000000), wk =   0.1481481
        k(    4) = (   0.0000000   0.6037795   0.2210575), wk =   0.2962963
        k(    5) = (   0.3333333   0.5034268   0.0000000), wk =   0.1481481
        k(    6) = (   0.3333333   0.5034268   0.2210575), wk =   0.2962963
        k(    7) = (   0.3333333   1.1072063   0.0000000), wk =   0.1481481
        k(    8) = (   0.3333333   1.1072063   0.2210575), wk =   0.2962963
        k(    9) = (   0.3333333  -0.1003527   0.0000000), wk =   0.1481481
        k(   10) = (   0.3333333  -0.1003527   0.2210575), wk =   0.2962963

                       cryst. coord.
        k(    1) = (   0.0000000   0.0000000   0.0000000), wk =   0.0740741
        k(    2) = (   0.0000000   0.0000000   0.3333333), wk =   0.1481481
        k(    3) = (   0.0000000   0.3333333   0.0000000), wk =   0.1481481
        k(    4) = (   0.0000000   0.3333333   0.3333333), wk =   0.2962963
        k(    5) = (   0.3333333   0.0000000   0.0000000), wk =   0.1481481
        k(    6) = (   0.3333333   0.0000000   0.3333333), wk =   0.2962963
        k(    7) = (   0.3333333   0.3333333   0.0000000), wk =   0.1481481
        k(    8) = (   0.3333333   0.3333333   0.3333333), wk =   0.2962963
        k(    9) = (   0.3333333  -0.3333333   0.0000000), wk =   0.1481481
        k(   10) = (   0.3333333  -0.3333333   0.3333333), wk =   0.2962963

     Check: negative core charge=   -0.000003

     Initial potential from superposition of free atoms

     starting charge     107.9857, renormalised to     108.0000

     negative rho (up, down):  8.573E-02 0.000E+00
     Starting wfcs are   86 randomized atomic wfcs
     Checking if some PAW data can be deallocated...

     Self-consistent Calculation

     iteration #  1     ecut=    30.00 Ry     beta= 0.70
     Davidson diagonalization with overlap

     ethr =  1.00E-02,  avg # of iterations =  2.0

     Threshold (ethr) on eigenvalues was too large:
     Diagonalizing with lowered threshold

     Davidson diagonalization with overlap

[...]

     negative rho (up, down):  8.659E-02 0.000E+00

     total energy              =   -2487.49143008 Ry
     estimated scf accuracy    <       0.78170729 Ry

[...]

     total energy              =   -2487.82282173 Ry
     estimated scf accuracy    <       0.00000207 Ry

     iteration # 10     ecut=    30.00 Ry     beta= 0.70
     Davidson diagonalization with overlap

     ethr =  1.92E-09,  avg # of iterations =  2.0

     negative rho (up, down):  8.735E-02 0.000E+00

     End of self-consistent calculation

          k = 0.0000 0.0000 0.0000 (  4979 PWs)   bands (ev):

   -33.7593 -33.7590 -13.8571 -13.8405 -13.8045 -13.7838 -13.7053 -13.7046
    -8.4515  -8.4509  -8.4294  -8.4274  -8.4251  -8.4233  -8.3952  -8.3951
    -8.3890  -8.3877  -4.7064  -4.0845  -3.8173  -3.6929  -3.4876  -3.1645
     0.4279   0.5325   3.5391   4.3602   4.3660   4.4850   4.8738   5.0272
     5.0864   5.1859   5.4161   5.6094   5.6789   5.7818   5.7952   5.8017
     6.1360   6.2561   6.6010   6.6581   6.9192   6.9947   7.7068   7.7469
     7.8156   7.8748   8.0000   8.2586   8.3499   8.4298  10.3906  10.5244
    10.7154  10.9615  11.3351  11.4745  11.5349  11.7755  11.8992  12.1546

     occupation numbers
     1.0000   1.0000   1.0000   1.0000   1.0000   1.0000   1.0000   1.0000
     1.0000   1.0000   1.0000   1.0000   1.0000   1.0000   1.0000   1.0000
     1.0000   1.0000   1.0000   1.0000   1.0000   1.0000   1.0000   1.0000
     1.0000   1.0000   1.0000   1.0000   1.0000   1.0000   1.0000   1.0000
     1.0000   1.0000   1.0000   1.0000   1.0000   1.0000   1.0000   1.0000
     1.0000   1.0000   1.0000   1.0000   1.0000   1.0000   1.0000   1.0000
     1.0000   1.0000   1.0000   1.0000   1.0000   1.0000   0.0000   0.0000
     0.0000   0.0000   0.0000   0.0000   0.0000   0.0000   0.0000   0.0000

[...]

          k = 0.3333-0.1004 0.2211 (  4943 PWs)   bands (ev):

   -33.7593 -33.7591 -13.8521 -13.8439 -13.8007 -13.7901 -13.7050 -13.7047
    -8.4514  -8.4511  -8.4292  -8.4261  -8.4248  -8.4229  -8.3951  -8.3950
    -8.3886  -8.3880  -4.3906  -4.1606  -3.8568  -3.7894  -3.5166  -3.3761
     0.3496   0.5813   3.9224   4.2024   4.5437   4.8338   4.9212   5.1354
     5.1933   5.3790   5.4326   5.6019   5.6956   5.7741   5.8184   5.9439
     6.1710   6.2802   6.2825   6.3256   7.1378   7.1683   7.3486   7.4000
     7.6021   7.8347   7.9909   8.0825   8.1304   8.3010  10.2095  10.4069
    10.6099  10.8809  11.1093  11.4817  11.6468  11.9217  12.0549  12.0771

     occupation numbers
     1.0000   1.0000   1.0000   1.0000   1.0000   1.0000   1.0000   1.0000
     1.0000   1.0000   1.0000   1.0000   1.0000   1.0000   1.0000   1.0000
     1.0000   1.0000   1.0000   1.0000   1.0000   1.0000   1.0000   1.0000
     1.0000   1.0000   1.0000   1.0000   1.0000   1.0000   1.0000   1.0000
     1.0000   1.0000   1.0000   1.0000   1.0000   1.0000   1.0000   1.0000
     1.0000   1.0000   1.0000   1.0000   1.0000   1.0000   1.0000   1.0000
     1.0000   1.0000   1.0000   1.0000   1.0000   1.0000   0.0000   0.0000
     0.0000   0.0000   0.0000   0.0000   0.0000   0.0000   0.0000   0.0000

     highest occupied, lowest unoccupied level (ev):     8.4298   10.0615

!    total energy              =   -2487.82282186 Ry
     estimated scf accuracy    <       0.00000023 Ry

     The total energy is the sum of the following terms:
     one-electron contribution =    -239.13038536 Ry
     hartree contribution      =     198.60255242 Ry
     xc contribution           =    -272.90262328 Ry
     ewald contribution        =    -537.79019331 Ry
     one-center paw contrib.   =   -1636.60217233 Ry
      -> PAW hartree energy AE =       0.00000000 Ry
      -> PAW hartree energy PS =       0.00000000 Ry
      -> PAW xc energy AE      =       0.00000000 Ry
      -> PAW xc energy PS      =       0.00000000 Ry
      -> total E_H with PAW    =     198.60255242 Ry
      -> total E_XC with PAW   =    -272.90262328 Ry

     convergence has been achieved in  10 iterations

     Writing all to output data dir bands_nm/myprefix.save/

     General routines

     Parallel routines

     PAW routines

   This run was terminated on:  13:51:52  14Jul2023

   JOB DONE.