     Program PWSCF v.7.1 starts on 16Jul2023 at 15:29:32

     Reading input from espresso_1851.pwi
Warning: card &CELL ignored
Warning: card / ignored

     Current dimensions of program PWSCF are:
     Max number of different atomic species (ntypx) = 10
     Max number of k-points (npk) =  40000
     Max angular momentum in pseudopotentials (lmaxx) =  4
     Message from routine setup:
     using ibrav=0 with symmetry is DISCOURAGED, use correct ibrav instead

     K-points division:     npool     =       2
     R & G space division:  proc/nbgrp/npool/nimage =       4
     Subspace diagonalization in iterative solution of the eigenvalue problem:
     a serial algorithm will be used

     Using Slab Decomposition

     bravais-lattice index     =            0
     lattice parameter (alat)  =      14.6865  a.u.
     unit-cell volume          =    2078.8979 (a.u.)^3
     number of atoms/cell      =           10
     number of atomic types    =            2
     number of electrons       =        56.00
     number of Kohn-Sham states=           64
     kinetic-energy cutoff     =      30.0000  Ry
     charge density cutoff     =     240.0000  Ry
     scf convergence threshold =      1.0E-06
     mixing beta               =       0.7000
     number of iterations used =            8  plain     mixing
     Exchange-correlation= PBE
                           (   1   4   3   4   0   0   0)

     celldm(1)=  14.686545  celldm(2)=   0.000000  celldm(3)=   0.000000
     celldm(4)=   0.000000  celldm(5)=   0.000000  celldm(6)=   0.000000

     crystal axes: (cart. coord. in units of alat)
               a(1) = (   1.000000   0.000000   0.000000 )
               a(2) = (   0.862927   0.505328   0.000000 )
               a(3) = (   0.122535   0.033238   1.298675 )

     reciprocal axes: (cart. coord. in units 2 pi/alat)
               b(1) = (  1.000000 -1.707656 -0.050648 )
               b(2) = (  0.000000  1.978911 -0.050648 )
               b(3) = (  0.000000  0.000000  0.770016 )

     PseudoPot. # 1 for Te read from file:
     /lustre07/scratch/pragov/crystal_structure_design/utils/SSSP/Te_pbe_v1.uspp.F.UPF
     MD5 check sum: c319670d6894cc26e93307826a071b75
     Pseudo is Ultrasoft + core correction, Zval =  6.0
     Generated by new atomic code, or converted to UPF format
     Using radial grid of  891 points,  5 beta functions with:
                l(1) =   0
                l(2) =   0
                l(3) =   1
                l(4) =   1
                l(5) =   2
     Q(r) pseudized with  6 coefficients,  rinner =    1.800   1.800   1.800
                                                       1.800   1.800

     PseudoPot. # 2 for As read from file:
     /lustre07/scratch/pragov/crystal_structure_design/utils/SSSP/As.pbe-n-rrkjus_psl.0.2.UPF
     MD5 check sum: 767315de957beeeb34f87d97bf945c8f
     Pseudo is Ultrasoft + core correction, Zval =  5.0
     Generated using "atomic" code by A. Dal Corso  v.5.0.99 svn rev. 10869
     Using radial grid of 1209 points,  4 beta functions with:
                l(1) =   0
                l(2) =   0
                l(3) =   1
                l(4) =   1
     Q(r) pseudized with 0 coefficients

     atomic species   valence    mass     pseudopotential
        Te             6.00   127.60000     Te( 1.00)
        As             5.00    74.92159     As( 1.00)

      2 Sym. Ops., with inversion, found

                                    s                        frac. trans.

      isym =  1     identity

 cryst.   s( 1) = (     1          0          0      )
                  (     0          1          0      )
                  (     0          0          1      )

 cart.    s( 1) = (  1.0000000 -0.0000000  0.0000000 )
                  (  0.0000000  1.0000000  0.0000000 )
                  (  0.0000000  0.0000000  1.0000000 )

      isym =  2     inversion

 cryst.   s( 2) = (    -1          0          0      )
                  (     0         -1          0      )
                  (     0          0         -1      )

 cart.    s( 2) = ( -1.0000000  0.0000000 -0.0000000 )
                  (  0.0000000 -1.0000000 -0.0000000 )
                  (  0.0000000  0.0000000 -1.0000000 )

   Cartesian axes

     site n.     atom                  positions (alat units)
         1           Te  tau(   1) = (   1.8193267   0.4935016   0.3738288  )
         2           Te  tau(   2) = (   0.1661355   0.0450651   0.9248462  )
         3           Te  tau(   3) = (   0.4470855   0.1212742   0.4358275  )
         4           Te  tau(   4) = (   1.5383767   0.4172925   0.8628475  )
         5           Te  tau(   5) = (   1.1777806   0.3194790   0.0398330  )
         6           Te  tau(   6) = (   0.8076815   0.2190877   1.2588421  )
         7           As  tau(   7) = (   0.7517650   0.2039201   0.5707742  )
         8           As  tau(   8) = (   1.2336972   0.3346466   0.7279009  )
         9           As  tau(   9) = (   1.4978096   0.4062885   0.1829820  )
        10           As  tau(  10) = (   0.4876526   0.1322782   1.1156930  )

   Crystallographic axes

     site n.     atom                  positions (cryst. coord.)
         1           Te  tau(   1) = (  0.9576620  0.9576620  0.2878540  )
         2           Te  tau(   2) = (  0.0423380  0.0423380  0.7121460  )
         3           Te  tau(   3) = (  0.2179170  0.2179170  0.3355940  )
         4           Te  tau(   4) = (  0.7820830  0.7820830  0.6644060  )
         5           Te  tau(   5) = (  0.6302030  0.6302030  0.0306720  )
         6           Te  tau(   6) = (  0.3697970  0.3697970  0.9693280  )
         7           As  tau(   7) = (  0.3746310  0.3746310  0.4395050  )
         8           As  tau(   8) = (  0.6253690  0.6253690  0.5604950  )
         9           As  tau(   9) = (  0.7947410  0.7947410  0.1408990  )
        10           As  tau(  10) = (  0.2052590  0.2052590  0.8591010  )

     number of k points=    14
                       cart. coord. in units 2pi/alat
        k(    1) = (   0.0000000   0.0000000   0.0000000), wk =   0.0740741
        k(    2) = (   0.0000000   0.0000000   0.2566719), wk =   0.1481481
        k(    3) = (   0.0000000   0.6596370  -0.0168827), wk =   0.1481481
        k(    4) = (   0.0000000   0.6596370   0.2397891), wk =   0.1481481
        k(    5) = (   0.0000000   0.6596370  -0.2735546), wk =   0.1481481
        k(    6) = (   0.3333333  -0.5692186  -0.0168827), wk =   0.1481481
        k(    7) = (   0.3333333  -0.5692186   0.2397891), wk =   0.1481481
        k(    8) = (   0.3333333  -0.5692186  -0.2735546), wk =   0.1481481
        k(    9) = (   0.3333333   0.0904184  -0.0337655), wk =   0.1481481
        k(   10) = (   0.3333333   0.0904184   0.2229064), wk =   0.1481481
        k(   11) = (   0.3333333   0.0904184  -0.2904373), wk =   0.1481481
        k(   12) = (   0.3333333  -1.2288556   0.0000000), wk =   0.1481481
        k(   13) = (   0.3333333  -1.2288556   0.2566719), wk =   0.1481481
        k(   14) = (   0.3333333  -1.2288556  -0.2566719), wk =   0.1481481

                       cryst. coord.
        k(    1) = (   0.0000000   0.0000000   0.0000000), wk =   0.0740741
        k(    2) = (   0.0000000   0.0000000   0.3333333), wk =   0.1481481
        k(    3) = (   0.0000000   0.3333333   0.0000000), wk =   0.1481481
        k(    4) = (   0.0000000   0.3333333   0.3333333), wk =   0.1481481
        k(    5) = (   0.0000000   0.3333333  -0.3333333), wk =   0.1481481
        k(    6) = (   0.3333333  -0.0000000   0.0000000), wk =   0.1481481
        k(    7) = (   0.3333333  -0.0000000   0.3333333), wk =   0.1481481
        k(    8) = (   0.3333333  -0.0000000  -0.3333333), wk =   0.1481481
        k(    9) = (   0.3333333   0.3333333   0.0000000), wk =   0.1481481
        k(   10) = (   0.3333333   0.3333333   0.3333333), wk =   0.1481481
        k(   11) = (   0.3333333   0.3333333  -0.3333333), wk =   0.1481481
        k(   12) = (   0.3333333  -0.3333333   0.0000000), wk =   0.1481481
        k(   13) = (   0.3333333  -0.3333333   0.3333333), wk =   0.1481481
        k(   14) = (   0.3333333  -0.3333333  -0.3333333), wk =   0.1481481

     Initial potential from superposition of free atoms

     starting charge      55.9978, renormalised to      56.0000
     Starting wfcs are   40 randomized atomic wfcs +   24 random wfcs

     Self-consistent Calculation

     iteration #  1     ecut=    30.00 Ry     beta= 0.70
     Davidson diagonalization with overlap

     ethr =  1.00E-02,  avg # of iterations =  8.5

     Threshold (ethr) on eigenvalues was too large:
     Diagonalizing with lowered threshold

     Davidson diagonalization with overlap

[...]

     total energy              =    -231.79663581 Ry
     estimated scf accuracy    <       0.04551770 Ry

[...]

     total energy              =    -231.80208450 Ry
     estimated scf accuracy    <       0.00000144 Ry

     iteration #  9     ecut=    30.00 Ry     beta= 0.70
     Davidson diagonalization with overlap

     ethr =  2.57E-09,  avg # of iterations =  1.5

     End of self-consistent calculation

          k = 0.0000 0.0000 0.0000 (  5747 PWs)   bands (ev):

    -8.1450  -7.2912  -7.1307  -6.0530  -5.5559  -5.4971  -4.1694  -3.4952
    -3.4640  -2.5379   0.1928   1.8537   1.8653   2.1102   2.2018   2.7880
     2.8658   3.1133   3.2568   3.4426   3.7014   4.2210   4.6532   4.7221
     4.8564   4.9182   4.9216   5.0227   6.4516   6.6623   7.1405   7.1442
     7.2971   7.3528   7.4460   7.6676   7.8312   7.8984   8.4092   8.9185
     9.1918  11.0194  11.4165  11.6346  11.8148  12.0853  12.5485  12.7073
    13.1197  13.3202  13.3204  13.4577  13.8998  13.9529  14.0980  14.1089
    14.4201  14.6023  14.6678  14.8779  15.3029  15.7066  16.1663  16.2375

     occupation numbers
     1.0000   1.0000   1.0000   1.0000   1.0000   1.0000   1.0000   1.0000
     1.0000   1.0000   1.0000   1.0000   1.0000   1.0000   1.0000   1.0000
     1.0000   1.0000   1.0000   1.0000   1.0000   1.0000   1.0000   1.0000
     1.0000   1.0000   1.0000   1.0000   0.0000   0.0000   0.0000   0.0000
     0.0000   0.0000   0.0000   0.0000   0.0000   0.0000   0.0000   0.0000
     0.0000   0.0000   0.0000   0.0000   0.0000   0.0000   0.0000   0.0000
     0.0000   0.0000   0.0000   0.0000   0.0000   0.0000   0.0000   0.0000
     0.0000   0.0000   0.0000   0.0000   0.0000   0.0000   0.0000   0.0000

[...]

          k = 0.3333-1.2289-0.2567 (  5759 PWs)   bands (ev):

    -7.1458  -6.8893  -6.2871  -5.4908  -5.4249  -5.3115  -5.1055  -4.2072
    -3.5182  -3.2474   0.3553   0.8959   0.9794   1.5497   1.5828   1.9729
     2.0327   2.1831   2.4712   2.6609   2.9264   3.2753   3.7833   4.1794
     4.3845   4.5718   4.6048   4.9737   6.4219   6.8478   6.9076   7.1223
     7.5365   7.6872   8.4241   8.8315   8.9394   9.1009   9.3638   9.6976
     9.7989  10.3706  10.8979  12.3317  12.4185  12.9138  12.9937  13.0483
    13.4162  13.6809  13.7071  14.0016  14.1841  14.4381  14.5788  14.6918
    15.1800  15.5988  15.7071  15.7551  16.0638  16.4581  16.5850  16.8393

     occupation numbers
     1.0000   1.0000   1.0000   1.0000   1.0000   1.0000   1.0000   1.0000
     1.0000   1.0000   1.0000   1.0000   1.0000   1.0000   1.0000   1.0000
     1.0000   1.0000   1.0000   1.0000   1.0000   1.0000   1.0000   1.0000
     1.0000   1.0000   1.0000   1.0000   0.0000   0.0000   0.0000   0.0000
     0.0000   0.0000   0.0000   0.0000   0.0000   0.0000   0.0000   0.0000
     0.0000   0.0000   0.0000   0.0000   0.0000   0.0000   0.0000   0.0000
     0.0000   0.0000   0.0000   0.0000   0.0000   0.0000   0.0000   0.0000
     0.0000   0.0000   0.0000   0.0000   0.0000   0.0000   0.0000   0.0000

     highest occupied, lowest unoccupied level (ev):     5.3426    5.9458

!    total energy              =    -231.80208481 Ry
     estimated scf accuracy    <       0.00000010 Ry

     The total energy is the sum of the following terms:
     one-electron contribution =      20.45607983 Ry
     hartree contribution      =      14.79679419 Ry
     xc contribution           =    -122.93088952 Ry
     ewald contribution        =    -144.12406930 Ry

     convergence has been achieved in   9 iterations

     Writing all to output data dir bands_nm/myprefix.save/

     General routines

     Parallel routines

   This run was terminated on:  15:29:46  16Jul2023

   JOB DONE.