     Program PWSCF v.7.1 starts on 15Jul2023 at 18:31:39

     Reading input from espresso_2918.pwi
Warning: card &CELL ignored
Warning: card / ignored

     Current dimensions of program PWSCF are:
     Max number of different atomic species (ntypx) = 10
     Max number of k-points (npk) =  40000
     Max angular momentum in pseudopotentials (lmaxx) =  4

     File bands_nm/myprefix.update deleted, as requested
     file Cu.paw.z_11.ld1.psl.v1.0.0-low.upf: wavefunction(s)  4S 3D renormalized
     file O.pbe-n-kjpaw_psl.0.1.UPF: wavefunction(s)  2P renormalized

     K-points division:     npool     =       2
     R & G space division:  proc/nbgrp/npool/nimage =       4
     Subspace diagonalization in iterative solution of the eigenvalue problem:
     one sub-group per band group will be used

     Using Slab Decomposition

     bravais-lattice index     =            0
     lattice parameter (alat)  =       9.8308  a.u.
     unit-cell volume          =    1345.4580 (a.u.)^3
     number of atoms/cell      =           20
     number of atomic types    =            4
     number of electrons       =       130.00
     number of Kohn-Sham states=          256
     kinetic-energy cutoff     =      30.0000  Ry
     charge density cutoff     =     240.0000  Ry
     scf convergence threshold =      1.0E-06
     mixing beta               =       0.7000
     number of iterations used =            8  plain     mixing
     Exchange-correlation= SLA  PW   PBX  PBC
                           (   1   4   3   4   0   0   0)

     celldm(1)=   9.830844  celldm(2)=   0.000000  celldm(3)=   0.000000
     celldm(4)=   0.000000  celldm(5)=   0.000000  celldm(6)=   0.000000

     crystal axes: (cart. coord. in units of alat)
               a(1) = (   1.000000   0.000000   0.000000 )
               a(2) = (  -0.249563   1.020007   0.000000 )
               a(3) = (  -0.336023  -0.478416   1.388335 )

     reciprocal axes: (cart. coord. in units 2 pi/alat)
               b(1) = (  1.000000  0.244668  0.326345 )
               b(2) = (  0.000000  0.980385  0.337837 )
               b(3) = (  0.000000  0.000000  0.720287 )

     PseudoPot. # 1 for Li read from file:
     /lustre07/scratch/pragov/crystal_structure_design/utils/SSSP/li_pbe_v1.4.uspp.F.UPF
     MD5 check sum: e912e257baa3777c20ea3d68f190483c
     Pseudo is Ultrasoft, Zval =  3.0
     Generated by new atomic code, or converted to UPF format
     Using radial grid of  751 points,  5 beta functions with:
                l(1) =   0
                l(2) =   0
                l(3) =   0
                l(4) =   1
                l(5) =   1
     Q(r) pseudized with 10 coefficients,  rinner =    1.150   1.150   1.150

     PseudoPot. # 2 for Cu read from file:
     /lustre07/scratch/pragov/crystal_structure_design/utils/SSSP/Cu.paw.z_11.ld1.psl.v1.0.0-low.upf
     MD5 check sum: 619f40885d92a09a85a8b37550532d0c
     Pseudo is Projector augmented-wave + core cor, Zval = 11.0
     Generated using &quot;atomic&quot; code by A. Dal Corso  v.6.3MaX
     Shape of augmentation charge: PSQ
     Using radial grid of 1199 points,  6 beta functions with:
                l(1) =   0
                l(2) =   0
                l(3) =   1
                l(4) =   1
                l(5) =   2
                l(6) =   2
     Q(r) pseudized with 0 coefficients

     PseudoPot. # 3 for Sb read from file:
     /lustre07/scratch/pragov/crystal_structure_design/utils/SSSP/sb_pbe_v1.4.uspp.F.UPF
     MD5 check sum: 9bc50dfb53373b713f5709b9110fe27f
     Pseudo is Ultrasoft + core correction, Zval = 15.0
     Generated by new atomic code, or converted to UPF format
     Using radial grid of  891 points,  6 beta functions with:
                l(1) =   0
                l(2) =   0
                l(3) =   1
                l(4) =   1
                l(5) =   2
                l(6) =   2
     Q(r) pseudized with  8 coefficients,  rinner =    1.350   1.350   1.350
                                                       1.350   1.350

     PseudoPot. # 4 for O  read from file:
     /lustre07/scratch/pragov/crystal_structure_design/utils/SSSP/O.pbe-n-kjpaw_psl.0.1.UPF
     MD5 check sum: 0234752ac141de4415c5fc33072bef88
     Pseudo is Projector augmented-wave + core cor, Zval =  6.0
     Generated using "atomic" code by A. Dal Corso  v.5.0.99 svn rev. 10869
     Shape of augmentation charge: BESSEL
     Using radial grid of 1095 points,  4 beta functions with:
                l(1) =   0
                l(2) =   0
                l(3) =   1
                l(4) =   1
     Q(r) pseudized with 0 coefficients

     atomic species   valence    mass     pseudopotential
        Li             3.00     6.94000     Li( 1.00)
        Cu            11.00    63.54600     Cu( 1.00)
        Sb            15.00   121.76000     Sb( 1.00)
        O              6.00    15.99900     O ( 1.00)

     No symmetry found

                                    s                        frac. trans.

      isym =  1     identity

 cryst.   s( 1) = (     1          0          0      )
                  (     0          1          0      )
                  (     0          0          1      )

 cart.    s( 1) = (  1.0000000  0.0000000 -0.0000000 )
                  (  0.0000000  1.0000000  0.0000000 )
                  (  0.0000000  0.0000000  1.0000000 )

   Cartesian axes

     site n.     atom                  positions (alat units)
         1           Li  tau(   1) = (  -0.1237866   0.7294525   0.5216850  )
         2           Li  tau(   2) = (   0.0709332  -0.0847413   1.1271991  )
         3           Li  tau(   3) = (   0.2106855   0.2627562   0.6836593  )
         4           Li  tau(   4) = (   0.2305043   0.0610733   0.1394416  )
         5           Li  tau(   5) = (   0.3478816   0.6232727   0.2739241  )
         6           Li  tau(   6) = (   0.5454088  -0.1853939   0.8482020  )
         7           Cu  tau(   7) = (  -0.1188813   0.5093587   0.0034583  )
         8           Cu  tau(   8) = (   0.1792579   0.4814229   1.2542429  )
         9           Sb  tau(   9) = (  -0.3036746   0.3778671   0.9740032  )
        10           Sb  tau(  10) = (   0.7150595   0.1605893   0.4102642  )
        11           O   tau(  11) = (  -0.2374682  -0.3573843   1.1479755  )
        12           O   tau(  12) = (  -0.1424228   0.2472231   1.3027985  )
        13           O   tau(  13) = (  -0.1246507   0.0835128   0.7625126  )
        14           O   tau(  14) = (   0.0139205   0.4009284   0.3361729  )
        15           O   tau(  15) = (   0.0098134   0.5874373   0.9271566  )
        16           O   tau(  16) = (   0.4148634  -0.0526690   0.4849844  )
        17           O   tau(  17) = (   0.4160203   0.1266275   1.0544989  )
        18           O   tau(  18) = (   0.5492199   0.4624711   0.6248161  )
        19           O   tau(  19) = (   0.5609633   0.3147576   0.0960353  )
        20           O   tau(  20) = (   0.6432375   0.8954834   0.2250950  )

   Crystallographic axes

     site n.     atom                  positions (cryst. coord.)
         1           Li  tau(   1) = (  0.2249360  0.8913890  0.3757630  )
         2           Li  tau(   2) = (  0.4180550  0.2977310  0.8119070  )
         3           Li  tau(   3) = (  0.4980820  0.4885680  0.4924310  )
         4           Li  tau(   4) = (  0.2909530  0.1069840  0.1004380  )
         5           Li  tau(   5) = (  0.5897700  0.7035890  0.1973040  )
         6           Li  tau(   6) = (  0.7768550  0.1047970  0.6109490  )
         7           Cu  tau(   7) = (  0.0068710  0.5005360  0.0024910  )
         8           Cu  tau(   8) = (  0.7063620  0.8957100  0.9034150  )
         9           Sb  tau(   9) = (  0.1066380  0.6995100  0.7015620  )
        10           Sb  tau(  10) = (  0.8882380  0.2960420  0.2955080  )
        11           O   tau(  11) = (  0.0497270  0.0374550  0.8268720  )
        12           O   tau(  12) = (  0.3432260  0.6825080  0.9383890  )
        13           O   tau(  13) = (  0.1446240  0.3394800  0.5492280  )
        14           O   tau(  14) = (  0.2217230  0.5066360  0.2421410  )
        15           O   tau(  15) = (  0.4561130  0.8891430  0.6678190  )
        16           O   tau(  16) = (  0.5602490  0.1122100  0.3493280  )
        17           O   tau(  17) = (  0.7911320  0.4803930  0.7595420  )
        18           O   tau(  18) = (  0.8662770  0.6644860  0.4500470  )
        19           O   tau(  19) = (  0.6693150  0.3410280  0.0691730  )
        20           O   tau(  20) = (  0.9357920  0.9539640  0.1621330  )

     number of k points=    14
                       cart. coord. in units 2pi/alat
        k(    1) = (   0.0000000   0.0000000   0.0000000), wk =   0.0740741
        k(    2) = (   0.0000000   0.0000000   0.2400957), wk =   0.1481481
        k(    3) = (   0.0000000   0.3267950   0.1126125), wk =   0.1481481
        k(    4) = (   0.0000000   0.3267950   0.3527082), wk =   0.1481481
        k(    5) = (   0.0000000   0.3267950  -0.1274832), wk =   0.1481481
        k(    6) = (   0.3333333   0.0815559   0.1087815), wk =   0.1481481
        k(    7) = (   0.3333333   0.0815559   0.3488772), wk =   0.1481481
        k(    8) = (   0.3333333   0.0815559  -0.1313142), wk =   0.1481481
        k(    9) = (   0.3333333   0.4083509   0.2213940), wk =   0.1481481
        k(   10) = (   0.3333333   0.4083509   0.4614897), wk =   0.1481481
        k(   11) = (   0.3333333   0.4083509  -0.0187017), wk =   0.1481481
        k(   12) = (   0.3333333  -0.2452391  -0.0038310), wk =   0.1481481
        k(   13) = (   0.3333333  -0.2452391   0.2362647), wk =   0.1481481
        k(   14) = (   0.3333333  -0.2452391  -0.2439267), wk =   0.1481481

                       cryst. coord.
        k(    1) = (   0.0000000   0.0000000   0.0000000), wk =   0.0740741
        k(    2) = (   0.0000000   0.0000000   0.3333333), wk =   0.1481481
        k(    3) = (   0.0000000   0.3333333   0.0000000), wk =   0.1481481
        k(    4) = (   0.0000000   0.3333333   0.3333333), wk =   0.1481481
        k(    5) = (   0.0000000   0.3333333  -0.3333333), wk =   0.1481481
        k(    6) = (   0.3333333   0.0000000   0.0000000), wk =   0.1481481
        k(    7) = (   0.3333333   0.0000000   0.3333333), wk =   0.1481481
        k(    8) = (   0.3333333   0.0000000  -0.3333333), wk =   0.1481481
        k(    9) = (   0.3333333   0.3333333   0.0000000), wk =   0.1481481
        k(   10) = (   0.3333333   0.3333333   0.3333333), wk =   0.1481481
        k(   11) = (   0.3333333   0.3333333  -0.3333333), wk =   0.1481481
        k(   12) = (   0.3333333  -0.3333333  -0.0000000), wk =   0.1481481
        k(   13) = (   0.3333333  -0.3333333   0.3333333), wk =   0.1481481
        k(   14) = (   0.3333333  -0.3333333  -0.3333333), wk =   0.1481481

     Check: negative core charge=   -0.000012

     Initial potential from superposition of free atoms

     starting charge     125.2950, renormalised to     130.0000
     Starting wfcs are  106 randomized atomic wfcs +  150 random wfcs
     Checking if some PAW data can be deallocated...

     Self-consistent Calculation

     iteration #  1     ecut=    30.00 Ry     beta= 0.70
     Davidson diagonalization with overlap

     ethr =  1.00E-02,  avg # of iterations =  7.1

     total energy              =   -1219.38856602 Ry
     estimated scf accuracy    <      95.73725952 Ry

[...]

     total energy              =   -1299.71011888 Ry
     estimated scf accuracy    <       0.00000108 Ry

     iteration # 23     ecut=    30.00 Ry     beta= 0.70
     Davidson diagonalization with overlap

     ethr =  8.32E-10,  avg # of iterations =  1.1

     End of self-consistent calculation

          k = 0.0000 0.0000 0.0000 (  3723 PWs)   bands (ev):

   -36.7088 -36.6408 -36.6230 -36.4516 -36.4151 -36.3106 -22.0819 -22.0485
   -21.9188 -21.9083 -21.8896 -21.8711 -21.8515 -21.7643 -21.7160 -21.7059
   -12.3069 -11.3209 -10.9331 -10.6078 -10.5229 -10.1787 -10.0819  -9.8486
    -9.6476  -9.3956  -1.3614  -0.9813   1.5059   1.7485   1.8588   1.9804
     2.2227   2.3094   2.7328   2.8170   3.2286   3.4263   3.5030   3.6692
     3.8435   4.1701   4.3317   4.5008   4.5598   4.6441   4.8494   4.9886
     5.0163   5.2256   5.3012   5.4392   5.5036   5.6764   5.7455   5.8973
     5.9163   6.0539   6.2024   6.4049   6.5335   6.5692   6.6819   7.2495
     7.5310   8.2885   9.4361  11.3258  12.8138  13.3244  14.2914  14.7864
    14.9456  15.1678  15.6275  15.8558  16.0408  16.8432  16.9938  17.1706
    17.2283  17.3785  17.8189  17.9450  18.1810  18.4200  19.0877  19.2788
    19.4332  19.6224  19.8246  19.8794  20.1774  20.3377  20.5388  20.6170
    21.0423  21.0713  21.6056  21.8251  22.0640  22.5503  22.6504  22.9746
    23.9886  24.1648  24.2603  24.4169  25.1418  25.2667  26.1511  26.4742
    26.7514  26.9695  27.1917  27.3681  27.5501  27.8601  27.9896  28.1742
    28.6020  29.1362  29.2470  29.4578  29.6370  30.0300  30.7172  30.8346
    31.2189  31.4491  31.6998  31.8674  32.3787  32.5561  32.6706  33.0094
    33.5136  33.7969  33.8717  34.2567  34.5242  34.7052  34.8113  35.0644
    35.2351  35.3540  35.4242  35.7227  35.8300  36.0700  36.4832  36.5257
    36.9112  37.0156  37.0972  37.3930  37.5901  37.7291  38.2341  38.4415
    38.6190  38.9198  39.2531  39.3471  39.4133  39.4773  39.6476  39.9120
    40.2731  40.3575  40.7560  41.1585  41.3395  41.5115  41.6155  41.8475
    42.1941  42.4263  42.6597  42.7820  42.9210  43.2174  43.4424  43.5203
    43.6535  43.8511  43.9711  44.2708  44.3124  44.4956  44.6093  44.9253
    45.0686  45.3485  45.4654  45.6316  45.9368  46.1084  46.2077  46.4778
    46.8254  46.9283  47.1341  47.3310  47.4552  47.9030  48.0547  48.2494
    48.3682  48.9052  48.9656  49.1701  49.3953  49.5986  49.7110  49.8117
    50.3311  50.3946  50.5140  50.7400  50.8742  51.1670  51.3412  51.3880
    51.5050  51.7017  51.9145  52.4496  52.5481  52.5773  52.8751  52.8841
    52.9906  53.1841  53.4324  53.5932  53.9505  53.9943  54.0320  54.1767
    54.4124  54.8391  54.9842  55.1201  55.3968  55.5755  55.7652  55.8884
    55.9570  56.3434  56.4125  56.7335  56.9742  57.1212  57.4571  57.6389

     occupation numbers
     1.0000   1.0000   1.0000   1.0000   1.0000   1.0000   1.0000   1.0000
     1.0000   1.0000   1.0000   1.0000   1.0000   1.0000   1.0000   1.0000
     1.0000   1.0000   1.0000   1.0000   1.0000   1.0000   1.0000   1.0000
     1.0000   1.0000   1.0000   1.0000   1.0000   1.0000   1.0000   1.0000
     1.0000   1.0000   1.0000   1.0000   1.0000   1.0000   1.0000   1.0000
     1.0000   1.0000   1.0000   1.0000   1.0000   1.0000   1.0000   1.0000
     1.0000   1.0000   1.0000   1.0000   1.0000   1.0000   1.0000   1.0000
     1.0000   1.0000   1.0000   1.0000   1.0000   1.0000   1.0000   1.0000
     1.0000   0.0000   0.0000   0.0000   0.0000   0.0000   0.0000   0.0000
     0.0000   0.0000   0.0000   0.0000   0.0000   0.0000   0.0000   0.0000
     0.0000   0.0000   0.0000   0.0000   0.0000   0.0000   0.0000   0.0000
     0.0000   0.0000   0.0000   0.0000   0.0000   0.0000   0.0000   0.0000
     0.0000   0.0000   0.0000   0.0000   0.0000   0.0000   0.0000   0.0000
     0.0000   0.0000   0.0000   0.0000   0.0000   0.0000   0.0000   0.0000
     0.0000   0.0000   0.0000   0.0000   0.0000   0.0000   0.0000   0.0000
     0.0000   0.0000   0.0000   0.0000   0.0000   0.0000   0.0000   0.0000
     0.0000   0.0000   0.0000   0.0000   0.0000   0.0000   0.0000   0.0000
     0.0000   0.0000   0.0000   0.0000   0.0000   0.0000   0.0000   0.0000
     0.0000   0.0000   0.0000   0.0000   0.0000   0.0000   0.0000   0.0000
     0.0000   0.0000   0.0000   0.0000   0.0000   0.0000   0.0000   0.0000
     0.0000   0.0000   0.0000   0.0000   0.0000   0.0000   0.0000   0.0000
     0.0000   0.0000   0.0000   0.0000   0.0000   0.0000   0.0000   0.0000
     0.0000   0.0000   0.0000   0.0000   0.0000   0.0000   0.0000   0.0000
     0.0000   0.0000   0.0000   0.0000   0.0000   0.0000   0.0000   0.0000
     0.0000   0.0000   0.0000   0.0000   0.0000   0.0000   0.0000   0.0000
     0.0000   0.0000   0.0000   0.0000   0.0000   0.0000   0.0000   0.0000
     0.0000   0.0000   0.0000   0.0000   0.0000   0.0000   0.0000   0.0000
     0.0000   0.0000   0.0000   0.0000   0.0000   0.0000   0.0000   0.0000
     0.0000   0.0000   0.0000   0.0000   0.0000   0.0000   0.0000   0.0000
     0.0000   0.0000   0.0000   0.0000   0.0000   0.0000   0.0000   0.0000
     0.0000   0.0000   0.0000   0.0000   0.0000   0.0000   0.0000   0.0000
     0.0000   0.0000   0.0000   0.0000   0.0000   0.0000   0.0000   0.0000

[...]

          k = 0.3333-0.2452-0.2439 (  3751 PWs)   bands (ev):

   -36.7091 -36.6404 -36.6239 -36.4519 -36.4156 -36.3110 -22.0835 -22.0502
   -21.9209 -21.9108 -21.8910 -21.8731 -21.8561 -21.7678 -21.7181 -21.7105
   -12.1186 -11.4431 -10.8111 -10.6420 -10.5748 -10.2047 -10.1629  -9.8564
    -9.7209  -9.4389  -1.5712  -0.5975   1.3004   1.6583   1.7727   2.1770
     2.3561   2.5535   2.6996   3.0694   3.3533   3.5948   3.7109   3.8916
     4.0542   4.1903   4.3064   4.3590   4.4721   4.6168   4.6527   4.8004
     4.8898   5.0436   5.1297   5.2713   5.3522   5.4354   5.6885   5.8084
     5.9150   6.0069   6.2945   6.4043   6.4781   6.6332   6.6930   7.1675
     7.5398   8.2095  10.7843  11.1413  13.1122  13.5743  13.6498  14.3695
    14.5823  15.0116  15.3137  15.7215  16.5508  16.8199  16.9161  17.2840
    17.4609  17.9079  18.0111  18.1505  18.3489  18.5408  18.6763  19.0011
    19.2292  19.4320  19.5340  19.8568  20.2350  20.3228  20.5578  20.7052
    20.7951  20.9534  21.2817  21.4524  21.7819  21.9826  22.3362  22.5922
    22.9163  23.0362  23.3957  23.7841  24.4915  24.7880  25.4676  26.0079
    26.5915  27.3564  27.9325  28.1767  28.6107  28.8156  29.1502  29.3182
    29.7214  29.8559  30.0246  30.2764  30.8889  31.0058  31.2567  31.5379
    31.7766  32.0124  32.1378  32.5763  32.7517  32.9470  33.1192  33.4971
    33.7935  34.0275  34.2913  34.4663  34.5532  34.7491  34.9533  35.0696
    35.1871  35.5919  35.7295  35.8275  36.0705  36.2593  36.4510  36.5211
    36.8040  36.9880  37.1887  37.2869  37.5505  37.7019  37.8714  38.0413
    38.2393  38.6319  38.7616  39.1897  39.3566  39.4434  39.4887  39.6636
    40.0054  40.0338  40.2315  40.4892  40.8224  40.9471  41.0968  41.2004
    41.4803  41.6995  42.1110  42.3017  42.4809  42.5983  42.8550  42.8813
    43.1858  43.2767  43.4620  43.7663  43.9182  44.1744  44.5255  44.6281
    44.7547  44.8470  45.0451  45.1826  45.4488  45.7056  45.8475  46.1616
    46.3925  46.5250  46.7999  47.1671  47.2300  47.5525  47.6695  47.9321
    48.2296  48.3615  48.5658  48.6773  48.9778  49.3701  49.4587  49.6759
    49.8825  50.0623  50.2339  50.3802  50.6453  50.9143  51.0866  51.2585
    51.4117  51.6649  51.9797  52.0998  52.2841  52.4036  52.6465  52.8585
    53.1612  53.3562  53.5396  53.6736  53.8910  53.9847  54.1959  54.3695
    54.5723  54.7697  55.0353  55.2178  55.4485  55.7677  55.8411  56.1293
    56.3454  56.4964  56.7098  56.8581  57.1584  57.2480  57.7252  57.9826

     occupation numbers
     1.0000   1.0000   1.0000   1.0000   1.0000   1.0000   1.0000   1.0000
     1.0000   1.0000   1.0000   1.0000   1.0000   1.0000   1.0000   1.0000
     1.0000   1.0000   1.0000   1.0000   1.0000   1.0000   1.0000   1.0000
     1.0000   1.0000   1.0000   1.0000   1.0000   1.0000   1.0000   1.0000
     1.0000   1.0000   1.0000   1.0000   1.0000   1.0000   1.0000   1.0000
     1.0000   1.0000   1.0000   1.0000   1.0000   1.0000   1.0000   1.0000
     1.0000   1.0000   1.0000   1.0000   1.0000   1.0000   1.0000   1.0000
     1.0000   1.0000   1.0000   1.0000   1.0000   1.0000   1.0000   1.0000
     1.0000   0.0000   0.0000   0.0000   0.0000   0.0000   0.0000   0.0000
     0.0000   0.0000   0.0000   0.0000   0.0000   0.0000   0.0000   0.0000
     0.0000   0.0000   0.0000   0.0000   0.0000   0.0000   0.0000   0.0000
     0.0000   0.0000   0.0000   0.0000   0.0000   0.0000   0.0000   0.0000
     0.0000   0.0000   0.0000   0.0000   0.0000   0.0000   0.0000   0.0000
     0.0000   0.0000   0.0000   0.0000   0.0000   0.0000   0.0000   0.0000
     0.0000   0.0000   0.0000   0.0000   0.0000   0.0000   0.0000   0.0000
     0.0000   0.0000   0.0000   0.0000   0.0000   0.0000   0.0000   0.0000
     0.0000   0.0000   0.0000   0.0000   0.0000   0.0000   0.0000   0.0000
     0.0000   0.0000   0.0000   0.0000   0.0000   0.0000   0.0000   0.0000
     0.0000   0.0000   0.0000   0.0000   0.0000   0.0000   0.0000   0.0000
     0.0000   0.0000   0.0000   0.0000   0.0000   0.0000   0.0000   0.0000
     0.0000   0.0000   0.0000   0.0000   0.0000   0.0000   0.0000   0.0000
     0.0000   0.0000   0.0000   0.0000   0.0000   0.0000   0.0000   0.0000
     0.0000   0.0000   0.0000   0.0000   0.0000   0.0000   0.0000   0.0000
     0.0000   0.0000   0.0000   0.0000   0.0000   0.0000   0.0000   0.0000
     0.0000   0.0000   0.0000   0.0000   0.0000   0.0000   0.0000   0.0000
     0.0000   0.0000   0.0000   0.0000   0.0000   0.0000   0.0000   0.0000
     0.0000   0.0000   0.0000   0.0000   0.0000   0.0000   0.0000   0.0000
     0.0000   0.0000   0.0000   0.0000   0.0000   0.0000   0.0000   0.0000
     0.0000   0.0000   0.0000   0.0000   0.0000   0.0000   0.0000   0.0000
     0.0000   0.0000   0.0000   0.0000   0.0000   0.0000   0.0000   0.0000
     0.0000   0.0000   0.0000   0.0000   0.0000   0.0000   0.0000   0.0000
     0.0000   0.0000   0.0000   0.0000   0.0000   0.0000   0.0000   0.0000

     highest occupied, lowest unoccupied level (ev):     7.6088    8.1053

!    total energy              =   -1299.71011871 Ry
     estimated scf accuracy    <       0.00000033 Ry

     The total energy is the sum of the following terms:
     one-electron contribution =    -424.13717025 Ry
     hartree contribution      =     299.80505672 Ry
     xc contribution           =    -273.14661046 Ry
     ewald contribution        =    -627.31211274 Ry
     one-center paw contrib.   =    -274.91928198 Ry
      -> PAW hartree energy AE =       0.00000000 Ry
      -> PAW hartree energy PS =       0.00000000 Ry
      -> PAW xc energy AE      =       0.00000000 Ry
      -> PAW xc energy PS      =       0.00000000 Ry
      -> total E_H with PAW    =     299.80505672 Ry
      -> total E_XC with PAW   =    -273.14661046 Ry

     convergence has been achieved in  23 iterations

     Writing all to output data dir bands_nm/myprefix.save/

     General routines

     Parallel routines

     PAW routines

   This run was terminated on:  18:33:31  15Jul2023

   JOB DONE.