     Program PWSCF v.7.1 starts on 13Jul2023 at  4:19:40

     Reading input from espresso_12980.pwi
Warning: card &CELL ignored
Warning: card / ignored

     Current dimensions of program PWSCF are:
     Max number of different atomic species (ntypx) = 10
     Max number of k-points (npk) =  40000
     Max angular momentum in pseudopotentials (lmaxx) =  4
     file O.pbe-n-kjpaw_psl.0.1.UPF: wavefunction(s)  2P renormalized
     Message from routine setup:
     using ibrav=0 with symmetry is DISCOURAGED, use correct ibrav instead

     K-points division:     npool     =       2
     R & G space division:  proc/nbgrp/npool/nimage =       8
     Subspace diagonalization in iterative solution of the eigenvalue problem:
     a serial algorithm will be used

     Using Slab Decomposition

     bravais-lattice index     =            0
     lattice parameter (alat)  =      10.5879  a.u.
     unit-cell volume          =    1670.8800 (a.u.)^3
     number of atoms/cell      =           16
     number of atomic types    =            3
     number of electrons       =       128.00
     number of Kohn-Sham states=           64
     kinetic-energy cutoff     =      30.0000  Ry
     charge density cutoff     =     240.0000  Ry
     scf convergence threshold =      1.0E-06
     mixing beta               =       0.7000
     number of iterations used =            8  plain     mixing
     Exchange-correlation= SLA  PW   PBX  PBC
                           (   1   4   3   4   0   0   0)

     celldm(1)=  10.587878  celldm(2)=   0.000000  celldm(3)=   0.000000
     celldm(4)=   0.000000  celldm(5)=   0.000000  celldm(6)=   0.000000

     crystal axes: (cart. coord. in units of alat)
               a(1) = (   1.000000   0.000000   0.000000 )
               a(2) = (   0.000000   1.097958   0.000000 )
               a(3) = (   0.000000   0.000000   1.282132 )

     reciprocal axes: (cart. coord. in units 2 pi/alat)
               b(1) = (  1.000000  0.000000  0.000000 )
               b(2) = (  0.000000  0.910782  0.000000 )
               b(3) = (  0.000000  0.000000  0.779951 )

     PseudoPot. # 1 for Na read from file:
     /lustre07/scratch/pragov/crystal_structure_design/utils/SSSP/na_pbe_v1.5.uspp.F.UPF
     MD5 check sum: 44600605ef58000f06b90626533354dc
     Pseudo is Ultrasoft, Zval =  9.0
     Generated by new atomic code, or converted to UPF format
     Using radial grid of  819 points,  5 beta functions with:
                l(1) =   0
                l(2) =   0
                l(3) =   1
                l(4) =   1
                l(5) =   2
     Q(r) pseudized with  8 coefficients,  rinner =    1.250   1.250   1.250
                                                       1.250   1.250

     PseudoPot. # 2 for V  read from file:
     /lustre07/scratch/pragov/crystal_structure_design/utils/SSSP/v_pbe_v1.4.uspp.F.UPF
     MD5 check sum: 22b79981416ebb76fdaf5b1b8640f6fb
     Pseudo is Ultrasoft + core correction, Zval = 13.0
     Generated by new atomic code, or converted to UPF format
     Using radial grid of  853 points,  6 beta functions with:
                l(1) =   0
                l(2) =   0
                l(3) =   1
                l(4) =   1
                l(5) =   2
                l(6) =   2
     Q(r) pseudized with  8 coefficients,  rinner =    1.100   1.100   1.100
                                                       1.100   1.100

     PseudoPot. # 3 for O  read from file:
     /lustre07/scratch/pragov/crystal_structure_design/utils/SSSP/O.pbe-n-kjpaw_psl.0.1.UPF
     MD5 check sum: 0234752ac141de4415c5fc33072bef88
     Pseudo is Projector augmented-wave + core cor, Zval =  6.0
     Generated using "atomic" code by A. Dal Corso  v.5.0.99 svn rev. 10869
     Shape of augmentation charge: BESSEL
     Using radial grid of 1095 points,  4 beta functions with:
                l(1) =   0
                l(2) =   0
                l(3) =   1
                l(4) =   1
     Q(r) pseudized with 0 coefficients

     atomic species   valence    mass     pseudopotential
        Na             9.00    22.98977     Na( 1.00)
        V             13.00    50.94150     V ( 1.00)
        O              6.00    15.99900     O ( 1.00)

      4 Sym. Ops. (no inversion) found ( 2 have fractional translation)

                                    s                        frac. trans.

      isym =  1     identity

 cryst.   s( 1) = (     1          0          0      )
                  (     0          1          0      )
                  (     0          0          1      )

 cart.    s( 1) = (  1.0000000  0.0000000  0.0000000 )
                  (  0.0000000  1.0000000  0.0000000 )
                  (  0.0000000  0.0000000  1.0000000 )

      isym =  2     180 deg rotation - cart. axis [1,0,0]

 cryst.   s( 2) = (     1          0          0      )    f =(  0.5000000 )
                  (     0         -1          0      )       (  0.0000000 )
                  (     0          0         -1      )       (  0.5000000 )

 cart.    s( 2) = (  1.0000000  0.0000000  0.0000000 )    f =(  0.5000000 )
                  (  0.0000000 -1.0000000  0.0000000 )       (  0.0000000 )
                  (  0.0000000  0.0000000 -1.0000000 )       (  0.6410660 )

      isym =  3     inv. 180 deg rotation - cart. axis [0,0,1]

 cryst.   s( 3) = (     1          0          0      )
                  (     0          1          0      )
                  (     0          0         -1      )

 cart.    s( 3) = (  1.0000000  0.0000000  0.0000000 )
                  (  0.0000000  1.0000000  0.0000000 )
                  (  0.0000000  0.0000000 -1.0000000 )

      isym =  4     inv. 180 deg rotation - cart. axis [0,1,0]

 cryst.   s( 4) = (     1          0          0      )    f =(  0.5000000 )
                  (     0         -1          0      )       (  0.0000000 )
                  (     0          0          1      )       ( -0.5000000 )

 cart.    s( 4) = (  1.0000000  0.0000000  0.0000000 )    f =(  0.5000000 )
                  (  0.0000000 -1.0000000  0.0000000 )       (  0.0000000 )
                  (  0.0000000  0.0000000  1.0000000 )       ( -0.6410660 )

   Cartesian axes

     site n.     atom                  positions (alat units)
         1           Na  tau(   1) = (   0.4874660   0.7230020   0.0000000  )
         2           Na  tau(   2) = (   0.9888670   0.9073656   0.3154942  )
         3           Na  tau(   3) = (   0.4888670   0.1905923   0.3255718  )
         4           Na  tau(   4) = (   0.9874660   0.3749559   0.6410660  )
         5           Na  tau(   5) = (   0.4888670   0.1905923   0.9565602  )
         6           Na  tau(   6) = (   0.9888670   0.9073656   0.9666377  )
         7           V   tau(   7) = (   0.0010660   0.3587424   0.0000000  )
         8           V   tau(   8) = (   0.5010660   0.7392156   0.6410660  )
         9           O   tau(   9) = (   0.9039280   0.6561528   0.0000000  )
        10           O   tau(  10) = (   0.3115720   0.3538565   0.0000000  )
        11           O   tau(  11) = (   0.9014830   0.2112383   0.2581996  )
        12           O   tau(  12) = (   0.4014830   0.8867196   0.3828664  )
        13           O   tau(  13) = (   0.8115720   0.7441015   0.6410660  )
        14           O   tau(  14) = (   0.4039280   0.4418051   0.6410660  )
        15           O   tau(  15) = (   0.4014830   0.8867196   0.8992656  )
        16           O   tau(  16) = (   0.9014830   0.2112383   1.0239324  )

   Crystallographic axes

     site n.     atom                  positions (cryst. coord.)
         1           Na  tau(   1) = (  0.4874660  0.6584970  0.0000000  )
         2           Na  tau(   2) = (  0.9888670  0.8264120  0.2460700  )
         3           Na  tau(   3) = (  0.4888670  0.1735880  0.2539300  )
         4           Na  tau(   4) = (  0.9874660  0.3415030  0.5000000  )
         5           Na  tau(   5) = (  0.4888670  0.1735880  0.7460700  )
         6           Na  tau(   6) = (  0.9888670  0.8264120  0.7539300  )
         7           V   tau(   7) = (  0.0010660  0.3267360  0.0000000  )
         8           V   tau(   8) = (  0.5010660  0.6732640  0.5000000  )
         9           O   tau(   9) = (  0.9039280  0.5976120  0.0000000  )
        10           O   tau(  10) = (  0.3115720  0.3222860  0.0000000  )
        11           O   tau(  11) = (  0.9014830  0.1923920  0.2013830  )
        12           O   tau(  12) = (  0.4014830  0.8076080  0.2986170  )
        13           O   tau(  13) = (  0.8115720  0.6777140  0.5000000  )
        14           O   tau(  14) = (  0.4039280  0.4023880  0.5000000  )
        15           O   tau(  15) = (  0.4014830  0.8076080  0.7013830  )
        16           O   tau(  16) = (  0.9014830  0.1923920  0.7986170  )

     number of k points=     8
                       cart. coord. in units 2pi/alat
        k(    1) = (   0.0000000   0.0000000   0.0000000), wk =   0.0740741
        k(    2) = (   0.0000000   0.0000000   0.2599836), wk =   0.1481481
        k(    3) = (   0.0000000   0.3035939   0.0000000), wk =   0.1481481
        k(    4) = (   0.0000000   0.3035939   0.2599836), wk =   0.2962963
        k(    5) = (   0.3333333   0.0000000   0.0000000), wk =   0.1481481
        k(    6) = (   0.3333333   0.0000000   0.2599836), wk =   0.2962963
        k(    7) = (   0.3333333   0.3035939   0.0000000), wk =   0.2962963
        k(    8) = (   0.3333333   0.3035939   0.2599836), wk =   0.5925926

                       cryst. coord.
        k(    1) = (   0.0000000   0.0000000   0.0000000), wk =   0.0740741
        k(    2) = (   0.0000000   0.0000000   0.3333333), wk =   0.1481481
        k(    3) = (   0.0000000   0.3333333   0.0000000), wk =   0.1481481
        k(    4) = (   0.0000000   0.3333333   0.3333333), wk =   0.2962963
        k(    5) = (   0.3333333   0.0000000   0.0000000), wk =   0.1481481
        k(    6) = (   0.3333333   0.0000000   0.3333333), wk =   0.2962963
        k(    7) = (   0.3333333   0.3333333   0.0000000), wk =   0.2962963
        k(    8) = (   0.3333333   0.3333333   0.3333333), wk =   0.5925926

     Check: negative core charge=   -0.000012

     Initial potential from superposition of free atoms

     starting charge     127.9598, renormalised to     128.0000

     negative rho (up, down):  1.849E-03 0.000E+00
     Starting wfcs are   82 randomized atomic wfcs
     Checking if some PAW data can be deallocated...

     Self-consistent Calculation

     iteration #  1     ecut=    30.00 Ry     beta= 0.70
     Davidson diagonalization with overlap

     ethr =  1.00E-02,  avg # of iterations =  1.0

     negative rho (up, down):  6.918E-03 0.000E+00

     total energy              =   -1192.71651669 Ry
     estimated scf accuracy    <       6.12481310 Ry

[...]

     total energy              =   -1196.38397879 Ry
     estimated scf accuracy    <       0.00000277 Ry

     iteration # 14     ecut=    30.00 Ry     beta= 0.70
     Davidson diagonalization with overlap

     ethr =  2.17E-09,  avg # of iterations =  3.4

     negative rho (up, down):  4.963E-03 0.000E+00

     End of self-consistent calculation

          k = 0.0000 0.0000 0.0000 (  4629 PWs)   bands (ev):

   -61.0607 -61.0607 -46.8467 -46.8466 -46.6371 -46.6361 -46.6353 -46.6344
   -34.9837 -34.9830 -34.9616 -34.9613 -34.9533 -34.9528 -18.8011 -18.7998
   -18.7807 -18.7771 -18.7517 -18.7512 -18.6175 -18.6082 -18.5873 -18.5858
   -18.5717 -18.5619 -18.5561 -18.5553 -18.5547 -18.5542 -18.5501 -18.5457
   -13.6863 -13.5024 -13.1972 -13.1490 -13.1470 -13.1361 -13.0986 -13.0937
    -0.2824  -0.1593  -0.0956  -0.0221  -0.0007   0.0977   0.1014   0.1405
     0.1875   0.2601   0.4233   0.4728   0.8217   0.9351   0.9968   1.1107
     1.1300   1.4252   1.8310   2.0110   2.0282   2.0419   2.0984   2.2310

     occupation numbers
     1.0000   1.0000   1.0000   1.0000   1.0000   1.0000   1.0000   1.0000
     1.0000   1.0000   1.0000   1.0000   1.0000   1.0000   1.0000   1.0000
     1.0000   1.0000   1.0000   1.0000   1.0000   1.0000   1.0000   1.0000
     1.0000   1.0000   1.0000   1.0000   1.0000   1.0000   1.0000   1.0000
     1.0000   1.0000   1.0000   1.0000   1.0000   1.0000   1.0000   1.0000
     1.0000   1.0000   1.0000   1.0000   1.0000   1.0000   1.0000   1.0000
     1.0000   1.0000   1.0000   1.0000   1.0000   1.0000   1.0000   1.0000
     1.0000   1.0000   1.0000   1.0000   1.0000   1.0000   1.0000   1.0000

[...]

          k = 0.3333 0.3036 0.2600 (  4638 PWs)   bands (ev):

   -61.0607 -61.0607 -46.8468 -46.8467 -46.6367 -46.6360 -46.6357 -46.6350
   -34.9840 -34.9836 -34.9620 -34.9620 -34.9534 -34.9532 -18.8006 -18.8000
   -18.7821 -18.7814 -18.7553 -18.7546 -18.5992 -18.5970 -18.5922 -18.5835
   -18.5827 -18.5744 -18.5689 -18.5678 -18.5497 -18.5491 -18.5457 -18.5447
   -13.5456 -13.5137 -13.1971 -13.1850 -13.1601 -13.1427 -13.1182 -13.1099
    -0.3876  -0.3532  -0.3397  -0.2317  -0.1637  -0.0558   0.0309   0.1190
     0.1481   0.2022   0.4795   0.5036   0.9894   1.0836   1.1447   1.1955
     1.3157   1.3874   2.0039   2.0368   2.0976   2.1255   2.1930   2.2105

     occupation numbers
     1.0000   1.0000   1.0000   1.0000   1.0000   1.0000   1.0000   1.0000
     1.0000   1.0000   1.0000   1.0000   1.0000   1.0000   1.0000   1.0000
     1.0000   1.0000   1.0000   1.0000   1.0000   1.0000   1.0000   1.0000
     1.0000   1.0000   1.0000   1.0000   1.0000   1.0000   1.0000   1.0000
     1.0000   1.0000   1.0000   1.0000   1.0000   1.0000   1.0000   1.0000
     1.0000   1.0000   1.0000   1.0000   1.0000   1.0000   1.0000   1.0000
     1.0000   1.0000   1.0000   1.0000   1.0000   1.0000   1.0000   1.0000
     1.0000   1.0000   1.0000   1.0000   1.0000   1.0000   1.0000   1.0000

     highest occupied level (ev):     2.2519

!    total energy              =   -1196.38397867 Ry
     estimated scf accuracy    <       0.00000043 Ry

     The total energy is the sum of the following terms:
     one-electron contribution =    -784.86405379 Ry
     hartree contribution      =     433.00323546 Ry
     xc contribution           =    -184.87852592 Ry
     ewald contribution        =    -583.43913660 Ry
     one-center paw contrib.   =     -76.20549782 Ry
      -> PAW hartree energy AE =       0.00000000 Ry
      -> PAW hartree energy PS =       0.00000000 Ry
      -> PAW xc energy AE      =       0.00000000 Ry
      -> PAW xc energy PS      =       0.00000000 Ry
      -> total E_H with PAW    =     433.00323546 Ry
      -> total E_XC with PAW   =    -184.87852592 Ry

     convergence has been achieved in  14 iterations

     Writing all to output data dir bands_nm/myprefix.save/

     General routines

     Parallel routines

     PAW routines

   This run was terminated on:   4:19:50  13Jul2023

   JOB DONE.