     Program PWSCF v.7.1 starts on 15Jul2023 at 14:22:30

     Reading input from espresso_13257.pwi
Warning: card &CELL ignored
Warning: card / ignored

     Current dimensions of program PWSCF are:
     Max number of different atomic species (ntypx) = 10
     Max number of k-points (npk) =  40000
     Max angular momentum in pseudopotentials (lmaxx) =  4
     file Cu.paw.z_11.ld1.psl.v1.0.0-low.upf: wavefunction(s)  4S 3D renormalized
     file O.pbe-n-kjpaw_psl.0.1.UPF: wavefunction(s)  2P renormalized
     Message from routine setup:
     the system is metallic, specify occupations
     Message from routine setup:
     using ibrav=0 with symmetry is DISCOURAGED, use correct ibrav instead

     K-points division:     npool     =       2
     R & G space division:  proc/nbgrp/npool/nimage =       4
     Subspace diagonalization in iterative solution of the eigenvalue problem:
     a serial algorithm will be used

     Using Slab Decomposition

     bravais-lattice index     =            0
     lattice parameter (alat)  =       9.4632  a.u.
     unit-cell volume          =     532.6426 (a.u.)^3
     number of atoms/cell      =            9
     number of atomic types    =            4
     number of electrons       =        41.00 (up:  21.00, down:  20.00)
     number of Kohn-Sham states=           64
     kinetic-energy cutoff     =      30.0000  Ry
     charge density cutoff     =     240.0000  Ry
     scf convergence threshold =      1.0E-06
     mixing beta               =       0.7000
     number of iterations used =            8  plain     mixing
     Exchange-correlation=  SLA  PW   PBX  PBC
                           (   1   4   3   4   0   0   0)

     celldm(1)=   9.463167  celldm(2)=   0.000000  celldm(3)=   0.000000
     celldm(4)=   0.000000  celldm(5)=   0.000000  celldm(6)=   0.000000

     crystal axes: (cart. coord. in units of alat)
               a(1) = (   1.000000   0.000000   0.000000 )
               a(2) = (  -0.073523   0.997294   0.000000 )
               a(3) = (   0.163479   0.175975   0.630236 )

     reciprocal axes: (cart. coord. in units 2 pi/alat)
               b(1) = (  1.000000  0.073722 -0.279979 )
               b(2) = (  0.000000  1.002714 -0.279979 )
               b(3) = (  0.000000  0.000000  1.586707 )

     PseudoPot. # 1 for Cu read from file:
     /lustre07/scratch/pragov/crystal_structure_design/utils/SSSP/Cu.paw.z_11.ld1.psl.v1.0.0-low.upf
     MD5 check sum: 619f40885d92a09a85a8b37550532d0c
     Pseudo is Projector augmented-wave + core cor, Zval = 11.0
     Generated using &quot;atomic&quot; code by A. Dal Corso  v.6.3MaX
     Shape of augmentation charge: PSQ
     Using radial grid of 1199 points,  6 beta functions with:
                l(1) =   0
                l(2) =   0
                l(3) =   1
                l(4) =   1
                l(5) =   2
                l(6) =   2
     Q(r) pseudized with 0 coefficients

     PseudoPot. # 2 for H  read from file:
     /lustre07/scratch/pragov/crystal_structure_design/utils/SSSP/H.pbe-rrkjus_psl.1.0.0.UPF
     MD5 check sum: f52b6d4d1c606e5624b1dc7b2218f220
     Pseudo is Ultrasoft, Zval =  1.0
     Generated using "atomic" code by A. Dal Corso  v.5.1
     Using radial grid of  929 points,  2 beta functions with:
                l(1) =   0
                l(2) =   0
     Q(r) pseudized with 0 coefficients

     PseudoPot. # 3 for O  read from file:
     /lustre07/scratch/pragov/crystal_structure_design/utils/SSSP/O.pbe-n-kjpaw_psl.0.1.UPF
     MD5 check sum: 0234752ac141de4415c5fc33072bef88
     Pseudo is Projector augmented-wave + core cor, Zval =  6.0
     Generated using "atomic" code by A. Dal Corso  v.5.0.99 svn rev. 10869
     Shape of augmentation charge: BESSEL
     Using radial grid of 1095 points,  4 beta functions with:
                l(1) =   0
                l(2) =   0
                l(3) =   1
                l(4) =   1
     Q(r) pseudized with 0 coefficients

     PseudoPot. # 4 for F  read from file:
     /lustre07/scratch/pragov/crystal_structure_design/utils/SSSP/f_pbe_v1.4.uspp.F.UPF
     MD5 check sum: 4c38b6a325caf53ec0e86aed9459de46
     Pseudo is Ultrasoft, Zval =  7.0
     Generated by new atomic code, or converted to UPF format
     Using radial grid of  799 points,  4 beta functions with:
                l(1) =   0
                l(2) =   0
                l(3) =   1
                l(4) =   1
     Q(r) pseudized with  8 coefficients,  rinner =    0.950   0.950   0.950

     atomic species   valence    mass     pseudopotential
        Cu            11.00    63.54600     Cu( 1.00)
        H              1.00     1.00800     H ( 1.00)
        O              6.00    15.99900     O ( 1.00)
        F              7.00    18.99840     F ( 1.00)

     Starting magnetic structure
     atomic species   magnetization
        Cu           0.000
        H            0.000
        O            0.000
        F            0.000

      2 Sym. Ops., with inversion, found

                                    s                        frac. trans.

      isym =  1     identity

 cryst.   s( 1) = (     1          0          0      )
                  (     0          1          0      )
                  (     0          0          1      )

 cart.    s( 1) = (  1.0000000 -0.0000000  0.0000000 )
                  (  0.0000000  1.0000000  0.0000000 )
                  (  0.0000000  0.0000000  1.0000000 )

      isym =  2     inversion

 cryst.   s( 2) = (    -1          0          0      )
                  (     0         -1          0      )
                  (     0          0         -1      )

 cart.    s( 2) = ( -1.0000000  0.0000000  0.0000000 )
                  (  0.0000000 -1.0000000  0.0000000 )
                  (  0.0000000  0.0000000 -1.0000000 )

   Cartesian axes

     site n.     atom                  positions (alat units)
         1           Cu  tau(   1) = (   0.0000000   0.0000000   0.0000000  )
         2           H   tau(   2) = (   0.5677298   0.2639903   0.1277804  )
         3           H   tau(   3) = (   0.2215347   0.5856026   0.1277804  )
         4           H   tau(   4) = (   0.5222266   0.9092782   0.5024558  )
         5           H   tau(   5) = (   0.8684217   0.5876660   0.5024558  )
         6           O   tau(   6) = (   0.7204214   0.2597262   0.0000000  )
         7           O   tau(   7) = (   0.2060557   0.7375674   0.0000000  )
         8           F   tau(   8) = (   0.7994053   0.8605089   0.3433911  )
         9           F   tau(   9) = (   0.2905511   0.3127597   0.2868451  )

   Crystallographic axes

     site n.     atom                  positions (cryst. coord.)
         1           Cu  tau(   1) = (  0.0000000  0.0000000  0.0000000  )
         2           H   tau(   2) = (  0.5514160  0.2289310  0.2027500  )
         3           H   tau(   3) = (  0.2289310  0.5514160  0.2027500  )
         4           H   tau(   4) = (  0.4485840  0.7710690  0.7972500  )
         5           H   tau(   5) = (  0.7710690  0.4485840  0.7972500  )
         6           O   tau(   6) = (  0.7395690  0.2604310  0.0000000  )
         7           O   tau(   7) = (  0.2604310  0.7395690  0.0000000  )
         8           F   tau(   8) = (  0.7667020  0.7667020  0.5448610  )
         9           F   tau(   9) = (  0.2332980  0.2332980  0.4551390  )

     number of k points=    14
                       cart. coord. in units 2pi/alat
        k(    1) = (   0.0000000   0.0000000   0.0000000), wk =   0.0370370
        k(    2) = (   0.0000000   0.0000000   0.5289022), wk =   0.0740741
        k(    3) = (   0.0000000   0.3342379  -0.0933262), wk =   0.0740741
        k(    4) = (   0.0000000   0.3342379   0.4355760), wk =   0.0740741
        k(    5) = (   0.0000000   0.3342379  -0.6222284), wk =   0.0740741
        k(    6) = (   0.3333333   0.0245741  -0.0933262), wk =   0.0740741
        k(    7) = (   0.3333333   0.0245741   0.4355760), wk =   0.0740741
        k(    8) = (   0.3333333   0.0245741  -0.6222284), wk =   0.0740741
        k(    9) = (   0.3333333   0.3588121  -0.1866524), wk =   0.0740741
        k(   10) = (   0.3333333   0.3588121   0.3422499), wk =   0.0740741
        k(   11) = (   0.3333333   0.3588121  -0.7155546), wk =   0.0740741
        k(   12) = (   0.3333333  -0.3096638  -0.0000000), wk =   0.0740741
        k(   13) = (   0.3333333  -0.3096638   0.5289022), wk =   0.0740741
        k(   14) = (   0.3333333  -0.3096638  -0.5289022), wk =   0.0740741

                       cryst. coord.
        k(    1) = (   0.0000000   0.0000000   0.0000000), wk =   0.0370370
        k(    2) = (   0.0000000   0.0000000   0.3333333), wk =   0.0740741
        k(    3) = (   0.0000000   0.3333333   0.0000000), wk =   0.0740741
        k(    4) = (   0.0000000   0.3333333   0.3333333), wk =   0.0740741
        k(    5) = (   0.0000000   0.3333333  -0.3333333), wk =   0.0740741
        k(    6) = (   0.3333333   0.0000000   0.0000000), wk =   0.0740741
        k(    7) = (   0.3333333   0.0000000   0.3333333), wk =   0.0740741
        k(    8) = (   0.3333333   0.0000000  -0.3333333), wk =   0.0740741
        k(    9) = (   0.3333333   0.3333333   0.0000000), wk =   0.0740741
        k(   10) = (   0.3333333   0.3333333   0.3333333), wk =   0.0740741
        k(   11) = (   0.3333333   0.3333333  -0.3333333), wk =   0.0740741
        k(   12) = (   0.3333333  -0.3333333  -0.0000000), wk =   0.0740741
        k(   13) = (   0.3333333  -0.3333333   0.3333333), wk =   0.0740741
        k(   14) = (   0.3333333  -0.3333333  -0.3333333), wk =   0.0740741

     Check: negative core charge=   -0.000009
     Generating pointlists ...
     new r_m :   0.1574 (alat units)  1.4896 (a.u.) for type    1
     new r_m :   0.0821 (alat units)  0.7774 (a.u.) for type    2
     new r_m :   0.0821 (alat units)  0.7774 (a.u.) for type    3
     new r_m :   0.1334 (alat units)  1.2619 (a.u.) for type    4

     Initial potential from superposition of free atoms

     starting charge      40.9997, renormalised to      41.0000
     Starting wfcs are   29 randomized atomic wfcs +   35 random wfcs
     Checking if some PAW data can be deallocated...

     Self-consistent Calculation

     iteration #  1     ecut=    30.00 Ry     beta= 0.70
     Davidson diagonalization with overlap

     ethr =  1.00E-02,  avg # of iterations =  6.9

     total energy              =    -397.87755112 Ry
     estimated scf accuracy    <       1.05012269 Ry

     total magnetization       =     1.00 Bohr mag/cell
     absolute magnetization    =     1.00 Bohr mag/cell

[...]

     total energy              =    -398.33217976 Ry
     estimated scf accuracy    <       0.00000143 Ry

[...]

     iteration #  9     ecut=    30.00 Ry     beta= 0.70
     Davidson diagonalization with overlap

     ethr =  3.50E-09,  avg # of iterations =  2.0

     Magnetic moment per site  (integrated on atomic sphere of radius R)
     atom   1 (R=0.157)  charge=  8.3885  magn=  0.7042
     atom   2 (R=0.082)  charge=  0.3856  magn=  0.0016
     atom   3 (R=0.082)  charge=  0.3856  magn=  0.0016
     atom   4 (R=0.082)  charge=  0.3856  magn=  0.0016
     atom   5 (R=0.082)  charge=  0.3856  magn=  0.0016
     atom   6 (R=0.082)  charge=  2.0182  magn=  0.0261
     atom   7 (R=0.082)  charge=  2.0182  magn=  0.0261
     atom   8 (R=0.133)  charge=  5.5997  magn=  0.0751
     atom   9 (R=0.133)  charge=  5.5997  magn=  0.0751

     End of self-consistent calculation

 ------ SPIN UP ------------

          k = 0.0000 0.0000 0.0000 (  1475 PWs)   bands (ev):

   -20.4125 -20.0766 -17.8924 -17.8771  -6.4591  -5.8293  -5.2428  -3.9016
    -3.1920  -1.8238  -1.4444  -1.0444  -0.8943  -0.7992  -0.5720  -0.0547
     0.2171   0.2786   0.9502   1.0622   1.6753   5.8059   9.8427  11.3452
    11.8782  13.2545  13.4538  14.3578  15.3441  15.5101  16.2128  17.0234
    17.2976  18.7609  19.9781  21.4879  21.7105  22.2146  23.8056  25.2728
    25.5089  26.0808  26.4620  26.4693  27.6768  28.1623  28.2217  28.4600
    29.5129  29.5274  29.8714  31.8193  32.2650  32.9717  33.0496  33.2893
    34.8496  35.0101  35.2422  35.7523  36.2133  36.9656  37.1646  38.5205

     occupation numbers
     1.0000   1.0000   1.0000   1.0000   1.0000   1.0000   1.0000   1.0000
     1.0000   1.0000   1.0000   1.0000   1.0000   1.0000   1.0000   1.0000
     1.0000   1.0000   1.0000   1.0000   1.0000   0.0000   0.0000   0.0000
     0.0000   0.0000   0.0000   0.0000   0.0000   0.0000   0.0000   0.0000
     0.0000   0.0000   0.0000   0.0000   0.0000   0.0000   0.0000   0.0000
     0.0000   0.0000   0.0000   0.0000   0.0000   0.0000   0.0000   0.0000
     0.0000   0.0000   0.0000   0.0000   0.0000   0.0000   0.0000   0.0000
     0.0000   0.0000   0.0000   0.0000   0.0000   0.0000   0.0000   0.0000

[...]

 ------ SPIN DOWN ----------

[...]

          k = 0.3333-0.3097-0.5289 (  1474 PWs)   bands (ev):

   -20.0388 -19.9949 -17.8630 -17.7315  -6.0890  -6.0223  -4.5317  -3.5687
    -2.4272  -2.1411  -1.6697  -1.4023  -1.2927  -0.8728  -0.4935  -0.1065
     0.2778   0.9290   1.2726   1.3923   2.9122   9.2107   9.9851  11.5369
    11.8196  12.1651  13.4606  14.2559  14.9454  15.1572  15.7543  16.3284
    16.4711  18.7893  20.9634  21.3710  21.6933  23.3112  23.6808  24.5706
    25.5511  25.8282  26.1716  26.8313  27.7407  28.4658  29.0477  29.8044
    30.5728  30.6405  31.4706  32.2776  32.7949  34.0127  34.9227  35.4621
    35.7239  36.8904  37.1254  37.5319  38.0316  38.3299  39.0630  39.4229

     occupation numbers
     1.0000   1.0000   1.0000   1.0000   1.0000   1.0000   1.0000   1.0000
     1.0000   1.0000   1.0000   1.0000   1.0000   1.0000   1.0000   1.0000
     1.0000   1.0000   1.0000   1.0000   0.0000   0.0000   0.0000   0.0000
     0.0000   0.0000   0.0000   0.0000   0.0000   0.0000   0.0000   0.0000
     0.0000   0.0000   0.0000   0.0000   0.0000   0.0000   0.0000   0.0000
     0.0000   0.0000   0.0000   0.0000   0.0000   0.0000   0.0000   0.0000
     0.0000   0.0000   0.0000   0.0000   0.0000   0.0000   0.0000   0.0000
     0.0000   0.0000   0.0000   0.0000   0.0000   0.0000   0.0000   0.0000

     highest occupied, lowest unoccupied level (ev):     1.6993    2.5275

!    total energy              =    -398.33218013 Ry
     estimated scf accuracy    <       0.00000013 Ry

     The total energy is the sum of the following terms:
     one-electron contribution =    -159.48810685 Ry
     hartree contribution      =     108.18019256 Ry
     xc contribution           =     -80.99056777 Ry
     ewald contribution        =    -157.18326473 Ry
     one-center paw contrib.   =    -108.85043335 Ry
      -> PAW hartree energy AE =      94.80632955 Ry
      -> PAW hartree energy PS =     -94.09430976 Ry
      -> PAW xc energy AE      =    -134.69950365 Ry
      -> PAW xc energy PS      =      44.14305020 Ry
      -> total E_H with PAW    =     108.89221235 Ry
      -> total E_XC with PAW   =    -171.54702122 Ry

     total magnetization       =     1.00 Bohr mag/cell
     absolute magnetization    =     1.06 Bohr mag/cell

     convergence has been achieved in   9 iterations

     Writing all to output data dir bands_nm/myprefix.save/

     General routines

     Parallel routines

     PAW routines

   This run was terminated on:  14:22:41  15Jul2023

   JOB DONE.