     Program PWSCF v.7.1 starts on 14Jul2023 at  2: 5:53

     Reading input from espresso_6638.pwi
Warning: card &CELL ignored
Warning: card / ignored

     Current dimensions of program PWSCF are:
     Max number of different atomic species (ntypx) = 10
     Max number of k-points (npk) =  40000
     Max angular momentum in pseudopotentials (lmaxx) =  4
     file Pm.paw.z_15.atompaw.wentzcovitch.v1.2.upf: wavefunction(s)  6S 0P 5D 0D 4F 0F renormalized
     Message from routine setup:
     using ibrav=0 with symmetry is DISCOURAGED, use correct ibrav instead

     K-points division:     npool     =       2
     R & G space division:  proc/nbgrp/npool/nimage =       4
     Subspace diagonalization in iterative solution of the eigenvalue problem:
     a serial algorithm will be used

     Using Slab Decomposition

     bravais-lattice index     =            0
     lattice parameter (alat)  =      18.3439  a.u.
     unit-cell volume          =    2063.4464 (a.u.)^3
     number of atoms/cell      =            8
     number of atomic types    =            2
     number of electrons       =        72.00
     number of Kohn-Sham states=           64
     kinetic-energy cutoff     =      30.0000  Ry
     charge density cutoff     =     240.0000  Ry
     scf convergence threshold =      1.0E-06
     mixing beta               =       0.7000
     number of iterations used =            8  plain     mixing
     Exchange-correlation=  SLA  PW   PBX  PBC
                           (   1   4   3   4   0   0   0)

     celldm(1)=  18.343852  celldm(2)=   0.000000  celldm(3)=   0.000000
     celldm(4)=   0.000000  celldm(5)=   0.000000  celldm(6)=   0.000000

     crystal axes: (cart. coord. in units of alat)
               a(1) = (   1.000000   0.000000   0.000000 )
               a(2) = (  -0.500000   0.866025   0.000000 )
               a(3) = (   0.000000   0.000000   0.386003 )

     reciprocal axes: (cart. coord. in units 2 pi/alat)
               b(1) = (  1.000000  0.577350  0.000000 )
               b(2) = (  0.000000  1.154701  0.000000 )
               b(3) = (  0.000000  0.000000  2.590652 )

     PseudoPot. # 1 for Pm read from file:
     /lustre07/scratch/pragov/crystal_structure_design/utils/SSSP/Pm.paw.z_15.atompaw.wentzcovitch.v1.2.upf
     MD5 check sum: 73dcdc0c9fe91f97d1fdb9924a622ccb
     Pseudo is Projector augmented-wave + core cor, Zval = 15.0
     Generated using ATOMPAW code
     Shape of augmentation charge: BESSEL
     Using radial grid of 1106 points,  8 beta functions with:
                l(1) =   0
                l(2) =   0
                l(3) =   1
                l(4) =   1
                l(5) =   2
                l(6) =   2
                l(7) =   3
                l(8) =   3
     Q(r) pseudized with 0 coefficients

     PseudoPot. # 2 for Cl read from file:
     /lustre07/scratch/pragov/crystal_structure_design/utils/SSSP/cl_pbe_v1.4.uspp.F.UPF
     MD5 check sum: fc6f6913ecf08c9257cb748ef0700058
     Pseudo is Ultrasoft + core correction, Zval =  7.0
     Generated by new atomic code, or converted to UPF format
     Using radial grid of  909 points,  6 beta functions with:
                l(1) =   0
                l(2) =   0
                l(3) =   1
                l(4) =   1
                l(5) =   2
                l(6) =   2
     Q(r) pseudized with  8 coefficients,  rinner =    1.300   1.300   1.300
                                                       1.300   1.300

     atomic species   valence    mass     pseudopotential
        Pm            15.00   144.91276     Pm( 1.00)
        Cl             7.00    35.45000     Cl( 1.00)

     24 Sym. Ops., with inversion, found (12 have fractional translation)

                                    s                        frac. trans.

      isym =  1     identity

 cryst.   s( 1) = (     1          0          0      )
                  (     0          1          0      )
                  (     0          0          1      )

 cart.    s( 1) = (  1.0000000 -0.0000000  0.0000000 )
                  (  0.0000000  1.0000000  0.0000000 )
                  (  0.0000000  0.0000000  1.0000000 )

      isym =  2     180 deg rotation - cart. axis [0,0,1]

 cryst.   s( 2) = (    -1          0          0      )    f =(  0.0000000 )
                  (     0         -1          0      )       ( -0.0000000 )
                  (     0          0          1      )       (  0.5000000 )

 cart.    s( 2) = ( -1.0000000  0.0000000  0.0000000 )    f =(  0.0000000 )
                  (  0.0000000 -1.0000000  0.0000000 )       ( -0.0000000 )
                  (  0.0000000  0.0000000  1.0000000 )       (  0.1930016 )

[...]

      isym =  4     180 deg rotation - cart. axis [1,0,0]

[...]

      isym =  5      60 deg rotation - cryst. axis [0,0,1]

[...]

 cryst.   s( 8) = (    -1         -1          0      )
                  (     1          0          0      )
                  (     0          0          1      )

 cart.    s( 8) = ( -0.5000000  0.8660254  0.0000000 )
                  ( -0.8660254 -0.5000000  0.0000000 )
                  (  0.0000000  0.0000000  1.0000000 )

[...]

 cryst.   s( 9) = (     0         -1          0      )    f =( -0.0000000 )
                  (    -1          0          0      )       ( -0.0000000 )
                  (     0          0         -1      )       (  0.5000000 )

 cart.    s( 9) = (  0.5000000 -0.8660254  0.0000000 )    f =( -0.0000000 )
                  ( -0.8660254 -0.5000000  0.0000000 )       ( -0.0000000 )
                  (  0.0000000  0.0000000 -1.0000000 )       (  0.1930016 )

[...]

 cryst.   s(10) = (     1          1          0      )    f =(  0.0000000 )
                  (     0         -1          0      )       (  0.0000010 )
                  (     0          0         -1      )       (  0.5000000 )

 cart.    s(10) = (  0.5000000  0.8660254  0.0000000 )    f =( -0.0000005 )
                  (  0.8660254 -0.5000000  0.0000000 )       (  0.0000009 )
                  (  0.0000000  0.0000000 -1.0000000 )       (  0.1930016 )

[...]

 cryst.   s(11) = (    -1         -1          0      )
                  (     0          1          0      )
                  (     0          0         -1      )

 cart.    s(11) = ( -0.5000000 -0.8660254  0.0000000 )
                  ( -0.8660254  0.5000000  0.0000000 )
                  (  0.0000000  0.0000000 -1.0000000 )

      isym = 12     180 deg rotation - cryst. axis [1,1,0]

[...]

      isym = 13     inversion

[...]

      isym = 14     inv. 180 deg rotation - cart. axis [0,0,1]

[...]

      isym = 16     inv. 180 deg rotation - cart. axis [1,0,0]

[...]

      isym = 17     inv.  60 deg rotation - cryst. axis [0,0,1]

[...]

 cryst.   s(22) = (    -1         -1          0      )    f =(  0.0000000 )
                  (     0          1          0      )       (  0.0000010 )
                  (     0          0          1      )       (  0.5000000 )

 cart.    s(22) = ( -0.5000000 -0.8660254  0.0000000 )    f =( -0.0000005 )
                  ( -0.8660254  0.5000000  0.0000000 )       (  0.0000009 )
                  (  0.0000000  0.0000000  1.0000000 )       (  0.1930016 )

[...]

      isym = 24     inv. 180 deg rotation - cryst. axis [1,1,0]

 cryst.   s(24) = (     0         -1          0      )
                  (    -1          0          0      )
                  (     0          0          1      )

 cart.    s(24) = (  0.5000000 -0.8660254  0.0000000 )
                  ( -0.8660254 -0.5000000  0.0000000 )
                  (  0.0000000  0.0000000  1.0000000 )

   Cartesian axes

     site n.     atom                  positions (alat units)
         1           Pm  tau(   1) = (   0.5000005   0.2886748   0.0965008  )
         2           Pm  tau(   2) = (  -0.0000005   0.5773505   0.2895025  )
         3           Cl  tau(   3) = (   0.6795880   0.1849900   0.2895025  )
         4           Cl  tau(   4) = (   0.3204110   0.1849900   0.2895025  )
         5           Cl  tau(   5) = (   0.4999995   0.4960464   0.2895025  )
         6           Cl  tau(   6) = (  -0.1795880   0.6810354   0.0965008  )
         7           Cl  tau(   7) = (   0.1795890   0.6810354   0.0965008  )
         8           Cl  tau(   8) = (   0.0000005   0.3699790   0.0965008  )

   Crystallographic axes

     site n.     atom                  positions (cryst. coord.)
         1           Pm  tau(   1) = (  0.6666670  0.3333330  0.2500000  )
         2           Pm  tau(   2) = (  0.3333330  0.6666670  0.7500000  )
         3           Cl  tau(   3) = (  0.7863920  0.2136080  0.7500000  )
         4           Cl  tau(   4) = (  0.4272150  0.2136080  0.7500000  )
         5           Cl  tau(   5) = (  0.7863920  0.5727850  0.7500000  )
         6           Cl  tau(   6) = (  0.2136080  0.7863920  0.2500000  )
         7           Cl  tau(   7) = (  0.5727850  0.7863920  0.2500000  )
         8           Cl  tau(   8) = (  0.2136080  0.4272150  0.2500000  )

     number of k points=     6
                       cart. coord. in units 2pi/alat
        k(    1) = (   0.0000000   0.0000000   0.0000000), wk =   0.0740741
        k(    2) = (   0.0000000   0.0000000   0.8635505), wk =   0.1481481
        k(    3) = (   0.0000000   0.3849002   0.0000000), wk =   0.4444444
        k(    4) = (   0.0000000   0.3849002   0.8635505), wk =   0.8888889
        k(    5) = (   0.3333333   0.5773503   0.0000000), wk =   0.1481481
        k(    6) = (   0.3333333   0.5773503   0.8635505), wk =   0.2962963

                       cryst. coord.
        k(    1) = (   0.0000000   0.0000000   0.0000000), wk =   0.0740741
        k(    2) = (   0.0000000   0.0000000   0.3333333), wk =   0.1481481
        k(    3) = (   0.0000000   0.3333333   0.0000000), wk =   0.4444444
        k(    4) = (   0.0000000   0.3333333   0.3333333), wk =   0.8888889
        k(    5) = (   0.3333333   0.3333333   0.0000000), wk =   0.1481481
        k(    6) = (   0.3333333   0.3333333   0.3333333), wk =   0.2962963

     Initial potential from superposition of free atoms

     starting charge      71.9896, renormalised to      72.0000

     negative rho (up, down):  9.116E-02 0.000E+00
     Starting wfcs are   88 randomized atomic wfcs
     Checking if some PAW data can be deallocated...

     Self-consistent Calculation

     iteration #  1     ecut=    30.00 Ry     beta= 0.70
     Davidson diagonalization with overlap

     ethr =  1.00E-02,  avg # of iterations =  8.8

     Threshold (ethr) on eigenvalues was too large:
     Diagonalizing with lowered threshold

     Davidson diagonalization with overlap

[...]

     negative rho (up, down):  9.353E-02 0.000E+00

     total energy              =   -1338.95139745 Ry
     estimated scf accuracy    <       0.29507184 Ry

[...]

     total energy              =   -1339.13276540 Ry
     estimated scf accuracy    <       0.00022885 Ry

     iteration #324     ecut=    30.00 Ry     beta= 0.70
     Davidson diagonalization with overlap

     ethr =  1.66E-09,  avg # of iterations =  1.0

     negative rho (up, down):  9.163E-02 0.000E+00

     End of self-consistent calculation

          k = 0.0000 0.0000 0.0000 (  5689 PWs)   bands (ev):

   -36.2839 -36.2837 -16.8878 -16.8877 -16.8857 -16.8857 -16.5680 -16.5676
   -12.8156 -12.6969 -12.2111 -12.2110 -12.1527 -12.1527  -2.3007  -2.0131
    -1.2396  -1.2395  -0.9929  -0.9929  -0.8796  -0.8794  -0.8353  -0.8351
    -0.5649  -0.4463  -0.4462  -0.2786  -0.2786  -0.2702  -0.1217   0.1996
     2.0166   2.0167   2.0206   2.0207   2.0247   2.0349   2.0627   2.0798
     2.2251   2.2251   2.2419   2.2419   2.2493   2.2626   4.2445   4.6752
     6.0317   6.0317   6.3644   6.3644   6.3774   7.3217   7.3217   7.3861
     7.3862   8.8372   8.8469   8.8469   8.9833   8.9833   9.0790  11.0779

     occupation numbers
     1.0000   1.0000   1.0000   1.0000   1.0000   1.0000   1.0000   1.0000
     1.0000   1.0000   1.0000   1.0000   1.0000   1.0000   1.0000   1.0000
     1.0000   1.0000   1.0000   1.0000   1.0000   1.0000   1.0000   1.0000
     1.0000   1.0000   1.0000   1.0000   1.0000   1.0000   1.0000   1.0000
     1.0000   1.0000   1.0000   1.0000   0.0000   0.0000   0.0000   0.0000
     0.0000   0.0000   0.0000   0.0000   0.0000   0.0000   0.0000   0.0000
     0.0000   0.0000   0.0000   0.0000   0.0000   0.0000   0.0000   0.0000
     0.0000   0.0000   0.0000   0.0000   0.0000   0.0000   0.0000   0.0000

[...]

          k = 0.3333 0.5774 0.8636 (  5712 PWs)   bands (ev):

   -36.2599 -36.2597 -17.1626 -17.1624 -16.7235 -16.7219 -16.7217 -16.7201
   -12.4109 -12.3847 -12.3844 -12.3566 -12.1823 -12.1820  -1.6987  -1.6531
    -1.6530  -1.5085  -1.5084  -1.4281  -1.1396  -1.1394  -0.9201  -0.9133
    -0.8542  -0.8539  -0.5224  -0.3694  -0.3692  -0.2385   0.0187   0.0190
     1.7847   1.7848   2.0048   2.0050   2.0145   2.0299   2.0301   2.0481
     2.1558   2.1560   2.1561   2.1562   2.3108   2.3111   5.9530   5.9532
     6.0577   6.1002   6.4433   6.4435   7.0874   7.4826   7.4828   7.7269
     8.9644   8.9644   9.5663  10.1064  10.1675  10.1676  10.8013  10.8013

     occupation numbers
     1.0000   1.0000   1.0000   1.0000   1.0000   1.0000   1.0000   1.0000
     1.0000   1.0000   1.0000   1.0000   1.0000   1.0000   1.0000   1.0000
     1.0000   1.0000   1.0000   1.0000   1.0000   1.0000   1.0000   1.0000
     1.0000   1.0000   1.0000   1.0000   1.0000   1.0000   1.0000   1.0000
     1.0000   1.0000   1.0000   1.0000   0.0000   0.0000   0.0000   0.0000
     0.0000   0.0000   0.0000   0.0000   0.0000   0.0000   0.0000   0.0000
     0.0000   0.0000   0.0000   0.0000   0.0000   0.0000   0.0000   0.0000
     0.0000   0.0000   0.0000   0.0000   0.0000   0.0000   0.0000   0.0000

     highest occupied, lowest unoccupied level (ev):     2.0238    2.0108

!    total energy              =   -1339.13276547 Ry
     estimated scf accuracy    <          6.7E-09 Ry

     The total energy is the sum of the following terms:
     one-electron contribution =    -347.05193491 Ry
     hartree contribution      =     204.39092086 Ry
     xc contribution           =     -88.32506412 Ry
     ewald contribution        =    -228.37296398 Ry
     one-center paw contrib.   =    -879.77372331 Ry
      -> PAW hartree energy AE =     100.44220288 Ry
      -> PAW hartree energy PS =     -98.83523632 Ry
      -> PAW xc energy AE      =    -455.95554177 Ry
      -> PAW xc energy PS      =      14.46171355 Ry
      -> total E_H with PAW    =     205.99788742 Ry
      -> total E_XC with PAW   =    -529.81889234 Ry

     convergence has been achieved in 324 iterations

     Writing all to output data dir bands_nm/myprefix.save/

     General routines

     Parallel routines

     PAW routines

   This run was terminated on:   2:11:43  14Jul2023

   JOB DONE.