     Program PWSCF v.7.1 starts on 15Jul2023 at 21:32:54

     Reading input from espresso_4637.pwi
Warning: card &CELL ignored
Warning: card / ignored

     Current dimensions of program PWSCF are:
     Max number of different atomic species (ntypx) = 10
     Max number of k-points (npk) =  40000
     Max angular momentum in pseudopotentials (lmaxx) =  4
     file K.pbe-spn-kjpaw_psl.1.0.0.UPF: wavefunction(s)  3S renormalized
     file La.paw.z_11.atompaw.wentzcovitch.v1.2.upf: wavefunction(s)  6S 0P 5D 0D 4F 0F renormalized
     file Nb.pbe-spn-kjpaw_psl.0.3.0.UPF: wavefunction(s)  4S 4P renormalized
     file O.pbe-n-kjpaw_psl.0.1.UPF: wavefunction(s)  2P renormalized
     Message from routine setup:
     using ibrav=0 with symmetry is DISCOURAGED, use correct ibrav instead

     K-points division:     npool     =       2
     R & G space division:  proc/nbgrp/npool/nimage =       4
     Subspace diagonalization in iterative solution of the eigenvalue problem:
     one sub-group per band group will be used

     Using Slab Decomposition

     bravais-lattice index     =            0
     lattice parameter (alat)  =      10.7440  a.u.
     unit-cell volume          =    1740.6412 (a.u.)^3
     number of atoms/cell      =           18
     number of atomic types    =            4
     number of electrons       =       144.00
     number of Kohn-Sham states=          256
     kinetic-energy cutoff     =      30.0000  Ry
     charge density cutoff     =     240.0000  Ry
     scf convergence threshold =      1.0E-06
     mixing beta               =       0.7000
     number of iterations used =            8  plain     mixing
     Exchange-correlation= SLA  PW   PBX  PBC
                           (   1   4   3   4   0   0   0)

     celldm(1)=  10.743986  celldm(2)=   0.000000  celldm(3)=   0.000000
     celldm(4)=   0.000000  celldm(5)=   0.000000  celldm(6)=   0.000000

     crystal axes: (cart. coord. in units of alat)
               a(1) = (   1.000000   0.000000   0.000000 )
               a(2) = (  -0.029078   0.999577   0.000000 )
               a(3) = (   0.000000   0.000000   1.404095 )

     reciprocal axes: (cart. coord. in units 2 pi/alat)
               b(1) = (  1.000000  0.029091  0.000000 )
               b(2) = (  0.000000  1.000423  0.000000 )
               b(3) = (  0.000000  0.000000  0.712202 )

     PseudoPot. # 1 for K  read from file:
     /lustre07/scratch/pragov/crystal_structure_design/utils/SSSP/K.pbe-spn-kjpaw_psl.1.0.0.UPF
     MD5 check sum: 7d58810084cac21f60fbe77ea2b688fd
     Pseudo is Projector augmented-wave + core cor, Zval =  9.0
     Generated using "atomic" code by A. Dal Corso  v.5.1
     Shape of augmentation charge: PSQ
     Using radial grid of 1165 points,  6 beta functions with:
                l(1) =   0
                l(2) =   0
                l(3) =   1
                l(4) =   1
                l(5) =   2
                l(6) =   2
     Q(r) pseudized with 0 coefficients

     PseudoPot. # 2 for La read from file:
     /lustre07/scratch/pragov/crystal_structure_design/utils/SSSP/La.paw.z_11.atompaw.wentzcovitch.v1.2.upf
     MD5 check sum: 754494e15ae71f30e5b5f678af019e01
     Pseudo is Projector augmented-wave + core cor, Zval = 11.0
     Generated using ATOMPAW code
     Shape of augmentation charge: BESSEL
     Using radial grid of 1101 points,  8 beta functions with:
                l(1) =   0
                l(2) =   0
                l(3) =   1
                l(4) =   1
                l(5) =   2
                l(6) =   2
                l(7) =   3
                l(8) =   3
     Q(r) pseudized with 0 coefficients

     PseudoPot. # 3 for Nb read from file:
     /lustre07/scratch/pragov/crystal_structure_design/utils/SSSP/Nb.pbe-spn-kjpaw_psl.0.3.0.UPF
     MD5 check sum: 411d72ad547312f8017e2943ceca08cc
     Pseudo is Projector augmented-wave + core cor, Zval = 13.0
     Generated using "atomic" code by A. Dal Corso  v.5.0.99 svn rev. 10869
     Shape of augmentation charge: PSQ
     Using radial grid of 1227 points,  6 beta functions with:
                l(1) =   0
                l(2) =   0
                l(3) =   1
                l(4) =   1
                l(5) =   2
                l(6) =   2
     Q(r) pseudized with 0 coefficients

     PseudoPot. # 4 for O  read from file:
     /lustre07/scratch/pragov/crystal_structure_design/utils/SSSP/O.pbe-n-kjpaw_psl.0.1.UPF
     MD5 check sum: 0234752ac141de4415c5fc33072bef88
     Pseudo is Projector augmented-wave + core cor, Zval =  6.0
     Generated using "atomic" code by A. Dal Corso  v.5.0.99 svn rev. 10869
     Shape of augmentation charge: BESSEL
     Using radial grid of 1095 points,  4 beta functions with:
                l(1) =   0
                l(2) =   0
                l(3) =   1
                l(4) =   1
     Q(r) pseudized with 0 coefficients

     atomic species   valence    mass     pseudopotential
        K              9.00    39.09830     K ( 1.00)
        La            11.00   138.90547     La( 1.00)
        Nb            13.00    92.90637     Nb( 1.00)
        O              6.00    15.99900     O ( 1.00)

      2 Sym. Ops. (no inversion) found

                                    s                        frac. trans.

      isym =  1     identity

 cryst.   s( 1) = (     1          0          0      )
                  (     0          1          0      )
                  (     0          0          1      )

 cart.    s( 1) = (  1.0000000 -0.0000000  0.0000000 )
                  (  0.0000000  1.0000000  0.0000000 )
                  (  0.0000000  0.0000000  1.0000000 )

      isym =  2     inv. 180 deg rotation - cart. axis [0,0,1]

 cryst.   s( 2) = (     1          0          0      )
                  (     0          1          0      )
                  (     0          0         -1      )

 cart.    s( 2) = (  1.0000000 -0.0000000  0.0000000 )
                  (  0.0000000  1.0000000  0.0000000 )
                  (  0.0000000  0.0000000 -1.0000000 )

   Cartesian axes

     site n.     atom                  positions (alat units)
         1           K   tau(   1) = (   0.9954265   0.0044424   0.7020477  )
         2           La  tau(   2) = (   0.4715978   0.5132541   0.0000000  )
         3           Nb  tau(   3) = (   0.4883897   0.0163078   0.3542305  )
         4           Nb  tau(   4) = (   0.4883897   0.0163078   1.0498650  )
         5           Nb  tau(   5) = (   0.9688222   0.5109198   1.0498650  )
         6           Nb  tau(   6) = (   0.9688222   0.5109198   0.3542305  )
         7           O   tau(   7) = (   0.2707607   0.2685547   0.3317145  )
         8           O   tau(   8) = (   0.7103537   0.7211218   0.3317145  )
         9           O   tau(   9) = (   0.7103537   0.7211218   1.0723810  )
        10           O   tau(  10) = (   0.2707607   0.2685547   1.0723810  )
        11           O   tau(  11) = (   0.2304497   0.7474890   0.3004657  )
        12           O   tau(  12) = (   0.7625270   0.2306652   0.3691911  )
        13           O   tau(  13) = (   0.7625270   0.2306652   1.0349044  )
        14           O   tau(  14) = (   0.2304497   0.7474890   1.1036298  )
        15           O   tau(  15) = (   0.5272720   0.0256804   0.0000000  )
        16           O   tau(  16) = (   0.4514538   0.9797246   0.7020477  )
        17           O   tau(  17) = (   0.9605843   0.4717814   0.0000000  )
        18           O   tau(  18) = (   0.0047388   0.5198254   0.7020477  )

   Crystallographic axes

     site n.     atom                  positions (cryst. coord.)
         1           K   tau(   1) = (  0.9955557  0.0044443  0.5000000  )
         2           La  tau(   2) = (  0.4865288  0.5134712  0.0000000  )
         3           Nb  tau(   3) = (  0.4888641  0.0163147  0.2522837  )
         4           Nb  tau(   4) = (  0.4888641  0.0163147  0.7477163  )
         5           Nb  tau(   5) = (  0.9836853  0.5111359  0.7477163  )
         6           Nb  tau(   6) = (  0.9836853  0.5111359  0.2522837  )
         7           O   tau(   7) = (  0.2785731  0.2686683  0.2362478  )
         8           O   tau(   8) = (  0.7313317  0.7214269  0.2362478  )
         9           O   tau(   9) = (  0.7313317  0.7214269  0.7637522  )
        10           O   tau(  10) = (  0.2785731  0.2686683  0.7637522  )
        11           O   tau(  11) = (  0.2521947  0.7478053  0.2139923  )
        12           O   tau(  12) = (  0.7692372  0.2307628  0.2629387  )
        13           O   tau(  13) = (  0.7692372  0.2307628  0.7370613  )
        14           O   tau(  14) = (  0.2521947  0.7478053  0.7860077  )
        15           O   tau(  15) = (  0.5280190  0.0256913  0.0000000  )
        16           O   tau(  16) = (  0.4799547  0.9801391  0.5000000  )
        17           O   tau(  17) = (  0.9743088  0.4719810  0.0000000  )
        18           O   tau(  18) = (  0.0198609  0.5200453  0.5000000  )

     number of k points=    10
                       cart. coord. in units 2pi/alat
        k(    1) = (   0.0000000   0.0000000   0.0000000), wk =   0.0740741
        k(    2) = (   0.0000000   0.0000000   0.2374008), wk =   0.1481481
        k(    3) = (   0.0000000   0.3334743   0.0000000), wk =   0.1481481
        k(    4) = (   0.0000000   0.3334743   0.2374008), wk =   0.2962963
        k(    5) = (   0.3333333   0.0096969   0.0000000), wk =   0.1481481
        k(    6) = (   0.3333333   0.0096969   0.2374008), wk =   0.2962963
        k(    7) = (   0.3333333   0.3431713   0.0000000), wk =   0.1481481
        k(    8) = (   0.3333333   0.3431713   0.2374008), wk =   0.2962963
        k(    9) = (   0.3333333  -0.3237774   0.0000000), wk =   0.1481481
        k(   10) = (   0.3333333  -0.3237774   0.2374008), wk =   0.2962963

                       cryst. coord.
        k(    1) = (   0.0000000   0.0000000   0.0000000), wk =   0.0740741
        k(    2) = (   0.0000000   0.0000000   0.3333333), wk =   0.1481481
        k(    3) = (   0.0000000   0.3333333   0.0000000), wk =   0.1481481
        k(    4) = (   0.0000000   0.3333333   0.3333333), wk =   0.2962963
        k(    5) = (   0.3333333  -0.0000000   0.0000000), wk =   0.1481481
        k(    6) = (   0.3333333  -0.0000000   0.3333333), wk =   0.2962963
        k(    7) = (   0.3333333   0.3333333   0.0000000), wk =   0.1481481
        k(    8) = (   0.3333333   0.3333333   0.3333333), wk =   0.2962963
        k(    9) = (   0.3333333  -0.3333333   0.0000000), wk =   0.1481481
        k(   10) = (   0.3333333  -0.3333333   0.3333333), wk =   0.2962963

     Check: negative core charge=   -0.000019

     Initial potential from superposition of free atoms

     starting charge     143.9641, renormalised to     144.0000

     negative rho (up, down):  6.537E-05 0.000E+00
     Starting wfcs are  128 randomized atomic wfcs +  128 random wfcs
     Checking if some PAW data can be deallocated...

     Self-consistent Calculation

     iteration #  1     ecut=    30.00 Ry     beta= 0.70
     Davidson diagonalization with overlap

     ethr =  1.00E-02,  avg # of iterations =  7.3

     negative rho (up, down):  3.459E-04 0.000E+00

     total energy              =   -2404.90163988 Ry
     estimated scf accuracy    <       8.68864344 Ry

[...]

     total energy              =   -2409.43213302 Ry
     estimated scf accuracy    <       0.00000192 Ry

     iteration # 12     ecut=    30.00 Ry     beta= 0.70
     Davidson diagonalization with overlap

     ethr =  1.34E-09,  avg # of iterations =  1.0

     negative rho (up, down):  2.273E-04 0.000E+00

     End of self-consistent calculation

          k = 0.0000 0.0000 0.0000 (  4855 PWs)   bands (ev):

   -47.7384 -47.7359 -47.7338 -47.7315 -23.9545 -23.9470 -23.9447 -23.9250
   -23.9222 -23.9052 -23.8515 -23.8484 -23.7908 -23.7868 -23.7798 -23.7649
   -23.4208 -20.3201 -10.2714 -10.0604  -9.6834  -9.6578  -9.5850  -9.5730
    -9.2234  -8.9588  -8.8902  -8.7695  -8.6458  -8.6169  -6.8777  -6.7917
    -6.6908  -3.9387  -3.8991  -3.8786   2.0043   2.1546   2.1951   2.2153
     2.4588   2.7823   2.8668   3.3346   3.4400   3.4673   4.1291   4.2186
     4.3624   4.5418   4.9748   4.9873   5.0914   5.1456   5.1827   5.1832
     5.3759   5.6427   5.6843   5.7373   5.8808   5.9288   5.9458   6.0531
     6.1344   6.3732   6.3973   6.5282   7.0349   7.0949   7.1702   7.2764
     9.0153   9.4030   9.6451   9.7176  11.1884  11.2535  11.3729  11.4053
    11.4773  11.4786  11.4866  11.5265  11.6298  11.7186  11.7825  11.8673
    12.1361  12.1974  12.3874  12.7601  12.9275  12.9863  13.0576  13.4447
    13.5920  13.9891  14.1036  14.1644  14.6802  15.0362  16.0912  16.8214
    16.8405  16.8800  17.1140  17.3237  17.3488  17.7664  17.8981  18.0316
    18.2750  18.6251  18.9098  19.1433  20.9483  21.0182  21.6855  21.9159
    22.0580  22.2285  22.2802  22.5287  22.6016  22.6605  22.9573  23.2497
    23.2687  23.3361  23.6070  23.7221  23.9904  24.2295  24.3124  24.3665
    24.5812  24.6373  24.9217  25.0795  26.2373  26.4522  26.8547  26.9337
    27.3529  27.6034  28.0366  28.5916  28.5991  28.6371  28.9723  29.1209
    29.1895  29.2649  29.4814  29.7734  29.9258  29.9368  30.3211  30.4217
    30.5343  30.5954  30.6778  30.8326  30.8716  31.2113  31.2140  31.7632
    32.2254  32.3156  32.3774  33.1841  33.3014  33.3035  33.5063  34.0090
    34.0804  34.1448  35.0818  35.2219  35.4610  35.6275  35.6864  35.9479
    36.3538  36.4209  36.4353  36.6094  36.6853  36.9316  37.2711  37.5005
    37.5480  37.8465  37.8668  37.8844  37.9084  38.1863  38.2665  38.5104
    38.6448  38.7952  38.8776  38.9585  39.2302  39.3719  39.4876  39.5399
    39.5611  39.6058  39.6106  39.7761  40.0134  40.0546  40.4411  40.4733
    40.5111  40.8074  40.8236  41.0259  41.0610  41.1146  41.3492  41.5942
    42.0219  42.1086  42.1362  42.1897  42.2341  42.3508  42.6886  42.9183
    43.0562  43.1064  43.2742  43.4977  43.5934  44.1909  44.3436  44.3785
    44.4658  44.5159  44.6880  45.0932  45.1585  45.1878  45.3375  45.7167
    45.8532  45.9001  45.9529  46.1466  46.3444  46.4770  46.7677  46.9742

     occupation numbers
     1.0000   1.0000   1.0000   1.0000   1.0000   1.0000   1.0000   1.0000
     1.0000   1.0000   1.0000   1.0000   1.0000   1.0000   1.0000   1.0000
     1.0000   1.0000   1.0000   1.0000   1.0000   1.0000   1.0000   1.0000
     1.0000   1.0000   1.0000   1.0000   1.0000   1.0000   1.0000   1.0000
     1.0000   1.0000   1.0000   1.0000   1.0000   1.0000   1.0000   1.0000
     1.0000   1.0000   1.0000   1.0000   1.0000   1.0000   1.0000   1.0000
     1.0000   1.0000   1.0000   1.0000   1.0000   1.0000   1.0000   1.0000
     1.0000   1.0000   1.0000   1.0000   1.0000   1.0000   1.0000   1.0000
     1.0000   1.0000   1.0000   1.0000   1.0000   1.0000   1.0000   1.0000
     0.0000   0.0000   0.0000   0.0000   0.0000   0.0000   0.0000   0.0000
     0.0000   0.0000   0.0000   0.0000   0.0000   0.0000   0.0000   0.0000
     0.0000   0.0000   0.0000   0.0000   0.0000   0.0000   0.0000   0.0000
     0.0000   0.0000   0.0000   0.0000   0.0000   0.0000   0.0000   0.0000
     0.0000   0.0000   0.0000   0.0000   0.0000   0.0000   0.0000   0.0000
     0.0000   0.0000   0.0000   0.0000   0.0000   0.0000   0.0000   0.0000
     0.0000   0.0000   0.0000   0.0000   0.0000   0.0000   0.0000   0.0000
     0.0000   0.0000   0.0000   0.0000   0.0000   0.0000   0.0000   0.0000
     0.0000   0.0000   0.0000   0.0000   0.0000   0.0000   0.0000   0.0000
     0.0000   0.0000   0.0000   0.0000   0.0000   0.0000   0.0000   0.0000
     0.0000   0.0000   0.0000   0.0000   0.0000   0.0000   0.0000   0.0000
     0.0000   0.0000   0.0000   0.0000   0.0000   0.0000   0.0000   0.0000
     0.0000   0.0000   0.0000   0.0000   0.0000   0.0000   0.0000   0.0000
     0.0000   0.0000   0.0000   0.0000   0.0000   0.0000   0.0000   0.0000
     0.0000   0.0000   0.0000   0.0000   0.0000   0.0000   0.0000   0.0000
     0.0000   0.0000   0.0000   0.0000   0.0000   0.0000   0.0000   0.0000
     0.0000   0.0000   0.0000   0.0000   0.0000   0.0000   0.0000   0.0000
     0.0000   0.0000   0.0000   0.0000   0.0000   0.0000   0.0000   0.0000
     0.0000   0.0000   0.0000   0.0000   0.0000   0.0000   0.0000   0.0000
     0.0000   0.0000   0.0000   0.0000   0.0000   0.0000   0.0000   0.0000
     0.0000   0.0000   0.0000   0.0000   0.0000   0.0000   0.0000   0.0000
     0.0000   0.0000   0.0000   0.0000   0.0000   0.0000   0.0000   0.0000
     0.0000   0.0000   0.0000   0.0000   0.0000   0.0000   0.0000   0.0000

[...]

          k = 0.3333-0.3238 0.2374 (  4812 PWs)   bands (ev):

   -47.7364 -47.7350 -47.7344 -47.7332 -23.9764 -23.9436 -23.9180 -23.9147
   -23.8879 -23.8796 -23.8737 -23.8652 -23.8122 -23.8113 -23.7825 -23.7774
   -23.4011 -20.3180 -10.0357  -9.9470  -9.9301  -9.5678  -9.4376  -9.3766
    -9.3584  -9.1129  -9.0224  -8.9425  -8.8018  -8.7744  -6.7055  -6.6869
    -6.5919  -3.8819  -3.8620  -3.8137   2.1614   2.2147   2.6834   2.8129
     2.9634   2.9977   3.1615   3.5772   3.7132   3.7854   3.9672   4.0139
     4.0542   4.1998   4.4027   4.4369   4.6539   4.6695   4.7339   4.8742
     5.2899   5.3639   5.5363   5.6254   5.6905   5.7964   5.9485   6.0435
     6.1137   6.2208   6.2848   6.3343   6.4123   6.5246   6.8546   7.1905
     9.7913  10.1883  10.7109  10.8235  10.8921  11.0134  11.1501  11.2422
    11.2980  11.4026  11.4635  11.4788  11.5203  11.6687  11.7001  11.7509
    11.7549  11.8693  12.0698  13.3862  13.6448  13.8873  13.9414  14.1512
    14.3442  14.4413  14.4486  15.1438  15.1711  15.6347  15.8302  16.2484
    16.3829  17.0098  17.0638  17.1735  17.3670  17.5368  17.5539  17.8197
    18.4543  18.4723  19.0829  19.4823  19.7402  20.1085  20.6518  21.5657
    22.0008  22.3356  22.4863  22.5809  22.8066  22.8342  22.9992  23.1446
    23.2454  23.4145  23.6051  23.6480  23.8778  23.9367  24.3385  24.4051
    24.8177  24.9462  25.4037  25.4495  26.0911  26.4209  26.7812  26.9964
    27.3175  27.7492  28.0600  28.1063  28.1626  28.3186  28.5964  28.7607
    28.9861  29.2445  29.3083  29.5793  29.5992  29.9373  30.0169  30.1213
    30.2476  30.3097  30.5239  30.8605  31.1591  31.3703  31.6260  32.0391
    32.2248  32.2716  32.5653  32.8588  33.0329  33.1856  33.4330  33.5021
    33.6026  33.9697  34.2206  34.6682  34.7581  34.9762  34.9821  35.4470
    35.7663  36.1005  36.4079  36.4333  36.6934  36.8180  37.0217  37.2878
    37.4759  37.6960  37.8008  37.9951  38.1287  38.4646  38.5165  38.5612
    38.7116  39.2023  39.2051  39.3232  39.4444  39.6163  39.9078  39.9546
    40.1757  40.2953  40.4388  40.6201  40.6607  40.8423  40.8745  41.1219
    41.2784  41.3293  41.4216  41.6429  41.6482  41.9362  41.9962  42.3243
    42.3754  42.5873  42.6695  42.7700  42.9046  43.2003  43.2068  43.3262
    43.5513  43.6393  43.7539  43.9171  44.1187  44.1338  44.2937  44.3198
    44.5222  44.6781  44.9803  45.1637  45.4076  45.4497  45.6901  45.7414
    45.9234  46.1299  46.1300  46.3345  46.4245  46.6531  46.8784  46.9943

     occupation numbers
     1.0000   1.0000   1.0000   1.0000   1.0000   1.0000   1.0000   1.0000
     1.0000   1.0000   1.0000   1.0000   1.0000   1.0000   1.0000   1.0000
     1.0000   1.0000   1.0000   1.0000   1.0000   1.0000   1.0000   1.0000
     1.0000   1.0000   1.0000   1.0000   1.0000   1.0000   1.0000   1.0000
     1.0000   1.0000   1.0000   1.0000   1.0000   1.0000   1.0000   1.0000
     1.0000   1.0000   1.0000   1.0000   1.0000   1.0000   1.0000   1.0000
     1.0000   1.0000   1.0000   1.0000   1.0000   1.0000   1.0000   1.0000
     1.0000   1.0000   1.0000   1.0000   1.0000   1.0000   1.0000   1.0000
     1.0000   1.0000   1.0000   1.0000   1.0000   1.0000   1.0000   1.0000
     0.0000   0.0000   0.0000   0.0000   0.0000   0.0000   0.0000   0.0000
     0.0000   0.0000   0.0000   0.0000   0.0000   0.0000   0.0000   0.0000
     0.0000   0.0000   0.0000   0.0000   0.0000   0.0000   0.0000   0.0000
     0.0000   0.0000   0.0000   0.0000   0.0000   0.0000   0.0000   0.0000
     0.0000   0.0000   0.0000   0.0000   0.0000   0.0000   0.0000   0.0000
     0.0000   0.0000   0.0000   0.0000   0.0000   0.0000   0.0000   0.0000
     0.0000   0.0000   0.0000   0.0000   0.0000   0.0000   0.0000   0.0000
     0.0000   0.0000   0.0000   0.0000   0.0000   0.0000   0.0000   0.0000
     0.0000   0.0000   0.0000   0.0000   0.0000   0.0000   0.0000   0.0000
     0.0000   0.0000   0.0000   0.0000   0.0000   0.0000   0.0000   0.0000
     0.0000   0.0000   0.0000   0.0000   0.0000   0.0000   0.0000   0.0000
     0.0000   0.0000   0.0000   0.0000   0.0000   0.0000   0.0000   0.0000
     0.0000   0.0000   0.0000   0.0000   0.0000   0.0000   0.0000   0.0000
     0.0000   0.0000   0.0000   0.0000   0.0000   0.0000   0.0000   0.0000
     0.0000   0.0000   0.0000   0.0000   0.0000   0.0000   0.0000   0.0000
     0.0000   0.0000   0.0000   0.0000   0.0000   0.0000   0.0000   0.0000
     0.0000   0.0000   0.0000   0.0000   0.0000   0.0000   0.0000   0.0000
     0.0000   0.0000   0.0000   0.0000   0.0000   0.0000   0.0000   0.0000
     0.0000   0.0000   0.0000   0.0000   0.0000   0.0000   0.0000   0.0000
     0.0000   0.0000   0.0000   0.0000   0.0000   0.0000   0.0000   0.0000
     0.0000   0.0000   0.0000   0.0000   0.0000   0.0000   0.0000   0.0000
     0.0000   0.0000   0.0000   0.0000   0.0000   0.0000   0.0000   0.0000
     0.0000   0.0000   0.0000   0.0000   0.0000   0.0000   0.0000   0.0000

     highest occupied, lowest unoccupied level (ev):     7.3100    9.0153

!    total energy              =   -2409.43213335 Ry
     total all-electron energy =    -34029.661459 Ry
     estimated scf accuracy    <       0.00000009 Ry

     The total energy is the sum of the following terms:
     one-electron contribution =    -368.40551122 Ry
     hartree contribution      =     260.92331503 Ry
     xc contribution           =    -228.88817849 Ry
     ewald contribution        =    -675.80865179 Ry
     one-center paw contrib.   =   -1397.25310688 Ry
      -> PAW hartree energy AE =     136.77598728 Ry
      -> PAW hartree energy PS =    -136.20308777 Ry
      -> PAW xc energy AE      =    -706.99288746 Ry
      -> PAW xc energy PS      =      48.90878084 Ry
      -> total E_H with PAW    =     261.49621453 Ry
      -> total E_XC with PAW   =    -886.97228511 Ry

     convergence has been achieved in  12 iterations

     Writing all to output data dir bands_nm/myprefix.save/

     General routines

     Parallel routines

     PAW routines

   This run was terminated on:  21:34: 2  15Jul2023

   JOB DONE.