     Program PWSCF v.7.1 starts on 14Jul2023 at 18:18:14

     Reading input from espresso_15558.pwi
Warning: card &CELL ignored
Warning: card / ignored

     Current dimensions of program PWSCF are:
     Max number of different atomic species (ntypx) = 10
     Max number of k-points (npk) =  40000
     Max angular momentum in pseudopotentials (lmaxx) =  4
     file O.pbe-n-kjpaw_psl.0.1.UPF: wavefunction(s)  2P renormalized
     Message from routine setup:
     using ibrav=0 with symmetry is DISCOURAGED, use correct ibrav instead

     K-points division:     npool     =       2
     R & G space division:  proc/nbgrp/npool/nimage =       4
     Subspace diagonalization in iterative solution of the eigenvalue problem:
     a serial algorithm will be used

     Using Slab Decomposition

     bravais-lattice index     =            0
     lattice parameter (alat)  =      12.5187  a.u.
     unit-cell volume          =    1646.3379 (a.u.)^3
     number of atoms/cell      =           12
     number of atomic types    =            3
     number of electrons       =        96.00
     number of Kohn-Sham states=           64
     kinetic-energy cutoff     =      30.0000  Ry
     charge density cutoff     =     240.0000  Ry
     scf convergence threshold =      1.0E-06
     mixing beta               =       0.7000
     number of iterations used =            8  plain     mixing
     Exchange-correlation= SLA  PW   PBX  PBC
                           (   1   4   3   4   0   0   0)

     celldm(1)=  12.518675  celldm(2)=   0.000000  celldm(3)=   0.000000
     celldm(4)=   0.000000  celldm(5)=   0.000000  celldm(6)=   0.000000

     crystal axes: (cart. coord. in units of alat)
               a(1) = (   1.000000   0.000000   0.000000 )
               a(2) = (  -0.365943   0.930637   0.000000 )
               a(3) = (   0.000000   0.000000   0.901703 )

     reciprocal axes: (cart. coord. in units 2 pi/alat)
               b(1) = (  1.000000  0.393218  0.000000 )
               b(2) = (  0.000000  1.074533  0.000000 )
               b(3) = (  0.000000  0.000000  1.109013 )

     PseudoPot. # 1 for Rb read from file:
     /lustre07/scratch/pragov/crystal_structure_design/utils/SSSP/Rb_ONCV_PBE-1.0.oncvpsp.upf
     MD5 check sum: 55a5172d6bfbce6759a58e35d43f6aa9
     Pseudo is Norm-conserving, Zval =  9.0
     Generated using ONCVPSP code by D. R. Hamann
     Using radial grid of 2308 points,  6 beta functions with:
                l(1) =   0
                l(2) =   0
                l(3) =   1
                l(4) =   1
                l(5) =   2
                l(6) =   2

     PseudoPot. # 2 for Zr read from file:
     /lustre07/scratch/pragov/crystal_structure_design/utils/SSSP/Zr_pbe_v1.uspp.F.UPF
     MD5 check sum: 5db81b1e868ab7776c4564c113de050b
     Pseudo is Ultrasoft + core correction, Zval = 12.0
     Generated by new atomic code, or converted to UPF format
     Using radial grid of  887 points,  6 beta functions with:
                l(1) =   0
                l(2) =   0
                l(3) =   1
                l(4) =   1
                l(5) =   2
                l(6) =   2
     Q(r) pseudized with  6 coefficients,  rinner =    1.200   1.200   1.200
                                                       1.200   1.200

     PseudoPot. # 3 for O  read from file:
     /lustre07/scratch/pragov/crystal_structure_design/utils/SSSP/O.pbe-n-kjpaw_psl.0.1.UPF
     MD5 check sum: 0234752ac141de4415c5fc33072bef88
     Pseudo is Projector augmented-wave + core cor, Zval =  6.0
     Generated using "atomic" code by A. Dal Corso  v.5.0.99 svn rev. 10869
     Shape of augmentation charge: BESSEL
     Using radial grid of 1095 points,  4 beta functions with:
                l(1) =   0
                l(2) =   0
                l(3) =   1
                l(4) =   1
     Q(r) pseudized with 0 coefficients

     atomic species   valence    mass     pseudopotential
        Rb             9.00    85.46780     Rb( 1.00)
        Zr            12.00    91.22400     Zr( 1.00)
        O              6.00    15.99900     O ( 1.00)

      2 Sym. Ops. (no inversion) found ( 1 have fractional translation)

                                    s                        frac. trans.

      isym =  1     identity

 cryst.   s( 1) = (     1          0          0      )
                  (     0          1          0      )
                  (     0          0          1      )

 cart.    s( 1) = (  1.0000000  0.0000000  0.0000000 )
                  (  0.0000000  1.0000000  0.0000000 )
                  (  0.0000000  0.0000000  1.0000000 )

      isym =  2     180 deg rotation - cart. axis [0,0,1]

 cryst.   s( 2) = (    -1          0          0      )    f =( -0.0000000 )
                  (     0         -1          0      )       ( -0.0000000 )
                  (     0          0          1      )       (  0.5000000 )

 cart.    s( 2) = ( -1.0000000  0.0000000  0.0000000 )    f =( -0.0000000 )
                  (  0.0000000 -1.0000000  0.0000000 )       ( -0.0000000 )
                  (  0.0000000  0.0000000  1.0000000 )       (  0.4508515 )

   Cartesian axes

     site n.     atom                  positions (alat units)
         1           Rb  tau(   1) = (   0.6305505   0.4464332   0.2310244  )
         2           Rb  tau(   2) = (   0.4493352   0.1804543   0.6818759  )
         3           Rb  tau(   3) = (   0.0035064   0.4842040   0.6818759  )
         4           Rb  tau(   4) = (   0.1847217   0.7501829   0.2310244  )
         5           Zr  tau(   5) = (   0.5787994   0.8495331   0.6638355  )
         6           Zr  tau(   6) = (   0.0552574   0.0811041   0.2129840  )
         7           O   tau(   7) = (   0.8371953   0.1249985   0.4443854  )
         8           O   tau(   8) = (   0.8240945   0.1057697   0.8952368  )
         9           O   tau(   9) = (   0.4149262   0.6090081   0.6363516  )
        10           O   tau(  10) = (   0.2191307   0.3216292   0.1855001  )
        11           O   tau(  11) = (  -0.2031385   0.8056387   0.8952368  )
        12           O   tau(  12) = (  -0.1900376   0.8248675   0.4443854  )

   Crystallographic axes

     site n.     atom                  positions (cryst. coord.)
         1           Rb  tau(   1) = (  0.8060960  0.4797070  0.2562090  )
         2           Rb  tau(   2) = (  0.5202930  0.1939040  0.7562090  )
         3           Rb  tau(   3) = (  0.1939040  0.5202930  0.7562090  )
         4           Rb  tau(   4) = (  0.4797070  0.8060960  0.2562090  )
         5           Zr  tau(   5) = (  0.9128510  0.9128510  0.7362020  )
         6           Zr  tau(   6) = (  0.0871490  0.0871490  0.2362020  )
         7           O   tau(   7) = (  0.8863470  0.1343150  0.4928290  )
         8           O   tau(   8) = (  0.8656850  0.1136530  0.9928290  )
         9           O   tau(   9) = (  0.6543990  0.6543990  0.7057220  )
        10           O   tau(  10) = (  0.3456010  0.3456010  0.2057220  )
        11           O   tau(  11) = (  0.1136530  0.8656850  0.9928290  )
        12           O   tau(  12) = (  0.1343150  0.8863470  0.4928290  )

     number of k points=    10
                       cart. coord. in units 2pi/alat
        k(    1) = (   0.0000000   0.0000000   0.0000000), wk =   0.0740741
        k(    2) = (   0.0000000   0.0000000   0.3696709), wk =   0.1481481
        k(    3) = (   0.0000000   0.3581775   0.0000000), wk =   0.1481481
        k(    4) = (   0.0000000   0.3581775   0.3696709), wk =   0.2962963
        k(    5) = (   0.3333333   0.1310726   0.0000000), wk =   0.1481481
        k(    6) = (   0.3333333   0.1310726   0.3696709), wk =   0.2962963
        k(    7) = (   0.3333333   0.4892501   0.0000000), wk =   0.1481481
        k(    8) = (   0.3333333   0.4892501   0.3696709), wk =   0.2962963
        k(    9) = (   0.3333333  -0.2271049   0.0000000), wk =   0.1481481
        k(   10) = (   0.3333333  -0.2271049   0.3696709), wk =   0.2962963

                       cryst. coord.
        k(    1) = (   0.0000000   0.0000000   0.0000000), wk =   0.0740741
        k(    2) = (   0.0000000   0.0000000   0.3333333), wk =   0.1481481
        k(    3) = (   0.0000000   0.3333333   0.0000000), wk =   0.1481481
        k(    4) = (   0.0000000   0.3333333   0.3333333), wk =   0.2962963
        k(    5) = (   0.3333333  -0.0000000   0.0000000), wk =   0.1481481
        k(    6) = (   0.3333333  -0.0000000   0.3333333), wk =   0.2962963
        k(    7) = (   0.3333333   0.3333333   0.0000000), wk =   0.1481481
        k(    8) = (   0.3333333   0.3333333   0.3333333), wk =   0.2962963
        k(    9) = (   0.3333333  -0.3333333   0.0000000), wk =   0.1481481
        k(   10) = (   0.3333333  -0.3333333   0.3333333), wk =   0.2962963

     Check: negative core charge=   -0.000010

     Initial potential from superposition of free atoms

     starting charge      95.8966, renormalised to      96.0000

     negative rho (up, down):  1.237E-01 0.000E+00
     Starting wfcs are   70 randomized atomic wfcs
     Checking if some PAW data can be deallocated...

     Self-consistent Calculation

     iteration #  1     ecut=    30.00 Ry     beta= 0.70
     Davidson diagonalization with overlap

     ethr =  1.00E-02,  avg # of iterations =  5.9

     negative rho (up, down):  1.290E-01 0.000E+00

     total energy              =    -642.96815184 Ry
     estimated scf accuracy    <       3.75229420 Ry

[...]

     total energy              =    -644.92923313 Ry
     estimated scf accuracy    <       0.00000174 Ry

     iteration # 10     ecut=    30.00 Ry     beta= 0.70
     Davidson diagonalization with overlap

     ethr =  1.81E-09,  avg # of iterations =  2.1

     negative rho (up, down):  1.312E-01 0.000E+00

     End of self-consistent calculation

          k = 0.0000 0.0000 0.0000 (  4569 PWs)   bands (ev):

   -41.2038 -41.1527 -19.8783 -19.8017 -19.7726 -19.7673 -19.7447 -19.6266
   -19.5358 -19.5327 -19.2798 -19.1014 -10.4422 -10.2492  -9.6794  -9.5510
    -9.3723  -9.3572  -4.3411  -4.2572  -4.1633  -4.0255  -3.9789  -3.9622
    -3.9175  -3.8483  -3.6904  -3.6877  -3.6609  -3.6329   2.8580   2.9320
     3.1571   3.4350   3.4638   3.7644   3.7860   4.3258   4.4068   4.4205
     4.4786   4.6279   4.8090   5.0749   5.1126   5.1175   5.2479   5.4682
     9.0026  10.1430  10.4520  10.8926  11.3213  11.4851  11.4992  11.7803
    11.8694  12.1019  12.2835  12.3301  12.8135  12.8337  12.9987  13.6639

     occupation numbers
     1.0000   1.0000   1.0000   1.0000   1.0000   1.0000   1.0000   1.0000
     1.0000   1.0000   1.0000   1.0000   1.0000   1.0000   1.0000   1.0000
     1.0000   1.0000   1.0000   1.0000   1.0000   1.0000   1.0000   1.0000
     1.0000   1.0000   1.0000   1.0000   1.0000   1.0000   1.0000   1.0000
     1.0000   1.0000   1.0000   1.0000   1.0000   1.0000   1.0000   1.0000
     1.0000   1.0000   1.0000   1.0000   1.0000   1.0000   1.0000   1.0000
     0.0000   0.0000   0.0000   0.0000   0.0000   0.0000   0.0000   0.0000
     0.0000   0.0000   0.0000   0.0000   0.0000   0.0000   0.0000   0.0000

[...]

          k = 0.3333-0.2271 0.3697 (  4582 PWs)   bands (ev):

   -41.1911 -41.1656 -19.8389 -19.8099 -19.7887 -19.7513 -19.7259 -19.6558
   -19.4634 -19.4514 -19.3432 -19.2291 -10.2553 -10.1083  -9.7991  -9.7901
    -9.3615  -9.3494  -4.2799  -4.2267  -4.2098  -4.1625  -4.0970  -3.9170
    -3.7903  -3.7443  -3.7024  -3.6695  -3.6616  -3.6356   2.9502   3.1553
     3.2232   3.3652   3.4769   3.8430   3.9166   4.0016   4.2173   4.3587
     4.5260   4.5485   4.8623   4.8850   4.9631   5.0833   5.2509   5.3325
    10.2251  10.6073  10.6345  11.0235  11.2355  11.3753  11.4834  11.7081
    11.7872  11.9587  12.0495  12.3910  12.6506  12.6588  13.2881  13.3180

     occupation numbers
     1.0000   1.0000   1.0000   1.0000   1.0000   1.0000   1.0000   1.0000
     1.0000   1.0000   1.0000   1.0000   1.0000   1.0000   1.0000   1.0000
     1.0000   1.0000   1.0000   1.0000   1.0000   1.0000   1.0000   1.0000
     1.0000   1.0000   1.0000   1.0000   1.0000   1.0000   1.0000   1.0000
     1.0000   1.0000   1.0000   1.0000   1.0000   1.0000   1.0000   1.0000
     1.0000   1.0000   1.0000   1.0000   1.0000   1.0000   1.0000   1.0000
     0.0000   0.0000   0.0000   0.0000   0.0000   0.0000   0.0000   0.0000
     0.0000   0.0000   0.0000   0.0000   0.0000   0.0000   0.0000   0.0000

     highest occupied, lowest unoccupied level (ev):     5.4970    9.0026

!    total energy              =    -644.92923335 Ry
     estimated scf accuracy    <       0.00000026 Ry

     The total energy is the sum of the following terms:
     one-electron contribution =    -247.59322089 Ry
     hartree contribution      =     165.40314300 Ry
     xc contribution           =    -110.49135350 Ry
     ewald contribution        =    -395.09966949 Ry
     one-center paw contrib.   =     -57.14813246 Ry
      -> PAW hartree energy AE =       0.00000000 Ry
      -> PAW hartree energy PS =       0.00000000 Ry
      -> PAW xc energy AE      =       0.00000000 Ry
      -> PAW xc energy PS      =       0.00000000 Ry
      -> total E_H with PAW    =     165.40314300 Ry
      -> total E_XC with PAW   =    -110.49135350 Ry

     convergence has been achieved in  10 iterations

     Writing all to output data dir bands_nm/myprefix.save/

     General routines

     Parallel routines

     PAW routines

   This run was terminated on:  18:18:25  14Jul2023

   JOB DONE.