     Program PWSCF v.7.1 starts on 16Jul2023 at 13: 4:27

     Reading input from espresso_24638.pwi
Warning: card &CELL ignored
Warning: card / ignored

     Current dimensions of program PWSCF are:
     Max number of different atomic species (ntypx) = 10
     Max number of k-points (npk) =  40000
     Max angular momentum in pseudopotentials (lmaxx) =  4
     file Ba.pbe-spn-kjpaw_psl.1.0.0.UPF: wavefunction(s)  5S 6S renormalized
     Message from routine setup:
     using ibrav=0 with symmetry is DISCOURAGED, use correct ibrav instead

     K-points division:     npool     =       2
     R & G space division:  proc/nbgrp/npool/nimage =       4
     Subspace diagonalization in iterative solution of the eigenvalue problem:
     a serial algorithm will be used

     Using Slab Decomposition

     bravais-lattice index     =            0
     lattice parameter (alat)  =      13.0952  a.u.
     unit-cell volume          =    3552.5622 (a.u.)^3
     number of atoms/cell      =           20
     number of atomic types    =            3
     number of electrons       =       124.00
     number of Kohn-Sham states=           64
     kinetic-energy cutoff     =      30.0000  Ry
     charge density cutoff     =     240.0000  Ry
     scf convergence threshold =      1.0E-06
     mixing beta               =       0.7000
     number of iterations used =            8  plain     mixing
     Exchange-correlation=  SLA  PW   PBX  PBC
                           (   1   4   3   4   0   0   0)

     celldm(1)=  13.095177  celldm(2)=   0.000000  celldm(3)=   0.000000
     celldm(4)=   0.000000  celldm(5)=   0.000000  celldm(6)=   0.000000

     crystal axes: (cart. coord. in units of alat)
               a(1) = (   1.000000   0.000000   0.000000 )
               a(2) = (   0.000000   0.926677   0.000000 )
               a(3) = (   0.000000   0.156337   1.707180 )

     reciprocal axes: (cart. coord. in units 2 pi/alat)
               b(1) = (  1.000000  0.000000  0.000000 )
               b(2) = (  0.000000  1.079125 -0.098822 )
               b(3) = (  0.000000  0.000000  0.585761 )

     PseudoPot. # 1 for Ba read from file:
     /lustre07/scratch/pragov/crystal_structure_design/utils/SSSP/Ba.pbe-spn-kjpaw_psl.1.0.0.UPF
     MD5 check sum: c432291d3e53af55f19d5e8866385beb
     Pseudo is Projector augmented-wave + core cor, Zval = 10.0
     Generated using "atomic" code by A. Dal Corso  v.5.1
     Shape of augmentation charge: PSQ
     Using radial grid of 1251 points,  7 beta functions with:
                l(1) =   0
                l(2) =   0
                l(3) =   0
                l(4) =   1
                l(5) =   1
                l(6) =   2
                l(7) =   2
     Q(r) pseudized with 0 coefficients

     PseudoPot. # 2 for P  read from file:
     /lustre07/scratch/pragov/crystal_structure_design/utils/SSSP/P.pbe-n-rrkjus_psl.1.0.0.UPF
     MD5 check sum: 8b930f418f0a4573dca56cd030ffe088
     Pseudo is Ultrasoft + core correction, Zval =  5.0
     Generated using "atomic" code by A. Dal Corso  v.5.1
     Using radial grid of 1147 points,  6 beta functions with:
                l(1) =   0
                l(2) =   0
                l(3) =   1
                l(4) =   1
                l(5) =   2
                l(6) =   2
     Q(r) pseudized with 0 coefficients

     PseudoPot. # 3 for Cl read from file:
     /lustre07/scratch/pragov/crystal_structure_design/utils/SSSP/cl_pbe_v1.4.uspp.F.UPF
     MD5 check sum: fc6f6913ecf08c9257cb748ef0700058
     Pseudo is Ultrasoft + core correction, Zval =  7.0
     Generated by new atomic code, or converted to UPF format
     Using radial grid of  909 points,  6 beta functions with:
                l(1) =   0
                l(2) =   0
                l(3) =   1
                l(4) =   1
                l(5) =   2
                l(6) =   2
     Q(r) pseudized with  8 coefficients,  rinner =    1.300   1.300   1.300
                                                       1.300   1.300

     atomic species   valence    mass     pseudopotential
        Ba            10.00   137.32700     Ba( 1.00)
        P              5.00    30.97376     P ( 1.00)
        Cl             7.00    35.45000     Cl( 1.00)

      4 Sym. Ops., with inversion, found ( 2 have fractional translation)

                                    s                        frac. trans.

      isym =  1     identity

 cryst.   s( 1) = (     1          0          0      )
                  (     0          1          0      )
                  (     0          0          1      )

 cart.    s( 1) = (  1.0000000  0.0000000  0.0000000 )
                  (  0.0000000  1.0000000  0.0000000 )
                  (  0.0000000  0.0000000  1.0000000 )

      isym =  2     180 deg rotation - cart. axis [1,0,0]

 cryst.   s( 2) = (     1          0          0      )    f =( -0.5000000 )
                  (     0         -1          0      )       (  0.0000000 )
                  (     0          0         -1      )       (  0.0000000 )

 cart.    s( 2) = (  1.0000000  0.0000000  0.0000000 )    f =( -0.5000000 )
                  (  0.0000000 -1.0000000  0.0000000 )       (  0.0000000 )
                  (  0.0000000  0.0000000 -1.0000000 )       (  0.0000000 )

      isym =  3     inversion

 cryst.   s( 3) = (    -1          0          0      )
                  (     0         -1          0      )
                  (     0          0         -1      )

 cart.    s( 3) = ( -1.0000000  0.0000000  0.0000000 )
                  (  0.0000000 -1.0000000  0.0000000 )
                  (  0.0000000  0.0000000 -1.0000000 )

      isym =  4     inv. 180 deg rotation - cart. axis [1,0,0]

 cryst.   s( 4) = (    -1          0          0      )    f =(  0.5000000 )
                  (     0          1          0      )       (  0.0000000 )
                  (     0          0          1      )       (  0.0000000 )

 cart.    s( 4) = ( -1.0000000  0.0000000  0.0000000 )    f =(  0.5000000 )
                  (  0.0000000  1.0000000  0.0000000 )       (  0.0000000 )
                  (  0.0000000  0.0000000  1.0000000 )       (  0.0000000 )

   Cartesian axes

     site n.     atom                  positions (alat units)
         1           Ba  tau(   1) = (   0.2500000   0.3616522   1.6292264  )
         2           Ba  tau(   2) = (   0.2500000   0.4552651   0.5922838  )
         3           Ba  tau(   3) = (   0.7500000   0.7213620   0.0779532  )
         4           Ba  tau(   4) = (   0.7500000   0.6277491   1.1148959  )
         5           P   tau(   5) = (   0.2500000   0.0943152   0.9398178  )
         6           P   tau(   6) = (   0.9939700   0.1389609   0.3333063  )
         7           P   tau(   7) = (   0.7500000   0.3327491   0.3796187  )
         8           P   tau(   8) = (   0.2500000   0.7177956   1.0131719  )
         9           P   tau(   9) = (   0.4197010   0.2414919   1.1726395  )
        10           P   tau(  10) = (   0.0802990   0.2414919   1.1726395  )
        11           P   tau(  11) = (   0.9197010   0.8415223   0.5345401  )
        12           P   tau(  12) = (   0.0060300   0.9440534   1.3738733  )
        13           P   tau(  13) = (   0.2500000   0.7502651   1.3275610  )
        14           P   tau(  14) = (   0.4939700   0.9440534   1.3738733  )
        15           P   tau(  15) = (   0.5802990   0.8415223   0.5345401  )
        16           P   tau(  16) = (   0.7500000   0.3652186   0.6940078  )
        17           P   tau(  17) = (   0.5060300   0.1389609   0.3333063  )
        18           P   tau(  18) = (   0.7500000   0.9886990   0.7673619  )
        19           Cl  tau(  19) = (   0.7500000   0.4807003   1.5552629  )
        20           Cl  tau(  20) = (   0.2500000   0.6023139   0.1519168  )

   Crystallographic axes

     site n.     atom                  positions (cryst. coord.)
         1           Ba  tau(   1) = (  0.2500000  0.2292640  0.9543380  )
         2           Ba  tau(   2) = (  0.2500000  0.4327570  0.3469370  )
         3           Ba  tau(   3) = (  0.7500000  0.7707360  0.0456620  )
         4           Ba  tau(   4) = (  0.7500000  0.5672430  0.6530630  )
         5           P   tau(   5) = (  0.2500000  0.0089030  0.5505090  )
         6           P   tau(   6) = (  0.9939700  0.1170180  0.1952380  )
         7           P   tau(   7) = (  0.7500000  0.3215630  0.2223660  )
         8           P   tau(   8) = (  0.2500000  0.6744670  0.5934770  )
         9           P   tau(   9) = (  0.4197010  0.1447170  0.6868870  )
        10           P   tau(  10) = (  0.0802990  0.1447170  0.6868870  )
        11           P   tau(  11) = (  0.9197010  0.8552830  0.3131130  )
        12           P   tau(  12) = (  0.0060300  0.8829820  0.8047620  )
        13           P   tau(  13) = (  0.2500000  0.6784370  0.7776340  )
        14           P   tau(  14) = (  0.4939700  0.8829820  0.8047620  )
        15           P   tau(  15) = (  0.5802990  0.8552830  0.3131130  )
        16           P   tau(  16) = (  0.7500000  0.3255330  0.4065230  )
        17           P   tau(  17) = (  0.5060300  0.1170180  0.1952380  )
        18           P   tau(  18) = (  0.7500000  0.9910970  0.4494910  )
        19           Cl  tau(  19) = (  0.7500000  0.3650410  0.9110130  )
        20           Cl  tau(  20) = (  0.2500000  0.6349590  0.0889870  )

     number of k points=    10
                       cart. coord. in units 2pi/alat
        k(    1) = (   0.0000000   0.0000000   0.0000000), wk =   0.0740741
        k(    2) = (   0.0000000   0.0000000   0.1952538), wk =   0.1481481
        k(    3) = (   0.0000000   0.3597082  -0.0329407), wk =   0.1481481
        k(    4) = (   0.0000000   0.3597082   0.1623131), wk =   0.1481481
        k(    5) = (   0.0000000   0.3597082  -0.2281946), wk =   0.1481481
        k(    6) = (   0.3333333   0.0000000   0.0000000), wk =   0.1481481
        k(    7) = (   0.3333333   0.0000000   0.1952538), wk =   0.2962963
        k(    8) = (   0.3333333   0.3597082  -0.0329407), wk =   0.2962963
        k(    9) = (   0.3333333   0.3597082   0.1623131), wk =   0.2962963
        k(   10) = (   0.3333333   0.3597082  -0.2281946), wk =   0.2962963

                       cryst. coord.
        k(    1) = (   0.0000000   0.0000000   0.0000000), wk =   0.0740741
        k(    2) = (   0.0000000   0.0000000   0.3333333), wk =   0.1481481
        k(    3) = (   0.0000000   0.3333333   0.0000000), wk =   0.1481481
        k(    4) = (   0.0000000   0.3333333   0.3333333), wk =   0.1481481
        k(    5) = (   0.0000000   0.3333333  -0.3333333), wk =   0.1481481
        k(    6) = (   0.3333333   0.0000000   0.0000000), wk =   0.1481481
        k(    7) = (   0.3333333   0.0000000   0.3333333), wk =   0.2962963
        k(    8) = (   0.3333333   0.3333333   0.0000000), wk =   0.2962963
        k(    9) = (   0.3333333   0.3333333   0.3333333), wk =   0.2962963
        k(   10) = (   0.3333333   0.3333333  -0.3333333), wk =   0.2962963

     Initial potential from superposition of free atoms

     starting charge     123.9297, renormalised to     124.0000

     negative rho (up, down):  2.992E-02 0.000E+00
     Starting wfcs are   84 randomized atomic wfcs
     Checking if some PAW data can be deallocated...

     Self-consistent Calculation

     iteration #  1     ecut=    30.00 Ry     beta= 0.70
     Davidson diagonalization with overlap

     ethr =  1.00E-02,  avg # of iterations =  4.2

     Threshold (ethr) on eigenvalues was too large:
     Diagonalizing with lowered threshold

     Davidson diagonalization with overlap

[...]

     negative rho (up, down):  1.985E-01 0.000E+00

     total energy              =   -2008.95723426 Ry
     estimated scf accuracy    <       0.94013744 Ry

[...]

     total energy              =   -2009.16516188 Ry
     estimated scf accuracy    <       0.00000562 Ry

     iteration # 14     ecut=    30.00 Ry     beta= 0.70
     Davidson diagonalization with overlap

     ethr =  4.53E-09,  avg # of iterations =  2.6

     negative rho (up, down):  2.989E-02 0.000E+00

     End of self-consistent calculation

          k = 0.0000 0.0000 0.0000 (  9907 PWs)   bands (ev):

   -21.5246 -21.5121 -21.3694 -21.3672  -8.7608  -8.7332  -8.2149  -8.1612
    -6.8775  -6.7874  -6.7349  -6.7307  -6.6848  -6.6743  -6.6464  -6.6384
    -6.6216  -6.5982  -6.5166  -6.4926  -5.7711  -5.6722  -4.9201  -4.8648
    -4.8464  -4.8223  -1.5920  -1.5682  -1.4937  -1.4891  -1.4653  -1.4073
     1.0771   1.3949   1.6113   1.7388   1.9580   2.0879   2.4065   2.5792
     2.7231   2.7611   2.8528   2.9600   2.9850   3.1574   3.5540   3.7514
     3.7796   3.8136   4.0834   4.1599   4.1631   4.5334   4.9481   5.0899
     5.3409   5.4817   5.4840   5.5068   5.9694   6.0225   7.9785   8.2114

     occupation numbers
     1.0000   1.0000   1.0000   1.0000   1.0000   1.0000   1.0000   1.0000
     1.0000   1.0000   1.0000   1.0000   1.0000   1.0000   1.0000   1.0000
     1.0000   1.0000   1.0000   1.0000   1.0000   1.0000   1.0000   1.0000
     1.0000   1.0000   1.0000   1.0000   1.0000   1.0000   1.0000   1.0000
     1.0000   1.0000   1.0000   1.0000   1.0000   1.0000   1.0000   1.0000
     1.0000   1.0000   1.0000   1.0000   1.0000   1.0000   1.0000   1.0000
     1.0000   1.0000   1.0000   1.0000   1.0000   1.0000   1.0000   1.0000
     1.0000   1.0000   1.0000   1.0000   1.0000   1.0000   0.0000   0.0000

[...]

          k = 0.3333 0.3597-0.2282 (  9849 PWs)   bands (ev):

   -21.5202 -21.5160 -21.3687 -21.3676  -8.7883  -8.7665  -8.1780  -8.0990
    -6.8894  -6.8444  -6.7634  -6.7442  -6.6868  -6.6674  -6.6616  -6.6296
    -6.5951  -6.5523  -6.5147  -6.5100  -5.7435  -5.7176  -5.0002  -4.9746
    -4.8545  -4.8358  -1.6570  -1.5513  -1.4530  -1.4408  -1.2088  -1.0978
     1.4390   1.5908   1.7125   1.8477   1.9096   2.1207   2.5931   2.6206
     2.7949   2.8603   2.9186   3.0064   3.0294   3.1016   3.6100   3.6448
     3.7674   3.8727   3.9330   4.0494   4.1739   4.2061   4.4673   4.5596
     5.0968   5.1898   5.3491   5.3824   5.4959   5.6693   7.8958   8.0880

     occupation numbers
     1.0000   1.0000   1.0000   1.0000   1.0000   1.0000   1.0000   1.0000
     1.0000   1.0000   1.0000   1.0000   1.0000   1.0000   1.0000   1.0000
     1.0000   1.0000   1.0000   1.0000   1.0000   1.0000   1.0000   1.0000
     1.0000   1.0000   1.0000   1.0000   1.0000   1.0000   1.0000   1.0000
     1.0000   1.0000   1.0000   1.0000   1.0000   1.0000   1.0000   1.0000
     1.0000   1.0000   1.0000   1.0000   1.0000   1.0000   1.0000   1.0000
     1.0000   1.0000   1.0000   1.0000   1.0000   1.0000   1.0000   1.0000
     1.0000   1.0000   1.0000   1.0000   1.0000   1.0000   0.0000   0.0000

     highest occupied, lowest unoccupied level (ev):     6.0420    7.8250

!    total energy              =   -2009.16516280 Ry
     estimated scf accuracy    <       0.00000008 Ry

     The total energy is the sum of the following terms:
     one-electron contribution =     -19.66842290 Ry
     hartree contribution      =      64.47630491 Ry
     xc contribution           =    -161.13674639 Ry
     ewald contribution        =    -393.02877674 Ry
     one-center paw contrib.   =   -1499.80752168 Ry
      -> PAW hartree energy AE =      85.58111359 Ry
      -> PAW hartree energy PS =     -85.24826632 Ry
      -> PAW xc energy AE      =   -1182.58717279 Ry
      -> PAW xc energy PS      =      57.39869367 Ry
      -> total E_H with PAW    =      64.80915217 Ry
      -> total E_XC with PAW   =   -1286.32522550 Ry

     convergence has been achieved in  14 iterations

     Writing all to output data dir bands_nm/myprefix.save/

     General routines

     Parallel routines

     PAW routines

   This run was terminated on:  13: 4:59  16Jul2023

   JOB DONE.