     Program PWSCF v.7.0 starts on  7Jun2023 at  0:39: 3

     K-points division:     npool     =       2
     R & G space division:  proc/nbgrp/npool/nimage =       4

     Reading input from espresso_1001.pwi
Warning: card &CELL ignored
Warning: card / ignored

     Current dimensions of program PWSCF are:
     Max number of different atomic species (ntypx) = 10
     Max number of k-points (npk) =  40000
     Max angular momentum in pseudopotentials (lmaxx) =  4
     Message from routine setup:
     using ibrav=0 with symmetry is DISCOURAGED, use correct ibrav instead

     Using Slab Decomposition

     bravais-lattice index     =            0
     lattice parameter (alat)  =       7.8771  a.u.
     unit-cell volume          =    2266.5283 (a.u.)^3
     number of atoms/cell      =           12
     number of atomic types    =            3
     number of electrons       =        96.00
     number of Kohn-Sham states=           64
     kinetic-energy cutoff     =      30.0000  Ry
     charge density cutoff     =     240.0000  Ry
     scf convergence threshold =      1.0E-06
     mixing beta               =       0.7000
     number of iterations used =            8  plain     mixing
     Exchange-correlation= PBE
                           (   1   4   3   4   0   0   0)

     celldm(1)=   7.877095  celldm(2)=   0.000000  celldm(3)=   0.000000
     celldm(4)=   0.000000  celldm(5)=   0.000000  celldm(6)=   0.000000

     crystal axes: (cart. coord. in units of alat)
               a(1) = (   1.000000   0.000000   0.000000 )
               a(2) = (   0.000000   1.872216   0.000000 )
               a(3) = (   0.000000   0.000000   2.476892 )

     reciprocal axes: (cart. coord. in units 2 pi/alat)
               b(1) = (  1.000000  0.000000  0.000000 )
               b(2) = (  0.000000  0.534126  0.000000 )
               b(3) = (  0.000000  0.000000  0.403732 )

     PseudoPot. # 1 for Pr read from file:
     /home/pragov/projects/rrg-bengioy-ad/pragov/crystal_structure_design/SSSP/Pr.GGA-PBE-paw-v1.0.UPF
     MD5 check sum: b5e1e58e76df433569641143f671cc27
     Pseudo is Projector augmented-wave + core cor, Zval = 13.0
     Generated using ATOMPAW code
     Shape of augmentation charge: BESSEL
     Using radial grid of 1103 points,  8 beta functions with:
                l(1) =   0
                l(2) =   0
                l(3) =   1
                l(4) =   1
                l(5) =   2
                l(6) =   2
                l(7) =   3
                l(8) =   3
     Q(r) pseudized with 0 coefficients

     PseudoPot. # 2 for Te read from file:
     /home/pragov/projects/rrg-bengioy-ad/pragov/crystal_structure_design/SSSP/Te_pbe_v1.uspp.F.UPF
     MD5 check sum: c319670d6894cc26e93307826a071b75
     Pseudo is Ultrasoft + core correction, Zval =  6.0
     Generated by new atomic code, or converted to UPF format
     Using radial grid of  891 points,  5 beta functions with:
                l(1) =   0
                l(2) =   0
                l(3) =   1
                l(4) =   1
                l(5) =   2
     Q(r) pseudized with  6 coefficients,  rinner =    1.800   1.800   1.800
                                                       1.800   1.800

     PseudoPot. # 3 for As read from file:
     /home/pragov/projects/rrg-bengioy-ad/pragov/crystal_structure_design/SSSP/As.pbe-n-rrkjus_psl.0.2.UPF
     MD5 check sum: 767315de957beeeb34f87d97bf945c8f
     Pseudo is Ultrasoft + core correction, Zval =  5.0
     Generated using "atomic" code by A. Dal Corso  v.5.0.99 svn rev. 10869
     Using radial grid of 1209 points,  4 beta functions with:
                l(1) =   0
                l(2) =   0
                l(3) =   1
                l(4) =   1
     Q(r) pseudized with 0 coefficients

     atomic species   valence    mass     pseudopotential
        Pr            13.00   140.90766     Pr( 1.00)
        Te             6.00   127.60000     Te( 1.00)
        As             5.00    74.92159     As( 1.00)

      8 Sym. Ops., with inversion, found ( 6 have fractional translation)

                                    s                        frac. trans.

      isym =  1     identity

 cryst.   s( 1) = (     1          0          0      )
                  (     0          1          0      )
                  (     0          0          1      )

 cart.    s( 1) = (  1.0000000  0.0000000  0.0000000 )
                  (  0.0000000  1.0000000  0.0000000 )
                  (  0.0000000  0.0000000  1.0000000 )

      isym =  2     180 deg rotation - cart. axis [0,0,1]

 cryst.   s( 2) = (    -1          0          0      )    f =( -0.0000000 )
                  (     0         -1          0      )       (  0.5000000 )
                  (     0          0          1      )       (  0.5000000 )

 cart.    s( 2) = ( -1.0000000  0.0000000  0.0000000 )    f =( -0.0000000 )
                  (  0.0000000 -1.0000000  0.0000000 )       (  0.9361079 )
                  (  0.0000000  0.0000000  1.0000000 )       (  1.2384459 )

[...]

      isym =  4     180 deg rotation - cart. axis [1,0,0]

[...]

      isym =  5     inversion

 cryst.   s( 5) = (    -1          0          0      )
                  (     0         -1          0      )
                  (     0          0         -1      )

 cart.    s( 5) = ( -1.0000000  0.0000000  0.0000000 )
                  (  0.0000000 -1.0000000  0.0000000 )
                  (  0.0000000  0.0000000 -1.0000000 )

      isym =  6     inv. 180 deg rotation - cart. axis [0,0,1]

[...]

      isym =  8     inv. 180 deg rotation - cart. axis [1,0,0]

 cryst.   s( 8) = (    -1          0          0      )    f =(  0.5000000 )
                  (     0          1          0      )       (  0.0000000 )
                  (     0          0          1      )       (  0.0000000 )

 cart.    s( 8) = ( -1.0000000  0.0000000  0.0000000 )    f =(  0.5000000 )
                  (  0.0000000  1.0000000  0.0000000 )       (  0.0000000 )
                  (  0.0000000  0.0000000  1.0000000 )       (  0.0000000 )

   Cartesian axes

     site n.     atom                  positions (alat units)
         1           Pr  tau(   1) = (   0.2500000   1.3584817   2.0871480  )
         2           Pr  tau(   2) = (   0.7500000   0.5137341   0.3897439  )
         3           Pr  tau(   3) = (   0.7500000   1.4498420   0.8487020  )
         4           Pr  tau(   4) = (   0.2500000   0.4223738   1.6281898  )
         5           Te  tau(   5) = (   0.2500000   1.1063915   0.3691337  )
         6           Te  tau(   6) = (   0.7500000   0.7658243   2.1077582  )
         7           Te  tau(   7) = (   0.7500000   1.7019322   1.6075796  )
         8           Te  tau(   8) = (   0.2500000   0.1702836   0.8693123  )
         9           As  tau(   9) = (   0.2500000   1.1081252   1.3343982  )
        10           As  tau(  10) = (   0.7500000   0.7640906   1.1424936  )
        11           As  tau(  11) = (   0.7500000   1.7001985   0.0959523  )
        12           As  tau(  12) = (   0.2500000   0.1720173   2.3809395  )

   Crystallographic axes

     site n.     atom                  positions (cryst. coord.)
         1           Pr  tau(   1) = (  0.2500000  0.7256010  0.8426480  )
         2           Pr  tau(   2) = (  0.7500000  0.2743990  0.1573520  )
         3           Pr  tau(   3) = (  0.7500000  0.7743990  0.3426480  )
         4           Pr  tau(   4) = (  0.2500000  0.2256010  0.6573520  )
         5           Te  tau(   5) = (  0.2500000  0.5909530  0.1490310  )
         6           Te  tau(   6) = (  0.7500000  0.4090470  0.8509690  )
         7           Te  tau(   7) = (  0.7500000  0.9090470  0.6490310  )
         8           Te  tau(   8) = (  0.2500000  0.0909530  0.3509690  )
         9           As  tau(   9) = (  0.2500000  0.5918790  0.5387390  )
        10           As  tau(  10) = (  0.7500000  0.4081210  0.4612610  )
        11           As  tau(  11) = (  0.7500000  0.9081210  0.0387390  )
        12           As  tau(  12) = (  0.2500000  0.0918790  0.9612610  )

     number of k points=     8
                       cart. coord. in units 2pi/alat
        k(    1) = (   0.0000000   0.0000000   0.0000000), wk =   0.0740741
        k(    2) = (   0.0000000   0.0000000   0.1345773), wk =   0.1481481
        k(    3) = (   0.0000000   0.1780422   0.0000000), wk =   0.1481481
        k(    4) = (   0.0000000   0.1780422   0.1345773), wk =   0.2962963
        k(    5) = (   0.3333333   0.0000000   0.0000000), wk =   0.1481481
        k(    6) = (   0.3333333   0.0000000   0.1345773), wk =   0.2962963
        k(    7) = (   0.3333333   0.1780422   0.0000000), wk =   0.2962963
        k(    8) = (   0.3333333   0.1780422   0.1345773), wk =   0.5925926

                       cryst. coord.
        k(    1) = (   0.0000000   0.0000000   0.0000000), wk =   0.0740741
        k(    2) = (   0.0000000   0.0000000   0.3333333), wk =   0.1481481
        k(    3) = (   0.0000000   0.3333333   0.0000000), wk =   0.1481481
        k(    4) = (   0.0000000   0.3333333   0.3333333), wk =   0.2962963
        k(    5) = (   0.3333333   0.0000000   0.0000000), wk =   0.1481481
        k(    6) = (   0.3333333   0.0000000   0.3333333), wk =   0.2962963
        k(    7) = (   0.3333333   0.3333333   0.0000000), wk =   0.2962963
        k(    8) = (   0.3333333   0.3333333   0.3333333), wk =   0.5925926

     Initial potential from superposition of free atoms

     starting charge      95.9685, renormalised to      96.0000
     Starting wfcs are  160 randomized atomic wfcs
     Checking if some PAW data can be deallocated...

     Self-consistent Calculation

     iteration #  1     ecut=    30.00 Ry     beta= 0.70
     Davidson diagonalization with overlap

     ethr =  1.00E-02,  avg # of iterations =  1.0

     Threshold (ethr) on eigenvalues was too large:
     Diagonalizing with lowered threshold

     Davidson diagonalization with overlap

[...]

     total energy              =   -2212.67795699 Ry
     estimated scf accuracy    <       0.32620126 Ry

[...]

     c_bands:  1 eigenvalues not converged
     ethr =  1.17E-06,  avg # of iterations = 10.1

[...]

     c_bands:  1 eigenvalues not converged
     ethr =  1.45E-07,  avg # of iterations = 13.5

[...]

     total energy              =   -2212.96150892 Ry
     estimated scf accuracy    <       0.00000152 Ry

     iteration # 23     ecut=    30.00 Ry     beta= 0.70
     Davidson diagonalization with overlap

     ethr =  1.58E-09,  avg # of iterations =  9.5

     End of self-consistent calculation

          k = 0.0000 0.0000 0.0000 (  6307 PWs)   bands (ev):

   -26.8091 -26.8075 -26.8012 -26.8009  -9.0435  -8.9805  -8.9608  -8.9372
    -8.8942  -8.8580  -8.8558  -8.8136  -8.7459  -8.7368  -8.7195  -8.7178
    -3.2242  -2.7333  -1.6778  -1.6657  -1.5005  -1.4236   0.6708   0.8438
     5.1645   5.2464   5.7301   5.8188   6.0292   6.0725   6.0999   6.1921
     6.5626   7.0279   7.2884   7.5047   7.5906   7.7311   7.7822   7.9173
     7.9712   8.0004   8.3340   8.5415   9.1157   9.1926   9.2206   9.2711
     9.2758   9.2977   9.3081   9.3116   9.3198   9.3356   9.3419   9.3564
     9.3643   9.3892   9.3975   9.4062   9.4395   9.4523   9.4579   9.4897

     occupation numbers
     1.0000   1.0000   1.0000   1.0000   1.0000   1.0000   1.0000   1.0000
     1.0000   1.0000   1.0000   1.0000   1.0000   1.0000   1.0000   1.0000
     1.0000   1.0000   1.0000   1.0000   1.0000   1.0000   1.0000   1.0000
     1.0000   1.0000   1.0000   1.0000   1.0000   1.0000   1.0000   1.0000
     1.0000   1.0000   1.0000   1.0000   1.0000   1.0000   1.0000   1.0000
     1.0000   1.0000   1.0000   1.0000   1.0000   1.0000   1.0000   1.0000
     0.0000   0.0000   0.0000   0.0000   0.0000   0.0000   0.0000   0.0000
     0.0000   0.0000   0.0000   0.0000   0.0000   0.0000   0.0000   0.0000

[...]

          k = 0.3333 0.1780 0.1346 (  6309 PWs)   bands (ev):

   -26.7978 -26.7975 -26.7942 -26.7941  -8.9664  -8.9627  -8.9433  -8.9369
    -8.9224  -8.9090  -8.9006  -8.8849  -8.8506  -8.8470  -8.8149  -8.8119
    -2.2000  -2.1089  -1.5859  -1.5415  -1.3123  -1.2966  -0.3095  -0.2985
     4.7128   5.0075   5.0145   5.2929   5.5063   5.7352   6.2562   6.3590
     6.5132   6.5558   6.9563   7.0899   7.1239   7.2438   7.4671   7.5467
     7.6445   7.7315   7.8575   7.9018   9.2171   9.2231   9.2456   9.2568
     9.2963   9.2996   9.3131   9.3198   9.3348   9.3409   9.3522   9.3622
     9.3691   9.3818   9.3997   9.4022   9.4171   9.4289   9.4343   9.4620

     occupation numbers
     1.0000   1.0000   1.0000   1.0000   1.0000   1.0000   1.0000   1.0000
     1.0000   1.0000   1.0000   1.0000   1.0000   1.0000   1.0000   1.0000
     1.0000   1.0000   1.0000   1.0000   1.0000   1.0000   1.0000   1.0000
     1.0000   1.0000   1.0000   1.0000   1.0000   1.0000   1.0000   1.0000
     1.0000   1.0000   1.0000   1.0000   1.0000   1.0000   1.0000   1.0000
     1.0000   1.0000   1.0000   1.0000   1.0000   1.0000   1.0000   1.0000
     0.0000   0.0000   0.0000   0.0000   0.0000   0.0000   0.0000   0.0000
     0.0000   0.0000   0.0000   0.0000   0.0000   0.0000   0.0000   0.0000

     highest occupied, lowest unoccupied level (ev):     9.2774    9.2296

!    total energy              =   -2212.96150972 Ry
     estimated scf accuracy    <       0.00000059 Ry

     The total energy is the sum of the following terms:
     one-electron contribution =     -58.44299507 Ry
     hartree contribution      =      88.08881588 Ry
     xc contribution           =    -142.40940071 Ry
     ewald contribution        =    -422.05471210 Ry
     one-center paw contrib.   =   -1678.14321772 Ry
      -> PAW hartree energy AE =     125.33202104 Ry
      -> PAW hartree energy PS =    -125.33388778 Ry
      -> PAW xc energy AE      =    -860.21646961 Ry
      -> PAW xc energy PS      =      21.14672749 Ry
      -> total E_H with PAW    =      88.08694914 Ry
      -> total E_XC with PAW   =    -981.47914283 Ry

     convergence has been achieved in  23 iterations

     Writing all to output data dir calculations_bands/myprefix.save/

     General routines

     Parallel routines

     PAW routines

   This run was terminated on:   0:40: 1   7Jun2023

   JOB DONE.