     Program PWSCF v.7.1 starts on 14Jul2023 at 18:35:25

     Reading input from espresso_21369.pwi
Warning: card &CELL ignored
Warning: card / ignored

     Current dimensions of program PWSCF are:
     Max number of different atomic species (ntypx) = 10
     Max number of k-points (npk) =  40000
     Max angular momentum in pseudopotentials (lmaxx) =  4
     file In.pbe-dn-rrkjus_psl.0.2.2.UPF: wavefunction(s)  5S renormalized
     file Cu.paw.z_11.ld1.psl.v1.0.0-low.upf: wavefunction(s)  4S 3D renormalized
     Message from routine setup:
     using ibrav=0 with symmetry is DISCOURAGED, use correct ibrav instead

     K-points division:     npool     =       2
     R & G space division:  proc/nbgrp/npool/nimage =       4
     Subspace diagonalization in iterative solution of the eigenvalue problem:
     a serial algorithm will be used

     Using Slab Decomposition

     bravais-lattice index     =            0
     lattice parameter (alat)  =      11.1159  a.u.
     unit-cell volume          =    2588.3517 (a.u.)^3
     number of atoms/cell      =           15
     number of atomic types    =            4
     number of electrons       =       124.00
     number of Kohn-Sham states=           64
     kinetic-energy cutoff     =      30.0000  Ry
     charge density cutoff     =     240.0000  Ry
     scf convergence threshold =      1.0E-06
     mixing beta               =       0.7000
     number of iterations used =            8  plain     mixing
     Exchange-correlation= SLA  PW   PBE  PBE
                           (   1   4   3   4   0   0   0)

     celldm(1)=  11.115917  celldm(2)=   0.000000  celldm(3)=   0.000000
     celldm(4)=   0.000000  celldm(5)=   0.000000  celldm(6)=   0.000000

     crystal axes: (cart. coord. in units of alat)
               a(1) = (   1.000000   0.000000   0.000000 )
               a(2) = (   0.000000   1.000000   0.000000 )
               a(3) = (   0.000000   0.000000   1.884462 )

     reciprocal axes: (cart. coord. in units 2 pi/alat)
               b(1) = (  1.000000  0.000000  0.000000 )
               b(2) = (  0.000000  1.000000  0.000000 )
               b(3) = (  0.000000  0.000000  0.530655 )

     PseudoPot. # 1 for In read from file:
     /lustre07/scratch/pragov/crystal_structure_design/utils/SSSP/In.pbe-dn-rrkjus_psl.0.2.2.UPF
     MD5 check sum: 25e7c42c3b55b68f4bf926be2e7201a4
     Pseudo is Ultrasoft + core correction, Zval = 13.0
     Generated using "atomic" code by A. Dal Corso  v.5.0.99 svn rev. 10869
     Using radial grid of 1241 points,  6 beta functions with:
                l(1) =   0
                l(2) =   0
                l(3) =   1
                l(4) =   1
                l(5) =   2
                l(6) =   2
     Q(r) pseudized with 0 coefficients

     PseudoPot. # 2 for Cu read from file:
     /lustre07/scratch/pragov/crystal_structure_design/utils/SSSP/Cu.paw.z_11.ld1.psl.v1.0.0-low.upf
     MD5 check sum: 619f40885d92a09a85a8b37550532d0c
     Pseudo is Projector augmented-wave + core cor, Zval = 11.0
     Generated using &quot;atomic&quot; code by A. Dal Corso  v.6.3MaX
     Shape of augmentation charge: PSQ
     Using radial grid of 1199 points,  6 beta functions with:
                l(1) =   0
                l(2) =   0
                l(3) =   1
                l(4) =   1
                l(5) =   2
                l(6) =   2
     Q(r) pseudized with 0 coefficients

     PseudoPot. # 3 for Si read from file:
     /lustre07/scratch/pragov/crystal_structure_design/utils/SSSP/Si.pbe-n-rrkjus_psl.1.0.0.UPF
     MD5 check sum: 0b0bb1205258b0d07b9f9672cf965d36
     Pseudo is Ultrasoft + core correction, Zval =  4.0
     Generated using "atomic" code by A. Dal Corso  v.5.1
     Using radial grid of 1141 points,  6 beta functions with:
                l(1) =   0
                l(2) =   0
                l(3) =   1
                l(4) =   1
                l(5) =   2
                l(6) =   2
     Q(r) pseudized with 0 coefficients

     PseudoPot. # 4 for Se read from file:
     /lustre07/scratch/pragov/crystal_structure_design/utils/SSSP/Se_pbe_v1.uspp.F.UPF
     MD5 check sum: 1b3568f3a8ae88f9a2a0ad0698632c85
     Pseudo is Ultrasoft + core correction, Zval =  6.0
     Generated by new atomic code, or converted to UPF format
     Using radial grid of  877 points,  6 beta functions with:
                l(1) =   0
                l(2) =   0
                l(3) =   1
                l(4) =   1
                l(5) =   2
                l(6) =   2
     Q(r) pseudized with  8 coefficients,  rinner =    1.300   1.300   1.300
                                                       1.300   1.300

     atomic species   valence    mass     pseudopotential
        In            13.00   114.81800     In( 1.00)
        Cu            11.00    63.54600     Cu( 1.00)
        Si             4.00    28.08500     Si( 1.00)
        Se             6.00    78.97100     Se( 1.00)

      4 Sym. Ops. (no inversion) found

                                    s                        frac. trans.

      isym =  1     identity

 cryst.   s( 1) = (     1          0          0      )
                  (     0          1          0      )
                  (     0          0          1      )

 cart.    s( 1) = (  1.0000000  0.0000000  0.0000000 )
                  (  0.0000000  1.0000000  0.0000000 )
                  (  0.0000000  0.0000000  1.0000000 )

      isym =  2     180 deg rotation - cart. axis [0,0,1]

[...]

      isym =  3     inv.  90 deg rotation - cart. axis [0,0,-1]

[...]

      isym =  4     inv.  90 deg rotation - cart. axis [0,0,1]

 cryst.   s( 4) = (     0         -1          0      )
                  (     1          0          0      )
                  (     0          0         -1      )

 cart.    s( 4) = (  0.0000000  1.0000000  0.0000000 )
                  ( -1.0000000  0.0000000  0.0000000 )
                  (  0.0000000  0.0000000 -1.0000000 )

   Cartesian axes

     site n.     atom                  positions (alat units)
         1           In  tau(   1) = (   0.5000000   0.0000000   0.5015213  )
         2           In  tau(   2) = (   0.0000000   0.5000000   1.3829407  )
         3           In  tau(   3) = (   0.5000000   0.5000000   0.0000000  )
         4           Cu  tau(   4) = (   0.0000000   0.5000000   0.4976431  )
         5           Cu  tau(   5) = (   0.5000000   0.0000000   1.3868189  )
         6           Cu  tau(   6) = (   0.0000000   0.0000000   0.0000000  )
         7           Si  tau(   7) = (   0.0000000   0.0000000   0.9422310  )
         8           Se  tau(   8) = (   0.7732850   0.2601160   0.7504851  )
         9           Se  tau(   9) = (   0.2506530   0.7780990   1.6346577  )
        10           Se  tau(  10) = (   0.2267150   0.7398840   0.7504851  )
        11           Se  tau(  11) = (   0.7493470   0.2219010   1.6346577  )
        12           Se  tau(  12) = (   0.2219010   0.2506530   0.2498043  )
        13           Se  tau(  13) = (   0.7398840   0.7732850   1.1339769  )
        14           Se  tau(  14) = (   0.7780990   0.7493470   0.2498043  )
        15           Se  tau(  15) = (   0.2601160   0.2267150   1.1339769  )

   Crystallographic axes

     site n.     atom                  positions (cryst. coord.)
         1           In  tau(   1) = (  0.5000000  0.0000000  0.2661350  )
         2           In  tau(   2) = (  0.0000000  0.5000000  0.7338650  )
         3           In  tau(   3) = (  0.5000000  0.5000000  0.0000000  )
         4           Cu  tau(   4) = (  0.0000000  0.5000000  0.2640770  )
         5           Cu  tau(   5) = (  0.5000000  0.0000000  0.7359230  )
         6           Cu  tau(   6) = (  0.0000000  0.0000000  0.0000000  )
         7           Si  tau(   7) = (  0.0000000  0.0000000  0.5000000  )
         8           Se  tau(   8) = (  0.7732850  0.2601160  0.3982490  )
         9           Se  tau(   9) = (  0.2506530  0.7780990  0.8674400  )
        10           Se  tau(  10) = (  0.2267150  0.7398840  0.3982490  )
        11           Se  tau(  11) = (  0.7493470  0.2219010  0.8674400  )
        12           Se  tau(  12) = (  0.2219010  0.2506530  0.1325600  )
        13           Se  tau(  13) = (  0.7398840  0.7732850  0.6017510  )
        14           Se  tau(  14) = (  0.7780990  0.7493470  0.1325600  )
        15           Se  tau(  15) = (  0.2601160  0.2267150  0.6017510  )

     number of k points=     6
                       cart. coord. in units 2pi/alat
        k(    1) = (   0.0000000   0.0000000   0.0000000), wk =   0.0740741
        k(    2) = (   0.0000000   0.0000000   0.1768851), wk =   0.1481481
        k(    3) = (   0.0000000   0.3333333   0.0000000), wk =   0.2962963
        k(    4) = (   0.0000000   0.3333333   0.1768851), wk =   0.5925926
        k(    5) = (   0.3333333   0.3333333   0.0000000), wk =   0.2962963
        k(    6) = (   0.3333333   0.3333333   0.1768851), wk =   0.5925926

                       cryst. coord.
        k(    1) = (   0.0000000   0.0000000   0.0000000), wk =   0.0740741
        k(    2) = (   0.0000000   0.0000000   0.3333333), wk =   0.1481481
        k(    3) = (   0.0000000   0.3333333   0.0000000), wk =   0.2962963
        k(    4) = (   0.0000000   0.3333333   0.3333333), wk =   0.5925926
        k(    5) = (   0.3333333   0.3333333   0.0000000), wk =   0.2962963
        k(    6) = (   0.3333333   0.3333333   0.3333333), wk =   0.5925926

     Check: negative core charge=   -0.000001

     Initial potential from superposition of free atoms

     starting charge     123.9870, renormalised to     124.0000
     Starting wfcs are   90 randomized atomic wfcs
     Checking if some PAW data can be deallocated...

     Self-consistent Calculation

     iteration #  1     ecut=    30.00 Ry     beta= 0.70
     Davidson diagonalization with overlap

     ethr =  1.00E-02,  avg # of iterations =  2.0

     Threshold (ethr) on eigenvalues was too large:
     Diagonalizing with lowered threshold

     Davidson diagonalization with overlap

[...]

     total energy              =   -1434.24309758 Ry
     estimated scf accuracy    <       0.46149687 Ry

[...]

     total energy              =   -1434.44706264 Ry
     estimated scf accuracy    <       0.00000100 Ry

     iteration # 12     ecut=    30.00 Ry     beta= 0.70
     Davidson diagonalization with overlap

     ethr =  8.07E-10,  avg # of iterations =  6.8

     End of self-consistent calculation

          k = 0.0000 0.0000 0.0000 (  7225 PWs)   bands (ev):

    -9.0814  -9.0814  -9.0623  -9.0470  -8.9908  -8.9908  -8.9042  -8.8393
    -8.8393  -8.8304  -8.8252  -8.8098  -8.8086  -8.7538  -8.7537  -8.2667
    -7.4699  -7.2708  -6.8555  -6.8555  -6.6200  -6.6200  -6.5993  -1.8634
    -0.2466  -0.1927   0.3025   1.4045   1.4045   1.4256   1.6577   1.8565
     2.0977   2.5531   2.5531   2.5539   2.5705   2.7713   2.7713   2.8895
     2.8895   3.0325   3.1437   3.1437   3.4773   3.8217   3.8217   4.0509
     4.0754   4.0969   4.1975   4.2686   4.3255   4.4978   4.6898   4.6898
     4.8403   5.1703   5.1703   5.7350   5.8221   5.8221   6.0687   7.4060

     occupation numbers
     1.0000   1.0000   1.0000   1.0000   1.0000   1.0000   1.0000   1.0000
     1.0000   1.0000   1.0000   1.0000   1.0000   1.0000   1.0000   1.0000
     1.0000   1.0000   1.0000   1.0000   1.0000   1.0000   1.0000   1.0000
     1.0000   1.0000   1.0000   1.0000   1.0000   1.0000   1.0000   1.0000
     1.0000   1.0000   1.0000   1.0000   1.0000   1.0000   1.0000   1.0000
     1.0000   1.0000   1.0000   1.0000   1.0000   1.0000   1.0000   1.0000
     1.0000   1.0000   1.0000   1.0000   1.0000   1.0000   1.0000   1.0000
     1.0000   1.0000   1.0000   1.0000   1.0000   1.0000   0.0000   0.0000

[...]

          k = 0.3333 0.3333 0.1769 (  7173 PWs)   bands (ev):

    -9.1011  -9.0806  -9.0756  -9.0377  -9.0065  -8.9925  -8.8998  -8.8795
    -8.8546  -8.8247  -8.8241  -8.8053  -8.8048  -8.7539  -8.7516  -7.8644
    -7.2917  -7.1284  -7.0538  -6.9122  -6.8381  -6.7938  -6.7236  -1.6843
    -0.2806  -0.1705  -0.0352   0.8445   1.0517   1.2980   1.5557   1.9365
     2.0130   2.3581   2.5165   2.6212   2.6974   2.7700   2.8476   2.9517
     3.0484   3.1264   3.2029   3.2450   3.5182   3.7525   3.9090   4.1888
     4.2613   4.2838   4.3234   4.4711   4.5861   4.6724   4.7519   4.8333
     4.9553   5.1217   5.2446   5.3539   5.4050   5.5960   7.0310   7.3885

     occupation numbers
     1.0000   1.0000   1.0000   1.0000   1.0000   1.0000   1.0000   1.0000
     1.0000   1.0000   1.0000   1.0000   1.0000   1.0000   1.0000   1.0000
     1.0000   1.0000   1.0000   1.0000   1.0000   1.0000   1.0000   1.0000
     1.0000   1.0000   1.0000   1.0000   1.0000   1.0000   1.0000   1.0000
     1.0000   1.0000   1.0000   1.0000   1.0000   1.0000   1.0000   1.0000
     1.0000   1.0000   1.0000   1.0000   1.0000   1.0000   1.0000   1.0000
     1.0000   1.0000   1.0000   1.0000   1.0000   1.0000   1.0000   1.0000
     1.0000   1.0000   1.0000   1.0000   1.0000   1.0000   0.0000   0.0000

     highest occupied, lowest unoccupied level (ev):     5.8221    6.0687

!    total energy              =   -1434.44706291 Ry
     estimated scf accuracy    <       0.00000098 Ry

     The total energy is the sum of the following terms:
     one-electron contribution =    -430.72250378 Ry
     hartree contribution      =     313.25084317 Ry
     xc contribution           =    -520.68836688 Ry
     ewald contribution        =    -526.84842284 Ry
     one-center paw contrib.   =    -269.43861258 Ry
      -> PAW hartree energy AE =       0.00000000 Ry
      -> PAW hartree energy PS =       0.00000000 Ry
      -> PAW xc energy AE      =       0.00000000 Ry
      -> PAW xc energy PS      =       0.00000000 Ry
      -> total E_H with PAW    =     313.25084317 Ry
      -> total E_XC with PAW   =    -520.68836688 Ry

     convergence has been achieved in  12 iterations

     Writing all to output data dir bands_nm/myprefix.save/

     General routines

     Parallel routines

     PAW routines

   This run was terminated on:  18:35:40  14Jul2023

   JOB DONE.