     Program PWSCF v.7.1 starts on 15Jul2023 at 18:12: 2

     Reading input from espresso_5627.pwi
Warning: card &CELL ignored
Warning: card / ignored

     Current dimensions of program PWSCF are:
     Max number of different atomic species (ntypx) = 10
     Max number of k-points (npk) =  40000
     Max angular momentum in pseudopotentials (lmaxx) =  4
     file K.pbe-spn-kjpaw_psl.1.0.0.UPF: wavefunction(s)  3S renormalized
     file O.pbe-n-kjpaw_psl.0.1.UPF: wavefunction(s)  2P renormalized

     K-points division:     npool     =       2
     R & G space division:  proc/nbgrp/npool/nimage =       4
     Subspace diagonalization in iterative solution of the eigenvalue problem:
     one sub-group per band group will be used

     Using Slab Decomposition

     bravais-lattice index     =            0
     lattice parameter (alat)  =      12.3064  a.u.
     unit-cell volume          =    1734.7254 (a.u.)^3
     number of atoms/cell      =           16
     number of atomic types    =            3
     number of electrons       =       152.00
     number of Kohn-Sham states=          256
     kinetic-energy cutoff     =      30.0000  Ry
     charge density cutoff     =     240.0000  Ry
     scf convergence threshold =      1.0E-06
     mixing beta               =       0.7000
     number of iterations used =            8  plain     mixing
     Exchange-correlation= SLA  PW   PBX  PBC
                           (   1   4   3   4   0   0   0)

     celldm(1)=  12.306412  celldm(2)=   0.000000  celldm(3)=   0.000000
     celldm(4)=   0.000000  celldm(5)=   0.000000  celldm(6)=   0.000000

     crystal axes: (cart. coord. in units of alat)
               a(1) = (   1.000000   0.000000   0.000000 )
               a(2) = (  -0.242069   0.967161   0.000000 )
               a(3) = (   0.250417   0.375980   0.962360 )

     reciprocal axes: (cart. coord. in units 2 pi/alat)
               b(1) = (  1.000000  0.250288 -0.357995 )
               b(2) = (  0.000000  1.033954 -0.403950 )
               b(3) = (  0.000000  0.000000  1.039112 )

     PseudoPot. # 1 for K  read from file:
     /lustre07/scratch/pragov/crystal_structure_design/utils/SSSP/K.pbe-spn-kjpaw_psl.1.0.0.UPF
     MD5 check sum: 7d58810084cac21f60fbe77ea2b688fd
     Pseudo is Projector augmented-wave + core cor, Zval =  9.0
     Generated using "atomic" code by A. Dal Corso  v.5.1
     Shape of augmentation charge: PSQ
     Using radial grid of 1165 points,  6 beta functions with:
                l(1) =   0
                l(2) =   0
                l(3) =   1
                l(4) =   1
                l(5) =   2
                l(6) =   2
     Q(r) pseudized with 0 coefficients

     PseudoPot. # 2 for Co read from file:
     /lustre07/scratch/pragov/crystal_structure_design/utils/SSSP/Co_pbe_v1.2.uspp.F.UPF
     MD5 check sum: 5f91765df6ddd3222702df6e7b74a16d
     Pseudo is Ultrasoft + core correction, Zval = 17.0
     Generated by new atomic code, or converted to UPF format
     Using radial grid of  863 points,  6 beta functions with:
                l(1) =   0
                l(2) =   0
                l(3) =   1
                l(4) =   1
                l(5) =   2
                l(6) =   2
     Q(r) pseudized with  8 coefficients,  rinner =    1.200   1.200   1.200
                                                       1.200   1.200

     PseudoPot. # 3 for O  read from file:
     /lustre07/scratch/pragov/crystal_structure_design/utils/SSSP/O.pbe-n-kjpaw_psl.0.1.UPF
     MD5 check sum: 0234752ac141de4415c5fc33072bef88
     Pseudo is Projector augmented-wave + core cor, Zval =  6.0
     Generated using "atomic" code by A. Dal Corso  v.5.0.99 svn rev. 10869
     Shape of augmentation charge: BESSEL
     Using radial grid of 1095 points,  4 beta functions with:
                l(1) =   0
                l(2) =   0
                l(3) =   1
                l(4) =   1
     Q(r) pseudized with 0 coefficients

     atomic species   valence    mass     pseudopotential
        K              9.00    39.09830     K ( 1.00)
        Co            17.00    58.93319     Co( 1.00)
        O              6.00    15.99900     O ( 1.00)

     No symmetry found

                                    s                        frac. trans.

      isym =  1     identity

 cryst.   s( 1) = (     1          0          0      )
                  (     0          1          0      )
                  (     0          0          1      )

 cart.    s( 1) = (  1.0000000  0.0000000  0.0000000 )
                  (  0.0000000  1.0000000 -0.0000000 )
                  (  0.0000000  0.0000000  1.0000000 )

   Cartesian axes

     site n.     atom                  positions (alat units)
         1           K   tau(   1) = (   0.7573997   0.9058955   0.7037636  )
         2           K   tau(   2) = (   0.2574164   0.9059756   0.7037213  )
         3           K   tau(   3) = (   0.2509318   0.4371769   0.2586382  )
         4           K   tau(   4) = (   0.7509505   0.4372495   0.2585988  )
         5           Co  tau(   5) = (   0.7581670   0.9408305   0.1991230  )
         6           Co  tau(   6) = (   0.7501802   0.4023093   0.7632385  )
         7           Co  tau(   7) = (   0.2581731   0.9409515   0.1990960  )
         8           Co  tau(   8) = (   0.2501746   0.4021876   0.7632635  )
         9           O   tau(   9) = (   0.0007936   0.2099768   0.0270712  )
        10           O   tau(  10) = (   0.5007952   0.2098965   0.0270587  )
        11           O   tau(  11) = (   1.0075517   1.1332443   0.9353027  )
        12           O   tau(  12) = (   0.5075541   1.1331636   0.9352893  )
        13           O   tau(  13) = (   1.0001903   0.4198207   0.6256026  )
        14           O   tau(  14) = (   0.5002945   0.4198404   0.6256084  )
        15           O   tau(  15) = (   0.0080518   0.9232881   0.3367511  )
        16           O   tau(  16) = (   0.5081568   0.9233178   0.3367578  )

   Crystallographic axes

     site n.     atom                  positions (cryst. coord.)
         1           K   tau(   1) = (  0.7321910  0.6523690  0.7312890  )
         2           K   tau(   2) = (  0.2322430  0.6524690  0.7312450  )
         3           K   tau(   3) = (  0.2677610  0.3475440  0.2687540  )
         4           K   tau(   4) = (  0.7678120  0.3476350  0.2687130  )
         5           Co  tau(   5) = (  0.9223610  0.8923400  0.2069110  )
         6           Co  tau(   6) = (  0.5776380  0.1076590  0.7930900  )
         7           Co  tau(   7) = (  0.4224070  0.8924760  0.2068830  )
         8           Co  tau(   8) = (  0.0775930  0.1075230  0.7931160  )
         9           O   tau(   9) = (  0.0436570  0.2061710  0.0281300  )
        10           O   tau(  10) = (  0.5436430  0.2060930  0.0281170  )
        11           O   tau(  11) = (  0.9563560  0.7939070  0.9718840  )
        12           O   tau(  12) = (  0.4563430  0.7938290  0.9718700  )
        13           O   tau(  13) = (  0.8813040  0.1813630  0.6500710  )
        14           O   tau(  14) = (  0.3814110  0.1813810  0.6500770  )
        15           O   tau(  15) = (  0.1185850  0.8186070  0.3499220  )
        16           O   tau(  16) = (  0.6186950  0.8186350  0.3499290  )

     number of k points=    14
                       cart. coord. in units 2pi/alat
        k(    1) = (   0.0000000   0.0000000   0.0000000), wk =   0.0740741
        k(    2) = (   0.0000000   0.0000000   0.3463706), wk =   0.1481481
        k(    3) = (   0.0000000   0.3446515  -0.1346501), wk =   0.1481481
        k(    4) = (   0.0000000   0.3446515   0.2117204), wk =   0.1481481
        k(    5) = (   0.0000000   0.3446515  -0.4810207), wk =   0.1481481
        k(    6) = (   0.3333333   0.0834295  -0.1193317), wk =   0.1481481
        k(    7) = (   0.3333333   0.0834295   0.2270389), wk =   0.1481481
        k(    8) = (   0.3333333   0.0834295  -0.4657022), wk =   0.1481481
        k(    9) = (   0.3333333   0.4280810  -0.2539818), wk =   0.1481481
        k(   10) = (   0.3333333   0.4280810   0.0923887), wk =   0.1481481
        k(   11) = (   0.3333333   0.4280810  -0.6003524), wk =   0.1481481
        k(   12) = (   0.3333333  -0.2612220   0.0153185), wk =   0.1481481
        k(   13) = (   0.3333333  -0.2612220   0.3616890), wk =   0.1481481
        k(   14) = (   0.3333333  -0.2612220  -0.3310521), wk =   0.1481481

                       cryst. coord.
        k(    1) = (   0.0000000   0.0000000   0.0000000), wk =   0.0740741
        k(    2) = (   0.0000000   0.0000000   0.3333333), wk =   0.1481481
        k(    3) = (   0.0000000   0.3333333  -0.0000000), wk =   0.1481481
        k(    4) = (   0.0000000   0.3333333   0.3333333), wk =   0.1481481
        k(    5) = (   0.0000000   0.3333333  -0.3333333), wk =   0.1481481
        k(    6) = (   0.3333333   0.0000000   0.0000000), wk =   0.1481481
        k(    7) = (   0.3333333   0.0000000   0.3333333), wk =   0.1481481
        k(    8) = (   0.3333333   0.0000000  -0.3333333), wk =   0.1481481
        k(    9) = (   0.3333333   0.3333333   0.0000000), wk =   0.1481481
        k(   10) = (   0.3333333   0.3333333   0.3333333), wk =   0.1481481
        k(   11) = (   0.3333333   0.3333333  -0.3333333), wk =   0.1481481
        k(   12) = (   0.3333333  -0.3333333   0.0000000), wk =   0.1481481
        k(   13) = (   0.3333333  -0.3333333   0.3333333), wk =   0.1481481
        k(   14) = (   0.3333333  -0.3333333  -0.3333333), wk =   0.1481481

     Check: negative core charge=   -0.000017

     Initial potential from superposition of free atoms

     starting charge     147.9246, renormalised to     152.0000
     Starting wfcs are  116 randomized atomic wfcs +  140 random wfcs
     Checking if some PAW data can be deallocated...

     Self-consistent Calculation

     iteration #  1     ecut=    30.00 Ry     beta= 0.70
     Davidson diagonalization with overlap

     ethr =  1.00E-02,  avg # of iterations =  7.0

     total energy              =   -1963.51331110 Ry
     estimated scf accuracy    <      21.15311047 Ry

[...]

     total energy              =   -1978.66698778 Ry
     estimated scf accuracy    <       0.00000337 Ry

     iteration # 31     ecut=    30.00 Ry     beta= 0.70
     Davidson diagonalization with overlap

     ethr =  1.33E-09,  avg # of iterations =  1.0

     End of self-consistent calculation

          k = 0.0000 0.0000 0.0000 (  4805 PWs)   bands (ev):

   -88.8878 -88.8876 -88.8833 -88.8827 -52.2908 -52.2905 -52.2342 -52.2298
   -52.0929 -52.0874 -52.0799 -52.0775 -52.0547 -52.0510 -52.0503 -52.0476
   -23.4241 -23.3945 -23.3012 -23.2973 -11.9968 -11.7760 -11.5630 -11.5365
   -11.4926 -11.4744 -11.3277 -11.1925  -7.3656  -7.3654  -6.9754  -6.8724
    -6.8136  -6.7988  -6.7855  -6.7839  -6.7399  -6.7200  -6.5710  -6.5436
     0.9782   1.0684   1.4415   1.5260   1.5592   1.6702   1.8211   2.0088
     2.0971   2.1019   2.1404   2.2146   2.2743   2.3829   2.4779   2.6404
     2.8100   2.8168   3.3263   3.6474   3.6503   3.9030   4.1329   4.2702
     5.1243   5.3068   5.3404   5.3997   5.6122   5.9950   6.0599   6.1116
     6.1399   6.3905   6.5213   6.8321   6.9569   6.9819   7.1731   7.4365
     7.5607   7.5913   7.7803   7.8134   8.8363  11.4457  11.9676  12.0428
    12.1815  12.4673  12.5400  12.5878  12.8106  13.1890  13.7750  14.0438
    14.0759  14.2135  14.2724  14.3598  15.0149  15.2212  15.2662  15.4728
    15.5773  15.7192  15.7495  16.0217  16.0750  16.1670  16.2706  16.5387
    17.3466  17.5738  17.6943  17.7776  18.3092  18.5660  18.8604  19.0495
    19.2366  19.6765  19.7262  19.9353  20.3064  20.4128  20.6630  21.2264
    21.3639  21.5826  21.7767  22.0202  22.0996  22.3835  22.4250  22.8197
    22.9579  23.3073  23.5903  23.6605  23.7326  23.8916  24.6310  24.8377
    25.3102  25.5718  25.7121  25.7820  26.8625  26.9396  27.1732  27.3295
    27.5064  27.7010  27.8260  27.9683  28.3821  28.4642  28.4720  28.6521
    28.7140  28.9339  28.9779  29.1156  29.3336  29.3392  29.5424  29.9676
    30.0544  30.2374  30.4130  30.8244  30.9675  31.1940  31.3732  31.6899
    32.1670  32.1779  32.7131  32.7162  32.9895  32.9961  33.4322  33.5280
    33.8389  33.8491  34.2202  34.2230  34.4066  34.8262  34.9092  35.1109
    35.4578  35.5494  35.9390  36.0568  36.1770  36.2210  36.3667  36.5628
    36.8034  36.8406  37.0219  37.3509  37.5316  37.6995  37.8785  37.9148
    38.2636  38.4980  38.7272  39.0329  39.0953  39.3010  39.4324  39.4435
    39.4447  39.6613  39.8115  39.8446  40.0780  40.3046  40.3560  40.3807
    40.6184  40.6948  40.7977  41.1232  41.2233  41.3081  41.6377  42.0384
    42.1749  42.2352  42.2703  42.3131  42.3392  42.4312  42.7913  42.8944
    43.0419  43.3518  44.0278  44.1500  44.1728  44.3089  44.3407  44.4577
    44.5531  44.9224  44.9356  45.1113  45.3340  45.5076  45.5610  45.9177

     occupation numbers
     1.0000   1.0000   1.0000   1.0000   1.0000   1.0000   1.0000   1.0000
     1.0000   1.0000   1.0000   1.0000   1.0000   1.0000   1.0000   1.0000
     1.0000   1.0000   1.0000   1.0000   1.0000   1.0000   1.0000   1.0000
     1.0000   1.0000   1.0000   1.0000   1.0000   1.0000   1.0000   1.0000
     1.0000   1.0000   1.0000   1.0000   1.0000   1.0000   1.0000   1.0000
     1.0000   1.0000   1.0000   1.0000   1.0000   1.0000   1.0000   1.0000
     1.0000   1.0000   1.0000   1.0000   1.0000   1.0000   1.0000   1.0000
     1.0000   1.0000   1.0000   1.0000   1.0000   1.0000   1.0000   1.0000
     1.0000   1.0000   1.0000   1.0000   1.0000   1.0000   1.0000   1.0000
     1.0000   1.0000   1.0000   1.0000   0.0000   0.0000   0.0000   0.0000
     0.0000   0.0000   0.0000   0.0000   0.0000   0.0000   0.0000   0.0000
     0.0000   0.0000   0.0000   0.0000   0.0000   0.0000   0.0000   0.0000
     0.0000   0.0000   0.0000   0.0000   0.0000   0.0000   0.0000   0.0000
     0.0000   0.0000   0.0000   0.0000   0.0000   0.0000   0.0000   0.0000
     0.0000   0.0000   0.0000   0.0000   0.0000   0.0000   0.0000   0.0000
     0.0000   0.0000   0.0000   0.0000   0.0000   0.0000   0.0000   0.0000
     0.0000   0.0000   0.0000   0.0000   0.0000   0.0000   0.0000   0.0000
     0.0000   0.0000   0.0000   0.0000   0.0000   0.0000   0.0000   0.0000
     0.0000   0.0000   0.0000   0.0000   0.0000   0.0000   0.0000   0.0000
     0.0000   0.0000   0.0000   0.0000   0.0000   0.0000   0.0000   0.0000
     0.0000   0.0000   0.0000   0.0000   0.0000   0.0000   0.0000   0.0000
     0.0000   0.0000   0.0000   0.0000   0.0000   0.0000   0.0000   0.0000
     0.0000   0.0000   0.0000   0.0000   0.0000   0.0000   0.0000   0.0000
     0.0000   0.0000   0.0000   0.0000   0.0000   0.0000   0.0000   0.0000
     0.0000   0.0000   0.0000   0.0000   0.0000   0.0000   0.0000   0.0000
     0.0000   0.0000   0.0000   0.0000   0.0000   0.0000   0.0000   0.0000
     0.0000   0.0000   0.0000   0.0000   0.0000   0.0000   0.0000   0.0000
     0.0000   0.0000   0.0000   0.0000   0.0000   0.0000   0.0000   0.0000
     0.0000   0.0000   0.0000   0.0000   0.0000   0.0000   0.0000   0.0000
     0.0000   0.0000   0.0000   0.0000   0.0000   0.0000   0.0000   0.0000
     0.0000   0.0000   0.0000   0.0000   0.0000   0.0000   0.0000   0.0000
     0.0000   0.0000   0.0000   0.0000   0.0000   0.0000   0.0000   0.0000

[...]

          k = 0.3333-0.2612-0.3311 (  4798 PWs)   bands (ev):

   -88.8878 -88.8878 -88.8828 -88.8826 -52.2897 -52.2881 -52.2334 -52.2323
   -52.0895 -52.0837 -52.0812 -52.0789 -52.0548 -52.0546 -52.0476 -52.0452
   -23.3916 -23.3726 -23.3336 -23.3205 -11.9281 -11.7455 -11.7298 -11.6114
   -11.4167 -11.4123 -11.2934 -11.2276  -7.1933  -7.1656  -6.9278  -6.8460
    -6.8290  -6.8055  -6.8033  -6.7919  -6.7754  -6.7578  -6.7402  -6.7355
     0.9989   1.1582   1.1808   1.3742   1.7075   1.9063   1.9592   2.0746
     2.1244   2.1995   2.2650   2.2985   2.3152   2.4260   2.4697   2.6600
     2.7682   2.9554   2.9574   3.0793   3.3808   3.7790   4.1304   4.3231
     5.1996   5.2933   5.4633   5.6379   5.7697   5.9812   6.1395   6.3705
     6.3883   6.5381   6.5774   6.7436   6.8610   6.9901   7.0458   7.2081
     7.2659   7.3241   7.4595   7.6077  10.3697  11.6995  11.8497  11.8835
    11.9423  12.5437  12.6380  12.9560  13.0376  13.2952  13.5108  13.7423
    13.8413  14.1050  14.5235  14.6248  14.6356  14.8183  15.1112  15.1975
    15.4444  15.4574  15.5362  15.5527  16.1607  16.3080  16.5949  16.8421
    17.2052  17.2492  17.7438  18.0721  18.6127  18.6196  18.8763  19.2575
    19.3533  19.9418  19.9425  20.0274  20.3942  20.6025  20.7573  20.8961
    21.0765  21.3434  21.4149  21.5431  21.8256  22.2319  22.5014  22.7296
    22.8814  22.9461  23.6039  23.7235  24.3080  24.5768  24.6930  25.0624
    25.1306  25.6617  25.8093  26.2328  26.5065  26.5934  26.8307  27.0387
    27.2243  27.3213  27.8411  27.8472  28.2156  28.4002  28.5206  28.6730
    28.8037  29.0636  29.4592  29.6570  29.7413  29.9807  30.2345  30.5049
    30.6047  30.7652  30.9773  31.0608  31.1445  31.4291  31.6524  31.8670
    32.0514  32.3063  32.5235  32.5626  32.7541  32.7753  33.0171  33.1747
    33.7717  33.7948  33.9132  34.1662  34.3199  34.4735  34.5756  34.7927
    35.2039  35.2072  35.4648  35.6986  35.9701  36.2217  36.3218  36.5548
    36.5789  36.6598  36.8378  37.0755  37.2083  37.3974  37.5862  37.7267
    37.8103  38.3508  38.5227  38.5478  38.5977  38.6720  38.7897  39.0327
    39.1415  39.2753  39.7229  39.7997  40.3032  40.3789  40.5942  40.6541
    40.6734  40.9110  40.9540  41.2853  41.5216  41.6519  41.6689  41.7949
    41.8033  42.0671  42.1526  42.6279  42.7026  42.7768  42.8546  43.6044
    43.6049  43.7623  43.8507  44.0876  44.2307  44.5217  44.8725  44.8856
    45.1013  45.1926  45.4815  45.5270  45.6484  45.8551  46.0181  46.1279

     occupation numbers
     1.0000   1.0000   1.0000   1.0000   1.0000   1.0000   1.0000   1.0000
     1.0000   1.0000   1.0000   1.0000   1.0000   1.0000   1.0000   1.0000
     1.0000   1.0000   1.0000   1.0000   1.0000   1.0000   1.0000   1.0000
     1.0000   1.0000   1.0000   1.0000   1.0000   1.0000   1.0000   1.0000
     1.0000   1.0000   1.0000   1.0000   1.0000   1.0000   1.0000   1.0000
     1.0000   1.0000   1.0000   1.0000   1.0000   1.0000   1.0000   1.0000
     1.0000   1.0000   1.0000   1.0000   1.0000   1.0000   1.0000   1.0000
     1.0000   1.0000   1.0000   1.0000   1.0000   1.0000   1.0000   1.0000
     1.0000   1.0000   1.0000   1.0000   1.0000   1.0000   1.0000   1.0000
     1.0000   1.0000   1.0000   1.0000   0.0000   0.0000   0.0000   0.0000
     0.0000   0.0000   0.0000   0.0000   0.0000   0.0000   0.0000   0.0000
     0.0000   0.0000   0.0000   0.0000   0.0000   0.0000   0.0000   0.0000
     0.0000   0.0000   0.0000   0.0000   0.0000   0.0000   0.0000   0.0000
     0.0000   0.0000   0.0000   0.0000   0.0000   0.0000   0.0000   0.0000
     0.0000   0.0000   0.0000   0.0000   0.0000   0.0000   0.0000   0.0000
     0.0000   0.0000   0.0000   0.0000   0.0000   0.0000   0.0000   0.0000
     0.0000   0.0000   0.0000   0.0000   0.0000   0.0000   0.0000   0.0000
     0.0000   0.0000   0.0000   0.0000   0.0000   0.0000   0.0000   0.0000
     0.0000   0.0000   0.0000   0.0000   0.0000   0.0000   0.0000   0.0000
     0.0000   0.0000   0.0000   0.0000   0.0000   0.0000   0.0000   0.0000
     0.0000   0.0000   0.0000   0.0000   0.0000   0.0000   0.0000   0.0000
     0.0000   0.0000   0.0000   0.0000   0.0000   0.0000   0.0000   0.0000
     0.0000   0.0000   0.0000   0.0000   0.0000   0.0000   0.0000   0.0000
     0.0000   0.0000   0.0000   0.0000   0.0000   0.0000   0.0000   0.0000
     0.0000   0.0000   0.0000   0.0000   0.0000   0.0000   0.0000   0.0000
     0.0000   0.0000   0.0000   0.0000   0.0000   0.0000   0.0000   0.0000
     0.0000   0.0000   0.0000   0.0000   0.0000   0.0000   0.0000   0.0000
     0.0000   0.0000   0.0000   0.0000   0.0000   0.0000   0.0000   0.0000
     0.0000   0.0000   0.0000   0.0000   0.0000   0.0000   0.0000   0.0000
     0.0000   0.0000   0.0000   0.0000   0.0000   0.0000   0.0000   0.0000
     0.0000   0.0000   0.0000   0.0000   0.0000   0.0000   0.0000   0.0000
     0.0000   0.0000   0.0000   0.0000   0.0000   0.0000   0.0000   0.0000

     highest occupied, lowest unoccupied level (ev):     6.8805    6.8540

!    total energy              =   -1978.66698731 Ry
     estimated scf accuracy    <       0.00000069 Ry

     The total energy is the sum of the following terms:
     one-electron contribution =   -1404.46027949 Ry
     hartree contribution      =     763.09162711 Ry
     xc contribution           =    -234.04659837 Ry
     ewald contribution        =    -805.33946975 Ry
     one-center paw contrib.   =    -297.91226680 Ry
      -> PAW hartree energy AE =      75.69507154 Ry
      -> PAW hartree energy PS =     -75.27434035 Ry
      -> PAW xc energy AE      =    -132.47271440 Ry
      -> PAW xc energy PS      =      21.21736086 Ry
      -> total E_H with PAW    =     763.51235831 Ry
      -> total E_XC with PAW   =    -345.30195190 Ry

     convergence has been achieved in  31 iterations

     Writing all to output data dir bands_nm/myprefix.save/

     General routines

     Parallel routines

     PAW routines

   This run was terminated on:  18:14:42  15Jul2023

   JOB DONE.