     Program PWSCF v.7.1 starts on 16Jul2023 at 14:55:32

     Reading input from espresso_26760.pwi
Warning: card &CELL ignored
Warning: card / ignored

     Current dimensions of program PWSCF are:
     Max number of different atomic species (ntypx) = 10
     Max number of k-points (npk) =  40000
     Max angular momentum in pseudopotentials (lmaxx) =  4
     Message from routine setup:
     using ibrav=0 with symmetry is DISCOURAGED, use correct ibrav instead

     K-points division:     npool     =       2
     R & G space division:  proc/nbgrp/npool/nimage =       4
     Subspace diagonalization in iterative solution of the eigenvalue problem:
     a serial algorithm will be used

     Using Slab Decomposition

     bravais-lattice index     =            0
     lattice parameter (alat)  =       9.9796  a.u.
     unit-cell volume          =    1976.0319 (a.u.)^3
     number of atoms/cell      =           16
     number of atomic types    =            2
     number of electrons       =        64.00
     number of Kohn-Sham states=           64
     kinetic-energy cutoff     =      30.0000  Ry
     charge density cutoff     =     240.0000  Ry
     scf convergence threshold =      1.0E-06
     mixing beta               =       0.7000
     number of iterations used =            8  plain     mixing
     Exchange-correlation= PBE
                           (   1   4   3   4   0   0   0)

     celldm(1)=   9.979578  celldm(2)=   0.000000  celldm(3)=   0.000000
     celldm(4)=   0.000000  celldm(5)=   0.000000  celldm(6)=   0.000000

     crystal axes: (cart. coord. in units of alat)
               a(1) = (   1.000000   0.000000   0.000000 )
               a(2) = (   0.000000   1.103099   0.000000 )
               a(3) = (   0.000000   0.956855   1.802366 )

     reciprocal axes: (cart. coord. in units 2 pi/alat)
               b(1) = (  1.000000  0.000000  0.000000 )
               b(2) = (  0.000000  0.906537 -0.481270 )
               b(3) = (  0.000000  0.000000  0.554826 )

     PseudoPot. # 1 for Li read from file:
     /lustre07/scratch/pragov/crystal_structure_design/utils/SSSP/li_pbe_v1.4.uspp.F.UPF
     MD5 check sum: e912e257baa3777c20ea3d68f190483c
     Pseudo is Ultrasoft, Zval =  3.0
     Generated by new atomic code, or converted to UPF format
     Using radial grid of  751 points,  5 beta functions with:
                l(1) =   0
                l(2) =   0
                l(3) =   0
                l(4) =   1
                l(5) =   1
     Q(r) pseudized with 10 coefficients,  rinner =    1.150   1.150   1.150

     PseudoPot. # 2 for As read from file:
     /lustre07/scratch/pragov/crystal_structure_design/utils/SSSP/As.pbe-n-rrkjus_psl.0.2.UPF
     MD5 check sum: 767315de957beeeb34f87d97bf945c8f
     Pseudo is Ultrasoft + core correction, Zval =  5.0
     Generated using "atomic" code by A. Dal Corso  v.5.0.99 svn rev. 10869
     Using radial grid of 1209 points,  4 beta functions with:
                l(1) =   0
                l(2) =   0
                l(3) =   1
                l(4) =   1
     Q(r) pseudized with 0 coefficients

     atomic species   valence    mass     pseudopotential
        Li             3.00     6.94000     Li( 1.00)
        As             5.00    74.92159     As( 1.00)

      4 Sym. Ops., with inversion, found ( 2 have fractional translation)

                                    s                        frac. trans.

      isym =  1     identity

 cryst.   s( 1) = (     1          0          0      )
                  (     0          1          0      )
                  (     0          0          1      )

 cart.    s( 1) = (  1.0000000  0.0000000  0.0000000 )
                  (  0.0000000  1.0000000  0.0000000 )
                  (  0.0000000  0.0000000  1.0000000 )

      isym =  2     180 deg rotation - cart. axis [1,0,0]

 cryst.   s( 2) = (     1          0          0      )    f =(  0.5000000 )
                  (     0         -1          0      )       (  0.0000000 )
                  (     0          0         -1      )       (  0.5000000 )

 cart.    s( 2) = (  1.0000000  0.0000000  0.0000000 )    f =(  0.5000000 )
                  (  0.0000000 -1.0000000  0.0000000 )       (  0.4784275 )
                  (  0.0000000  0.0000000 -1.0000000 )       (  0.9011830 )

      isym =  3     inversion

 cryst.   s( 3) = (    -1          0          0      )
                  (     0         -1          0      )
                  (     0          0         -1      )

 cart.    s( 3) = ( -1.0000000  0.0000000  0.0000000 )
                  (  0.0000000 -1.0000000  0.0000000 )
                  (  0.0000000  0.0000000 -1.0000000 )

      isym =  4     inv. 180 deg rotation - cart. axis [1,0,0]

 cryst.   s( 4) = (    -1          0          0      )    f =( -0.5000000 )
                  (     0          1          0      )       ( -0.0000000 )
                  (     0          0          1      )       (  0.5000000 )

 cart.    s( 4) = ( -1.0000000  0.0000000  0.0000000 )    f =( -0.5000000 )
                  (  0.0000000  1.0000000  0.0000000 )       (  0.4784275 )
                  (  0.0000000  0.0000000  1.0000000 )       (  0.9011830 )

   Cartesian axes

     site n.     atom                  positions (alat units)
         1           Li  tau(   1) = (   0.1672110   0.6815030   0.8078205  )
         2           Li  tau(   2) = (   0.6672110   0.9000235   0.0933626  )
         3           Li  tau(   3) = (   0.8327890   1.3784510   0.9945456  )
         4           Li  tau(   4) = (   0.3327890   1.1599305   1.7090035  )
         5           Li  tau(   5) = (   0.9150680   0.4242581   0.3088156  )
         6           Li  tau(   6) = (   0.4150680   1.1572684   0.5923674  )
         7           Li  tau(   7) = (   0.0849320   1.6356959   1.4935504  )
         8           Li  tau(   8) = (   0.5849320   0.9026856   1.2099986  )
         9           As  tau(   9) = (   0.6658580   0.6993236   0.7228101  )
        10           As  tau(  10) = (   0.1658580   0.8822029   0.1783730  )
        11           As  tau(  11) = (   0.3341420   1.3606304   1.0795560  )
        12           As  tau(  12) = (   0.8341420   1.1777511   1.6239931  )
        13           As  tau(  13) = (   0.4223090   0.5229109   0.3581193  )
        14           As  tau(  14) = (   0.9223090   1.0586156   0.5430637  )
        15           As  tau(  15) = (   0.5776910   1.5370431   1.4442467  )
        16           As  tau(  16) = (   0.0776910   1.0013384   1.2593023  )

   Crystallographic axes

     site n.     atom                  positions (cryst. coord.)
         1           Li  tau(   1) = (  0.1672110  0.2290280  0.4482000  )
         2           Li  tau(   2) = (  0.6672110  0.7709720  0.0518000  )
         3           Li  tau(   3) = (  0.8327890  0.7709720  0.5518000  )
         4           Li  tau(   4) = (  0.3327890  0.2290280  0.9482000  )
         5           Li  tau(   5) = (  0.9150680  0.2359820  0.1713390  )
         6           Li  tau(   6) = (  0.4150680  0.7640180  0.3286610  )
         7           Li  tau(   7) = (  0.0849320  0.7640180  0.8286610  )
         8           Li  tau(   8) = (  0.5849320  0.2359820  0.6713390  )
         9           As  tau(   9) = (  0.6658580  0.2860960  0.4010340  )
        10           As  tau(  10) = (  0.1658580  0.7139040  0.0989660  )
        11           As  tau(  11) = (  0.3341420  0.7139040  0.5989660  )
        12           As  tau(  12) = (  0.8341420  0.2860960  0.9010340  )
        13           As  tau(  13) = (  0.4223090  0.3016860  0.1986940  )
        14           As  tau(  14) = (  0.9223090  0.6983140  0.3013060  )
        15           As  tau(  15) = (  0.5776910  0.6983140  0.8013060  )
        16           As  tau(  16) = (  0.0776910  0.3016860  0.6986940  )

     number of k points=    10
                       cart. coord. in units 2pi/alat
        k(    1) = (   0.0000000   0.0000000   0.0000000), wk =   0.0740741
        k(    2) = (   0.0000000   0.0000000   0.1849421), wk =   0.1481481
        k(    3) = (   0.0000000   0.3021790  -0.1604233), wk =   0.1481481
        k(    4) = (   0.0000000   0.3021790   0.0245188), wk =   0.1481481
        k(    5) = (   0.0000000   0.3021790  -0.3453654), wk =   0.1481481
        k(    6) = (   0.3333333   0.0000000   0.0000000), wk =   0.1481481
        k(    7) = (   0.3333333   0.0000000   0.1849421), wk =   0.2962963
        k(    8) = (   0.3333333   0.3021790  -0.1604233), wk =   0.2962963
        k(    9) = (   0.3333333   0.3021790   0.0245188), wk =   0.2962963
        k(   10) = (   0.3333333   0.3021790  -0.3453654), wk =   0.2962963

                       cryst. coord.
        k(    1) = (   0.0000000   0.0000000   0.0000000), wk =   0.0740741
        k(    2) = (   0.0000000   0.0000000   0.3333333), wk =   0.1481481
        k(    3) = (   0.0000000   0.3333333  -0.0000000), wk =   0.1481481
        k(    4) = (   0.0000000   0.3333333   0.3333333), wk =   0.1481481
        k(    5) = (   0.0000000   0.3333333  -0.3333333), wk =   0.1481481
        k(    6) = (   0.3333333   0.0000000   0.0000000), wk =   0.1481481
        k(    7) = (   0.3333333   0.0000000   0.3333333), wk =   0.2962963
        k(    8) = (   0.3333333   0.3333333  -0.0000000), wk =   0.2962963
        k(    9) = (   0.3333333   0.3333333   0.3333333), wk =   0.2962963
        k(   10) = (   0.3333333   0.3333333  -0.3333333), wk =   0.2962963

     Initial potential from superposition of free atoms

     starting charge      60.3922, renormalised to      64.0000
     Starting wfcs are   72 randomized atomic wfcs

     Self-consistent Calculation

     iteration #  1     ecut=    30.00 Ry     beta= 0.70
     Davidson diagonalization with overlap

     ethr =  1.00E-02,  avg # of iterations =  5.5

     Threshold (ethr) on eigenvalues was too large:
     Diagonalizing with lowered threshold

     Davidson diagonalization with overlap

[...]

     total energy              =    -261.90606076 Ry
     estimated scf accuracy    <       0.32076046 Ry

[...]

     total energy              =    -261.94028108 Ry
     estimated scf accuracy    <       0.00000480 Ry

     iteration #  7     ecut=    30.00 Ry     beta= 0.70
     Davidson diagonalization with overlap

     ethr =  7.50E-09,  avg # of iterations =  2.0

     End of self-consistent calculation

          k = 0.0000 0.0000 0.0000 (  5465 PWs)   bands (ev):

   -41.4408 -41.4404 -41.4401 -41.4395 -41.4200 -41.4196 -41.4155 -41.4150
    -8.1219  -7.7412  -6.1340  -5.7546  -5.5490  -5.4741  -3.1747  -3.0752
     0.0647   0.6593   0.8566   0.8742   1.6719   1.8131   1.9150   1.9803
     2.4415   2.6992   3.0494   3.1208   3.7420   3.7532   3.7925   4.4414
     5.4282   5.9590   6.2571   6.2670   6.4523   7.3684   7.6333   7.9185
     7.9893   8.8000   8.9869   9.0130   9.6554   9.8008   9.9712  10.5380
    10.5917  10.8421  11.0093  11.1269  11.6508  12.1511  12.5137  12.7749
    12.9537  13.0071  13.7430  14.0285  14.2624  14.3370  14.5111  14.8113

     occupation numbers
     1.0000   1.0000   1.0000   1.0000   1.0000   1.0000   1.0000   1.0000
     1.0000   1.0000   1.0000   1.0000   1.0000   1.0000   1.0000   1.0000
     1.0000   1.0000   1.0000   1.0000   1.0000   1.0000   1.0000   1.0000
     1.0000   1.0000   1.0000   1.0000   1.0000   1.0000   1.0000   1.0000
     0.0000   0.0000   0.0000   0.0000   0.0000   0.0000   0.0000   0.0000
     0.0000   0.0000   0.0000   0.0000   0.0000   0.0000   0.0000   0.0000
     0.0000   0.0000   0.0000   0.0000   0.0000   0.0000   0.0000   0.0000
     0.0000   0.0000   0.0000   0.0000   0.0000   0.0000   0.0000   0.0000

[...]

          k = 0.3333 0.3022-0.3454 (  5476 PWs)   bands (ev):

   -41.4407 -41.4402 -41.4400 -41.4398 -41.4200 -41.4198 -41.4154 -41.4150
    -7.6403  -7.5052  -6.9379  -6.6786  -4.9578  -4.5772  -3.7617  -3.6072
     0.1708   0.3920   0.6830   1.0200   1.3147   1.3666   1.6776   2.3546
     2.7309   2.8679   3.4339   3.4712   3.8335   4.1424   4.4414   4.6575
     5.8552   6.0836   6.4945   6.9912   7.1157   7.5374   7.8519   8.0557
     8.6197   8.8279   9.0087   9.2970   9.8344   9.9759  10.1506  10.4634
    10.5697  10.7713  11.0638  11.3630  11.6031  11.8345  12.1161  12.2898
    12.4035  12.5866  12.6488  12.9652  13.4074  13.5019  13.5801  13.7190

     occupation numbers
     1.0000   1.0000   1.0000   1.0000   1.0000   1.0000   1.0000   1.0000
     1.0000   1.0000   1.0000   1.0000   1.0000   1.0000   1.0000   1.0000
     1.0000   1.0000   1.0000   1.0000   1.0000   1.0000   1.0000   1.0000
     1.0000   1.0000   1.0000   1.0000   1.0000   1.0000   1.0000   1.0000
     0.0000   0.0000   0.0000   0.0000   0.0000   0.0000   0.0000   0.0000
     0.0000   0.0000   0.0000   0.0000   0.0000   0.0000   0.0000   0.0000
     0.0000   0.0000   0.0000   0.0000   0.0000   0.0000   0.0000   0.0000
     0.0000   0.0000   0.0000   0.0000   0.0000   0.0000   0.0000   0.0000

     highest occupied, lowest unoccupied level (ev):     4.8806    5.4282

!    total energy              =    -261.94028255 Ry
     estimated scf accuracy    <       0.00000032 Ry

     The total energy is the sum of the following terms:
     one-electron contribution =     -46.14019771 Ry
     hartree contribution      =      34.15879818 Ry
     xc contribution           =    -101.03633001 Ry
     ewald contribution        =    -148.92255300 Ry

     convergence has been achieved in   7 iterations

     Writing all to output data dir bands_nm/myprefix.save/

     General routines

     Parallel routines

   This run was terminated on:  14:55:39  16Jul2023

   JOB DONE.