     Program PWSCF v.7.1 starts on 16Jul2023 at 17:57:39

     Reading input from espresso_1404.pwi
Warning: card &CELL ignored
Warning: card / ignored

     Current dimensions of program PWSCF are:
     Max number of different atomic species (ntypx) = 10
     Max number of k-points (npk) =  40000
     Max angular momentum in pseudopotentials (lmaxx) =  4
     file Pb.pbe-dn-kjpaw_psl.0.2.2.UPF: wavefunction(s)  6S renormalized
     Message from routine setup:
     using ibrav=0 with symmetry is DISCOURAGED, use correct ibrav instead

     K-points division:     npool     =       2
     R & G space division:  proc/nbgrp/npool/nimage =       4
     Subspace diagonalization in iterative solution of the eigenvalue problem:
     one sub-group per band group will be used

     Using Slab Decomposition

     bravais-lattice index     =            0
     lattice parameter (alat)  =      13.1010  a.u.
     unit-cell volume          =    3843.2715 (a.u.)^3
     number of atoms/cell      =           18
     number of atomic types    =            3
     number of electrons       =       176.00
     number of Kohn-Sham states=          256
     kinetic-energy cutoff     =      30.0000  Ry
     charge density cutoff     =     240.0000  Ry
     scf convergence threshold =      1.0E-06
     mixing beta               =       0.7000
     number of iterations used =            8  plain     mixing
     Exchange-correlation=  SLA  PW   PBX  PBC
                           (   1   4   3   4   0   0   0)

     celldm(1)=  13.101037  celldm(2)=   0.000000  celldm(3)=   0.000000
     celldm(4)=   0.000000  celldm(5)=   0.000000  celldm(6)=   0.000000

     crystal axes: (cart. coord. in units of alat)
               a(1) = (   1.000000   0.000000   0.000000 )
               a(2) = (   0.000000   1.209232   0.000000 )
               a(3) = (   0.000000   0.017498   1.413431 )

     reciprocal axes: (cart. coord. in units 2 pi/alat)
               b(1) = (  1.000000  0.000000  0.000000 )
               b(2) = (  0.000000  0.826971 -0.010238 )
               b(3) = (  0.000000  0.000000  0.707498 )

     PseudoPot. # 1 for Pd read from file:
     /lustre07/scratch/pragov/crystal_structure_design/utils/SSSP/Pd_ONCV_PBE-1.0.oncvpsp.upf
     MD5 check sum: eb77f42b51d86fb18e25f68156a31cf1
     Pseudo is Norm-conserving, Zval = 18.0
     Generated using ONCVPSP code by D. R. Hamann
     Using radial grid of 1410 points,  6 beta functions with:
                l(1) =   0
                l(2) =   0
                l(3) =   1
                l(4) =   1
                l(5) =   2
                l(6) =   2

     PseudoPot. # 2 for Pb read from file:
     /lustre07/scratch/pragov/crystal_structure_design/utils/SSSP/Pb.pbe-dn-kjpaw_psl.0.2.2.UPF
     MD5 check sum: 9d431e6316058b74ade52399a6cf67da
     Pseudo is Projector augmented-wave + core cor, Zval = 14.0
     Generated using "atomic" code by A. Dal Corso  v.5.0.99 svn rev. 10869
     Shape of augmentation charge: PSQ
     Using radial grid of 1281 points,  6 beta functions with:
                l(1) =   0
                l(2) =   0
                l(3) =   1
                l(4) =   1
                l(5) =   2
                l(6) =   2
     Q(r) pseudized with 0 coefficients

     PseudoPot. # 3 for Br read from file:
     /lustre07/scratch/pragov/crystal_structure_design/utils/SSSP/br_pbe_v1.4.uspp.F.UPF
     MD5 check sum: d3ffb7b29f6225aa16fe06858fb2a80b
     Pseudo is Ultrasoft + core correction, Zval =  7.0
     Generated by new atomic code, or converted to UPF format
     Using radial grid of  879 points,  6 beta functions with:
                l(1) =   0
                l(2) =   0
                l(3) =   1
                l(4) =   1
                l(5) =   2
                l(6) =   2
     Q(r) pseudized with  8 coefficients,  rinner =    1.100   1.100   1.100
                                                       1.100   1.100

     atomic species   valence    mass     pseudopotential
        Pd            18.00   106.42000     Pd( 1.00)
        Pb            14.00   207.20000     Pb( 1.00)
        Br             7.00    79.90400     Br( 1.00)

      4 Sym. Ops., with inversion, found ( 2 have fractional translation)

                                    s                        frac. trans.

      isym =  1     identity

 cryst.   s( 1) = (     1          0          0      )
                  (     0          1          0      )
                  (     0          0          1      )

 cart.    s( 1) = (  1.0000000  0.0000000  0.0000000 )
                  (  0.0000000  1.0000000  0.0000000 )
                  (  0.0000000  0.0000000  1.0000000 )

      isym =  2     180 deg rotation - cart. axis [1,0,0]

 cryst.   s( 2) = (     1          0          0      )    f =(  0.5000000 )
                  (     0         -1          0      )       (  0.5000000 )
                  (     0          0         -1      )       (  0.0000000 )

 cart.    s( 2) = (  1.0000000  0.0000000  0.0000000 )    f =(  0.5000000 )
                  (  0.0000000 -1.0000000 -0.0000000 )       (  0.6046159 )
                  (  0.0000000  0.0000000 -1.0000000 )       (  0.0000000 )

      isym =  3     inversion

 cryst.   s( 3) = (    -1          0          0      )
                  (     0         -1          0      )
                  (     0          0         -1      )

 cart.    s( 3) = ( -1.0000000  0.0000000  0.0000000 )
                  (  0.0000000 -1.0000000 -0.0000000 )
                  (  0.0000000  0.0000000 -1.0000000 )

      isym =  4     inv. 180 deg rotation - cart. axis [1,0,0]

 cryst.   s( 4) = (    -1          0          0      )    f =(  0.5000000 )
                  (     0          1          0      )       (  0.5000000 )
                  (     0          0          1      )       (  0.0000000 )

 cart.    s( 4) = ( -1.0000000  0.0000000  0.0000000 )    f =(  0.5000000 )
                  (  0.0000000  1.0000000  0.0000000 )       (  0.6046159 )
                  (  0.0000000  0.0000000  1.0000000 )       (  0.0000000 )

   Cartesian axes

     site n.     atom                  positions (alat units)
         1           Pd  tau(   1) = (   0.5000000   0.6046159   0.0000000  )
         2           Pd  tau(   2) = (   0.0000000   0.0000000   0.0000000  )
         3           Pb  tau(   3) = (   0.9584770   0.4629034   0.3993860  )
         4           Pb  tau(   4) = (   0.4584770   0.1592106   1.0140447  )
         5           Pb  tau(   5) = (   0.0415230   0.7638265   1.0140447  )
         6           Pb  tau(   6) = (   0.5415230   1.0675193   0.3993860  )
         7           Br  tau(   7) = (   0.6561260   0.2103738   0.6266092  )
         8           Br  tau(   8) = (   0.1561260   0.4117402   0.7868215  )
         9           Br  tau(   9) = (   0.3438740   1.0163561   0.7868215  )
        10           Br  tau(  10) = (   0.8438740   0.8149897   0.6266092  )
        11           Br  tau(  11) = (   0.7040040   0.1767421   0.0924638  )
        12           Br  tau(  12) = (   0.2040040   0.4453719   1.3209669  )
        13           Br  tau(  13) = (   0.3734140   0.6417586   0.3329746  )
        14           Br  tau(  14) = (   0.8734140   1.1895872   1.0804561  )
        15           Br  tau(  15) = (   0.6265860   0.5849713   1.0804561  )
        16           Br  tau(  16) = (   0.1265860   0.0371427   0.3329746  )
        17           Br  tau(  17) = (   0.7959960   0.7813580   0.0924638  )
        18           Br  tau(  18) = (   0.2959960   1.0499878   1.3209669  )

   Crystallographic axes

     site n.     atom                  positions (cryst. coord.)
         1           Pd  tau(   1) = (  0.5000000  0.5000000  0.0000000  )
         2           Pd  tau(   2) = (  0.0000000  0.0000000  0.0000000  )
         3           Pb  tau(   3) = (  0.9584770  0.3787190  0.2825650  )
         4           Pb  tau(   4) = (  0.4584770  0.1212810  0.7174350  )
         5           Pb  tau(   5) = (  0.0415230  0.6212810  0.7174350  )
         6           Pb  tau(   6) = (  0.5415230  0.8787190  0.2825650  )
         7           Br  tau(   7) = (  0.6561260  0.1675580  0.4433250  )
         8           Br  tau(   8) = (  0.1561260  0.3324420  0.5566750  )
         9           Br  tau(   9) = (  0.3438740  0.8324420  0.5566750  )
        10           Br  tau(  10) = (  0.8438740  0.6675580  0.4433250  )
        11           Br  tau(  11) = (  0.7040040  0.1452140  0.0654180  )
        12           Br  tau(  12) = (  0.2040040  0.3547860  0.9345820  )
        13           Br  tau(  13) = (  0.3734140  0.5273070  0.2355790  )
        14           Br  tau(  14) = (  0.8734140  0.9726930  0.7644210  )
        15           Br  tau(  15) = (  0.6265860  0.4726930  0.7644210  )
        16           Br  tau(  16) = (  0.1265860  0.0273070  0.2355790  )
        17           Br  tau(  17) = (  0.7959960  0.6452140  0.0654180  )
        18           Br  tau(  18) = (  0.2959960  0.8547860  0.9345820  )

     number of k points=    10
                       cart. coord. in units 2pi/alat
        k(    1) = (   0.0000000   0.0000000   0.0000000), wk =   0.0740741
        k(    2) = (   0.0000000   0.0000000   0.2358328), wk =   0.1481481
        k(    3) = (   0.0000000   0.2756571  -0.0034126), wk =   0.1481481
        k(    4) = (   0.0000000   0.2756571   0.2324202), wk =   0.1481481
        k(    5) = (   0.0000000   0.2756571  -0.2392454), wk =   0.1481481
        k(    6) = (   0.3333333   0.0000000   0.0000000), wk =   0.1481481
        k(    7) = (   0.3333333   0.0000000   0.2358328), wk =   0.2962963
        k(    8) = (   0.3333333   0.2756571  -0.0034126), wk =   0.2962963
        k(    9) = (   0.3333333   0.2756571   0.2324202), wk =   0.2962963
        k(   10) = (   0.3333333   0.2756571  -0.2392454), wk =   0.2962963

                       cryst. coord.
        k(    1) = (   0.0000000   0.0000000   0.0000000), wk =   0.0740741
        k(    2) = (   0.0000000   0.0000000   0.3333333), wk =   0.1481481
        k(    3) = (   0.0000000   0.3333333   0.0000000), wk =   0.1481481
        k(    4) = (   0.0000000   0.3333333   0.3333333), wk =   0.1481481
        k(    5) = (   0.0000000   0.3333333  -0.3333333), wk =   0.1481481
        k(    6) = (   0.3333333   0.0000000   0.0000000), wk =   0.1481481
        k(    7) = (   0.3333333   0.0000000   0.3333333), wk =   0.2962963
        k(    8) = (   0.3333333   0.3333333   0.0000000), wk =   0.2962963
        k(    9) = (   0.3333333   0.3333333   0.3333333), wk =   0.2962963
        k(   10) = (   0.3333333   0.3333333  -0.3333333), wk =   0.2962963

     Check: negative core charge=   -0.000001

     Initial potential from superposition of free atoms

     starting charge     175.9896, renormalised to     176.0000
     Starting wfcs are  104 randomized atomic wfcs +  152 random wfcs
     Checking if some PAW data can be deallocated...

     Self-consistent Calculation

     iteration #  1     ecut=    30.00 Ry     beta= 0.70
     Davidson diagonalization with overlap

     ethr =  1.00E-02,  avg # of iterations =  7.1

     Threshold (ethr) on eigenvalues was too large:
     Diagonalizing with lowered threshold

     Davidson diagonalization with overlap

[...]

     total energy              =   -4550.88171847 Ry
     estimated scf accuracy    <       0.95005536 Ry

[...]

     total energy              =   -4551.29451923 Ry
     estimated scf accuracy    <       0.00000246 Ry

     iteration # 10     ecut=    30.00 Ry     beta= 0.70
     Davidson diagonalization with overlap

     ethr =  1.40E-09,  avg # of iterations =  4.0

     End of self-consistent calculation

          k = 0.0000 0.0000 0.0000 ( 10627 PWs)   bands (ev):

   -80.0672 -80.0672 -45.7732 -45.7731 -45.7584 -45.7579 -44.8396 -44.8394
   -11.9602 -11.9504 -11.9425 -11.9250 -11.9189 -11.9119 -11.9075 -11.9046
   -11.9035 -11.9024 -11.9002 -11.8976 -11.8943 -11.8942 -11.8921 -11.8874
   -11.8854 -11.8828 -11.8815 -11.8770 -10.0918  -9.8223  -9.6392  -9.5848
    -9.5448  -9.5232  -9.4876  -9.4464  -9.3955  -9.1479  -9.1269  -9.0295
    -3.3097  -3.1718  -3.0188  -2.3406   0.0734   0.2177   0.3504   0.4666
     0.5488   0.7097   1.0095   1.0236   1.1771   1.4151   1.5886   1.6466
     1.6807   1.8444   1.9650   1.9849   2.0334   2.1617   2.1996   2.3109
     2.3869   2.4446   2.5086   2.8033   2.8085   2.8846   2.9299   3.1680
     3.1937   3.2685   3.3793   3.4419   3.4662   3.4803   3.5575   3.5926
     3.6151   3.6953   3.6957   3.9115   4.0751   4.0774   4.3651   4.5109
     5.8521   5.9500   7.0375   7.0575   7.2714   7.6149   8.0405   8.1373
     8.3786   8.4649   8.6831   8.7711   8.9776   9.3340   9.6185  10.2748
    11.0931  11.2962  11.5931  11.7242  11.9805  12.2713  12.3171  12.4798
    12.5826  13.0747  13.1424  13.1924  13.3843  13.5131  13.5948  13.6192
    13.7737  13.7741  13.8634  13.9321  14.1164  14.1834  14.2098  14.3928
    14.4421  14.4963  14.6726  14.8268  15.0528  15.0869  15.1238  15.2354
    15.5323  15.7002  15.8031  15.9916  16.2000  16.2594  16.3017  16.5601
    16.6257  16.8191  16.8578  17.0426  17.2487  17.4189  17.6103  17.7336
    17.7848  17.9867  17.9908  18.3823  18.3833  18.3906  18.4079  18.6370
    18.6775  18.6843  18.7100  18.7570  19.1428  19.1603  19.1815  19.2165
    19.2214  19.4358  19.5869  19.6287  19.7309  19.9126  20.0974  20.1565
    20.2716  20.2794  20.4486  20.4529  20.4673  20.9193  20.9785  21.0576
    21.0705  21.2197  21.2315  21.4329  21.5602  21.6184  21.8013  21.9724
    22.1893  22.2030  22.2296  22.4747  22.5154  22.5238  22.7549  22.7686
    22.8439  22.9354  23.0099  23.1315  23.2728  23.3175  23.3521  23.4388
    23.5616  23.6069  23.7655  23.7829  23.8217  24.0123  24.1703  24.2213
    24.2719  24.4073  24.7945  24.8651  24.8818  24.8904  25.1424  25.2486
    25.4347  25.5637  25.6453  25.8482  25.8689  25.9403  25.9669  26.2201
    26.2395  26.2999  26.3676  26.5528  26.5533  26.6333  26.7338  26.8239
    26.9506  27.1675  27.2389  27.2826  27.2883  27.4719  27.6055  27.6632
    27.7376  27.8383  27.9952  28.0034  28.1188  28.1638  28.2687  28.4271

     occupation numbers
     1.0000   1.0000   1.0000   1.0000   1.0000   1.0000   1.0000   1.0000
     1.0000   1.0000   1.0000   1.0000   1.0000   1.0000   1.0000   1.0000
     1.0000   1.0000   1.0000   1.0000   1.0000   1.0000   1.0000   1.0000
     1.0000   1.0000   1.0000   1.0000   1.0000   1.0000   1.0000   1.0000
     1.0000   1.0000   1.0000   1.0000   1.0000   1.0000   1.0000   1.0000
     1.0000   1.0000   1.0000   1.0000   1.0000   1.0000   1.0000   1.0000
     1.0000   1.0000   1.0000   1.0000   1.0000   1.0000   1.0000   1.0000
     1.0000   1.0000   1.0000   1.0000   1.0000   1.0000   1.0000   1.0000
     1.0000   1.0000   1.0000   1.0000   1.0000   1.0000   1.0000   1.0000
     1.0000   1.0000   1.0000   1.0000   1.0000   1.0000   1.0000   1.0000
     1.0000   1.0000   1.0000   1.0000   1.0000   1.0000   1.0000   1.0000
     0.0000   0.0000   0.0000   0.0000   0.0000   0.0000   0.0000   0.0000
     0.0000   0.0000   0.0000   0.0000   0.0000   0.0000   0.0000   0.0000
     0.0000   0.0000   0.0000   0.0000   0.0000   0.0000   0.0000   0.0000
     0.0000   0.0000   0.0000   0.0000   0.0000   0.0000   0.0000   0.0000
     0.0000   0.0000   0.0000   0.0000   0.0000   0.0000   0.0000   0.0000
     0.0000   0.0000   0.0000   0.0000   0.0000   0.0000   0.0000   0.0000
     0.0000   0.0000   0.0000   0.0000   0.0000   0.0000   0.0000   0.0000
     0.0000   0.0000   0.0000   0.0000   0.0000   0.0000   0.0000   0.0000
     0.0000   0.0000   0.0000   0.0000   0.0000   0.0000   0.0000   0.0000
     0.0000   0.0000   0.0000   0.0000   0.0000   0.0000   0.0000   0.0000
     0.0000   0.0000   0.0000   0.0000   0.0000   0.0000   0.0000   0.0000
     0.0000   0.0000   0.0000   0.0000   0.0000   0.0000   0.0000   0.0000
     0.0000   0.0000   0.0000   0.0000   0.0000   0.0000   0.0000   0.0000
     0.0000   0.0000   0.0000   0.0000   0.0000   0.0000   0.0000   0.0000
     0.0000   0.0000   0.0000   0.0000   0.0000   0.0000   0.0000   0.0000
     0.0000   0.0000   0.0000   0.0000   0.0000   0.0000   0.0000   0.0000
     0.0000   0.0000   0.0000   0.0000   0.0000   0.0000   0.0000   0.0000
     0.0000   0.0000   0.0000   0.0000   0.0000   0.0000   0.0000   0.0000
     0.0000   0.0000   0.0000   0.0000   0.0000   0.0000   0.0000   0.0000
     0.0000   0.0000   0.0000   0.0000   0.0000   0.0000   0.0000   0.0000
     0.0000   0.0000   0.0000   0.0000   0.0000   0.0000   0.0000   0.0000

[...]

          k = 0.3333 0.2757-0.2392 ( 10670 PWs)   bands (ev):

   -80.0672 -80.0672 -45.7739 -45.7734 -45.7587 -45.7584 -44.8404 -44.8397
   -11.9498 -11.9450 -11.9399 -11.9344 -11.9231 -11.9164 -11.9061 -11.9051
   -11.9039 -11.9025 -11.9016 -11.9006 -11.8934 -11.8927 -11.8906 -11.8883
   -11.8855 -11.8844 -11.8794 -11.8786  -9.9285  -9.8496  -9.6513  -9.6069
    -9.5797  -9.5629  -9.5029  -9.4777  -9.3171  -9.2713  -9.0722  -9.0491
    -3.1765  -3.0937  -2.9493  -2.7608   0.2171   0.2946   0.3045   0.3680
     0.6326   0.7673   1.0998   1.3044   1.3668   1.4342   1.4784   1.5671
     1.6678   1.7744   1.8159   1.9863   2.1112   2.1250   2.2434   2.3184
     2.4581   2.5471   2.6027   2.7321   2.7482   2.9667   2.9806   3.0283
     3.0968   3.1884   3.2623   3.3288   3.3813   3.4441   3.5407   3.5797
     3.6158   3.8178   3.8578   3.9611   4.0567   4.1039   4.3299   4.3867
     5.7436   5.8115   6.9535   7.4002   7.5286   7.5588   7.8113   8.1168
     8.2033   8.3610   8.5480   8.7233   8.8627   9.0381  10.1900  10.5521
    11.0299  11.4425  11.6450  11.9419  12.0709  12.1720  12.2789  12.4195
    12.5548  12.7069  12.8097  12.8225  13.0174  13.1159  13.2728  13.3854
    13.4592  13.7240  13.7795  13.8959  13.9401  14.0899  14.2260  14.4801
    14.5301  14.8408  14.9616  15.2203  15.3385  15.3825  15.4087  15.7193
    15.7901  15.9545  16.0654  16.1209  16.2472  16.3516  16.4811  16.5731
    16.6504  16.8956  16.9628  17.0604  17.1803  17.2022  17.4352  17.4951
    17.5753  17.7071  17.8922  17.9781  18.1019  18.1646  18.3310  18.4686
    18.6787  18.7586  18.8417  18.9711  19.0668  19.1447  19.2491  19.3816
    19.4693  19.5911  19.7468  19.7756  20.0703  20.0905  20.2376  20.3103
    20.3631  20.4765  20.5988  20.6578  20.7905  20.8863  20.9810  21.0717
    21.1880  21.3535  21.4460  21.5516  21.5844  21.7372  21.9735  21.9811
    22.0282  22.1007  22.2135  22.3163  22.3903  22.5775  22.6540  22.7141
    22.8613  22.9895  23.0722  23.2123  23.2357  23.3689  23.5137  23.6025
    23.6558  23.7588  24.0052  24.0561  24.1489  24.1828  24.2822  24.3883
    24.5200  24.5320  24.7214  24.7753  24.8411  24.9718  25.0545  25.1976
    25.3484  25.3876  25.4941  25.6059  25.6954  25.9082  25.9481  25.9945
    26.1348  26.1843  26.3354  26.4435  26.4776  26.5572  26.6662  26.7713
    26.8707  26.9660  27.0165  27.0643  27.2443  27.2497  27.4147  27.5015
    27.5723  27.6227  27.7035  27.8201  27.9278  27.9527  28.0743  28.1310

     occupation numbers
     1.0000   1.0000   1.0000   1.0000   1.0000   1.0000   1.0000   1.0000
     1.0000   1.0000   1.0000   1.0000   1.0000   1.0000   1.0000   1.0000
     1.0000   1.0000   1.0000   1.0000   1.0000   1.0000   1.0000   1.0000
     1.0000   1.0000   1.0000   1.0000   1.0000   1.0000   1.0000   1.0000
     1.0000   1.0000   1.0000   1.0000   1.0000   1.0000   1.0000   1.0000
     1.0000   1.0000   1.0000   1.0000   1.0000   1.0000   1.0000   1.0000
     1.0000   1.0000   1.0000   1.0000   1.0000   1.0000   1.0000   1.0000
     1.0000   1.0000   1.0000   1.0000   1.0000   1.0000   1.0000   1.0000
     1.0000   1.0000   1.0000   1.0000   1.0000   1.0000   1.0000   1.0000
     1.0000   1.0000   1.0000   1.0000   1.0000   1.0000   1.0000   1.0000
     1.0000   1.0000   1.0000   1.0000   1.0000   1.0000   1.0000   1.0000
     0.0000   0.0000   0.0000   0.0000   0.0000   0.0000   0.0000   0.0000
     0.0000   0.0000   0.0000   0.0000   0.0000   0.0000   0.0000   0.0000
     0.0000   0.0000   0.0000   0.0000   0.0000   0.0000   0.0000   0.0000
     0.0000   0.0000   0.0000   0.0000   0.0000   0.0000   0.0000   0.0000
     0.0000   0.0000   0.0000   0.0000   0.0000   0.0000   0.0000   0.0000
     0.0000   0.0000   0.0000   0.0000   0.0000   0.0000   0.0000   0.0000
     0.0000   0.0000   0.0000   0.0000   0.0000   0.0000   0.0000   0.0000
     0.0000   0.0000   0.0000   0.0000   0.0000   0.0000   0.0000   0.0000
     0.0000   0.0000   0.0000   0.0000   0.0000   0.0000   0.0000   0.0000
     0.0000   0.0000   0.0000   0.0000   0.0000   0.0000   0.0000   0.0000
     0.0000   0.0000   0.0000   0.0000   0.0000   0.0000   0.0000   0.0000
     0.0000   0.0000   0.0000   0.0000   0.0000   0.0000   0.0000   0.0000
     0.0000   0.0000   0.0000   0.0000   0.0000   0.0000   0.0000   0.0000
     0.0000   0.0000   0.0000   0.0000   0.0000   0.0000   0.0000   0.0000
     0.0000   0.0000   0.0000   0.0000   0.0000   0.0000   0.0000   0.0000
     0.0000   0.0000   0.0000   0.0000   0.0000   0.0000   0.0000   0.0000
     0.0000   0.0000   0.0000   0.0000   0.0000   0.0000   0.0000   0.0000
     0.0000   0.0000   0.0000   0.0000   0.0000   0.0000   0.0000   0.0000
     0.0000   0.0000   0.0000   0.0000   0.0000   0.0000   0.0000   0.0000
     0.0000   0.0000   0.0000   0.0000   0.0000   0.0000   0.0000   0.0000
     0.0000   0.0000   0.0000   0.0000   0.0000   0.0000   0.0000   0.0000

     highest occupied, lowest unoccupied level (ev):     4.5109    5.7088

!    total energy              =   -4551.29452098 Ry
     estimated scf accuracy    <       0.00000037 Ry

     The total energy is the sum of the following terms:
     one-electron contribution =    -708.99703896 Ry
     hartree contribution      =     436.85325147 Ry
     xc contribution           =    -540.31672222 Ry
     ewald contribution        =    -824.93987574 Ry
     one-center paw contrib.   =   -2913.89413553 Ry
      -> PAW hartree energy AE =      95.75812061 Ry
      -> PAW hartree energy PS =     -95.54362851 Ry
      -> PAW xc energy AE      =    -772.28585546 Ry
      -> PAW xc energy PS      =      43.59782948 Ry
      -> total E_H with PAW    =     437.06774357 Ry
      -> total E_XC with PAW   =   -1269.00474820 Ry

     convergence has been achieved in  10 iterations

     Writing all to output data dir bands_nm/myprefix.save/

     General routines

     Parallel routines

     PAW routines

   This run was terminated on:  17:59:24  16Jul2023

   JOB DONE.