     Program PWSCF v.7.0 starts on  6Jun2023 at  2:36:59

     K-points division:     npool     =       2
     R & G space division:  proc/nbgrp/npool/nimage =       4

     Reading input from espresso_13251.pwi
Warning: card &CELL ignored
Warning: card / ignored

     Current dimensions of program PWSCF are:
     Max number of different atomic species (ntypx) = 10
     Max number of k-points (npk) =  40000
     Max angular momentum in pseudopotentials (lmaxx) =  4
     file O.pbe-n-kjpaw_psl.0.1.UPF: wavefunction(s)  2P renormalized
     Message from routine setup:
     using ibrav=0 with symmetry is DISCOURAGED, use correct ibrav instead

     Using Slab Decomposition

     bravais-lattice index     =            0
     lattice parameter (alat)  =      11.9570  a.u.
     unit-cell volume          =    1239.6682 (a.u.)^3
     number of atoms/cell      =           16
     number of atomic types    =            4
     number of electrons       =       102.00
     number of Kohn-Sham states=           64
     kinetic-energy cutoff     =      30.0000  Ry
     charge density cutoff     =     240.0000  Ry
     scf convergence threshold =      1.0E-06
     mixing beta               =       0.7000
     number of iterations used =            8  plain     mixing
     Exchange-correlation= SLA  PW   PBX  PBC
                           (   1   4   3   4   0   0   0)

     celldm(1)=  11.956963  celldm(2)=   0.000000  celldm(3)=   0.000000
     celldm(4)=   0.000000  celldm(5)=   0.000000  celldm(6)=   0.000000

     crystal axes: (cart. coord. in units of alat)
               a(1) = (   1.000000   0.000000   0.000000 )
               a(2) = (  -0.026782   0.999641   0.000000 )
               a(3) = (   0.000000   0.000000   0.725435 )

     reciprocal axes: (cart. coord. in units 2 pi/alat)
               b(1) = (  1.000000  0.026792  0.000000 )
               b(2) = (  0.000000  1.000359  0.000000 )
               b(3) = (  0.000000  0.000000  1.378483 )

     PseudoPot. # 1 for Li read from file:
     /home/pragov/projects/rrg-bengioy-ad/pragov/crystal_structure_design/SSSP/li_pbe_v1.4.uspp.F.UPF
     MD5 check sum: e912e257baa3777c20ea3d68f190483c
     Pseudo is Ultrasoft, Zval =  3.0
     Generated by new atomic code, or converted to UPF format
     Using radial grid of  751 points,  5 beta functions with:
                l(1) =   0
                l(2) =   0
                l(3) =   0
                l(4) =   1
                l(5) =   1
     Q(r) pseudized with 10 coefficients,  rinner =    1.150   1.150   1.150

     PseudoPot. # 2 for V  read from file:
     /home/pragov/projects/rrg-bengioy-ad/pragov/crystal_structure_design/SSSP/v_pbe_v1.4.uspp.F.UPF
     MD5 check sum: 22b79981416ebb76fdaf5b1b8640f6fb
     Pseudo is Ultrasoft + core correction, Zval = 13.0
     Generated by new atomic code, or converted to UPF format
     Using radial grid of  853 points,  6 beta functions with:
                l(1) =   0
                l(2) =   0
                l(3) =   1
                l(4) =   1
                l(5) =   2
                l(6) =   2
     Q(r) pseudized with  8 coefficients,  rinner =    1.100   1.100   1.100
                                                       1.100   1.100

     PseudoPot. # 3 for P  read from file:
     /home/pragov/projects/rrg-bengioy-ad/pragov/crystal_structure_design/SSSP/P.pbe-n-rrkjus_psl.1.0.0.UPF
     MD5 check sum: 8b930f418f0a4573dca56cd030ffe088
     Pseudo is Ultrasoft + core correction, Zval =  5.0
     Generated using "atomic" code by A. Dal Corso  v.5.1
     Using radial grid of 1147 points,  6 beta functions with:
                l(1) =   0
                l(2) =   0
                l(3) =   1
                l(4) =   1
                l(5) =   2
                l(6) =   2
     Q(r) pseudized with 0 coefficients

     PseudoPot. # 4 for O  read from file:
     /home/pragov/projects/rrg-bengioy-ad/pragov/crystal_structure_design/SSSP/O.pbe-n-kjpaw_psl.0.1.UPF
     MD5 check sum: 0234752ac141de4415c5fc33072bef88
     Pseudo is Projector augmented-wave + core cor, Zval =  6.0
     Generated using "atomic" code by A. Dal Corso  v.5.0.99 svn rev. 10869
     Shape of augmentation charge: BESSEL
     Using radial grid of 1095 points,  4 beta functions with:
                l(1) =   0
                l(2) =   0
                l(3) =   1
                l(4) =   1
     Q(r) pseudized with 0 coefficients

     atomic species   valence    mass     pseudopotential
        Li             3.00     6.94000     Li( 1.00)
        V             13.00    50.94150     V ( 1.00)
        P              5.00    30.97376     P ( 1.00)
        O              6.00    15.99900     O ( 1.00)

      2 Sym. Ops. (no inversion) found ( 1 have fractional translation)

                                    s                        frac. trans.

      isym =  1     identity

 cryst.   s( 1) = (     1          0          0      )
                  (     0          1          0      )
                  (     0          0          1      )

 cart.    s( 1) = (  1.0000000 -0.0000000  0.0000000 )
                  (  0.0000000  1.0000000  0.0000000 )
                  (  0.0000000  0.0000000  1.0000000 )

      isym =  2     inv. 180 deg rotation - cart. axis [0,0,1]

 cryst.   s( 2) = (     1          0          0      )    f =(  0.5000000 )
                  (     0          1          0      )       ( -0.5000000 )
                  (     0          0         -1      )       ( -0.0000000 )

 cart.    s( 2) = (  1.0000000 -0.0000000  0.0000000 )    f =(  0.5133911 )
                  (  0.0000000  1.0000000  0.0000000 )       ( -0.4998206 )
                  (  0.0000000  0.0000000 -1.0000000 )       ( -0.0000000 )

   Cartesian axes

     site n.     atom                  positions (alat units)
         1           Li  tau(   1) = (   0.9701979   0.5157979   0.7119936  )
         2           Li  tau(   2) = (   0.4835889   0.0159773   0.0134416  )
         3           V   tau(   3) = (   0.7283352   0.7512674   0.3051746  )
         4           V   tau(   4) = (   0.2417263   0.2514468   0.4202606  )
         5           P   tau(   5) = (   0.7406133   0.2525304   0.3627176  )
         6           P   tau(   6) = (   0.2272222   0.7523510   0.3627176  )
         7           O   tau(   7) = (   0.5441673   0.2483869   0.5098779  )
         8           O   tau(   8) = (   0.7402551   0.0546034   0.2180042  )
         9           O   tau(   9) = (   0.7367928   0.7430334   0.5616479  )
        10           O   tau(  10) = (   0.7394941   0.4490169   0.2155573  )
        11           O   tau(  11) = (   0.9384597   0.2581894   0.5074310  )
        12           O   tau(  12) = (   0.0307762   0.7482075   0.2155573  )
        13           O   tau(  13) = (   0.2268640   0.5544241   0.5074310  )
        14           O   tau(  14) = (   0.2261030   0.9488375   0.5098779  )
        15           O   tau(  15) = (   0.2501839   0.2432127   0.1637873  )
        16           O   tau(  16) = (   0.4250686   0.7580100   0.2180042  )

   Crystallographic axes

     site n.     atom                  positions (cryst. coord.)
         1           Li  tau(   1) = (  0.9840170  0.5159830  0.9814710  )
         2           Li  tau(   2) = (  0.4840170  0.0159830  0.0185290  )
         3           V   tau(   3) = (  0.7484630  0.7515370  0.4206780  )
         4           V   tau(   4) = (  0.2484630  0.2515370  0.5793220  )
         5           P   tau(   5) = (  0.7473790  0.2526210  0.5000000  )
         6           P   tau(   6) = (  0.2473790  0.7526210  0.5000000  )
         7           O   tau(   7) = (  0.5508220  0.2484760  0.7028580  )
         8           O   tau(   8) = (  0.7417180  0.0546230  0.3005150  )
         9           O   tau(   9) = (  0.7567000  0.7433000  0.7742220  )
        10           O   tau(  10) = (  0.7515240  0.4491780  0.2971420  )
        11           O   tau(  11) = (  0.9453770  0.2582820  0.6994850  )
        12           O   tau(  12) = (  0.0508220  0.7484760  0.2971420  )
        13           O   tau(  13) = (  0.2417180  0.5546230  0.6994850  )
        14           O   tau(  14) = (  0.2515240  0.9491780  0.7028580  )
        15           O   tau(  15) = (  0.2567000  0.2433000  0.2257780  )
        16           O   tau(  16) = (  0.4453770  0.7582820  0.3005150  )

     number of k points=    10
                       cart. coord. in units 2pi/alat
        k(    1) = (   0.0000000   0.0000000   0.0000000), wk =   0.0740741
        k(    2) = (   0.0000000   0.0000000   0.4594943), wk =   0.1481481
        k(    3) = (   0.0000000   0.3334529   0.0000000), wk =   0.1481481
        k(    4) = (   0.0000000   0.3334529   0.4594943), wk =   0.2962963
        k(    5) = (   0.3333333   0.0089306   0.0000000), wk =   0.1481481
        k(    6) = (   0.3333333   0.0089306   0.4594943), wk =   0.2962963
        k(    7) = (   0.3333333   0.3423835   0.0000000), wk =   0.1481481
        k(    8) = (   0.3333333   0.3423835   0.4594943), wk =   0.2962963
        k(    9) = (   0.3333333  -0.3245224   0.0000000), wk =   0.1481481
        k(   10) = (   0.3333333  -0.3245224   0.4594943), wk =   0.2962963

                       cryst. coord.
        k(    1) = (   0.0000000   0.0000000   0.0000000), wk =   0.0740741
        k(    2) = (   0.0000000   0.0000000   0.3333333), wk =   0.1481481
        k(    3) = (   0.0000000   0.3333333   0.0000000), wk =   0.1481481
        k(    4) = (   0.0000000   0.3333333   0.3333333), wk =   0.2962963
        k(    5) = (   0.3333333  -0.0000000   0.0000000), wk =   0.1481481
        k(    6) = (   0.3333333  -0.0000000   0.3333333), wk =   0.2962963
        k(    7) = (   0.3333333   0.3333333   0.0000000), wk =   0.1481481
        k(    8) = (   0.3333333   0.3333333   0.3333333), wk =   0.2962963
        k(    9) = (   0.3333333  -0.3333333   0.0000000), wk =   0.1481481
        k(   10) = (   0.3333333  -0.3333333   0.3333333), wk =   0.2962963

     Check: negative core charge=   -0.000015

     Initial potential from superposition of free atoms

     starting charge     101.0957, renormalised to     102.0000

     negative rho (up, down):  3.224E-03 0.000E+00
     Starting wfcs are   78 randomized atomic wfcs
     Checking if some PAW data can be deallocated...

     Self-consistent Calculation

     iteration #  1     ecut=    30.00 Ry     beta= 0.70
     Davidson diagonalization with overlap

     ethr =  1.00E-02,  avg # of iterations =  2.9

     negative rho (up, down):  5.107E-03 0.000E+00

     total energy              =    -762.06885379 Ry
     estimated scf accuracy    <       4.24346292 Ry

[...]

     c_bands:  1 eigenvalues not converged
     ethr =  1.13E-05,  avg # of iterations =  9.1

[...]

     total energy              =    -764.40756585 Ry
     estimated scf accuracy    <       0.00000150 Ry

     iteration # 11     ecut=    30.00 Ry     beta= 0.70
     Davidson diagonalization with overlap

     ethr =  1.47E-09,  avg # of iterations =  2.0

     negative rho (up, down):  4.293E-03 0.000E+00

     End of self-consistent calculation

          k = 0.0000 0.0000 0.0000 (  3447 PWs)   bands (ev):

   -58.9943 -58.9940 -38.7142 -38.7137 -33.5321 -33.5317 -32.6133 -32.6118
   -32.5265 -32.5262 -16.1897 -15.9575 -13.7752 -13.6226 -13.4825 -13.4808
   -13.4639 -13.4398 -12.1641 -12.1513  -3.9220  -3.0707  -1.9355  -1.2276
    -1.2249  -0.7393  -0.6466  -0.4667   0.5599   0.6014   0.8313   1.0243
     1.2779   1.7150   1.7630   1.9065   1.9291   2.1401   2.2322   2.3922
     2.4702   2.5937   2.6320   2.7528   2.7999   3.0654   3.3837   3.4111
     3.7945   4.4831   7.3457   7.3608   7.8576   7.9188   7.9648   8.0460
     8.3013   8.6251   8.6441   8.6580  10.4247  12.7851  13.3386  13.6613

     occupation numbers
     1.0000   1.0000   1.0000   1.0000   1.0000   1.0000   1.0000   1.0000
     1.0000   1.0000   1.0000   1.0000   1.0000   1.0000   1.0000   1.0000
     1.0000   1.0000   1.0000   1.0000   1.0000   1.0000   1.0000   1.0000
     1.0000   1.0000   1.0000   1.0000   1.0000   1.0000   1.0000   1.0000
     1.0000   1.0000   1.0000   1.0000   1.0000   1.0000   1.0000   1.0000
     1.0000   1.0000   1.0000   1.0000   1.0000   1.0000   1.0000   1.0000
     1.0000   1.0000   1.0000   0.0000   0.0000   0.0000   0.0000   0.0000
     0.0000   0.0000   0.0000   0.0000   0.0000   0.0000   0.0000   0.0000

[...]

          k = 0.3333-0.3245 0.4595 (  3439 PWs)   bands (ev):

   -58.9942 -58.9941 -38.7141 -38.7136 -33.5340 -33.5333 -32.6132 -32.6125
   -32.5264 -32.5249 -16.0254 -15.9157 -13.8578 -13.6861 -13.6193 -13.5447
   -13.4805 -13.4240 -12.0985 -12.0949  -3.6324  -3.1375  -1.5583  -1.4009
    -1.0663  -1.0405  -0.4990  -0.4471   0.6898   0.7470   0.7930   1.0501
     1.1854   1.3604   1.4005   1.5233   1.5809   1.9776   1.9898   2.1130
     2.3463   2.5704   2.5740   2.8999   2.9042   3.1673   3.3534   3.5297
     3.8913   4.0123   7.1655   7.1895   7.7343   7.8500   7.8848   7.9698
     9.4456   9.4823   9.4964   9.5314  12.4299  13.2749  13.4626  13.5461

     occupation numbers
     1.0000   1.0000   1.0000   1.0000   1.0000   1.0000   1.0000   1.0000
     1.0000   1.0000   1.0000   1.0000   1.0000   1.0000   1.0000   1.0000
     1.0000   1.0000   1.0000   1.0000   1.0000   1.0000   1.0000   1.0000
     1.0000   1.0000   1.0000   1.0000   1.0000   1.0000   1.0000   1.0000
     1.0000   1.0000   1.0000   1.0000   1.0000   1.0000   1.0000   1.0000
     1.0000   1.0000   1.0000   1.0000   1.0000   1.0000   1.0000   1.0000
     1.0000   1.0000   1.0000   0.0000   0.0000   0.0000   0.0000   0.0000
     0.0000   0.0000   0.0000   0.0000   0.0000   0.0000   0.0000   0.0000

     highest occupied, lowest unoccupied level (ev):     7.3457    7.1301

!    total energy              =    -764.40756595 Ry
     estimated scf accuracy    <       0.00000006 Ry

     The total energy is the sum of the following terms:
     one-electron contribution =    -358.25035322 Ry
     hartree contribution      =     222.66292184 Ry
     xc contribution           =    -129.90492859 Ry
     ewald contribution        =    -403.71494541 Ry
     one-center paw contrib.   =     -95.20026057 Ry
      -> PAW hartree energy AE =       0.00000000 Ry
      -> PAW hartree energy PS =       0.00000000 Ry
      -> PAW xc energy AE      =       0.00000000 Ry
      -> PAW xc energy PS      =       0.00000000 Ry
      -> total E_H with PAW    =     222.66292184 Ry
      -> total E_XC with PAW   =    -129.90492859 Ry

     convergence has been achieved in  11 iterations

     Writing all to output data dir calculations_bands/myprefix.save/

     General routines

     Parallel routines

     PAW routines

   This run was terminated on:   2:37:11   6Jun2023

   JOB DONE.