     Program PWSCF v.7.1 starts on 16Jul2023 at 18:13:50

     Reading input from espresso_26457.pwi
Warning: card &CELL ignored
Warning: card / ignored

     Current dimensions of program PWSCF are:
     Max number of different atomic species (ntypx) = 10
     Max number of k-points (npk) =  40000
     Max angular momentum in pseudopotentials (lmaxx) =  4
     file K.pbe-spn-kjpaw_psl.1.0.0.UPF: wavefunction(s)  3S renormalized
     file Nb.pbe-spn-kjpaw_psl.0.3.0.UPF: wavefunction(s)  4S 4P renormalized
     file O.pbe-n-kjpaw_psl.0.1.UPF: wavefunction(s)  2P renormalized
     Message from routine setup:
     using ibrav=0 with symmetry is DISCOURAGED, use correct ibrav instead

     K-points division:     npool     =       2
     R & G space division:  proc/nbgrp/npool/nimage =       4
     Subspace diagonalization in iterative solution of the eigenvalue problem:
     one sub-group per band group will be used

     Using Slab Decomposition

     bravais-lattice index     =            0
     lattice parameter (alat)  =      18.6704  a.u.
     unit-cell volume          =    1771.2718 (a.u.)^3
     number of atoms/cell      =           20
     number of atomic types    =            4
     number of electrons       =       160.00
     number of Kohn-Sham states=          256
     kinetic-energy cutoff     =      30.0000  Ry
     charge density cutoff     =     240.0000  Ry
     scf convergence threshold =      1.0E-06
     mixing beta               =       0.7000
     number of iterations used =            8  plain     mixing
     Exchange-correlation= SLA  PW   PBX  PBC
                           (   1   4   3   4   0   0   0)

     celldm(1)=  18.670434  celldm(2)=   0.000000  celldm(3)=   0.000000
     celldm(4)=   0.000000  celldm(5)=   0.000000  celldm(6)=   0.000000

     crystal axes: (cart. coord. in units of alat)
               a(1) = (   1.000000   0.000000   0.000000 )
               a(2) = (   0.833338   0.552764   0.000000 )
               a(3) = (   0.833338   0.251257   0.492359 )

     reciprocal axes: (cart. coord. in units 2 pi/alat)
               b(1) = (  1.000000 -1.507584 -0.923201 )
               b(2) = (  0.000000  1.809091 -0.923201 )
               b(3) = (  0.000000  0.000000  2.031036 )

     PseudoPot. # 1 for K  read from file:
     /lustre07/scratch/pragov/crystal_structure_design/utils/SSSP/K.pbe-spn-kjpaw_psl.1.0.0.UPF
     MD5 check sum: 7d58810084cac21f60fbe77ea2b688fd
     Pseudo is Projector augmented-wave + core cor, Zval =  9.0
     Generated using "atomic" code by A. Dal Corso  v.5.1
     Shape of augmentation charge: PSQ
     Using radial grid of 1165 points,  6 beta functions with:
                l(1) =   0
                l(2) =   0
                l(3) =   1
                l(4) =   1
                l(5) =   2
                l(6) =   2
     Q(r) pseudized with 0 coefficients

     PseudoPot. # 2 for Ta read from file:
     /lustre07/scratch/pragov/crystal_structure_design/utils/SSSP/Ta_pbe_v1.uspp.F.UPF
     MD5 check sum: f8bbe9446314a3b8ea5d9f3e3836c939
     Pseudo is Ultrasoft + core correction, Zval = 13.0
     Generated by new atomic code, or converted to UPF format
     Using radial grid of  921 points,  7 beta functions with:
                l(1) =   0
                l(2) =   0
                l(3) =   1
                l(4) =   1
                l(5) =   2
                l(6) =   2
                l(7) =   3
     Q(r) pseudized with  6 coefficients,  rinner =    1.300   1.300   1.300
                                                       1.300   1.300   1.300
                                                       1.300

     PseudoPot. # 3 for Nb read from file:
     /lustre07/scratch/pragov/crystal_structure_design/utils/SSSP/Nb.pbe-spn-kjpaw_psl.0.3.0.UPF
     MD5 check sum: 411d72ad547312f8017e2943ceca08cc
     Pseudo is Projector augmented-wave + core cor, Zval = 13.0
     Generated using "atomic" code by A. Dal Corso  v.5.0.99 svn rev. 10869
     Shape of augmentation charge: PSQ
     Using radial grid of 1227 points,  6 beta functions with:
                l(1) =   0
                l(2) =   0
                l(3) =   1
                l(4) =   1
                l(5) =   2
                l(6) =   2
     Q(r) pseudized with 0 coefficients

     PseudoPot. # 4 for O  read from file:
     /lustre07/scratch/pragov/crystal_structure_design/utils/SSSP/O.pbe-n-kjpaw_psl.0.1.UPF
     MD5 check sum: 0234752ac141de4415c5fc33072bef88
     Pseudo is Projector augmented-wave + core cor, Zval =  6.0
     Generated using "atomic" code by A. Dal Corso  v.5.0.99 svn rev. 10869
     Shape of augmentation charge: BESSEL
     Using radial grid of 1095 points,  4 beta functions with:
                l(1) =   0
                l(2) =   0
                l(3) =   1
                l(4) =   1
     Q(r) pseudized with 0 coefficients

     atomic species   valence    mass     pseudopotential
        K              9.00    39.09830     K ( 1.00)
        Ta            13.00   180.94788     Ta( 1.00)
        Nb            13.00    92.90637     Nb( 1.00)
        O              6.00    15.99900     O ( 1.00)

      2 Sym. Ops., with inversion, found

                                    s                        frac. trans.

      isym =  1     identity

 cryst.   s( 1) = (     1          0          0      )
                  (     0          1          0      )
                  (     0          0          1      )

 cart.    s( 1) = (  1.0000000  0.0000000 -0.0000000 )
                  (  0.0000000  1.0000000 -0.0000000 )
                  (  0.0000000  0.0000000  1.0000000 )

      isym =  2     inversion

 cryst.   s( 2) = (    -1          0          0      )
                  (     0         -1          0      )
                  (     0          0         -1      )

 cart.    s( 2) = ( -1.0000000  0.0000000  0.0000000 )
                  (  0.0000000 -1.0000000  0.0000000 )
                  (  0.0000000  0.0000000 -1.0000000 )

   Cartesian axes

     site n.     atom                  positions (alat units)
         1           K   tau(   1) = (   1.0000407   0.3015191   0.1846417  )
         2           K   tau(   2) = (   0.3333718   0.1005139   0.0615518  )
         3           K   tau(   3) = (   2.3333039   0.7035071   0.4308077  )
         4           K   tau(   4) = (   1.6666350   0.5025018   0.3077178  )
         5           Ta  tau(   5) = (   0.6671623   0.2011540   0.1231810  )
         6           Ta  tau(   6) = (   0.0000000   0.0000000   0.0000000  )
         7           Ta  tau(   7) = (   1.9995135   0.6028670   0.3691785  )
         8           Nb  tau(   8) = (   1.3333379   0.4020105   0.2461797  )
         9           O   tau(   9) = (   0.7500449   0.3769806   0.0615100  )
        10           O   tau(  10) = (   1.9166308   0.4270404   0.4308495  )
        11           O   tau(  11) = (   1.2496409   0.2253552   0.3079979  )
        12           O   tau(  12) = (   1.4170349   0.5786657   0.1843615  )
        13           O   tau(  13) = (   1.9166308   0.5778773   0.1845334  )
        14           O   tau(  14) = (   1.2496409   0.3767753   0.0607296  )
        15           O   tau(  15) = (   1.4170348   0.4272457   0.4316299  )
        16           O   tau(  16) = (   0.7500449   0.2261437   0.3078261  )
        17           O   tau(  17) = (   1.8332536   0.7035754   0.4308495  )
        18           O   tau(  18) = (   1.1659413   0.5029593   0.3079979  )
        19           O   tau(  19) = (   1.5007344   0.3010616   0.1843615  )
        20           O   tau(  20) = (   0.8334221   0.1004455   0.0615100  )

   Crystallographic axes

     site n.     atom                  positions (cryst. coord.)
         1           K   tau(   1) = (  0.3750140  0.3750140  0.3750140  )
         2           K   tau(   2) = (  0.1250140  0.1250140  0.1250140  )
         3           K   tau(   3) = (  0.8749860  0.8749860  0.8749860  )
         4           K   tau(   4) = (  0.6249860  0.6249860  0.6249860  )
         5           Ta  tau(   5) = (  0.2501850  0.2501850  0.2501850  )
         6           Ta  tau(   6) = (  0.0000000  0.0000000  0.0000000  )
         7           Ta  tau(   7) = (  0.7498150  0.7498150  0.7498150  )
         8           Nb  tau(   8) = (  0.5000000  0.5000000  0.5000000  )
         9           O   tau(   9) = (  0.1249290  0.6252060  0.1249290  )
        10           O   tau(  10) = (  0.8750710  0.3747940  0.8750710  )
        11           O   tau(  11) = (  0.6255550  0.1233440  0.6255550  )
        12           O   tau(  12) = (  0.3744450  0.8766560  0.3744450  )
        13           O   tau(  13) = (  0.8750710  0.8750710  0.3747940  )
        14           O   tau(  14) = (  0.6255550  0.6255550  0.1233440  )
        15           O   tau(  15) = (  0.3744450  0.3744450  0.8766560  )
        16           O   tau(  16) = (  0.1249290  0.1249290  0.6252060  )
        17           O   tau(  17) = (  0.3747940  0.8750710  0.8750710  )
        18           O   tau(  18) = (  0.1233440  0.6255550  0.6255550  )
        19           O   tau(  19) = (  0.8766560  0.3744450  0.3744450  )
        20           O   tau(  20) = (  0.6252060  0.1249290  0.1249290  )

     number of k points=    14
                       cart. coord. in units 2pi/alat
        k(    1) = (   0.0000000   0.0000000   0.0000000), wk =   0.0740741
        k(    2) = (   0.0000000   0.0000000   0.6770121), wk =   0.1481481
        k(    3) = (   0.0000000   0.6030302  -0.3077337), wk =   0.1481481
        k(    4) = (   0.0000000   0.6030302   0.3692784), wk =   0.1481481
        k(    5) = (   0.0000000   0.6030302  -0.9847458), wk =   0.1481481
        k(    6) = (   0.3333333  -0.5025279  -0.3077337), wk =   0.1481481
        k(    7) = (   0.3333333  -0.5025279   0.3692784), wk =   0.1481481
        k(    8) = (   0.3333333  -0.5025279  -0.9847458), wk =   0.1481481
        k(    9) = (   0.3333333   0.1005023  -0.6154673), wk =   0.1481481
        k(   10) = (   0.3333333   0.1005023   0.0615448), wk =   0.1481481
        k(   11) = (   0.3333333   0.1005023  -1.2924794), wk =   0.1481481
        k(   12) = (   0.3333333  -1.1055581  -0.0000000), wk =   0.1481481
        k(   13) = (   0.3333333  -1.1055581   0.6770121), wk =   0.1481481
        k(   14) = (   0.3333333  -1.1055581  -0.6770121), wk =   0.1481481

                       cryst. coord.
        k(    1) = (   0.0000000   0.0000000   0.0000000), wk =   0.0740741
        k(    2) = (   0.0000000   0.0000000   0.3333333), wk =   0.1481481
        k(    3) = (   0.0000000   0.3333333   0.0000000), wk =   0.1481481
        k(    4) = (   0.0000000   0.3333333   0.3333333), wk =   0.1481481
        k(    5) = (   0.0000000   0.3333333  -0.3333333), wk =   0.1481481
        k(    6) = (   0.3333333   0.0000000  -0.0000000), wk =   0.1481481
        k(    7) = (   0.3333333   0.0000000   0.3333333), wk =   0.1481481
        k(    8) = (   0.3333333   0.0000000  -0.3333333), wk =   0.1481481
        k(    9) = (   0.3333333   0.3333333  -0.0000000), wk =   0.1481481
        k(   10) = (   0.3333333   0.3333333   0.3333333), wk =   0.1481481
        k(   11) = (   0.3333333   0.3333333  -0.3333333), wk =   0.1481481
        k(   12) = (   0.3333333  -0.3333333  -0.0000000), wk =   0.1481481
        k(   13) = (   0.3333333  -0.3333333   0.3333333), wk =   0.1481481
        k(   14) = (   0.3333333  -0.3333333  -0.3333333), wk =   0.1481481

     Check: negative core charge=   -0.000011

     Initial potential from superposition of free atoms

     starting charge     159.9192, renormalised to     160.0000

     negative rho (up, down):  2.814E-01 0.000E+00
     Starting wfcs are  129 randomized atomic wfcs +  127 random wfcs
     Checking if some PAW data can be deallocated...

     Self-consistent Calculation

     iteration #  1     ecut=    30.00 Ry     beta= 0.70
     Davidson diagonalization with overlap

     ethr =  1.00E-02,  avg # of iterations =  7.1

     negative rho (up, down):  2.818E-01 0.000E+00

     total energy              =   -1709.85248580 Ry
     estimated scf accuracy    <       6.76141388 Ry

[...]

     total energy              =   -1713.29555341 Ry
     estimated scf accuracy    <       0.00000754 Ry

     iteration # 11     ecut=    30.00 Ry     beta= 0.70
     Davidson diagonalization with overlap

     ethr =  4.71E-09,  avg # of iterations =  1.0

     negative rho (up, down):  2.865E-01 0.000E+00

     End of self-consistent calculation

          k = 0.0000 0.0000 0.0000 (  4897 PWs)   bands (ev):

   -59.4138 -59.3791 -59.3790 -46.8079 -25.9180 -25.9174 -25.9174 -25.8770
   -25.8760 -25.8760 -25.8612 -25.8603 -25.8603 -22.8912 -22.8898 -22.8898
   -19.0027 -18.9747 -18.9740 -18.9532  -9.1523  -8.5771  -8.5248  -8.5248
    -8.4793  -8.1446  -8.1445  -8.1335  -8.1334  -7.6807  -7.6797  -7.6796
    -2.7644  -2.7644  -2.7644  -2.5937  -2.5937  -2.5919  -2.5919  -2.5410
    -2.5404  -2.5403  -2.4293  -2.4292   3.1036   3.1036   3.1267   4.4681
     4.5433   4.5434   4.5592   4.5603   4.5603   4.5907   4.5907   4.6185
     5.2493   5.3770   5.4277   5.4277   5.4446   5.4447   5.9936   5.9937
     5.9944   7.3273   7.3274   7.3275   7.5393   7.5393   7.5575   7.5575
     7.6452   7.6456   7.6456   7.7872   7.7953   8.3605   8.3605   8.3605
    10.2624  10.2658  10.2658  12.1990  12.3305  12.3305  12.6705  12.8032
    12.8032  14.2804  14.2804  14.3852  14.3885  14.3885  14.7234  16.3979
    16.3979  16.9700  16.9700  17.0380  17.0755  17.1622  17.1622  17.1635
    17.6174  17.6174  18.1441  18.1441  18.2606  18.2606  18.9953  19.3332
    19.3333  19.3668  19.3668  19.4250  19.4308  19.4308  19.6983  19.7017
    20.2822  20.2822  20.3691  20.3691  21.7430  21.7517  22.3331  22.6958
    22.6967  22.6967  23.3347  23.3347  23.3469  23.3470  23.6661  24.3031
    24.4008  24.4008  24.4014  24.7505  25.4195  25.4207  25.4207  26.0436
    26.0520  26.1531  26.1531  26.1668  26.1668  27.2559  27.2575  27.2575
    27.8082  27.8082  29.0199  29.0199  29.0243  29.1178  29.1227  29.2862
    29.2862  30.8313  30.8313  30.8329  31.6233  31.6233  31.6727  31.6727
    31.8931  31.9529  32.2960  32.2960  32.3230  32.3233  32.4948  32.6079
    32.6079  32.6084  33.4461  33.4461  33.4463  33.8260  33.8260  33.8892
    33.8892  35.4285  35.4285  35.4292  36.0945  36.0946  36.0951  37.5626
    37.5626  37.6009  37.6009  37.7367  37.7367  37.9235  37.9507  37.9507
    37.9587  37.9733  37.9733  38.0352  38.0352  38.2468  38.5293  38.5461
    38.5888  38.6351  39.7387  39.7387  39.7388  39.8262  39.8262  40.2771
    40.2771  40.3157  40.3157  40.4949  40.5071  40.5071  40.5073  40.5362
    40.5362  40.6370  40.6371  40.7836  40.8033  41.2770  42.5287  42.5473
    42.5473  42.7737  42.7737  42.8810  42.8810  43.2437  43.3525  43.7771
    44.2345  44.4024  44.4025  44.4090  45.2294  45.2295  45.2330  45.2567
    45.2568  45.4107  45.4251  45.4251  45.6953  45.6958  45.8743  46.0536

     occupation numbers
     1.0000   1.0000   1.0000   1.0000   1.0000   1.0000   1.0000   1.0000
     1.0000   1.0000   1.0000   1.0000   1.0000   1.0000   1.0000   1.0000
     1.0000   1.0000   1.0000   1.0000   1.0000   1.0000   1.0000   1.0000
     1.0000   1.0000   1.0000   1.0000   1.0000   1.0000   1.0000   1.0000
     1.0000   1.0000   1.0000   1.0000   1.0000   1.0000   1.0000   1.0000
     1.0000   1.0000   1.0000   1.0000   1.0000   1.0000   1.0000   1.0000
     1.0000   1.0000   1.0000   1.0000   1.0000   1.0000   1.0000   1.0000
     1.0000   1.0000   1.0000   1.0000   1.0000   1.0000   1.0000   1.0000
     1.0000   1.0000   1.0000   1.0000   1.0000   1.0000   1.0000   1.0000
     1.0000   1.0000   1.0000   1.0000   1.0000   1.0000   1.0000   1.0000
     0.0000   0.0000   0.0000   0.0000   0.0000   0.0000   0.0000   0.0000
     0.0000   0.0000   0.0000   0.0000   0.0000   0.0000   0.0000   0.0000
     0.0000   0.0000   0.0000   0.0000   0.0000   0.0000   0.0000   0.0000
     0.0000   0.0000   0.0000   0.0000   0.0000   0.0000   0.0000   0.0000
     0.0000   0.0000   0.0000   0.0000   0.0000   0.0000   0.0000   0.0000
     0.0000   0.0000   0.0000   0.0000   0.0000   0.0000   0.0000   0.0000
     0.0000   0.0000   0.0000   0.0000   0.0000   0.0000   0.0000   0.0000
     0.0000   0.0000   0.0000   0.0000   0.0000   0.0000   0.0000   0.0000
     0.0000   0.0000   0.0000   0.0000   0.0000   0.0000   0.0000   0.0000
     0.0000   0.0000   0.0000   0.0000   0.0000   0.0000   0.0000   0.0000
     0.0000   0.0000   0.0000   0.0000   0.0000   0.0000   0.0000   0.0000
     0.0000   0.0000   0.0000   0.0000   0.0000   0.0000   0.0000   0.0000
     0.0000   0.0000   0.0000   0.0000   0.0000   0.0000   0.0000   0.0000
     0.0000   0.0000   0.0000   0.0000   0.0000   0.0000   0.0000   0.0000
     0.0000   0.0000   0.0000   0.0000   0.0000   0.0000   0.0000   0.0000
     0.0000   0.0000   0.0000   0.0000   0.0000   0.0000   0.0000   0.0000
     0.0000   0.0000   0.0000   0.0000   0.0000   0.0000   0.0000   0.0000
     0.0000   0.0000   0.0000   0.0000   0.0000   0.0000   0.0000   0.0000
     0.0000   0.0000   0.0000   0.0000   0.0000   0.0000   0.0000   0.0000
     0.0000   0.0000   0.0000   0.0000   0.0000   0.0000   0.0000   0.0000
     0.0000   0.0000   0.0000   0.0000   0.0000   0.0000   0.0000   0.0000
     0.0000   0.0000   0.0000   0.0000   0.0000   0.0000   0.0000   0.0000

[...]

          k = 0.3333-1.1056-0.6770 (  4926 PWs)   bands (ev):

   -59.4139 -59.3792 -59.3792 -46.8080 -25.9211 -25.9196 -25.9192 -25.8768
   -25.8766 -25.8761 -25.8596 -25.8591 -25.8576 -22.8910 -22.8908 -22.8900
   -18.9864 -18.9800 -18.9684 -18.9623  -9.0561  -8.8238  -8.5099  -8.4971
    -8.4054  -8.2516  -8.1578  -8.1200  -7.9640  -7.7906  -7.7344  -7.7336
    -2.6312  -2.6028  -2.6023  -2.5867  -2.5562  -2.5349  -2.5296  -2.5169
    -2.5162  -2.4838  -2.4537  -2.4424   3.0305   3.0968   3.3088   3.8299
     4.1095   4.5204   4.5465   4.5947   4.6003   4.7817   5.0230   5.2146
     5.2148   5.2703   5.4513   5.6261   5.6893   5.8858   5.8866   6.0908
     6.3246   6.3246   6.4773   6.5661   7.0276   7.1710   7.2111   7.4562
     7.4562   7.5113   7.5117   7.5745   7.6946   7.7055   7.9094   8.3345
    10.3571  11.6109  11.7199  12.2812  12.3638  12.3925  12.7610  13.2034
    13.2332  13.5191  13.5788  14.2836  14.2984  15.0700  15.9471  16.5009
    16.8633  16.9393  17.0276  17.4310  17.5616  17.5982  17.6827  17.9486
    17.9902  18.1216  18.2662  18.4591  18.7471  18.7471  18.9113  18.9255
    18.9390  19.1617  19.1825  19.4427  19.5068  19.5072  19.6723  19.6786
    20.2639  20.3033  20.3561  20.6091  21.1756  21.1766  21.3375  21.7789
    22.2316  22.3187  22.8704  23.1077  23.4950  23.6223  23.8869  23.9720
    24.1081  24.2590  24.3762  24.3813  24.6774  24.8562  24.8566  25.0963
    25.9210  26.0145  26.4807  27.0923  27.6340  27.7164  27.9015  27.9435
    27.9957  28.0037  28.2321  28.7106  28.8150  29.1202  29.1942  29.7328
    29.9868  29.9884  30.0354  30.8462  30.9116  31.1478  31.1891  31.1989
    31.2045  31.5693  31.5714  31.9374  32.2561  32.3746  32.6477  32.7825
    32.8353  32.8445  32.9136  33.0839  33.2240  33.2634  33.7808  33.7818
    34.3627  34.3991  34.5103  34.7321  34.8833  35.6123  36.0449  36.0452
    36.1423  36.6695  36.9063  37.2277  37.2315  37.2600  37.6152  37.6162
    37.7601  38.0300  38.2366  38.5896  38.6395  38.7172  39.0229  39.2500
    39.4166  39.5548  39.7400  40.1860  40.3023  40.3935  41.2235  41.2370
    41.2408  41.3243  41.3977  41.4379  41.4562  41.4717  41.4932  41.5117
    41.6857  41.9860  42.1891  42.4898  42.6034  42.7919  42.9762  43.0047
    43.1117  43.1338  43.4723  43.6802  43.7725  43.8128  43.8168  43.8722
    44.0852  44.1798  44.2368  44.3221  44.5151  44.5782  44.6535  44.8228
    44.9984  45.0786  45.1466  45.1880  45.3781  45.7560  46.0046  46.1004

     occupation numbers
     1.0000   1.0000   1.0000   1.0000   1.0000   1.0000   1.0000   1.0000
     1.0000   1.0000   1.0000   1.0000   1.0000   1.0000   1.0000   1.0000
     1.0000   1.0000   1.0000   1.0000   1.0000   1.0000   1.0000   1.0000
     1.0000   1.0000   1.0000   1.0000   1.0000   1.0000   1.0000   1.0000
     1.0000   1.0000   1.0000   1.0000   1.0000   1.0000   1.0000   1.0000
     1.0000   1.0000   1.0000   1.0000   1.0000   1.0000   1.0000   1.0000
     1.0000   1.0000   1.0000   1.0000   1.0000   1.0000   1.0000   1.0000
     1.0000   1.0000   1.0000   1.0000   1.0000   1.0000   1.0000   1.0000
     1.0000   1.0000   1.0000   1.0000   1.0000   1.0000   1.0000   1.0000
     1.0000   1.0000   1.0000   1.0000   1.0000   1.0000   1.0000   1.0000
     0.0000   0.0000   0.0000   0.0000   0.0000   0.0000   0.0000   0.0000
     0.0000   0.0000   0.0000   0.0000   0.0000   0.0000   0.0000   0.0000
     0.0000   0.0000   0.0000   0.0000   0.0000   0.0000   0.0000   0.0000
     0.0000   0.0000   0.0000   0.0000   0.0000   0.0000   0.0000   0.0000
     0.0000   0.0000   0.0000   0.0000   0.0000   0.0000   0.0000   0.0000
     0.0000   0.0000   0.0000   0.0000   0.0000   0.0000   0.0000   0.0000
     0.0000   0.0000   0.0000   0.0000   0.0000   0.0000   0.0000   0.0000
     0.0000   0.0000   0.0000   0.0000   0.0000   0.0000   0.0000   0.0000
     0.0000   0.0000   0.0000   0.0000   0.0000   0.0000   0.0000   0.0000
     0.0000   0.0000   0.0000   0.0000   0.0000   0.0000   0.0000   0.0000
     0.0000   0.0000   0.0000   0.0000   0.0000   0.0000   0.0000   0.0000
     0.0000   0.0000   0.0000   0.0000   0.0000   0.0000   0.0000   0.0000
     0.0000   0.0000   0.0000   0.0000   0.0000   0.0000   0.0000   0.0000
     0.0000   0.0000   0.0000   0.0000   0.0000   0.0000   0.0000   0.0000
     0.0000   0.0000   0.0000   0.0000   0.0000   0.0000   0.0000   0.0000
     0.0000   0.0000   0.0000   0.0000   0.0000   0.0000   0.0000   0.0000
     0.0000   0.0000   0.0000   0.0000   0.0000   0.0000   0.0000   0.0000
     0.0000   0.0000   0.0000   0.0000   0.0000   0.0000   0.0000   0.0000
     0.0000   0.0000   0.0000   0.0000   0.0000   0.0000   0.0000   0.0000
     0.0000   0.0000   0.0000   0.0000   0.0000   0.0000   0.0000   0.0000
     0.0000   0.0000   0.0000   0.0000   0.0000   0.0000   0.0000   0.0000
     0.0000   0.0000   0.0000   0.0000   0.0000   0.0000   0.0000   0.0000

     highest occupied, lowest unoccupied level (ev):     8.3605   10.2624

!    total energy              =   -1713.29555427 Ry
     estimated scf accuracy    <       0.00000016 Ry

     The total energy is the sum of the following terms:
     one-electron contribution =    -288.84223818 Ry
     hartree contribution      =     230.33251496 Ry
     xc contribution           =    -290.22242757 Ry
     ewald contribution        =    -820.16014078 Ry
     one-center paw contrib.   =    -544.40326270 Ry
      -> PAW hartree energy AE =     114.13955070 Ry
      -> PAW hartree energy PS =    -113.50627917 Ry
      -> PAW xc energy AE      =    -198.79477145 Ry
      -> PAW xc energy PS      =      31.90411285 Ry
      -> total E_H with PAW    =     230.96578649 Ry
      -> total E_XC with PAW   =    -457.11308617 Ry

     convergence has been achieved in  11 iterations

     Writing all to output data dir bands_nm/myprefix.save/

     General routines

     Parallel routines

     PAW routines

   This run was terminated on:  18:16:10  16Jul2023

   JOB DONE.