     Program PWSCF v.7.0 starts on  6Jun2023 at 14:50:19

     K-points division:     npool     =       2
     R & G space division:  proc/nbgrp/npool/nimage =       4

     Reading input from espresso_16998.pwi
Warning: card &CELL ignored
Warning: card / ignored

     Current dimensions of program PWSCF are:
     Max number of different atomic species (ntypx) = 10
     Max number of k-points (npk) =  40000
     Max angular momentum in pseudopotentials (lmaxx) =  4
     file Cd.pbe-dn-rrkjus_psl.0.3.1.UPF: wavefunction(s)  4D renormalized

     Using Slab Decomposition

     bravais-lattice index     =            0
     lattice parameter (alat)  =      28.8688  a.u.
     unit-cell volume          =    1878.5466 (a.u.)^3
     number of atoms/cell      =            8
     number of atomic types    =            3
     number of electrons       =        72.00
     number of Kohn-Sham states=           64
     kinetic-energy cutoff     =      30.0000  Ry
     charge density cutoff     =     240.0000  Ry
     scf convergence threshold =      1.0E-06
     mixing beta               =       0.7000
     number of iterations used =            8  plain     mixing
     Exchange-correlation= SLA  PW   PBE  PBE
                           (   1   4   3   4   0   0   0)

     celldm(1)=  28.868799  celldm(2)=   0.000000  celldm(3)=   0.000000
     celldm(4)=   0.000000  celldm(5)=   0.000000  celldm(6)=   0.000000

     crystal axes: (cart. coord. in units of alat)
               a(1) = (   1.000000   0.000000   0.000000 )
               a(2) = (   0.954217   0.299116   0.000000 )
               a(3) = (   0.954217   0.146054   0.261034 )

     reciprocal axes: (cart. coord. in units 2 pi/alat)
               b(1) = (  1.000000 -3.190124 -1.870587 )
               b(2) = (  0.000000  3.343186 -1.870587 )
               b(3) = (  0.000000  0.000000  3.830925 )

     PseudoPot. # 1 for Cd read from file:
     /home/pragov/projects/rrg-bengioy-ad/pragov/crystal_structure_design/SSSP/Cd.pbe-dn-rrkjus_psl.0.3.1.UPF
     MD5 check sum: 558e9f355611b531a870a69ef6ace9e2
     Pseudo is Ultrasoft + core correction, Zval = 12.0
     Generated using "atomic" code by A. Dal Corso  v.5.0.99 svn rev. 10869
     Using radial grid of 1239 points,  6 beta functions with:
                l(1) =   0
                l(2) =   0
                l(3) =   1
                l(4) =   1
                l(5) =   2
                l(6) =   2
     Q(r) pseudized with 0 coefficients

     PseudoPot. # 2 for Te read from file:
     /home/pragov/projects/rrg-bengioy-ad/pragov/crystal_structure_design/SSSP/Te_pbe_v1.uspp.F.UPF
     MD5 check sum: c319670d6894cc26e93307826a071b75
     Pseudo is Ultrasoft + core correction, Zval =  6.0
     Generated by new atomic code, or converted to UPF format
     Using radial grid of  891 points,  5 beta functions with:
                l(1) =   0
                l(2) =   0
                l(3) =   1
                l(4) =   1
                l(5) =   2
     Q(r) pseudized with  6 coefficients,  rinner =    1.800   1.800   1.800
                                                       1.800   1.800

     PseudoPot. # 3 for Se read from file:
     /home/pragov/projects/rrg-bengioy-ad/pragov/crystal_structure_design/SSSP/Se_pbe_v1.uspp.F.UPF
     MD5 check sum: 1b3568f3a8ae88f9a2a0ad0698632c85
     Pseudo is Ultrasoft + core correction, Zval =  6.0
     Generated by new atomic code, or converted to UPF format
     Using radial grid of  877 points,  6 beta functions with:
                l(1) =   0
                l(2) =   0
                l(3) =   1
                l(4) =   1
                l(5) =   2
                l(6) =   2
     Q(r) pseudized with  8 coefficients,  rinner =    1.300   1.300   1.300
                                                       1.300   1.300

     atomic species   valence    mass     pseudopotential
        Cd            12.00   112.41400     Cd( 1.00)
        Te             6.00   127.60000     Te( 1.00)
        Se             6.00    78.97100     Se( 1.00)

     No symmetry found

                                    s                        frac. trans.

      isym =  1     identity

 cryst.   s( 1) = (     1          0          0      )
                  (     0          1          0      )
                  (     0          0          1      )

 cart.    s( 1) = (  1.0000000  0.0000000  0.0000000 )
                  (  0.0000000  1.0000000  0.0000000 )
                  (  0.0000000  0.0000000  1.0000000 )

   Cartesian axes

     site n.     atom                  positions (alat units)
         1           Cd  tau(   1) = (   0.0098334   0.0015051   0.0008826  )
         2           Cd  tau(   2) = (   2.1710730   0.3323083   0.1948550  )
         3           Cd  tau(   3) = (   1.4512967   0.2221381   0.1302547  )
         4           Cd  tau(   4) = (   0.7302611   0.1117751   0.0655413  )
         5           Te  tau(   5) = (   2.3560639   0.3606233   0.2114581  )
         6           Te  tau(   6) = (   1.6355954   0.2503471   0.1467956  )
         7           Te  tau(   7) = (   0.9146151   0.1399926   0.0820872  )
         8           Se  tau(   8) = (   0.1836705   0.0281129   0.0164845  )

   Crystallographic axes

     site n.     atom                  positions (cryst. coord.)
         1           Cd  tau(   1) = (  0.0033810  0.0033810  0.0033810  )
         2           Cd  tau(   2) = (  0.7464750  0.7464750  0.7464750  )
         3           Cd  tau(   3) = (  0.4989960  0.4989960  0.4989960  )
         4           Cd  tau(   4) = (  0.2510840  0.2510840  0.2510840  )
         5           Te  tau(   5) = (  0.8100800  0.8100800  0.8100800  )
         6           Te  tau(   6) = (  0.5623630  0.5623630  0.5623630  )
         7           Te  tau(   7) = (  0.3144700  0.3144700  0.3144700  )
         8           Se  tau(   8) = (  0.0631510  0.0631510  0.0631510  )

     number of k points=    14
                       cart. coord. in units 2pi/alat
        k(    1) = (   0.0000000   0.0000000   0.0000000), wk =   0.0740741
        k(    2) = (   0.0000000   0.0000000   1.2769751), wk =   0.1481481
        k(    3) = (   0.0000000   1.1143953  -0.6235291), wk =   0.1481481
        k(    4) = (   0.0000000   1.1143953   0.6534459), wk =   0.1481481
        k(    5) = (   0.0000000   1.1143953  -1.9005042), wk =   0.1481481
        k(    6) = (   0.3333333  -1.0633747  -0.6235291), wk =   0.1481481
        k(    7) = (   0.3333333  -1.0633747   0.6534459), wk =   0.1481481
        k(    8) = (   0.3333333  -1.0633747  -1.9005042), wk =   0.1481481
        k(    9) = (   0.3333333   0.0510206  -1.2470582), wk =   0.1481481
        k(   10) = (   0.3333333   0.0510206   0.0299168), wk =   0.1481481
        k(   11) = (   0.3333333   0.0510206  -2.5240333), wk =   0.1481481
        k(   12) = (   0.3333333  -2.1777699  -0.0000000), wk =   0.1481481
        k(   13) = (   0.3333333  -2.1777699   1.2769751), wk =   0.1481481
        k(   14) = (   0.3333333  -2.1777699  -1.2769751), wk =   0.1481481

                       cryst. coord.
        k(    1) = (   0.0000000   0.0000000   0.0000000), wk =   0.0740741
        k(    2) = (   0.0000000   0.0000000   0.3333333), wk =   0.1481481
        k(    3) = (   0.0000000   0.3333333  -0.0000000), wk =   0.1481481
        k(    4) = (   0.0000000   0.3333333   0.3333333), wk =   0.1481481
        k(    5) = (   0.0000000   0.3333333  -0.3333333), wk =   0.1481481
        k(    6) = (   0.3333333   0.0000000   0.0000000), wk =   0.1481481
        k(    7) = (   0.3333333   0.0000000   0.3333333), wk =   0.1481481
        k(    8) = (   0.3333333   0.0000000  -0.3333333), wk =   0.1481481
        k(    9) = (   0.3333333   0.3333333  -0.0000000), wk =   0.1481481
        k(   10) = (   0.3333333   0.3333333   0.3333333), wk =   0.1481481
        k(   11) = (   0.3333333   0.3333333  -0.3333333), wk =   0.1481481
        k(   12) = (   0.3333333  -0.3333333   0.0000000), wk =   0.1481481
        k(   13) = (   0.3333333  -0.3333333   0.3333333), wk =   0.1481481
        k(   14) = (   0.3333333  -0.3333333  -0.3333333), wk =   0.1481481

     Initial potential from superposition of free atoms

     starting charge      71.9797, renormalised to      72.0000
     Starting wfcs are   52 randomized atomic wfcs +   12 random wfcs

     Self-consistent Calculation

     iteration #  1     ecut=    30.00 Ry     beta= 0.70
     Davidson diagonalization with overlap

     ethr =  1.00E-02,  avg # of iterations =  8.0

     Threshold (ethr) on eigenvalues was too large:
     Diagonalizing with lowered threshold

     Davidson diagonalization with overlap

[...]

     total energy              =    -612.13765210 Ry
     estimated scf accuracy    <       0.20513441 Ry

[...]

     c_bands:  1 eigenvalues not converged
     ethr =  9.90E-07,  avg # of iterations = 12.6

[...]

     total energy              =    -612.20226066 Ry
     estimated scf accuracy    <       0.00001669 Ry

     iteration #  9     ecut=    30.00 Ry     beta= 0.70
     Davidson diagonalization with overlap

     ethr =  2.32E-08,  avg # of iterations =  1.4

     End of self-consistent calculation

          k = 0.0000 0.0000 0.0000 (  5239 PWs)   bands (ev):

    -7.8983  -6.4238  -6.2821  -6.1709  -3.6258  -3.6154  -3.6154  -3.6000
    -3.5999  -3.5787  -3.5787  -3.5358  -3.5358  -3.4682  -3.4296  -3.4036
    -3.4036  -3.3966  -3.3966  -3.3902  -3.3902  -3.3308  -3.3308  -3.1082
     0.2369   1.7011   1.7731   3.3693   3.3693   3.9224   3.9224   4.1186
     4.1186   4.2573   4.4126   4.4126   4.6910   6.0059   6.3407   6.4321
     9.1011   9.1466   9.1466   9.4106   9.6246   9.6246   9.6620   9.6620
     9.8603   9.8603  10.0225  11.4030  12.2176  12.9755  12.9958  12.9958
    12.9969  13.0814  13.0815  13.3198  13.9621  13.9621  14.8933  14.9001

     occupation numbers
     1.0000   1.0000   1.0000   1.0000   1.0000   1.0000   1.0000   1.0000
     1.0000   1.0000   1.0000   1.0000   1.0000   1.0000   1.0000   1.0000
     1.0000   1.0000   1.0000   1.0000   1.0000   1.0000   1.0000   1.0000
     1.0000   1.0000   1.0000   1.0000   1.0000   1.0000   1.0000   1.0000
     1.0000   1.0000   1.0000   1.0000   0.0000   0.0000   0.0000   0.0000
     0.0000   0.0000   0.0000   0.0000   0.0000   0.0000   0.0000   0.0000
     0.0000   0.0000   0.0000   0.0000   0.0000   0.0000   0.0000   0.0000
     0.0000   0.0000   0.0000   0.0000   0.0000   0.0000   0.0000   0.0000

[...]

          k = 0.3333-2.1778-1.2770 (  5215 PWs)   bands (ev):

    -7.7763  -6.1877  -6.0971  -6.0452  -3.5879  -3.5738  -3.5533  -3.5369
    -3.5296  -3.5156  -3.4961  -3.4633  -3.4542  -3.4447  -3.4024  -3.3927
    -3.3862  -3.3707  -3.3631  -3.3197  -3.3069  -3.2785  -3.0602  -3.0134
     0.4971   0.5813   0.9790   1.3348   2.1988   2.4065   2.7210   3.0996
     3.1880   3.4620   3.7699   3.8428   6.1832   7.1555   7.3612   7.4802
     7.8115   8.1477   9.4072   9.7357   9.8062  10.2108  10.6816  10.7633
    10.8630  11.2767  11.4322  12.0632  12.0818  12.7730  13.0028  13.1961
    13.3173  13.4895  13.5694  14.6594  15.3673  15.6299  15.7231  16.0308

     occupation numbers
     1.0000   1.0000   1.0000   1.0000   1.0000   1.0000   1.0000   1.0000
     1.0000   1.0000   1.0000   1.0000   1.0000   1.0000   1.0000   1.0000
     1.0000   1.0000   1.0000   1.0000   1.0000   1.0000   1.0000   1.0000
     1.0000   1.0000   1.0000   1.0000   1.0000   1.0000   1.0000   1.0000
     1.0000   1.0000   1.0000   1.0000   0.0000   0.0000   0.0000   0.0000
     0.0000   0.0000   0.0000   0.0000   0.0000   0.0000   0.0000   0.0000
     0.0000   0.0000   0.0000   0.0000   0.0000   0.0000   0.0000   0.0000
     0.0000   0.0000   0.0000   0.0000   0.0000   0.0000   0.0000   0.0000

     highest occupied, lowest unoccupied level (ev):     4.4126    4.6910

!    total energy              =    -612.20226374 Ry
     estimated scf accuracy    <       0.00000071 Ry

     The total energy is the sum of the following terms:
     one-electron contribution =    -233.13648145 Ry
     hartree contribution      =     169.43954920 Ry
     xc contribution           =    -244.52574284 Ry
     ewald contribution        =    -303.97958864 Ry

     convergence has been achieved in   9 iterations

     Writing all to output data dir calculations_bands/myprefix.save/

     General routines

     Parallel routines

   This run was terminated on:  14:51:30   6Jun2023

   JOB DONE.