     Program PWSCF v.7.0 starts on  5Jun2023 at  0: 9:45

     K-points division:     npool     =       2
     R & G space division:  proc/nbgrp/npool/nimage =       4

     Reading input from espresso_8081.pwi
Warning: card &CELL ignored
Warning: card / ignored

     Current dimensions of program PWSCF are:
     Max number of different atomic species (ntypx) = 10
     Max number of k-points (npk) =  40000
     Max angular momentum in pseudopotentials (lmaxx) =  4
     Message from routine setup:
     using ibrav=0 with symmetry is DISCOURAGED, use correct ibrav instead

     Using Slab Decomposition

     bravais-lattice index     =            0
     lattice parameter (alat)  =      13.6224  a.u.
     unit-cell volume          =    1145.8974 (a.u.)^3
     number of atoms/cell      =            8
     number of atomic types    =            1
     number of electrons       =        32.00
     number of Kohn-Sham states=           64
     kinetic-energy cutoff     =      30.0000  Ry
     charge density cutoff     =     240.0000  Ry
     scf convergence threshold =      1.0E-06
     mixing beta               =       0.7000
     number of iterations used =            8  plain     mixing
     Exchange-correlation= PBE
                           (   1   4   3   4   0   0   0)

     celldm(1)=  13.622432  celldm(2)=   0.000000  celldm(3)=   0.000000
     celldm(4)=   0.000000  celldm(5)=   0.000000  celldm(6)=   0.000000

     crystal axes: (cart. coord. in units of alat)
               a(1) = (   1.000000   0.000000   0.000000 )
               a(2) = (   0.855765   0.517365   0.000000 )
               a(3) = (   0.100832   0.028111   0.876163 )

     reciprocal axes: (cart. coord. in units 2 pi/alat)
               b(1) = (  1.000000 -1.654084 -0.062014 )
               b(2) = (  0.000000  1.932872 -0.062014 )
               b(3) = (  0.000000  0.000000  1.141340 )

     PseudoPot. # 1 for Si read from file:
     /home/pragov/projects/rrg-bengioy-ad/pragov/crystal_structure_design/SSSP/Si.pbe-n-rrkjus_psl.1.0.0.UPF
     MD5 check sum: 0b0bb1205258b0d07b9f9672cf965d36
     Pseudo is Ultrasoft + core correction, Zval =  4.0
     Generated using "atomic" code by A. Dal Corso  v.5.1
     Using radial grid of 1141 points,  6 beta functions with:
                l(1) =   0
                l(2) =   0
                l(3) =   1
                l(4) =   1
                l(5) =   2
                l(6) =   2
     Q(r) pseudized with 0 coefficients

     atomic species   valence    mass     pseudopotential
        Si             4.00    28.08500     Si( 1.00)

      2 Sym. Ops., with inversion, found

                                    s                        frac. trans.

      isym =  1     identity

 cryst.   s( 1) = (     1          0          0      )
                  (     0          1          0      )
                  (     0          0          1      )

 cart.    s( 1) = (  1.0000000  0.0000000 -0.0000000 )
                  (  0.0000000  1.0000000 -0.0000000 )
                  (  0.0000000  0.0000000  1.0000000 )

      isym =  2     inversion

 cryst.   s( 2) = (    -1          0          0      )
                  (     0         -1          0      )
                  (     0          0         -1      )

 cart.    s( 2) = ( -1.0000000 -0.0000000  0.0000000 )
                  (  0.0000000 -1.0000000  0.0000000 )
                  (  0.0000000  0.0000000 -1.0000000 )

   Cartesian axes

     site n.     atom                  positions (alat units)
         1           Si  tau(   1) = (   1.8404763   0.5131025   0.7657042  )
         2           Si  tau(   2) = (   0.1161208   0.0323731   0.1104587  )
         3           Si  tau(   3) = (   0.8839052   0.2464221   0.5727618  )
         4           Si  tau(   4) = (   1.0726919   0.2990535   0.3034012  )
         5           Si  tau(   5) = (   1.4663214   0.4087927   0.0500035  )
         6           Si  tau(   6) = (   0.4902757   0.1366829   0.8261595  )
         7           Si  tau(   7) = (   0.5652200   0.1575765   0.5131923  )
         8           Si  tau(   8) = (   1.3913771   0.3878991   0.3629707  )

   Crystallographic axes

     site n.     atom                  positions (cryst. coord.)
         1           Si  tau(   1) = (  0.9442770  0.9442770  0.8739290  )
         2           Si  tau(   2) = (  0.0557230  0.0557230  0.1260710  )
         3           Si  tau(   3) = (  0.4407830  0.4407830  0.6537160  )
         4           Si  tau(   4) = (  0.5592170  0.5592170  0.3462840  )
         5           Si  tau(   5) = (  0.7870430  0.7870430  0.0570710  )
         6           Si  tau(   6) = (  0.2129570  0.2129570  0.9429290  )
         7           Si  tau(   7) = (  0.2727500  0.2727500  0.5857270  )
         8           Si  tau(   8) = (  0.7272500  0.7272500  0.4142730  )

     number of k points=    14
                       cart. coord. in units 2pi/alat
        k(    1) = (   0.0000000   0.0000000   0.0000000), wk =   0.0740741
        k(    2) = (   0.0000000   0.0000000   0.3804467), wk =   0.1481481
        k(    3) = (   0.0000000   0.6442907  -0.0206714), wk =   0.1481481
        k(    4) = (   0.0000000   0.6442907   0.3597753), wk =   0.1481481
        k(    5) = (   0.0000000   0.6442907  -0.4011181), wk =   0.1481481
        k(    6) = (   0.3333333  -0.5513614  -0.0206714), wk =   0.1481481
        k(    7) = (   0.3333333  -0.5513614   0.3597753), wk =   0.1481481
        k(    8) = (   0.3333333  -0.5513614  -0.4011181), wk =   0.1481481
        k(    9) = (   0.3333333   0.0929293  -0.0413428), wk =   0.1481481
        k(   10) = (   0.3333333   0.0929293   0.3391039), wk =   0.1481481
        k(   11) = (   0.3333333   0.0929293  -0.4217895), wk =   0.1481481
        k(   12) = (   0.3333333  -1.1956521  -0.0000000), wk =   0.1481481
        k(   13) = (   0.3333333  -1.1956521   0.3804467), wk =   0.1481481
        k(   14) = (   0.3333333  -1.1956521  -0.3804467), wk =   0.1481481

                       cryst. coord.
        k(    1) = (   0.0000000   0.0000000   0.0000000), wk =   0.0740741
        k(    2) = (   0.0000000   0.0000000   0.3333333), wk =   0.1481481
        k(    3) = (   0.0000000   0.3333333  -0.0000000), wk =   0.1481481
        k(    4) = (   0.0000000   0.3333333   0.3333333), wk =   0.1481481
        k(    5) = (   0.0000000   0.3333333  -0.3333333), wk =   0.1481481
        k(    6) = (   0.3333333  -0.0000000  -0.0000000), wk =   0.1481481
        k(    7) = (   0.3333333  -0.0000000   0.3333333), wk =   0.1481481
        k(    8) = (   0.3333333  -0.0000000  -0.3333333), wk =   0.1481481
        k(    9) = (   0.3333333   0.3333333  -0.0000000), wk =   0.1481481
        k(   10) = (   0.3333333   0.3333333   0.3333333), wk =   0.1481481
        k(   11) = (   0.3333333   0.3333333  -0.3333333), wk =   0.1481481
        k(   12) = (   0.3333333  -0.3333333   0.0000000), wk =   0.1481481
        k(   13) = (   0.3333333  -0.3333333   0.3333333), wk =   0.1481481
        k(   14) = (   0.3333333  -0.3333333  -0.3333333), wk =   0.1481481

     Initial potential from superposition of free atoms

     starting charge      31.9955, renormalised to      32.0000
     Starting wfcs are   32 randomized atomic wfcs +   32 random wfcs

     Self-consistent Calculation

     iteration #  1     ecut=    30.00 Ry     beta= 0.70
     Davidson diagonalization with overlap

     ethr =  1.00E-02,  avg # of iterations =  7.0

     Threshold (ethr) on eigenvalues was too large:
     Diagonalizing with lowered threshold

     Davidson diagonalization with overlap

[...]

     total energy              =     -91.25436891 Ry
     estimated scf accuracy    <       0.27137847 Ry

[...]

     total energy              =     -91.28889669 Ry
     estimated scf accuracy    <       0.00000147 Ry

     iteration #  8     ecut=    30.00 Ry     beta= 0.70
     Davidson diagonalization with overlap

     ethr =  4.60E-09,  avg # of iterations =  1.0

     End of self-consistent calculation

          k = 0.0000 0.0000 0.0000 (  3171 PWs)   bands (ev):

    -6.2586  -4.0390  -3.8193  -3.2769  -1.4442  -0.9047   0.6352   1.3244
     2.4262   3.0163   3.5603   4.6585   4.9247   5.0874   5.4441   5.8239
     6.3324   7.3149   7.4867   7.6324   8.0239   8.1619   8.8794   9.0079
     9.3664   9.4085  10.4919  10.9265  11.3223  12.2874  12.3091  13.2248
    13.3606  13.3816  13.4388  13.5236  14.0095  14.4876  14.7662  14.8830
    15.4950  16.4548  16.7965  17.4671  17.7317  17.9330  17.9375  18.1032
    19.1726  19.2543  19.4756  19.4775  19.9800  20.3697  20.5431  20.9263
    21.4763  21.7099  21.7406  22.3487  22.4299  22.7600  23.4716  23.8497

     occupation numbers
     1.0000   1.0000   1.0000   1.0000   1.0000   1.0000   1.0000   1.0000
     1.0000   1.0000   1.0000   1.0000   1.0000   1.0000   1.0000   1.0000
     0.0000   0.0000   0.0000   0.0000   0.0000   0.0000   0.0000   0.0000
     0.0000   0.0000   0.0000   0.0000   0.0000   0.0000   0.0000   0.0000
     0.0000   0.0000   0.0000   0.0000   0.0000   0.0000   0.0000   0.0000
     0.0000   0.0000   0.0000   0.0000   0.0000   0.0000   0.0000   0.0000
     0.0000   0.0000   0.0000   0.0000   0.0000   0.0000   0.0000   0.0000
     0.0000   0.0000   0.0000   0.0000   0.0000   0.0000   0.0000   0.0000

[...]

          k = 0.3333-1.1957-0.3804 (  3174 PWs)   bands (ev):

    -4.6992  -4.2252  -3.5778  -2.7682  -1.5384  -0.5619  -0.0082   0.7926
     1.7077   2.1980   2.8011   2.8259   3.3158   3.4096   3.6197   4.1973
     6.8950   7.4239   7.7096   8.2989   8.5507   9.0371   9.3755   9.7933
    10.0710  10.7100  10.9913  11.5742  11.9578  12.1170  12.7554  13.1802
    13.7243  13.7748  14.1352  14.4519  15.2115  15.4386  15.4872  15.9851
    16.3321  16.7725  17.1345  17.4709  18.1417  18.3833  18.7773  19.2432
    19.3288  19.5328  19.8261  20.0758  20.5568  20.6849  21.1131  21.2799
    21.4426  21.8080  21.9833  22.4284  22.7885  23.0525  23.1243  23.7102

     occupation numbers
     1.0000   1.0000   1.0000   1.0000   1.0000   1.0000   1.0000   1.0000
     1.0000   1.0000   1.0000   1.0000   1.0000   1.0000   1.0000   1.0000
     0.0000   0.0000   0.0000   0.0000   0.0000   0.0000   0.0000   0.0000
     0.0000   0.0000   0.0000   0.0000   0.0000   0.0000   0.0000   0.0000
     0.0000   0.0000   0.0000   0.0000   0.0000   0.0000   0.0000   0.0000
     0.0000   0.0000   0.0000   0.0000   0.0000   0.0000   0.0000   0.0000
     0.0000   0.0000   0.0000   0.0000   0.0000   0.0000   0.0000   0.0000
     0.0000   0.0000   0.0000   0.0000   0.0000   0.0000   0.0000   0.0000

     highest occupied, lowest unoccupied level (ev):     5.8239    6.1748

!    total energy              =     -91.28889707 Ry
     estimated scf accuracy    <       0.00000010 Ry

     The total energy is the sum of the following terms:
     one-electron contribution =      15.29576289 Ry
     hartree contribution      =       6.43539863 Ry
     xc contribution           =     -49.13404560 Ry
     ewald contribution        =     -63.88601298 Ry

     convergence has been achieved in   8 iterations

     Writing all to output data dir calculations_bands/myprefix.save/

     General routines

     Parallel routines

   This run was terminated on:   0:14:24   5Jun2023

   JOB DONE.