     Program PWSCF v.7.1 starts on 14Jul2023 at  2:40:45

     Reading input from espresso_17435.pwi
Warning: card &CELL ignored
Warning: card / ignored

     Current dimensions of program PWSCF are:
     Max number of different atomic species (ntypx) = 10
     Max number of k-points (npk) =  40000
     Max angular momentum in pseudopotentials (lmaxx) =  4

     K-points division:     npool     =       2
     R & G space division:  proc/nbgrp/npool/nimage =       4
     Subspace diagonalization in iterative solution of the eigenvalue problem:
     a serial algorithm will be used

     Using Slab Decomposition

     bravais-lattice index     =            0
     lattice parameter (alat)  =      11.0831  a.u.
     unit-cell volume          =    1363.4058 (a.u.)^3
     number of atoms/cell      =            5
     number of atomic types    =            3
     number of electrons       =        44.00
     number of Kohn-Sham states=           64
     kinetic-energy cutoff     =      30.0000  Ry
     charge density cutoff     =     240.0000  Ry
     scf convergence threshold =      1.0E-06
     mixing beta               =       0.7000
     number of iterations used =            8  plain     mixing
     Exchange-correlation=  SLA  PW   PBX  PBC
                           (   1   4   3   4   0   0   0)

     celldm(1)=  11.083059  celldm(2)=   0.000000  celldm(3)=   0.000000
     celldm(4)=   0.000000  celldm(5)=   0.000000  celldm(6)=   0.000000

     crystal axes: (cart. coord. in units of alat)
               a(1) = (   1.000000   0.000000   0.000000 )
               a(2) = (   0.002559   1.000549   0.000000 )
               a(3) = (   0.008174   0.007274   1.000939 )

     reciprocal axes: (cart. coord. in units 2 pi/alat)
               b(1) = (  1.000000 -0.002558 -0.008148 )
               b(2) = (  0.000000  0.999451 -0.007263 )
               b(3) = (  0.000000  0.000000  0.999061 )

     PseudoPot. # 1 for Rb read from file:
     /lustre07/scratch/pragov/crystal_structure_design/utils/SSSP/Rb_ONCV_PBE-1.0.oncvpsp.upf
     MD5 check sum: 55a5172d6bfbce6759a58e35d43f6aa9
     Pseudo is Norm-conserving, Zval =  9.0
     Generated using ONCVPSP code by D. R. Hamann
     Using radial grid of 2308 points,  6 beta functions with:
                l(1) =   0
                l(2) =   0
                l(3) =   1
                l(4) =   1
                l(5) =   2
                l(6) =   2

     PseudoPot. # 2 for Sn read from file:
     /lustre07/scratch/pragov/crystal_structure_design/utils/SSSP/Sn_pbe_v1.uspp.F.UPF
     MD5 check sum: 4cf58ce39ec5d5d420df3dd08604eb00
     Pseudo is Ultrasoft + core correction, Zval = 14.0
     Generated by new atomic code, or converted to UPF format
     Using radial grid of  891 points,  6 beta functions with:
                l(1) =   0
                l(2) =   0
                l(3) =   1
                l(4) =   1
                l(5) =   2
                l(6) =   2
     Q(r) pseudized with  6 coefficients,  rinner =    1.200   1.200   1.200
                                                       1.200   1.200

     PseudoPot. # 3 for Br read from file:
     /lustre07/scratch/pragov/crystal_structure_design/utils/SSSP/br_pbe_v1.4.uspp.F.UPF
     MD5 check sum: d3ffb7b29f6225aa16fe06858fb2a80b
     Pseudo is Ultrasoft + core correction, Zval =  7.0
     Generated by new atomic code, or converted to UPF format
     Using radial grid of  879 points,  6 beta functions with:
                l(1) =   0
                l(2) =   0
                l(3) =   1
                l(4) =   1
                l(5) =   2
                l(6) =   2
     Q(r) pseudized with  8 coefficients,  rinner =    1.100   1.100   1.100
                                                       1.100   1.100

     atomic species   valence    mass     pseudopotential
        Rb             9.00    85.46780     Rb( 1.00)
        Sn            14.00   118.71000     Sn( 1.00)
        Br             7.00    79.90400     Br( 1.00)

     No symmetry found

                                    s                        frac. trans.

      isym =  1     identity

 cryst.   s( 1) = (     1          0          0      )
                  (     0          1          0      )
                  (     0          0          1      )

 cart.    s( 1) = (  1.0000000  0.0000000  0.0000000 )
                  (  0.0000000  1.0000000 -0.0000000 )
                  (  0.0000000  0.0000000  1.0000000 )

   Cartesian axes

     site n.     atom                  positions (alat units)
         1           Rb  tau(   1) = (   0.0053848   0.0077077   0.0142444  )
         2           Sn  tau(   2) = (   0.4992867   0.4933082   0.4855227  )
         3           Br  tau(   3) = (   0.5078667   0.5012203   0.9827995  )
         4           Br  tau(   4) = (   0.4883804   0.9900469   0.4812577  )
         5           Br  tau(   5) = (   0.9952133   0.4767372   0.4684577  )

   Crystallographic axes

     site n.     atom                  positions (cryst. coord.)
         1           Rb  tau(   1) = (  0.0052490  0.0076000  0.0142310  )
         2           Sn  tau(   2) = (  0.4940690  0.4895110  0.4850670  )
         3           Br  tau(   3) = (  0.4985770  0.4938070  0.9818770  )
         4           Br  tau(   4) = (  0.4819270  0.9860080  0.4808060  )
         5           Br  tau(   5) = (  0.9901770  0.4730730  0.4680180  )

     number of k points=    14
                       cart. coord. in units 2pi/alat
        k(    1) = (   0.0000000   0.0000000   0.0000000), wk =   0.0740741
        k(    2) = (   0.0000000   0.0000000   0.3330205), wk =   0.1481481
        k(    3) = (   0.0000000   0.3331504  -0.0024210), wk =   0.1481481
        k(    4) = (   0.0000000   0.3331504   0.3305994), wk =   0.1481481
        k(    5) = (   0.0000000   0.3331504  -0.3354415), wk =   0.1481481
        k(    6) = (   0.3333333  -0.0008525  -0.0027160), wk =   0.1481481
        k(    7) = (   0.3333333  -0.0008525   0.3303045), wk =   0.1481481
        k(    8) = (   0.3333333  -0.0008525  -0.3357365), wk =   0.1481481
        k(    9) = (   0.3333333   0.3322979  -0.0051370), wk =   0.1481481
        k(   10) = (   0.3333333   0.3322979   0.3278834), wk =   0.1481481
        k(   11) = (   0.3333333   0.3322979  -0.3381575), wk =   0.1481481
        k(   12) = (   0.3333333  -0.3340029  -0.0002949), wk =   0.1481481
        k(   13) = (   0.3333333  -0.3340029   0.3327255), wk =   0.1481481
        k(   14) = (   0.3333333  -0.3340029  -0.3333154), wk =   0.1481481

                       cryst. coord.
        k(    1) = (   0.0000000   0.0000000   0.0000000), wk =   0.0740741
        k(    2) = (   0.0000000   0.0000000   0.3333333), wk =   0.1481481
        k(    3) = (   0.0000000   0.3333333   0.0000000), wk =   0.1481481
        k(    4) = (   0.0000000   0.3333333   0.3333333), wk =   0.1481481
        k(    5) = (   0.0000000   0.3333333  -0.3333333), wk =   0.1481481
        k(    6) = (   0.3333333   0.0000000   0.0000000), wk =   0.1481481
        k(    7) = (   0.3333333   0.0000000   0.3333333), wk =   0.1481481
        k(    8) = (   0.3333333   0.0000000  -0.3333333), wk =   0.1481481
        k(    9) = (   0.3333333   0.3333333   0.0000000), wk =   0.1481481
        k(   10) = (   0.3333333   0.3333333   0.3333333), wk =   0.1481481
        k(   11) = (   0.3333333   0.3333333  -0.3333333), wk =   0.1481481
        k(   12) = (   0.3333333  -0.3333333  -0.0000000), wk =   0.1481481
        k(   13) = (   0.3333333  -0.3333333   0.3333333), wk =   0.1481481
        k(   14) = (   0.3333333  -0.3333333  -0.3333333), wk =   0.1481481

     Check: negative core charge=   -0.000001

     Initial potential from superposition of free atoms

     starting charge      42.9751, renormalised to      44.0000
     Starting wfcs are   26 randomized atomic wfcs +   38 random wfcs

     Self-consistent Calculation

     iteration #  1     ecut=    30.00 Ry     beta= 0.70
     Davidson diagonalization with overlap

     ethr =  1.00E-02,  avg # of iterations =  6.9

     Threshold (ethr) on eigenvalues was too large:
     Diagonalizing with lowered threshold

     Davidson diagonalization with overlap

[...]

     total energy              =    -353.07597753 Ry
     estimated scf accuracy    <       0.21967999 Ry

[...]

     total energy              =    -353.15146403 Ry
     estimated scf accuracy    <       0.00000440 Ry

     iteration #  6     ecut=    30.00 Ry     beta= 0.70
     Davidson diagonalization with overlap

     ethr =  1.00E-08,  avg # of iterations =  2.0

     End of self-consistent calculation

          k = 0.0000 0.0000 0.0000 (  3795 PWs)   bands (ev):

   -23.9877 -18.2834 -18.2825 -18.2621 -18.2612 -18.2606 -11.6945 -11.2001
   -11.1915  -8.0343  -8.0331  -8.0318  -2.3740  -1.2865  -1.2806  -1.2734
     0.9068   0.9196   0.9384   0.9816   1.0096   1.0142   5.7271   7.6832
     7.6934   8.1055   8.2244   8.2550   8.7100   8.7461   8.8285  10.7364
    10.7675  10.8133  11.8061  12.0018  12.0760  12.9865  13.1581  14.2171
    14.3806  14.4038  15.0641  15.3185  15.5812  15.7369  16.0219  16.1459
    16.2836  16.5198  16.7515  16.9998  17.4546  17.4824  17.5396  17.5525
    17.6004  17.9786  17.9905  20.3704  20.4885  20.6121  21.0122  21.2891

     occupation numbers
     1.0000   1.0000   1.0000   1.0000   1.0000   1.0000   1.0000   1.0000
     1.0000   1.0000   1.0000   1.0000   1.0000   1.0000   1.0000   1.0000
     1.0000   1.0000   1.0000   1.0000   1.0000   1.0000   0.0000   0.0000
     0.0000   0.0000   0.0000   0.0000   0.0000   0.0000   0.0000   0.0000
     0.0000   0.0000   0.0000   0.0000   0.0000   0.0000   0.0000   0.0000
     0.0000   0.0000   0.0000   0.0000   0.0000   0.0000   0.0000   0.0000
     0.0000   0.0000   0.0000   0.0000   0.0000   0.0000   0.0000   0.0000
     0.0000   0.0000   0.0000   0.0000   0.0000   0.0000   0.0000   0.0000

[...]

          k = 0.3333-0.3340-0.3333 (  3770 PWs)   bands (ev):

   -23.9874 -18.2773 -18.2763 -18.2624 -18.2615 -18.2608 -11.4569 -11.3358
   -11.3173  -8.0389  -8.0373  -8.0311  -4.4023  -0.0852  -0.0100   0.0812
     0.2698   0.3136   1.2058   1.2268   1.2732   2.2476   5.4466   5.5725
     5.9831   7.3451   8.6848   8.8446   8.8960   9.6950   9.7629  10.0509
    10.3867  10.4842  11.3097  11.3812  11.8768  12.3378  13.1296  13.2654
    14.1537  14.6768  14.7640  14.8273  15.1000  15.2978  15.5169  16.2095
    16.2370  16.6921  16.8791  16.9790  17.2097  17.3316  18.5621  18.7763
    18.8763  19.0619  19.3051  19.8584  20.1828  20.2637  21.0821  21.1684

     occupation numbers
     1.0000   1.0000   1.0000   1.0000   1.0000   1.0000   1.0000   1.0000
     1.0000   1.0000   1.0000   1.0000   1.0000   1.0000   1.0000   1.0000
     1.0000   1.0000   1.0000   1.0000   1.0000   1.0000   0.0000   0.0000
     0.0000   0.0000   0.0000   0.0000   0.0000   0.0000   0.0000   0.0000
     0.0000   0.0000   0.0000   0.0000   0.0000   0.0000   0.0000   0.0000
     0.0000   0.0000   0.0000   0.0000   0.0000   0.0000   0.0000   0.0000
     0.0000   0.0000   0.0000   0.0000   0.0000   0.0000   0.0000   0.0000
     0.0000   0.0000   0.0000   0.0000   0.0000   0.0000   0.0000   0.0000

     highest occupied, lowest unoccupied level (ev):     2.2516    5.3841

!    total energy              =    -353.15146545 Ry
     estimated scf accuracy    <       0.00000092 Ry

     The total energy is the sum of the following terms:
     one-electron contribution =    -140.01275165 Ry
     hartree contribution      =      87.17633075 Ry
     xc contribution           =    -133.41965200 Ry
     ewald contribution        =    -166.89539255 Ry

     convergence has been achieved in   6 iterations

     Writing all to output data dir bands_nm/myprefix.save/

     General routines

     Parallel routines

   This run was terminated on:   2:40:52  14Jul2023

   JOB DONE.