     Program PWSCF v.7.1 starts on 15Jul2023 at 18:30:55

     Reading input from espresso_2788.pwi
Warning: card &CELL ignored
Warning: card / ignored

     Current dimensions of program PWSCF are:
     Max number of different atomic species (ntypx) = 10
     Max number of k-points (npk) =  40000
     Max angular momentum in pseudopotentials (lmaxx) =  4
     file Nb.pbe-spn-kjpaw_psl.0.3.0.UPF: wavefunction(s)  4S 4P renormalized
     file Cu.paw.z_11.ld1.psl.v1.0.0-low.upf: wavefunction(s)  4S 3D renormalized
     Message from routine setup:
     using ibrav=0 with symmetry is DISCOURAGED, use correct ibrav instead

     K-points division:     npool     =       2
     R & G space division:  proc/nbgrp/npool/nimage =       4
     Subspace diagonalization in iterative solution of the eigenvalue problem:
     one sub-group per band group will be used

     Using Slab Decomposition

     bravais-lattice index     =            0
     lattice parameter (alat)  =      10.6762  a.u.
     unit-cell volume          =    2432.3183 (a.u.)^3
     number of atoms/cell      =           16
     number of atomic types    =            4
     number of electrons       =       140.00
     number of Kohn-Sham states=          256
     kinetic-energy cutoff     =      30.0000  Ry
     charge density cutoff     =     240.0000  Ry
     scf convergence threshold =      1.0E-06
     mixing beta               =       0.7000
     number of iterations used =            8  plain     mixing
     Exchange-correlation= SLA  PW   PBE  PBE
                           (   1   4   3   4   0   0   0)

     celldm(1)=  10.676157  celldm(2)=   0.000000  celldm(3)=   0.000000
     celldm(4)=   0.000000  celldm(5)=   0.000000  celldm(6)=   0.000000

     crystal axes: (cart. coord. in units of alat)
               a(1) = (   1.000000   0.000000   0.000000 )
               a(2) = (   0.000000   1.000000   0.000000 )
               a(3) = (   0.000000   0.000000   1.998829 )

     reciprocal axes: (cart. coord. in units 2 pi/alat)
               b(1) = (  1.000000  0.000000  0.000000 )
               b(2) = (  0.000000  1.000000  0.000000 )
               b(3) = (  0.000000  0.000000  0.500293 )

     PseudoPot. # 1 for Nb read from file:
     /lustre07/scratch/pragov/crystal_structure_design/utils/SSSP/Nb.pbe-spn-kjpaw_psl.0.3.0.UPF
     MD5 check sum: 411d72ad547312f8017e2943ceca08cc
     Pseudo is Projector augmented-wave + core cor, Zval = 13.0
     Generated using "atomic" code by A. Dal Corso  v.5.0.99 svn rev. 10869
     Shape of augmentation charge: PSQ
     Using radial grid of 1227 points,  6 beta functions with:
                l(1) =   0
                l(2) =   0
                l(3) =   1
                l(4) =   1
                l(5) =   2
                l(6) =   2
     Q(r) pseudized with 0 coefficients

     PseudoPot. # 2 for V  read from file:
     /lustre07/scratch/pragov/crystal_structure_design/utils/SSSP/v_pbe_v1.4.uspp.F.UPF
     MD5 check sum: 22b79981416ebb76fdaf5b1b8640f6fb
     Pseudo is Ultrasoft + core correction, Zval = 13.0
     Generated by new atomic code, or converted to UPF format
     Using radial grid of  853 points,  6 beta functions with:
                l(1) =   0
                l(2) =   0
                l(3) =   1
                l(4) =   1
                l(5) =   2
                l(6) =   2
     Q(r) pseudized with  8 coefficients,  rinner =    1.100   1.100   1.100
                                                       1.100   1.100

     PseudoPot. # 3 for Cu read from file:
     /lustre07/scratch/pragov/crystal_structure_design/utils/SSSP/Cu.paw.z_11.ld1.psl.v1.0.0-low.upf
     MD5 check sum: 619f40885d92a09a85a8b37550532d0c
     Pseudo is Projector augmented-wave + core cor, Zval = 11.0
     Generated using &quot;atomic&quot; code by A. Dal Corso  v.6.3MaX
     Shape of augmentation charge: PSQ
     Using radial grid of 1199 points,  6 beta functions with:
                l(1) =   0
                l(2) =   0
                l(3) =   1
                l(4) =   1
                l(5) =   2
                l(6) =   2
     Q(r) pseudized with 0 coefficients

     PseudoPot. # 4 for Se read from file:
     /lustre07/scratch/pragov/crystal_structure_design/utils/SSSP/Se_pbe_v1.uspp.F.UPF
     MD5 check sum: 1b3568f3a8ae88f9a2a0ad0698632c85
     Pseudo is Ultrasoft + core correction, Zval =  6.0
     Generated by new atomic code, or converted to UPF format
     Using radial grid of  877 points,  6 beta functions with:
                l(1) =   0
                l(2) =   0
                l(3) =   1
                l(4) =   1
                l(5) =   2
                l(6) =   2
     Q(r) pseudized with  8 coefficients,  rinner =    1.300   1.300   1.300
                                                       1.300   1.300

     atomic species   valence    mass     pseudopotential
        Nb            13.00    92.90637     Nb( 1.00)
        V             13.00    50.94150     V ( 1.00)
        Cu            11.00    63.54600     Cu( 1.00)
        Se             6.00    78.97100     Se( 1.00)

      8 Sym. Ops. (no inversion) found

                                    s                        frac. trans.

      isym =  1     identity

 cryst.   s( 1) = (     1          0          0      )
                  (     0          1          0      )
                  (     0          0          1      )

 cart.    s( 1) = (  1.0000000  0.0000000  0.0000000 )
                  (  0.0000000  1.0000000  0.0000000 )
                  (  0.0000000  0.0000000  1.0000000 )

      isym =  2     180 deg rotation - cart. axis [0,0,1]

[...]

      isym =  4     180 deg rotation - cart. axis [1,0,0]

[...]

      isym =  5     inv. 180 deg rotation - cart. axis [1,1,0]

[...]

      isym =  8     inv.  90 deg rotation - cart. axis [0,0,1]

 cryst.   s( 8) = (     0         -1          0      )
                  (     1          0          0      )
                  (     0          0         -1      )

 cart.    s( 8) = (  0.0000000  1.0000000  0.0000000 )
                  ( -1.0000000  0.0000000  0.0000000 )
                  (  0.0000000  0.0000000 -1.0000000 )

   Cartesian axes

     site n.     atom                  positions (alat units)
         1           Nb  tau(   1) = (   0.0000000   0.0000000   0.0000000  )
         2           V   tau(   2) = (   0.0000000   0.0000000   0.9994143  )
         3           Cu  tau(   3) = (   0.0000000   0.0000000   0.5033890  )
         4           Cu  tau(   4) = (   0.0000000   0.0000000   1.4954396  )
         5           Cu  tau(   5) = (   0.0000000   0.5000000   0.0000000  )
         6           Cu  tau(   6) = (   0.0000000   0.5000000   0.9994143  )
         7           Cu  tau(   7) = (   0.5000000   0.0000000   0.0000000  )
         8           Cu  tau(   8) = (   0.5000000   0.0000000   0.9994143  )
         9           Se  tau(   9) = (   0.7482470   0.7482470   0.2522282  )
        10           Se  tau(  10) = (   0.7582720   0.7582720   1.2403651  )
        11           Se  tau(  11) = (   0.7582720   0.2417280   0.7584635  )
        12           Se  tau(  12) = (   0.7482470   0.2517530   1.7466004  )
        13           Se  tau(  13) = (   0.2417280   0.7582720   0.7584635  )
        14           Se  tau(  14) = (   0.2517530   0.7482470   1.7466004  )
        15           Se  tau(  15) = (   0.2517530   0.2517530   0.2522282  )
        16           Se  tau(  16) = (   0.2417280   0.2417280   1.2403651  )

   Crystallographic axes

     site n.     atom                  positions (cryst. coord.)
         1           Nb  tau(   1) = (  0.0000000  0.0000000  0.0000000  )
         2           V   tau(   2) = (  0.0000000  0.0000000  0.5000000  )
         3           Cu  tau(   3) = (  0.0000000  0.0000000  0.2518420  )
         4           Cu  tau(   4) = (  0.0000000  0.0000000  0.7481580  )
         5           Cu  tau(   5) = (  0.0000000  0.5000000  0.0000000  )
         6           Cu  tau(   6) = (  0.0000000  0.5000000  0.5000000  )
         7           Cu  tau(   7) = (  0.5000000  0.0000000  0.0000000  )
         8           Cu  tau(   8) = (  0.5000000  0.0000000  0.5000000  )
         9           Se  tau(   9) = (  0.7482470  0.7482470  0.1261880  )
        10           Se  tau(  10) = (  0.7582720  0.7582720  0.6205460  )
        11           Se  tau(  11) = (  0.7582720  0.2417280  0.3794540  )
        12           Se  tau(  12) = (  0.7482470  0.2517530  0.8738120  )
        13           Se  tau(  13) = (  0.2417280  0.7582720  0.3794540  )
        14           Se  tau(  14) = (  0.2517530  0.7482470  0.8738120  )
        15           Se  tau(  15) = (  0.2517530  0.2517530  0.1261880  )
        16           Se  tau(  16) = (  0.2417280  0.2417280  0.6205460  )

     number of k points=     6
                       cart. coord. in units 2pi/alat
        k(    1) = (   0.0000000   0.0000000   0.0000000), wk =   0.0740741
        k(    2) = (   0.0000000   0.0000000   0.1667643), wk =   0.1481481
        k(    3) = (   0.0000000   0.3333333   0.0000000), wk =   0.2962963
        k(    4) = (   0.0000000   0.3333333   0.1667643), wk =   0.5925926
        k(    5) = (   0.3333333   0.3333333   0.0000000), wk =   0.2962963
        k(    6) = (   0.3333333   0.3333333   0.1667643), wk =   0.5925926

                       cryst. coord.
        k(    1) = (   0.0000000   0.0000000   0.0000000), wk =   0.0740741
        k(    2) = (   0.0000000   0.0000000   0.3333333), wk =   0.1481481
        k(    3) = (   0.0000000   0.3333333   0.0000000), wk =   0.2962963
        k(    4) = (   0.0000000   0.3333333   0.3333333), wk =   0.5925926
        k(    5) = (   0.3333333   0.3333333   0.0000000), wk =   0.2962963
        k(    6) = (   0.3333333   0.3333333   0.3333333), wk =   0.5925926

     Check: negative core charge=   -0.000003

     Initial potential from superposition of free atoms

     starting charge     139.9947, renormalised to     140.0000

     negative rho (up, down):  1.720E-03 0.000E+00
     Starting wfcs are  106 randomized atomic wfcs +  150 random wfcs
     Checking if some PAW data can be deallocated...

     Self-consistent Calculation

     iteration #  1     ecut=    30.00 Ry     beta= 0.70
     Davidson diagonalization with overlap

     ethr =  1.00E-02,  avg # of iterations =  7.7

     Threshold (ethr) on eigenvalues was too large:
     Diagonalizing with lowered threshold

     Davidson diagonalization with overlap

[...]

     negative rho (up, down):  1.645E-03 0.000E+00

     total energy              =   -2106.50194145 Ry
     estimated scf accuracy    <       1.16746701 Ry

[...]

     c_bands:  5 eigenvalues not converged
     ethr =  1.42E-05,  avg # of iterations = 16.2

[...]

     c_bands:  5 eigenvalues not converged
     c_bands:  1 eigenvalues not converged
     c_bands:  1 eigenvalues not converged
     ethr =  4.29E-06,  avg # of iterations = 36.7

[...]

     total energy              =   -2107.22366755 Ry
     estimated scf accuracy    <       0.00000215 Ry

     iteration # 13     ecut=    30.00 Ry     beta= 0.70
     Davidson diagonalization with overlap

     ethr =  1.54E-09,  avg # of iterations =  7.0

     negative rho (up, down):  2.129E-03 0.000E+00

     End of self-consistent calculation

          k = 0.0000 0.0000 0.0000 (  6801 PWs)   bands (ev):

   -58.3436 -49.0166 -32.2054 -32.2054 -32.2026 -25.1602 -25.1571 -25.1571
    -7.4200  -7.0838  -6.7917  -6.4173  -6.4173  -6.4080  -6.3958  -6.3958
     0.7362   0.7503   1.0929   1.4352   1.4890   1.6887   1.9991   2.3293
     2.3824   2.3993   2.3993   2.5077   2.5077   2.5662   2.8641   2.8641
     2.9681   2.9804   2.9804   3.4036   3.4395   3.4562   3.4662   3.4662
     3.4765   3.4765   3.5719   3.8518   3.9028   3.9619   4.0319   4.0319
     4.0662   4.0750   4.0793   4.1069   4.1651   4.2175   4.2175   4.2493
     4.6305   4.6379   4.6379   4.7204   4.7755   4.7755   4.8207   4.8446
     4.9881   5.7159   5.7159   5.7763   5.7905   5.7905   7.1540   7.2786
     7.7253   7.8109   7.9477   7.9477   8.0782   8.1306   8.1992   8.1992
     8.3186  10.5124  10.8352  11.2622  11.2751  11.2751  11.3094  11.4959
    11.5900  12.1682  12.6025  12.8163  12.8163  13.0020  13.1288  13.1358
    13.1358  13.8907  14.0301  14.0301  14.4569  14.6569  14.6569  15.1664
    15.3668  16.1233  16.3423  16.3423  17.2065  17.2449  17.3532  18.1276
    18.2446  18.2446  18.4769  18.5135  18.5312  18.5312  18.7245  18.7798
    18.7880  18.8617  19.5328  19.5328  19.6834  19.7504  19.7708  20.0779
    20.0779  20.1484  20.5066  20.5066  20.8298  20.8599  20.8599  20.8800
    21.0158  21.3554  21.3621  21.3621  21.4638  21.4638  21.5371  21.7622
    22.1111  22.2534  22.2534  22.4299  22.4299  22.8013  23.3683  23.5154
    23.5154  23.6142  23.8648  23.8648  24.8518  25.5683  25.5758  25.5758
    25.9589  25.9589  25.9747  26.0811  26.1473  26.2249  26.2249  26.7823
    26.7823  27.1480  27.1915  27.2778  27.3454  27.4629  27.4629  27.6689
    27.7221  27.7738  27.7738  27.9547  28.0287  28.0855  28.1142  28.2585
    28.2585  28.5913  28.6082  28.7611  28.7849  28.7849  28.7866  28.8295
    28.9226  29.4413  29.4413  29.4496  29.7256  29.7834  30.3749  30.4364
    30.4364  30.6706  31.6344  31.7435  31.7641  31.7641  32.7806  32.7806
    33.3271  33.3271  33.4785  33.8069  33.8069  33.8821  33.9528  33.9543
    33.9543  34.0602  34.1700  34.1700  34.3185  34.3185  34.3290  34.3645
    34.5415  34.9813  35.2011  35.2087  35.2087  35.3323  35.3672  35.3672
    35.5387  35.5532  35.8675  35.8934  35.9494  36.0059  36.0597  36.0597
    36.5618  36.5875  36.5875  36.7052  36.7057  37.0542  37.0544  37.1488
    37.2261  37.2865  37.4371  37.4518  37.4616  37.4995  37.4996  37.6343

     occupation numbers
     1.0000   1.0000   1.0000   1.0000   1.0000   1.0000   1.0000   1.0000
     1.0000   1.0000   1.0000   1.0000   1.0000   1.0000   1.0000   1.0000
     1.0000   1.0000   1.0000   1.0000   1.0000   1.0000   1.0000   1.0000
     1.0000   1.0000   1.0000   1.0000   1.0000   1.0000   1.0000   1.0000
     1.0000   1.0000   1.0000   1.0000   1.0000   1.0000   1.0000   1.0000
     1.0000   1.0000   1.0000   1.0000   1.0000   1.0000   1.0000   1.0000
     1.0000   1.0000   1.0000   1.0000   1.0000   1.0000   1.0000   1.0000
     1.0000   1.0000   1.0000   1.0000   1.0000   1.0000   1.0000   1.0000
     1.0000   1.0000   1.0000   1.0000   1.0000   1.0000   0.0000   0.0000
     0.0000   0.0000   0.0000   0.0000   0.0000   0.0000   0.0000   0.0000
     0.0000   0.0000   0.0000   0.0000   0.0000   0.0000   0.0000   0.0000
     0.0000   0.0000   0.0000   0.0000   0.0000   0.0000   0.0000   0.0000
     0.0000   0.0000   0.0000   0.0000   0.0000   0.0000   0.0000   0.0000
     0.0000   0.0000   0.0000   0.0000   0.0000   0.0000   0.0000   0.0000
     0.0000   0.0000   0.0000   0.0000   0.0000   0.0000   0.0000   0.0000
     0.0000   0.0000   0.0000   0.0000   0.0000   0.0000   0.0000   0.0000
     0.0000   0.0000   0.0000   0.0000   0.0000   0.0000   0.0000   0.0000
     0.0000   0.0000   0.0000   0.0000   0.0000   0.0000   0.0000   0.0000
     0.0000   0.0000   0.0000   0.0000   0.0000   0.0000   0.0000   0.0000
     0.0000   0.0000   0.0000   0.0000   0.0000   0.0000   0.0000   0.0000
     0.0000   0.0000   0.0000   0.0000   0.0000   0.0000   0.0000   0.0000
     0.0000   0.0000   0.0000   0.0000   0.0000   0.0000   0.0000   0.0000
     0.0000   0.0000   0.0000   0.0000   0.0000   0.0000   0.0000   0.0000
     0.0000   0.0000   0.0000   0.0000   0.0000   0.0000   0.0000   0.0000
     0.0000   0.0000   0.0000   0.0000   0.0000   0.0000   0.0000   0.0000
     0.0000   0.0000   0.0000   0.0000   0.0000   0.0000   0.0000   0.0000
     0.0000   0.0000   0.0000   0.0000   0.0000   0.0000   0.0000   0.0000
     0.0000   0.0000   0.0000   0.0000   0.0000   0.0000   0.0000   0.0000
     0.0000   0.0000   0.0000   0.0000   0.0000   0.0000   0.0000   0.0000
     0.0000   0.0000   0.0000   0.0000   0.0000   0.0000   0.0000   0.0000
     0.0000   0.0000   0.0000   0.0000   0.0000   0.0000   0.0000   0.0000
     0.0000   0.0000   0.0000   0.0000   0.0000   0.0000   0.0000   0.0000

[...]

          k = 0.3333 0.3333 0.1668 (  6741 PWs)   bands (ev):

   -58.3435 -49.0164 -32.2053 -32.2050 -32.2020 -25.1600 -25.1587 -25.1586
    -7.0198  -6.8940  -6.6132  -6.5960  -6.5897  -6.5826  -6.5602  -6.4893
     1.1690   1.2013   1.2303   1.2692   1.4593   1.6560   1.8382   1.9731
     2.4327   2.4544   2.4940   2.4986   2.5738   2.5981   2.6334   2.6439
     2.7430   2.8152   2.8353   2.8828   3.0884   3.1149   3.1504   3.2082
     3.6973   3.7904   3.8134   3.8982   3.9137   3.9475   3.9676   3.9763
     3.9764   4.0085   4.0114   4.0314   4.3224   4.3683   4.4069   4.4077
     4.4475   4.4798   4.5858   4.6385   4.6526   4.6854   4.7280   4.7917
     5.4944   5.5914   5.7407   5.8286   5.8314   5.8863   7.4802   7.5774
     7.7778   7.8530   8.0015   8.0582   8.1483   8.4810   8.6081   8.7567
     9.8485  10.1468  10.8638  10.8928  11.3448  11.3547  11.7156  12.1256
    12.4897  12.8105  12.8880  12.9414  13.3782  13.6944  13.7848  13.8265
    13.9973  14.0267  14.0603  14.1960  14.3866  14.4473  14.6668  14.8897
    14.9652  15.0104  15.1397  15.4139  15.4519  15.6577  16.0048  16.0853
    16.7533  17.2319  17.5179  17.5404  17.7389  17.8033  18.0205  18.2923
    18.3163  18.4024  18.5020  18.8325  19.1398  19.7007  19.7251  19.7753
    20.0018  20.1452  20.2446  20.3389  20.4517  20.7080  20.7727  20.9945
    21.1881  21.2904  21.3856  21.5073  21.6973  21.8296  22.4644  22.6179
    22.6270  22.9186  22.9493  23.5344  23.6277  23.8555  24.0537  24.2150
    24.3090  24.5203  24.6589  24.8484  25.0556  25.0587  25.2018  25.2760
    25.3788  25.7028  26.0075  26.0652  26.2110  26.3486  26.5966  26.6959
    26.7692  26.8824  26.9166  27.1727  27.2215  27.3287  27.5021  27.5499
    27.5818  27.8458  28.1544  28.5814  28.6859  28.7711  28.8256  28.8416
    28.9976  29.3529  29.5364  29.7819  29.8437  29.9920  30.0113  30.2120
    30.2288  30.4777  30.6703  30.9022  30.9365  30.9658  31.2120  31.4513
    31.7084  31.7156  31.9212  32.1215  32.2474  32.4229  32.9834  33.0787
    33.1067  33.2411  33.2695  33.3335  33.3783  33.5818  33.6820  33.7882
    33.8686  33.9308  34.0133  34.1933  34.2610  34.3931  34.6098  34.6996
    34.8175  34.8327  34.9191  34.9763  35.2278  35.3906  35.4764  35.7298
    35.7590  35.7770  35.8790  35.9543  36.0043  36.1297  36.1545  36.2340
    36.2967  36.4058  36.6620  36.6777  36.9260  36.9465  36.9901  37.0012
    37.0717  37.2224  37.3925  37.5015  37.5343  37.5951  37.6609  37.8422

     occupation numbers
     1.0000   1.0000   1.0000   1.0000   1.0000   1.0000   1.0000   1.0000
     1.0000   1.0000   1.0000   1.0000   1.0000   1.0000   1.0000   1.0000
     1.0000   1.0000   1.0000   1.0000   1.0000   1.0000   1.0000   1.0000
     1.0000   1.0000   1.0000   1.0000   1.0000   1.0000   1.0000   1.0000
     1.0000   1.0000   1.0000   1.0000   1.0000   1.0000   1.0000   1.0000
     1.0000   1.0000   1.0000   1.0000   1.0000   1.0000   1.0000   1.0000
     1.0000   1.0000   1.0000   1.0000   1.0000   1.0000   1.0000   1.0000
     1.0000   1.0000   1.0000   1.0000   1.0000   1.0000   1.0000   1.0000
     1.0000   1.0000   1.0000   1.0000   1.0000   1.0000   0.0000   0.0000
     0.0000   0.0000   0.0000   0.0000   0.0000   0.0000   0.0000   0.0000
     0.0000   0.0000   0.0000   0.0000   0.0000   0.0000   0.0000   0.0000
     0.0000   0.0000   0.0000   0.0000   0.0000   0.0000   0.0000   0.0000
     0.0000   0.0000   0.0000   0.0000   0.0000   0.0000   0.0000   0.0000
     0.0000   0.0000   0.0000   0.0000   0.0000   0.0000   0.0000   0.0000
     0.0000   0.0000   0.0000   0.0000   0.0000   0.0000   0.0000   0.0000
     0.0000   0.0000   0.0000   0.0000   0.0000   0.0000   0.0000   0.0000
     0.0000   0.0000   0.0000   0.0000   0.0000   0.0000   0.0000   0.0000
     0.0000   0.0000   0.0000   0.0000   0.0000   0.0000   0.0000   0.0000
     0.0000   0.0000   0.0000   0.0000   0.0000   0.0000   0.0000   0.0000
     0.0000   0.0000   0.0000   0.0000   0.0000   0.0000   0.0000   0.0000
     0.0000   0.0000   0.0000   0.0000   0.0000   0.0000   0.0000   0.0000
     0.0000   0.0000   0.0000   0.0000   0.0000   0.0000   0.0000   0.0000
     0.0000   0.0000   0.0000   0.0000   0.0000   0.0000   0.0000   0.0000
     0.0000   0.0000   0.0000   0.0000   0.0000   0.0000   0.0000   0.0000
     0.0000   0.0000   0.0000   0.0000   0.0000   0.0000   0.0000   0.0000
     0.0000   0.0000   0.0000   0.0000   0.0000   0.0000   0.0000   0.0000
     0.0000   0.0000   0.0000   0.0000   0.0000   0.0000   0.0000   0.0000
     0.0000   0.0000   0.0000   0.0000   0.0000   0.0000   0.0000   0.0000
     0.0000   0.0000   0.0000   0.0000   0.0000   0.0000   0.0000   0.0000
     0.0000   0.0000   0.0000   0.0000   0.0000   0.0000   0.0000   0.0000
     0.0000   0.0000   0.0000   0.0000   0.0000   0.0000   0.0000   0.0000
     0.0000   0.0000   0.0000   0.0000   0.0000   0.0000   0.0000   0.0000

     highest occupied, lowest unoccupied level (ev):     5.9841    7.1540

!    total energy              =   -2107.22366870 Ry
     estimated scf accuracy    <       0.00000016 Ry

     The total energy is the sum of the following terms:
     one-electron contribution =    -679.97734753 Ry
     hartree contribution      =     452.96709350 Ry
     xc contribution           =    -553.89779217 Ry
     ewald contribution        =    -578.85166448 Ry
     one-center paw contrib.   =    -747.46395802 Ry
      -> PAW hartree energy AE =      68.83621917 Ry
      -> PAW hartree energy PS =     -68.46663902 Ry
      -> PAW xc energy AE      =    -235.89592430 Ry
      -> PAW xc energy PS      =      27.04000256 Ry
      -> total E_H with PAW    =     453.33667364 Ry
      -> total E_XC with PAW   =    -762.75371391 Ry

     convergence has been achieved in  13 iterations

     Writing all to output data dir bands_nm/myprefix.save/

     General routines

     Parallel routines

     PAW routines

   This run was terminated on:  18:32: 6  15Jul2023

   JOB DONE.