     Program PWSCF v.7.1 starts on 14Jul2023 at 19:18:16

     Reading input from espresso_21754.pwi
Warning: card &CELL ignored
Warning: card / ignored

     Current dimensions of program PWSCF are:
     Max number of different atomic species (ntypx) = 10
     Max number of k-points (npk) =  40000
     Max angular momentum in pseudopotentials (lmaxx) =  4
     file O.pbe-n-kjpaw_psl.0.1.UPF: wavefunction(s)  2P renormalized
     Message from routine setup:
     using ibrav=0 with symmetry is DISCOURAGED, use correct ibrav instead

     K-points division:     npool     =       2
     R & G space division:  proc/nbgrp/npool/nimage =       4
     Subspace diagonalization in iterative solution of the eigenvalue problem:
     a serial algorithm will be used

     Using Slab Decomposition

     bravais-lattice index     =            0
     lattice parameter (alat)  =      11.8366  a.u.
     unit-cell volume          =    1401.3038 (a.u.)^3
     number of atoms/cell      =           12
     number of atomic types    =            4
     number of electrons       =        88.00
     number of Kohn-Sham states=           64
     kinetic-energy cutoff     =      30.0000  Ry
     charge density cutoff     =     240.0000  Ry
     scf convergence threshold =      1.0E-06
     mixing beta               =       0.7000
     number of iterations used =            8  plain     mixing
     Exchange-correlation= SLA  PW   PBX  PBC
                           (   1   4   3   4   0   0   0)

     celldm(1)=  11.836569  celldm(2)=   0.000000  celldm(3)=   0.000000
     celldm(4)=   0.000000  celldm(5)=   0.000000  celldm(6)=   0.000000

     crystal axes: (cart. coord. in units of alat)
               a(1) = (   1.000000   0.000000   0.000000 )
               a(2) = (   0.632640   0.774446   0.000000 )
               a(3) = (   0.524992   0.249031   1.091098 )

     reciprocal axes: (cart. coord. in units 2 pi/alat)
               b(1) = (  1.000000 -0.816894 -0.294713 )
               b(2) = (  0.000000  1.291246 -0.294713 )
               b(3) = (  0.000000  0.000000  0.916508 )

     PseudoPot. # 1 for Rb read from file:
     /lustre07/scratch/pragov/crystal_structure_design/utils/SSSP/Rb_ONCV_PBE-1.0.oncvpsp.upf
     MD5 check sum: 55a5172d6bfbce6759a58e35d43f6aa9
     Pseudo is Norm-conserving, Zval =  9.0
     Generated using ONCVPSP code by D. R. Hamann
     Using radial grid of 2308 points,  6 beta functions with:
                l(1) =   0
                l(2) =   0
                l(3) =   1
                l(4) =   1
                l(5) =   2
                l(6) =   2

     PseudoPot. # 2 for Au read from file:
     /lustre07/scratch/pragov/crystal_structure_design/utils/SSSP/Au_ONCV_PBE-1.0.oncvpsp.upf
     MD5 check sum: d14007822ba0e19f0206237467fc06c2
     Pseudo is Norm-conserving, Zval = 19.0
     Generated using ONCVPSP code by D. R. Hamann
     Using radial grid of 1278 points,  8 beta functions with:
                l(1) =   0
                l(2) =   0
                l(3) =   1
                l(4) =   1
                l(5) =   2
                l(6) =   2
                l(7) =   3
                l(8) =   3

     PseudoPot. # 3 for Se read from file:
     /lustre07/scratch/pragov/crystal_structure_design/utils/SSSP/Se_pbe_v1.uspp.F.UPF
     MD5 check sum: 1b3568f3a8ae88f9a2a0ad0698632c85
     Pseudo is Ultrasoft + core correction, Zval =  6.0
     Generated by new atomic code, or converted to UPF format
     Using radial grid of  877 points,  6 beta functions with:
                l(1) =   0
                l(2) =   0
                l(3) =   1
                l(4) =   1
                l(5) =   2
                l(6) =   2
     Q(r) pseudized with  8 coefficients,  rinner =    1.300   1.300   1.300
                                                       1.300   1.300

     PseudoPot. # 4 for O  read from file:
     /lustre07/scratch/pragov/crystal_structure_design/utils/SSSP/O.pbe-n-kjpaw_psl.0.1.UPF
     MD5 check sum: 0234752ac141de4415c5fc33072bef88
     Pseudo is Projector augmented-wave + core cor, Zval =  6.0
     Generated using "atomic" code by A. Dal Corso  v.5.0.99 svn rev. 10869
     Shape of augmentation charge: BESSEL
     Using radial grid of 1095 points,  4 beta functions with:
                l(1) =   0
                l(2) =   0
                l(3) =   1
                l(4) =   1
     Q(r) pseudized with 0 coefficients

     atomic species   valence    mass     pseudopotential
        Rb             9.00    85.46780     Rb( 1.00)
        Au            19.00   196.96657     Au( 1.00)
        Se             6.00    78.97100     Se( 1.00)
        O              6.00    15.99900     O ( 1.00)

      2 Sym. Ops., with inversion, found

                                    s                        frac. trans.

      isym =  1     identity

 cryst.   s( 1) = (     1          0          0      )
                  (     0          1          0      )
                  (     0          0          1      )

 cart.    s( 1) = (  1.0000000 -0.0000000  0.0000000 )
                  (  0.0000000  1.0000000  0.0000000 )
                  (  0.0000000  0.0000000  1.0000000 )

      isym =  2     inversion

 cryst.   s( 2) = (    -1          0          0      )
                  (     0         -1          0      )
                  (     0          0         -1      )

 cart.    s( 2) = ( -1.0000000  0.0000000  0.0000000 )
                  (  0.0000000 -1.0000000  0.0000000 )
                  (  0.0000000  0.0000000 -1.0000000 )

   Cartesian axes

     site n.     atom                  positions (alat units)
         1           Rb  tau(   1) = (   1.0788160   0.5117385   0.5455488  )
         2           Au  tau(   2) = (   0.0000000   0.0000000   0.0000000  )
         3           Se  tau(   3) = (   0.5765315   0.2734788   0.1683007  )
         4           Se  tau(   4) = (   1.5811006   0.7499982   0.9227970  )
         5           O   tau(   5) = (   1.7385150   0.8246680   0.7279498  )
         6           O   tau(   6) = (   1.1333247   0.5375948   0.0784117  )
         7           O   tau(   7) = (   0.4191170   0.1988090   0.3631479  )
         8           O   tau(   8) = (   1.0243074   0.4858822   1.0126860  )
         9           O   tau(   9) = (   0.8232523   0.1536366   0.2240711  )
        10           O   tau(  10) = (   1.3343797   0.8698404   0.8670266  )
        11           O   tau(  11) = (   0.6398056   0.5403678   0.2240711  )
        12           O   tau(  12) = (   1.5178265   0.4831092   0.8670266  )

   Crystallographic axes

     site n.     atom                  positions (cryst. coord.)
         1           Rb  tau(   1) = (  0.5000000  0.5000000  0.5000000  )
         2           Au  tau(   2) = (  0.0000000  0.0000000  0.0000000  )
         3           Se  tau(   3) = (  0.3035280  0.3035280  0.1542490  )
         4           Se  tau(   4) = (  0.6964720  0.6964720  0.8457510  )
         5           O   tau(   5) = (  0.8503130  0.8503130  0.6671720  )
         6           O   tau(   6) = (  0.6710580  0.6710580  0.0718650  )
         7           O   tau(   7) = (  0.1496870  0.1496870  0.3328280  )
         8           O   tau(   8) = (  0.3289420  0.3289420  0.9281350  )
         9           O   tau(   9) = (  0.6317110  0.1323460  0.2053630  )
        10           O   tau(  10) = (  0.3682890  0.8676540  0.7946370  )
        11           O   tau(  11) = (  0.1323460  0.6317110  0.2053630  )
        12           O   tau(  12) = (  0.8676540  0.3682890  0.7946370  )

     number of k points=    14
                       cart. coord. in units 2pi/alat
        k(    1) = (   0.0000000   0.0000000   0.0000000), wk =   0.0740741
        k(    2) = (   0.0000000   0.0000000   0.3055027), wk =   0.1481481
        k(    3) = (   0.0000000   0.4304152  -0.0982375), wk =   0.1481481
        k(    4) = (   0.0000000   0.4304152   0.2072652), wk =   0.1481481
        k(    5) = (   0.0000000   0.4304152  -0.4037403), wk =   0.1481481
        k(    6) = (   0.3333333  -0.2722979  -0.0982375), wk =   0.1481481
        k(    7) = (   0.3333333  -0.2722979   0.2072652), wk =   0.1481481
        k(    8) = (   0.3333333  -0.2722979  -0.4037403), wk =   0.1481481
        k(    9) = (   0.3333333   0.1581173  -0.1964750), wk =   0.1481481
        k(   10) = (   0.3333333   0.1581173   0.1090277), wk =   0.1481481
        k(   11) = (   0.3333333   0.1581173  -0.5019778), wk =   0.1481481
        k(   12) = (   0.3333333  -0.7027131   0.0000000), wk =   0.1481481
        k(   13) = (   0.3333333  -0.7027131   0.3055027), wk =   0.1481481
        k(   14) = (   0.3333333  -0.7027131  -0.3055027), wk =   0.1481481

                       cryst. coord.
        k(    1) = (   0.0000000   0.0000000   0.0000000), wk =   0.0740741
        k(    2) = (   0.0000000   0.0000000   0.3333333), wk =   0.1481481
        k(    3) = (   0.0000000   0.3333333  -0.0000000), wk =   0.1481481
        k(    4) = (   0.0000000   0.3333333   0.3333333), wk =   0.1481481
        k(    5) = (   0.0000000   0.3333333  -0.3333333), wk =   0.1481481
        k(    6) = (   0.3333333  -0.0000000  -0.0000000), wk =   0.1481481
        k(    7) = (   0.3333333  -0.0000000   0.3333333), wk =   0.1481481
        k(    8) = (   0.3333333  -0.0000000  -0.3333333), wk =   0.1481481
        k(    9) = (   0.3333333   0.3333333  -0.0000000), wk =   0.1481481
        k(   10) = (   0.3333333   0.3333333   0.3333333), wk =   0.1481481
        k(   11) = (   0.3333333   0.3333333  -0.3333333), wk =   0.1481481
        k(   12) = (   0.3333333  -0.3333333   0.0000000), wk =   0.1481481
        k(   13) = (   0.3333333  -0.3333333   0.3333333), wk =   0.1481481
        k(   14) = (   0.3333333  -0.3333333  -0.3333333), wk =   0.1481481

     Check: negative core charge=   -0.000010

     Initial potential from superposition of free atoms

     starting charge      87.9750, renormalised to      88.0000
     Starting wfcs are   55 randomized atomic wfcs +    9 random wfcs
     Checking if some PAW data can be deallocated...

     Self-consistent Calculation

     iteration #  1     ecut=    30.00 Ry     beta= 0.70
     Davidson diagonalization with overlap

     ethr =  1.00E-02,  avg # of iterations =  8.4

     total energy              =    -741.47527697 Ry
     estimated scf accuracy    <       3.01911660 Ry

[...]

     total energy              =    -742.98743000 Ry
     estimated scf accuracy    <       0.00000109 Ry

     iteration # 10     ecut=    30.00 Ry     beta= 0.70
     Davidson diagonalization with overlap

     ethr =  1.24E-09,  avg # of iterations =  3.1

     End of self-consistent calculation

          k = 0.0000 0.0000 0.0000 (  3899 PWs)   bands (ev):

  -103.2390 -54.5336 -54.4837 -53.6089 -20.7872 -18.1901 -17.9406 -15.1816
   -15.1480 -15.0109 -14.9886 -14.8494 -14.7856  -7.4496  -6.8896  -4.9429
    -4.9243  -4.8750  -4.1220  -3.3142  -2.7609  -2.7557  -2.3811  -1.8416
    -1.6748  -1.1011  -1.0729   0.1094   0.1769   0.2517   0.2586   1.0262
     1.0388   1.3004   1.5253   1.5448   1.6975   1.7841   1.8889   2.1909
     2.2700   2.3018   2.4260   2.6790   5.2010   5.6482   6.7382   9.0005
     9.1765   9.8290   9.8430  10.1411  10.4764  10.4883  11.5112  11.6095
    12.9696  13.0055  13.5305  13.5348  13.8950  14.0707  14.3745  14.5423

     occupation numbers
     1.0000   1.0000   1.0000   1.0000   1.0000   1.0000   1.0000   1.0000
     1.0000   1.0000   1.0000   1.0000   1.0000   1.0000   1.0000   1.0000
     1.0000   1.0000   1.0000   1.0000   1.0000   1.0000   1.0000   1.0000
     1.0000   1.0000   1.0000   1.0000   1.0000   1.0000   1.0000   1.0000
     1.0000   1.0000   1.0000   1.0000   1.0000   1.0000   1.0000   1.0000
     1.0000   1.0000   1.0000   1.0000   0.0000   0.0000   0.0000   0.0000
     0.0000   0.0000   0.0000   0.0000   0.0000   0.0000   0.0000   0.0000
     0.0000   0.0000   0.0000   0.0000   0.0000   0.0000   0.0000   0.0000

[...]

          k = 0.3333-0.7027-0.3055 (  3888 PWs)   bands (ev):

  -103.2390 -54.5334 -54.4828 -53.6085 -20.7846 -18.0433 -18.0297 -15.3956
   -15.1405 -15.0417 -14.9120 -14.8345 -14.7947  -7.1153  -6.9075  -4.9501
    -4.9255  -4.8599  -3.8124  -3.5655  -2.9019  -2.5883  -2.2567  -1.9318
    -1.4527  -1.1265  -1.1036  -0.2660  -0.0877   0.3639   0.5820   0.6143
     0.9957   1.1768   1.1789   1.6380   1.6752   1.7511   1.9861   2.0701
     2.1651   2.3020   2.3859   2.7776   4.4800   6.9967   7.1294   8.8465
     8.9249   9.8957  10.1637  10.4289  10.7202  11.3204  11.4573  11.8511
    12.0509  12.7058  12.9998  13.6887  13.8695  14.3116  14.3442  14.8275

     occupation numbers
     1.0000   1.0000   1.0000   1.0000   1.0000   1.0000   1.0000   1.0000
     1.0000   1.0000   1.0000   1.0000   1.0000   1.0000   1.0000   1.0000
     1.0000   1.0000   1.0000   1.0000   1.0000   1.0000   1.0000   1.0000
     1.0000   1.0000   1.0000   1.0000   1.0000   1.0000   1.0000   1.0000
     1.0000   1.0000   1.0000   1.0000   1.0000   1.0000   1.0000   1.0000
     1.0000   1.0000   1.0000   1.0000   0.0000   0.0000   0.0000   0.0000
     0.0000   0.0000   0.0000   0.0000   0.0000   0.0000   0.0000   0.0000
     0.0000   0.0000   0.0000   0.0000   0.0000   0.0000   0.0000   0.0000

     highest occupied, lowest unoccupied level (ev):     2.8006    4.4683

!    total energy              =    -742.98743041 Ry
     estimated scf accuracy    <       0.00000004 Ry

     The total energy is the sum of the following terms:
     one-electron contribution =    -412.86981066 Ry
     hartree contribution      =     239.29112516 Ry
     xc contribution           =    -151.19652982 Ry
     ewald contribution        =    -341.91002559 Ry
     one-center paw contrib.   =     -76.30218950 Ry
      -> PAW hartree energy AE =       0.00000000 Ry
      -> PAW hartree energy PS =       0.00000000 Ry
      -> PAW xc energy AE      =       0.00000000 Ry
      -> PAW xc energy PS      =       0.00000000 Ry
      -> total E_H with PAW    =     239.29112516 Ry
      -> total E_XC with PAW   =    -151.19652982 Ry

     convergence has been achieved in  10 iterations

     Writing all to output data dir bands_nm/myprefix.save/

     General routines

     Parallel routines

     PAW routines

   This run was terminated on:  19:18:34  14Jul2023

   JOB DONE.