     Program PWSCF v.7.1 starts on 15Jul2023 at 21:36:23

     Reading input from espresso_11579.pwi
Warning: card &CELL ignored
Warning: card / ignored

     Current dimensions of program PWSCF are:
     Max number of different atomic species (ntypx) = 10
     Max number of k-points (npk) =  40000
     Max angular momentum in pseudopotentials (lmaxx) =  4
     file La.paw.z_11.atompaw.wentzcovitch.v1.2.upf: wavefunction(s)  6S 0P 5D 0D 4F 0F renormalized
     file O.pbe-n-kjpaw_psl.0.1.UPF: wavefunction(s)  2P renormalized

     K-points division:     npool     =       2
     R & G space division:  proc/nbgrp/npool/nimage =       4
     Subspace diagonalization in iterative solution of the eigenvalue problem:
     one sub-group per band group will be used

     Using Slab Decomposition

     bravais-lattice index     =            0
     lattice parameter (alat)  =      18.1403  a.u.
     unit-cell volume          =    1739.3417 (a.u.)^3
     number of atoms/cell      =           15
     number of atomic types    =            3
     number of electrons       =       140.00
     number of Kohn-Sham states=          256
     kinetic-energy cutoff     =      30.0000  Ry
     charge density cutoff     =     240.0000  Ry
     scf convergence threshold =      1.0E-06
     mixing beta               =       0.7000
     number of iterations used =            8  plain     mixing
     Exchange-correlation= SLA  PW   PBX  PBC
                           (   1   4   3   4   0   0   0)

     celldm(1)=  18.140279  celldm(2)=   0.000000  celldm(3)=   0.000000
     celldm(4)=   0.000000  celldm(5)=   0.000000  celldm(6)=   0.000000

     crystal axes: (cart. coord. in units of alat)
               a(1) = (   1.000000   0.000000   0.000000 )
               a(2) = (   0.914656   0.404232   0.000000 )
               a(3) = (   0.106903   0.022570   0.720812 )

     reciprocal axes: (cart. coord. in units 2 pi/alat)
               b(1) = (  1.000000 -2.262701 -0.077460 )
               b(2) = (  0.000000  2.473826 -0.077460 )
               b(3) = (  0.000000  0.000000  1.387324 )

     PseudoPot. # 1 for La read from file:
     /lustre07/scratch/pragov/crystal_structure_design/utils/SSSP/La.paw.z_11.atompaw.wentzcovitch.v1.2.upf
     MD5 check sum: 754494e15ae71f30e5b5f678af019e01
     Pseudo is Projector augmented-wave + core cor, Zval = 11.0
     Generated using ATOMPAW code
     Shape of augmentation charge: BESSEL
     Using radial grid of 1101 points,  8 beta functions with:
                l(1) =   0
                l(2) =   0
                l(3) =   1
                l(4) =   1
                l(5) =   2
                l(6) =   2
                l(7) =   3
                l(8) =   3
     Q(r) pseudized with 0 coefficients

     PseudoPot. # 2 for Bi read from file:
     /lustre07/scratch/pragov/crystal_structure_design/utils/SSSP/Bi_pbe_v1.uspp.F.UPF
     MD5 check sum: cceb9f28ec65b6d7ff33140f5b0b1758
     Pseudo is Ultrasoft + core correction, Zval = 15.0
     Generated by new atomic code, or converted to UPF format
     Using radial grid of  899 points,  6 beta functions with:
                l(1) =   0
                l(2) =   0
                l(3) =   1
                l(4) =   1
                l(5) =   2
                l(6) =   2
     Q(r) pseudized with  6 coefficients,  rinner =    1.000   1.000   1.000
                                                       1.000   1.000

     PseudoPot. # 3 for O  read from file:
     /lustre07/scratch/pragov/crystal_structure_design/utils/SSSP/O.pbe-n-kjpaw_psl.0.1.UPF
     MD5 check sum: 0234752ac141de4415c5fc33072bef88
     Pseudo is Projector augmented-wave + core cor, Zval =  6.0
     Generated using "atomic" code by A. Dal Corso  v.5.0.99 svn rev. 10869
     Shape of augmentation charge: BESSEL
     Using radial grid of 1095 points,  4 beta functions with:
                l(1) =   0
                l(2) =   0
                l(3) =   1
                l(4) =   1
     Q(r) pseudized with 0 coefficients

     atomic species   valence    mass     pseudopotential
        La            11.00   138.90547     La( 1.00)
        Bi            15.00   208.98040     Bi( 1.00)
        O              6.00    15.99900     O ( 1.00)

     No symmetry found

                                    s                        frac. trans.

      isym =  1     identity

 cryst.   s( 1) = (     1          0          0      )
                  (     0          1          0      )
                  (     0          0          1      )

 cart.    s( 1) = (  1.0000000  0.0000000  0.0000000 )
                  (  0.0000000  1.0000000  0.0000000 )
                  (  0.0000000  0.0000000  1.0000000 )

   Cartesian axes

     site n.     atom                  positions (alat units)
         1           La  tau(   1) = (   1.0242673   0.2162486   0.3528586  )
         2           Bi  tau(   2) = (   1.2815866   0.2705752   0.0630509  )
         3           Bi  tau(   3) = (   1.6460156   0.3475153   0.2899871  )
         4           Bi  tau(   4) = (   0.7265452   0.1533920   0.6303259  )
         5           Bi  tau(   5) = (   0.3985147   0.0841365   0.4431835  )
         6           Bi  tau(   6) = (   2.0133995   0.4250793   0.7076842  )
         7           O   tau(   7) = (   1.2687205   0.2678588   0.2958445  )
         8           O   tau(   8) = (   1.8667082   0.3941090   0.2598536  )
         9           O   tau(   9) = (   1.6231932   0.3426969   0.0293255  )
        10           O   tau(  10) = (   1.0635294   0.2245378   0.0790666  )
        11           O   tau(  11) = (   1.4999914   0.3166859   0.4978817  )
        12           O   tau(  12) = (   0.7418316   0.1566193   0.3886642  )
        13           O   tau(  13) = (   0.9433492   0.1991647   0.6027361  )
        14           O   tau(  14) = (   0.1735784   0.0366468   0.4816648  )
        15           O   tau(  15) = (   0.3880404   0.0819251   0.6780329  )

   Crystallographic axes

     site n.     atom                  positions (cryst. coord.)
         1           La  tau(   1) = (  0.5076290  0.5076290  0.4895290  )
         2           Bi  tau(   2) = (  0.6644720  0.6644720  0.0874720  )
         3           Bi  tau(   3) = (  0.8372300  0.8372300  0.4023060  )
         4           Bi  tau(   4) = (  0.3306400  0.3306400  0.8744660  )
         5           Bi  tau(   5) = (  0.1738100  0.1738100  0.6148390  )
         6           Bi  tau(   6) = (  0.9967550  0.9967550  0.9817870  )
         7           O   tau(   7) = (  0.6397200  0.6397200  0.4104320  )
         8           O   tau(   8) = (  0.9548290  0.9548290  0.3605010  )
         9           O   tau(   9) = (  0.8455010  0.8455010  0.0406840  )
        10           O   tau(  10) = (  0.5493430  0.5493430  0.1096910  )
        11           O   tau(  11) = (  0.7448600  0.7448600  0.6907230  )
        12           O   tau(  12) = (  0.3573430  0.3573430  0.5392030  )
        13           O   tau(  13) = (  0.4460110  0.4460110  0.8361900  )
        14           O   tau(  14) = (  0.0533480  0.0533480  0.6682250  )
        15           O   tau(  15) = (  0.1501480  0.1501480  0.9406510  )

     number of k points=    14
                       cart. coord. in units 2pi/alat
        k(    1) = (   0.0000000   0.0000000   0.0000000), wk =   0.0740741
        k(    2) = (   0.0000000   0.0000000   0.4624412), wk =   0.1481481
        k(    3) = (   0.0000000   0.8246087  -0.0258200), wk =   0.1481481
        k(    4) = (   0.0000000   0.8246087   0.4366212), wk =   0.1481481
        k(    5) = (   0.0000000   0.8246087  -0.4882612), wk =   0.1481481
        k(    6) = (   0.3333333  -0.7542337  -0.0258200), wk =   0.1481481
        k(    7) = (   0.3333333  -0.7542337   0.4366212), wk =   0.1481481
        k(    8) = (   0.3333333  -0.7542337  -0.4882612), wk =   0.1481481
        k(    9) = (   0.3333333   0.0703750  -0.0516400), wk =   0.1481481
        k(   10) = (   0.3333333   0.0703750   0.4108012), wk =   0.1481481
        k(   11) = (   0.3333333   0.0703750  -0.5140812), wk =   0.1481481
        k(   12) = (   0.3333333  -1.5788424  -0.0000000), wk =   0.1481481
        k(   13) = (   0.3333333  -1.5788424   0.4624412), wk =   0.1481481
        k(   14) = (   0.3333333  -1.5788424  -0.4624412), wk =   0.1481481

                       cryst. coord.
        k(    1) = (   0.0000000   0.0000000   0.0000000), wk =   0.0740741
        k(    2) = (   0.0000000   0.0000000   0.3333333), wk =   0.1481481
        k(    3) = (   0.0000000   0.3333333   0.0000000), wk =   0.1481481
        k(    4) = (   0.0000000   0.3333333   0.3333333), wk =   0.1481481
        k(    5) = (   0.0000000   0.3333333  -0.3333333), wk =   0.1481481
        k(    6) = (   0.3333333   0.0000000   0.0000000), wk =   0.1481481
        k(    7) = (   0.3333333   0.0000000   0.3333333), wk =   0.1481481
        k(    8) = (   0.3333333   0.0000000  -0.3333333), wk =   0.1481481
        k(    9) = (   0.3333333   0.3333333   0.0000000), wk =   0.1481481
        k(   10) = (   0.3333333   0.3333333   0.3333333), wk =   0.1481481
        k(   11) = (   0.3333333   0.3333333  -0.3333333), wk =   0.1481481
        k(   12) = (   0.3333333  -0.3333333   0.0000000), wk =   0.1481481
        k(   13) = (   0.3333333  -0.3333333   0.3333333), wk =   0.1481481
        k(   14) = (   0.3333333  -0.3333333  -0.3333333), wk =   0.1481481

     Check: negative core charge=   -0.000010

     Initial potential from superposition of free atoms

     starting charge     134.9912, renormalised to     140.0000

     negative rho (up, down):  2.130E-01 0.000E+00
     Starting wfcs are  113 randomized atomic wfcs +  143 random wfcs
     Checking if some PAW data can be deallocated...

     Self-consistent Calculation

     iteration #  1     ecut=    30.00 Ry     beta= 0.70
     Davidson diagonalization with overlap

     ethr =  1.00E-02,  avg # of iterations = 11.5

     negative rho (up, down):  1.953E-01 0.000E+00

     total energy              =   -1757.71459550 Ry
     estimated scf accuracy    <       3.65188849 Ry

[...]

     total energy              =   -1759.40900932 Ry
     estimated scf accuracy    <       0.00000212 Ry

     iteration # 16     ecut=    30.00 Ry     beta= 0.70
     Davidson diagonalization with overlap

     ethr =  1.51E-09,  avg # of iterations =  1.9

     negative rho (up, down):  2.020E-01 0.000E+00

     End of self-consistent calculation

          k = 0.0000 0.0000 0.0000 (  4853 PWs)   bands (ev):

   -20.9374 -13.1512 -13.0937 -13.0535 -13.0270 -12.9911 -12.9906 -12.9516
   -12.9355 -12.9346 -12.9130 -12.9067 -12.8978 -12.8916 -12.8772 -12.8629
   -12.8296 -12.8090 -12.8034 -12.7973 -12.7882 -12.7717 -12.7583 -12.7530
   -12.7487 -12.7061  -8.9990  -8.8551  -8.3051  -7.8158  -7.6026  -7.4315
    -7.2508  -6.9252  -6.7042  -4.5795  -4.2909  -3.9020  -0.6714  -0.3382
     0.1313   1.0885   1.3500   4.8934   5.0102   5.0839   5.1960   5.4190
     5.8876   6.0113   6.1415   6.3745   6.5493   6.6810   6.7077   6.7815
     6.9858   7.1932   7.2068   7.4271   7.5598   7.7800   8.0103   8.1015
     8.1601   8.2106   8.3713   8.7275   9.0065   9.2848  11.1473  12.1312
    12.6929  13.1306  13.1848  13.4897  13.5976  13.7536  13.9908  14.0149
    14.0761  14.1194  14.1418  14.1731  14.3615  14.3902  14.5805  14.9205
    15.0770  15.2820  15.3096  15.5273  15.6700  15.9628  16.6068  17.3730
    17.5791  18.3160  18.5811  18.7586  18.8764  19.1898  20.2677  20.3860
    20.5916  20.8958  21.0196  21.3767  21.6883  22.5106  22.6676  22.9831
    23.1156  23.1925  23.8727  23.8917  23.9681  24.4640  24.4950  24.7444
    24.8499  25.1013  25.1925  25.5032  25.6749  25.7134  26.0992  26.2959
    26.4693  26.7530  26.9596  27.2221  27.3937  27.4976  27.6881  28.0199
    28.3153  28.5044  28.8959  29.0246  29.3631  29.5693  29.8303  29.9964
    30.1100  30.2500  30.6158  31.0310  31.1188  31.3864  31.5355  31.6217
    31.6548  31.8195  32.0171  32.5301  32.7253  32.7421  33.3430  33.3669
    33.7660  33.9005  33.9397  34.2086  34.2275  34.4050  34.5028  34.6651
    34.7662  34.8523  35.2409  35.3001  35.5069  35.6187  35.7881  35.8814
    35.8986  35.9256  36.0089  36.0245  36.0336  36.0736  36.4563  36.5021
    36.6859  37.0815  37.1238  37.3391  37.4511  37.6054  37.7133  38.0386
    38.2809  38.3558  38.9896  39.0977  39.2831  39.5444  39.6517  39.9511
    40.2896  40.3028  40.4153  40.4803  40.6385  40.9780  41.0780  41.1635
    41.2803  41.4651  41.5860  41.7418  41.8568  42.0292  42.0580  42.3392
    42.3627  42.6130  42.7327  42.8770  42.8998  43.1745  43.2385  43.4487
    43.7471  43.7514  43.9575  44.0239  44.0845  44.4452  44.6802  44.8435
    44.8775  45.0345  45.2521  45.3623  45.4874  45.5898  45.6548  45.9718
    46.0985  46.2075  46.5796  46.7788  46.8711  47.1102  47.1124  47.5024
    47.5588  47.7697  47.7868  48.1057  48.1138  48.2291  48.3962  48.5299

     occupation numbers
     1.0000   1.0000   1.0000   1.0000   1.0000   1.0000   1.0000   1.0000
     1.0000   1.0000   1.0000   1.0000   1.0000   1.0000   1.0000   1.0000
     1.0000   1.0000   1.0000   1.0000   1.0000   1.0000   1.0000   1.0000
     1.0000   1.0000   1.0000   1.0000   1.0000   1.0000   1.0000   1.0000
     1.0000   1.0000   1.0000   1.0000   1.0000   1.0000   1.0000   1.0000
     1.0000   1.0000   1.0000   1.0000   1.0000   1.0000   1.0000   1.0000
     1.0000   1.0000   1.0000   1.0000   1.0000   1.0000   1.0000   1.0000
     1.0000   1.0000   1.0000   1.0000   1.0000   1.0000   1.0000   1.0000
     1.0000   1.0000   1.0000   1.0000   1.0000   1.0000   0.0000   0.0000
     0.0000   0.0000   0.0000   0.0000   0.0000   0.0000   0.0000   0.0000
     0.0000   0.0000   0.0000   0.0000   0.0000   0.0000   0.0000   0.0000
     0.0000   0.0000   0.0000   0.0000   0.0000   0.0000   0.0000   0.0000
     0.0000   0.0000   0.0000   0.0000   0.0000   0.0000   0.0000   0.0000
     0.0000   0.0000   0.0000   0.0000   0.0000   0.0000   0.0000   0.0000
     0.0000   0.0000   0.0000   0.0000   0.0000   0.0000   0.0000   0.0000
     0.0000   0.0000   0.0000   0.0000   0.0000   0.0000   0.0000   0.0000
     0.0000   0.0000   0.0000   0.0000   0.0000   0.0000   0.0000   0.0000
     0.0000   0.0000   0.0000   0.0000   0.0000   0.0000   0.0000   0.0000
     0.0000   0.0000   0.0000   0.0000   0.0000   0.0000   0.0000   0.0000
     0.0000   0.0000   0.0000   0.0000   0.0000   0.0000   0.0000   0.0000
     0.0000   0.0000   0.0000   0.0000   0.0000   0.0000   0.0000   0.0000
     0.0000   0.0000   0.0000   0.0000   0.0000   0.0000   0.0000   0.0000
     0.0000   0.0000   0.0000   0.0000   0.0000   0.0000   0.0000   0.0000
     0.0000   0.0000   0.0000   0.0000   0.0000   0.0000   0.0000   0.0000
     0.0000   0.0000   0.0000   0.0000   0.0000   0.0000   0.0000   0.0000
     0.0000   0.0000   0.0000   0.0000   0.0000   0.0000   0.0000   0.0000
     0.0000   0.0000   0.0000   0.0000   0.0000   0.0000   0.0000   0.0000
     0.0000   0.0000   0.0000   0.0000   0.0000   0.0000   0.0000   0.0000
     0.0000   0.0000   0.0000   0.0000   0.0000   0.0000   0.0000   0.0000
     0.0000   0.0000   0.0000   0.0000   0.0000   0.0000   0.0000   0.0000
     0.0000   0.0000   0.0000   0.0000   0.0000   0.0000   0.0000   0.0000
     0.0000   0.0000   0.0000   0.0000   0.0000   0.0000   0.0000   0.0000

[...]

          k = 0.3333-1.5788-0.4624 (  4814 PWs)   bands (ev):

   -20.8932 -13.1565 -13.0661 -13.0366 -13.0186 -13.0111 -12.9765 -12.9598
   -12.9397 -12.9290 -12.9240 -12.9203 -12.8939 -12.8800 -12.8688 -12.8481
   -12.8391 -12.8183 -12.8005 -12.7903 -12.7843 -12.7825 -12.7713 -12.7664
   -12.7265 -12.7210  -8.5598  -8.4578  -8.1394  -7.9059  -7.7128  -7.4288
    -7.2568  -7.1103  -6.6774  -4.4297  -4.2811  -4.0209  -0.6238  -0.5159
    -0.3549  -0.1803   0.4147   4.5455   4.6735   5.0008   5.2608   5.4296
     5.6411   5.7816   6.0239   6.2463   6.4210   6.6845   6.8535   7.0163
     7.2038   7.3533   7.5095   7.6336   7.7657   7.8853   7.9709   8.0638
     8.3545   8.4190   8.5177   8.8730   9.0246   9.2868  11.3075  12.2221
    12.6363  12.8511  13.4340  13.6321  13.7458  13.8922  14.0027  14.0573
    14.0777  14.1124  14.1241  14.1546  14.2135  14.3850  14.6114  14.8032
    15.0676  15.2118  15.3747  15.5292  15.8206  15.9859  17.2472  17.7729
    17.8992  17.9886  18.4073  19.0078  19.1926  19.6351  20.7119  20.9137
    21.2083  21.2921  21.6519  21.8623  22.2186  22.5091  22.8018  22.9090
    23.3028  23.4600  23.6962  23.9326  24.1397  24.5001  24.6545  24.9392
    25.1180  25.3068  25.5544  25.7371  25.8779  26.0335  26.1611  26.5580
    26.7960  27.0963  27.2647  27.4125  27.6036  27.7229  27.9946  28.1706
    28.4005  28.5920  28.8388  29.1398  29.3580  29.5706  29.9826  30.1302
    30.1543  30.4054  30.6650  30.8665  31.0438  31.1761  31.4512  31.7497
    31.8494  31.9842  32.1927  32.3713  32.6065  32.9287  32.9963  33.2386
    33.3966  33.5446  33.7434  33.8794  34.1271  34.3087  34.4266  34.5980
    34.7891  34.9562  35.0809  35.1690  35.5028  35.5862  35.6662  35.8433
    35.9146  35.9446  35.9823  36.0271  36.0409  36.0908  36.2501  36.5055
    36.5689  36.6853  36.8761  37.0382  37.1642  37.3855  37.5702  37.6976
    37.8218  38.0282  38.2024  38.3439  38.4849  38.5412  38.7007  38.9289
    39.0322  39.2509  39.3390  39.5056  39.6651  39.9501  40.0790  40.2363
    40.4299  40.6588  40.7952  41.0005  41.1703  41.3639  41.4533  41.6979
    41.8243  41.9807  42.1925  42.4585  42.5824  42.7736  42.8695  43.0101
    43.4574  43.5354  43.7626  43.8607  44.1141  44.2877  44.3971  44.5636
    44.6910  44.7924  45.0069  45.1778  45.3337  45.4863  45.7165  45.7924
    45.9976  46.2486  46.3019  46.4815  46.7076  46.8753  47.0202  47.1494
    47.4175  47.5910  47.7700  47.8748  47.9290  48.1551  48.2078  48.3035

     occupation numbers
     1.0000   1.0000   1.0000   1.0000   1.0000   1.0000   1.0000   1.0000
     1.0000   1.0000   1.0000   1.0000   1.0000   1.0000   1.0000   1.0000
     1.0000   1.0000   1.0000   1.0000   1.0000   1.0000   1.0000   1.0000
     1.0000   1.0000   1.0000   1.0000   1.0000   1.0000   1.0000   1.0000
     1.0000   1.0000   1.0000   1.0000   1.0000   1.0000   1.0000   1.0000
     1.0000   1.0000   1.0000   1.0000   1.0000   1.0000   1.0000   1.0000
     1.0000   1.0000   1.0000   1.0000   1.0000   1.0000   1.0000   1.0000
     1.0000   1.0000   1.0000   1.0000   1.0000   1.0000   1.0000   1.0000
     1.0000   1.0000   1.0000   1.0000   1.0000   1.0000   0.0000   0.0000
     0.0000   0.0000   0.0000   0.0000   0.0000   0.0000   0.0000   0.0000
     0.0000   0.0000   0.0000   0.0000   0.0000   0.0000   0.0000   0.0000
     0.0000   0.0000   0.0000   0.0000   0.0000   0.0000   0.0000   0.0000
     0.0000   0.0000   0.0000   0.0000   0.0000   0.0000   0.0000   0.0000
     0.0000   0.0000   0.0000   0.0000   0.0000   0.0000   0.0000   0.0000
     0.0000   0.0000   0.0000   0.0000   0.0000   0.0000   0.0000   0.0000
     0.0000   0.0000   0.0000   0.0000   0.0000   0.0000   0.0000   0.0000
     0.0000   0.0000   0.0000   0.0000   0.0000   0.0000   0.0000   0.0000
     0.0000   0.0000   0.0000   0.0000   0.0000   0.0000   0.0000   0.0000
     0.0000   0.0000   0.0000   0.0000   0.0000   0.0000   0.0000   0.0000
     0.0000   0.0000   0.0000   0.0000   0.0000   0.0000   0.0000   0.0000
     0.0000   0.0000   0.0000   0.0000   0.0000   0.0000   0.0000   0.0000
     0.0000   0.0000   0.0000   0.0000   0.0000   0.0000   0.0000   0.0000
     0.0000   0.0000   0.0000   0.0000   0.0000   0.0000   0.0000   0.0000
     0.0000   0.0000   0.0000   0.0000   0.0000   0.0000   0.0000   0.0000
     0.0000   0.0000   0.0000   0.0000   0.0000   0.0000   0.0000   0.0000
     0.0000   0.0000   0.0000   0.0000   0.0000   0.0000   0.0000   0.0000
     0.0000   0.0000   0.0000   0.0000   0.0000   0.0000   0.0000   0.0000
     0.0000   0.0000   0.0000   0.0000   0.0000   0.0000   0.0000   0.0000
     0.0000   0.0000   0.0000   0.0000   0.0000   0.0000   0.0000   0.0000
     0.0000   0.0000   0.0000   0.0000   0.0000   0.0000   0.0000   0.0000
     0.0000   0.0000   0.0000   0.0000   0.0000   0.0000   0.0000   0.0000
     0.0000   0.0000   0.0000   0.0000   0.0000   0.0000   0.0000   0.0000

     highest occupied, lowest unoccupied level (ev):     9.2913   11.1473

!    total energy              =   -1759.40900958 Ry
     estimated scf accuracy    <       0.00000029 Ry

     The total energy is the sum of the following terms:
     one-electron contribution =    -330.47044651 Ry
     hartree contribution      =     263.03922201 Ry
     xc contribution           =    -403.35386914 Ry
     ewald contribution        =    -809.21987761 Ry
     one-center paw contrib.   =    -479.40403834 Ry
      -> PAW hartree energy AE =      34.45000355 Ry
      -> PAW hartree energy PS =     -34.45407374 Ry
      -> PAW xc energy AE      =    -405.33179515 Ry
      -> PAW xc energy PS      =      11.71821679 Ry
      -> total E_H with PAW    =     263.03515182 Ry
      -> total E_XC with PAW   =    -796.96744750 Ry

     convergence has been achieved in  16 iterations

     Writing all to output data dir bands_nm/myprefix.save/

     General routines

     Parallel routines

     PAW routines

   This run was terminated on:  21:38:36  15Jul2023

   JOB DONE.