     Program PWSCF v.7.1 starts on 14Jul2023 at 21: 3:29

     Reading input from espresso_21914.pwi
Warning: card &CELL ignored
Warning: card / ignored

     Current dimensions of program PWSCF are:
     Max number of different atomic species (ntypx) = 10
     Max number of k-points (npk) =  40000
     Max angular momentum in pseudopotentials (lmaxx) =  4
     Message from routine setup:
     using ibrav=0 with symmetry is DISCOURAGED, use correct ibrav instead

     K-points division:     npool     =       2
     R & G space division:  proc/nbgrp/npool/nimage =       4
     Subspace diagonalization in iterative solution of the eigenvalue problem:
     a serial algorithm will be used

     Using Slab Decomposition

     bravais-lattice index     =            0
     lattice parameter (alat)  =      11.8410  a.u.
     unit-cell volume          =     846.2061 (a.u.)^3
     number of atoms/cell      =            6
     number of atomic types    =            2
     number of electrons       =        88.00
     number of Kohn-Sham states=           64
     kinetic-energy cutoff     =      30.0000  Ry
     charge density cutoff     =     240.0000  Ry
     scf convergence threshold =      1.0E-06
     mixing beta               =       0.7000
     number of iterations used =            8  plain     mixing
     Exchange-correlation=  SLA  PW   PBX  PBC
                           (   1   4   3   4   0   0   0)

     celldm(1)=  11.840950  celldm(2)=   0.000000  celldm(3)=   0.000000
     celldm(4)=   0.000000  celldm(5)=   0.000000  celldm(6)=   0.000000

     crystal axes: (cart. coord. in units of alat)
               a(1) = (   1.000000   0.000000   0.000000 )
               a(2) = (   0.000000   0.711274   0.000000 )
               a(3) = (   0.000000   0.679256   0.716605 )

     reciprocal axes: (cart. coord. in units 2 pi/alat)
               b(1) = (  1.000000  0.000000  0.000000 )
               b(2) = (  0.000000  1.405928 -1.332652 )
               b(3) = (  0.000000  0.000000  1.395470 )

     PseudoPot. # 1 for Ag read from file:
     /lustre07/scratch/pragov/crystal_structure_design/utils/SSSP/Ag_ONCV_PBE-1.0.oncvpsp.upf
     MD5 check sum: 94f47bd0669c641108e45594df92fabc
     Pseudo is Norm-conserving, Zval = 19.0
     Generated using ONCVPSP code by D. R. Hamann
     Using radial grid of 1398 points,  6 beta functions with:
                l(1) =   0
                l(2) =   0
                l(3) =   1
                l(4) =   1
                l(5) =   2
                l(6) =   2

     PseudoPot. # 2 for S  read from file:
     /lustre07/scratch/pragov/crystal_structure_design/utils/SSSP/s_pbe_v1.4.uspp.F.UPF
     MD5 check sum: 88d86576ff6df21479756cfb9bdac1df
     Pseudo is Ultrasoft + core correction, Zval =  6.0
     Generated by new atomic code, or converted to UPF format
     Using radial grid of  907 points,  6 beta functions with:
                l(1) =   0
                l(2) =   0
                l(3) =   1
                l(4) =   1
                l(5) =   2
                l(6) =   2
     Q(r) pseudized with  8 coefficients,  rinner =    1.300   1.300   1.300
                                                       1.300   1.300

     atomic species   valence    mass     pseudopotential
        Ag            19.00   107.86820     Ag( 1.00)
        S              6.00    32.06000     S ( 1.00)

      2 Sym. Ops. (no inversion) found ( 1 have fractional translation)

                                    s                        frac. trans.

      isym =  1     identity

 cryst.   s( 1) = (     1          0          0      )
                  (     0          1          0      )
                  (     0          0          1      )

 cart.    s( 1) = (  1.0000000  0.0000000  0.0000000 )
                  (  0.0000000  1.0000000 -0.0000000 )
                  (  0.0000000  0.0000000  1.0000000 )

      isym =  2     inv. 180 deg rotation - cart. axis [1,0,0]

 cryst.   s( 2) = (    -1          0          0      )    f =(  0.0000000 )
                  (     0          1          0      )       ( -0.0000000 )
                  (     0          0          1      )       ( -0.5000000 )

 cart.    s( 2) = ( -1.0000000  0.0000000  0.0000000 )    f =(  0.0000000 )
                  (  0.0000000  1.0000000 -0.0000000 )       ( -0.3396279 )
                  (  0.0000000  0.0000000  1.0000000 )       ( -0.3583023 )

   Cartesian axes

     site n.     atom                  positions (alat units)
         1           Ag  tau(   1) = (   0.0994230   0.4020657   0.1955592  )
         2           Ag  tau(   2) = (   0.5660330   0.4766965   0.0642027  )
         3           Ag  tau(   3) = (   0.9005770   0.7416936   0.5538615  )
         4           Ag  tau(   4) = (   0.4339670   0.8163244   0.4225050  )
         5           S   tau(   5) = (   0.7519860   1.0916781   0.4120541  )
         6           S   tau(   6) = (   0.2480140   0.7520502   0.0537518  )

   Crystallographic axes

     site n.     atom                  positions (cryst. coord.)
         1           Ag  tau(   1) = (  0.0994230  0.3046630  0.2728970  )
         2           Ag  tau(   2) = (  0.5660330  0.5846410  0.0895930  )
         3           Ag  tau(   3) = (  0.9005770  0.3046630  0.7728970  )
         4           Ag  tau(   4) = (  0.4339670  0.5846410  0.5895930  )
         5           S   tau(   5) = (  0.7519860  0.9856960  0.5750090  )
         6           S   tau(   6) = (  0.2480140  0.9856960  0.0750090  )

     number of k points=    10
                       cart. coord. in units 2pi/alat
        k(    1) = (   0.0000000   0.0000000   0.0000000), wk =   0.0740741
        k(    2) = (   0.0000000   0.0000000   0.4651566), wk =   0.1481481
        k(    3) = (   0.0000000   0.4686427  -0.4442174), wk =   0.1481481
        k(    4) = (   0.0000000   0.4686427   0.0209392), wk =   0.1481481
        k(    5) = (   0.0000000   0.4686427  -0.9093740), wk =   0.1481481
        k(    6) = (   0.3333333   0.0000000   0.0000000), wk =   0.1481481
        k(    7) = (   0.3333333   0.0000000   0.4651566), wk =   0.2962963
        k(    8) = (   0.3333333   0.4686427  -0.4442174), wk =   0.2962963
        k(    9) = (   0.3333333   0.4686427   0.0209392), wk =   0.2962963
        k(   10) = (   0.3333333   0.4686427  -0.9093740), wk =   0.2962963

                       cryst. coord.
        k(    1) = (   0.0000000   0.0000000   0.0000000), wk =   0.0740741
        k(    2) = (   0.0000000   0.0000000   0.3333333), wk =   0.1481481
        k(    3) = (   0.0000000   0.3333333   0.0000000), wk =   0.1481481
        k(    4) = (   0.0000000   0.3333333   0.3333333), wk =   0.1481481
        k(    5) = (   0.0000000   0.3333333  -0.3333333), wk =   0.1481481
        k(    6) = (   0.3333333   0.0000000   0.0000000), wk =   0.1481481
        k(    7) = (   0.3333333   0.0000000   0.3333333), wk =   0.2962963
        k(    8) = (   0.3333333   0.3333333   0.0000000), wk =   0.2962963
        k(    9) = (   0.3333333   0.3333333   0.3333333), wk =   0.2962963
        k(   10) = (   0.3333333   0.3333333  -0.3333333), wk =   0.2962963

     Initial potential from superposition of free atoms

     starting charge      87.9988, renormalised to      88.0000
     Starting wfcs are   48 randomized atomic wfcs +   16 random wfcs

     Self-consistent Calculation

     iteration #  1     ecut=    30.00 Ry     beta= 0.70
     Davidson diagonalization with overlap

     ethr =  1.00E-02,  avg # of iterations =  6.0

     Threshold (ethr) on eigenvalues was too large:
     Diagonalizing with lowered threshold

     Davidson diagonalization with overlap

[...]

     total energy              =   -1196.50706268 Ry
     estimated scf accuracy    <       0.22250432 Ry

[...]

     total energy              =   -1196.54557244 Ry
     estimated scf accuracy    <       0.00001456 Ry

     iteration #  7     ecut=    30.00 Ry     beta= 0.70
     Davidson diagonalization with overlap

     ethr =  1.65E-08,  avg # of iterations =  1.2

     End of self-consistent calculation

          k = 0.0000 0.0000 0.0000 (  2345 PWs)   bands (ev):

   -81.5634 -81.5616 -81.5571 -81.5564 -44.6299 -44.6249 -44.6168 -44.6073
   -44.6065 -44.6011 -44.6009 -44.5978 -44.5923 -44.5863 -44.5769 -44.5743
    -2.2073  -1.7341   5.3310   5.4953   5.5154   5.6358   5.8754   6.0760
     6.5629   6.8484   6.9640   6.9780   7.0222   7.1325   7.2595   7.4253
     7.4555   7.6309   7.6320   7.6882   7.9779   8.0295   8.3659   8.8872
     9.2545  10.2413  10.5188  10.8640  10.9896  12.4835  13.7208  16.4028
    16.5483  16.7419  16.8358  18.3750  18.9083  19.0023  19.5197  19.7669
    20.6782  21.0600  21.6071  22.2452  22.2611  22.6093  22.6411  23.2226

     occupation numbers
     1.0000   1.0000   1.0000   1.0000   1.0000   1.0000   1.0000   1.0000
     1.0000   1.0000   1.0000   1.0000   1.0000   1.0000   1.0000   1.0000
     1.0000   1.0000   1.0000   1.0000   1.0000   1.0000   1.0000   1.0000
     1.0000   1.0000   1.0000   1.0000   1.0000   1.0000   1.0000   1.0000
     1.0000   1.0000   1.0000   1.0000   1.0000   1.0000   1.0000   1.0000
     1.0000   1.0000   1.0000   1.0000   0.0000   0.0000   0.0000   0.0000
     0.0000   0.0000   0.0000   0.0000   0.0000   0.0000   0.0000   0.0000
     0.0000   0.0000   0.0000   0.0000   0.0000   0.0000   0.0000   0.0000

[...]

          k = 0.3333 0.4686-0.9094 (  2341 PWs)   bands (ev):

   -81.5626 -81.5624 -81.5569 -81.5567 -44.6272 -44.6259 -44.6142 -44.6135
   -44.6073 -44.6039 -44.5987 -44.5955 -44.5939 -44.5897 -44.5778 -44.5760
    -1.8238  -1.7596   5.2900   5.5233   5.6382   5.9166   6.1163   6.1872
     6.6671   6.7851   6.8826   6.9826   7.0671   7.1888   7.2034   7.3276
     7.3673   7.5106   7.5399   7.6687   7.7477   7.7852   8.0786   8.2543
     8.8614   9.1754   9.7562   9.8548  13.5133  13.5950  14.4594  15.0465
    15.2555  15.8241  17.9305  18.1962  18.5237  18.9450  20.0700  20.8657
    21.8461  22.0797  22.4202  22.7812  23.0352  23.5111  23.8646  24.0430

     occupation numbers
     1.0000   1.0000   1.0000   1.0000   1.0000   1.0000   1.0000   1.0000
     1.0000   1.0000   1.0000   1.0000   1.0000   1.0000   1.0000   1.0000
     1.0000   1.0000   1.0000   1.0000   1.0000   1.0000   1.0000   1.0000
     1.0000   1.0000   1.0000   1.0000   1.0000   1.0000   1.0000   1.0000
     1.0000   1.0000   1.0000   1.0000   1.0000   1.0000   1.0000   1.0000
     1.0000   1.0000   1.0000   1.0000   0.0000   0.0000   0.0000   0.0000
     0.0000   0.0000   0.0000   0.0000   0.0000   0.0000   0.0000   0.0000
     0.0000   0.0000   0.0000   0.0000   0.0000   0.0000   0.0000   0.0000

     highest occupied, lowest unoccupied level (ev):    10.8640   10.9896

!    total energy              =   -1196.54557484 Ry
     estimated scf accuracy    <       0.00000009 Ry

     The total energy is the sum of the following terms:
     one-electron contribution =    -643.00232989 Ry
     hartree contribution      =     348.73201735 Ry
     xc contribution           =    -125.07886558 Ry
     ewald contribution        =    -777.19639672 Ry

     convergence has been achieved in   7 iterations

     Writing all to output data dir bands_nm/myprefix.save/

     General routines

     Parallel routines

   This run was terminated on:  21: 4: 5  14Jul2023

   JOB DONE.