     Program PWSCF v.7.1 starts on 15Jul2023 at 22:43:22

     Reading input from espresso_18100.pwi
Warning: card &CELL ignored
Warning: card / ignored

     Current dimensions of program PWSCF are:
     Max number of different atomic species (ntypx) = 10
     Max number of k-points (npk) =  40000
     Max angular momentum in pseudopotentials (lmaxx) =  4

     K-points division:     npool     =       2
     R & G space division:  proc/nbgrp/npool/nimage =       4
     Subspace diagonalization in iterative solution of the eigenvalue problem:
     one sub-group per band group will be used

     Using Slab Decomposition

     bravais-lattice index     =            0
     lattice parameter (alat)  =      12.7248  a.u.
     unit-cell volume          =    2048.8251 (a.u.)^3
     number of atoms/cell      =           14
     number of atomic types    =            3
     number of electrons       =       136.00
     number of Kohn-Sham states=          256
     kinetic-energy cutoff     =      30.0000  Ry
     charge density cutoff     =     240.0000  Ry
     scf convergence threshold =      1.0E-06
     mixing beta               =       0.7000
     number of iterations used =            8  plain     mixing
     Exchange-correlation= SLA  PW   PBE  PBE
                           (   1   4   3   4   0   0   0)

     celldm(1)=  12.724845  celldm(2)=   0.000000  celldm(3)=   0.000000
     celldm(4)=   0.000000  celldm(5)=   0.000000  celldm(6)=   0.000000

     crystal axes: (cart. coord. in units of alat)
               a(1) = (   1.000000   0.000000   0.000000 )
               a(2) = (  -0.062098   0.998040   0.000000 )
               a(3) = (  -0.063098  -0.063314   0.996321 )

     reciprocal axes: (cart. coord. in units 2 pi/alat)
               b(1) = (  1.000000  0.062220  0.067285 )
               b(2) = (  0.000000  1.001964  0.063673 )
               b(3) = (  0.000000  0.000000  1.003692 )

     PseudoPot. # 1 for Re read from file:
     /lustre07/scratch/pragov/crystal_structure_design/utils/SSSP/Re_pbe_v1.2.uspp.F.UPF
     MD5 check sum: 85f993410f3e006da9d71c142b4ad953
     Pseudo is Ultrasoft + core correction, Zval = 15.0
     Generated by new atomic code, or converted to UPF format
     Using radial grid of  981 points,  8 beta functions with:
                l(1) =   0
                l(2) =   0
                l(3) =   1
                l(4) =   1
                l(5) =   2
                l(6) =   2
                l(7) =   3
                l(8) =   3
     Q(r) pseudized with  8 coefficients,  rinner =    1.150   1.150   1.150
                                                       1.150   1.150   1.150
                                                       1.150

     PseudoPot. # 2 for Mo read from file:
     /lustre07/scratch/pragov/crystal_structure_design/utils/SSSP/Mo_ONCV_PBE-1.0.oncvpsp.upf
     MD5 check sum: 1b5d28e075c9ccadda658a603575cd1f
     Pseudo is Norm-conserving, Zval = 14.0
     Generated using ONCVPSP code by D. R. Hamann
     Using radial grid of 1526 points,  6 beta functions with:
                l(1) =   0
                l(2) =   0
                l(3) =   1
                l(4) =   1
                l(5) =   2
                l(6) =   2

     PseudoPot. # 3 for Se read from file:
     /lustre07/scratch/pragov/crystal_structure_design/utils/SSSP/Se_pbe_v1.uspp.F.UPF
     MD5 check sum: 1b3568f3a8ae88f9a2a0ad0698632c85
     Pseudo is Ultrasoft + core correction, Zval =  6.0
     Generated by new atomic code, or converted to UPF format
     Using radial grid of  877 points,  6 beta functions with:
                l(1) =   0
                l(2) =   0
                l(3) =   1
                l(4) =   1
                l(5) =   2
                l(6) =   2
     Q(r) pseudized with  8 coefficients,  rinner =    1.300   1.300   1.300
                                                       1.300   1.300

     atomic species   valence    mass     pseudopotential
        Re            15.00   186.20700     Re( 1.00)
        Mo            14.00    95.95000     Mo( 1.00)
        Se             6.00    78.97100     Se( 1.00)

     No symmetry found

                                    s                        frac. trans.

      isym =  1     identity

 cryst.   s( 1) = (     1          0          0      )
                  (     0          1          0      )
                  (     0          0          1      )

 cart.    s( 1) = (  1.0000000 -0.0000000  0.0000000 )
                  (  0.0000000  1.0000000  0.0000000 )
                  (  0.0000000  0.0000000  1.0000000 )

   Cartesian axes

     site n.     atom                  positions (alat units)
         1           Re  tau(   1) = (   0.5054035   0.3982710   0.2361291  )
         2           Re  tau(   2) = (   0.6984947   0.4164056   0.5840305  )
         3           Re  tau(   3) = (   0.5085204   0.7337212   0.4515756  )
         4           Re  tau(   4) = (   0.3687048   0.5367823   0.7617832  )
         5           Mo  tau(   5) = (   0.1745103   0.5175141   0.4119469  )
         6           Mo  tau(   6) = (   0.3639019   0.2000801   0.5453533  )
         7           Se  tau(   7) = (   0.3181044   0.7230910   0.1247175  )
         8           Se  tau(   8) = (   0.0559731   0.3233264   0.7335146  )
         9           Se  tau(   9) = (   0.7054703   0.1042717   0.3671693  )
        10           Se  tau(  10) = (   0.5584522   0.2140449   0.8723201  )
        11           Se  tau(  11) = (   0.8137131   0.6116984   0.2669812  )
        12           Se  tau(  12) = (   0.1760995   0.8304738   0.6275140  )
        13           Se  tau(  13) = (   0.1887227   0.1983528   0.2087502  )
        14           Se  tau(  14) = (   0.6875549   0.7350501   0.7824648  )

   Crystallographic axes

     site n.     atom                  positions (cryst. coord.)
         1           Re  tau(   1) = (  0.5460720  0.4140880  0.2370010  )
         2           Re  tau(   2) = (  0.7637000  0.4544100  0.5861870  )
         3           Re  tau(   3) = (  0.5845570  0.7639150  0.4532430  )
         4           Re  tau(   4) = (  0.4533600  0.5863410  0.7645960  )
         5           Mo  tau(   5) = (  0.2344280  0.5447600  0.4134680  )
         6           Mo  tau(   6) = (  0.4130450  0.2351970  0.5473670  )
         7           Se  tau(   7) = (  0.3714870  0.7324520  0.1251780  )
         8           Se  tau(   8) = (  0.1254450  0.3706660  0.7362230  )
         9           Se  tau(   9) = (  0.7366630  0.1278550  0.3685250  )
        10           Se  tau(  10) = (  0.6304640  0.2700080  0.8755410  )
        11           Se  tau(  11) = (  0.8697370  0.6298990  0.2679670  )
        12           Se  tau(  12) = (  0.2699940  0.8720600  0.6298310  )
        13           Se  tau(  13) = (  0.2151100  0.2120340  0.2095210  )
        14           Se  tau(  14) = (  0.7859380  0.7863150  0.7853540  )

     number of k points=    14
                       cart. coord. in units 2pi/alat
        k(    1) = (   0.0000000   0.0000000   0.0000000), wk =   0.0740741
        k(    2) = (   0.0000000   0.0000000   0.3345641), wk =   0.1481481
        k(    3) = (   0.0000000   0.3339879   0.0212242), wk =   0.1481481
        k(    4) = (   0.0000000   0.3339879   0.3557883), wk =   0.1481481
        k(    5) = (   0.0000000   0.3339879  -0.3133400), wk =   0.1481481
        k(    6) = (   0.3333333   0.0207401   0.0224283), wk =   0.1481481
        k(    7) = (   0.3333333   0.0207401   0.3569924), wk =   0.1481481
        k(    8) = (   0.3333333   0.0207401  -0.3121359), wk =   0.1481481
        k(    9) = (   0.3333333   0.3547280   0.0436524), wk =   0.1481481
        k(   10) = (   0.3333333   0.3547280   0.3782166), wk =   0.1481481
        k(   11) = (   0.3333333   0.3547280  -0.2909117), wk =   0.1481481
        k(   12) = (   0.3333333  -0.3132478   0.0012041), wk =   0.1481481
        k(   13) = (   0.3333333  -0.3132478   0.3357682), wk =   0.1481481
        k(   14) = (   0.3333333  -0.3132478  -0.3333600), wk =   0.1481481

                       cryst. coord.
        k(    1) = (   0.0000000   0.0000000   0.0000000), wk =   0.0740741
        k(    2) = (   0.0000000   0.0000000   0.3333333), wk =   0.1481481
        k(    3) = (   0.0000000   0.3333333   0.0000000), wk =   0.1481481
        k(    4) = (   0.0000000   0.3333333   0.3333333), wk =   0.1481481
        k(    5) = (   0.0000000   0.3333333  -0.3333333), wk =   0.1481481
        k(    6) = (   0.3333333  -0.0000000   0.0000000), wk =   0.1481481
        k(    7) = (   0.3333333  -0.0000000   0.3333333), wk =   0.1481481
        k(    8) = (   0.3333333  -0.0000000  -0.3333333), wk =   0.1481481
        k(    9) = (   0.3333333   0.3333333   0.0000000), wk =   0.1481481
        k(   10) = (   0.3333333   0.3333333   0.3333333), wk =   0.1481481
        k(   11) = (   0.3333333   0.3333333  -0.3333333), wk =   0.1481481
        k(   12) = (   0.3333333  -0.3333333   0.0000000), wk =   0.1481481
        k(   13) = (   0.3333333  -0.3333333   0.3333333), wk =   0.1481481
        k(   14) = (   0.3333333  -0.3333333  -0.3333333), wk =   0.1481481

     Initial potential from superposition of free atoms

     starting charge     133.9973, renormalised to     136.0000

     negative rho (up, down):  5.177E-01 0.000E+00
     Starting wfcs are  104 randomized atomic wfcs +  152 random wfcs

     Self-consistent Calculation

     iteration #  1     ecut=    30.00 Ry     beta= 0.70
     Davidson diagonalization with overlap

     ethr =  1.00E-02,  avg # of iterations =  7.9

     negative rho (up, down):  4.947E-01 0.000E+00

     total energy              =   -1385.13602468 Ry
     estimated scf accuracy    <       1.89501177 Ry

[...]

     c_bands:  1 eigenvalues not converged
     c_bands:  1 eigenvalues not converged
     c_bands:  1 eigenvalues not converged
     c_bands:  1 eigenvalues not converged
     ethr =  6.70E-07,  avg # of iterations = 18.7

[...]

     total energy              =   -1386.20372263 Ry
     estimated scf accuracy    <       0.00001507 Ry

     iteration # 13     ecut=    30.00 Ry     beta= 0.70
     Davidson diagonalization with overlap

     ethr =  5.46E-09,  avg # of iterations =  1.0

     negative rho (up, down):  4.984E-01 0.000E+00

     End of self-consistent calculation

          k = 0.0000 0.0000 0.0000 (  5671 PWs)   bands (ev):

   -69.8620 -69.8240 -69.7110 -69.6882 -50.3882 -50.3075 -32.1051 -31.9501
   -31.8295 -31.7734 -31.7381 -31.5410 -31.5241 -31.5099 -31.4655 -31.4438
   -31.4257 -31.4014 -24.7654 -24.5553 -24.5080 -24.4809 -24.4307 -24.1430
    -4.0311  -2.8693  -2.8300  -2.7239  -2.5571  -2.5302  -2.4702  -2.0030
     4.1835   4.2163   4.3772   4.6299   4.8479   4.9568   5.1938   5.6358
     5.8748   5.9007   6.0775   6.1104   6.1949   6.6161   6.6739   6.7675
     7.0479   7.1746   7.6973   7.8892   7.9824   8.0576   8.1576   8.1923
     8.2977   8.3384   8.3758   8.8535   8.8619   8.9929   9.2056   9.7009
     9.7898   9.8382  10.1999  10.2490  11.6069  11.7150  11.9540  11.9991
    12.1001  12.2899  12.6138  13.0203  13.1187  13.1357  13.2065  13.4084
    13.4416  13.5182  13.7093  13.9449  13.9563  14.5485  15.0634  15.7284
    15.7896  15.7974  16.1516  16.5269  16.6095  17.4540  17.7457  18.4056
    18.4402  18.5882  18.7278  19.1101  19.4773  20.1357  20.2004  20.2687
    20.3664  20.3836  20.5584  20.7061  20.7844  20.9291  21.6349  21.6568
    21.8781  21.8937  21.9606  22.0096  22.2444  22.5040  22.6732  22.8498
    22.9046  23.6363  23.6543  23.7586  23.8094  24.5515  24.6690  24.7078
    24.7275  25.1070  25.1317  25.5017  25.9412  25.9453  25.9981  26.6461
    26.9551  27.0079  27.0643  27.1805  27.7497  27.8743  28.1661  28.1907
    28.4187  28.5228  28.5545  29.4418  29.4960  29.4994  29.6819  29.7207
    30.1414  30.4324  30.5333  30.5672  30.5836  30.8069  30.8556  31.4837
    31.6020  31.6230  31.6639  31.7395  31.9302  32.0573  32.0672  32.4199
    32.4362  32.5101  32.5874  32.6281  32.8985  32.9115  33.1942  33.3211
    33.6262  33.6582  33.7558  34.0918  34.6421  34.6586  34.7014  34.7811
    34.8580  35.0239  35.0951  35.3476  35.7591  36.0185  36.0652  36.1002
    36.2320  36.3238  36.7586  36.8010  36.9171  36.9526  37.1281  37.2495
    37.2949  37.3344  37.3676  38.0268  38.0886  38.1140  38.4066  38.8169
    38.8522  39.0292  39.0950  39.2634  39.5073  39.5934  39.6173  39.6382
    39.7259  39.7813  39.8557  39.9768  40.2226  40.3011  40.3636  40.4423
    40.4819  40.8968  41.2057  41.3827  41.5332  41.5904  41.6772  41.6946
    41.7277  41.7838  41.7914  41.8111  41.8316  41.8516  41.8845  41.8986
    41.9533  42.0013  42.0708  42.1454  42.1732  42.1975  42.2488  42.2571
    42.3611  42.3899  42.4300  42.4539  42.4835  42.4991  42.5198  42.5452

     occupation numbers
     1.0000   1.0000   1.0000   1.0000   1.0000   1.0000   1.0000   1.0000
     1.0000   1.0000   1.0000   1.0000   1.0000   1.0000   1.0000   1.0000
     1.0000   1.0000   1.0000   1.0000   1.0000   1.0000   1.0000   1.0000
     1.0000   1.0000   1.0000   1.0000   1.0000   1.0000   1.0000   1.0000
     1.0000   1.0000   1.0000   1.0000   1.0000   1.0000   1.0000   1.0000
     1.0000   1.0000   1.0000   1.0000   1.0000   1.0000   1.0000   1.0000
     1.0000   1.0000   1.0000   1.0000   1.0000   1.0000   1.0000   1.0000
     1.0000   1.0000   1.0000   1.0000   1.0000   1.0000   1.0000   1.0000
     1.0000   1.0000   1.0000   1.0000   0.0000   0.0000   0.0000   0.0000
     0.0000   0.0000   0.0000   0.0000   0.0000   0.0000   0.0000   0.0000
     0.0000   0.0000   0.0000   0.0000   0.0000   0.0000   0.0000   0.0000
     0.0000   0.0000   0.0000   0.0000   0.0000   0.0000   0.0000   0.0000
     0.0000   0.0000   0.0000   0.0000   0.0000   0.0000   0.0000   0.0000
     0.0000   0.0000   0.0000   0.0000   0.0000   0.0000   0.0000   0.0000
     0.0000   0.0000   0.0000   0.0000   0.0000   0.0000   0.0000   0.0000
     0.0000   0.0000   0.0000   0.0000   0.0000   0.0000   0.0000   0.0000
     0.0000   0.0000   0.0000   0.0000   0.0000   0.0000   0.0000   0.0000
     0.0000   0.0000   0.0000   0.0000   0.0000   0.0000   0.0000   0.0000
     0.0000   0.0000   0.0000   0.0000   0.0000   0.0000   0.0000   0.0000
     0.0000   0.0000   0.0000   0.0000   0.0000   0.0000   0.0000   0.0000
     0.0000   0.0000   0.0000   0.0000   0.0000   0.0000   0.0000   0.0000
     0.0000   0.0000   0.0000   0.0000   0.0000   0.0000   0.0000   0.0000
     0.0000   0.0000   0.0000   0.0000   0.0000   0.0000   0.0000   0.0000
     0.0000   0.0000   0.0000   0.0000   0.0000   0.0000   0.0000   0.0000
     0.0000   0.0000   0.0000   0.0000   0.0000   0.0000   0.0000   0.0000
     0.0000   0.0000   0.0000   0.0000   0.0000   0.0000   0.0000   0.0000
     0.0000   0.0000   0.0000   0.0000   0.0000   0.0000   0.0000   0.0000
     0.0000   0.0000   0.0000   0.0000   0.0000   0.0000   0.0000   0.0000
     0.0000   0.0000   0.0000   0.0000   0.0000   0.0000   0.0000   0.0000
     0.0000   0.0000   0.0000   0.0000   0.0000   0.0000   0.0000   0.0000
     0.0000   0.0000   0.0000   0.0000   0.0000   0.0000   0.0000   0.0000
     0.0000   0.0000   0.0000   0.0000   0.0000   0.0000   0.0000   0.0000

[...]

          k = 0.3333-0.3132-0.3334 (  5704 PWs)   bands (ev):

   -69.8620 -69.8240 -69.7112 -69.6882 -50.3882 -50.3076 -32.1031 -31.9520
   -31.8270 -31.7720 -31.7410 -31.5419 -31.5256 -31.5112 -31.4599 -31.4478
   -31.4243 -31.4015 -24.7650 -24.5564 -24.5090 -24.4801 -24.4299 -24.1438
    -3.4839  -3.0040  -2.9272  -2.8419  -2.7363  -2.6044  -2.5282  -2.1371
     3.8541   4.4511   4.6649   4.8089   4.9960   5.2103   5.3301   5.4055
     5.6773   5.8589   5.8989   6.1310   6.6428   6.7630   6.9504   7.1181
     7.3999   7.4594   7.6649   7.7354   7.8016   7.9067   7.9862   8.1309
     8.2994   8.4183   8.6031   8.6828   8.7818   8.9552   9.0361   9.1924
     9.4557   9.5516   9.9069  10.0920  11.6252  11.7377  11.9337  12.1556
    12.3092  12.3666  12.4816  12.7741  12.8459  12.9349  12.9727  13.0434
    13.1929  13.4228  13.5774  14.1459  14.2580  14.4448  15.0945  15.4941
    16.0041  16.3568  16.5796  17.2477  17.3878  17.6061  17.8808  18.2327
    18.5790  18.8213  18.8664  19.1474  19.3848  19.6134  19.9297  20.0119
    20.1436  20.2043  20.3649  20.6098  20.7522  21.1202  21.1712  21.3800
    21.5127  21.7098  21.8429  21.9666  22.4910  22.7479  22.8358  23.1777
    23.3714  23.5402  23.7128  23.9735  24.1553  24.5685  24.7923  25.1356
    25.2937  25.6547  25.7687  25.9920  26.2082  26.4064  26.5708  26.6459
    26.9834  27.0476  27.2005  27.2408  27.5044  27.6754  27.7115  27.8444
    28.1546  28.2116  28.5767  28.7025  28.9274  29.1757  29.3673  29.5404
    29.7044  29.8036  29.8739  30.2283  30.3253  30.3509  30.6464  30.7822
    30.8898  31.1956  31.3395  31.5305  31.6345  31.8706  32.0033  32.0346
    32.3172  32.5141  32.5796  32.7038  33.0350  33.1383  33.2463  33.3907
    33.5875  33.8183  34.1313  34.2676  34.3818  34.4882  34.6777  34.8174
    35.0383  35.1936  35.4497  35.5329  35.5650  35.8260  36.0236  36.2225
    36.4060  36.6848  36.7528  36.8962  37.2185  37.3807  37.4720  37.5684
    37.7524  37.9339  38.0561  38.1722  38.3314  38.4201  38.5908  38.7705
    38.8073  38.9039  39.1231  39.2483  39.4893  39.6284  39.7779  39.9037
    40.0203  40.0562  40.2276  40.3160  40.5084  40.5530  40.7107  40.9687
    41.0272  41.1096  41.2107  41.2789  41.3176  41.4158  41.4562  41.5385
    41.5669  41.5884  41.6087  41.6348  41.6476  41.7578  41.7718  41.7989
    41.8867  41.9239  41.9379  41.9552  42.0140  42.0388  42.1061  42.1400
    42.1635  42.1758  42.2576  42.3231  42.3653  42.3708  42.3951  42.4484

     occupation numbers
     1.0000   1.0000   1.0000   1.0000   1.0000   1.0000   1.0000   1.0000
     1.0000   1.0000   1.0000   1.0000   1.0000   1.0000   1.0000   1.0000
     1.0000   1.0000   1.0000   1.0000   1.0000   1.0000   1.0000   1.0000
     1.0000   1.0000   1.0000   1.0000   1.0000   1.0000   1.0000   1.0000
     1.0000   1.0000   1.0000   1.0000   1.0000   1.0000   1.0000   1.0000
     1.0000   1.0000   1.0000   1.0000   1.0000   1.0000   1.0000   1.0000
     1.0000   1.0000   1.0000   1.0000   1.0000   1.0000   1.0000   1.0000
     1.0000   1.0000   1.0000   1.0000   1.0000   1.0000   1.0000   1.0000
     1.0000   1.0000   1.0000   1.0000   0.0000   0.0000   0.0000   0.0000
     0.0000   0.0000   0.0000   0.0000   0.0000   0.0000   0.0000   0.0000
     0.0000   0.0000   0.0000   0.0000   0.0000   0.0000   0.0000   0.0000
     0.0000   0.0000   0.0000   0.0000   0.0000   0.0000   0.0000   0.0000
     0.0000   0.0000   0.0000   0.0000   0.0000   0.0000   0.0000   0.0000
     0.0000   0.0000   0.0000   0.0000   0.0000   0.0000   0.0000   0.0000
     0.0000   0.0000   0.0000   0.0000   0.0000   0.0000   0.0000   0.0000
     0.0000   0.0000   0.0000   0.0000   0.0000   0.0000   0.0000   0.0000
     0.0000   0.0000   0.0000   0.0000   0.0000   0.0000   0.0000   0.0000
     0.0000   0.0000   0.0000   0.0000   0.0000   0.0000   0.0000   0.0000
     0.0000   0.0000   0.0000   0.0000   0.0000   0.0000   0.0000   0.0000
     0.0000   0.0000   0.0000   0.0000   0.0000   0.0000   0.0000   0.0000
     0.0000   0.0000   0.0000   0.0000   0.0000   0.0000   0.0000   0.0000
     0.0000   0.0000   0.0000   0.0000   0.0000   0.0000   0.0000   0.0000
     0.0000   0.0000   0.0000   0.0000   0.0000   0.0000   0.0000   0.0000
     0.0000   0.0000   0.0000   0.0000   0.0000   0.0000   0.0000   0.0000
     0.0000   0.0000   0.0000   0.0000   0.0000   0.0000   0.0000   0.0000
     0.0000   0.0000   0.0000   0.0000   0.0000   0.0000   0.0000   0.0000
     0.0000   0.0000   0.0000   0.0000   0.0000   0.0000   0.0000   0.0000
     0.0000   0.0000   0.0000   0.0000   0.0000   0.0000   0.0000   0.0000
     0.0000   0.0000   0.0000   0.0000   0.0000   0.0000   0.0000   0.0000
     0.0000   0.0000   0.0000   0.0000   0.0000   0.0000   0.0000   0.0000
     0.0000   0.0000   0.0000   0.0000   0.0000   0.0000   0.0000   0.0000
     0.0000   0.0000   0.0000   0.0000   0.0000   0.0000   0.0000   0.0000

     highest occupied, lowest unoccupied level (ev):    10.2698   11.4448

!    total energy              =   -1386.20372375 Ry
     estimated scf accuracy    <       0.00000063 Ry

     The total energy is the sum of the following terms:
     one-electron contribution =    -757.58997955 Ry
     hartree contribution      =     426.38132623 Ry
     xc contribution           =    -479.54226459 Ry
     ewald contribution        =    -575.45280584 Ry

     convergence has been achieved in  13 iterations

     Writing all to output data dir bands_nm/myprefix.save/

     General routines

     Parallel routines

   This run was terminated on:  22:45:37  15Jul2023

   JOB DONE.