     Program PWSCF v.7.1 starts on 15Jul2023 at 20:25:16

     Reading input from espresso_8010.pwi
Warning: card &CELL ignored
Warning: card / ignored

     Current dimensions of program PWSCF are:
     Max number of different atomic species (ntypx) = 10
     Max number of k-points (npk) =  40000
     Max angular momentum in pseudopotentials (lmaxx) =  4
     file Fe.pbe-spn-kjpaw_psl.0.2.1.UPF: wavefunction(s)  3D renormalized
     file O.pbe-n-kjpaw_psl.0.1.UPF: wavefunction(s)  2P renormalized

     K-points division:     npool     =       2
     R & G space division:  proc/nbgrp/npool/nimage =       4
     Subspace diagonalization in iterative solution of the eigenvalue problem:
     one sub-group per band group will be used

     Using Slab Decomposition

     bravais-lattice index     =            0
     lattice parameter (alat)  =      10.2198  a.u.
     unit-cell volume          =    1649.1330 (a.u.)^3
     number of atoms/cell      =           20
     number of atomic types    =            3
     number of electrons       =       192.00
     number of Kohn-Sham states=          256
     kinetic-energy cutoff     =      30.0000  Ry
     charge density cutoff     =     240.0000  Ry
     scf convergence threshold =      1.0E-06
     mixing beta               =       0.7000
     number of iterations used =            8  plain     mixing
     Exchange-correlation= SLA  PW   PBX  PBC
                           (   1   4   3   4   0   0   0)

     celldm(1)=  10.219789  celldm(2)=   0.000000  celldm(3)=   0.000000
     celldm(4)=   0.000000  celldm(5)=   0.000000  celldm(6)=   0.000000

     crystal axes: (cart. coord. in units of alat)
               a(1) = (   1.000000   0.000000   0.000000 )
               a(2) = (   0.026410   1.730164   0.000000 )
               a(3) = (   0.480166   0.309887   0.892982 )

     reciprocal axes: (cart. coord. in units 2 pi/alat)
               b(1) = (  1.000000 -0.015264 -0.532414 )
               b(2) = (  0.000000  0.577980 -0.200574 )
               b(3) = (  0.000000  0.000000  1.119844 )

     PseudoPot. # 1 for Fe read from file:
     /lustre07/scratch/pragov/crystal_structure_design/utils/SSSP/Fe.pbe-spn-kjpaw_psl.0.2.1.UPF
     MD5 check sum: e86618425769142926afa95317d90200
     Pseudo is Projector augmented-wave + core cor, Zval = 16.0
     Generated using "atomic" code by A. Dal Corso  v.5.0.99 svn rev. 10869
     Shape of augmentation charge: PSQ
     Using radial grid of 1191 points,  6 beta functions with:
                l(1) =   0
                l(2) =   0
                l(3) =   1
                l(4) =   1
                l(5) =   2
                l(6) =   2
     Q(r) pseudized with 0 coefficients

     PseudoPot. # 2 for Sn read from file:
     /lustre07/scratch/pragov/crystal_structure_design/utils/SSSP/Sn_pbe_v1.uspp.F.UPF
     MD5 check sum: 4cf58ce39ec5d5d420df3dd08604eb00
     Pseudo is Ultrasoft + core correction, Zval = 14.0
     Generated by new atomic code, or converted to UPF format
     Using radial grid of  891 points,  6 beta functions with:
                l(1) =   0
                l(2) =   0
                l(3) =   1
                l(4) =   1
                l(5) =   2
                l(6) =   2
     Q(r) pseudized with  6 coefficients,  rinner =    1.200   1.200   1.200
                                                       1.200   1.200

     PseudoPot. # 3 for O  read from file:
     /lustre07/scratch/pragov/crystal_structure_design/utils/SSSP/O.pbe-n-kjpaw_psl.0.1.UPF
     MD5 check sum: 0234752ac141de4415c5fc33072bef88
     Pseudo is Projector augmented-wave + core cor, Zval =  6.0
     Generated using "atomic" code by A. Dal Corso  v.5.0.99 svn rev. 10869
     Shape of augmentation charge: BESSEL
     Using radial grid of 1095 points,  4 beta functions with:
                l(1) =   0
                l(2) =   0
                l(3) =   1
                l(4) =   1
     Q(r) pseudized with 0 coefficients

     atomic species   valence    mass     pseudopotential
        Fe            16.00    55.84500     Fe( 1.00)
        Sn            14.00   118.71000     Sn( 1.00)
        O              6.00    15.99900     O ( 1.00)

     No symmetry found

                                    s                        frac. trans.

      isym =  1     identity

 cryst.   s( 1) = (     1          0          0      )
                  (     0          1          0      )
                  (     0          0          1      )

 cart.    s( 1) = (  1.0000000  0.0000000  0.0000000 )
                  (  0.0000000  1.0000000  0.0000000 )
                  (  0.0000000  0.0000000  1.0000000 )

   Cartesian axes

     site n.     atom                  positions (alat units)
         1           Fe  tau(   1) = (   0.5179057   1.4430662   0.0678157  )
         2           Fe  tau(   2) = (   0.5019024   1.4620508   0.8251472  )
         3           Fe  tau(   3) = (   1.0035805   0.5775160   0.0687605  )
         4           Fe  tau(   4) = (   0.9899113   0.5972397   0.8243730  )
         5           Sn  tau(   5) = (   1.0159339   1.7390449   0.4006943  )
         6           Sn  tau(   6) = (   0.5022894   0.8742888   0.4018185  )
         7           Sn  tau(   7) = (   1.0038244   1.1659600   0.4922195  )
         8           Sn  tau(   8) = (   0.4910663   0.3007363   0.4912337  )
         9           O   tau(   9) = (   0.1906626   0.2871651   0.2300732  )
        10           O   tau(  10) = (   0.7029273   1.1519998   0.2306563  )
        11           O   tau(  11) = (   0.8027670   0.8878759   0.6629201  )
        12           O   tau(  12) = (   1.3167888   1.7532919   0.6622566  )
        13           O   tau(  13) = (   0.1613591   0.9121679   0.2279791  )
        14           O   tau(  14) = (   0.6751551   1.7772989   0.2261503  )
        15           O   tau(  15) = (   0.8319998   0.2626711   0.6651651  )
        16           O   tau(  16) = (   1.3446726   1.1280043   0.6668555  )
        17           O   tau(  17) = (   1.3513610   0.6119879   0.6600001  )
        18           O   tau(  18) = (   0.8644516   1.4778584   0.6597438  )
        19           O   tau(  19) = (   0.6420243   0.5630763   0.2330352  )
        20           O   tau(  20) = (   0.1551731   1.4272145   0.2329173  )

   Crystallographic axes

     site n.     atom                  positions (cryst. coord.)
         1           Fe  tau(   1) = (  0.4597720  0.8204610  0.0759430  )
         2           Fe  tau(   2) = (  0.0402650  0.6795330  0.9240360  )
         3           Fe  tau(   3) = (  0.9581560  0.3200010  0.0770010  )
         4           Fe  tau(   4) = (  0.5418870  0.1798450  0.9231690  )
         5           Sn  tau(   5) = (  0.7760530  0.9247640  0.4487150  )
         6           Sn  tau(   6) = (  0.2750100  0.4247270  0.4499740  )
         7           Sn  tau(   7) = (  0.7239620  0.5751750  0.5512090  )
         8           Sn  tau(   8) = (  0.2249360  0.0752910  0.5501050  )
         9           O   tau(   9) = (  0.0637850  0.1198290  0.2576460  )
        10           O   tau(  10) = (  0.5625380  0.6195690  0.2582990  )
        11           O   tau(  11) = (  0.4362660  0.3802100  0.7423670  )
        12           O   tau(  12) = (  0.9374310  0.8805360  0.7416240  )
        13           O   tau(  13) = (  0.0260560  0.4814880  0.2553010  )
        14           O   tau(  14) = (  0.5276200  0.9818830  0.2532530  )
        15           O   tau(  15) = (  0.4738470  0.0184040  0.7448810  )
        16           O   tau(  16) = (  0.9724110  0.5182100  0.7467740  )
        17           O   tau(  17) = (  0.9906260  0.2213380  0.7390970  )
        18           O   tau(  18) = (  0.4906360  0.7218450  0.7388100  )
        19           O   tau(  19) = (  0.5093580  0.2787060  0.2609630  )
        20           O   tau(  20) = (  0.0093790  0.7781840  0.2608310  )

     number of k points=    14
                       cart. coord. in units 2pi/alat
        k(    1) = (   0.0000000   0.0000000   0.0000000), wk =   0.0740741
        k(    2) = (   0.0000000   0.0000000   0.3732813), wk =   0.1481481
        k(    3) = (   0.0000000   0.1926599  -0.0668579), wk =   0.1481481
        k(    4) = (   0.0000000   0.1926599   0.3064234), wk =   0.1481481
        k(    5) = (   0.0000000   0.1926599  -0.4401391), wk =   0.1481481
        k(    6) = (   0.3333333  -0.0050882  -0.1774713), wk =   0.1481481
        k(    7) = (   0.3333333  -0.0050882   0.1958099), wk =   0.1481481
        k(    8) = (   0.3333333  -0.0050882  -0.5507526), wk =   0.1481481
        k(    9) = (   0.3333333   0.1875718  -0.2443292), wk =   0.1481481
        k(   10) = (   0.3333333   0.1875718   0.1289521), wk =   0.1481481
        k(   11) = (   0.3333333   0.1875718  -0.6176105), wk =   0.1481481
        k(   12) = (   0.3333333  -0.1977481  -0.1106135), wk =   0.1481481
        k(   13) = (   0.3333333  -0.1977481   0.2626678), wk =   0.1481481
        k(   14) = (   0.3333333  -0.1977481  -0.4838947), wk =   0.1481481

                       cryst. coord.
        k(    1) = (   0.0000000   0.0000000   0.0000000), wk =   0.0740741
        k(    2) = (   0.0000000   0.0000000   0.3333333), wk =   0.1481481
        k(    3) = (   0.0000000   0.3333333  -0.0000000), wk =   0.1481481
        k(    4) = (   0.0000000   0.3333333   0.3333333), wk =   0.1481481
        k(    5) = (   0.0000000   0.3333333  -0.3333333), wk =   0.1481481
        k(    6) = (   0.3333333   0.0000000   0.0000000), wk =   0.1481481
        k(    7) = (   0.3333333   0.0000000   0.3333333), wk =   0.1481481
        k(    8) = (   0.3333333   0.0000000  -0.3333333), wk =   0.1481481
        k(    9) = (   0.3333333   0.3333333   0.0000000), wk =   0.1481481
        k(   10) = (   0.3333333   0.3333333   0.3333333), wk =   0.1481481
        k(   11) = (   0.3333333   0.3333333  -0.3333333), wk =   0.1481481
        k(   12) = (   0.3333333  -0.3333333   0.0000000), wk =   0.1481481
        k(   13) = (   0.3333333  -0.3333333   0.3333333), wk =   0.1481481
        k(   14) = (   0.3333333  -0.3333333  -0.3333333), wk =   0.1481481

     Check: negative core charge=   -0.000102

     Initial potential from superposition of free atoms

     starting charge     187.9980, renormalised to     192.0000
     Starting wfcs are  136 randomized atomic wfcs +  120 random wfcs
     Checking if some PAW data can be deallocated...

     Self-consistent Calculation

     iteration #  1     ecut=    30.00 Ry     beta= 0.70
     Davidson diagonalization with overlap

     ethr =  1.00E-02,  avg # of iterations =  6.0

     negative rho (up, down):  3.648E-05 0.000E+00

     total energy              =   -2448.59622893 Ry
     estimated scf accuracy    <      25.21456489 Ry

[...]

     negative rho (up, down):  4.757E-06 0.000E+00

[...]

     total energy              =   -2468.03033512 Ry
     estimated scf accuracy    <       0.00000369 Ry

     iteration # 24     ecut=    30.00 Ry     beta= 0.70
     Davidson diagonalization with overlap

     ethr =  1.92E-09,  avg # of iterations =  1.1

     End of self-consistent calculation

          k = 0.0000 0.0000 0.0000 (  4583 PWs)   bands (ev):

   -76.0461 -76.0460 -76.0454 -76.0428 -41.7047 -41.6998 -41.6958 -41.6906
   -41.6900 -41.6859 -41.6815 -41.6766 -41.5916 -41.5881 -41.5840 -41.5781
   -11.8484 -11.7926 -11.7477 -11.7121 -11.4953 -11.4913 -11.4336 -11.3186
   -11.2241 -11.2108 -11.2093 -11.1521 -11.1453 -11.1195 -11.1161 -11.0952
   -11.0934 -11.0853 -11.0731 -11.0497  -9.5925  -8.8792  -8.6748  -8.1678
    -8.0370  -7.7668  -7.7606  -7.7449  -7.1044  -7.0850  -7.0735  -6.9608
     2.0186   2.2190   2.5758   2.8178   3.7238   4.2999   4.3508   4.5344
     4.5991   5.0900   5.1247   5.2424   5.2506   5.5383   5.8191   6.3903
     6.4371   6.4758   6.4821   6.7054   6.8935   6.9692   7.0255   7.0367
     7.0719   7.3618   7.4842   7.5340   7.5817   7.6244   7.7372   7.7559
     7.7806   7.8204   7.8332   7.8814   9.9340   9.9565  10.0679  10.1619
    10.1659  10.1761  10.2442  10.2637  10.3013  10.4347  10.5147  10.5421
    10.7114  11.5369  11.6643  11.7082  11.7452  11.7614  11.9367  11.9824
    12.0377  13.3409  13.6933  14.1272  15.8546  15.8746  16.1822  17.3744
    17.5189  17.5378  17.9573  18.1110  18.3035  18.4517  18.6472  18.7162
    19.1405  19.7338  19.8023  20.1120  20.5192  20.7779  21.0306  21.1178
    21.3686  21.6693  21.8208  22.0861  22.4029  22.4830  22.9358  23.2124
    23.4566  23.8764  24.0158  24.2255  24.2856  24.6603  25.2111  26.0737
    26.3959  26.4731  26.8639  27.0283  27.1592  27.5299  27.7514  28.4400
    28.7719  29.0126  29.2275  29.2545  29.4609  29.4767  29.4776  29.4877
    29.5933  29.5987  29.8911  29.9558  30.1174  30.3436  30.6472  30.7591
    31.0842  31.1773  31.5318  31.9464  31.9916  32.0733  32.0880  32.2281
    33.1189  33.5422  33.5961  33.7016  34.1196  34.1352  34.2298  34.5884
    34.5994  35.0120  35.2088  35.4989  35.5779  35.6974  36.1096  36.3738
    36.5902  36.5969  36.6009  36.9032  37.0646  37.4029  37.9272  37.9739
    37.9832  38.1175  38.1843  38.3710  38.4110  38.5407  38.6907  38.7549
    39.0033  39.2284  39.5096  39.8678  39.8839  39.9694  40.0932  40.4937
    40.6226  40.7079  41.0934  41.1182  41.3838  41.4182  42.0443  42.1757
    42.6677  42.7098  42.7633  42.7838  42.9808  43.0063  43.1562  43.2812
    43.5462  43.5813  43.6615  44.1425  44.5077  44.7014  44.7433  44.9099
    44.9430  45.1400  45.4174  45.5489  45.7341  45.8977  45.9317  46.1597
    46.3574  46.4140  46.4514  46.5937  46.6999  46.9521  46.9825  47.1183

     occupation numbers
     1.0000   1.0000   1.0000   1.0000   1.0000   1.0000   1.0000   1.0000
     1.0000   1.0000   1.0000   1.0000   1.0000   1.0000   1.0000   1.0000
     1.0000   1.0000   1.0000   1.0000   1.0000   1.0000   1.0000   1.0000
     1.0000   1.0000   1.0000   1.0000   1.0000   1.0000   1.0000   1.0000
     1.0000   1.0000   1.0000   1.0000   1.0000   1.0000   1.0000   1.0000
     1.0000   1.0000   1.0000   1.0000   1.0000   1.0000   1.0000   1.0000
     1.0000   1.0000   1.0000   1.0000   1.0000   1.0000   1.0000   1.0000
     1.0000   1.0000   1.0000   1.0000   1.0000   1.0000   1.0000   1.0000
     1.0000   1.0000   1.0000   1.0000   1.0000   1.0000   1.0000   1.0000
     1.0000   1.0000   1.0000   1.0000   1.0000   1.0000   1.0000   1.0000
     1.0000   1.0000   1.0000   1.0000   1.0000   1.0000   1.0000   1.0000
     1.0000   1.0000   1.0000   1.0000   1.0000   1.0000   1.0000   1.0000
     0.0000   0.0000   0.0000   0.0000   0.0000   0.0000   0.0000   0.0000
     0.0000   0.0000   0.0000   0.0000   0.0000   0.0000   0.0000   0.0000
     0.0000   0.0000   0.0000   0.0000   0.0000   0.0000   0.0000   0.0000
     0.0000   0.0000   0.0000   0.0000   0.0000   0.0000   0.0000   0.0000
     0.0000   0.0000   0.0000   0.0000   0.0000   0.0000   0.0000   0.0000
     0.0000   0.0000   0.0000   0.0000   0.0000   0.0000   0.0000   0.0000
     0.0000   0.0000   0.0000   0.0000   0.0000   0.0000   0.0000   0.0000
     0.0000   0.0000   0.0000   0.0000   0.0000   0.0000   0.0000   0.0000
     0.0000   0.0000   0.0000   0.0000   0.0000   0.0000   0.0000   0.0000
     0.0000   0.0000   0.0000   0.0000   0.0000   0.0000   0.0000   0.0000
     0.0000   0.0000   0.0000   0.0000   0.0000   0.0000   0.0000   0.0000
     0.0000   0.0000   0.0000   0.0000   0.0000   0.0000   0.0000   0.0000
     0.0000   0.0000   0.0000   0.0000   0.0000   0.0000   0.0000   0.0000
     0.0000   0.0000   0.0000   0.0000   0.0000   0.0000   0.0000   0.0000
     0.0000   0.0000   0.0000   0.0000   0.0000   0.0000   0.0000   0.0000
     0.0000   0.0000   0.0000   0.0000   0.0000   0.0000   0.0000   0.0000
     0.0000   0.0000   0.0000   0.0000   0.0000   0.0000   0.0000   0.0000
     0.0000   0.0000   0.0000   0.0000   0.0000   0.0000   0.0000   0.0000
     0.0000   0.0000   0.0000   0.0000   0.0000   0.0000   0.0000   0.0000
     0.0000   0.0000   0.0000   0.0000   0.0000   0.0000   0.0000   0.0000

[...]

          k = 0.3333-0.1977-0.4839 (  4571 PWs)   bands (ev):

   -76.0460 -76.0452 -76.0436 -76.0411 -41.7070 -41.7020 -41.6983 -41.6912
   -41.6887 -41.6833 -41.6789 -41.6641 -41.5855 -41.5832 -41.5721 -41.5632
   -11.8798 -11.8306 -11.7630 -11.7260 -11.5164 -11.4516 -11.3727 -11.2794
   -11.2222 -11.2168 -11.2020 -11.1960 -11.1560 -11.1429 -11.1009 -11.0962
   -11.0712 -11.0676 -11.0650 -11.0427  -9.0139  -8.8837  -8.5678  -8.3202
    -8.1733  -8.1609  -7.9090  -7.8083  -7.2505  -7.1472  -6.9751  -6.8905
     2.1423   2.3057   2.8196   2.9853   4.1576   4.2938   4.5250   4.7273
     4.7444   5.0324   5.3557   5.3747   5.6775   5.7252   5.9585   6.0398
     6.0910   6.2959   6.4017   6.6991   6.7553   6.7603   6.8433   6.8527
     7.0403   7.0639   7.2000   7.3846   7.3976   7.4031   7.5734   7.6181
     7.6702   7.6711   7.7822   7.8789   9.8786  10.0032  10.0563  10.0636
    10.1322  10.1765  10.2819  10.3135  10.3841  10.3977  10.4670  10.5355
    11.2928  11.4367  11.5371  11.6904  11.7387  11.8688  11.9045  12.0044
    13.5648  13.6994  13.8305  14.1401  15.6800  15.9084  16.1831  16.5698
    17.0229  17.1320  18.0691  18.1314  18.4526  18.9517  18.9627  19.1214
    19.4804  19.4891  19.5960  20.0856  20.4974  20.5878  21.2351  21.2471
    21.6281  21.7219  21.8335  21.8657  21.9459  22.4602  22.7033  23.0501
    23.1798  23.3949  23.7910  23.8475  24.7858  24.9287  25.0283  25.1880
    25.5321  25.5822  26.0743  26.8375  26.9822  27.0704  27.6840  27.6948
    28.5570  28.9931  29.2010  29.4847  29.4863  29.4891  29.4939  29.6907
    29.7849  29.8635  30.1468  30.2643  30.6700  31.0285  31.1131  31.1223
    31.7034  31.9306  32.0956  32.3563  32.7512  32.7946  33.1348  33.4951
    33.8808  33.9945  34.0557  34.1852  34.3338  34.5004  34.7734  34.8617
    34.8801  35.1927  35.2688  35.4584  35.5741  35.7562  35.9919  36.0480
    36.0659  36.4094  36.4814  36.7750  37.1542  37.1892  37.2738  37.3026
    37.5824  37.8221  38.2508  38.3381  38.5485  38.7849  38.9984  39.2242
    39.4708  39.7741  39.7955  39.8529  40.0491  40.1732  40.4710  40.6435
    40.8507  41.0406  41.0546  41.2416  41.3767  41.7061  41.7466  41.7876
    42.0827  42.1894  42.3143  42.5447  42.6875  42.8050  42.9040  43.1914
    43.2383  43.3257  43.3984  43.4330  43.6416  43.7175  44.1026  44.2518
    44.3508  44.6435  44.7512  44.9592  45.2936  45.6117  45.7020  45.8877
    45.8995  45.9828  46.0146  46.2790  46.3340  46.4486  46.7806  47.1794

     occupation numbers
     1.0000   1.0000   1.0000   1.0000   1.0000   1.0000   1.0000   1.0000
     1.0000   1.0000   1.0000   1.0000   1.0000   1.0000   1.0000   1.0000
     1.0000   1.0000   1.0000   1.0000   1.0000   1.0000   1.0000   1.0000
     1.0000   1.0000   1.0000   1.0000   1.0000   1.0000   1.0000   1.0000
     1.0000   1.0000   1.0000   1.0000   1.0000   1.0000   1.0000   1.0000
     1.0000   1.0000   1.0000   1.0000   1.0000   1.0000   1.0000   1.0000
     1.0000   1.0000   1.0000   1.0000   1.0000   1.0000   1.0000   1.0000
     1.0000   1.0000   1.0000   1.0000   1.0000   1.0000   1.0000   1.0000
     1.0000   1.0000   1.0000   1.0000   1.0000   1.0000   1.0000   1.0000
     1.0000   1.0000   1.0000   1.0000   1.0000   1.0000   1.0000   1.0000
     1.0000   1.0000   1.0000   1.0000   1.0000   1.0000   1.0000   1.0000
     1.0000   1.0000   1.0000   1.0000   1.0000   1.0000   1.0000   1.0000
     0.0000   0.0000   0.0000   0.0000   0.0000   0.0000   0.0000   0.0000
     0.0000   0.0000   0.0000   0.0000   0.0000   0.0000   0.0000   0.0000
     0.0000   0.0000   0.0000   0.0000   0.0000   0.0000   0.0000   0.0000
     0.0000   0.0000   0.0000   0.0000   0.0000   0.0000   0.0000   0.0000
     0.0000   0.0000   0.0000   0.0000   0.0000   0.0000   0.0000   0.0000
     0.0000   0.0000   0.0000   0.0000   0.0000   0.0000   0.0000   0.0000
     0.0000   0.0000   0.0000   0.0000   0.0000   0.0000   0.0000   0.0000
     0.0000   0.0000   0.0000   0.0000   0.0000   0.0000   0.0000   0.0000
     0.0000   0.0000   0.0000   0.0000   0.0000   0.0000   0.0000   0.0000
     0.0000   0.0000   0.0000   0.0000   0.0000   0.0000   0.0000   0.0000
     0.0000   0.0000   0.0000   0.0000   0.0000   0.0000   0.0000   0.0000
     0.0000   0.0000   0.0000   0.0000   0.0000   0.0000   0.0000   0.0000
     0.0000   0.0000   0.0000   0.0000   0.0000   0.0000   0.0000   0.0000
     0.0000   0.0000   0.0000   0.0000   0.0000   0.0000   0.0000   0.0000
     0.0000   0.0000   0.0000   0.0000   0.0000   0.0000   0.0000   0.0000
     0.0000   0.0000   0.0000   0.0000   0.0000   0.0000   0.0000   0.0000
     0.0000   0.0000   0.0000   0.0000   0.0000   0.0000   0.0000   0.0000
     0.0000   0.0000   0.0000   0.0000   0.0000   0.0000   0.0000   0.0000
     0.0000   0.0000   0.0000   0.0000   0.0000   0.0000   0.0000   0.0000
     0.0000   0.0000   0.0000   0.0000   0.0000   0.0000   0.0000   0.0000

     highest occupied, lowest unoccupied level (ev):    10.5712   10.7114

!    total energy              =   -2468.03033549 Ry
     estimated scf accuracy    <       0.00000064 Ry

     The total energy is the sum of the following terms:
     one-electron contribution =    -918.99298898 Ry
     hartree contribution      =     585.65462563 Ry
     xc contribution           =    -418.92938185 Ry
     ewald contribution        =   -1297.17882471 Ry
     one-center paw contrib.   =    -418.58376558 Ry
      -> PAW hartree energy AE =     623.93308463 Ry
      -> PAW hartree energy PS =    -621.57894585 Ry
      -> PAW xc energy AE      =    -333.38571682 Ry
      -> PAW xc energy PS      =     102.83140587 Ry
      -> total E_H with PAW    =     588.00876440 Ry
      -> total E_XC with PAW   =    -649.48369280 Ry

     convergence has been achieved in  24 iterations

     Writing all to output data dir bands_nm/myprefix.save/

     General routines

     Parallel routines

     PAW routines

   This run was terminated on:  20:27:29  15Jul2023

   JOB DONE.