     Program PWSCF v.7.1 starts on 14Jul2023 at  2: 2:13

     Reading input from espresso_6554.pwi
Warning: card &CELL ignored
Warning: card / ignored

     Current dimensions of program PWSCF are:
     Max number of different atomic species (ntypx) = 10
     Max number of k-points (npk) =  40000
     Max angular momentum in pseudopotentials (lmaxx) =  4
     file Cu.paw.z_11.ld1.psl.v1.0.0-low.upf: wavefunction(s)  4S 3D renormalized

     K-points division:     npool     =       2
     R & G space division:  proc/nbgrp/npool/nimage =       4
     Subspace diagonalization in iterative solution of the eigenvalue problem:
     a serial algorithm will be used

     Using Slab Decomposition

     bravais-lattice index     =            0
     lattice parameter (alat)  =       8.2357  a.u.
     unit-cell volume          =     765.9811 (a.u.)^3
     number of atoms/cell      =            4
     number of atomic types    =            3
     number of electrons       =        34.00
     number of Kohn-Sham states=           64
     kinetic-energy cutoff     =      30.0000  Ry
     charge density cutoff     =     240.0000  Ry
     scf convergence threshold =      1.0E-06
     mixing beta               =       0.7000
     number of iterations used =            8  plain     mixing
     Exchange-correlation= SLA  PW   PBE  PBE
                           (   1   4   3   4   0   0   0)

     celldm(1)=   8.235727  celldm(2)=   0.000000  celldm(3)=   0.000000
     celldm(4)=   0.000000  celldm(5)=   0.000000  celldm(6)=   0.000000

     crystal axes: (cart. coord. in units of alat)
               a(1) = (   1.000000   0.000000   0.000000 )
               a(2) = (  -0.500042   0.866025   0.000000 )
               a(3) = (   0.000063   0.000028   1.583368 )

     reciprocal axes: (cart. coord. in units 2 pi/alat)
               b(1) = (  1.000000  0.577399 -0.000050 )
               b(2) = (  0.000000  1.154701 -0.000020 )
               b(3) = (  0.000000  0.000000  0.631565 )

     PseudoPot. # 1 for Y  read from file:
     /lustre07/scratch/pragov/crystal_structure_design/utils/SSSP/Y_pbe_v1.uspp.F.UPF
     MD5 check sum: 2cf71db95cafeb975fc457bd7f14888e
     Pseudo is Ultrasoft + core correction, Zval = 11.0
     Generated by new atomic code, or converted to UPF format
     Using radial grid of  885 points,  6 beta functions with:
                l(1) =   0
                l(2) =   0
                l(3) =   1
                l(4) =   1
                l(5) =   2
                l(6) =   2
     Q(r) pseudized with  6 coefficients,  rinner =    1.200   1.200   1.200
                                                       1.200   1.200

     PseudoPot. # 2 for Cu read from file:
     /lustre07/scratch/pragov/crystal_structure_design/utils/SSSP/Cu.paw.z_11.ld1.psl.v1.0.0-low.upf
     MD5 check sum: 619f40885d92a09a85a8b37550532d0c
     Pseudo is Projector augmented-wave + core cor, Zval = 11.0
     Generated using &quot;atomic&quot; code by A. Dal Corso  v.6.3MaX
     Shape of augmentation charge: PSQ
     Using radial grid of 1199 points,  6 beta functions with:
                l(1) =   0
                l(2) =   0
                l(3) =   1
                l(4) =   1
                l(5) =   2
                l(6) =   2
     Q(r) pseudized with 0 coefficients

     PseudoPot. # 3 for Te read from file:
     /lustre07/scratch/pragov/crystal_structure_design/utils/SSSP/Te_pbe_v1.uspp.F.UPF
     MD5 check sum: c319670d6894cc26e93307826a071b75
     Pseudo is Ultrasoft + core correction, Zval =  6.0
     Generated by new atomic code, or converted to UPF format
     Using radial grid of  891 points,  5 beta functions with:
                l(1) =   0
                l(2) =   0
                l(3) =   1
                l(4) =   1
                l(5) =   2
     Q(r) pseudized with  6 coefficients,  rinner =    1.800   1.800   1.800
                                                       1.800   1.800

     atomic species   valence    mass     pseudopotential
        Y             11.00    88.90584     Y ( 1.00)
        Cu            11.00    63.54600     Cu( 1.00)
        Te             6.00   127.60000     Te( 1.00)

     No symmetry found

                                    s                        frac. trans.

      isym =  1     identity

 cryst.   s( 1) = (     1          0          0      )
                  (     0          1          0      )
                  (     0          0          1      )

 cart.    s( 1) = (  1.0000000  0.0000000  0.0000000 )
                  (  0.0000000  1.0000000  0.0000000 )
                  (  0.0000000  0.0000000  1.0000000 )

   Cartesian axes

     site n.     atom                  positions (alat units)
         1           Y   tau(   1) = (   0.0000733   0.0000380   1.5684225  )
         2           Cu  tau(   2) = (   0.0000055   0.5773553   0.5784455  )
         3           Te  tau(   3) = (   0.0000569   0.5773979   1.1798292  )
         4           Te  tau(   4) = (   0.4999932   0.2886786   0.4195513  )

   Crystallographic axes

     site n.     atom                  positions (cryst. coord.)
         1           Y   tau(   1) = (  0.0000170  0.0000120  0.9905610  )
         2           Cu  tau(   2) = (  0.3333410  0.6666610  0.3653260  )
         3           Te  tau(   3) = (  0.3333870  0.6666980  0.7451390  )
         4           Te  tau(   4) = (  0.6666550  0.3333290  0.2649740  )

     number of k points=    14
                       cart. coord. in units 2pi/alat
        k(    1) = (   0.0000000   0.0000000   0.0000000), wk =   0.0740741
        k(    2) = (   0.0000000   0.0000000   0.2105217), wk =   0.1481481
        k(    3) = (   0.0000000   0.3849003  -0.0000068), wk =   0.1481481
        k(    4) = (   0.0000000   0.3849003   0.2105149), wk =   0.1481481
        k(    5) = (   0.0000000   0.3849003  -0.2105285), wk =   0.1481481
        k(    6) = (   0.3333333   0.1924663  -0.0000166), wk =   0.1481481
        k(    7) = (   0.3333333   0.1924663   0.2105051), wk =   0.1481481
        k(    8) = (   0.3333333   0.1924663  -0.2105383), wk =   0.1481481
        k(    9) = (   0.3333333   0.5773667  -0.0000234), wk =   0.1481481
        k(   10) = (   0.3333333   0.5773667   0.2104983), wk =   0.1481481
        k(   11) = (   0.3333333   0.5773667  -0.2105451), wk =   0.1481481
        k(   12) = (   0.3333333  -0.1924340  -0.0000099), wk =   0.1481481
        k(   13) = (   0.3333333  -0.1924340   0.2105119), wk =   0.1481481
        k(   14) = (   0.3333333  -0.1924340  -0.2105316), wk =   0.1481481

                       cryst. coord.
        k(    1) = (   0.0000000   0.0000000   0.0000000), wk =   0.0740741
        k(    2) = (   0.0000000   0.0000000   0.3333333), wk =   0.1481481
        k(    3) = (   0.0000000   0.3333333   0.0000000), wk =   0.1481481
        k(    4) = (   0.0000000   0.3333333   0.3333333), wk =   0.1481481
        k(    5) = (   0.0000000   0.3333333  -0.3333333), wk =   0.1481481
        k(    6) = (   0.3333333   0.0000000  -0.0000000), wk =   0.1481481
        k(    7) = (   0.3333333   0.0000000   0.3333333), wk =   0.1481481
        k(    8) = (   0.3333333   0.0000000  -0.3333333), wk =   0.1481481
        k(    9) = (   0.3333333   0.3333333   0.0000000), wk =   0.1481481
        k(   10) = (   0.3333333   0.3333333   0.3333333), wk =   0.1481481
        k(   11) = (   0.3333333   0.3333333  -0.3333333), wk =   0.1481481
        k(   12) = (   0.3333333  -0.3333333  -0.0000000), wk =   0.1481481
        k(   13) = (   0.3333333  -0.3333333   0.3333333), wk =   0.1481481
        k(   14) = (   0.3333333  -0.3333333  -0.3333333), wk =   0.1481481

     Check: negative core charge=   -0.000002

     Initial potential from superposition of free atoms

     starting charge      33.9949, renormalised to      34.0000

     negative rho (up, down):  4.442E-02 0.000E+00
     Starting wfcs are   30 randomized atomic wfcs +   34 random wfcs
     Checking if some PAW data can be deallocated...

     Self-consistent Calculation

     iteration #  1     ecut=    30.00 Ry     beta= 0.70
     Davidson diagonalization with overlap

     ethr =  1.00E-02,  avg # of iterations =  7.5

     Threshold (ethr) on eigenvalues was too large:
     Diagonalizing with lowered threshold

     Davidson diagonalization with overlap

[...]

     negative rho (up, down):  4.459E-02 0.000E+00

     total energy              =    -353.80245649 Ry
     estimated scf accuracy    <       0.06837713 Ry

[...]

     total energy              =    -353.82380068 Ry
     estimated scf accuracy    <       0.00000202 Ry

     iteration #  8     ecut=    30.00 Ry     beta= 0.70
     Davidson diagonalization with overlap

     ethr =  5.94E-09,  avg # of iterations =  2.1

     negative rho (up, down):  4.467E-02 0.000E+00

     End of self-consistent calculation

          k = 0.0000 0.0000 0.0000 (  2117 PWs)   bands (ev):

   -35.7881 -15.8217 -15.7270 -15.7270  -4.5910  -3.0835   2.6402   3.7118
     3.7119   4.5115   4.8271   4.8272   5.8197   5.8198   7.5228   7.5229
     7.5494   8.7699   9.0212   9.0213   9.0456  10.3864  10.3868  11.0605
    12.9808  12.9814  15.0569  16.0163  16.6021  16.6024  16.7131  17.0180
    17.4739  17.4743  18.4443  18.4449  18.6935  21.6427  21.6440  22.2253
    23.3811  24.2998  24.3003  24.4981  24.4985  27.6175  27.8332  27.8336
    28.4594  28.8549  29.1833  30.4983  30.4994  31.4897  31.4908  32.1619
    32.2431  32.7140  32.7147  33.6556  33.7801  33.7808  34.6827  35.3716

     occupation numbers
     1.0000   1.0000   1.0000   1.0000   1.0000   1.0000   1.0000   1.0000
     1.0000   1.0000   1.0000   1.0000   1.0000   1.0000   1.0000   1.0000
     1.0000   0.0000   0.0000   0.0000   0.0000   0.0000   0.0000   0.0000
     0.0000   0.0000   0.0000   0.0000   0.0000   0.0000   0.0000   0.0000
     0.0000   0.0000   0.0000   0.0000   0.0000   0.0000   0.0000   0.0000
     0.0000   0.0000   0.0000   0.0000   0.0000   0.0000   0.0000   0.0000
     0.0000   0.0000   0.0000   0.0000   0.0000   0.0000   0.0000   0.0000
     0.0000   0.0000   0.0000   0.0000   0.0000   0.0000   0.0000   0.0000

[...]

          k = 0.3333-0.1924-0.2105 (  2120 PWs)   bands (ev):

   -35.7854 -15.8069 -15.7875 -15.7403  -4.0340  -2.9880   2.3112   3.6074
     3.8135   4.1683   4.8172   4.8776   5.0246   5.5332   5.5502   6.6257
     6.8332   8.2698   9.5977  10.0369  10.2648  10.7029  10.9612  11.6274
    13.9025  14.7243  15.0356  15.3649  15.9861  16.1498  17.0044  17.9624
    18.2771  18.4761  19.2173  20.7062  21.3661  21.7425  22.2018  22.6161
    22.6423  23.2047  23.4495  24.6495  25.1925  25.7604  26.6509  27.1363
    27.3203  28.1181  28.3759  29.4137  29.4515  29.7596  30.2843  30.4789
    31.0220  31.7914  31.9927  32.6890  32.9772  33.4656  33.5591  34.0948

     occupation numbers
     1.0000   1.0000   1.0000   1.0000   1.0000   1.0000   1.0000   1.0000
     1.0000   1.0000   1.0000   1.0000   1.0000   1.0000   1.0000   1.0000
     1.0000   0.0000   0.0000   0.0000   0.0000   0.0000   0.0000   0.0000
     0.0000   0.0000   0.0000   0.0000   0.0000   0.0000   0.0000   0.0000
     0.0000   0.0000   0.0000   0.0000   0.0000   0.0000   0.0000   0.0000
     0.0000   0.0000   0.0000   0.0000   0.0000   0.0000   0.0000   0.0000
     0.0000   0.0000   0.0000   0.0000   0.0000   0.0000   0.0000   0.0000
     0.0000   0.0000   0.0000   0.0000   0.0000   0.0000   0.0000   0.0000

     highest occupied, lowest unoccupied level (ev):     7.5494    8.2698

!    total energy              =    -353.82380107 Ry
     estimated scf accuracy    <       0.00000010 Ry

     The total energy is the sum of the following terms:
     one-electron contribution =     -97.65417428 Ry
     hartree contribution      =      71.27683404 Ry
     xc contribution           =     -95.60041505 Ry
     ewald contribution        =    -142.03069300 Ry
     one-center paw contrib.   =     -89.81535277 Ry
      -> PAW hartree energy AE =       0.00000000 Ry
      -> PAW hartree energy PS =       0.00000000 Ry
      -> PAW xc energy AE      =       0.00000000 Ry
      -> PAW xc energy PS      =       0.00000000 Ry
      -> total E_H with PAW    =      71.27683404 Ry
      -> total E_XC with PAW   =     -95.60041505 Ry

     convergence has been achieved in   8 iterations

     Writing all to output data dir bands_nm/myprefix.save/

     General routines

     Parallel routines

     PAW routines

   This run was terminated on:   2: 2:19  14Jul2023

   JOB DONE.