     Program PWSCF v.7.1 starts on 14Jul2023 at  1:46:33

     Reading input from espresso_4484.pwi
Warning: card &CELL ignored
Warning: card / ignored

     Current dimensions of program PWSCF are:
     Max number of different atomic species (ntypx) = 10
     Max number of k-points (npk) =  40000
     Max angular momentum in pseudopotentials (lmaxx) =  4
     file Cd.pbe-dn-rrkjus_psl.0.3.1.UPF: wavefunction(s)  4D renormalized
     Message from routine setup:
     using ibrav=0 with symmetry is DISCOURAGED, use correct ibrav instead

     K-points division:     npool     =       2
     R & G space division:  proc/nbgrp/npool/nimage =       4
     Subspace diagonalization in iterative solution of the eigenvalue problem:
     a serial algorithm will be used

     Using Slab Decomposition

     bravais-lattice index     =            0
     lattice parameter (alat)  =      15.1980  a.u.
     unit-cell volume          =    2482.2229 (a.u.)^3
     number of atoms/cell      =           14
     number of atomic types    =            3
     number of electrons       =       116.00
     number of Kohn-Sham states=           64
     kinetic-energy cutoff     =      30.0000  Ry
     charge density cutoff     =     240.0000  Ry
     scf convergence threshold =      1.0E-06
     mixing beta               =       0.7000
     number of iterations used =            8  plain     mixing
     Exchange-correlation= SLA  PW   PBE  PBE
                           (   1   4   3   4   0   0   0)

     celldm(1)=  15.197959  celldm(2)=   0.000000  celldm(3)=   0.000000
     celldm(4)=   0.000000  celldm(5)=   0.000000  celldm(6)=   0.000000

     crystal axes: (cart. coord. in units of alat)
               a(1) = (   1.000000   0.000000   0.000000 )
               a(2) = (   0.500000   0.866025   0.000000 )
               a(3) = (   0.500000   0.288675   0.816497 )

     reciprocal axes: (cart. coord. in units 2 pi/alat)
               b(1) = (  1.000000 -0.577350 -0.408248 )
               b(2) = (  0.000000  1.154701 -0.408248 )
               b(3) = (  0.000000  0.000000  1.224745 )

     PseudoPot. # 1 for Sc read from file:
     /lustre07/scratch/pragov/crystal_structure_design/utils/SSSP/Sc_ONCV_PBE-1.0.oncvpsp.upf
     MD5 check sum: e21af8023abb52e52cb7cd3133e4a229
     Pseudo is Norm-conserving, Zval = 11.0
     Generated using ONCVPSP code by D. R. Hamann
     Using radial grid of 1662 points,  6 beta functions with:
                l(1) =   0
                l(2) =   0
                l(3) =   1
                l(4) =   1
                l(5) =   2
                l(6) =   2

     PseudoPot. # 2 for Cd read from file:
     /lustre07/scratch/pragov/crystal_structure_design/utils/SSSP/Cd.pbe-dn-rrkjus_psl.0.3.1.UPF
     MD5 check sum: 558e9f355611b531a870a69ef6ace9e2
     Pseudo is Ultrasoft + core correction, Zval = 12.0
     Generated using "atomic" code by A. Dal Corso  v.5.0.99 svn rev. 10869
     Using radial grid of 1239 points,  6 beta functions with:
                l(1) =   0
                l(2) =   0
                l(3) =   1
                l(4) =   1
                l(5) =   2
                l(6) =   2
     Q(r) pseudized with 0 coefficients

     PseudoPot. # 3 for Se read from file:
     /lustre07/scratch/pragov/crystal_structure_design/utils/SSSP/Se_pbe_v1.uspp.F.UPF
     MD5 check sum: 1b3568f3a8ae88f9a2a0ad0698632c85
     Pseudo is Ultrasoft + core correction, Zval =  6.0
     Generated by new atomic code, or converted to UPF format
     Using radial grid of  877 points,  6 beta functions with:
                l(1) =   0
                l(2) =   0
                l(3) =   1
                l(4) =   1
                l(5) =   2
                l(6) =   2
     Q(r) pseudized with  8 coefficients,  rinner =    1.300   1.300   1.300
                                                       1.300   1.300

     atomic species   valence    mass     pseudopotential
        Sc            11.00    44.95591     Sc( 1.00)
        Cd            12.00   112.41400     Cd( 1.00)
        Se             6.00    78.97100     Se( 1.00)

     12 Sym. Ops., with inversion, found ( 6 have fractional translation)

                                    s                        frac. trans.

      isym =  1     identity

 cryst.   s( 1) = (     1          0          0      )
                  (     0          1          0      )
                  (     0          0          1      )

 cart.    s( 1) = (  1.0000000  0.0000000  0.0000000 )
                  (  0.0000000  1.0000000 -0.0000000 )
                  (  0.0000000  0.0000000  1.0000000 )

      isym =  2     180 deg rotation - cart. axis [1,0,0]

 cryst.   s( 2) = (     1          0          0      )    f =( -0.2500000 )
                  (     1         -1          0      )       ( -0.2500000 )
                  (     1          0         -1      )       ( -0.2500000 )

 cart.    s( 2) = (  1.0000000  0.0000000  0.0000000 )    f =( -0.5000000 )
                  (  0.0000000 -1.0000000  0.0000000 )       ( -0.2886751 )
                  (  0.0000000  0.0000000 -1.0000000 )       ( -0.2041241 )

      isym =  3     120 deg rotation - cryst. axis [0,0,1]

[...]

      isym =  6     180 deg rotation - cryst. axis [1,1,0]

[...]

      isym =  7     inversion

[...]

      isym =  8     inv. 180 deg rotation - cart. axis [1,0,0]

 cryst.   s( 8) = (    -1          0          0      )
                  (    -1          1          0      )
                  (    -1          0          1      )

 cart.    s( 8) = ( -1.0000000  0.0000000  0.0000000 )
                  (  0.0000000  1.0000000 -0.0000000 )
                  (  0.0000000  0.0000000  1.0000000 )

      isym =  9     inv. 120 deg rotation - cryst. axis [0,0,1]

 cryst.   s( 9) = (     1         -1          0      )    f =( -0.2500000 )
                  (     1          0          0      )       ( -0.2500000 )
                  (     1          0         -1      )       ( -0.2500000 )

 cart.    s( 9) = (  0.5000000  0.8660254 -0.0000000 )    f =( -0.5000000 )
                  ( -0.8660254  0.5000000 -0.0000000 )       ( -0.2886751 )
                  (  0.0000000  0.0000000 -1.0000000 )       ( -0.2041241 )

[...]

 cryst.   s(10) = (     0          1          0      )    f =( -0.2500000 )
                  (    -1          1          0      )       ( -0.2500000 )
                  (     0          1         -1      )       ( -0.2500000 )

 cart.    s(10) = (  0.5000000 -0.8660254  0.0000000 )    f =( -0.5000000 )
                  (  0.8660254  0.5000000 -0.0000000 )       ( -0.2886751 )
                  (  0.0000000  0.0000000 -1.0000000 )       ( -0.2041241 )

[...]

 cryst.   s(11) = (     0          1          0      )
                  (     1          0          0      )
                  (     0          0          1      )

 cart.    s(11) = (  0.5000000  0.8660254 -0.0000000 )
                  (  0.8660254 -0.5000000  0.0000000 )
                  (  0.0000000  0.0000000  1.0000000 )

      isym = 12     inv. 180 deg rotation - cryst. axis [1,1,0]

 cryst.   s(12) = (     1         -1          0      )
                  (     0         -1          0      )
                  (     0         -1          1      )

 cart.    s(12) = (  0.5000000 -0.8660254  0.0000000 )
                  ( -0.8660254 -0.5000000  0.0000000 )
                  (  0.0000000  0.0000000  1.0000000 )

   Cartesian axes

     site n.     atom                  positions (alat units)
         1           Sc  tau(   1) = (   0.7500000   0.7216878   0.5103104  )
         2           Sc  tau(   2) = (   1.0000000   0.2886751   0.5103104  )
         3           Sc  tau(   3) = (   1.0000000   0.5773503   0.1020621  )
         4           Sc  tau(   4) = (   1.2500000   0.7216878   0.5103104  )
         5           Cd  tau(   5) = (   0.5000000   0.2886751   0.2041241  )
         6           Cd  tau(   6) = (   0.0000000   0.0000000   0.0000000  )
         7           Se  tau(   7) = (   1.2293670   0.4449257   0.3146100  )
         8           Se  tau(   8) = (   1.0000005   0.8422002   0.3146100  )
         9           Se  tau(   9) = (   1.0000005   0.5773506   0.6891639  )
        10           Se  tau(  10) = (   0.7706340   0.4449257   0.3146100  )
        11           Se  tau(  11) = (   1.2706330   0.9984499   0.7060107  )
        12           Se  tau(  12) = (   1.4999995   0.6011755   0.7060107  )
        13           Se  tau(  13) = (   1.4999995   0.8660251   0.3314568  )
        14           Se  tau(  14) = (   1.7293660   0.9984499   0.7060107  )

   Crystallographic axes

     site n.     atom                  positions (cryst. coord.)
         1           Sc  tau(   1) = (  0.1250000  0.6250000  0.6250000  )
         2           Sc  tau(   2) = (  0.6250000  0.1250000  0.6250000  )
         3           Sc  tau(   3) = (  0.6250000  0.6250000  0.1250000  )
         4           Sc  tau(   4) = (  0.6250000  0.6250000  0.6250000  )
         5           Cd  tau(   5) = (  0.2500000  0.2500000  0.2500000  )
         6           Cd  tau(   6) = (  0.0000000  0.0000000  0.0000000  )
         7           Se  tau(   7) = (  0.8440500  0.3853170  0.3853170  )
         8           Se  tau(   8) = (  0.3853170  0.8440500  0.3853170  )
         9           Se  tau(   9) = (  0.3853170  0.3853170  0.8440500  )
        10           Se  tau(  10) = (  0.3853170  0.3853170  0.3853170  )
        11           Se  tau(  11) = (  0.4059500  0.8646830  0.8646830  )
        12           Se  tau(  12) = (  0.8646830  0.4059500  0.8646830  )
        13           Se  tau(  13) = (  0.8646830  0.8646830  0.4059500  )
        14           Se  tau(  14) = (  0.8646830  0.8646830  0.8646830  )

     number of k points=     6
                       cart. coord. in units 2pi/alat
        k(    1) = (   0.0000000   0.0000000   0.0000000), wk =   0.0740741
        k(    2) = (   0.0000000   0.0000000   0.4082483), wk =   0.1481481
        k(    3) = (   0.0000000   0.3849002  -0.1360828), wk =   0.4444444
        k(    4) = (   0.0000000   0.3849002   0.2721655), wk =   0.4444444
        k(    5) = (   0.0000000   0.3849002  -0.5443311), wk =   0.4444444
        k(    6) = (   0.3333333  -0.5773503   0.0000000), wk =   0.4444444

                       cryst. coord.
        k(    1) = (   0.0000000   0.0000000   0.0000000), wk =   0.0740741
        k(    2) = (   0.0000000   0.0000000   0.3333333), wk =   0.1481481
        k(    3) = (   0.0000000   0.3333333   0.0000000), wk =   0.4444444
        k(    4) = (   0.0000000   0.3333333   0.3333333), wk =   0.4444444
        k(    5) = (   0.0000000   0.3333333  -0.3333333), wk =   0.4444444
        k(    6) = (   0.3333333  -0.3333333   0.0000000), wk =   0.4444444

     Initial potential from superposition of free atoms

     starting charge     115.9791, renormalised to     116.0000
     Starting wfcs are   90 randomized atomic wfcs

     Self-consistent Calculation

     iteration #  1     ecut=    30.00 Ry     beta= 0.70
     Davidson diagonalization with overlap

     ethr =  1.00E-02,  avg # of iterations =  2.0

     Threshold (ethr) on eigenvalues was too large:
     Diagonalizing with lowered threshold

     Davidson diagonalization with overlap

[...]

     total energy              =    -961.88986762 Ry
     estimated scf accuracy    <       0.60441940 Ry

[...]

     total energy              =    -962.10658821 Ry
     estimated scf accuracy    <       0.00000215 Ry

     iteration # 10     ecut=    30.00 Ry     beta= 0.70
     Davidson diagonalization with overlap

     ethr =  1.85E-09,  avg # of iterations =  5.8

     End of self-consistent calculation

          k = 0.0000 0.0000 0.0000 (  6855 PWs)   bands (ev):

   -43.8987 -43.8963 -43.8961 -43.8933 -22.5159 -22.4775 -22.4774 -22.4760
   -22.4479 -22.4479 -22.4443 -22.4440 -22.4440 -22.4343 -22.4330 -22.4329
    -6.7976  -6.0600  -5.9351  -5.9350  -5.9350  -5.9216  -5.9215  -5.9215
    -1.9315  -1.9315  -1.9315  -1.9104  -1.9104  -1.8935  -1.8935  -1.8934
    -1.8916  -1.8916   0.7642   1.3360   1.9759   1.9760   1.9761   2.9588
     2.9588   3.9651   3.9651   4.1355   4.1355   4.1355   4.3522   4.3524
     4.3525   4.4512   4.4513   4.4513   4.7832   4.7832   4.7832   5.8517
     5.8517   5.8517   6.3400   7.2646   7.2646   7.9529   7.9531   7.9534

     occupation numbers
     1.0000   1.0000   1.0000   1.0000   1.0000   1.0000   1.0000   1.0000
     1.0000   1.0000   1.0000   1.0000   1.0000   1.0000   1.0000   1.0000
     1.0000   1.0000   1.0000   1.0000   1.0000   1.0000   1.0000   1.0000
     1.0000   1.0000   1.0000   1.0000   1.0000   1.0000   1.0000   1.0000
     1.0000   1.0000   1.0000   1.0000   1.0000   1.0000   1.0000   1.0000
     1.0000   1.0000   1.0000   1.0000   1.0000   1.0000   1.0000   1.0000
     1.0000   1.0000   1.0000   1.0000   1.0000   1.0000   1.0000   1.0000
     1.0000   1.0000   0.0000   0.0000   0.0000   0.0000   0.0000   0.0000

[...]

          k = 0.3333-0.5774 0.0000 (  6895 PWs)   bands (ev):

   -43.8976 -43.8972 -43.8962 -43.8935 -22.4989 -22.4884 -22.4718 -22.4708
   -22.4515 -22.4483 -22.4475 -22.4426 -22.4426 -22.4414 -22.4382 -22.4350
    -6.4708  -6.3141  -6.1103  -5.9813  -5.9731  -5.8931  -5.8864  -5.8791
    -2.0033  -1.9724  -1.9383  -1.9237  -1.9197  -1.9089  -1.9046  -1.9022
    -1.8959  -1.8958   1.7855   1.8007   2.4566   2.6834   2.7771   3.0006
     3.0264   3.1662   3.3493   3.4746   3.5286   3.7846   3.8595   4.0038
     4.0438   4.1707   4.2626   4.3938   4.5170   4.7072   4.7812   4.8188
     4.9904   5.3010   7.7130   7.7604   7.8800   8.0533   8.1028   8.1942

     occupation numbers
     1.0000   1.0000   1.0000   1.0000   1.0000   1.0000   1.0000   1.0000
     1.0000   1.0000   1.0000   1.0000   1.0000   1.0000   1.0000   1.0000
     1.0000   1.0000   1.0000   1.0000   1.0000   1.0000   1.0000   1.0000
     1.0000   1.0000   1.0000   1.0000   1.0000   1.0000   1.0000   1.0000
     1.0000   1.0000   1.0000   1.0000   1.0000   1.0000   1.0000   1.0000
     1.0000   1.0000   1.0000   1.0000   1.0000   1.0000   1.0000   1.0000
     1.0000   1.0000   1.0000   1.0000   1.0000   1.0000   1.0000   1.0000
     1.0000   1.0000   0.0000   0.0000   0.0000   0.0000   0.0000   0.0000

     highest occupied, lowest unoccupied level (ev):     5.8517    6.3400

!    total energy              =    -962.10658860 Ry
     estimated scf accuracy    <       0.00000034 Ry

     The total energy is the sum of the following terms:
     one-electron contribution =    -297.85051649 Ry
     hartree contribution      =     197.22670114 Ry
     xc contribution           =    -371.23069034 Ry
     ewald contribution        =    -490.25208292 Ry

     convergence has been achieved in  10 iterations

     Writing all to output data dir bands_nm/myprefix.save/

     General routines

     Parallel routines

   This run was terminated on:   1:46:50  14Jul2023

   JOB DONE.