     Program PWSCF v.7.1 starts on 13Jul2023 at  4:19:20

     Reading input from espresso_2740.pwi
Warning: card &CELL ignored
Warning: card / ignored

     Current dimensions of program PWSCF are:
     Max number of different atomic species (ntypx) = 10
     Max number of k-points (npk) =  40000
     Max angular momentum in pseudopotentials (lmaxx) =  4
     file O.pbe-n-kjpaw_psl.0.1.UPF: wavefunction(s)  2P renormalized

     K-points division:     npool     =       2
     R & G space division:  proc/nbgrp/npool/nimage =       8
     Subspace diagonalization in iterative solution of the eigenvalue problem:
     a serial algorithm will be used

     Using Slab Decomposition

     bravais-lattice index     =            0
     lattice parameter (alat)  =      10.2682  a.u.
     unit-cell volume          =    1287.8871 (a.u.)^3
     number of atoms/cell      =           16
     number of atomic types    =            4
     number of electrons       =        86.00
     number of Kohn-Sham states=           64
     kinetic-energy cutoff     =      30.0000  Ry
     charge density cutoff     =     240.0000  Ry
     scf convergence threshold =      1.0E-06
     mixing beta               =       0.7000
     number of iterations used =            8  plain     mixing
     Exchange-correlation= SLA  PW   PBX  PBC
                           (   1   4   3   4   0   0   0)

     celldm(1)=  10.268168  celldm(2)=   0.000000  celldm(3)=   0.000000
     celldm(4)=   0.000000  celldm(5)=   0.000000  celldm(6)=   0.000000

     crystal axes: (cart. coord. in units of alat)
               a(1) = (   1.000000   0.000000   0.000000 )
               a(2) = (  -0.046770   0.998906   0.000000 )
               a(3) = (   0.013547   0.014196   1.190898 )

     reciprocal axes: (cart. coord. in units 2 pi/alat)
               b(1) = (  1.000000  0.046821 -0.011933 )
               b(2) = (  0.000000  1.001096 -0.011933 )
               b(3) = (  0.000000  0.000000  0.839703 )

     PseudoPot. # 1 for Li read from file:
     /lustre07/scratch/pragov/crystal_structure_design/utils/SSSP/li_pbe_v1.4.uspp.F.UPF
     MD5 check sum: e912e257baa3777c20ea3d68f190483c
     Pseudo is Ultrasoft, Zval =  3.0
     Generated by new atomic code, or converted to UPF format
     Using radial grid of  751 points,  5 beta functions with:
                l(1) =   0
                l(2) =   0
                l(3) =   0
                l(4) =   1
                l(5) =   1
     Q(r) pseudized with 10 coefficients,  rinner =    1.150   1.150   1.150

     PseudoPot. # 2 for Si read from file:
     /lustre07/scratch/pragov/crystal_structure_design/utils/SSSP/Si.pbe-n-rrkjus_psl.1.0.0.UPF
     MD5 check sum: 0b0bb1205258b0d07b9f9672cf965d36
     Pseudo is Ultrasoft + core correction, Zval =  4.0
     Generated using "atomic" code by A. Dal Corso  v.5.1
     Using radial grid of 1141 points,  6 beta functions with:
                l(1) =   0
                l(2) =   0
                l(3) =   1
                l(4) =   1
                l(5) =   2
                l(6) =   2
     Q(r) pseudized with 0 coefficients

     PseudoPot. # 3 for Bi read from file:
     /lustre07/scratch/pragov/crystal_structure_design/utils/SSSP/Bi_pbe_v1.uspp.F.UPF
     MD5 check sum: cceb9f28ec65b6d7ff33140f5b0b1758
     Pseudo is Ultrasoft + core correction, Zval = 15.0
     Generated by new atomic code, or converted to UPF format
     Using radial grid of  899 points,  6 beta functions with:
                l(1) =   0
                l(2) =   0
                l(3) =   1
                l(4) =   1
                l(5) =   2
                l(6) =   2
     Q(r) pseudized with  6 coefficients,  rinner =    1.000   1.000   1.000
                                                       1.000   1.000

     PseudoPot. # 4 for O  read from file:
     /lustre07/scratch/pragov/crystal_structure_design/utils/SSSP/O.pbe-n-kjpaw_psl.0.1.UPF
     MD5 check sum: 0234752ac141de4415c5fc33072bef88
     Pseudo is Projector augmented-wave + core cor, Zval =  6.0
     Generated using "atomic" code by A. Dal Corso  v.5.0.99 svn rev. 10869
     Shape of augmentation charge: BESSEL
     Using radial grid of 1095 points,  4 beta functions with:
                l(1) =   0
                l(2) =   0
                l(3) =   1
                l(4) =   1
     Q(r) pseudized with 0 coefficients

     atomic species   valence    mass     pseudopotential
        Li             3.00     6.94000     Li( 1.00)
        Si             4.00    28.08500     Si( 1.00)
        Bi            15.00   208.98040     Bi( 1.00)
        O              6.00    15.99900     O ( 1.00)

     No symmetry found

                                    s                        frac. trans.

      isym =  1     identity

 cryst.   s( 1) = (     1          0          0      )
                  (     0          1          0      )
                  (     0          0          1      )

 cart.    s( 1) = (  1.0000000  0.0000000  0.0000000 )
                  (  0.0000000  1.0000000  0.0000000 )
                  (  0.0000000  0.0000000  1.0000000 )

   Cartesian axes

     site n.     atom                  positions (alat units)
         1           Li  tau(   1) = (   0.7825512   0.8366076   0.3331107  )
         2           Li  tau(   2) = (   0.3008799   0.6807139   0.5954488  )
         3           Li  tau(   3) = (   0.6679151   0.3304616   0.5954488  )
         4           Li  tau(   4) = (   0.6971956   0.2889584   0.0000000  )
         5           Li  tau(   5) = (   0.1676845   0.1922786   0.8577869  )
         6           Si  tau(   6) = (   0.7917569   0.8463110   0.8754622  )
         7           Si  tau(   7) = (   0.1584223   0.1826291   0.3154354  )
         8           Bi  tau(   8) = (   0.2861825   0.6811778   0.0000000  )
         9           O   tau(   9) = (   0.6565007   0.7071967   0.6473005  )
        10           O   tau(  10) = (   0.7189818   0.7096101   1.1485088  )
        11           O   tau(  11) = (   0.8603176   0.2128441   0.3018640  )
        12           O   tau(  12) = (   0.1554669   0.8752251   0.3353544  )
        13           O   tau(  13) = (   0.7944026   0.1437706   0.8890336  )
        14           O   tau(  14) = (   0.0997807   0.8168706   0.8555432  )
        15           O   tau(  15) = (   0.2910585   0.3242437   0.5435971  )
        16           O   tau(  16) = (   0.2915699   0.2617181   0.0423888  )

   Crystallographic axes

     site n.     atom                  positions (cryst. coord.)
         1           Li  tau(   1) = (  0.8177470  0.8335490  0.2797140  )
         2           Li  tau(   2) = (  0.3256460  0.6743540  0.5000000  )
         3           Li  tau(   3) = (  0.6762820  0.3237180  0.5000000  )
         4           Li  tau(   4) = (  0.7107250  0.2892750  0.0000000  )
         5           Li  tau(   5) = (  0.1664510  0.1822530  0.7202860  )
         6           Si  tau(   6) = (  0.8209350  0.8367910  0.7351280  )
         7           Si  tau(   7) = (  0.1632090  0.1790650  0.2648720  )
         8           Bi  tau(   8) = (  0.3180760  0.6819240  0.0000000  )
         9           O   tau(   9) = (  0.6818880  0.7002470  0.5435400  )
        10           O   tau(  10) = (  0.7385010  0.6966820  0.9644060  )
        11           O   tau(  11) = (  0.8666810  0.2094750  0.2534760  )
        12           O   tau(  12) = (  0.1924440  0.8721820  0.2815980  )
        13           O   tau(  13) = (  0.7905250  0.1333190  0.7465240  )
        14           O   tau(  14) = (  0.1278180  0.8075560  0.7184020  )
        15           O   tau(  15) = (  0.2997530  0.3181120  0.4564600  )
        16           O   tau(  16) = (  0.3033180  0.2614990  0.0355940  )

     number of k points=    14
                       cart. coord. in units 2pi/alat
        k(    1) = (   0.0000000   0.0000000   0.0000000), wk =   0.0740741
        k(    2) = (   0.0000000   0.0000000   0.2799009), wk =   0.1481481
        k(    3) = (   0.0000000   0.3336985  -0.0039778), wk =   0.1481481
        k(    4) = (   0.0000000   0.3336985   0.2759232), wk =   0.1481481
        k(    5) = (   0.0000000   0.3336985  -0.2838787), wk =   0.1481481
        k(    6) = (   0.3333333   0.0156070  -0.0039778), wk =   0.1481481
        k(    7) = (   0.3333333   0.0156070   0.2759232), wk =   0.1481481
        k(    8) = (   0.3333333   0.0156070  -0.2838787), wk =   0.1481481
        k(    9) = (   0.3333333   0.3493055  -0.0079555), wk =   0.1481481
        k(   10) = (   0.3333333   0.3493055   0.2719454), wk =   0.1481481
        k(   11) = (   0.3333333   0.3493055  -0.2878564), wk =   0.1481481
        k(   12) = (   0.3333333  -0.3180915  -0.0000000), wk =   0.1481481
        k(   13) = (   0.3333333  -0.3180915   0.2799009), wk =   0.1481481
        k(   14) = (   0.3333333  -0.3180915  -0.2799009), wk =   0.1481481

                       cryst. coord.
        k(    1) = (   0.0000000   0.0000000   0.0000000), wk =   0.0740741
        k(    2) = (   0.0000000   0.0000000   0.3333333), wk =   0.1481481
        k(    3) = (   0.0000000   0.3333333   0.0000000), wk =   0.1481481
        k(    4) = (   0.0000000   0.3333333   0.3333333), wk =   0.1481481
        k(    5) = (   0.0000000   0.3333333  -0.3333333), wk =   0.1481481
        k(    6) = (   0.3333333   0.0000000   0.0000000), wk =   0.1481481
        k(    7) = (   0.3333333   0.0000000   0.3333333), wk =   0.1481481
        k(    8) = (   0.3333333   0.0000000  -0.3333333), wk =   0.1481481
        k(    9) = (   0.3333333   0.3333333   0.0000000), wk =   0.1481481
        k(   10) = (   0.3333333   0.3333333   0.3333333), wk =   0.1481481
        k(   11) = (   0.3333333   0.3333333  -0.3333333), wk =   0.1481481
        k(   12) = (   0.3333333  -0.3333333   0.0000000), wk =   0.1481481
        k(   13) = (   0.3333333  -0.3333333   0.3333333), wk =   0.1481481
        k(   14) = (   0.3333333  -0.3333333  -0.3333333), wk =   0.1481481

     Check: negative core charge=   -0.000011

     Initial potential from superposition of free atoms

     starting charge      82.7451, renormalised to      86.0000

     negative rho (up, down):  4.444E-02 0.000E+00
     Starting wfcs are   74 randomized atomic wfcs
     Checking if some PAW data can be deallocated...

     Self-consistent Calculation

     iteration #  1     ecut=    30.00 Ry     beta= 0.70
     Davidson diagonalization with overlap

     ethr =  1.00E-02,  avg # of iterations =  4.0

     negative rho (up, down):  3.945E-02 0.000E+00

     total energy              =    -613.96604192 Ry
     estimated scf accuracy    <       1.82985499 Ry

[...]

     c_bands:  1 eigenvalues not converged
     ethr =  4.77E-06,  avg # of iterations =  8.8

[...]

     total energy              =    -614.76393462 Ry
     estimated scf accuracy    <       0.00000205 Ry

     iteration #  9     ecut=    30.00 Ry     beta= 0.70
     Davidson diagonalization with overlap

     ethr =  2.38E-09,  avg # of iterations =  5.0

     negative rho (up, down):  4.197E-02 0.000E+00

     End of self-consistent calculation

          k = 0.0000 0.0000 0.0000 (  3545 PWs)   bands (ev):

   -39.1289 -39.1284 -38.7154 -38.2996 -38.2288 -18.2952 -18.2749 -18.2657
   -18.2196 -18.1590 -14.5771 -14.0479 -13.2147 -13.1091 -12.7779 -12.5869
   -12.3613 -12.2948  -5.6059  -1.6853  -1.4766  -0.8128  -0.7425  -0.4794
     0.2843   0.5779   0.6213   1.0872   1.1894   1.6757   1.9265   2.0285
     2.2434   2.3078   2.5132   2.7264   2.8777   3.0592   3.1469   3.3744
     3.5316   3.6477   3.7720   8.2068   8.5660   9.1439   9.6530  12.0432
    12.4269  12.5184  12.6726  13.1111  13.5381  13.6290  13.9939  14.4060
    14.7873  15.1061  15.3405  15.5155  15.6564  15.7067  16.1128  17.2512

     occupation numbers
     1.0000   1.0000   1.0000   1.0000   1.0000   1.0000   1.0000   1.0000
     1.0000   1.0000   1.0000   1.0000   1.0000   1.0000   1.0000   1.0000
     1.0000   1.0000   1.0000   1.0000   1.0000   1.0000   1.0000   1.0000
     1.0000   1.0000   1.0000   1.0000   1.0000   1.0000   1.0000   1.0000
     1.0000   1.0000   1.0000   1.0000   1.0000   1.0000   1.0000   1.0000
     1.0000   1.0000   1.0000   0.0000   0.0000   0.0000   0.0000   0.0000
     0.0000   0.0000   0.0000   0.0000   0.0000   0.0000   0.0000   0.0000
     0.0000   0.0000   0.0000   0.0000   0.0000   0.0000   0.0000   0.0000

[...]

          k = 0.3333-0.3181-0.2799 (  3579 PWs)   bands (ev):

   -39.1292 -39.1288 -38.7157 -38.2999 -38.2293 -18.2967 -18.2717 -18.2553
   -18.2196 -18.1578 -14.2939 -14.1154 -13.4510 -13.2035 -12.7025 -12.6420
   -12.3730 -12.3216  -5.7169  -1.8673  -1.7118  -0.3495   0.0794   0.2302
     0.4283   0.6061   0.6540   0.9530   1.3517   1.5763   1.6729   1.8783
     1.9789   2.2035   2.3404   2.6401   2.7216   2.8917   3.2894   3.4107
     3.5515   3.6153   4.0211   7.2635   8.0759   8.5004  11.0152  11.4119
    11.8000  12.3601  12.4891  13.1512  13.5022  13.6832  14.2315  14.3899
    14.7277  14.9642  15.3009  15.4595  15.9322  16.1563  16.5579  16.7854

     occupation numbers
     1.0000   1.0000   1.0000   1.0000   1.0000   1.0000   1.0000   1.0000
     1.0000   1.0000   1.0000   1.0000   1.0000   1.0000   1.0000   1.0000
     1.0000   1.0000   1.0000   1.0000   1.0000   1.0000   1.0000   1.0000
     1.0000   1.0000   1.0000   1.0000   1.0000   1.0000   1.0000   1.0000
     1.0000   1.0000   1.0000   1.0000   1.0000   1.0000   1.0000   1.0000
     1.0000   1.0000   1.0000   0.0000   0.0000   0.0000   0.0000   0.0000
     0.0000   0.0000   0.0000   0.0000   0.0000   0.0000   0.0000   0.0000
     0.0000   0.0000   0.0000   0.0000   0.0000   0.0000   0.0000   0.0000

     highest occupied, lowest unoccupied level (ev):     4.0542    7.2293

!    total energy              =    -614.76393594 Ry
     estimated scf accuracy    <       0.00000019 Ry

     The total energy is the sum of the following terms:
     one-electron contribution =    -210.79725061 Ry
     hartree contribution      =     144.92654439 Ry
     xc contribution           =    -154.68586802 Ry
     ewald contribution        =    -318.06490845 Ry
     one-center paw contrib.   =     -76.14245326 Ry
      -> PAW hartree energy AE =       0.00000000 Ry
      -> PAW hartree energy PS =       0.00000000 Ry
      -> PAW xc energy AE      =       0.00000000 Ry
      -> PAW xc energy PS      =       0.00000000 Ry
      -> total E_H with PAW    =     144.92654439 Ry
      -> total E_XC with PAW   =    -154.68586802 Ry

     convergence has been achieved in   9 iterations

     Writing all to output data dir bands_nm/myprefix.save/

     General routines

     Parallel routines

     PAW routines

   This run was terminated on:   4:19:35  13Jul2023

   JOB DONE.