     Program PWSCF v.7.1 starts on 15Jul2023 at 20:58: 1

     Reading input from espresso_22768.pwi
Warning: card &CELL ignored
Warning: card / ignored

     Current dimensions of program PWSCF are:
     Max number of different atomic species (ntypx) = 10
     Max number of k-points (npk) =  40000
     Max angular momentum in pseudopotentials (lmaxx) =  4
     Message from routine setup:
     using ibrav=0 with symmetry is DISCOURAGED, use correct ibrav instead

     K-points division:     npool     =       2
     R & G space division:  proc/nbgrp/npool/nimage =       4
     Subspace diagonalization in iterative solution of the eigenvalue problem:
     one sub-group per band group will be used

     Using Slab Decomposition

     bravais-lattice index     =            0
     lattice parameter (alat)  =      12.1871  a.u.
     unit-cell volume          =    1333.9318 (a.u.)^3
     number of atoms/cell      =           16
     number of atomic types    =            3
     number of electrons       =       176.00
     number of Kohn-Sham states=          256
     kinetic-energy cutoff     =      30.0000  Ry
     charge density cutoff     =     240.0000  Ry
     scf convergence threshold =      1.0E-06
     mixing beta               =       0.7000
     number of iterations used =            8  plain     mixing
     Exchange-correlation= PBE
                           (   1   4   3   4   0   0   0)

     celldm(1)=  12.187127  celldm(2)=   0.000000  celldm(3)=   0.000000
     celldm(4)=   0.000000  celldm(5)=   0.000000  celldm(6)=   0.000000

     crystal axes: (cart. coord. in units of alat)
               a(1) = (   1.000000   0.000000   0.000000 )
               a(2) = (   0.000000   0.856563   0.000000 )
               a(3) = (   0.000000   0.019562   0.860341 )

     reciprocal axes: (cart. coord. in units 2 pi/alat)
               b(1) = (  1.000000  0.000000  0.000000 )
               b(2) = (  0.000000  1.167457 -0.026545 )
               b(3) = (  0.000000  0.000000  1.162330 )

     PseudoPot. # 1 for Zn read from file:
     /lustre07/scratch/pragov/crystal_structure_design/utils/SSSP/Zn_pbe_v1.uspp.F.UPF
     MD5 check sum: df62231357ef9e81f77b2b3087fa5675
     Pseudo is Ultrasoft, Zval = 20.0
     Generated by new atomic code, or converted to UPF format
     Using radial grid of  943 points,  6 beta functions with:
                l(1) =   0
                l(2) =   0
                l(3) =   1
                l(4) =   1
                l(5) =   2
                l(6) =   2
     Q(r) pseudized with  8 coefficients,  rinner =    1.100   1.100   1.100
                                                       1.100   1.100

     PseudoPot. # 2 for Ge read from file:
     /lustre07/scratch/pragov/crystal_structure_design/utils/SSSP/ge_pbe_v1.4.uspp.F.UPF
     MD5 check sum: 9c9eaa91e581c3f09632fb3098b2c6b2
     Pseudo is Ultrasoft + core correction, Zval = 14.0
     Generated by new atomic code, or converted to UPF format
     Using radial grid of  873 points,  6 beta functions with:
                l(1) =   0
                l(2) =   0
                l(3) =   1
                l(4) =   1
                l(5) =   2
                l(6) =   2
     Q(r) pseudized with  8 coefficients,  rinner =    1.400   1.400   1.400
                                                       1.400   1.400

     PseudoPot. # 3 for N  read from file:
     /lustre07/scratch/pragov/crystal_structure_design/utils/SSSP/N.pbe-n-radius_5.UPF
     MD5 check sum: 16739722b17309cd8fe442a2ace49922
     Pseudo is Ultrasoft + core correction, Zval =  5.0
     Generated using "atomic" code by A. Dal Corso  v.5.1
     Using radial grid of 1085 points,  4 beta functions with:
                l(1) =   0
                l(2) =   0
                l(3) =   1
                l(4) =   1
     Q(r) pseudized with 0 coefficients

     atomic species   valence    mass     pseudopotential
        Zn            20.00    65.38000     Zn( 1.00)
        Ge            14.00    72.63000     Ge( 1.00)
        N              5.00    14.00700     N ( 1.00)

      4 Sym. Ops., with inversion, found ( 2 have fractional translation)

                                    s                        frac. trans.

      isym =  1     identity

 cryst.   s( 1) = (     1          0          0      )
                  (     0          1          0      )
                  (     0          0          1      )

 cart.    s( 1) = (  1.0000000  0.0000000  0.0000000 )
                  (  0.0000000  1.0000000  0.0000000 )
                  (  0.0000000  0.0000000  1.0000000 )

      isym =  2     180 deg rotation - cart. axis [1,0,0]

 cryst.   s( 2) = (     1          0          0      )    f =( -0.5000000 )
                  (     0         -1          0      )       (  0.5000000 )
                  (     0          0         -1      )       ( -0.0000000 )

 cart.    s( 2) = (  1.0000000  0.0000000  0.0000000 )    f =( -0.5000000 )
                  (  0.0000000 -1.0000000  0.0000000 )       (  0.4282814 )
                  (  0.0000000  0.0000000 -1.0000000 )       ( -0.0000000 )

      isym =  3     inversion

 cryst.   s( 3) = (    -1          0          0      )
                  (     0         -1          0      )
                  (     0          0         -1      )

 cart.    s( 3) = ( -1.0000000  0.0000000  0.0000000 )
                  (  0.0000000 -1.0000000  0.0000000 )
                  (  0.0000000  0.0000000 -1.0000000 )

      isym =  4     inv. 180 deg rotation - cart. axis [1,0,0]

 cryst.   s( 4) = (    -1          0          0      )    f =( -0.5000000 )
                  (     0          1          0      )       ( -0.5000000 )
                  (     0          0          1      )       (  0.0000000 )

 cart.    s( 4) = ( -1.0000000  0.0000000  0.0000000 )    f =( -0.5000000 )
                  (  0.0000000  1.0000000  0.0000000 )       ( -0.4282814 )
                  (  0.0000000  0.0000000  1.0000000 )       (  0.0000000 )

   Cartesian axes

     site n.     atom                  positions (alat units)
         1           Zn  tau(   1) = (   0.1327890   0.3539920   0.2788200  )
         2           Zn  tau(   2) = (   0.6327890   0.0938515   0.5815205  )
         3           Zn  tau(   3) = (   0.8672110   0.5221329   0.5815205  )
         4           Zn  tau(   4) = (   0.3672110   0.7822734   0.2788200  )
         5           Ge  tau(   5) = (   0.6373100   0.3593513   0.1440984  )
         6           Ge  tau(   6) = (   0.1373100   0.0884922   0.7162421  )
         7           Ge  tau(   7) = (   0.3626900   0.5167736   0.7162421  )
         8           Ge  tau(   8) = (   0.8626900   0.7876327   0.1440984  )
         9           N   tau(   9) = (   0.1218110   0.0689630   0.1531862  )
        10           N   tau(  10) = (   0.6218110   0.3788805   0.7071543  )
        11           N   tau(  11) = (   0.8781890   0.8071619   0.7071543  )
        12           N   tau(  12) = (   0.3781890   0.4972444   0.1531862  )
        13           N   tau(  13) = (   0.6471430   0.0923547   0.2558696  )
        14           N   tau(  14) = (   0.1471430   0.3554888   0.6044709  )
        15           N   tau(  15) = (   0.3528570   0.7837702   0.6044709  )
        16           N   tau(  16) = (   0.8528570   0.5206361   0.2558696  )

   Crystallographic axes

     site n.     atom                  positions (cryst. coord.)
         1           Zn  tau(   1) = (  0.1327890  0.4058690  0.3240810  )
         2           Zn  tau(   2) = (  0.6327890  0.0941310  0.6759190  )
         3           Zn  tau(   3) = (  0.8672110  0.5941310  0.6759190  )
         4           Zn  tau(   4) = (  0.3672110  0.9058690  0.3240810  )
         5           Ge  tau(   5) = (  0.6373100  0.4157020  0.1674900  )
         6           Ge  tau(   6) = (  0.1373100  0.0842980  0.8325100  )
         7           Ge  tau(   7) = (  0.3626900  0.5842980  0.8325100  )
         8           Ge  tau(   8) = (  0.8626900  0.9157020  0.1674900  )
         9           N   tau(   9) = (  0.1218110  0.0764450  0.1780530  )
        10           N   tau(  10) = (  0.6218110  0.4235550  0.8219470  )
        11           N   tau(  11) = (  0.8781890  0.9235550  0.8219470  )
        12           N   tau(  12) = (  0.3781890  0.5764450  0.1780530  )
        13           N   tau(  13) = (  0.6471430  0.1010280  0.2974050  )
        14           N   tau(  14) = (  0.1471430  0.3989720  0.7025950  )
        15           N   tau(  15) = (  0.3528570  0.8989720  0.7025950  )
        16           N   tau(  16) = (  0.8528570  0.6010280  0.2974050  )

     number of k points=    10
                       cart. coord. in units 2pi/alat
        k(    1) = (   0.0000000   0.0000000   0.0000000), wk =   0.0740741
        k(    2) = (   0.0000000   0.0000000   0.3874435), wk =   0.1481481
        k(    3) = (   0.0000000   0.3891522  -0.0088484), wk =   0.1481481
        k(    4) = (   0.0000000   0.3891522   0.3785951), wk =   0.1481481
        k(    5) = (   0.0000000   0.3891522  -0.3962919), wk =   0.1481481
        k(    6) = (   0.3333333   0.0000000   0.0000000), wk =   0.1481481
        k(    7) = (   0.3333333   0.0000000   0.3874435), wk =   0.2962963
        k(    8) = (   0.3333333   0.3891522  -0.0088484), wk =   0.2962963
        k(    9) = (   0.3333333   0.3891522   0.3785951), wk =   0.2962963
        k(   10) = (   0.3333333   0.3891522  -0.3962919), wk =   0.2962963

                       cryst. coord.
        k(    1) = (   0.0000000   0.0000000   0.0000000), wk =   0.0740741
        k(    2) = (   0.0000000   0.0000000   0.3333333), wk =   0.1481481
        k(    3) = (   0.0000000   0.3333333   0.0000000), wk =   0.1481481
        k(    4) = (   0.0000000   0.3333333   0.3333333), wk =   0.1481481
        k(    5) = (   0.0000000   0.3333333  -0.3333333), wk =   0.1481481
        k(    6) = (   0.3333333   0.0000000   0.0000000), wk =   0.1481481
        k(    7) = (   0.3333333   0.0000000   0.3333333), wk =   0.2962963
        k(    8) = (   0.3333333   0.3333333   0.0000000), wk =   0.2962963
        k(    9) = (   0.3333333   0.3333333   0.3333333), wk =   0.2962963
        k(   10) = (   0.3333333   0.3333333  -0.3333333), wk =   0.2962963

     Check: negative core charge=   -0.000003

     Initial potential from superposition of free atoms

     starting charge     175.9959, renormalised to     176.0000
     Starting wfcs are  120 randomized atomic wfcs +  136 random wfcs

     Self-consistent Calculation

     iteration #  1     ecut=    30.00 Ry     beta= 0.70
     Davidson diagonalization with overlap

     ethr =  1.00E-02,  avg # of iterations =  6.0

     total energy              =   -2860.22383638 Ry
     estimated scf accuracy    <       3.99647280 Ry

[...]

     total energy              =   -2862.09026808 Ry
     estimated scf accuracy    <       0.00001205 Ry

     iteration #  8     ecut=    30.00 Ry     beta= 0.70
     Davidson diagonalization with overlap

     ethr =  6.85E-09,  avg # of iterations =  1.0

     End of self-consistent calculation

          k = 0.0000 0.0000 0.0000 (  3669 PWs)   bands (ev):

  -114.7925-114.7915-114.7907-114.7884 -68.9294 -68.9222 -68.9200 -68.9187
   -68.9069 -68.9053 -68.9048 -68.8970 -68.8964 -68.8950 -68.8919 -68.8854
   -14.7939 -14.7898 -14.7750 -14.7488 -14.7460 -14.7289 -14.7147 -14.7041
   -14.6955 -14.6920 -14.6801 -14.6737 -14.6621 -14.6547 -14.6393 -14.6312
   -14.6272 -14.6212 -14.5672 -14.5670  -7.1692  -5.7930  -5.6533  -4.4420
    -4.3570  -4.1643  -4.1541  -3.7311   0.7202   1.8724   2.0418   2.6469
     3.1090   3.5629   3.6613   3.6692   3.6828   3.8855   3.9281   3.9479
     3.9556   3.9889   4.0771   4.0818   4.1112   4.1418   4.1697   4.2205
     4.2409   4.3502   4.4732   4.5728   4.9338   4.9517   5.0632   5.0897
     5.6805   5.8895   6.1686   6.3817   6.5005   6.5553   6.9430   7.2529
     7.5257   8.3951   8.4447   8.5629   8.9957   9.0717   9.2621   9.3202
    10.8113  13.4369  14.3756  14.5928  14.9042  14.9560  14.9995  15.4778
    15.7529  16.0165  16.4981  17.0689  17.1207  17.1823  17.2617  17.7820
    18.0440  18.1159  18.3905  18.6462  18.8641  19.0441  19.1371  19.4346
    19.9098  20.2268  20.6972  20.9724  21.1357  21.7096  22.0998  22.7551
    22.8738  23.3084  23.6760  23.6886  23.8104  24.4638  24.4740  25.3351
    25.8784  26.2462  26.2947  26.3135  26.3160  27.1888  27.2854  27.8961
    28.0285  28.0922  29.2965  29.3705  29.5430  29.9114  30.1892  30.4417
    30.6560  30.6776  30.7225  30.9642  31.5420  31.6023  31.9494  32.0452
    32.1810  32.2391  32.8231  33.1642  33.3367  33.8574  34.4063  34.7932
    34.8215  35.2264  35.2982  35.3509  35.4713  35.9263  36.0330  36.0981
    36.1735  36.4495  36.8045  37.5583  37.6914  37.6974  38.3569  38.5854
    38.7785  38.9024  39.1163  39.3363  39.5631  39.9581  40.2633  40.2670
    40.4488  40.9181  40.9456  40.9644  41.5757  41.5999  42.0496  42.2570
    42.2982  42.8765  42.9007  43.0166  43.0276  43.4587  43.8508  43.8786
    44.1723  44.6402  44.6460  44.8593  44.8697  45.1328  45.1363  45.1365
    45.5228  45.7376  46.0622  46.1734  46.4172  46.7827  46.8068  46.8538
    46.9226  47.4394  48.0185  48.0354  48.0801  48.3683  48.4024  48.6006
    49.6349  49.9815  50.0973  50.2853  50.5136  50.5236  51.0588  51.4223
    51.4653  51.5291  51.6199  51.6904  51.9198  52.1969  52.4867  52.4936
    52.5532  52.5967  52.9222  52.9339  53.1822  53.4938  53.6354  53.8278
    53.8592  54.5471  54.5483  54.5777  54.6256  55.0038  55.2452  55.3239

     occupation numbers
     1.0000   1.0000   1.0000   1.0000   1.0000   1.0000   1.0000   1.0000
     1.0000   1.0000   1.0000   1.0000   1.0000   1.0000   1.0000   1.0000
     1.0000   1.0000   1.0000   1.0000   1.0000   1.0000   1.0000   1.0000
     1.0000   1.0000   1.0000   1.0000   1.0000   1.0000   1.0000   1.0000
     1.0000   1.0000   1.0000   1.0000   1.0000   1.0000   1.0000   1.0000
     1.0000   1.0000   1.0000   1.0000   1.0000   1.0000   1.0000   1.0000
     1.0000   1.0000   1.0000   1.0000   1.0000   1.0000   1.0000   1.0000
     1.0000   1.0000   1.0000   1.0000   1.0000   1.0000   1.0000   1.0000
     1.0000   1.0000   1.0000   1.0000   1.0000   1.0000   1.0000   1.0000
     1.0000   1.0000   1.0000   1.0000   1.0000   1.0000   1.0000   1.0000
     1.0000   1.0000   1.0000   1.0000   1.0000   1.0000   1.0000   1.0000
     0.0000   0.0000   0.0000   0.0000   0.0000   0.0000   0.0000   0.0000
     0.0000   0.0000   0.0000   0.0000   0.0000   0.0000   0.0000   0.0000
     0.0000   0.0000   0.0000   0.0000   0.0000   0.0000   0.0000   0.0000
     0.0000   0.0000   0.0000   0.0000   0.0000   0.0000   0.0000   0.0000
     0.0000   0.0000   0.0000   0.0000   0.0000   0.0000   0.0000   0.0000
     0.0000   0.0000   0.0000   0.0000   0.0000   0.0000   0.0000   0.0000
     0.0000   0.0000   0.0000   0.0000   0.0000   0.0000   0.0000   0.0000
     0.0000   0.0000   0.0000   0.0000   0.0000   0.0000   0.0000   0.0000
     0.0000   0.0000   0.0000   0.0000   0.0000   0.0000   0.0000   0.0000
     0.0000   0.0000   0.0000   0.0000   0.0000   0.0000   0.0000   0.0000
     0.0000   0.0000   0.0000   0.0000   0.0000   0.0000   0.0000   0.0000
     0.0000   0.0000   0.0000   0.0000   0.0000   0.0000   0.0000   0.0000
     0.0000   0.0000   0.0000   0.0000   0.0000   0.0000   0.0000   0.0000
     0.0000   0.0000   0.0000   0.0000   0.0000   0.0000   0.0000   0.0000
     0.0000   0.0000   0.0000   0.0000   0.0000   0.0000   0.0000   0.0000
     0.0000   0.0000   0.0000   0.0000   0.0000   0.0000   0.0000   0.0000
     0.0000   0.0000   0.0000   0.0000   0.0000   0.0000   0.0000   0.0000
     0.0000   0.0000   0.0000   0.0000   0.0000   0.0000   0.0000   0.0000
     0.0000   0.0000   0.0000   0.0000   0.0000   0.0000   0.0000   0.0000
     0.0000   0.0000   0.0000   0.0000   0.0000   0.0000   0.0000   0.0000
     0.0000   0.0000   0.0000   0.0000   0.0000   0.0000   0.0000   0.0000

[...]

          k = 0.3333 0.3892-0.3963 (  3693 PWs)   bands (ev):

  -114.7921-114.7917-114.7916-114.7912 -68.9246 -68.9225 -68.9220 -68.9200
   -68.9077 -68.9065 -68.9054 -68.9040 -68.9002 -68.8997 -68.8990 -68.8971
   -14.7952 -14.7928 -14.7679 -14.7589 -14.7528 -14.7463 -14.7108 -14.7089
   -14.6877 -14.6850 -14.6783 -14.6724 -14.6631 -14.6605 -14.6357 -14.6318
   -14.6279 -14.6256 -14.5674 -14.5661  -6.5545  -6.2526  -5.3581  -4.9202
    -4.5347  -4.4321  -4.0453  -3.9352   1.3850   1.6502   2.2283   2.4143
     3.1969   3.3805   3.5484   3.6066   3.6913   3.7204   3.8756   3.9125
     3.9555   3.9984   4.0739   4.0964   4.1435   4.2079   4.2380   4.3226
     4.3965   4.4411   4.7188   4.8594   4.9521   5.0240   5.3355   5.5018
     5.7065   5.8808   6.1666   6.3998   6.5834   6.8239   7.4283   7.5668
     7.6957   8.0391   8.0722   8.3420   8.4533   8.4814   8.6795   8.9097
    13.1389  13.4353  14.0856  14.1679  14.4220  14.7778  14.9955  15.2966
    15.6335  15.7151  16.2043  16.4550  16.4636  16.9274  17.2624  17.4569
    17.8111  18.0675  18.2822  18.5815  18.7087  19.0641  19.5030  19.5307
    19.5819  20.3067  20.4582  20.5230  21.3288  21.7814  22.1436  22.4643
    23.0843  23.4249  23.7207  23.8676  24.0436  24.9832  25.0284  25.4690
    25.7672  25.9373  26.1383  26.7106  27.1343  27.3124  27.6013  27.8818
    28.2938  28.8091  29.0901  29.5367  29.5534  29.8531  30.1661  30.5056
    30.6685  30.9933  31.2243  31.7532  31.8929  32.1541  32.4567  32.5480
    32.7208  33.0173  33.4182  33.7124  33.7906  34.2077  34.2287  34.5058
    34.6180  34.8604  35.2234  35.5979  35.8202  35.9829  36.2849  36.4755
    36.9578  37.0365  37.1689  37.3627  37.3940  37.5913  37.8983  38.1130
    38.3131  38.5251  38.7009  38.8922  39.1210  39.4727  39.6345  40.0397
    40.1014  40.3777  40.6317  40.6979  41.0439  41.3245  41.5206  41.7152
    41.7878  41.9281  42.2847  42.5104  42.8015  42.8559  43.2594  43.2981
    43.5142  43.9261  44.2989  44.3711  44.6621  44.9612  45.1549  45.3226
    45.4764  45.9253  46.0665  46.1311  46.3108  46.6654  46.7231  46.9403
    47.2965  47.4487  47.6052  47.7776  48.1531  48.3327  48.5424  48.7072
    48.8042  49.0134  49.1956  49.5472  49.7675  49.8992  50.1647  50.3705
    50.5611  50.6455  50.8853  51.3276  51.5442  51.6549  51.8423  52.1322
    52.4242  52.6870  52.8438  53.1738  53.6082  53.7138  53.8298  54.1957
    54.2543  54.5061  54.6073  54.7204  55.0181  55.1423  55.4477  55.7882

     occupation numbers
     1.0000   1.0000   1.0000   1.0000   1.0000   1.0000   1.0000   1.0000
     1.0000   1.0000   1.0000   1.0000   1.0000   1.0000   1.0000   1.0000
     1.0000   1.0000   1.0000   1.0000   1.0000   1.0000   1.0000   1.0000
     1.0000   1.0000   1.0000   1.0000   1.0000   1.0000   1.0000   1.0000
     1.0000   1.0000   1.0000   1.0000   1.0000   1.0000   1.0000   1.0000
     1.0000   1.0000   1.0000   1.0000   1.0000   1.0000   1.0000   1.0000
     1.0000   1.0000   1.0000   1.0000   1.0000   1.0000   1.0000   1.0000
     1.0000   1.0000   1.0000   1.0000   1.0000   1.0000   1.0000   1.0000
     1.0000   1.0000   1.0000   1.0000   1.0000   1.0000   1.0000   1.0000
     1.0000   1.0000   1.0000   1.0000   1.0000   1.0000   1.0000   1.0000
     1.0000   1.0000   1.0000   1.0000   1.0000   1.0000   1.0000   1.0000
     0.0000   0.0000   0.0000   0.0000   0.0000   0.0000   0.0000   0.0000
     0.0000   0.0000   0.0000   0.0000   0.0000   0.0000   0.0000   0.0000
     0.0000   0.0000   0.0000   0.0000   0.0000   0.0000   0.0000   0.0000
     0.0000   0.0000   0.0000   0.0000   0.0000   0.0000   0.0000   0.0000
     0.0000   0.0000   0.0000   0.0000   0.0000   0.0000   0.0000   0.0000
     0.0000   0.0000   0.0000   0.0000   0.0000   0.0000   0.0000   0.0000
     0.0000   0.0000   0.0000   0.0000   0.0000   0.0000   0.0000   0.0000
     0.0000   0.0000   0.0000   0.0000   0.0000   0.0000   0.0000   0.0000
     0.0000   0.0000   0.0000   0.0000   0.0000   0.0000   0.0000   0.0000
     0.0000   0.0000   0.0000   0.0000   0.0000   0.0000   0.0000   0.0000
     0.0000   0.0000   0.0000   0.0000   0.0000   0.0000   0.0000   0.0000
     0.0000   0.0000   0.0000   0.0000   0.0000   0.0000   0.0000   0.0000
     0.0000   0.0000   0.0000   0.0000   0.0000   0.0000   0.0000   0.0000
     0.0000   0.0000   0.0000   0.0000   0.0000   0.0000   0.0000   0.0000
     0.0000   0.0000   0.0000   0.0000   0.0000   0.0000   0.0000   0.0000
     0.0000   0.0000   0.0000   0.0000   0.0000   0.0000   0.0000   0.0000
     0.0000   0.0000   0.0000   0.0000   0.0000   0.0000   0.0000   0.0000
     0.0000   0.0000   0.0000   0.0000   0.0000   0.0000   0.0000   0.0000
     0.0000   0.0000   0.0000   0.0000   0.0000   0.0000   0.0000   0.0000
     0.0000   0.0000   0.0000   0.0000   0.0000   0.0000   0.0000   0.0000
     0.0000   0.0000   0.0000   0.0000   0.0000   0.0000   0.0000   0.0000

     highest occupied, lowest unoccupied level (ev):     9.3202   10.8113

!    total energy              =   -2862.09027025 Ry
     estimated scf accuracy    <       0.00000078 Ry

     The total energy is the sum of the following terms:
     one-electron contribution =   -2164.27744886 Ry
     hartree contribution      =    1191.48159173 Ry
     xc contribution           =    -446.15236622 Ry
     ewald contribution        =   -1443.14204689 Ry

     convergence has been achieved in   8 iterations

     Writing all to output data dir bands_nm/myprefix.save/

     General routines

     Parallel routines

   This run was terminated on:  20:58:34  15Jul2023

   JOB DONE.