     Program PWSCF v.7.1 starts on 17Jul2023 at  1:33:36

     Reading input from espresso_19763.pwi
Warning: card &CELL ignored
Warning: card / ignored

     Current dimensions of program PWSCF are:
     Max number of different atomic species (ntypx) = 10
     Max number of k-points (npk) =  40000
     Max angular momentum in pseudopotentials (lmaxx) =  4
     Message from routine setup:
     using ibrav=0 with symmetry is DISCOURAGED, use correct ibrav instead

     K-points division:     npool     =       2
     R & G space division:  proc/nbgrp/npool/nimage =       4
     Subspace diagonalization in iterative solution of the eigenvalue problem:
     one sub-group per band group will be used

     Using Slab Decomposition

     bravais-lattice index     =            0
     lattice parameter (alat)  =      17.2330  a.u.
     unit-cell volume          =    2937.2697 (a.u.)^3
     number of atoms/cell      =           18
     number of atomic types    =            3
     number of electrons       =       204.00
     number of Kohn-Sham states=          256
     kinetic-energy cutoff     =      30.0000  Ry
     charge density cutoff     =     240.0000  Ry
     scf convergence threshold =      1.0E-06
     mixing beta               =       0.7000
     number of iterations used =            8  plain     mixing
     Exchange-correlation= SLA  PW   PBE  PBE
                           (   1   4   3   4   0   0   0)

     celldm(1)=  17.232975  celldm(2)=   0.000000  celldm(3)=   0.000000
     celldm(4)=   0.000000  celldm(5)=   0.000000  celldm(6)=   0.000000

     crystal axes: (cart. coord. in units of alat)
               a(1) = (   1.000000   0.000000   0.000000 )
               a(2) = (   0.096111   0.995371   0.000000 )
               a(3) = (  -0.315688  -0.753570   0.576605 )

     reciprocal axes: (cart. coord. in units 2 pi/alat)
               b(1) = (  1.000000 -0.096558  0.421302 )
               b(2) = (  0.000000  1.004651  1.312988 )
               b(3) = (  0.000000  0.000000  1.734290 )

     PseudoPot. # 1 for Na read from file:
     /lustre07/scratch/pragov/crystal_structure_design/utils/SSSP/na_pbe_v1.5.uspp.F.UPF
     MD5 check sum: 44600605ef58000f06b90626533354dc
     Pseudo is Ultrasoft, Zval =  9.0
     Generated by new atomic code, or converted to UPF format
     Using radial grid of  819 points,  5 beta functions with:
                l(1) =   0
                l(2) =   0
                l(3) =   1
                l(4) =   1
                l(5) =   2
     Q(r) pseudized with  8 coefficients,  rinner =    1.250   1.250   1.250
                                                       1.250   1.250

     PseudoPot. # 2 for Zn read from file:
     /lustre07/scratch/pragov/crystal_structure_design/utils/SSSP/Zn_pbe_v1.uspp.F.UPF
     MD5 check sum: df62231357ef9e81f77b2b3087fa5675
     Pseudo is Ultrasoft, Zval = 20.0
     Generated by new atomic code, or converted to UPF format
     Using radial grid of  943 points,  6 beta functions with:
                l(1) =   0
                l(2) =   0
                l(3) =   1
                l(4) =   1
                l(5) =   2
                l(6) =   2
     Q(r) pseudized with  8 coefficients,  rinner =    1.100   1.100   1.100
                                                       1.100   1.100

     PseudoPot. # 3 for Se read from file:
     /lustre07/scratch/pragov/crystal_structure_design/utils/SSSP/Se_pbe_v1.uspp.F.UPF
     MD5 check sum: 1b3568f3a8ae88f9a2a0ad0698632c85
     Pseudo is Ultrasoft + core correction, Zval =  6.0
     Generated by new atomic code, or converted to UPF format
     Using radial grid of  877 points,  6 beta functions with:
                l(1) =   0
                l(2) =   0
                l(3) =   1
                l(4) =   1
                l(5) =   2
                l(6) =   2
     Q(r) pseudized with  8 coefficients,  rinner =    1.300   1.300   1.300
                                                       1.300   1.300

     atomic species   valence    mass     pseudopotential
        Na             9.00    22.98977     Na( 1.00)
        Zn            20.00    65.38000     Zn( 1.00)
        Se             6.00    78.97100     Se( 1.00)

      2 Sym. Ops., with inversion, found

                                    s                        frac. trans.

      isym =  1     identity

 cryst.   s( 1) = (     1          0          0      )
                  (     0          1          0      )
                  (     0          0          1      )

 cart.    s( 1) = (  1.0000000  0.0000000  0.0000000 )
                  (  0.0000000  1.0000000  0.0000000 )
                  (  0.0000000  0.0000000  1.0000000 )

      isym =  2     inversion

 cryst.   s( 2) = (    -1          0          0      )
                  (     0         -1          0      )
                  (     0          0         -1      )

 cart.    s( 2) = ( -1.0000000  0.0000000  0.0000000 )
                  (  0.0000000 -1.0000000  0.0000000 )
                  (  0.0000000  0.0000000 -1.0000000 )

   Cartesian axes

     site n.     atom                  positions (alat units)
         1           Na  tau(   1) = (   0.5820053   0.4602993   0.2078937  )
         2           Na  tau(   2) = (   0.1984174  -0.2184989   0.3687110  )
         3           Na  tau(   3) = (  -0.0822498   0.0905730   0.5130312  )
         4           Na  tau(   4) = (   0.8626724   0.1512274   0.0635736  )
         5           Zn  tau(   5) = (   0.6161837  -0.1279425   0.2883024  )
         6           Zn  tau(   6) = (   0.1642390   0.3697429   0.2883024  )
         7           Zn  tau(   7) = (   0.9741514   0.5790689   0.1281337  )
         8           Zn  tau(   8) = (   0.3543265   0.1604169   0.4484710  )
         9           Zn  tau(   9) = (  -0.1937287  -0.3372685   0.4484710  )
        10           Zn  tau(  10) = (   0.4260962   0.0813835   0.1281337  )
        11           Se  tau(  11) = (  -0.1000498   0.4102935   0.3461854  )
        12           Se  tau(  12) = (   0.1792010   0.1027802   0.2304193  )
        13           Se  tau(  13) = (   0.2504896   0.5252493   0.0804035  )
        14           Se  tau(  14) = (   0.2312046  -0.5547223   0.4962012  )
        15           Se  tau(  15) = (   0.8804725  -0.1684931   0.2304193  )
        16           Se  tau(  16) = (   0.6012217   0.1390202   0.3461854  )
        17           Se  tau(  17) = (   0.5299331  -0.2834489   0.4962012  )
        18           Se  tau(  18) = (   0.5492181   0.7965227   0.0804035  )

   Crystallographic axes

     site n.     atom                  positions (cryst. coord.)
         1           Na  tau(   1) = (  0.6251460  0.7354020  0.3605480  )
         2           Na  tau(   2) = (  0.3748540  0.2645980  0.6394520  )
         3           Na  tau(   3) = (  0.1251460  0.7645980  0.8897450  )
         4           Na  tau(   4) = (  0.8748540  0.2354020  0.1102550  )
         5           Zn  tau(   5) = (  0.7500000  0.2500000  0.5000000  )
         6           Zn  tau(   6) = (  0.2500000  0.7500000  0.5000000  )
         7           Zn  tau(   7) = (  0.9722210  0.7500000  0.2222210  )
         8           Zn  tau(   8) = (  0.5277790  0.7500000  0.7777790  )
         9           Zn  tau(   9) = (  0.0277790  0.2500000  0.7777790  )
        10           Zn  tau(  10) = (  0.4722210  0.2500000  0.2222210  )
        11           Se  tau(  11) = (  0.0061820  0.8667390  0.6003860  )
        12           Se  tau(  12) = (  0.2663530  0.4057960  0.3996140  )
        13           Se  tau(  13) = (  0.2336470  0.6332610  0.1394430  )
        14           Se  tau(  14) = (  0.4938180  0.0942040  0.8605570  )
        15           Se  tau(  15) = (  0.9938180  0.1332610  0.3996140  )
        16           Se  tau(  16) = (  0.7336470  0.5942040  0.6003860  )
        17           Se  tau(  17) = (  0.7663530  0.3667390  0.8605570  )
        18           Se  tau(  18) = (  0.5061820  0.9057960  0.1394430  )

     number of k points=    14
                       cart. coord. in units 2pi/alat
        k(    1) = (   0.0000000   0.0000000   0.0000000), wk =   0.0740741
        k(    2) = (   0.0000000   0.0000000   0.5780968), wk =   0.1481481
        k(    3) = (   0.0000000   0.3348836   0.4376626), wk =   0.1481481
        k(    4) = (   0.0000000   0.3348836   1.0157594), wk =   0.1481481
        k(    5) = (   0.0000000   0.3348836  -0.1404341), wk =   0.1481481
        k(    6) = (   0.3333333  -0.0321858   0.1404341), wk =   0.1481481
        k(    7) = (   0.3333333  -0.0321858   0.7185309), wk =   0.1481481
        k(    8) = (   0.3333333  -0.0321858  -0.4376626), wk =   0.1481481
        k(    9) = (   0.3333333   0.3026978   0.5780968), wk =   0.1481481
        k(   10) = (   0.3333333   0.3026978   1.1561936), wk =   0.1481481
        k(   11) = (   0.3333333   0.3026978   0.0000000), wk =   0.1481481
        k(   12) = (   0.3333333  -0.3670695  -0.2972285), wk =   0.1481481
        k(   13) = (   0.3333333  -0.3670695   0.2808683), wk =   0.1481481
        k(   14) = (   0.3333333  -0.3670695  -0.8753253), wk =   0.1481481

                       cryst. coord.
        k(    1) = (   0.0000000   0.0000000   0.0000000), wk =   0.0740741
        k(    2) = (   0.0000000   0.0000000   0.3333333), wk =   0.1481481
        k(    3) = (   0.0000000   0.3333333   0.0000000), wk =   0.1481481
        k(    4) = (   0.0000000   0.3333333   0.3333333), wk =   0.1481481
        k(    5) = (   0.0000000   0.3333333  -0.3333333), wk =   0.1481481
        k(    6) = (   0.3333333   0.0000000   0.0000000), wk =   0.1481481
        k(    7) = (   0.3333333   0.0000000   0.3333333), wk =   0.1481481
        k(    8) = (   0.3333333   0.0000000  -0.3333333), wk =   0.1481481
        k(    9) = (   0.3333333   0.3333333   0.0000000), wk =   0.1481481
        k(   10) = (   0.3333333   0.3333333   0.3333333), wk =   0.1481481
        k(   11) = (   0.3333333   0.3333333  -0.3333333), wk =   0.1481481
        k(   12) = (   0.3333333  -0.3333333  -0.0000000), wk =   0.1481481
        k(   13) = (   0.3333333  -0.3333333   0.3333333), wk =   0.1481481
        k(   14) = (   0.3333333  -0.3333333  -0.3333333), wk =   0.1481481

     Initial potential from superposition of free atoms

     starting charge     203.9734, renormalised to     204.0000
     Starting wfcs are  130 randomized atomic wfcs +  126 random wfcs

     Self-consistent Calculation

     iteration #  1     ecut=    30.00 Ry     beta= 0.70
     Davidson diagonalization with overlap

     ethr =  1.00E-02,  avg # of iterations =  6.1

     Threshold (ethr) on eigenvalues was too large:
     Diagonalizing with lowered threshold

     Davidson diagonalization with overlap

[...]

     total energy              =   -3499.77935326 Ry
     estimated scf accuracy    <       0.86708483 Ry

[...]

     total energy              =   -3500.17769066 Ry
     estimated scf accuracy    <       0.00000519 Ry

     iteration #  8     ecut=    30.00 Ry     beta= 0.70
     Davidson diagonalization with overlap

     ethr =  2.55E-09,  avg # of iterations =  2.0

     End of self-consistent calculation

          k = 0.0000 0.0000 0.0000 (  8131 PWs)   bands (ev):

  -120.4382-120.4373-120.4368-120.4360-120.3890-120.3876 -74.5614 -74.5580
   -74.5552 -74.5502 -74.5491 -74.5465 -74.5464 -74.5447 -74.5290 -74.5263
   -74.5233 -74.5225 -74.5102 -74.5039 -74.4907 -74.4862 -74.4837 -74.4797
   -47.0991 -47.0986 -47.0983 -47.0981 -19.0114 -19.0103 -19.0074 -19.0066
   -18.9950 -18.9940 -18.9934 -18.9929 -18.9860 -18.9851 -18.9839 -18.9838
    -7.7667  -7.2791  -7.0617  -7.0021  -6.9834  -6.9274  -6.8403  -6.7522
    -1.6521  -1.6133  -1.6088  -1.5814  -1.5594  -1.5490  -1.5344  -1.4735
    -1.4523  -1.4241  -1.3923  -1.3856  -1.3712  -1.3466  -1.2896  -1.2857
    -1.2821  -1.2817  -1.2814  -1.2749  -1.2499  -1.2491  -1.2362  -1.2334
    -1.2255  -1.2213  -1.2202  -1.2081  -1.1739  -1.0449   0.5171   0.6106
     1.0097   1.0632   1.2442   1.3949   1.9893   2.1848   2.3428   2.6645
     2.7159   2.8209   2.9402   3.3272   3.3422   3.5733   3.6285   3.8259
     4.1163   4.2002   4.2410   4.6323   4.6646   4.8005   6.2875   7.7018
     8.1838   8.3509   8.3604   8.3744   8.4529   9.0971   9.1127   9.2145
     9.7263   9.9225  10.1130  10.2467  10.4768  10.4824  10.8193  11.0674
    11.2314  11.5196  11.7007  11.8167  12.2327  12.4003  12.4588  12.4769
    12.7553  12.9316  13.0953  13.2372  13.6992  14.2718  14.3116  14.3256
    14.7202  14.7789  14.8143  14.9189  15.1345  15.3960  15.5470  15.5755
    15.6727  15.9425  15.9728  16.1995  16.2388  16.3518  16.4839  16.9029
    17.0030  17.0208  17.0396  17.2303  17.3425  17.4208  18.0185  18.0637
    18.0720  18.0984  18.4151  18.4642  18.6386  18.8791  18.9268  19.2033
    19.3440  19.4096  19.4627  19.6909  19.7165  19.8389  20.1120  20.1371
    20.3144  20.3240  20.4434  20.5624  20.5898  20.6806  20.8728  20.8947
    20.9896  21.0053  21.0746  21.2074  21.8436  21.8840  22.2195  22.5216
    22.8383  22.8664  23.0236  23.0345  23.4195  23.4745  23.6181  23.6998
    23.9319  23.9341  23.9879  24.1849  24.2889  24.6696  24.8048  24.9389
    24.9770  24.9822  25.3051  25.3159  25.3636  25.4131  25.6226  25.6328
    25.9074  25.9660  26.0049  26.0250  26.0493  26.0545  26.1591  26.7907
    26.9039  26.9343  26.9916  27.1443  27.2001  27.3766  27.6782  27.9824
    28.0804  28.1299  28.1656  28.1991  28.2628  28.4472  28.7851  28.7878
    28.9653  29.2471  29.2619  29.2792  29.5684  29.6100  29.7026  29.7893
    29.8814  30.0454  30.4763  30.4992  30.6796  30.8020  30.9063  31.0211

     occupation numbers
     1.0000   1.0000   1.0000   1.0000   1.0000   1.0000   1.0000   1.0000
     1.0000   1.0000   1.0000   1.0000   1.0000   1.0000   1.0000   1.0000
     1.0000   1.0000   1.0000   1.0000   1.0000   1.0000   1.0000   1.0000
     1.0000   1.0000   1.0000   1.0000   1.0000   1.0000   1.0000   1.0000
     1.0000   1.0000   1.0000   1.0000   1.0000   1.0000   1.0000   1.0000
     1.0000   1.0000   1.0000   1.0000   1.0000   1.0000   1.0000   1.0000
     1.0000   1.0000   1.0000   1.0000   1.0000   1.0000   1.0000   1.0000
     1.0000   1.0000   1.0000   1.0000   1.0000   1.0000   1.0000   1.0000
     1.0000   1.0000   1.0000   1.0000   1.0000   1.0000   1.0000   1.0000
     1.0000   1.0000   1.0000   1.0000   1.0000   1.0000   1.0000   1.0000
     1.0000   1.0000   1.0000   1.0000   1.0000   1.0000   1.0000   1.0000
     1.0000   1.0000   1.0000   1.0000   1.0000   1.0000   1.0000   1.0000
     1.0000   1.0000   1.0000   1.0000   1.0000   1.0000   0.0000   0.0000
     0.0000   0.0000   0.0000   0.0000   0.0000   0.0000   0.0000   0.0000
     0.0000   0.0000   0.0000   0.0000   0.0000   0.0000   0.0000   0.0000
     0.0000   0.0000   0.0000   0.0000   0.0000   0.0000   0.0000   0.0000
     0.0000   0.0000   0.0000   0.0000   0.0000   0.0000   0.0000   0.0000
     0.0000   0.0000   0.0000   0.0000   0.0000   0.0000   0.0000   0.0000
     0.0000   0.0000   0.0000   0.0000   0.0000   0.0000   0.0000   0.0000
     0.0000   0.0000   0.0000   0.0000   0.0000   0.0000   0.0000   0.0000
     0.0000   0.0000   0.0000   0.0000   0.0000   0.0000   0.0000   0.0000
     0.0000   0.0000   0.0000   0.0000   0.0000   0.0000   0.0000   0.0000
     0.0000   0.0000   0.0000   0.0000   0.0000   0.0000   0.0000   0.0000
     0.0000   0.0000   0.0000   0.0000   0.0000   0.0000   0.0000   0.0000
     0.0000   0.0000   0.0000   0.0000   0.0000   0.0000   0.0000   0.0000
     0.0000   0.0000   0.0000   0.0000   0.0000   0.0000   0.0000   0.0000
     0.0000   0.0000   0.0000   0.0000   0.0000   0.0000   0.0000   0.0000
     0.0000   0.0000   0.0000   0.0000   0.0000   0.0000   0.0000   0.0000
     0.0000   0.0000   0.0000   0.0000   0.0000   0.0000   0.0000   0.0000
     0.0000   0.0000   0.0000   0.0000   0.0000   0.0000   0.0000   0.0000
     0.0000   0.0000   0.0000   0.0000   0.0000   0.0000   0.0000   0.0000
     0.0000   0.0000   0.0000   0.0000   0.0000   0.0000   0.0000   0.0000

[...]

          k = 0.3333-0.3671-0.8753 (  8182 PWs)   bands (ev):

  -120.4388-120.4377-120.4377-120.4372-120.3894-120.3886 -74.5591 -74.5565
   -74.5564 -74.5558 -74.5529 -74.5509 -74.5493 -74.5492 -74.5308 -74.5296
   -74.5282 -74.5248 -74.5140 -74.5073 -74.4916 -74.4899 -74.4856 -74.4821
   -47.0992 -47.0987 -47.0986 -47.0984 -19.0112 -19.0110 -19.0093 -19.0077
   -18.9976 -18.9941 -18.9939 -18.9927 -18.9863 -18.9859 -18.9852 -18.9850
    -7.4401  -7.3045  -7.2318  -7.0556  -7.0515  -6.9372  -6.8747  -6.7472
    -1.5874  -1.5857  -1.5784  -1.5631  -1.5399  -1.5099  -1.5011  -1.4851
    -1.4288  -1.4172  -1.4127  -1.4073  -1.3809  -1.3637  -1.3487  -1.3358
    -1.3244  -1.3206  -1.2967  -1.2751  -1.2640  -1.2372  -1.2251  -1.2017
    -1.1976  -1.1879  -1.1838  -1.1580  -1.1398  -1.1023   0.3344   0.3617
     0.6360   0.8428   1.0722   1.2057   2.3581   2.4303   2.5100   2.6236
     2.6368   2.8241   2.9279   3.1874   3.5842   3.6778   4.0592   4.0933
     4.2520   4.2704   4.2865   4.3069   4.3883   4.6394   7.6278   7.6639
     8.0043   8.5473   8.5920   8.8442   9.0501   9.2309   9.2466   9.4774
     9.5700   9.7851  10.0204  10.6568  10.7366  11.0556  11.0699  11.0825
    11.2954  11.3785  11.7293  11.8662  11.9135  11.9424  12.2864  12.4670
    12.5035  12.5568  13.0244  13.0245  13.0684  13.3448  13.3693  13.4758
    13.5004  13.9309  14.3010  14.6386  14.6542  14.9520  14.9627  15.1941
    15.2038  15.2561  15.5550  15.6390  16.0349  16.0922  16.4542  16.4790
    16.7205  16.8787  17.1378  17.4111  17.4235  17.4920  17.5481  17.7041
    18.3628  18.5174  18.6601  18.9724  19.1651  19.6153  19.6761  19.7617
    19.8092  19.8605  20.0783  20.0872  20.1559  20.2282  20.2626  20.4959
    20.7087  20.7284  20.7603  20.9883  21.0945  21.2863  21.3000  21.4056
    21.4386  21.8343  22.0269  22.3931  22.6183  22.6561  22.7824  22.8298
    22.8859  23.1155  23.1541  23.2930  23.3898  23.5228  23.5902  23.7021
    23.7931  23.8334  23.8473  23.9989  24.1860  24.3428  24.3497  24.5333
    24.8241  24.8433  24.9634  25.0725  25.1402  25.2620  25.4912  25.6960
    25.7771  26.0452  26.1660  26.2196  26.3848  26.6148  26.7176  26.8243
    27.0314  27.0826  27.2500  27.4003  27.4343  27.5673  27.6650  27.9052
    27.9547  28.1572  28.1610  28.2816  28.3092  28.3862  28.6987  28.7256
    28.7907  28.9281  29.1005  29.1844  29.3064  29.3220  29.4323  29.4350
    29.6600  29.7117  29.8896  30.0321  30.0397  30.2486  30.3544  30.4375

     occupation numbers
     1.0000   1.0000   1.0000   1.0000   1.0000   1.0000   1.0000   1.0000
     1.0000   1.0000   1.0000   1.0000   1.0000   1.0000   1.0000   1.0000
     1.0000   1.0000   1.0000   1.0000   1.0000   1.0000   1.0000   1.0000
     1.0000   1.0000   1.0000   1.0000   1.0000   1.0000   1.0000   1.0000
     1.0000   1.0000   1.0000   1.0000   1.0000   1.0000   1.0000   1.0000
     1.0000   1.0000   1.0000   1.0000   1.0000   1.0000   1.0000   1.0000
     1.0000   1.0000   1.0000   1.0000   1.0000   1.0000   1.0000   1.0000
     1.0000   1.0000   1.0000   1.0000   1.0000   1.0000   1.0000   1.0000
     1.0000   1.0000   1.0000   1.0000   1.0000   1.0000   1.0000   1.0000
     1.0000   1.0000   1.0000   1.0000   1.0000   1.0000   1.0000   1.0000
     1.0000   1.0000   1.0000   1.0000   1.0000   1.0000   1.0000   1.0000
     1.0000   1.0000   1.0000   1.0000   1.0000   1.0000   1.0000   1.0000
     1.0000   1.0000   1.0000   1.0000   1.0000   1.0000   0.0000   0.0000
     0.0000   0.0000   0.0000   0.0000   0.0000   0.0000   0.0000   0.0000
     0.0000   0.0000   0.0000   0.0000   0.0000   0.0000   0.0000   0.0000
     0.0000   0.0000   0.0000   0.0000   0.0000   0.0000   0.0000   0.0000
     0.0000   0.0000   0.0000   0.0000   0.0000   0.0000   0.0000   0.0000
     0.0000   0.0000   0.0000   0.0000   0.0000   0.0000   0.0000   0.0000
     0.0000   0.0000   0.0000   0.0000   0.0000   0.0000   0.0000   0.0000
     0.0000   0.0000   0.0000   0.0000   0.0000   0.0000   0.0000   0.0000
     0.0000   0.0000   0.0000   0.0000   0.0000   0.0000   0.0000   0.0000
     0.0000   0.0000   0.0000   0.0000   0.0000   0.0000   0.0000   0.0000
     0.0000   0.0000   0.0000   0.0000   0.0000   0.0000   0.0000   0.0000
     0.0000   0.0000   0.0000   0.0000   0.0000   0.0000   0.0000   0.0000
     0.0000   0.0000   0.0000   0.0000   0.0000   0.0000   0.0000   0.0000
     0.0000   0.0000   0.0000   0.0000   0.0000   0.0000   0.0000   0.0000
     0.0000   0.0000   0.0000   0.0000   0.0000   0.0000   0.0000   0.0000
     0.0000   0.0000   0.0000   0.0000   0.0000   0.0000   0.0000   0.0000
     0.0000   0.0000   0.0000   0.0000   0.0000   0.0000   0.0000   0.0000
     0.0000   0.0000   0.0000   0.0000   0.0000   0.0000   0.0000   0.0000
     0.0000   0.0000   0.0000   0.0000   0.0000   0.0000   0.0000   0.0000
     0.0000   0.0000   0.0000   0.0000   0.0000   0.0000   0.0000   0.0000

     highest occupied, lowest unoccupied level (ev):     4.8533    6.2875

!    total energy              =   -3500.17769183 Ry
     estimated scf accuracy    <       0.00000024 Ry

     The total energy is the sum of the following terms:
     one-electron contribution =   -3541.42180232 Ry
     hartree contribution      =    1814.16933026 Ry
     xc contribution           =    -548.39585052 Ry
     ewald contribution        =   -1224.52936925 Ry

     convergence has been achieved in   8 iterations

     Writing all to output data dir bands_nm/myprefix.save/

     General routines

     Parallel routines

   This run was terminated on:   1:35:57  17Jul2023

   JOB DONE.