     Program PWSCF v.7.1 starts on 16Jul2023 at 20:47: 9

     Reading input from espresso_23804.pwi
Warning: card &CELL ignored
Warning: card / ignored

     Current dimensions of program PWSCF are:
     Max number of different atomic species (ntypx) = 10
     Max number of k-points (npk) =  40000
     Max angular momentum in pseudopotentials (lmaxx) =  4
     file O.pbe-n-kjpaw_psl.0.1.UPF: wavefunction(s)  2P renormalized

     K-points division:     npool     =       2
     R & G space division:  proc/nbgrp/npool/nimage =       4
     Subspace diagonalization in iterative solution of the eigenvalue problem:
     one sub-group per band group will be used

     Using Slab Decomposition

     bravais-lattice index     =            0
     lattice parameter (alat)  =       9.6275  a.u.
     unit-cell volume          =    1436.6951 (a.u.)^3
     number of atoms/cell      =           20
     number of atomic types    =            4
     number of electrons       =       158.00
     number of Kohn-Sham states=          256
     kinetic-energy cutoff     =      30.0000  Ry
     charge density cutoff     =     240.0000  Ry
     scf convergence threshold =      1.0E-06
     mixing beta               =       0.7000
     number of iterations used =            8  plain     mixing
     Exchange-correlation=  SLA  PW   PBX  PBC
                           (   1   4   3   4   0   0   0)

     celldm(1)=   9.627499  celldm(2)=   0.000000  celldm(3)=   0.000000
     celldm(4)=   0.000000  celldm(5)=   0.000000  celldm(6)=   0.000000

     crystal axes: (cart. coord. in units of alat)
               a(1) = (   1.000000   0.000000   0.000000 )
               a(2) = (  -0.010809   1.763205   0.000000 )
               a(3) = (  -0.480528  -0.330423   0.913107 )

     reciprocal axes: (cart. coord. in units 2 pi/alat)
               b(1) = (  1.000000  0.006130  0.528475 )
               b(2) = (  0.000000  0.567149  0.205233 )
               b(3) = (  0.000000  0.000000  1.095162 )

     PseudoPot. # 1 for Li read from file:
     /lustre07/scratch/pragov/crystal_structure_design/utils/SSSP/li_pbe_v1.4.uspp.F.UPF
     MD5 check sum: e912e257baa3777c20ea3d68f190483c
     Pseudo is Ultrasoft, Zval =  3.0
     Generated by new atomic code, or converted to UPF format
     Using radial grid of  751 points,  5 beta functions with:
                l(1) =   0
                l(2) =   0
                l(3) =   0
                l(4) =   1
                l(5) =   1
     Q(r) pseudized with 10 coefficients,  rinner =    1.150   1.150   1.150

     PseudoPot. # 2 for V  read from file:
     /lustre07/scratch/pragov/crystal_structure_design/utils/SSSP/v_pbe_v1.4.uspp.F.UPF
     MD5 check sum: 22b79981416ebb76fdaf5b1b8640f6fb
     Pseudo is Ultrasoft + core correction, Zval = 13.0
     Generated by new atomic code, or converted to UPF format
     Using radial grid of  853 points,  6 beta functions with:
                l(1) =   0
                l(2) =   0
                l(3) =   1
                l(4) =   1
                l(5) =   2
                l(6) =   2
     Q(r) pseudized with  8 coefficients,  rinner =    1.100   1.100   1.100
                                                       1.100   1.100

     PseudoPot. # 3 for O  read from file:
     /lustre07/scratch/pragov/crystal_structure_design/utils/SSSP/O.pbe-n-kjpaw_psl.0.1.UPF
     MD5 check sum: 0234752ac141de4415c5fc33072bef88
     Pseudo is Projector augmented-wave + core cor, Zval =  6.0
     Generated using "atomic" code by A. Dal Corso  v.5.0.99 svn rev. 10869
     Shape of augmentation charge: BESSEL
     Using radial grid of 1095 points,  4 beta functions with:
                l(1) =   0
                l(2) =   0
                l(3) =   1
                l(4) =   1
     Q(r) pseudized with 0 coefficients

     PseudoPot. # 4 for F  read from file:
     /lustre07/scratch/pragov/crystal_structure_design/utils/SSSP/f_pbe_v1.4.uspp.F.UPF
     MD5 check sum: 4c38b6a325caf53ec0e86aed9459de46
     Pseudo is Ultrasoft, Zval =  7.0
     Generated by new atomic code, or converted to UPF format
     Using radial grid of  799 points,  4 beta functions with:
                l(1) =   0
                l(2) =   0
                l(3) =   1
                l(4) =   1
     Q(r) pseudized with  8 coefficients,  rinner =    0.950   0.950   0.950

     atomic species   valence    mass     pseudopotential
        Li             3.00     6.94000     Li( 1.00)
        V             13.00    50.94150     V ( 1.00)
        O              6.00    15.99900     O ( 1.00)
        F              7.00    18.99840     F ( 1.00)

     No symmetry found

                                    s                        frac. trans.

      isym =  1     identity

 cryst.   s( 1) = (     1          0          0      )
                  (     0          1          0      )
                  (     0          0          1      )

 cart.    s( 1) = (  1.0000000  0.0000000  0.0000000 )
                  (  0.0000000  1.0000000  0.0000000 )
                  (  0.0000000  0.0000000  1.0000000 )

   Cartesian axes

     site n.     atom                  positions (alat units)
         1           Li  tau(   1) = (   0.0418641   0.5633958   0.5522879  )
         2           Li  tau(   2) = (   0.5156626   1.4381457   0.5459848  )
         3           V   tau(   3) = (  -0.0058030   0.0210127   0.3947990  )
         4           V   tau(   4) = (   0.4891317   0.8892935   0.3974999  )
         5           V   tau(   5) = (  -0.0261578   1.1873165   0.0513102  )
         6           V   tau(   6) = (   0.4849074   0.3008133   0.0471026  )
         7           V   tau(   7) = (   0.5210043   0.2484638   0.8750309  )
         8           V   tau(   8) = (  -0.0041735   1.1301209   0.8926740  )
         9           O   tau(   9) = (   0.3286738  -0.0213459   0.2100556  )
        10           O   tau(  10) = (   0.8437807   0.8783055   0.1858272  )
        11           O   tau(  11) = (   0.1802820   0.2011885   0.6825280  )
        12           O   tau(  12) = (  -0.3326524   1.0797501   0.6963688  )
        13           O   tau(  13) = (  -0.2768492  -0.0165237   0.6752596  )
        14           O   tau(  14) = (   0.2136729   0.8740822   0.6967898  )
        15           O   tau(  15) = (   0.3090912   0.5905679   0.2172847  )
        16           O   tau(  16) = (   0.8150653   1.4725946   0.2249365  )
        17           O   tau(  17) = (   0.8551920   0.2853450   0.2182635  )
        18           O   tau(  18) = (   0.3247401   1.1793589   0.2220146  )
        19           F   tau(  19) = (  -0.3406146   0.5717201   0.6600674  )
        20           F   tau(  20) = (   0.1498084   1.4542041   0.6849806  )

   Crystallographic axes

     site n.     atom                  positions (cryst. coord.)
         1           Li  tau(   1) = (  0.3371880  0.4328770  0.6048450  )
         2           Li  tau(   2) = (  0.8130180  0.9276970  0.5979420  )
         3           V   tau(   3) = (  0.2029670  0.0929430  0.4323690  )
         4           V   tau(   4) = (  0.7046520  0.5859420  0.4353270  )
         5           V   tau(   5) = (  0.0082370  0.6839160  0.0561930  )
         6           V   tau(   6) = (  0.5116440  0.1802730  0.0515850  )
         7           V   tau(   7) = (  0.9849590  0.3205010  0.9583010  )
         8           V   tau(   8) = (  0.4745100  0.8241530  0.9776230  )
         9           O   tau(   9) = (  0.4395520  0.0310040  0.2300450  )
        10           O   tau(  10) = (  0.9473700  0.5362680  0.2035110  )
        11           O   tau(  11) = (  0.5422140  0.2541810  0.7474790  )
        12           O   tau(  12) = (  0.0419800  0.7552970  0.7626370  )
        13           O   tau(  13) = (  0.0799070  0.1292140  0.7395190  )
        14           O   tau(  14) = (  0.5872670  0.6387390  0.7630980  )
        15           O   tau(  15) = (  0.4275410  0.3795340  0.2379620  )
        16           O   tau(  16) = (  0.9429660  0.8813450  0.2463420  )
        17           O   tau(  17) = (  0.9722880  0.2066280  0.2390340  )
        18           O   tau(  18) = (  0.4492990  0.7144370  0.2431420  )
        19           F   tau(  19) = (  0.0117190  0.4597180  0.7228810  )
        20           F   tau(  20) = (  0.5207180  0.9653310  0.7501650  )

     number of k points=    14
                       cart. coord. in units 2pi/alat
        k(    1) = (   0.0000000   0.0000000   0.0000000), wk =   0.0740741
        k(    2) = (   0.0000000   0.0000000   0.3650541), wk =   0.1481481
        k(    3) = (   0.0000000   0.1890497   0.0684109), wk =   0.1481481
        k(    4) = (   0.0000000   0.1890497   0.4334651), wk =   0.1481481
        k(    5) = (   0.0000000   0.1890497  -0.2966432), wk =   0.1481481
        k(    6) = (   0.3333333   0.0020435   0.1761582), wk =   0.1481481
        k(    7) = (   0.3333333   0.0020435   0.5412123), wk =   0.1481481
        k(    8) = (   0.3333333   0.0020435  -0.1888960), wk =   0.1481481
        k(    9) = (   0.3333333   0.1910931   0.2445691), wk =   0.1481481
        k(   10) = (   0.3333333   0.1910931   0.6096232), wk =   0.1481481
        k(   11) = (   0.3333333   0.1910931  -0.1204851), wk =   0.1481481
        k(   12) = (   0.3333333  -0.1870062   0.1077473), wk =   0.1481481
        k(   13) = (   0.3333333  -0.1870062   0.4728014), wk =   0.1481481
        k(   14) = (   0.3333333  -0.1870062  -0.2573069), wk =   0.1481481

                       cryst. coord.
        k(    1) = (   0.0000000   0.0000000   0.0000000), wk =   0.0740741
        k(    2) = (   0.0000000   0.0000000   0.3333333), wk =   0.1481481
        k(    3) = (   0.0000000   0.3333333  -0.0000000), wk =   0.1481481
        k(    4) = (   0.0000000   0.3333333   0.3333333), wk =   0.1481481
        k(    5) = (   0.0000000   0.3333333  -0.3333333), wk =   0.1481481
        k(    6) = (   0.3333333   0.0000000   0.0000000), wk =   0.1481481
        k(    7) = (   0.3333333   0.0000000   0.3333333), wk =   0.1481481
        k(    8) = (   0.3333333   0.0000000  -0.3333333), wk =   0.1481481
        k(    9) = (   0.3333333   0.3333333   0.0000000), wk =   0.1481481
        k(   10) = (   0.3333333   0.3333333   0.3333333), wk =   0.1481481
        k(   11) = (   0.3333333   0.3333333  -0.3333333), wk =   0.1481481
        k(   12) = (   0.3333333  -0.3333333   0.0000000), wk =   0.1481481
        k(   13) = (   0.3333333  -0.3333333   0.3333333), wk =   0.1481481
        k(   14) = (   0.3333333  -0.3333333  -0.3333333), wk =   0.1481481

     Check: negative core charge=   -0.000016

     Initial potential from superposition of free atoms

     starting charge     157.0911, renormalised to     158.0000

     negative rho (up, down):  3.024E-03 0.000E+00
     Starting wfcs are  118 randomized atomic wfcs +  138 random wfcs
     Checking if some PAW data can be deallocated...

     Self-consistent Calculation

     iteration #  1     ecut=    30.00 Ry     beta= 0.70
     Davidson diagonalization with overlap

     ethr =  1.00E-02,  avg # of iterations =  6.0

     negative rho (up, down):  8.838E-03 0.000E+00

     total energy              =   -1410.46884288 Ry
     estimated scf accuracy    <       6.13657685 Ry

[...]

     total energy              =   -1414.13755034 Ry
     estimated scf accuracy    <       0.00000308 Ry

     iteration # 27     ecut=    30.00 Ry     beta= 0.70
     Davidson diagonalization with overlap

     ethr =  1.95E-09,  avg # of iterations =  1.3

     negative rho (up, down):  5.178E-03 0.000E+00

     End of self-consistent calculation

          k = 0.0000 0.0000 0.0000 (  3987 PWs)   bands (ev):

   -55.7350 -55.7278 -55.5323 -55.5269 -55.5162 -55.4789 -35.6645 -35.6309
   -29.7525 -29.7385 -29.6685 -29.5702 -29.5137 -29.4961 -29.4694 -29.4298
   -29.4100 -29.3998 -29.3506 -29.3480 -29.3372 -29.3166 -29.2996 -29.2353
   -29.2267 -29.2062 -15.0622 -14.9871 -10.1099  -9.8009  -9.4011  -9.3055
    -9.1989  -9.1298  -9.0311  -8.9528  -8.9149  -8.8799   2.2817   2.4181
     2.5551   2.6669   2.8671   3.0586   3.2623   3.3906   3.5310   3.5772
     3.6012   3.8783   3.9608   4.0951   4.1545   4.2957   4.3987   4.4379
     4.5209   4.6238   4.6880   4.8376   4.9151   5.0351   5.3090   5.3720
     5.4885   5.9400   6.0003   6.1175   6.1954   6.2591   6.4679   6.6491
     6.7409   6.7956   9.6704   9.7500   9.8314   9.8607   9.9453   9.9757
    10.0546  10.1724  10.2792  10.3641  10.4645  10.4877  10.6447  10.6975
    10.8847  11.0611  11.1329  11.2312  11.5210  11.8193  11.9099  12.0123
    12.2899  12.5191  12.6025  12.7684  12.9606  13.0756  13.2278  13.6625
    13.8260  16.5381  16.7679  17.6707  18.1899  19.1222  19.3404  19.6180
    19.7985  20.1965  20.4353  20.5195  20.6522  20.8658  21.2395  21.3847
    21.8884  22.0135  22.1797  22.3354  22.4410  22.7404  22.8856  23.0707
    23.3520  23.5398  23.8889  24.8420  24.9088  25.4394  25.5548  25.9479
    26.0702  26.4743  26.6342  27.1643  27.3304  27.8016  28.0733  28.1794
    28.4325  28.7207  29.6362  29.7202  29.8783  30.1072  30.4916  30.7907
    30.9046  30.9948  31.4321  31.5334  31.6770  32.1625  32.3478  32.4719
    32.6089  32.8722  33.0236  33.0802  33.1592  33.4929  33.7379  33.8022
    34.0726  34.1814  35.0990  35.1476  35.5836  35.7425  35.9165  36.1900
    36.2424  37.0480  37.4197  37.4778  37.7390  38.1134  38.2945  38.4354
    38.8396  39.0190  39.1148  39.2188  39.2805  39.8062  39.8857  40.1160
    40.3474  40.4786  40.6107  40.7414  40.8771  41.0982  41.2239  41.5629
    41.8039  42.1085  42.2576  42.4023  42.4536  42.6959  43.0576  43.1112
    43.3322  43.5329  43.6394  43.7895  44.1188  44.2541  44.5737  44.7357
    44.8827  45.0525  45.2344  45.4543  45.4753  45.7105  45.8194  45.8972
    46.1695  46.4243  46.5705  46.7196  46.9914  47.1948  47.4175  47.5185
    47.7790  48.2253  48.3265  48.4734  48.5798  49.0614  49.1768  49.5147
    49.5725  50.0016  50.2522  50.3237  50.4301  50.4689  50.7266  50.8898
    51.0615  51.1682  51.3742  51.6339  51.7540  51.8050  51.9575  52.0848

     occupation numbers
     1.0000   1.0000   1.0000   1.0000   1.0000   1.0000   1.0000   1.0000
     1.0000   1.0000   1.0000   1.0000   1.0000   1.0000   1.0000   1.0000
     1.0000   1.0000   1.0000   1.0000   1.0000   1.0000   1.0000   1.0000
     1.0000   1.0000   1.0000   1.0000   1.0000   1.0000   1.0000   1.0000
     1.0000   1.0000   1.0000   1.0000   1.0000   1.0000   1.0000   1.0000
     1.0000   1.0000   1.0000   1.0000   1.0000   1.0000   1.0000   1.0000
     1.0000   1.0000   1.0000   1.0000   1.0000   1.0000   1.0000   1.0000
     1.0000   1.0000   1.0000   1.0000   1.0000   1.0000   1.0000   1.0000
     1.0000   1.0000   1.0000   1.0000   1.0000   1.0000   1.0000   1.0000
     1.0000   1.0000   1.0000   1.0000   1.0000   1.0000   1.0000   0.0000
     0.0000   0.0000   0.0000   0.0000   0.0000   0.0000   0.0000   0.0000
     0.0000   0.0000   0.0000   0.0000   0.0000   0.0000   0.0000   0.0000
     0.0000   0.0000   0.0000   0.0000   0.0000   0.0000   0.0000   0.0000
     0.0000   0.0000   0.0000   0.0000   0.0000   0.0000   0.0000   0.0000
     0.0000   0.0000   0.0000   0.0000   0.0000   0.0000   0.0000   0.0000
     0.0000   0.0000   0.0000   0.0000   0.0000   0.0000   0.0000   0.0000
     0.0000   0.0000   0.0000   0.0000   0.0000   0.0000   0.0000   0.0000
     0.0000   0.0000   0.0000   0.0000   0.0000   0.0000   0.0000   0.0000
     0.0000   0.0000   0.0000   0.0000   0.0000   0.0000   0.0000   0.0000
     0.0000   0.0000   0.0000   0.0000   0.0000   0.0000   0.0000   0.0000
     0.0000   0.0000   0.0000   0.0000   0.0000   0.0000   0.0000   0.0000
     0.0000   0.0000   0.0000   0.0000   0.0000   0.0000   0.0000   0.0000
     0.0000   0.0000   0.0000   0.0000   0.0000   0.0000   0.0000   0.0000
     0.0000   0.0000   0.0000   0.0000   0.0000   0.0000   0.0000   0.0000
     0.0000   0.0000   0.0000   0.0000   0.0000   0.0000   0.0000   0.0000
     0.0000   0.0000   0.0000   0.0000   0.0000   0.0000   0.0000   0.0000
     0.0000   0.0000   0.0000   0.0000   0.0000   0.0000   0.0000   0.0000
     0.0000   0.0000   0.0000   0.0000   0.0000   0.0000   0.0000   0.0000
     0.0000   0.0000   0.0000   0.0000   0.0000   0.0000   0.0000   0.0000
     0.0000   0.0000   0.0000   0.0000   0.0000   0.0000   0.0000   0.0000
     0.0000   0.0000   0.0000   0.0000   0.0000   0.0000   0.0000   0.0000
     0.0000   0.0000   0.0000   0.0000   0.0000   0.0000   0.0000   0.0000

[...]

          k = 0.3333-0.1870-0.2573 (  3993 PWs)   bands (ev):

   -55.7344 -55.7277 -55.5324 -55.5274 -55.5142 -55.4812 -35.6646 -35.6310
   -29.7523 -29.7444 -29.6557 -29.5658 -29.5191 -29.4972 -29.4718 -29.4197
   -29.4136 -29.3988 -29.3678 -29.3428 -29.3313 -29.3171 -29.2979 -29.2362
   -29.2297 -29.2116 -15.0593 -14.9856  -9.8181  -9.7431  -9.4251  -9.2863
    -9.2288  -9.1591  -9.1367  -9.0780  -8.9623  -8.9380   2.3606   2.4386
     2.6739   2.7010   2.8068   2.9457   3.1745   3.3766   3.4679   3.5637
     3.7293   3.8799   3.9617   3.9906   4.1326   4.2789   4.2960   4.5069
     4.6441   4.7217   4.8961   4.9782   5.1589   5.1774   5.3260   5.4355
     5.5601   5.6419   5.8039   5.9829   6.0895   6.2934   6.3227   6.4964
     6.6204   6.7177   9.5290   9.6141   9.7268   9.8428   9.9280  10.0453
    10.1514  10.2496  10.3590  10.4164  10.4863  10.5528  10.7168  10.8205
    10.8566  10.9816  11.0438  11.1593  11.5228  11.8520  12.0593  12.1433
    12.2372  12.3909  12.5820  12.6413  12.7593  13.0491  13.3194  13.4281
    15.6240  15.9085  17.3796  17.8000  18.1375  18.5269  18.7534  18.8258
    19.4163  19.6493  20.1748  20.3004  20.9525  21.1598  21.4876  21.6045
    21.8285  22.0254  22.3756  22.6706  22.8065  23.2419  23.4004  23.6154
    23.8700  24.0830  24.3432  24.6636  24.7414  25.1413  25.3930  25.9048
    26.1891  26.3412  26.6776  26.9389  27.2511  27.4253  27.6248  27.8117
    28.0219  28.1347  28.6210  28.7353  29.2277  29.4961  29.5775  29.9083
    30.2127  30.4173  31.2223  31.5268  31.7396  32.1612  32.3395  32.5432
    32.6776  32.9701  33.5275  33.5947  34.2658  34.3679  34.6369  34.7860
    35.0358  35.3348  35.8391  35.9032  36.0625  36.3600  36.5107  36.6768
    36.9226  37.1543  37.3599  37.6670  37.9344  38.2945  38.4196  38.5364
    38.7218  38.9858  39.0255  39.1881  39.6451  39.8425  39.9079  40.1495
    40.2868  40.5030  40.6958  40.8780  40.9612  41.1555  41.3985  41.4952
    41.7880  41.9376  42.0965  42.1850  42.4530  42.7727  42.9943  43.2627
    43.3739  43.5628  43.6408  43.9005  43.9929  44.1477  44.2476  44.3758
    44.6323  44.7055  44.9000  45.1496  45.3743  45.5995  45.7102  46.0168
    46.2336  46.3725  46.5060  46.5543  46.6577  47.0263  47.1991  47.3869
    47.5306  47.7705  47.9538  48.2562  48.4787  48.6581  48.7483  48.9743
    49.1078  49.2188  49.3282  49.4226  49.6724  49.9235  50.0670  50.3129
    50.4321  50.7009  50.9308  51.1143  51.5037  51.6543  51.7977  52.0186

     occupation numbers
     1.0000   1.0000   1.0000   1.0000   1.0000   1.0000   1.0000   1.0000
     1.0000   1.0000   1.0000   1.0000   1.0000   1.0000   1.0000   1.0000
     1.0000   1.0000   1.0000   1.0000   1.0000   1.0000   1.0000   1.0000
     1.0000   1.0000   1.0000   1.0000   1.0000   1.0000   1.0000   1.0000
     1.0000   1.0000   1.0000   1.0000   1.0000   1.0000   1.0000   1.0000
     1.0000   1.0000   1.0000   1.0000   1.0000   1.0000   1.0000   1.0000
     1.0000   1.0000   1.0000   1.0000   1.0000   1.0000   1.0000   1.0000
     1.0000   1.0000   1.0000   1.0000   1.0000   1.0000   1.0000   1.0000
     1.0000   1.0000   1.0000   1.0000   1.0000   1.0000   1.0000   1.0000
     1.0000   1.0000   1.0000   1.0000   1.0000   1.0000   1.0000   0.0000
     0.0000   0.0000   0.0000   0.0000   0.0000   0.0000   0.0000   0.0000
     0.0000   0.0000   0.0000   0.0000   0.0000   0.0000   0.0000   0.0000
     0.0000   0.0000   0.0000   0.0000   0.0000   0.0000   0.0000   0.0000
     0.0000   0.0000   0.0000   0.0000   0.0000   0.0000   0.0000   0.0000
     0.0000   0.0000   0.0000   0.0000   0.0000   0.0000   0.0000   0.0000
     0.0000   0.0000   0.0000   0.0000   0.0000   0.0000   0.0000   0.0000
     0.0000   0.0000   0.0000   0.0000   0.0000   0.0000   0.0000   0.0000
     0.0000   0.0000   0.0000   0.0000   0.0000   0.0000   0.0000   0.0000
     0.0000   0.0000   0.0000   0.0000   0.0000   0.0000   0.0000   0.0000
     0.0000   0.0000   0.0000   0.0000   0.0000   0.0000   0.0000   0.0000
     0.0000   0.0000   0.0000   0.0000   0.0000   0.0000   0.0000   0.0000
     0.0000   0.0000   0.0000   0.0000   0.0000   0.0000   0.0000   0.0000
     0.0000   0.0000   0.0000   0.0000   0.0000   0.0000   0.0000   0.0000
     0.0000   0.0000   0.0000   0.0000   0.0000   0.0000   0.0000   0.0000
     0.0000   0.0000   0.0000   0.0000   0.0000   0.0000   0.0000   0.0000
     0.0000   0.0000   0.0000   0.0000   0.0000   0.0000   0.0000   0.0000
     0.0000   0.0000   0.0000   0.0000   0.0000   0.0000   0.0000   0.0000
     0.0000   0.0000   0.0000   0.0000   0.0000   0.0000   0.0000   0.0000
     0.0000   0.0000   0.0000   0.0000   0.0000   0.0000   0.0000   0.0000
     0.0000   0.0000   0.0000   0.0000   0.0000   0.0000   0.0000   0.0000
     0.0000   0.0000   0.0000   0.0000   0.0000   0.0000   0.0000   0.0000
     0.0000   0.0000   0.0000   0.0000   0.0000   0.0000   0.0000   0.0000

     highest occupied, lowest unoccupied level (ev):    10.0374    9.9757

!    total energy              =   -1414.13754989 Ry
     estimated scf accuracy    <       0.00000062 Ry

     The total energy is the sum of the following terms:
     one-electron contribution =    -591.04759380 Ry
     hartree contribution      =     365.39943186 Ry
     xc contribution           =    -216.96026469 Ry
     ewald contribution        =    -876.29640081 Ry
     one-center paw contrib.   =     -95.23272245 Ry
      -> PAW hartree energy AE =       0.00000000 Ry
      -> PAW hartree energy PS =       0.00000000 Ry
      -> PAW xc energy AE      =       0.00000000 Ry
      -> PAW xc energy PS      =       0.00000000 Ry
      -> total E_H with PAW    =     365.39943186 Ry
      -> total E_XC with PAW   =    -216.96026469 Ry

     convergence has been achieved in  27 iterations

     Writing all to output data dir bands_nm/myprefix.save/

     General routines

     Parallel routines

     PAW routines

   This run was terminated on:  20:50: 7  16Jul2023

   JOB DONE.