     Program PWSCF v.7.0 starts on  4Jun2023 at 22:58:22

     K-points division:     npool     =       2
     R & G space division:  proc/nbgrp/npool/nimage =       4

     Reading input from espresso_10186.pwi
Warning: card &CELL ignored
Warning: card / ignored

     Current dimensions of program PWSCF are:
     Max number of different atomic species (ntypx) = 10
     Max number of k-points (npk) =  40000
     Max angular momentum in pseudopotentials (lmaxx) =  4
     file Mg.pbe-n-kjpaw_psl.0.3.0.UPF: wavefunction(s)  3S renormalized
     file Fe.pbe-spn-kjpaw_psl.0.2.1.UPF: wavefunction(s)  3D renormalized
     file O.pbe-n-kjpaw_psl.0.1.UPF: wavefunction(s)  2P renormalized

     Using Slab Decomposition

     bravais-lattice index     =            0
     lattice parameter (alat)  =       9.8861  a.u.
     unit-cell volume          =     752.6801 (a.u.)^3
     number of atoms/cell      =           10
     number of atomic types    =            4
     number of electrons       =        70.00
     number of Kohn-Sham states=           64
     kinetic-energy cutoff     =      30.0000  Ry
     charge density cutoff     =     240.0000  Ry
     scf convergence threshold =      1.0E-06
     mixing beta               =       0.7000
     number of iterations used =            8  plain     mixing
     Exchange-correlation= SLA  PW   PBX  PBC
                           (   1   4   3   4   0   0   0)

     celldm(1)=   9.886077  celldm(2)=   0.000000  celldm(3)=   0.000000
     celldm(4)=   0.000000  celldm(5)=   0.000000  celldm(6)=   0.000000

     crystal axes: (cart. coord. in units of alat)
               a(1) = (   1.000000   0.000000   0.000000 )
               a(2) = (  -0.498151   0.867433   0.000000 )
               a(3) = (   0.489564   0.293997   0.898054 )

     reciprocal axes: (cart. coord. in units 2 pi/alat)
               b(1) = (  1.000000  0.574281 -0.733142 )
               b(2) = (  0.000000  1.152827 -0.377402 )
               b(3) = (  0.000000  0.000000  1.113518 )

     PseudoPot. # 1 for Mg read from file:
     /home/pragov/projects/rrg-bengioy-ad/pragov/crystal_structure_design/SSSP/Mg.pbe-n-kjpaw_psl.0.3.0.UPF
     MD5 check sum: 24ecedc7f3e3cbe212e682f4413594e4
     Pseudo is Projector augmented-wave + core cor, Zval =  2.0
     Generated using "atomic" code by A. Dal Corso  v.5.0.99 svn rev. 10869
     Shape of augmentation charge: PSQ
     Using radial grid of 1129 points,  4 beta functions with:
                l(1) =   0
                l(2) =   0
                l(3) =   1
                l(4) =   1
     Q(r) pseudized with 0 coefficients

     PseudoPot. # 2 for Fe read from file:
     /home/pragov/projects/rrg-bengioy-ad/pragov/crystal_structure_design/SSSP/Fe.pbe-spn-kjpaw_psl.0.2.1.UPF
     MD5 check sum: e86618425769142926afa95317d90200
     Pseudo is Projector augmented-wave + core cor, Zval = 16.0
     Generated using "atomic" code by A. Dal Corso  v.5.0.99 svn rev. 10869
     Shape of augmentation charge: PSQ
     Using radial grid of 1191 points,  6 beta functions with:
                l(1) =   0
                l(2) =   0
                l(3) =   1
                l(4) =   1
                l(5) =   2
                l(6) =   2
     Q(r) pseudized with 0 coefficients

     PseudoPot. # 3 for W  read from file:
     /home/pragov/projects/rrg-bengioy-ad/pragov/crystal_structure_design/SSSP/W_pbe_v1.2.uspp.F.UPF
     MD5 check sum: 9c083fa34c2a2ea0f02f1f893e16e1c8
     Pseudo is Ultrasoft + core correction, Zval = 14.0
     Generated by new atomic code, or converted to UPF format
     Using radial grid of  923 points,  8 beta functions with:
                l(1) =   0
                l(2) =   0
                l(3) =   0
                l(4) =   1
                l(5) =   1
                l(6) =   2
                l(7) =   2
                l(8) =   3
     Q(r) pseudized with  6 coefficients,  rinner =    1.350   1.350   1.350
                                                       1.350   1.350   1.350
                                                       1.350

     PseudoPot. # 4 for O  read from file:
     /home/pragov/projects/rrg-bengioy-ad/pragov/crystal_structure_design/SSSP/O.pbe-n-kjpaw_psl.0.1.UPF
     MD5 check sum: 0234752ac141de4415c5fc33072bef88
     Pseudo is Projector augmented-wave + core cor, Zval =  6.0
     Generated using "atomic" code by A. Dal Corso  v.5.0.99 svn rev. 10869
     Shape of augmentation charge: BESSEL
     Using radial grid of 1095 points,  4 beta functions with:
                l(1) =   0
                l(2) =   0
                l(3) =   1
                l(4) =   1
     Q(r) pseudized with 0 coefficients

     atomic species   valence    mass     pseudopotential
        Mg             2.00    24.30500     Mg( 1.00)
        Fe            16.00    55.84500     Fe( 1.00)
        W             14.00   183.84000     W ( 1.00)
        O              6.00    15.99900     O ( 1.00)

     No symmetry found

                                    s                        frac. trans.

      isym =  1     identity

 cryst.   s( 1) = (     1          0          0      )
                  (     0          1          0      )
                  (     0          0          1      )

 cart.    s( 1) = (  1.0000000 -0.0000000  0.0000000 )
                  (  0.0000000  1.0000000 -0.0000000 )
                  (  0.0000000  0.0000000  1.0000000 )

   Cartesian axes

     site n.     atom                  positions (alat units)
         1           Mg  tau(   1) = (   0.4903951   0.2958023   0.1160933  )
         2           Mg  tau(   2) = (   0.4840563   0.8761443   0.5737902  )
         3           Fe  tau(   3) = (   0.9861446   0.5879923   0.4444605  )
         4           W   tau(   4) = (   0.4926606   0.8724924   0.0233799  )
         5           O   tau(   5) = (   1.1636304   0.3244391   0.7353089  )
         6           O   tau(   6) = (   0.6602954   0.5632320   0.7405949  )
         7           O   tau(   7) = (   0.1245974   0.8805882   0.7397938  )
         8           O   tau(   8) = (  -0.2162703   0.8756439   0.2741580  )
         9           O   tau(   9) = (   0.8443054   0.2570161   0.2709394  )
        10           O   tau(  10) = (   0.3467725   0.6218964   0.2682865  )

   Crystallographic axes

     site n.     atom                  positions (cryst. coord.)
         1           Mg  tau(   1) = (  0.5751560  0.2971950  0.1292720  )
         2           Mg  tau(   2) = (  0.5665400  0.7934930  0.6389260  )
         3           Fe  tau(   3) = (  0.9979650  0.5101130  0.4949150  )
         4           W   tau(   4) = (  0.9765760  0.9970090  0.0260340  )
         5           O   tau(   5) = (  0.8108640  0.0965150  0.8187800  )
         6           O   tau(   6) = (  0.4407880  0.3698070  0.8246660  )
         7           O   tau(   7) = (  0.0879290  0.7359660  0.8237740  )
         8           O   tau(   8) = (  0.0855990  0.9059980  0.3052800  )
         9           O   tau(   9) = (  0.7932680  0.1940420  0.3016960  )
        10           O   tau(  10) = (  0.5072240  0.6156870  0.2987420  )

     number of k points=    14
                       cart. coord. in units 2pi/alat
        k(    1) = (   0.0000000   0.0000000   0.0000000), wk =   0.0740741
        k(    2) = (   0.0000000   0.0000000   0.3711728), wk =   0.1481481
        k(    3) = (   0.0000000   0.3842756  -0.1258007), wk =   0.1481481
        k(    4) = (   0.0000000   0.3842756   0.2453721), wk =   0.1481481
        k(    5) = (   0.0000000   0.3842756  -0.4969735), wk =   0.1481481
        k(    6) = (   0.3333333   0.1914272  -0.2443806), wk =   0.1481481
        k(    7) = (   0.3333333   0.1914272   0.1267922), wk =   0.1481481
        k(    8) = (   0.3333333   0.1914272  -0.6155534), wk =   0.1481481
        k(    9) = (   0.3333333   0.5757028  -0.3701813), wk =   0.1481481
        k(   10) = (   0.3333333   0.5757028   0.0009915), wk =   0.1481481
        k(   11) = (   0.3333333   0.5757028  -0.7413541), wk =   0.1481481
        k(   12) = (   0.3333333  -0.1928484  -0.1185800), wk =   0.1481481
        k(   13) = (   0.3333333  -0.1928484   0.2525928), wk =   0.1481481
        k(   14) = (   0.3333333  -0.1928484  -0.4897528), wk =   0.1481481

                       cryst. coord.
        k(    1) = (   0.0000000   0.0000000   0.0000000), wk =   0.0740741
        k(    2) = (   0.0000000   0.0000000   0.3333333), wk =   0.1481481
        k(    3) = (   0.0000000   0.3333333   0.0000000), wk =   0.1481481
        k(    4) = (   0.0000000   0.3333333   0.3333333), wk =   0.1481481
        k(    5) = (   0.0000000   0.3333333  -0.3333333), wk =   0.1481481
        k(    6) = (   0.3333333  -0.0000000   0.0000000), wk =   0.1481481
        k(    7) = (   0.3333333  -0.0000000   0.3333333), wk =   0.1481481
        k(    8) = (   0.3333333  -0.0000000  -0.3333333), wk =   0.1481481
        k(    9) = (   0.3333333   0.3333333   0.0000000), wk =   0.1481481
        k(   10) = (   0.3333333   0.3333333   0.3333333), wk =   0.1481481
        k(   11) = (   0.3333333   0.3333333  -0.3333333), wk =   0.1481481
        k(   12) = (   0.3333333  -0.3333333   0.0000000), wk =   0.1481481
        k(   13) = (   0.3333333  -0.3333333   0.3333333), wk =   0.1481481
        k(   14) = (   0.3333333  -0.3333333  -0.3333333), wk =   0.1481481

     Check: negative core charge=   -0.000058

     Initial potential from superposition of free atoms

     starting charge      69.8974, renormalised to      70.0000

     negative rho (up, down):  6.252E-02 0.000E+00
     Starting wfcs are   58 randomized atomic wfcs +    6 random wfcs
     Checking if some PAW data can be deallocated...

     Self-consistent Calculation

     iteration #  1     ecut=    30.00 Ry     beta= 0.70
     Davidson diagonalization with overlap

     ethr =  1.00E-02,  avg # of iterations =  5.6

     negative rho (up, down):  5.875E-02 0.000E+00

     total energy              =    -804.21480159 Ry
     estimated scf accuracy    <       2.78357623 Ry

[...]

     total energy              =    -805.61528936 Ry
     estimated scf accuracy    <       0.00000165 Ry

     iteration # 14     ecut=    30.00 Ry     beta= 0.70
     Davidson diagonalization with overlap

     ethr =  2.36E-09,  avg # of iterations =  1.6

     negative rho (up, down):  5.985E-02 0.000E+00

     End of self-consistent calculation

          k = 0.0000 0.0000 0.0000 (  2107 PWs)   bands (ev):

   -77.7453 -67.3231 -43.4000 -43.3971 -43.2453 -31.5407 -31.5291 -31.5032
   -10.7330  -9.7132  -9.6726  -9.1221  -8.9541  -8.9346   2.0115   2.5477
     2.5726   2.8044   2.9840   3.0099   4.2159   4.2372   4.4539   4.7697
     5.7149   6.0034   6.0474   6.1609   6.1994   6.5782   6.6445   6.6700
     8.4336   8.4762   8.7221   9.6037   9.6628  10.4185  11.1516  11.2037
    12.4476  15.5017  15.6028  16.5708  18.2011  19.1158  19.4097  19.4995
    19.5739  19.8892  19.9721  20.1358  20.6880  20.7691  21.9991  22.1094
    22.4895  24.6232  25.3460  25.7735  25.8793  27.0836  27.1242  28.3864

     occupation numbers
     1.0000   1.0000   1.0000   1.0000   1.0000   1.0000   1.0000   1.0000
     1.0000   1.0000   1.0000   1.0000   1.0000   1.0000   1.0000   1.0000
     1.0000   1.0000   1.0000   1.0000   1.0000   1.0000   1.0000   1.0000
     1.0000   1.0000   1.0000   1.0000   1.0000   1.0000   1.0000   1.0000
     1.0000   1.0000   1.0000   0.0000   0.0000   0.0000   0.0000   0.0000
     0.0000   0.0000   0.0000   0.0000   0.0000   0.0000   0.0000   0.0000
     0.0000   0.0000   0.0000   0.0000   0.0000   0.0000   0.0000   0.0000
     0.0000   0.0000   0.0000   0.0000   0.0000   0.0000   0.0000   0.0000

[...]

          k = 0.3333-0.1928-0.4898 (  2101 PWs)   bands (ev):

   -77.7449 -67.3231 -43.3970 -43.3910 -43.2476 -31.5409 -31.5296 -31.5034
   -10.2144  -9.8350  -9.6966  -9.2924  -9.1575  -9.0540   2.1712   2.4860
     2.7087   2.9559   3.2067   3.3744   4.1752   4.4738   4.8025   5.0162
     5.2936   5.4165   5.5189   5.7348   6.0295   6.2284   6.3942   6.5378
     8.5150   8.6026   8.7853   9.8068  10.0990  10.6597  10.8112  11.1176
    14.3857  14.9504  15.8347  16.8314  17.2140  17.7741  18.3767  19.4703
    19.6208  19.6605  20.3664  21.2076  21.6052  22.3472  22.7535  23.0020
    23.1760  23.4283  24.2049  24.7149  25.1628  25.7229  26.5612  27.2135

     occupation numbers
     1.0000   1.0000   1.0000   1.0000   1.0000   1.0000   1.0000   1.0000
     1.0000   1.0000   1.0000   1.0000   1.0000   1.0000   1.0000   1.0000
     1.0000   1.0000   1.0000   1.0000   1.0000   1.0000   1.0000   1.0000
     1.0000   1.0000   1.0000   1.0000   1.0000   1.0000   1.0000   1.0000
     1.0000   1.0000   1.0000   0.0000   0.0000   0.0000   0.0000   0.0000
     0.0000   0.0000   0.0000   0.0000   0.0000   0.0000   0.0000   0.0000
     0.0000   0.0000   0.0000   0.0000   0.0000   0.0000   0.0000   0.0000
     0.0000   0.0000   0.0000   0.0000   0.0000   0.0000   0.0000   0.0000

     highest occupied, lowest unoccupied level (ev):     8.7853    9.5425

!    total energy              =    -805.61528974 Ry
     estimated scf accuracy    <       0.00000012 Ry

     The total energy is the sum of the following terms:
     one-electron contribution =    -311.09805605 Ry
     hartree contribution      =     191.73240673 Ry
     xc contribution           =    -123.96137140 Ry
     ewald contribution        =    -366.54149562 Ry
     one-center paw contrib.   =    -195.74677339 Ry
      -> PAW hartree energy AE =       1.64027930 Ry
      -> PAW hartree energy PS =      -1.63786399 Ry
      -> PAW xc energy AE      =     -65.21221426 Ry
      -> PAW xc energy PS      =       2.65156315 Ry
      -> total E_H with PAW    =     191.73482203 Ry
      -> total E_XC with PAW   =    -186.52202251 Ry

     convergence has been achieved in  14 iterations

     Writing all to output data dir calculations_bands/myprefix.save/

     General routines

     Parallel routines

     PAW routines

   This run was terminated on:  22:59:25   4Jun2023

   JOB DONE.