     Program PWSCF v.7.1 starts on 16Jul2023 at 21:35:55

     Reading input from espresso_17185.pwi
Warning: card &CELL ignored
Warning: card / ignored

     Current dimensions of program PWSCF are:
     Max number of different atomic species (ntypx) = 10
     Max number of k-points (npk) =  40000
     Max angular momentum in pseudopotentials (lmaxx) =  4
     file Ba.pbe-spn-kjpaw_psl.1.0.0.UPF: wavefunction(s)  5S 6S renormalized
     Message from routine setup:
     using ibrav=0 with symmetry is DISCOURAGED, use correct ibrav instead

     K-points division:     npool     =       2
     R & G space division:  proc/nbgrp/npool/nimage =       4
     Subspace diagonalization in iterative solution of the eigenvalue problem:
     one sub-group per band group will be used

     Using Slab Decomposition

     bravais-lattice index     =            0
     lattice parameter (alat)  =      14.5409  a.u.
     unit-cell volume          =    5871.6798 (a.u.)^3
     number of atoms/cell      =           18
     number of atomic types    =            3
     number of electrons       =       144.00
     number of Kohn-Sham states=          256
     kinetic-energy cutoff     =      30.0000  Ry
     charge density cutoff     =     240.0000  Ry
     scf convergence threshold =      1.0E-06
     mixing beta               =       0.7000
     number of iterations used =            8  plain     mixing
     Exchange-correlation= SLA  PW   PBX  PBC
                           (   1   4   3   4   0   0   0)

     celldm(1)=  14.540879  celldm(2)=   0.000000  celldm(3)=   0.000000
     celldm(4)=   0.000000  celldm(5)=   0.000000  celldm(6)=   0.000000

     crystal axes: (cart. coord. in units of alat)
               a(1) = (   1.000000   0.000000   0.000000 )
               a(2) = (   0.000000   1.000000   0.000000 )
               a(3) = (   0.000000   0.000000   1.909811 )

     reciprocal axes: (cart. coord. in units 2 pi/alat)
               b(1) = (  1.000000  0.000000  0.000000 )
               b(2) = (  0.000000  1.000000  0.000000 )
               b(3) = (  0.000000  0.000000  0.523612 )

     PseudoPot. # 1 for Ba read from file:
     /lustre07/scratch/pragov/crystal_structure_design/utils/SSSP/Ba.pbe-spn-kjpaw_psl.1.0.0.UPF
     MD5 check sum: c432291d3e53af55f19d5e8866385beb
     Pseudo is Projector augmented-wave + core cor, Zval = 10.0
     Generated using "atomic" code by A. Dal Corso  v.5.1
     Shape of augmentation charge: PSQ
     Using radial grid of 1251 points,  7 beta functions with:
                l(1) =   0
                l(2) =   0
                l(3) =   0
                l(4) =   1
                l(5) =   1
                l(6) =   2
                l(7) =   2
     Q(r) pseudized with 0 coefficients

     PseudoPot. # 2 for Ca read from file:
     /lustre07/scratch/pragov/crystal_structure_design/utils/SSSP/Ca_pbe_v1.uspp.F.UPF
     MD5 check sum: 403a4c14b9e4d4dfdc3024c9a3812218
     Pseudo is Ultrasoft + core correction, Zval = 10.0
     Generated by new atomic code, or converted to UPF format
     Using radial grid of  845 points,  6 beta functions with:
                l(1) =   0
                l(2) =   0
                l(3) =   1
                l(4) =   1
                l(5) =   2
                l(6) =   2
     Q(r) pseudized with  8 coefficients,  rinner =    1.500   1.500   1.500
                                                       1.500   1.500

     PseudoPot. # 3 for I  read from file:
     /lustre07/scratch/pragov/crystal_structure_design/utils/SSSP/I.pbe-n-kjpaw_psl.0.2.UPF
     MD5 check sum: d4ef18d9c8f18dc85e5843bca1e50dc0
     Pseudo is Projector augmented-wave + core cor, Zval =  7.0
     Generated using "atomic" code by A. Dal Corso  v.5.0.99 svn rev. 10869
     Shape of augmentation charge: PSQ
     Using radial grid of 1247 points,  4 beta functions with:
                l(1) =   0
                l(2) =   0
                l(3) =   1
                l(4) =   1
     Q(r) pseudized with 0 coefficients

     atomic species   valence    mass     pseudopotential
        Ba            10.00   137.32700     Ba( 1.00)
        Ca            10.00    40.07800     Ca( 1.00)
        I              7.00   126.90447     I ( 1.00)

     16 Sym. Ops., with inversion, found ( 8 have fractional translation)

                                    s                        frac. trans.

      isym =  1     identity

 cryst.   s( 1) = (     1          0          0      )
                  (     0          1          0      )
                  (     0          0          1      )

 cart.    s( 1) = (  1.0000000  0.0000000  0.0000000 )
                  (  0.0000000  1.0000000  0.0000000 )
                  (  0.0000000  0.0000000  1.0000000 )

      isym =  2     180 deg rotation - cart. axis [0,0,1]

[...]

 cryst.   s( 3) = (    -1          0          0      )    f =(  0.5000000 )
                  (     0          1          0      )       ( -0.5000000 )
                  (     0          0         -1      )       ( -0.5000000 )

 cart.    s( 3) = ( -1.0000000  0.0000000  0.0000000 )    f =(  0.5000000 )
                  (  0.0000000  1.0000000  0.0000000 )       ( -0.5000000 )
                  (  0.0000000  0.0000000 -1.0000000 )       ( -0.9549054 )

[...]

      isym =  8      90 deg rotation - cart. axis [0,0,1]

 cryst.   s( 8) = (     0          1          0      )    f =(  0.5000000 )
                  (    -1          0          0      )       ( -0.5000000 )
                  (     0          0          1      )       (  0.5000000 )

 cart.    s( 8) = (  0.0000000 -1.0000000  0.0000000 )    f =(  0.5000000 )
                  (  1.0000000  0.0000000  0.0000000 )       ( -0.5000000 )
                  (  0.0000000  0.0000000  1.0000000 )       (  0.9549054 )

      isym =  9     inversion

 cryst.   s( 9) = (    -1          0          0      )
                  (     0         -1          0      )
                  (     0          0         -1      )

 cart.    s( 9) = ( -1.0000000  0.0000000  0.0000000 )
                  (  0.0000000 -1.0000000  0.0000000 )
                  (  0.0000000  0.0000000 -1.0000000 )

      isym = 10     inv. 180 deg rotation - cart. axis [0,0,1]

 cryst.   s(10) = (     1          0          0      )
                  (     0          1          0      )
                  (     0          0         -1      )

 cart.    s(10) = (  1.0000000  0.0000000  0.0000000 )
                  (  0.0000000  1.0000000  0.0000000 )
                  (  0.0000000  0.0000000 -1.0000000 )

[...]

 cryst.   s(11) = (     1          0          0      )    f =( -0.5000000 )
                  (     0         -1          0      )       (  0.5000000 )
                  (     0          0          1      )       (  0.5000000 )

 cart.    s(11) = (  1.0000000  0.0000000  0.0000000 )    f =( -0.5000000 )
                  (  0.0000000 -1.0000000  0.0000000 )       (  0.5000000 )
                  (  0.0000000  0.0000000  1.0000000 )       (  0.9549054 )

[...]

 cryst.   s(14) = (     0          1          0      )
                  (     1          0          0      )
                  (     0          0          1      )

 cart.    s(14) = (  0.0000000  1.0000000  0.0000000 )
                  (  1.0000000  0.0000000  0.0000000 )
                  (  0.0000000  0.0000000  1.0000000 )

[...]

      isym = 16     inv.  90 deg rotation - cart. axis [0,0,1]

 cryst.   s(16) = (     0         -1          0      )    f =( -0.5000000 )
                  (     1          0          0      )       (  0.5000000 )
                  (     0          0         -1      )       ( -0.5000000 )

 cart.    s(16) = (  0.0000000  1.0000000  0.0000000 )    f =( -0.5000000 )
                  ( -1.0000000  0.0000000  0.0000000 )       (  0.5000000 )
                  (  0.0000000  0.0000000 -1.0000000 )       ( -0.9549054 )

   Cartesian axes

     site n.     atom                  positions (alat units)
         1           Ba  tau(   1) = (   0.0000000   0.0000000   0.0000000  )
         2           Ba  tau(   2) = (   0.5000000   0.5000000   0.9549054  )
         3           Ca  tau(   3) = (   0.0000000   0.0000000   0.6336733  )
         4           Ca  tau(   4) = (   0.0000000   0.0000000   1.2761375  )
         5           Ca  tau(   5) = (   0.5000000   0.5000000   0.3212321  )
         6           Ca  tau(   6) = (   0.5000000   0.5000000   1.5885787  )
         7           I   tau(   7) = (   0.2051760   0.7948240   0.3432847  )
         8           I   tau(   8) = (   0.2051760   0.7948240   1.5665261  )
         9           I   tau(   9) = (   0.1823590   0.8176410   0.9549054  )
        10           I   tau(  10) = (   0.3176410   0.3176410   0.0000000  )
        11           I   tau(  11) = (   0.2948240   0.2948240   0.6116207  )
        12           I   tau(  12) = (   0.2948240   0.2948240   1.2981901  )
        13           I   tau(  13) = (   0.7051760   0.7051760   0.6116207  )
        14           I   tau(  14) = (   0.7051760   0.7051760   1.2981901  )
        15           I   tau(  15) = (   0.6823590   0.6823590   0.0000000  )
        16           I   tau(  16) = (   0.8176410   0.1823590   0.9549054  )
        17           I   tau(  17) = (   0.7948240   0.2051760   0.3432847  )
        18           I   tau(  18) = (   0.7948240   0.2051760   1.5665261  )

   Crystallographic axes

     site n.     atom                  positions (cryst. coord.)
         1           Ba  tau(   1) = (  0.0000000  0.0000000  0.0000000  )
         2           Ba  tau(   2) = (  0.5000000  0.5000000  0.5000000  )
         3           Ca  tau(   3) = (  0.0000000  0.0000000  0.3317990  )
         4           Ca  tau(   4) = (  0.0000000  0.0000000  0.6682010  )
         5           Ca  tau(   5) = (  0.5000000  0.5000000  0.1682010  )
         6           Ca  tau(   6) = (  0.5000000  0.5000000  0.8317990  )
         7           I   tau(   7) = (  0.2051760  0.7948240  0.1797480  )
         8           I   tau(   8) = (  0.2051760  0.7948240  0.8202520  )
         9           I   tau(   9) = (  0.1823590  0.8176410  0.5000000  )
        10           I   tau(  10) = (  0.3176410  0.3176410  0.0000000  )
        11           I   tau(  11) = (  0.2948240  0.2948240  0.3202520  )
        12           I   tau(  12) = (  0.2948240  0.2948240  0.6797480  )
        13           I   tau(  13) = (  0.7051760  0.7051760  0.3202520  )
        14           I   tau(  14) = (  0.7051760  0.7051760  0.6797480  )
        15           I   tau(  15) = (  0.6823590  0.6823590  0.0000000  )
        16           I   tau(  16) = (  0.8176410  0.1823590  0.5000000  )
        17           I   tau(  17) = (  0.7948240  0.2051760  0.1797480  )
        18           I   tau(  18) = (  0.7948240  0.2051760  0.8202520  )

     number of k points=     6
                       cart. coord. in units 2pi/alat
        k(    1) = (   0.0000000   0.0000000   0.0000000), wk =   0.0740741
        k(    2) = (   0.0000000   0.0000000   0.1745374), wk =   0.1481481
        k(    3) = (   0.0000000   0.3333333   0.0000000), wk =   0.2962963
        k(    4) = (   0.0000000   0.3333333   0.1745374), wk =   0.5925926
        k(    5) = (   0.3333333   0.3333333   0.0000000), wk =   0.2962963
        k(    6) = (   0.3333333   0.3333333   0.1745374), wk =   0.5925926

                       cryst. coord.
        k(    1) = (   0.0000000   0.0000000   0.0000000), wk =   0.0740741
        k(    2) = (   0.0000000   0.0000000   0.3333333), wk =   0.1481481
        k(    3) = (   0.0000000   0.3333333   0.0000000), wk =   0.2962963
        k(    4) = (   0.0000000   0.3333333   0.3333333), wk =   0.5925926
        k(    5) = (   0.3333333   0.3333333   0.0000000), wk =   0.2962963
        k(    6) = (   0.3333333   0.3333333   0.3333333), wk =   0.5925926

     Check: negative core charge=   -0.000001

     Initial potential from superposition of free atoms

     starting charge     143.9433, renormalised to     144.0000
     Starting wfcs are   98 randomized atomic wfcs +  158 random wfcs
     Checking if some PAW data can be deallocated...

     Self-consistent Calculation

     iteration #  1     ecut=    30.00 Ry     beta= 0.70
     Davidson diagonalization with overlap

     ethr =  1.00E-02,  avg # of iterations =  7.0

     Threshold (ethr) on eigenvalues was too large:
     Diagonalizing with lowered threshold

     Davidson diagonalization with overlap

[...]

     total energy              =   -5721.15597133 Ry
     estimated scf accuracy    <       0.17170203 Ry

[...]

     total energy              =   -5721.19088057 Ry
     estimated scf accuracy    <       0.00000553 Ry

     iteration #  7     ecut=    30.00 Ry     beta= 0.70
     Davidson diagonalization with overlap

     ethr =  3.84E-09,  avg # of iterations =  3.7

     End of self-consistent calculation

          k = 0.0000 0.0000 0.0000 ( 16273 PWs)   bands (ev):

   -38.3951 -38.3951 -38.3950 -38.3950 -24.9177 -24.9177 -19.3868 -19.3868
   -19.3865 -19.3865 -19.3833 -19.3828 -19.3770 -19.3769 -19.3769 -19.3765
   -19.3753 -19.3753 -10.3010 -10.2755 -10.2531 -10.2531 -10.2242 -10.2242
    -9.3354  -9.2126  -9.0879  -9.0102  -9.0102  -8.9950  -8.9791  -8.8683
    -8.8683  -8.8516  -8.8516  -8.7796  -0.8169  -0.6210  -0.3342  -0.0274
     0.2589   0.2885   0.3018   0.3248   0.3385   0.3385   0.3428   0.3428
     0.3486   0.4393   0.5683   0.5694   0.5694   0.6044   0.7169   0.7169
     0.7956   0.7956   0.8551   0.9064   1.1960   1.1960   1.2765   1.2765
     1.4323   1.4515   1.4515   1.4576   1.7115   1.7115   1.7181   1.9597
     5.4287   5.6924   5.8037   6.0415   6.0644   6.1091   6.2139   6.2148
     6.2148   6.2533   6.3182   6.3182   6.3785   6.3785   6.4029   6.5310
     6.6496   6.7744   6.8048   6.9803   7.0059   7.0506   7.1487   7.1487
     7.3162   7.3692   7.4847   7.4847   7.5887   7.5981   7.5981   7.8573
     7.8573   8.0580   8.1369   8.2664   8.4842   8.5237   8.9128   9.1103
     9.2797   9.2797   9.3886   9.3886   9.4671   9.5136   9.6751   9.6937
     9.7876   9.8349   9.8610   9.8615   9.8615  10.1345  10.1345  10.3288
    10.3288  10.4007  10.5733  10.5995  10.6604  10.7320  11.2389  11.2928
    11.2928  11.3691  11.5449  11.6526  11.6526  11.7205  11.7938  11.7938
    11.9858  11.9858  11.9967  12.1726  12.2609  12.2609  12.3032  12.3658
    12.4936  12.4936  12.5086  12.8167  12.8167  12.8408  13.0781  13.0781
    13.2077  13.2077  13.2183  13.2460  13.3490  13.3680  13.5123  13.7323
    13.7824  13.8709  13.8709  14.0302  14.1765  14.1777  14.1777  14.4896
    14.4896  14.4976  14.8333  14.8333  14.8613  14.9575  14.9575  15.0633
    15.2849  15.3524  15.3803  15.4601  15.4958  15.6158  15.6158  15.7356
    15.7649  15.7649  15.8028  15.9302  16.4014  16.5575  16.6972  16.7404
    16.8869  16.9203  16.9203  16.9708  16.9708  17.2838  17.2850  17.2869
    17.3618  17.3618  17.6058  17.6178  17.6178  17.8577  17.8577  18.0242
    18.0242  18.0609  18.2168  18.2182  18.2182  18.3020  18.3557  18.7926
    18.7926  18.7932  18.9599  19.1969  19.1969  19.2954  19.4162  19.6609
    19.7320  19.7425  19.7425  19.7735  19.7735  19.8517  20.0056  20.0278
    20.1660  20.3980  20.4064  20.4823  20.7007  20.7007  20.9736  20.9736
    21.0309  21.0541  21.0541  21.1319  21.2686  21.2686  21.4023  21.5218

     occupation numbers
     1.0000   1.0000   1.0000   1.0000   1.0000   1.0000   1.0000   1.0000
     1.0000   1.0000   1.0000   1.0000   1.0000   1.0000   1.0000   1.0000
     1.0000   1.0000   1.0000   1.0000   1.0000   1.0000   1.0000   1.0000
     1.0000   1.0000   1.0000   1.0000   1.0000   1.0000   1.0000   1.0000
     1.0000   1.0000   1.0000   1.0000   1.0000   1.0000   1.0000   1.0000
     1.0000   1.0000   1.0000   1.0000   1.0000   1.0000   1.0000   1.0000
     1.0000   1.0000   1.0000   1.0000   1.0000   1.0000   1.0000   1.0000
     1.0000   1.0000   1.0000   1.0000   1.0000   1.0000   1.0000   1.0000
     1.0000   1.0000   1.0000   1.0000   1.0000   1.0000   1.0000   1.0000
     0.0000   0.0000   0.0000   0.0000   0.0000   0.0000   0.0000   0.0000
     0.0000   0.0000   0.0000   0.0000   0.0000   0.0000   0.0000   0.0000
     0.0000   0.0000   0.0000   0.0000   0.0000   0.0000   0.0000   0.0000
     0.0000   0.0000   0.0000   0.0000   0.0000   0.0000   0.0000   0.0000
     0.0000   0.0000   0.0000   0.0000   0.0000   0.0000   0.0000   0.0000
     0.0000   0.0000   0.0000   0.0000   0.0000   0.0000   0.0000   0.0000
     0.0000   0.0000   0.0000   0.0000   0.0000   0.0000   0.0000   0.0000
     0.0000   0.0000   0.0000   0.0000   0.0000   0.0000   0.0000   0.0000
     0.0000   0.0000   0.0000   0.0000   0.0000   0.0000   0.0000   0.0000
     0.0000   0.0000   0.0000   0.0000   0.0000   0.0000   0.0000   0.0000
     0.0000   0.0000   0.0000   0.0000   0.0000   0.0000   0.0000   0.0000
     0.0000   0.0000   0.0000   0.0000   0.0000   0.0000   0.0000   0.0000
     0.0000   0.0000   0.0000   0.0000   0.0000   0.0000   0.0000   0.0000
     0.0000   0.0000   0.0000   0.0000   0.0000   0.0000   0.0000   0.0000
     0.0000   0.0000   0.0000   0.0000   0.0000   0.0000   0.0000   0.0000
     0.0000   0.0000   0.0000   0.0000   0.0000   0.0000   0.0000   0.0000
     0.0000   0.0000   0.0000   0.0000   0.0000   0.0000   0.0000   0.0000
     0.0000   0.0000   0.0000   0.0000   0.0000   0.0000   0.0000   0.0000
     0.0000   0.0000   0.0000   0.0000   0.0000   0.0000   0.0000   0.0000
     0.0000   0.0000   0.0000   0.0000   0.0000   0.0000   0.0000   0.0000
     0.0000   0.0000   0.0000   0.0000   0.0000   0.0000   0.0000   0.0000
     0.0000   0.0000   0.0000   0.0000   0.0000   0.0000   0.0000   0.0000
     0.0000   0.0000   0.0000   0.0000   0.0000   0.0000   0.0000   0.0000

[...]

          k = 0.3333 0.3333 0.1745 ( 16270 PWs)   bands (ev):

   -38.3951 -38.3951 -38.3950 -38.3950 -24.9177 -24.9177 -19.3868 -19.3868
   -19.3866 -19.3865 -19.3831 -19.3829 -19.3771 -19.3769 -19.3767 -19.3767
   -19.3753 -19.3752 -10.2882 -10.2849 -10.2636 -10.2555 -10.2265 -10.2254
    -9.2179  -9.1538  -9.0992  -9.0791  -9.0184  -9.0145  -8.9339  -8.9097
    -8.8747  -8.8616  -8.8560  -8.8364  -0.4691  -0.4549  -0.3954  -0.3033
    -0.1603  -0.0721   0.1500   0.1589   0.2873   0.3616   0.4076   0.4434
     0.4726   0.6067   0.6406   0.7035   0.7371   0.8032   0.8633   0.9063
     0.9417   0.9887   1.0074   1.0216   1.1028   1.1815   1.2913   1.3076
     1.3234   1.4157   1.4449   1.4457   1.4818   1.4899   1.6221   1.6497
     5.6592   5.8401   5.8764   5.9494   6.0563   6.0643   6.1224   6.2117
     6.2269   6.2834   6.4332   6.5157   6.5252   6.5778   6.6043   6.6159
     6.7207   6.7335   6.8410   6.8433   6.8766   6.9067   6.9553   7.1047
     7.1242   7.3261   7.3690   7.5185   7.6559   7.6789   7.8753   8.0044
     8.0287   8.1726   8.2567   8.2783   8.3759   8.5183   8.5369   8.6336
     8.7813   8.9068   9.0153   9.0884   9.2074   9.4336   9.4927   9.6811
     9.7118   9.7190   9.7528   9.8496  10.0029  10.1313  10.1440  10.3349
    10.3631  10.4915  10.5140  10.5963  10.7170  10.7872  10.8254  10.9333
    10.9637  11.0882  11.1465  11.3011  11.3502  11.3963  11.5128  11.6037
    11.6765  11.8267  11.8945  12.0469  12.1870  12.3052  12.3206  12.5245
    12.6511  12.8591  12.9211  12.9557  13.0575  13.0947  13.2747  13.3415
    13.3784  13.4554  13.5129  13.6123  13.6218  13.7903  13.8569  13.9525
    14.0719  14.1537  14.2912  14.3400  14.4009  14.5637  14.6604  14.8089
    14.8664  15.0172  15.0580  15.1844  15.2249  15.2577  15.3019  15.3120
    15.4649  15.5121  15.6058  15.7039  15.7709  16.0514  16.1336  16.3013
    16.3362  16.4523  16.5435  16.5928  16.6385  16.6761  16.7661  16.8845
    16.9013  16.9277  17.0421  17.1361  17.2371  17.2739  17.3774  17.3968
    17.4936  17.5187  17.6188  17.6570  17.6874  17.7146  17.8963  17.8973
    17.9863  18.0923  18.1644  18.1941  18.3094  18.4510  18.4616  18.5035
    18.6637  18.7496  18.8595  18.9233  18.9288  19.1158  19.1720  19.2428
    19.2620  19.4547  19.5030  19.5203  19.6184  19.6429  19.7190  19.8056
    19.8715  19.9182  20.0414  20.0815  20.0983  20.1724  20.1882  20.2563
    20.3167  20.3788  20.4616  20.4835  20.5869  20.6955  20.7865  20.8378

     occupation numbers
     1.0000   1.0000   1.0000   1.0000   1.0000   1.0000   1.0000   1.0000
     1.0000   1.0000   1.0000   1.0000   1.0000   1.0000   1.0000   1.0000
     1.0000   1.0000   1.0000   1.0000   1.0000   1.0000   1.0000   1.0000
     1.0000   1.0000   1.0000   1.0000   1.0000   1.0000   1.0000   1.0000
     1.0000   1.0000   1.0000   1.0000   1.0000   1.0000   1.0000   1.0000
     1.0000   1.0000   1.0000   1.0000   1.0000   1.0000   1.0000   1.0000
     1.0000   1.0000   1.0000   1.0000   1.0000   1.0000   1.0000   1.0000
     1.0000   1.0000   1.0000   1.0000   1.0000   1.0000   1.0000   1.0000
     1.0000   1.0000   1.0000   1.0000   1.0000   1.0000   1.0000   1.0000
     0.0000   0.0000   0.0000   0.0000   0.0000   0.0000   0.0000   0.0000
     0.0000   0.0000   0.0000   0.0000   0.0000   0.0000   0.0000   0.0000
     0.0000   0.0000   0.0000   0.0000   0.0000   0.0000   0.0000   0.0000
     0.0000   0.0000   0.0000   0.0000   0.0000   0.0000   0.0000   0.0000
     0.0000   0.0000   0.0000   0.0000   0.0000   0.0000   0.0000   0.0000
     0.0000   0.0000   0.0000   0.0000   0.0000   0.0000   0.0000   0.0000
     0.0000   0.0000   0.0000   0.0000   0.0000   0.0000   0.0000   0.0000
     0.0000   0.0000   0.0000   0.0000   0.0000   0.0000   0.0000   0.0000
     0.0000   0.0000   0.0000   0.0000   0.0000   0.0000   0.0000   0.0000
     0.0000   0.0000   0.0000   0.0000   0.0000   0.0000   0.0000   0.0000
     0.0000   0.0000   0.0000   0.0000   0.0000   0.0000   0.0000   0.0000
     0.0000   0.0000   0.0000   0.0000   0.0000   0.0000   0.0000   0.0000
     0.0000   0.0000   0.0000   0.0000   0.0000   0.0000   0.0000   0.0000
     0.0000   0.0000   0.0000   0.0000   0.0000   0.0000   0.0000   0.0000
     0.0000   0.0000   0.0000   0.0000   0.0000   0.0000   0.0000   0.0000
     0.0000   0.0000   0.0000   0.0000   0.0000   0.0000   0.0000   0.0000
     0.0000   0.0000   0.0000   0.0000   0.0000   0.0000   0.0000   0.0000
     0.0000   0.0000   0.0000   0.0000   0.0000   0.0000   0.0000   0.0000
     0.0000   0.0000   0.0000   0.0000   0.0000   0.0000   0.0000   0.0000
     0.0000   0.0000   0.0000   0.0000   0.0000   0.0000   0.0000   0.0000
     0.0000   0.0000   0.0000   0.0000   0.0000   0.0000   0.0000   0.0000
     0.0000   0.0000   0.0000   0.0000   0.0000   0.0000   0.0000   0.0000
     0.0000   0.0000   0.0000   0.0000   0.0000   0.0000   0.0000   0.0000

     highest occupied, lowest unoccupied level (ev):     1.9597    5.4287

!    total energy              =   -5721.19088170 Ry
     estimated scf accuracy    <       0.00000046 Ry

     The total energy is the sum of the following terms:
     one-electron contribution =    -254.38948667 Ry
     hartree contribution      =     171.27472195 Ry
     xc contribution           =    -589.21526450 Ry
     ewald contribution        =    -452.63961326 Ry
     one-center paw contrib.   =   -4596.22123923 Ry
      -> PAW hartree energy AE =      57.07962397 Ry
      -> PAW hartree energy PS =     -56.85709137 Ry
      -> PAW xc energy AE      =    -788.40003609 Ry
      -> PAW xc energy PS      =      38.27159315 Ry
      -> total E_H with PAW    =     171.49725455 Ry
      -> total E_XC with PAW   =   -1339.34370744 Ry

     convergence has been achieved in   7 iterations

     Writing all to output data dir bands_nm/myprefix.save/

     General routines

     Parallel routines

     PAW routines

   This run was terminated on:  21:38: 5  16Jul2023

   JOB DONE.