     Program PWSCF v.7.1 starts on 15Jul2023 at 18: 9:26

     Reading input from espresso_18534.pwi
Warning: card &CELL ignored
Warning: card / ignored

     Current dimensions of program PWSCF are:
     Max number of different atomic species (ntypx) = 10
     Max number of k-points (npk) =  40000
     Max angular momentum in pseudopotentials (lmaxx) =  4
     Message from routine setup:
     using ibrav=0 with symmetry is DISCOURAGED, use correct ibrav instead

     K-points division:     npool     =       2
     R & G space division:  proc/nbgrp/npool/nimage =       4
     Subspace diagonalization in iterative solution of the eigenvalue problem:
     one sub-group per band group will be used

     Using Slab Decomposition

     bravais-lattice index     =            0
     lattice parameter (alat)  =       7.8411  a.u.
     unit-cell volume          =    2502.4222 (a.u.)^3
     number of atoms/cell      =           14
     number of atomic types    =            4
     number of electrons       =       148.00
     number of Kohn-Sham states=          256
     kinetic-energy cutoff     =      30.0000  Ry
     charge density cutoff     =     240.0000  Ry
     scf convergence threshold =      1.0E-06
     mixing beta               =       0.7000
     number of iterations used =            8  plain     mixing
     Exchange-correlation=  SLA  PW   PBX  PBC
                           (   1   4   3   4   0   0   0)

     celldm(1)=   7.841069  celldm(2)=   0.000000  celldm(3)=   0.000000
     celldm(4)=   0.000000  celldm(5)=   0.000000  celldm(6)=   0.000000

     crystal axes: (cart. coord. in units of alat)
               a(1) = (   1.000000   0.000000   0.000000 )
               a(2) = (   0.000000   1.964209   0.000000 )
               a(3) = (   0.000000   0.668360   2.642695 )

     reciprocal axes: (cart. coord. in units 2 pi/alat)
               b(1) = (  1.000000  0.000000  0.000000 )
               b(2) = (  0.000000  0.509111 -0.128759 )
               b(3) = (  0.000000  0.000000  0.378402 )

     PseudoPot. # 1 for Ag read from file:
     /lustre07/scratch/pragov/crystal_structure_design/utils/SSSP/Ag_ONCV_PBE-1.0.oncvpsp.upf
     MD5 check sum: 94f47bd0669c641108e45594df92fabc
     Pseudo is Norm-conserving, Zval = 19.0
     Generated using ONCVPSP code by D. R. Hamann
     Using radial grid of 1398 points,  6 beta functions with:
                l(1) =   0
                l(2) =   0
                l(3) =   1
                l(4) =   1
                l(5) =   2
                l(6) =   2

     PseudoPot. # 2 for Bi read from file:
     /lustre07/scratch/pragov/crystal_structure_design/utils/SSSP/Bi_pbe_v1.uspp.F.UPF
     MD5 check sum: cceb9f28ec65b6d7ff33140f5b0b1758
     Pseudo is Ultrasoft + core correction, Zval = 15.0
     Generated by new atomic code, or converted to UPF format
     Using radial grid of  899 points,  6 beta functions with:
                l(1) =   0
                l(2) =   0
                l(3) =   1
                l(4) =   1
                l(5) =   2
                l(6) =   2
     Q(r) pseudized with  6 coefficients,  rinner =    1.000   1.000   1.000
                                                       1.000   1.000

     PseudoPot. # 3 for Se read from file:
     /lustre07/scratch/pragov/crystal_structure_design/utils/SSSP/Se_pbe_v1.uspp.F.UPF
     MD5 check sum: 1b3568f3a8ae88f9a2a0ad0698632c85
     Pseudo is Ultrasoft + core correction, Zval =  6.0
     Generated by new atomic code, or converted to UPF format
     Using radial grid of  877 points,  6 beta functions with:
                l(1) =   0
                l(2) =   0
                l(3) =   1
                l(4) =   1
                l(5) =   2
                l(6) =   2
     Q(r) pseudized with  8 coefficients,  rinner =    1.300   1.300   1.300
                                                       1.300   1.300

     PseudoPot. # 4 for Cl read from file:
     /lustre07/scratch/pragov/crystal_structure_design/utils/SSSP/cl_pbe_v1.4.uspp.F.UPF
     MD5 check sum: fc6f6913ecf08c9257cb748ef0700058
     Pseudo is Ultrasoft + core correction, Zval =  7.0
     Generated by new atomic code, or converted to UPF format
     Using radial grid of  909 points,  6 beta functions with:
                l(1) =   0
                l(2) =   0
                l(3) =   1
                l(4) =   1
                l(5) =   2
                l(6) =   2
     Q(r) pseudized with  8 coefficients,  rinner =    1.300   1.300   1.300
                                                       1.300   1.300

     atomic species   valence    mass     pseudopotential
        Ag            19.00   107.86820     Ag( 1.00)
        Bi            15.00   208.98040     Bi( 1.00)
        Se             6.00    78.97100     Se( 1.00)
        Cl             7.00    35.45000     Cl( 1.00)

      4 Sym. Ops., with inversion, found ( 2 have fractional translation)

                                    s                        frac. trans.

      isym =  1     identity

 cryst.   s( 1) = (     1          0          0      )
                  (     0          1          0      )
                  (     0          0          1      )

 cart.    s( 1) = (  1.0000000  0.0000000  0.0000000 )
                  (  0.0000000  1.0000000  0.0000000 )
                  (  0.0000000  0.0000000  1.0000000 )

      isym =  2     180 deg rotation - cart. axis [1,0,0]

 cryst.   s( 2) = (     1          0          0      )    f =(  0.5000000 )
                  (     0         -1          0      )       ( -0.0000000 )
                  (     0          0         -1      )       ( -0.0000000 )

 cart.    s( 2) = (  1.0000000  0.0000000  0.0000000 )    f =(  0.5000000 )
                  (  0.0000000 -1.0000000  0.0000000 )       ( -0.0000000 )
                  (  0.0000000  0.0000000 -1.0000000 )       ( -0.0000000 )

      isym =  3     inversion

 cryst.   s( 3) = (    -1          0          0      )
                  (     0         -1          0      )
                  (     0          0         -1      )

 cart.    s( 3) = ( -1.0000000  0.0000000  0.0000000 )
                  (  0.0000000 -1.0000000  0.0000000 )
                  (  0.0000000  0.0000000 -1.0000000 )

      isym =  4     inv. 180 deg rotation - cart. axis [1,0,0]

 cryst.   s( 4) = (    -1          0          0      )    f =(  0.5000000 )
                  (     0          1          0      )       (  0.0000000 )
                  (     0          0          1      )       (  0.0000000 )

 cart.    s( 4) = ( -1.0000000  0.0000000  0.0000000 )    f =(  0.5000000 )
                  (  0.0000000  1.0000000  0.0000000 )       (  0.0000000 )
                  (  0.0000000  0.0000000  1.0000000 )       (  0.0000000 )

   Cartesian axes

     site n.     atom                  positions (alat units)
         1           Ag  tau(   1) = (   0.7500000   0.4849061   1.5514151  )
         2           Ag  tau(   2) = (   0.2500000   2.1476636   1.0912797  )
         3           Bi  tau(   3) = (   0.2500000   2.2134689   2.4689455  )
         4           Bi  tau(   4) = (   0.7500000   0.4191008   0.1737493  )
         5           Bi  tau(   5) = (   0.7500000   1.4848702   1.7343345  )
         6           Bi  tau(   6) = (   0.2500000   1.1476995   0.9083603  )
         7           Se  tau(   7) = (   0.2500000   2.0081336   1.7587213  )
         8           Se  tau(   8) = (   0.2500000   1.9772661   0.3967689  )
         9           Se  tau(   9) = (   0.2500000   1.0013716   1.5536138  )
        10           Se  tau(  10) = (   0.7500000   1.6311981   1.0890809  )
        11           Se  tau(  11) = (   0.7500000   0.6244361   0.8839735  )
        12           Se  tau(  12) = (   0.7500000   0.6553036   2.2459259  )
        13           Cl  tau(  13) = (   0.2500000   1.3951880   2.3838745  )
        14           Cl  tau(  14) = (   0.7500000   1.2373817   0.2588202  )

   Crystallographic axes

     site n.     atom                  positions (cryst. coord.)
         1           Ag  tau(   1) = (  0.7500000  0.0471130  0.5870580  )
         2           Ag  tau(   2) = (  0.2500000  0.9528870  0.4129420  )
         3           Bi  tau(   3) = (  0.2500000  0.8090030  0.9342530  )
         4           Bi  tau(   4) = (  0.7500000  0.1909970  0.0657470  )
         5           Bi  tau(   5) = (  0.7500000  0.5326530  0.6562750  )
         6           Bi  tau(   6) = (  0.2500000  0.4673470  0.3437250  )
         7           Se  tau(   7) = (  0.2500000  0.7959120  0.6655030  )
         8           Se  tau(   8) = (  0.2500000  0.9555600  0.1501380  )
         9           Se  tau(   9) = (  0.2500000  0.3097680  0.5878900  )
        10           Se  tau(  10) = (  0.7500000  0.6902320  0.4121100  )
        11           Se  tau(  11) = (  0.7500000  0.2040880  0.3344970  )
        12           Se  tau(  12) = (  0.7500000  0.0444400  0.8498620  )
        13           Cl  tau(  13) = (  0.2500000  0.4033610  0.9020620  )
        14           Cl  tau(  14) = (  0.7500000  0.5966390  0.0979380  )

     number of k points=    10
                       cart. coord. in units 2pi/alat
        k(    1) = (   0.0000000   0.0000000   0.0000000), wk =   0.0740741
        k(    2) = (   0.0000000   0.0000000   0.1261339), wk =   0.1481481
        k(    3) = (   0.0000000   0.1697036  -0.0429195), wk =   0.1481481
        k(    4) = (   0.0000000   0.1697036   0.0832144), wk =   0.1481481
        k(    5) = (   0.0000000   0.1697036  -0.1690534), wk =   0.1481481
        k(    6) = (   0.3333333   0.0000000   0.0000000), wk =   0.1481481
        k(    7) = (   0.3333333   0.0000000   0.1261339), wk =   0.2962963
        k(    8) = (   0.3333333   0.1697036  -0.0429195), wk =   0.2962963
        k(    9) = (   0.3333333   0.1697036   0.0832144), wk =   0.2962963
        k(   10) = (   0.3333333   0.1697036  -0.1690534), wk =   0.2962963

                       cryst. coord.
        k(    1) = (   0.0000000   0.0000000   0.0000000), wk =   0.0740741
        k(    2) = (   0.0000000   0.0000000   0.3333333), wk =   0.1481481
        k(    3) = (   0.0000000   0.3333333   0.0000000), wk =   0.1481481
        k(    4) = (   0.0000000   0.3333333   0.3333333), wk =   0.1481481
        k(    5) = (   0.0000000   0.3333333  -0.3333333), wk =   0.1481481
        k(    6) = (   0.3333333   0.0000000   0.0000000), wk =   0.1481481
        k(    7) = (   0.3333333   0.0000000   0.3333333), wk =   0.2962963
        k(    8) = (   0.3333333   0.3333333   0.0000000), wk =   0.2962963
        k(    9) = (   0.3333333   0.3333333   0.3333333), wk =   0.2962963
        k(   10) = (   0.3333333   0.3333333  -0.3333333), wk =   0.2962963

     Check: negative core charge=   -0.000003

     Initial potential from superposition of free atoms

     starting charge     143.9988, renormalised to     148.0000

     negative rho (up, down):  2.092E-01 0.000E+00
     Starting wfcs are   88 randomized atomic wfcs +  168 random wfcs

     Self-consistent Calculation

     iteration #  1     ecut=    30.00 Ry     beta= 0.70
     Davidson diagonalization with overlap

     ethr =  1.00E-02,  avg # of iterations =  7.1

     negative rho (up, down):  2.226E-01 0.000E+00

     total energy              =   -1542.75182464 Ry
     estimated scf accuracy    <     118.69722367 Ry

[...]

     total energy              =   -1643.89299348 Ry
     estimated scf accuracy    <       0.00000224 Ry

     iteration # 18     ecut=    30.00 Ry     beta= 0.70
     Davidson diagonalization with overlap

     ethr =  1.51E-09,  avg # of iterations =  2.2

     negative rho (up, down):  2.021E-01 0.000E+00

     End of self-consistent calculation

          k = 0.0000 0.0000 0.0000 (  6949 PWs)   bands (ev):

   -84.2426 -84.2407 -47.3031 -47.2943 -47.2897 -47.2716 -47.2712 -47.2614
   -15.2423 -15.2392 -15.2337 -15.2281 -15.2238 -15.2197 -15.2140 -15.2128
   -15.2123 -15.2101 -15.1193 -15.1099 -15.1096 -15.1065 -15.1009 -15.0973
   -15.0947 -15.0935 -15.0837 -15.0779  -7.0616  -6.6944  -5.9324  -5.5933
    -5.1127  -4.5944  -4.3428  -4.2889  -2.5348  -2.2447  -1.4642  -1.2991
     3.1489   3.5903   3.7267   3.8670   3.8676   3.8904   3.9722   4.3656
     4.3777   4.3919   4.4889   4.5658   4.6366   4.8496   4.8673   5.0669
     5.0820   5.2041   5.2472   5.2578   5.3902   5.6507   5.7065   5.8004
     6.0794   6.2366   6.3627   6.3907   6.6554   7.1249   7.3190   7.4154
     7.4312   7.8119   8.8943   9.2930   9.4425  10.1089  10.1798  10.1866
    10.2160  10.2472  10.5302  10.8119  11.0600  11.0615  11.6876  12.4918
    12.8515  13.8821  14.1044  14.1697  14.8489  15.1070  15.3193  15.6117
    15.6693  15.6834  15.7666  16.2589  16.3785  16.4088  16.4743  16.6445
    16.9613  17.4592  17.4892  17.5137  17.8838  18.1037  18.1341  18.1430
    18.3280  18.3312  18.4755  19.0065  19.0667  19.0900  19.3153  19.4335
    19.6481  19.7689  19.8519  19.9905  20.0580  20.0940  20.3942  20.7468
    20.9069  21.0264  21.3006  21.3187  21.5000  21.5348  21.7568  22.1104
    22.4996  22.5038  22.8026  22.9909  23.0716  23.2266  23.3295  23.7997
    23.8241  23.8859  24.1964  24.3654  24.4109  24.5798  24.6993  24.7865
    25.2450  25.3580  25.5250  25.6786  26.0153  26.2799  26.3720  26.5483
    26.6850  26.7361  27.0139  27.0696  27.3324  27.4303  27.7304  27.9562
    27.9860  28.1191  28.1696  28.1760  28.3262  28.6052  28.6442  28.8247
    28.8706  28.9534  29.0023  29.0066  29.3561  29.4446  29.7348  29.9530
    30.0019  30.3196  30.5983  30.6989  30.6993  30.7840  31.1598  31.1616
    31.2491  31.3023  31.4736  31.5091  31.6729  31.7514  31.8118  31.9839
    32.0588  32.2952  32.3702  32.4117  32.6186  32.6455  32.9831  33.2373
    33.2559  33.3157  33.3631  33.5495  33.5672  33.6298  33.6701  33.6758
    33.6945  33.8917  33.9084  34.0637  34.3005  34.3314  34.7543  34.8107
    34.9405  34.9444  35.0496  35.1113  35.2358  35.2641  35.6126  35.6758
    35.7994  35.9029  35.9189  36.2537  36.3603  36.4226  36.5484  36.6247
    36.6296  36.9908  37.0908  37.2716  37.3573  37.3781  37.5342  37.7613
    37.8724  37.9446  38.0483  38.1503  38.3714  38.5503  38.6559  38.7542

     occupation numbers
     1.0000   1.0000   1.0000   1.0000   1.0000   1.0000   1.0000   1.0000
     1.0000   1.0000   1.0000   1.0000   1.0000   1.0000   1.0000   1.0000
     1.0000   1.0000   1.0000   1.0000   1.0000   1.0000   1.0000   1.0000
     1.0000   1.0000   1.0000   1.0000   1.0000   1.0000   1.0000   1.0000
     1.0000   1.0000   1.0000   1.0000   1.0000   1.0000   1.0000   1.0000
     1.0000   1.0000   1.0000   1.0000   1.0000   1.0000   1.0000   1.0000
     1.0000   1.0000   1.0000   1.0000   1.0000   1.0000   1.0000   1.0000
     1.0000   1.0000   1.0000   1.0000   1.0000   1.0000   1.0000   1.0000
     1.0000   1.0000   1.0000   1.0000   1.0000   1.0000   1.0000   1.0000
     1.0000   1.0000   0.0000   0.0000   0.0000   0.0000   0.0000   0.0000
     0.0000   0.0000   0.0000   0.0000   0.0000   0.0000   0.0000   0.0000
     0.0000   0.0000   0.0000   0.0000   0.0000   0.0000   0.0000   0.0000
     0.0000   0.0000   0.0000   0.0000   0.0000   0.0000   0.0000   0.0000
     0.0000   0.0000   0.0000   0.0000   0.0000   0.0000   0.0000   0.0000
     0.0000   0.0000   0.0000   0.0000   0.0000   0.0000   0.0000   0.0000
     0.0000   0.0000   0.0000   0.0000   0.0000   0.0000   0.0000   0.0000
     0.0000   0.0000   0.0000   0.0000   0.0000   0.0000   0.0000   0.0000
     0.0000   0.0000   0.0000   0.0000   0.0000   0.0000   0.0000   0.0000
     0.0000   0.0000   0.0000   0.0000   0.0000   0.0000   0.0000   0.0000
     0.0000   0.0000   0.0000   0.0000   0.0000   0.0000   0.0000   0.0000
     0.0000   0.0000   0.0000   0.0000   0.0000   0.0000   0.0000   0.0000
     0.0000   0.0000   0.0000   0.0000   0.0000   0.0000   0.0000   0.0000
     0.0000   0.0000   0.0000   0.0000   0.0000   0.0000   0.0000   0.0000
     0.0000   0.0000   0.0000   0.0000   0.0000   0.0000   0.0000   0.0000
     0.0000   0.0000   0.0000   0.0000   0.0000   0.0000   0.0000   0.0000
     0.0000   0.0000   0.0000   0.0000   0.0000   0.0000   0.0000   0.0000
     0.0000   0.0000   0.0000   0.0000   0.0000   0.0000   0.0000   0.0000
     0.0000   0.0000   0.0000   0.0000   0.0000   0.0000   0.0000   0.0000
     0.0000   0.0000   0.0000   0.0000   0.0000   0.0000   0.0000   0.0000
     0.0000   0.0000   0.0000   0.0000   0.0000   0.0000   0.0000   0.0000
     0.0000   0.0000   0.0000   0.0000   0.0000   0.0000   0.0000   0.0000
     0.0000   0.0000   0.0000   0.0000   0.0000   0.0000   0.0000   0.0000

[...]

          k = 0.3333 0.1697-0.1691 (  6943 PWs)   bands (ev):

   -84.2421 -84.2411 -47.3026 -47.2983 -47.2829 -47.2772 -47.2645 -47.2613
   -15.2471 -15.2442 -15.2255 -15.2241 -15.2195 -15.2192 -15.2142 -15.2129
   -15.2110 -15.2102 -15.1160 -15.1124 -15.1050 -15.1023 -15.0993 -15.0969
   -15.0924 -15.0905 -15.0862 -15.0837  -6.7734  -6.6344  -5.3087  -5.1326
    -4.6502  -4.3524  -4.2636  -4.2109  -2.8007  -2.5297  -2.0618  -1.8148
     3.1077   3.2331   3.2602   3.4134   3.5873   3.6933   3.7768   3.9644
     4.1613   4.2287   4.2412   4.2978   4.3095   4.4855   4.5593   4.6891
     4.7214   4.8055   5.0522   5.1301   5.2501   5.5276   5.6050   5.7504
     5.8446   6.0696   6.1174   6.2068   6.3751   6.6115   6.6758   6.8919
     7.1173   7.6232   9.3247   9.5817   9.8156  10.2473  10.3368  10.5496
    10.8056  10.9205  11.0482  11.1900  11.2994  11.6893  12.1310  12.9459
    13.8825  13.9530  14.1982  14.4105  14.6816  14.9289  15.3424  15.6093
    15.7138  15.8126  15.8708  16.1818  16.5039  16.6369  16.7951  17.1504
    17.3339  17.5964  17.7351  17.9374  18.3087  18.4311  18.6221  18.6890
    18.9586  19.0201  19.1713  19.3124  19.6632  19.7796  19.9136  20.1134
    20.3480  20.5549  20.7030  20.7082  21.0117  21.2310  21.4243  21.4633
    21.6458  21.8689  22.0671  22.3191  22.3768  22.6172  22.7742  23.0096
    23.1467  23.2463  23.2826  23.4598  23.5851  23.8257  23.8425  24.0083
    24.1567  24.3201  24.4810  24.5179  24.6415  24.6801  24.8360  24.8379
    24.9942  25.0955  25.2788  25.6249  25.7469  25.8665  26.0167  26.1284
    26.1868  26.4049  26.6830  26.7468  26.7852  26.8960  26.9142  27.0978
    27.1523  27.3743  27.5443  27.6503  27.8451  27.9055  28.1104  28.2938
    28.3732  28.6695  28.7911  28.8869  28.9527  29.2004  29.3624  29.4338
    29.5882  29.6404  29.7620  29.8547  29.9312  30.0485  30.2270  30.3205
    30.3772  30.5873  30.7379  30.9326  31.0481  31.1602  31.3270  31.4243
    31.4560  31.6530  31.7515  31.7555  31.9651  32.0933  32.2369  32.2964
    32.5546  32.6510  32.7689  32.9659  33.1323  33.1925  33.3907  33.4962
    33.5583  33.5628  33.5711  33.6871  33.6911  33.7406  33.8162  33.9158
    34.1446  34.2816  34.3276  34.4164  34.4383  34.5963  34.7709  34.9708
    35.1344  35.2419  35.3249  35.5044  35.6517  35.8216  35.9280  36.0226
    36.1400  36.2882  36.4122  36.4430  36.6853  36.8685  36.9837  37.0101
    37.1355  37.2780  37.4955  37.6584  37.6660  37.7954  37.9232  37.9907

     occupation numbers
     1.0000   1.0000   1.0000   1.0000   1.0000   1.0000   1.0000   1.0000
     1.0000   1.0000   1.0000   1.0000   1.0000   1.0000   1.0000   1.0000
     1.0000   1.0000   1.0000   1.0000   1.0000   1.0000   1.0000   1.0000
     1.0000   1.0000   1.0000   1.0000   1.0000   1.0000   1.0000   1.0000
     1.0000   1.0000   1.0000   1.0000   1.0000   1.0000   1.0000   1.0000
     1.0000   1.0000   1.0000   1.0000   1.0000   1.0000   1.0000   1.0000
     1.0000   1.0000   1.0000   1.0000   1.0000   1.0000   1.0000   1.0000
     1.0000   1.0000   1.0000   1.0000   1.0000   1.0000   1.0000   1.0000
     1.0000   1.0000   1.0000   1.0000   1.0000   1.0000   1.0000   1.0000
     1.0000   1.0000   0.0000   0.0000   0.0000   0.0000   0.0000   0.0000
     0.0000   0.0000   0.0000   0.0000   0.0000   0.0000   0.0000   0.0000
     0.0000   0.0000   0.0000   0.0000   0.0000   0.0000   0.0000   0.0000
     0.0000   0.0000   0.0000   0.0000   0.0000   0.0000   0.0000   0.0000
     0.0000   0.0000   0.0000   0.0000   0.0000   0.0000   0.0000   0.0000
     0.0000   0.0000   0.0000   0.0000   0.0000   0.0000   0.0000   0.0000
     0.0000   0.0000   0.0000   0.0000   0.0000   0.0000   0.0000   0.0000
     0.0000   0.0000   0.0000   0.0000   0.0000   0.0000   0.0000   0.0000
     0.0000   0.0000   0.0000   0.0000   0.0000   0.0000   0.0000   0.0000
     0.0000   0.0000   0.0000   0.0000   0.0000   0.0000   0.0000   0.0000
     0.0000   0.0000   0.0000   0.0000   0.0000   0.0000   0.0000   0.0000
     0.0000   0.0000   0.0000   0.0000   0.0000   0.0000   0.0000   0.0000
     0.0000   0.0000   0.0000   0.0000   0.0000   0.0000   0.0000   0.0000
     0.0000   0.0000   0.0000   0.0000   0.0000   0.0000   0.0000   0.0000
     0.0000   0.0000   0.0000   0.0000   0.0000   0.0000   0.0000   0.0000
     0.0000   0.0000   0.0000   0.0000   0.0000   0.0000   0.0000   0.0000
     0.0000   0.0000   0.0000   0.0000   0.0000   0.0000   0.0000   0.0000
     0.0000   0.0000   0.0000   0.0000   0.0000   0.0000   0.0000   0.0000
     0.0000   0.0000   0.0000   0.0000   0.0000   0.0000   0.0000   0.0000
     0.0000   0.0000   0.0000   0.0000   0.0000   0.0000   0.0000   0.0000
     0.0000   0.0000   0.0000   0.0000   0.0000   0.0000   0.0000   0.0000
     0.0000   0.0000   0.0000   0.0000   0.0000   0.0000   0.0000   0.0000
     0.0000   0.0000   0.0000   0.0000   0.0000   0.0000   0.0000   0.0000

     highest occupied, lowest unoccupied level (ev):     7.8119    8.5684

!    total energy              =   -1643.89299395 Ry
     estimated scf accuracy    <       0.00000011 Ry

     The total energy is the sum of the following terms:
     one-electron contribution =    -720.58634239 Ry
     hartree contribution      =     427.82984975 Ry
     xc contribution           =    -509.54363294 Ry
     ewald contribution        =    -841.59286837 Ry

     convergence has been achieved in  18 iterations

     Writing all to output data dir bands_nm/myprefix.save/

     General routines

     Parallel routines

   This run was terminated on:  18:13: 9  15Jul2023

   JOB DONE.