     Program PWSCF v.7.1 starts on 12Jul2023 at 16:13:31

     Reading input from espresso_22656.pwi
Warning: card &CELL ignored
Warning: card / ignored

     Current dimensions of program PWSCF are:
     Max number of different atomic species (ntypx) = 10
     Max number of k-points (npk) =  40000
     Max angular momentum in pseudopotentials (lmaxx) =  4
     file K.pbe-spn-kjpaw_psl.1.0.0.UPF: wavefunction(s)  3S renormalized

     K-points division:     npool     =       2
     R & G space division:  proc/nbgrp/npool/nimage =       8
     Subspace diagonalization in iterative solution of the eigenvalue problem:
     a serial algorithm will be used

     Using Slab Decomposition

     bravais-lattice index     =            0
     lattice parameter (alat)  =      10.1217  a.u.
     unit-cell volume          =    1032.5008 (a.u.)^3
     number of atoms/cell      =            5
     number of atomic types    =            3
     number of electrons       =        44.00
     number of Kohn-Sham states=           64
     kinetic-energy cutoff     =      30.0000  Ry
     charge density cutoff     =     240.0000  Ry
     scf convergence threshold =      1.0E-06
     mixing beta               =       0.7000
     number of iterations used =            8  plain     mixing
     Exchange-correlation=  SLA  PW   PBX  PBC
                           (   1   4   3   4   0   0   0)

     celldm(1)=  10.121678  celldm(2)=   0.000000  celldm(3)=   0.000000
     celldm(4)=   0.000000  celldm(5)=   0.000000  celldm(6)=   0.000000

     crystal axes: (cart. coord. in units of alat)
               a(1) = (   1.000000   0.000000   0.000000 )
               a(2) = (   0.014762   0.999891   0.000000 )
               a(3) = (   0.015927   0.015693   0.995818 )

     reciprocal axes: (cart. coord. in units 2 pi/alat)
               b(1) = (  1.000000 -0.014764 -0.015761 )
               b(2) = (  0.000000  1.000109 -0.015761 )
               b(3) = (  0.000000  0.000000  1.004199 )

     PseudoPot. # 1 for K  read from file:
     /lustre07/scratch/pragov/crystal_structure_design/utils/SSSP/K.pbe-spn-kjpaw_psl.1.0.0.UPF
     MD5 check sum: 7d58810084cac21f60fbe77ea2b688fd
     Pseudo is Projector augmented-wave + core cor, Zval =  9.0
     Generated using "atomic" code by A. Dal Corso  v.5.1
     Shape of augmentation charge: PSQ
     Using radial grid of 1165 points,  6 beta functions with:
                l(1) =   0
                l(2) =   0
                l(3) =   1
                l(4) =   1
                l(5) =   2
                l(6) =   2
     Q(r) pseudized with 0 coefficients

     PseudoPot. # 2 for Ge read from file:
     /lustre07/scratch/pragov/crystal_structure_design/utils/SSSP/ge_pbe_v1.4.uspp.F.UPF
     MD5 check sum: 9c9eaa91e581c3f09632fb3098b2c6b2
     Pseudo is Ultrasoft + core correction, Zval = 14.0
     Generated by new atomic code, or converted to UPF format
     Using radial grid of  873 points,  6 beta functions with:
                l(1) =   0
                l(2) =   0
                l(3) =   1
                l(4) =   1
                l(5) =   2
                l(6) =   2
     Q(r) pseudized with  8 coefficients,  rinner =    1.400   1.400   1.400
                                                       1.400   1.400

     PseudoPot. # 3 for Cl read from file:
     /lustre07/scratch/pragov/crystal_structure_design/utils/SSSP/cl_pbe_v1.4.uspp.F.UPF
     MD5 check sum: fc6f6913ecf08c9257cb748ef0700058
     Pseudo is Ultrasoft + core correction, Zval =  7.0
     Generated by new atomic code, or converted to UPF format
     Using radial grid of  909 points,  6 beta functions with:
                l(1) =   0
                l(2) =   0
                l(3) =   1
                l(4) =   1
                l(5) =   2
                l(6) =   2
     Q(r) pseudized with  8 coefficients,  rinner =    1.300   1.300   1.300
                                                       1.300   1.300

     atomic species   valence    mass     pseudopotential
        K              9.00    39.09830     K ( 1.00)
        Ge            14.00    72.63000     Ge( 1.00)
        Cl             7.00    35.45000     Cl( 1.00)

     No symmetry found

                                    s                        frac. trans.

      isym =  1     identity

 cryst.   s( 1) = (     1          0          0      )
                  (     0          1          0      )
                  (     0          0          1      )

 cart.    s( 1) = (  1.0000000  0.0000000  0.0000000 )
                  (  0.0000000  1.0000000  0.0000000 )
                  (  0.0000000  0.0000000  1.0000000 )

   Cartesian axes

     site n.     atom                  positions (alat units)
         1           K   tau(   1) = (   1.0266142   1.0115692   0.9947040  )
         2           Ge  tau(   2) = (   0.4926532   0.4854334   0.4652214  )
         3           Cl  tau(   3) = (   0.5022591   0.0312001   0.4793800  )
         4           Cl  tau(   4) = (   0.5078305   0.5003883   0.0074756  )
         5           Cl  tau(   5) = (   0.0386112   0.5017438   0.4793800  )

   Crystallographic axes

     site n.     atom                  positions (cryst. coord.)
         1           K   tau(   1) = (  0.9960020  0.9960020  0.9988810  )
         2           Ge  tau(   2) = (  0.4781540  0.4781540  0.4671750  )
         3           Cl  tau(   3) = (  0.4942430  0.0236480  0.4813930  )
         4           Cl  tau(   4) = (  0.5003250  0.5003250  0.0075070  )
         5           Cl  tau(   5) = (  0.0236480  0.4942430  0.4813930  )

     number of k points=    14
                       cart. coord. in units 2pi/alat
        k(    1) = (   0.0000000   0.0000000   0.0000000), wk =   0.0740741
        k(    2) = (   0.0000000   0.0000000   0.3347331), wk =   0.1481481
        k(    3) = (   0.0000000   0.3333697  -0.0052536), wk =   0.1481481
        k(    4) = (   0.0000000   0.3333697   0.3294794), wk =   0.1481481
        k(    5) = (   0.0000000   0.3333697  -0.3399867), wk =   0.1481481
        k(    6) = (   0.3333333  -0.0049213  -0.0052536), wk =   0.1481481
        k(    7) = (   0.3333333  -0.0049213   0.3294794), wk =   0.1481481
        k(    8) = (   0.3333333  -0.0049213  -0.3399867), wk =   0.1481481
        k(    9) = (   0.3333333   0.3284484  -0.0105073), wk =   0.1481481
        k(   10) = (   0.3333333   0.3284484   0.3242258), wk =   0.1481481
        k(   11) = (   0.3333333   0.3284484  -0.3452403), wk =   0.1481481
        k(   12) = (   0.3333333  -0.3382910  -0.0000000), wk =   0.1481481
        k(   13) = (   0.3333333  -0.3382910   0.3347331), wk =   0.1481481
        k(   14) = (   0.3333333  -0.3382910  -0.3347331), wk =   0.1481481

                       cryst. coord.
        k(    1) = (   0.0000000   0.0000000   0.0000000), wk =   0.0740741
        k(    2) = (   0.0000000   0.0000000   0.3333333), wk =   0.1481481
        k(    3) = (   0.0000000   0.3333333   0.0000000), wk =   0.1481481
        k(    4) = (   0.0000000   0.3333333   0.3333333), wk =   0.1481481
        k(    5) = (   0.0000000   0.3333333  -0.3333333), wk =   0.1481481
        k(    6) = (   0.3333333   0.0000000   0.0000000), wk =   0.1481481
        k(    7) = (   0.3333333   0.0000000   0.3333333), wk =   0.1481481
        k(    8) = (   0.3333333   0.0000000  -0.3333333), wk =   0.1481481
        k(    9) = (   0.3333333   0.3333333   0.0000000), wk =   0.1481481
        k(   10) = (   0.3333333   0.3333333   0.3333333), wk =   0.1481481
        k(   11) = (   0.3333333   0.3333333  -0.3333333), wk =   0.1481481
        k(   12) = (   0.3333333  -0.3333333   0.0000000), wk =   0.1481481
        k(   13) = (   0.3333333  -0.3333333   0.3333333), wk =   0.1481481
        k(   14) = (   0.3333333  -0.3333333  -0.3333333), wk =   0.1481481

     Check: negative core charge=   -0.000002

     Initial potential from superposition of free atoms

     starting charge      43.9803, renormalised to      44.0000

     negative rho (up, down):  4.570E-02 0.000E+00
     Starting wfcs are   29 randomized atomic wfcs +   35 random wfcs
     Checking if some PAW data can be deallocated...

     Self-consistent Calculation

     iteration #  1     ecut=    30.00 Ry     beta= 0.70
     Davidson diagonalization with overlap

     ethr =  1.00E-02,  avg # of iterations =  8.0

     Threshold (ethr) on eigenvalues was too large:
     Diagonalizing with lowered threshold

     Davidson diagonalization with overlap

[...]

     negative rho (up, down):  4.718E-02 0.000E+00

     total energy              =    -426.93846501 Ry
     estimated scf accuracy    <       0.14797871 Ry

[...]

     total energy              =    -426.99079732 Ry
     estimated scf accuracy    <       0.00000976 Ry

     iteration #  6     ecut=    30.00 Ry     beta= 0.70
     Davidson diagonalization with overlap

     ethr =  2.22E-08,  avg # of iterations =  2.3

     negative rho (up, down):  4.565E-02 0.000E+00

     End of self-consistent calculation

          k = 0.0000 0.0000 0.0000 (  2877 PWs)   bands (ev):

   -27.1822 -21.5645 -21.5644 -21.5444 -21.5439 -21.5330 -12.3452 -11.5297
   -11.5039 -10.6380 -10.6365 -10.6356  -3.5863  -1.8821  -1.8710  -1.2754
     0.4701   0.4808   0.5983   0.6491   0.6494   0.6812   6.1789   8.2914
     8.3159   8.5071   8.7214   8.8011   9.3033   9.3903   9.6180  11.4394
    11.5903  11.5938  12.7709  12.8023  12.8671  13.5075  13.6488  14.8229
    14.8689  15.7630  16.1334  16.1517  17.1161  17.5972  17.6249  17.8656
    17.8728  18.1215  18.1710  18.3750  18.3978  18.9201  18.9493  19.0056
    19.3726  20.1806  20.2413  22.6394  22.7369  22.8315  24.3848  24.4278

     occupation numbers
     1.0000   1.0000   1.0000   1.0000   1.0000   1.0000   1.0000   1.0000
     1.0000   1.0000   1.0000   1.0000   1.0000   1.0000   1.0000   1.0000
     1.0000   1.0000   1.0000   1.0000   1.0000   1.0000   0.0000   0.0000
     0.0000   0.0000   0.0000   0.0000   0.0000   0.0000   0.0000   0.0000
     0.0000   0.0000   0.0000   0.0000   0.0000   0.0000   0.0000   0.0000
     0.0000   0.0000   0.0000   0.0000   0.0000   0.0000   0.0000   0.0000
     0.0000   0.0000   0.0000   0.0000   0.0000   0.0000   0.0000   0.0000
     0.0000   0.0000   0.0000   0.0000   0.0000   0.0000   0.0000   0.0000

[...]

          k = 0.3333-0.3383-0.3347 (  2868 PWs)   bands (ev):

   -27.1818 -21.5619 -21.5612 -21.5433 -21.5417 -21.5322 -12.0072 -11.6988
   -11.6615 -10.6399 -10.6370 -10.6276  -5.3551  -0.8373  -0.6486  -0.3722
    -0.2184  -0.1803   0.7643   0.8656   0.9315   2.2216   6.0178   6.0857
     6.3813   7.9536   9.3229   9.5610   9.5898  10.3221  10.3639  10.5239
    11.1133  11.1538  12.2875  12.4090  12.9651  13.4744  13.9330  14.0789
    15.5636  15.8675  15.9549  16.1916  16.2589  16.7384  17.0294  17.5771
    18.0634  18.3073  18.5313  18.5894  19.0330  19.1393  19.8636  20.2904
    20.5520  21.1107  21.5257  21.6214  21.9175  22.0962  23.3796  23.4660

     occupation numbers
     1.0000   1.0000   1.0000   1.0000   1.0000   1.0000   1.0000   1.0000
     1.0000   1.0000   1.0000   1.0000   1.0000   1.0000   1.0000   1.0000
     1.0000   1.0000   1.0000   1.0000   1.0000   1.0000   0.0000   0.0000
     0.0000   0.0000   0.0000   0.0000   0.0000   0.0000   0.0000   0.0000
     0.0000   0.0000   0.0000   0.0000   0.0000   0.0000   0.0000   0.0000
     0.0000   0.0000   0.0000   0.0000   0.0000   0.0000   0.0000   0.0000
     0.0000   0.0000   0.0000   0.0000   0.0000   0.0000   0.0000   0.0000
     0.0000   0.0000   0.0000   0.0000   0.0000   0.0000   0.0000   0.0000

     highest occupied, lowest unoccupied level (ev):     2.2216    6.0153

!    total energy              =    -426.99080041 Ry
     estimated scf accuracy    <       0.00000043 Ry

     The total energy is the sum of the following terms:
     one-electron contribution =    -227.93029192 Ry
     hartree contribution      =     135.45999365 Ry
     xc contribution           =     -97.77513013 Ry
     ewald contribution        =    -181.32943677 Ry
     one-center paw contrib.   =     -55.41593524 Ry
      -> PAW hartree energy AE =      37.50089825 Ry
      -> PAW hartree energy PS =     -37.29120981 Ry
      -> PAW xc energy AE      =     -66.19185686 Ry
      -> PAW xc energy PS      =      10.56623318 Ry
      -> total E_H with PAW    =     135.66968209 Ry
      -> total E_XC with PAW   =    -153.40075381 Ry

     convergence has been achieved in   6 iterations

     Writing all to output data dir bands_nm/myprefix.save/

     General routines

     Parallel routines

     PAW routines

   This run was terminated on:  16:13:37  12Jul2023

   JOB DONE.