     Program PWSCF v.7.1 starts on 15Jul2023 at 18:24:13

     Reading input from espresso_4155.pwi
Warning: card &CELL ignored
Warning: card / ignored

     Current dimensions of program PWSCF are:
     Max number of different atomic species (ntypx) = 10
     Max number of k-points (npk) =  40000
     Max angular momentum in pseudopotentials (lmaxx) =  4
     Message from routine setup:
     using ibrav=0 with symmetry is DISCOURAGED, use correct ibrav instead

     K-points division:     npool     =       2
     R & G space division:  proc/nbgrp/npool/nimage =       4
     Subspace diagonalization in iterative solution of the eigenvalue problem:
     one sub-group per band group will be used

     Using Slab Decomposition

     bravais-lattice index     =            0
     lattice parameter (alat)  =      12.8655  a.u.
     unit-cell volume          =    3104.8231 (a.u.)^3
     number of atoms/cell      =           20
     number of atomic types    =            3
     number of electrons       =       160.00
     number of Kohn-Sham states=          256
     kinetic-energy cutoff     =      30.0000  Ry
     charge density cutoff     =     240.0000  Ry
     scf convergence threshold =      1.0E-06
     mixing beta               =       0.7000
     number of iterations used =            8  plain     mixing
     Exchange-correlation=  SLA  PW   PBX  PBC
                           (   1   4   3   4   0   0   0)

     celldm(1)=  12.865465  celldm(2)=   0.000000  celldm(3)=   0.000000
     celldm(4)=   0.000000  celldm(5)=   0.000000  celldm(6)=   0.000000

     crystal axes: (cart. coord. in units of alat)
               a(1) = (   1.000000   0.000000   0.000000 )
               a(2) = (   0.000000   1.000000   0.000000 )
               a(3) = (   0.000000   0.000000   1.458010 )

     reciprocal axes: (cart. coord. in units 2 pi/alat)
               b(1) = (  1.000000  0.000000  0.000000 )
               b(2) = (  0.000000  1.000000  0.000000 )
               b(3) = (  0.000000  0.000000  0.685867 )

     PseudoPot. # 1 for Cs read from file:
     /lustre07/scratch/pragov/crystal_structure_design/utils/SSSP/Cs_pbe_v1.uspp.F.UPF
     MD5 check sum: 3476d69cb178dfad3ffaa59df4e07ca4
     Pseudo is Ultrasoft + core correction, Zval =  9.0
     Generated by new atomic code, or converted to UPF format
     Using radial grid of  905 points,  6 beta functions with:
                l(1) =   0
                l(2) =   0
                l(3) =   1
                l(4) =   1
                l(5) =   2
                l(6) =   2
     Q(r) pseudized with  6 coefficients,  rinner =    1.500   1.500   1.500
                                                       1.500   1.500

     PseudoPot. # 2 for Sc read from file:
     /lustre07/scratch/pragov/crystal_structure_design/utils/SSSP/Sc_ONCV_PBE-1.0.oncvpsp.upf
     MD5 check sum: e21af8023abb52e52cb7cd3133e4a229
     Pseudo is Norm-conserving, Zval = 11.0
     Generated using ONCVPSP code by D. R. Hamann
     Using radial grid of 1662 points,  6 beta functions with:
                l(1) =   0
                l(2) =   0
                l(3) =   1
                l(4) =   1
                l(5) =   2
                l(6) =   2

     PseudoPot. # 3 for F  read from file:
     /lustre07/scratch/pragov/crystal_structure_design/utils/SSSP/f_pbe_v1.4.uspp.F.UPF
     MD5 check sum: 4c38b6a325caf53ec0e86aed9459de46
     Pseudo is Ultrasoft, Zval =  7.0
     Generated by new atomic code, or converted to UPF format
     Using radial grid of  799 points,  4 beta functions with:
                l(1) =   0
                l(2) =   0
                l(3) =   1
                l(4) =   1
     Q(r) pseudized with  8 coefficients,  rinner =    0.950   0.950   0.950

     atomic species   valence    mass     pseudopotential
        Cs             9.00   132.90545     Cs( 1.00)
        Sc            11.00    44.95591     Sc( 1.00)
        F              7.00    18.99840     F ( 1.00)

     16 Sym. Ops., with inversion, found ( 8 have fractional translation)

                                    s                        frac. trans.

      isym =  1     identity

 cryst.   s( 1) = (     1          0          0      )
                  (     0          1          0      )
                  (     0          0          1      )

 cart.    s( 1) = (  1.0000000  0.0000000  0.0000000 )
                  (  0.0000000  1.0000000  0.0000000 )
                  (  0.0000000  0.0000000  1.0000000 )

      isym =  2     180 deg rotation - cart. axis [0,0,1]

[...]

 cryst.   s( 3) = (    -1          0          0      )    f =(  0.5000000 )
                  (     0          1          0      )       (  0.5000000 )
                  (     0          0         -1      )       (  0.5000000 )

 cart.    s( 3) = ( -1.0000000  0.0000000  0.0000000 )    f =(  0.5000000 )
                  (  0.0000000  1.0000000  0.0000000 )       (  0.5000000 )
                  (  0.0000000  0.0000000 -1.0000000 )       (  0.7290048 )

[...]

 cryst.   s( 6) = (     0         -1          0      )    f =(  0.5000000 )
                  (    -1          0          0      )       (  0.5000000 )
                  (     0          0         -1      )       (  0.5000000 )

 cart.    s( 6) = (  0.0000000 -1.0000000  0.0000000 )    f =(  0.5000000 )
                  ( -1.0000000  0.0000000  0.0000000 )       (  0.5000000 )
                  (  0.0000000  0.0000000 -1.0000000 )       (  0.7290048 )

[...]

      isym =  8      90 deg rotation - cart. axis [0,0,1]

[...]

      isym =  9     inversion

 cryst.   s( 9) = (    -1          0          0      )
                  (     0         -1          0      )
                  (     0          0         -1      )

 cart.    s( 9) = ( -1.0000000  0.0000000  0.0000000 )
                  (  0.0000000 -1.0000000  0.0000000 )
                  (  0.0000000  0.0000000 -1.0000000 )

      isym = 10     inv. 180 deg rotation - cart. axis [0,0,1]

 cryst.   s(10) = (     1          0          0      )
                  (     0          1          0      )
                  (     0          0         -1      )

 cart.    s(10) = (  1.0000000  0.0000000  0.0000000 )
                  (  0.0000000  1.0000000  0.0000000 )
                  (  0.0000000  0.0000000 -1.0000000 )

[...]

 cryst.   s(11) = (     1          0          0      )    f =( -0.5000000 )
                  (     0         -1          0      )       (  0.5000000 )
                  (     0          0          1      )       ( -0.5000000 )

 cart.    s(11) = (  1.0000000  0.0000000  0.0000000 )    f =( -0.5000000 )
                  (  0.0000000 -1.0000000  0.0000000 )       (  0.5000000 )
                  (  0.0000000  0.0000000  1.0000000 )       ( -0.7290048 )

[...]

 cryst.   s(14) = (     0          1          0      )    f =( -0.5000000 )
                  (     1          0          0      )       (  0.5000000 )
                  (     0          0          1      )       ( -0.5000000 )

 cart.    s(14) = (  0.0000000  1.0000000  0.0000000 )    f =( -0.5000000 )
                  (  1.0000000  0.0000000  0.0000000 )       (  0.5000000 )
                  (  0.0000000  0.0000000  1.0000000 )       ( -0.7290048 )

[...]

      isym = 16     inv.  90 deg rotation - cart. axis [0,0,1]

 cryst.   s(16) = (     0         -1          0      )
                  (     1          0          0      )
                  (     0          0         -1      )

 cart.    s(16) = (  0.0000000  1.0000000  0.0000000 )
                  ( -1.0000000  0.0000000  0.0000000 )
                  (  0.0000000  0.0000000 -1.0000000 )

   Cartesian axes

     site n.     atom                  positions (alat units)
         1           Cs  tau(   1) = (   0.0000000   0.5000000   0.3645024  )
         2           Cs  tau(   2) = (   0.0000000   0.5000000   1.0935072  )
         3           Cs  tau(   3) = (   0.5000000   0.0000000   0.3645024  )
         4           Cs  tau(   4) = (   0.5000000   0.0000000   1.0935072  )
         5           Cs  tau(   5) = (   0.0000000   0.0000000   0.7290048  )
         6           Cs  tau(   6) = (   0.5000000   0.5000000   0.0000000  )
         7           Sc  tau(   7) = (   0.0000000   0.0000000   0.0000000  )
         8           Sc  tau(   8) = (   0.5000000   0.5000000   0.7290048  )
         9           F   tau(   9) = (   0.1377090   0.2670270   0.0000000  )
        10           F   tau(  10) = (   0.8622910   0.7329730   0.0000000  )
        11           F   tau(  11) = (   0.7329730   0.1377090   0.0000000  )
        12           F   tau(  12) = (   0.3622910   0.7670270   0.7290048  )
        13           F   tau(  13) = (   0.2670270   0.8622910   0.0000000  )
        14           F   tau(  14) = (   0.6377090   0.2329730   0.7290048  )
        15           F   tau(  15) = (   0.7670270   0.6377090   0.7290048  )
        16           F   tau(  16) = (   0.2329730   0.3622910   0.7290048  )
        17           F   tau(  17) = (   0.0000000   0.0000000   0.3010032  )
        18           F   tau(  18) = (   0.0000000   0.0000000   1.1570064  )
        19           F   tau(  19) = (   0.5000000   0.5000000   0.4280016  )
        20           F   tau(  20) = (   0.5000000   0.5000000   1.0300079  )

   Crystallographic axes

     site n.     atom                  positions (cryst. coord.)
         1           Cs  tau(   1) = (  0.0000000  0.5000000  0.2500000  )
         2           Cs  tau(   2) = (  0.0000000  0.5000000  0.7500000  )
         3           Cs  tau(   3) = (  0.5000000  0.0000000  0.2500000  )
         4           Cs  tau(   4) = (  0.5000000  0.0000000  0.7500000  )
         5           Cs  tau(   5) = (  0.0000000  0.0000000  0.5000000  )
         6           Cs  tau(   6) = (  0.5000000  0.5000000  0.0000000  )
         7           Sc  tau(   7) = (  0.0000000  0.0000000  0.0000000  )
         8           Sc  tau(   8) = (  0.5000000  0.5000000  0.5000000  )
         9           F   tau(   9) = (  0.1377090  0.2670270  0.0000000  )
        10           F   tau(  10) = (  0.8622910  0.7329730  0.0000000  )
        11           F   tau(  11) = (  0.7329730  0.1377090  0.0000000  )
        12           F   tau(  12) = (  0.3622910  0.7670270  0.5000000  )
        13           F   tau(  13) = (  0.2670270  0.8622910  0.0000000  )
        14           F   tau(  14) = (  0.6377090  0.2329730  0.5000000  )
        15           F   tau(  15) = (  0.7670270  0.6377090  0.5000000  )
        16           F   tau(  16) = (  0.2329730  0.3622910  0.5000000  )
        17           F   tau(  17) = (  0.0000000  0.0000000  0.2064480  )
        18           F   tau(  18) = (  0.0000000  0.0000000  0.7935520  )
        19           F   tau(  19) = (  0.5000000  0.5000000  0.2935520  )
        20           F   tau(  20) = (  0.5000000  0.5000000  0.7064480  )

     number of k points=     6
                       cart. coord. in units 2pi/alat
        k(    1) = (   0.0000000   0.0000000   0.0000000), wk =   0.0740741
        k(    2) = (   0.0000000   0.0000000   0.2286222), wk =   0.1481481
        k(    3) = (   0.0000000   0.3333333   0.0000000), wk =   0.2962963
        k(    4) = (   0.0000000   0.3333333   0.2286222), wk =   0.5925926
        k(    5) = (   0.3333333   0.3333333   0.0000000), wk =   0.2962963
        k(    6) = (   0.3333333   0.3333333   0.2286222), wk =   0.5925926

                       cryst. coord.
        k(    1) = (   0.0000000   0.0000000   0.0000000), wk =   0.0740741
        k(    2) = (   0.0000000   0.0000000   0.3333333), wk =   0.1481481
        k(    3) = (   0.0000000   0.3333333   0.0000000), wk =   0.2962963
        k(    4) = (   0.0000000   0.3333333   0.3333333), wk =   0.5925926
        k(    5) = (   0.3333333   0.3333333   0.0000000), wk =   0.2962963
        k(    6) = (   0.3333333   0.3333333   0.3333333), wk =   0.5925926

     Initial potential from superposition of free atoms

     starting charge     159.7584, renormalised to     160.0000
     Starting wfcs are  146 randomized atomic wfcs +  110 random wfcs

     Self-consistent Calculation

     iteration #  1     ecut=    30.00 Ry     beta= 0.70
     Davidson diagonalization with overlap

     ethr =  1.00E-02,  avg # of iterations =  6.8

     total energy              =   -1146.97598869 Ry
     estimated scf accuracy    <       2.81510965 Ry

[...]

     total energy              =   -1148.26266769 Ry
     estimated scf accuracy    <       0.00000267 Ry

     iteration #  8     ecut=    30.00 Ry     beta= 0.70
     Davidson diagonalization with overlap

     ethr =  1.67E-09,  avg # of iterations =  2.0

     End of self-consistent calculation

          k = 0.0000 0.0000 0.0000 (  8609 PWs)   bands (ev):

   -44.1343 -44.1342 -22.9443 -22.9440 -22.9421 -22.9421 -22.9418 -22.9418
   -17.7369 -17.6528 -17.5453 -17.5152 -17.4996 -17.4907 -17.2065 -17.1912
   -17.1601 -17.1601 -17.1582 -17.1582 -16.2262 -16.2214 -16.1947 -16.1918
   -15.8219 -15.8190  -3.4404  -3.4404  -3.3370  -3.3370  -3.3056  -3.2262
    -3.2262  -3.1792  -3.0971  -3.0699  -3.0699  -2.9904  -2.9044  -2.6924
    -2.6924  -2.6698  -2.6597  -2.6597   0.0262   0.0368   0.0786   0.0923
     0.1473   0.1804   0.2832   0.4642   0.4642   0.6055   0.6570   0.6570
     0.7274   0.8457   0.8457   0.9574   0.9574   1.0445   1.1857   1.3353
     1.3353   1.3923   1.3923   1.4075   1.4892   1.4892   1.4955   1.5084
     1.5116   1.5116   1.5454   1.5454   1.5770   1.6398   1.6398   1.6834
     8.0202   8.8514   8.8514   8.9461   8.9552   9.0194   9.0194   9.2087
     9.3774   9.5745   9.6779   9.7540   9.9208  10.2410  10.2410  10.4438
    10.4511  10.4511  10.5238  10.6630  10.6826  10.6826  11.1837  11.3952
    11.5641  11.6008  11.9534  11.9534  11.9831  12.5563  12.5703  12.5703
    12.6148  13.0401  13.0401  13.1875  13.2060  13.2874  13.5265  13.6147
    13.6981  13.8688  13.8947  13.9021  13.9021  14.0971  14.8310  14.9561
    15.0229  15.0229  15.3276  15.6726  15.7037  15.7037  15.9715  15.9715
    16.2588  16.3033  16.5293  17.3976  17.3976  17.4157  17.5448  17.8665
    17.9171  18.0689  18.4392  18.4392  18.5818  18.5818  18.9928  18.9928
    19.2742  19.2742  19.2831  19.6732  19.7479  19.7479  19.8403  19.9470
    20.0632  20.0699  20.0699  20.1674  20.2554  20.2554  20.4259  20.5134
    20.5134  20.5352  20.7470  20.8180  20.8180  21.0828  21.0828  21.1743
    21.4130  21.4265  21.4674  21.5102  21.5687  21.5731  21.6266  21.7211
    21.8108  21.9348  21.9716  21.9716  22.0103  22.0816  22.0816  22.0906
    22.3599  22.3599  22.4425  22.4884  22.5667  22.5667  22.7116  22.8529
    23.6976  23.8251  23.9145  24.0208  24.0838  24.1743  24.1743  24.4646
    24.4646  24.5925  24.5925  24.7223  24.9531  25.0936  25.3476  25.3476
    25.6755  25.6755  25.7150  25.7150  25.7805  25.8866  26.1303  26.2880
    26.6248  26.7857  27.1046  27.1186  27.3377  27.3377  27.3466  27.3466
    27.6736  27.7671  27.7710  27.8587  27.8587  27.9739  28.0800  28.1169
    28.3027  28.5713  28.8175  28.8175  29.0191  29.0191  29.0217  29.1758
    29.2786  29.3103  29.3103  29.3378  29.8279  29.8279  30.0811  30.0811

     occupation numbers
     1.0000   1.0000   1.0000   1.0000   1.0000   1.0000   1.0000   1.0000
     1.0000   1.0000   1.0000   1.0000   1.0000   1.0000   1.0000   1.0000
     1.0000   1.0000   1.0000   1.0000   1.0000   1.0000   1.0000   1.0000
     1.0000   1.0000   1.0000   1.0000   1.0000   1.0000   1.0000   1.0000
     1.0000   1.0000   1.0000   1.0000   1.0000   1.0000   1.0000   1.0000
     1.0000   1.0000   1.0000   1.0000   1.0000   1.0000   1.0000   1.0000
     1.0000   1.0000   1.0000   1.0000   1.0000   1.0000   1.0000   1.0000
     1.0000   1.0000   1.0000   1.0000   1.0000   1.0000   1.0000   1.0000
     1.0000   1.0000   1.0000   1.0000   1.0000   1.0000   1.0000   1.0000
     1.0000   1.0000   1.0000   1.0000   1.0000   1.0000   1.0000   1.0000
     0.0000   0.0000   0.0000   0.0000   0.0000   0.0000   0.0000   0.0000
     0.0000   0.0000   0.0000   0.0000   0.0000   0.0000   0.0000   0.0000
     0.0000   0.0000   0.0000   0.0000   0.0000   0.0000   0.0000   0.0000
     0.0000   0.0000   0.0000   0.0000   0.0000   0.0000   0.0000   0.0000
     0.0000   0.0000   0.0000   0.0000   0.0000   0.0000   0.0000   0.0000
     0.0000   0.0000   0.0000   0.0000   0.0000   0.0000   0.0000   0.0000
     0.0000   0.0000   0.0000   0.0000   0.0000   0.0000   0.0000   0.0000
     0.0000   0.0000   0.0000   0.0000   0.0000   0.0000   0.0000   0.0000
     0.0000   0.0000   0.0000   0.0000   0.0000   0.0000   0.0000   0.0000
     0.0000   0.0000   0.0000   0.0000   0.0000   0.0000   0.0000   0.0000
     0.0000   0.0000   0.0000   0.0000   0.0000   0.0000   0.0000   0.0000
     0.0000   0.0000   0.0000   0.0000   0.0000   0.0000   0.0000   0.0000
     0.0000   0.0000   0.0000   0.0000   0.0000   0.0000   0.0000   0.0000
     0.0000   0.0000   0.0000   0.0000   0.0000   0.0000   0.0000   0.0000
     0.0000   0.0000   0.0000   0.0000   0.0000   0.0000   0.0000   0.0000
     0.0000   0.0000   0.0000   0.0000   0.0000   0.0000   0.0000   0.0000
     0.0000   0.0000   0.0000   0.0000   0.0000   0.0000   0.0000   0.0000
     0.0000   0.0000   0.0000   0.0000   0.0000   0.0000   0.0000   0.0000
     0.0000   0.0000   0.0000   0.0000   0.0000   0.0000   0.0000   0.0000
     0.0000   0.0000   0.0000   0.0000   0.0000   0.0000   0.0000   0.0000
     0.0000   0.0000   0.0000   0.0000   0.0000   0.0000   0.0000   0.0000
     0.0000   0.0000   0.0000   0.0000   0.0000   0.0000   0.0000   0.0000

[...]

          k = 0.3333 0.3333 0.2286 (  8617 PWs)   bands (ev):

   -44.1343 -44.1343 -22.9441 -22.9440 -22.9423 -22.9422 -22.9422 -22.9421
   -17.6613 -17.6484 -17.5173 -17.5100 -17.4978 -17.4951 -17.2230 -17.2186
   -17.1918 -17.1834 -17.1774 -17.1740 -16.2202 -16.2195 -16.1985 -16.1982
   -15.8128 -15.8123  -3.4132  -3.3797  -3.3368  -3.2918  -3.2668  -3.1800
    -3.1751  -3.1062  -3.1056  -3.0841  -3.0225  -3.0200  -2.8100  -2.7428
    -2.7311  -2.6976  -2.6878  -2.6773   0.0948   0.0967   0.2805   0.2822
     0.3241   0.3356   0.3866   0.4071   0.4389   0.5064   0.5599   0.5604
     0.7056   0.7132   0.7607   0.7640   0.7823   0.8306   1.2251   1.2352
     1.2420   1.2544   1.2812   1.2988   1.3226   1.3541   1.4022   1.4254
     1.4920   1.5087   1.6230   1.6302   1.6350   1.6447   1.6942   1.7026
     8.9077   8.9369   8.9761   8.9870   9.0160   9.0193   9.2508   9.3462
     9.6899   9.7247   9.8502   9.8924  10.0460  10.0567  10.4575  10.6273
    10.6863  10.7156  10.8458  10.8651  10.9583  11.0651  11.2637  11.2730
    11.3757  11.4725  11.5142  11.6404  11.7255  11.8250  11.8407  11.9473
    12.1594  12.2925  12.8296  13.1183  13.1377  13.2560  13.3355  13.4807
    13.5254  13.6870  13.8173  13.9317  14.1580  14.4255  14.5440  14.5470
    15.4167  15.6383  15.8167  15.9803  16.1786  16.1797  16.3731  16.4675
    16.6068  16.7107  16.7862  17.0440  17.0639  17.4815  17.5634  17.6629
    17.7459  17.9594  17.9720  18.1812  18.3014  18.4625  18.5858  18.7261
    18.9958  19.0054  19.1958  19.2155  19.4369  19.6023  19.6921  19.7745
    19.8475  20.0457  20.0957  20.1624  20.2401  20.2515  20.3270  20.4791
    20.5257  20.6936  20.8284  20.9094  21.0028  21.0408  21.2392  21.3067
    21.3774  21.3839  21.3975  21.4162  21.5459  21.6015  21.6554  21.7045
    21.8101  21.8285  21.8555  21.9054  22.0718  22.1101  22.1250  22.1778
    22.6062  22.6295  22.8449  22.9378  23.1583  23.2495  23.3453  23.5274
    23.7433  23.8197  23.9673  24.0083  24.1128  24.2905  24.4748  24.5275
    24.6351  24.7039  24.7543  24.9175  25.0328  25.0761  25.1405  25.3761
    25.4582  25.6310  25.7667  25.8476  25.9867  26.0330  26.2731  26.3185
    26.4023  26.6040  26.6942  26.7045  26.8445  26.8953  26.9251  27.1631
    27.3789  27.4273  27.4577  27.6182  27.6884  27.8134  27.8951  28.1118
    28.2159  28.2427  28.3480  28.4568  28.5306  28.7446  28.8470  28.9151
    29.0535  29.1481  29.2938  29.4470  29.7283  29.9527  30.1830  30.1926

     occupation numbers
     1.0000   1.0000   1.0000   1.0000   1.0000   1.0000   1.0000   1.0000
     1.0000   1.0000   1.0000   1.0000   1.0000   1.0000   1.0000   1.0000
     1.0000   1.0000   1.0000   1.0000   1.0000   1.0000   1.0000   1.0000
     1.0000   1.0000   1.0000   1.0000   1.0000   1.0000   1.0000   1.0000
     1.0000   1.0000   1.0000   1.0000   1.0000   1.0000   1.0000   1.0000
     1.0000   1.0000   1.0000   1.0000   1.0000   1.0000   1.0000   1.0000
     1.0000   1.0000   1.0000   1.0000   1.0000   1.0000   1.0000   1.0000
     1.0000   1.0000   1.0000   1.0000   1.0000   1.0000   1.0000   1.0000
     1.0000   1.0000   1.0000   1.0000   1.0000   1.0000   1.0000   1.0000
     1.0000   1.0000   1.0000   1.0000   1.0000   1.0000   1.0000   1.0000
     0.0000   0.0000   0.0000   0.0000   0.0000   0.0000   0.0000   0.0000
     0.0000   0.0000   0.0000   0.0000   0.0000   0.0000   0.0000   0.0000
     0.0000   0.0000   0.0000   0.0000   0.0000   0.0000   0.0000   0.0000
     0.0000   0.0000   0.0000   0.0000   0.0000   0.0000   0.0000   0.0000
     0.0000   0.0000   0.0000   0.0000   0.0000   0.0000   0.0000   0.0000
     0.0000   0.0000   0.0000   0.0000   0.0000   0.0000   0.0000   0.0000
     0.0000   0.0000   0.0000   0.0000   0.0000   0.0000   0.0000   0.0000
     0.0000   0.0000   0.0000   0.0000   0.0000   0.0000   0.0000   0.0000
     0.0000   0.0000   0.0000   0.0000   0.0000   0.0000   0.0000   0.0000
     0.0000   0.0000   0.0000   0.0000   0.0000   0.0000   0.0000   0.0000
     0.0000   0.0000   0.0000   0.0000   0.0000   0.0000   0.0000   0.0000
     0.0000   0.0000   0.0000   0.0000   0.0000   0.0000   0.0000   0.0000
     0.0000   0.0000   0.0000   0.0000   0.0000   0.0000   0.0000   0.0000
     0.0000   0.0000   0.0000   0.0000   0.0000   0.0000   0.0000   0.0000
     0.0000   0.0000   0.0000   0.0000   0.0000   0.0000   0.0000   0.0000
     0.0000   0.0000   0.0000   0.0000   0.0000   0.0000   0.0000   0.0000
     0.0000   0.0000   0.0000   0.0000   0.0000   0.0000   0.0000   0.0000
     0.0000   0.0000   0.0000   0.0000   0.0000   0.0000   0.0000   0.0000
     0.0000   0.0000   0.0000   0.0000   0.0000   0.0000   0.0000   0.0000
     0.0000   0.0000   0.0000   0.0000   0.0000   0.0000   0.0000   0.0000
     0.0000   0.0000   0.0000   0.0000   0.0000   0.0000   0.0000   0.0000
     0.0000   0.0000   0.0000   0.0000   0.0000   0.0000   0.0000   0.0000

     highest occupied, lowest unoccupied level (ev):     1.7505    8.0202

!    total energy              =   -1148.26266824 Ry
     estimated scf accuracy    <       0.00000006 Ry

     The total energy is the sum of the following terms:
     one-electron contribution =    -597.87105465 Ry
     hartree contribution      =     375.89515267 Ry
     xc contribution           =    -318.45935536 Ry
     ewald contribution        =    -607.82741090 Ry

     convergence has been achieved in   8 iterations

     Writing all to output data dir bands_nm/myprefix.save/

     General routines

     Parallel routines

   This run was terminated on:  18:25:14  15Jul2023

   JOB DONE.