     Program PWSCF v.7.1 starts on 17Jul2023 at  0:19:58

     Reading input from espresso_24636.pwi
Warning: card &CELL ignored
Warning: card / ignored

     Current dimensions of program PWSCF are:
     Max number of different atomic species (ntypx) = 10
     Max number of k-points (npk) =  40000
     Max angular momentum in pseudopotentials (lmaxx) =  4
     Message from routine setup:
     using ibrav=0 with symmetry is DISCOURAGED, use correct ibrav instead

     K-points division:     npool     =       2
     R & G space division:  proc/nbgrp/npool/nimage =       4
     Subspace diagonalization in iterative solution of the eigenvalue problem:
     one sub-group per band group will be used

     Using Slab Decomposition

     bravais-lattice index     =            0
     lattice parameter (alat)  =       6.6240  a.u.
     unit-cell volume          =    2892.7213 (a.u.)^3
     number of atoms/cell      =           20
     number of atomic types    =            3
     number of electrons       =       176.00
     number of Kohn-Sham states=          256
     kinetic-energy cutoff     =      30.0000  Ry
     charge density cutoff     =     240.0000  Ry
     scf convergence threshold =      1.0E-06
     mixing beta               =       0.7000
     number of iterations used =            8  plain     mixing
     Exchange-correlation=  SLA  PW   PBX  PBC
                           (   1   4   3   4   0   0   0)

     celldm(1)=   6.623962  celldm(2)=   0.000000  celldm(3)=   0.000000
     celldm(4)=   0.000000  celldm(5)=   0.000000  celldm(6)=   0.000000

     crystal axes: (cart. coord. in units of alat)
               a(1) = (   1.000000   0.000000   0.000000 )
               a(2) = (   0.000000   2.599285   0.000000 )
               a(3) = (   0.000000   0.000000   3.829122 )

     reciprocal axes: (cart. coord. in units 2 pi/alat)
               b(1) = (  1.000000  0.000000  0.000000 )
               b(2) = (  0.000000  0.384721  0.000000 )
               b(3) = (  0.000000  0.000000  0.261156 )

     PseudoPot. # 1 for Ti read from file:
     /lustre07/scratch/pragov/crystal_structure_design/utils/SSSP/ti_pbe_v1.4.uspp.F.UPF
     MD5 check sum: 88a00a6731bd790ddea75d31a80cb452
     Pseudo is Ultrasoft + core correction, Zval = 12.0
     Generated by new atomic code, or converted to UPF format
     Using radial grid of  851 points,  6 beta functions with:
                l(1) =   0
                l(2) =   0
                l(3) =   1
                l(4) =   1
                l(5) =   2
                l(6) =   2
     Q(r) pseudized with  6 coefficients,  rinner =    1.000   1.000   1.000
                                                       1.000   1.000

     PseudoPot. # 2 for Ge read from file:
     /lustre07/scratch/pragov/crystal_structure_design/utils/SSSP/ge_pbe_v1.4.uspp.F.UPF
     MD5 check sum: 9c9eaa91e581c3f09632fb3098b2c6b2
     Pseudo is Ultrasoft + core correction, Zval = 14.0
     Generated by new atomic code, or converted to UPF format
     Using radial grid of  873 points,  6 beta functions with:
                l(1) =   0
                l(2) =   0
                l(3) =   1
                l(4) =   1
                l(5) =   2
                l(6) =   2
     Q(r) pseudized with  8 coefficients,  rinner =    1.400   1.400   1.400
                                                       1.400   1.400

     PseudoPot. # 3 for S  read from file:
     /lustre07/scratch/pragov/crystal_structure_design/utils/SSSP/s_pbe_v1.4.uspp.F.UPF
     MD5 check sum: 88d86576ff6df21479756cfb9bdac1df
     Pseudo is Ultrasoft + core correction, Zval =  6.0
     Generated by new atomic code, or converted to UPF format
     Using radial grid of  907 points,  6 beta functions with:
                l(1) =   0
                l(2) =   0
                l(3) =   1
                l(4) =   1
                l(5) =   2
                l(6) =   2
     Q(r) pseudized with  8 coefficients,  rinner =    1.300   1.300   1.300
                                                       1.300   1.300

     atomic species   valence    mass     pseudopotential
        Ti            12.00    47.86700     Ti( 1.00)
        Ge            14.00    72.63000     Ge( 1.00)
        S              6.00    32.06000     S ( 1.00)

      8 Sym. Ops., with inversion, found ( 6 have fractional translation)

                                    s                        frac. trans.

      isym =  1     identity

 cryst.   s( 1) = (     1          0          0      )
                  (     0          1          0      )
                  (     0          0          1      )

 cart.    s( 1) = (  1.0000000  0.0000000  0.0000000 )
                  (  0.0000000  1.0000000  0.0000000 )
                  (  0.0000000  0.0000000  1.0000000 )

      isym =  2     180 deg rotation - cart. axis [0,0,1]

 cryst.   s( 2) = (    -1          0          0      )    f =( -0.0000000 )
                  (     0         -1          0      )       (  0.5000000 )
                  (     0          0          1      )       (  0.5000000 )

 cart.    s( 2) = ( -1.0000000  0.0000000  0.0000000 )    f =( -0.0000000 )
                  (  0.0000000 -1.0000000  0.0000000 )       (  1.2996423 )
                  (  0.0000000  0.0000000  1.0000000 )       (  1.9145609 )

[...]

      isym =  4     180 deg rotation - cart. axis [1,0,0]

[...]

      isym =  5     inversion

 cryst.   s( 5) = (    -1          0          0      )
                  (     0         -1          0      )
                  (     0          0         -1      )

 cart.    s( 5) = ( -1.0000000  0.0000000  0.0000000 )
                  (  0.0000000 -1.0000000  0.0000000 )
                  (  0.0000000  0.0000000 -1.0000000 )

      isym =  6     inv. 180 deg rotation - cart. axis [0,0,1]

[...]

      isym =  8     inv. 180 deg rotation - cart. axis [1,0,0]

 cryst.   s( 8) = (    -1          0          0      )    f =(  0.5000000 )
                  (     0          1          0      )       (  0.0000000 )
                  (     0          0          1      )       (  0.0000000 )

 cart.    s( 8) = ( -1.0000000  0.0000000  0.0000000 )    f =(  0.5000000 )
                  (  0.0000000  1.0000000  0.0000000 )       (  0.0000000 )
                  (  0.0000000  0.0000000  1.0000000 )       (  0.0000000 )

   Cartesian axes

     site n.     atom                  positions (alat units)
         1           Ti  tau(   1) = (   0.7500000   0.9008626   3.6481345  )
         2           Ti  tau(   2) = (   0.7500000   2.2005049   2.0955481  )
         3           Ti  tau(   3) = (   0.2500000   1.6984219   0.1809873  )
         4           Ti  tau(   4) = (   0.2500000   0.3987796   1.7335736  )
         5           Ge  tau(   5) = (   0.2500000   0.1842347   3.2139427  )
         6           Ge  tau(   6) = (   0.2500000   1.4838769   2.5297399  )
         7           Ge  tau(   7) = (   0.7500000   2.4150498   0.6151790  )
         8           Ge  tau(   8) = (   0.7500000   1.1154076   1.2993818  )
         9           S   tau(   9) = (   0.2500000   1.3329833   3.4187931  )
        10           S   tau(  10) = (   0.2500000   0.0333410   2.3248896  )
        11           S   tau(  11) = (   0.7500000   1.2663012   0.4103287  )
        12           S   tau(  12) = (   0.7500000   2.5659435   1.5042322  )
        13           S   tau(  13) = (   0.7500000   0.6105121   3.0131972  )
        14           S   tau(  14) = (   0.7500000   1.9101544   2.7304855  )
        15           S   tau(  15) = (   0.2500000   1.9887724   0.8159246  )
        16           S   tau(  16) = (   0.2500000   0.6891301   1.0986363  )
        17           S   tau(  17) = (   0.2500000   0.4634836   0.0316860  )
        18           S   tau(  18) = (   0.2500000   1.7631259   1.8828749  )
        19           S   tau(  19) = (   0.7500000   2.1358009   3.7974358  )
        20           S   tau(  20) = (   0.7500000   0.8361586   1.9462469  )

   Crystallographic axes

     site n.     atom                  positions (cryst. coord.)
         1           Ti  tau(   1) = (  0.7500000  0.3465810  0.9527340  )
         2           Ti  tau(   2) = (  0.7500000  0.8465810  0.5472660  )
         3           Ti  tau(   3) = (  0.2500000  0.6534190  0.0472660  )
         4           Ti  tau(   4) = (  0.2500000  0.1534190  0.4527340  )
         5           Ge  tau(   5) = (  0.2500000  0.0708790  0.8393420  )
         6           Ge  tau(   6) = (  0.2500000  0.5708790  0.6606580  )
         7           Ge  tau(   7) = (  0.7500000  0.9291210  0.1606580  )
         8           Ge  tau(   8) = (  0.7500000  0.4291210  0.3393420  )
         9           S   tau(   9) = (  0.2500000  0.5128270  0.8928400  )
        10           S   tau(  10) = (  0.2500000  0.0128270  0.6071600  )
        11           S   tau(  11) = (  0.7500000  0.4871730  0.1071600  )
        12           S   tau(  12) = (  0.7500000  0.9871730  0.3928400  )
        13           S   tau(  13) = (  0.7500000  0.2348770  0.7869160  )
        14           S   tau(  14) = (  0.7500000  0.7348770  0.7130840  )
        15           S   tau(  15) = (  0.2500000  0.7651230  0.2130840  )
        16           S   tau(  16) = (  0.2500000  0.2651230  0.2869160  )
        17           S   tau(  17) = (  0.2500000  0.1783120  0.0082750  )
        18           S   tau(  18) = (  0.2500000  0.6783120  0.4917250  )
        19           S   tau(  19) = (  0.7500000  0.8216880  0.9917250  )
        20           S   tau(  20) = (  0.7500000  0.3216880  0.5082750  )

     number of k points=     8
                       cart. coord. in units 2pi/alat
        k(    1) = (   0.0000000   0.0000000   0.0000000), wk =   0.0740741
        k(    2) = (   0.0000000   0.0000000   0.0870522), wk =   0.1481481
        k(    3) = (   0.0000000   0.1282404   0.0000000), wk =   0.1481481
        k(    4) = (   0.0000000   0.1282404   0.0870522), wk =   0.2962963
        k(    5) = (   0.3333333   0.0000000   0.0000000), wk =   0.1481481
        k(    6) = (   0.3333333   0.0000000   0.0870522), wk =   0.2962963
        k(    7) = (   0.3333333   0.1282404   0.0000000), wk =   0.2962963
        k(    8) = (   0.3333333   0.1282404   0.0870522), wk =   0.5925926

                       cryst. coord.
        k(    1) = (   0.0000000   0.0000000   0.0000000), wk =   0.0740741
        k(    2) = (   0.0000000   0.0000000   0.3333333), wk =   0.1481481
        k(    3) = (   0.0000000   0.3333333   0.0000000), wk =   0.1481481
        k(    4) = (   0.0000000   0.3333333   0.3333333), wk =   0.2962963
        k(    5) = (   0.3333333   0.0000000   0.0000000), wk =   0.1481481
        k(    6) = (   0.3333333   0.0000000   0.3333333), wk =   0.2962963
        k(    7) = (   0.3333333   0.3333333   0.0000000), wk =   0.2962963
        k(    8) = (   0.3333333   0.3333333   0.3333333), wk =   0.5925926

     Check: negative core charge=   -0.000003

     Initial potential from superposition of free atoms

     starting charge     171.9959, renormalised to     176.0000

     negative rho (up, down):  6.052E-03 0.000E+00
     Starting wfcs are  124 randomized atomic wfcs +  132 random wfcs

     Self-consistent Calculation

     iteration #  1     ecut=    30.00 Ry     beta= 0.70
     Davidson diagonalization with overlap

     ethr =  1.00E-02,  avg # of iterations =  7.2

     total energy              =   -1556.76458340 Ry
     estimated scf accuracy    <      80.31589891 Ry

[...]

     negative rho (up, down):  1.543E-03 0.000E+00

[...]

     total energy              =   -1621.99816684 Ry
     estimated scf accuracy    <       0.00001970 Ry

     iteration # 14     ecut=    30.00 Ry     beta= 0.70
     Davidson diagonalization with overlap

     ethr =  1.12E-08,  avg # of iterations =  1.9

     negative rho (up, down):  4.993E-03 0.000E+00

     End of self-consistent calculation

          k = 0.0000 0.0000 0.0000 (  7969 PWs)   bands (ev):

   -51.1194 -51.1194 -51.1159 -51.1156 -27.3881 -27.3881 -27.3544 -27.3544
   -27.3217 -27.3217 -27.3186 -27.3185 -27.3176 -27.3176 -27.3075 -27.3075
   -17.8776 -17.8774 -17.8767 -17.8753 -17.8513 -17.8513 -17.8502 -17.8486
   -17.8416 -17.8403 -17.8397 -17.8397 -17.8373 -17.8352 -17.8347 -17.8336
   -17.8279 -17.8268 -17.8259 -17.8248  -7.3460  -7.0946  -7.0288  -6.9211
    -6.2377  -5.8929  -5.6752  -5.6310  -5.6168  -5.6059  -5.3803  -5.3408
    -0.9562  -0.4650  -0.3756  -0.1290   1.6616   1.9747   2.0983   2.1742
     2.4793   2.6029   2.7955   3.0001   3.1652   3.4717   3.6901   3.7098
     3.7384   3.7607   3.9320   3.9769   4.1053   4.2601   4.2746   4.2856
     4.4841   4.5094   4.5213   4.9265   4.9410   5.1132   5.2775   5.4096
     5.6976   5.7230   6.0055   6.0533   6.2095   6.2333   6.4131   6.4481
     7.0127   7.0353   7.1078   7.1555   7.5391   7.6061   7.8890   7.9629
     7.9899   8.1557   8.2073   8.3185   8.8696   9.1234   9.2859   9.4190
     9.6607   9.7164   9.7184   9.7611   9.9596  10.0057  10.0549  10.0555
    10.3975  10.8419  10.8649  10.9311  11.1585  11.5744  11.6631  11.8649
    13.1409  13.2887  13.4656  13.4758  13.6240  13.7892  14.0470  14.1803
    14.1877  14.5595  14.6841  14.7510  14.8927  15.3778  15.4768  15.7704
    15.8175  16.0308  16.1668  16.2577  16.4629  16.4830  16.5011  16.5177
    16.5547  16.7140  16.8010  16.8283  16.8546  17.3617  17.5718  17.5755
    17.5806  17.7493  17.7727  17.7762  17.8864  17.8908  18.2085  18.3780
    18.4823  18.5652  18.5717  18.6443  18.7575  18.8272  18.8986  19.0078
    19.0122  19.4769  19.5836  19.6830  19.8329  19.9671  20.1454  20.2082
    20.2268  20.3544  20.3925  20.6967  20.7758  21.1610  21.1640  21.2297
    21.3350  21.4495  21.5209  21.6627  22.0345  22.0862  22.3733  22.4034
    22.6049  22.6271  22.6739  22.8231  22.8281  22.8864  22.9190  23.2622
    23.2869  23.3030  23.6270  24.1797  24.2772  24.3842  24.5805  24.8051
    24.8496  24.8678  24.8980  25.0101  25.3142  25.3252  25.6628  25.6744
    25.7867  25.9584  26.0248  26.1583  26.1852  26.5949  26.6483  26.6928
    26.9237  26.9291  27.3131  27.3553  27.5053  27.5356  27.5480  27.6060
    27.6357  27.6600  28.3381  28.3519  28.3921  28.6123  28.7525  28.8201
    29.0044  29.0245  29.1296  29.1650  29.2850  29.3991  29.5417  29.5849
    29.8360  30.0336  30.0550  30.0662  30.2881  30.3109  30.5281  30.5575

     occupation numbers
     1.0000   1.0000   1.0000   1.0000   1.0000   1.0000   1.0000   1.0000
     1.0000   1.0000   1.0000   1.0000   1.0000   1.0000   1.0000   1.0000
     1.0000   1.0000   1.0000   1.0000   1.0000   1.0000   1.0000   1.0000
     1.0000   1.0000   1.0000   1.0000   1.0000   1.0000   1.0000   1.0000
     1.0000   1.0000   1.0000   1.0000   1.0000   1.0000   1.0000   1.0000
     1.0000   1.0000   1.0000   1.0000   1.0000   1.0000   1.0000   1.0000
     1.0000   1.0000   1.0000   1.0000   1.0000   1.0000   1.0000   1.0000
     1.0000   1.0000   1.0000   1.0000   1.0000   1.0000   1.0000   1.0000
     1.0000   1.0000   1.0000   1.0000   1.0000   1.0000   1.0000   1.0000
     1.0000   1.0000   1.0000   1.0000   1.0000   1.0000   1.0000   1.0000
     1.0000   1.0000   1.0000   1.0000   1.0000   1.0000   1.0000   1.0000
     0.0000   0.0000   0.0000   0.0000   0.0000   0.0000   0.0000   0.0000
     0.0000   0.0000   0.0000   0.0000   0.0000   0.0000   0.0000   0.0000
     0.0000   0.0000   0.0000   0.0000   0.0000   0.0000   0.0000   0.0000
     0.0000   0.0000   0.0000   0.0000   0.0000   0.0000   0.0000   0.0000
     0.0000   0.0000   0.0000   0.0000   0.0000   0.0000   0.0000   0.0000
     0.0000   0.0000   0.0000   0.0000   0.0000   0.0000   0.0000   0.0000
     0.0000   0.0000   0.0000   0.0000   0.0000   0.0000   0.0000   0.0000
     0.0000   0.0000   0.0000   0.0000   0.0000   0.0000   0.0000   0.0000
     0.0000   0.0000   0.0000   0.0000   0.0000   0.0000   0.0000   0.0000
     0.0000   0.0000   0.0000   0.0000   0.0000   0.0000   0.0000   0.0000
     0.0000   0.0000   0.0000   0.0000   0.0000   0.0000   0.0000   0.0000
     0.0000   0.0000   0.0000   0.0000   0.0000   0.0000   0.0000   0.0000
     0.0000   0.0000   0.0000   0.0000   0.0000   0.0000   0.0000   0.0000
     0.0000   0.0000   0.0000   0.0000   0.0000   0.0000   0.0000   0.0000
     0.0000   0.0000   0.0000   0.0000   0.0000   0.0000   0.0000   0.0000
     0.0000   0.0000   0.0000   0.0000   0.0000   0.0000   0.0000   0.0000
     0.0000   0.0000   0.0000   0.0000   0.0000   0.0000   0.0000   0.0000
     0.0000   0.0000   0.0000   0.0000   0.0000   0.0000   0.0000   0.0000
     0.0000   0.0000   0.0000   0.0000   0.0000   0.0000   0.0000   0.0000
     0.0000   0.0000   0.0000   0.0000   0.0000   0.0000   0.0000   0.0000
     0.0000   0.0000   0.0000   0.0000   0.0000   0.0000   0.0000   0.0000

[...]

          k = 0.3333 0.1282 0.0871 (  8035 PWs)   bands (ev):

   -51.1155 -51.1155 -51.1136 -51.1136 -27.3783 -27.3783 -27.3722 -27.3722
   -27.3534 -27.3534 -27.3469 -27.3469 -27.3168 -27.3168 -27.3158 -27.3158
   -17.8655 -17.8651 -17.8649 -17.8647 -17.8600 -17.8592 -17.8586 -17.8578
   -17.8487 -17.8483 -17.8480 -17.8476 -17.8348 -17.8339 -17.8334 -17.8324
   -17.8247 -17.8245 -17.8225 -17.8223  -6.3772  -6.3033  -6.2384  -6.2081
    -5.5936  -5.5671  -5.4998  -5.4833  -5.4084  -5.3861  -5.2710  -5.2574
    -1.0457  -1.0273  -0.8640  -0.8425   1.8900   1.9611   2.1325   2.1611
     2.2135   2.2930   2.6439   2.6735   2.7322   2.7652   2.9363   3.1269
     3.1882   3.2111   3.4901   3.5493   3.5938   3.6972   3.8075   3.8202
     4.0811   4.1483   4.2321   4.2620   4.2827   4.3862   4.7563   4.8298
     4.8706   4.9322   4.9796   5.0011   5.3506   5.5356   5.6200   5.7669
     7.3203   7.3627   7.5536   7.5967   7.8097   7.8304   7.9358   7.9622
     8.0170   8.0376   8.2649   8.2729   9.0516   9.1098   9.1344   9.3131
     9.4736   9.5114   9.8696   9.9070   9.9238  10.0680  10.1054  10.2567
    10.7357  10.8780  10.9467  11.0561  11.2697  11.3984  11.7128  11.8307
    13.3591  13.5307  13.6086  13.9136  13.9529  14.0156  14.2883  14.4257
    14.4909  14.7712  14.9264  15.0483  15.1544  15.2126  15.2551  15.3571
    15.5449  15.6257  15.8973  16.0688  16.1243  16.2330  16.3493  16.4367
    16.5153  16.5844  16.7220  16.7666  16.9294  17.1658  17.2058  17.2809
    17.4590  17.5515  17.6901  17.9867  18.1956  18.2744  18.4436  18.6011
    18.7408  18.8902  19.0732  19.1994  19.2985  19.3972  19.5984  19.6857
    19.8357  19.9109  20.0620  20.1582  20.2198  20.3183  20.4268  20.5751
    20.6946  21.0961  21.1847  21.3423  21.4253  21.4901  21.6276  21.8725
    22.1162  22.1955  22.3046  22.4860  22.7686  22.9510  23.1674  23.3643
    23.4353  23.5306  23.6553  23.8717  24.0286  24.2625  24.4266  24.4996
    24.7449  24.7807  24.8601  24.9629  25.0836  25.1574  25.3021  25.4299
    25.4652  25.6899  25.8494  25.9938  26.0234  26.1397  26.3205  26.3692
    26.4711  26.5253  26.5881  26.7332  26.9756  27.0470  27.0769  27.2031
    27.2827  27.4251  27.4896  27.6846  27.7478  27.8487  28.1389  28.1682
    28.2434  28.3274  28.4346  28.7015  28.7697  28.8181  28.9046  29.0566
    29.0676  29.0802  29.1297  29.2638  29.3016  29.3512  29.5365  29.6772
    29.7904  29.8918  29.9709  30.1758  30.2333  30.3029  30.4685  30.5586

     occupation numbers
     1.0000   1.0000   1.0000   1.0000   1.0000   1.0000   1.0000   1.0000
     1.0000   1.0000   1.0000   1.0000   1.0000   1.0000   1.0000   1.0000
     1.0000   1.0000   1.0000   1.0000   1.0000   1.0000   1.0000   1.0000
     1.0000   1.0000   1.0000   1.0000   1.0000   1.0000   1.0000   1.0000
     1.0000   1.0000   1.0000   1.0000   1.0000   1.0000   1.0000   1.0000
     1.0000   1.0000   1.0000   1.0000   1.0000   1.0000   1.0000   1.0000
     1.0000   1.0000   1.0000   1.0000   1.0000   1.0000   1.0000   1.0000
     1.0000   1.0000   1.0000   1.0000   1.0000   1.0000   1.0000   1.0000
     1.0000   1.0000   1.0000   1.0000   1.0000   1.0000   1.0000   1.0000
     1.0000   1.0000   1.0000   1.0000   1.0000   1.0000   1.0000   1.0000
     1.0000   1.0000   1.0000   1.0000   1.0000   1.0000   1.0000   1.0000
     0.0000   0.0000   0.0000   0.0000   0.0000   0.0000   0.0000   0.0000
     0.0000   0.0000   0.0000   0.0000   0.0000   0.0000   0.0000   0.0000
     0.0000   0.0000   0.0000   0.0000   0.0000   0.0000   0.0000   0.0000
     0.0000   0.0000   0.0000   0.0000   0.0000   0.0000   0.0000   0.0000
     0.0000   0.0000   0.0000   0.0000   0.0000   0.0000   0.0000   0.0000
     0.0000   0.0000   0.0000   0.0000   0.0000   0.0000   0.0000   0.0000
     0.0000   0.0000   0.0000   0.0000   0.0000   0.0000   0.0000   0.0000
     0.0000   0.0000   0.0000   0.0000   0.0000   0.0000   0.0000   0.0000
     0.0000   0.0000   0.0000   0.0000   0.0000   0.0000   0.0000   0.0000
     0.0000   0.0000   0.0000   0.0000   0.0000   0.0000   0.0000   0.0000
     0.0000   0.0000   0.0000   0.0000   0.0000   0.0000   0.0000   0.0000
     0.0000   0.0000   0.0000   0.0000   0.0000   0.0000   0.0000   0.0000
     0.0000   0.0000   0.0000   0.0000   0.0000   0.0000   0.0000   0.0000
     0.0000   0.0000   0.0000   0.0000   0.0000   0.0000   0.0000   0.0000
     0.0000   0.0000   0.0000   0.0000   0.0000   0.0000   0.0000   0.0000
     0.0000   0.0000   0.0000   0.0000   0.0000   0.0000   0.0000   0.0000
     0.0000   0.0000   0.0000   0.0000   0.0000   0.0000   0.0000   0.0000
     0.0000   0.0000   0.0000   0.0000   0.0000   0.0000   0.0000   0.0000
     0.0000   0.0000   0.0000   0.0000   0.0000   0.0000   0.0000   0.0000
     0.0000   0.0000   0.0000   0.0000   0.0000   0.0000   0.0000   0.0000
     0.0000   0.0000   0.0000   0.0000   0.0000   0.0000   0.0000   0.0000

     highest occupied, lowest unoccupied level (ev):     6.5883    6.9402

!    total energy              =   -1621.99816751 Ry
     estimated scf accuracy    <       0.00000097 Ry

     The total energy is the sum of the following terms:
     one-electron contribution =    -947.76848929 Ry
     hartree contribution      =     563.27754805 Ry
     xc contribution           =    -406.12537203 Ry
     ewald contribution        =    -831.38185424 Ry

     convergence has been achieved in  14 iterations

     Writing all to output data dir bands_nm/myprefix.save/

     General routines

     Parallel routines

   This run was terminated on:   0:21:27  17Jul2023

   JOB DONE.