     Program PWSCF v.7.1 starts on 14Jul2023 at  1:55:15

     Reading input from espresso_6338.pwi
Warning: card &CELL ignored
Warning: card / ignored

     Current dimensions of program PWSCF are:
     Max number of different atomic species (ntypx) = 10
     Max number of k-points (npk) =  40000
     Max angular momentum in pseudopotentials (lmaxx) =  4
     file O.pbe-n-kjpaw_psl.0.1.UPF: wavefunction(s)  2P renormalized
     Message from routine setup:
     using ibrav=0 with symmetry is DISCOURAGED, use correct ibrav instead

     K-points division:     npool     =       2
     R & G space division:  proc/nbgrp/npool/nimage =       4
     Subspace diagonalization in iterative solution of the eigenvalue problem:
     a serial algorithm will be used

     Using Slab Decomposition

     bravais-lattice index     =            0
     lattice parameter (alat)  =      11.9511  a.u.
     unit-cell volume          =    1167.3319 (a.u.)^3
     number of atoms/cell      =           12
     number of atomic types    =            3
     number of electrons       =       100.00
     number of Kohn-Sham states=           64
     kinetic-energy cutoff     =      30.0000  Ry
     charge density cutoff     =     240.0000  Ry
     scf convergence threshold =      1.0E-06
     mixing beta               =       0.7000
     number of iterations used =            8  plain     mixing
     Exchange-correlation= SLA  PW   PBX  PBC
                           (   1   4   3   4   0   0   0)

     celldm(1)=  11.951099  celldm(2)=   0.000000  celldm(3)=   0.000000
     celldm(4)=   0.000000  celldm(5)=   0.000000  celldm(6)=   0.000000

     crystal axes: (cart. coord. in units of alat)
               a(1) = (   1.000000   0.000000   0.000000 )
               a(2) = (  -0.501629   0.865083   0.000000 )
               a(3) = (   0.000000   0.000000   0.790520 )

     reciprocal axes: (cart. coord. in units 2 pi/alat)
               b(1) = (  1.000000  0.579862  0.000000 )
               b(2) = (  0.000000  1.155958  0.000000 )
               b(3) = (  0.000000  0.000000  1.264989 )

     PseudoPot. # 1 for Na read from file:
     /lustre07/scratch/pragov/crystal_structure_design/utils/SSSP/na_pbe_v1.5.uspp.F.UPF
     MD5 check sum: 44600605ef58000f06b90626533354dc
     Pseudo is Ultrasoft, Zval =  9.0
     Generated by new atomic code, or converted to UPF format
     Using radial grid of  819 points,  5 beta functions with:
                l(1) =   0
                l(2) =   0
                l(3) =   1
                l(4) =   1
                l(5) =   2
     Q(r) pseudized with  8 coefficients,  rinner =    1.250   1.250   1.250
                                                       1.250   1.250

     PseudoPot. # 2 for Ge read from file:
     /lustre07/scratch/pragov/crystal_structure_design/utils/SSSP/ge_pbe_v1.4.uspp.F.UPF
     MD5 check sum: 9c9eaa91e581c3f09632fb3098b2c6b2
     Pseudo is Ultrasoft + core correction, Zval = 14.0
     Generated by new atomic code, or converted to UPF format
     Using radial grid of  873 points,  6 beta functions with:
                l(1) =   0
                l(2) =   0
                l(3) =   1
                l(4) =   1
                l(5) =   2
                l(6) =   2
     Q(r) pseudized with  8 coefficients,  rinner =    1.400   1.400   1.400
                                                       1.400   1.400

     PseudoPot. # 3 for O  read from file:
     /lustre07/scratch/pragov/crystal_structure_design/utils/SSSP/O.pbe-n-kjpaw_psl.0.1.UPF
     MD5 check sum: 0234752ac141de4415c5fc33072bef88
     Pseudo is Projector augmented-wave + core cor, Zval =  6.0
     Generated using "atomic" code by A. Dal Corso  v.5.0.99 svn rev. 10869
     Shape of augmentation charge: BESSEL
     Using radial grid of 1095 points,  4 beta functions with:
                l(1) =   0
                l(2) =   0
                l(3) =   1
                l(4) =   1
     Q(r) pseudized with 0 coefficients

     atomic species   valence    mass     pseudopotential
        Na             9.00    22.98977     Na( 1.00)
        Ge            14.00    72.63000     Ge( 1.00)
        O              6.00    15.99900     O ( 1.00)

      2 Sym. Ops. (no inversion) found ( 1 have fractional translation)

                                    s                        frac. trans.

      isym =  1     identity

 cryst.   s( 1) = (     1          0          0      )
                  (     0          1          0      )
                  (     0          0          1      )

 cart.    s( 1) = (  1.0000000 -0.0000000  0.0000000 )
                  (  0.0000000  1.0000000  0.0000000 )
                  (  0.0000000  0.0000000  1.0000000 )

      isym =  2     180 deg rotation - cart. axis [0,0,1]

 cryst.   s( 2) = (    -1          0          0      )    f =(  0.0000000 )
                  (     0         -1          0      )       ( -0.0000000 )
                  (     0          0          1      )       (  0.5000000 )

 cart.    s( 2) = ( -1.0000000  0.0000000  0.0000000 )    f =(  0.0000000 )
                  (  0.0000000 -1.0000000  0.0000000 )       ( -0.0000000 )
                  (  0.0000000  0.0000000  1.0000000 )       (  0.3952602 )

   Cartesian axes

     site n.     atom                  positions (alat units)
         1           Na  tau(   1) = (  -0.0817124   0.4381256   0.3938120  )
         2           Na  tau(   2) = (   0.4200043   0.1490884   0.3938120  )
         3           Na  tau(   3) = (   0.5800836   0.4269574   0.7890722  )
         4           Na  tau(   4) = (   0.0783670   0.7159946   0.7890722  )
         5           Ge  tau(   5) = (   0.4167146   0.7233417   0.3681106  )
         6           Ge  tau(   6) = (   0.0816566   0.1417413   0.7633708  )
         7           O   tau(   7) = (   0.0521047   0.0904444   0.4767423  )
         8           O   tau(   8) = (   0.4462665   0.7746386   0.0814821  )
         9           O   tau(   9) = (   0.5561050   0.4910099   0.4151552  )
        10           O   tau(  10) = (  -0.0577338   0.3740731   0.0198950  )
        11           O   tau(  11) = (   0.1458060   0.7273817   0.4151552  )
        12           O   tau(  12) = (   0.3525652   0.1377013   0.0198950  )

   Crystallographic axes

     site n.     atom                  positions (cryst. coord.)
         1           Na  tau(   1) = (  0.1723400  0.5064550  0.4981680  )
         2           Na  tau(   2) = (  0.5064550  0.1723400  0.4981680  )
         3           Na  tau(   3) = (  0.8276600  0.4935450  0.9981680  )
         4           Na  tau(   4) = (  0.4935450  0.8276600  0.9981680  )
         5           Ge  tau(   5) = (  0.8361530  0.8361530  0.4656560  )
         6           Ge  tau(   6) = (  0.1638470  0.1638470  0.9656560  )
         7           O   tau(   7) = (  0.1045500  0.1045500  0.6030740  )
         8           O   tau(   8) = (  0.8954500  0.8954500  0.1030740  )
         9           O   tau(   9) = (  0.8408230  0.5675870  0.5251670  )
        10           O   tau(  10) = (  0.1591770  0.4324130  0.0251670  )
        11           O   tau(  11) = (  0.5675870  0.8408230  0.5251670  )
        12           O   tau(  12) = (  0.4324130  0.1591770  0.0251670  )

     number of k points=    10
                       cart. coord. in units 2pi/alat
        k(    1) = (   0.0000000   0.0000000   0.0000000), wk =   0.0740741
        k(    2) = (   0.0000000   0.0000000   0.4216632), wk =   0.1481481
        k(    3) = (   0.0000000   0.3853195   0.0000000), wk =   0.1481481
        k(    4) = (   0.0000000   0.3853195   0.4216632), wk =   0.2962963
        k(    5) = (   0.3333333   0.1932873   0.0000000), wk =   0.1481481
        k(    6) = (   0.3333333   0.1932873   0.4216632), wk =   0.2962963
        k(    7) = (   0.3333333   0.5786068   0.0000000), wk =   0.1481481
        k(    8) = (   0.3333333   0.5786068   0.4216632), wk =   0.2962963
        k(    9) = (   0.3333333  -0.1920322   0.0000000), wk =   0.1481481
        k(   10) = (   0.3333333  -0.1920322   0.4216632), wk =   0.2962963

                       cryst. coord.
        k(    1) = (   0.0000000   0.0000000   0.0000000), wk =   0.0740741
        k(    2) = (   0.0000000   0.0000000   0.3333333), wk =   0.1481481
        k(    3) = (   0.0000000   0.3333333   0.0000000), wk =   0.1481481
        k(    4) = (   0.0000000   0.3333333   0.3333333), wk =   0.2962963
        k(    5) = (   0.3333333   0.0000000   0.0000000), wk =   0.1481481
        k(    6) = (   0.3333333   0.0000000   0.3333333), wk =   0.2962963
        k(    7) = (   0.3333333   0.3333333   0.0000000), wk =   0.1481481
        k(    8) = (   0.3333333   0.3333333   0.3333333), wk =   0.2962963
        k(    9) = (   0.3333333  -0.3333333   0.0000000), wk =   0.1481481
        k(   10) = (   0.3333333  -0.3333333   0.3333333), wk =   0.2962963

     Check: negative core charge=   -0.000011

     Initial potential from superposition of free atoms

     starting charge      99.9731, renormalised to     100.0000
     Starting wfcs are   62 randomized atomic wfcs +    2 random wfcs
     Checking if some PAW data can be deallocated...

     Self-consistent Calculation

     iteration #  1     ecut=    30.00 Ry     beta= 0.70
     Davidson diagonalization with overlap

     ethr =  1.00E-02,  avg # of iterations =  5.6

     total energy              =   -1057.70044217 Ry
     estimated scf accuracy    <       2.62277307 Ry

[...]

     total energy              =   -1058.94905210 Ry
     estimated scf accuracy    <       0.00000164 Ry

     iteration #  8     ecut=    30.00 Ry     beta= 0.70
     Davidson diagonalization with overlap

     ethr =  1.64E-09,  avg # of iterations =  3.2

     End of self-consistent calculation

          k = 0.0000 0.0000 0.0000 (  3269 PWs)   bands (ev):

   -45.7504 -45.7461 -45.7453 -45.7421 -20.0203 -19.9584 -19.8826 -19.8813
   -19.8779 -19.8024 -19.7036 -19.6814 -19.6805 -19.6671 -17.7187 -17.7164
   -17.7078 -17.7044 -17.6868 -17.6791 -17.6721 -17.6651 -17.6609 -17.6601
   -17.6304 -17.6273 -15.2079 -13.6209 -13.1433 -12.7612 -12.4750 -12.4545
    -4.2763  -1.8157  -1.3281  -0.8454  -0.3124   0.9351   1.0439   1.0636
     1.5978   2.0864   2.0870   2.4214   2.6017   2.7461   2.8247   2.8547
     2.9113   2.9187   6.1523   9.7310  10.7041  11.3091  11.3095  11.3445
    12.3224  12.4586  12.4902  12.9279  13.0350  13.2223  14.0484  14.4606

     occupation numbers
     1.0000   1.0000   1.0000   1.0000   1.0000   1.0000   1.0000   1.0000
     1.0000   1.0000   1.0000   1.0000   1.0000   1.0000   1.0000   1.0000
     1.0000   1.0000   1.0000   1.0000   1.0000   1.0000   1.0000   1.0000
     1.0000   1.0000   1.0000   1.0000   1.0000   1.0000   1.0000   1.0000
     1.0000   1.0000   1.0000   1.0000   1.0000   1.0000   1.0000   1.0000
     1.0000   1.0000   1.0000   1.0000   1.0000   1.0000   1.0000   1.0000
     1.0000   1.0000   0.0000   0.0000   0.0000   0.0000   0.0000   0.0000
     0.0000   0.0000   0.0000   0.0000   0.0000   0.0000   0.0000   0.0000

[...]

          k = 0.3333-0.1920 0.4217 (  3240 PWs)   bands (ev):

   -45.7482 -45.7457 -45.7452 -45.7439 -19.9965 -19.9657 -19.8799 -19.8769
   -19.8676 -19.8282 -19.6967 -19.6864 -19.6761 -19.6706 -17.7344 -17.7340
   -17.7206 -17.7141 -17.6969 -17.6922 -17.6631 -17.6583 -17.6407 -17.6363
   -17.6343 -17.6312 -14.8642 -14.1338 -12.9464 -12.7673 -12.5086 -12.4511
    -3.8636  -2.8751  -0.3855  -0.2245   0.0693   0.5056   0.6102   1.0638
     1.5233   1.5594   2.1289   2.3502   2.4834   2.5593   2.7814   2.7926
     3.0603   3.0838   7.9917   9.2970  10.0106  10.4840  10.7450  11.1906
    11.5170  12.0208  12.1274  13.0325  13.5433  14.0694  14.4138  14.7864

     occupation numbers
     1.0000   1.0000   1.0000   1.0000   1.0000   1.0000   1.0000   1.0000
     1.0000   1.0000   1.0000   1.0000   1.0000   1.0000   1.0000   1.0000
     1.0000   1.0000   1.0000   1.0000   1.0000   1.0000   1.0000   1.0000
     1.0000   1.0000   1.0000   1.0000   1.0000   1.0000   1.0000   1.0000
     1.0000   1.0000   1.0000   1.0000   1.0000   1.0000   1.0000   1.0000
     1.0000   1.0000   1.0000   1.0000   1.0000   1.0000   1.0000   1.0000
     1.0000   1.0000   0.0000   0.0000   0.0000   0.0000   0.0000   0.0000
     0.0000   0.0000   0.0000   0.0000   0.0000   0.0000   0.0000   0.0000

     highest occupied, lowest unoccupied level (ev):     3.1784    6.1523

!    total energy              =   -1058.94905228 Ry
     estimated scf accuracy    <       0.00000046 Ry

     The total energy is the sum of the following terms:
     one-electron contribution =    -690.37055436 Ry
     hartree contribution      =     400.23365087 Ry
     xc contribution           =    -219.37162428 Ry
     ewald contribution        =    -492.30712950 Ry
     one-center paw contrib.   =     -57.13339501 Ry
      -> PAW hartree energy AE =       0.00000000 Ry
      -> PAW hartree energy PS =       0.00000000 Ry
      -> PAW xc energy AE      =       0.00000000 Ry
      -> PAW xc energy PS      =       0.00000000 Ry
      -> total E_H with PAW    =     400.23365087 Ry
      -> total E_XC with PAW   =    -219.37162428 Ry

     convergence has been achieved in   8 iterations

     Writing all to output data dir bands_nm/myprefix.save/

     General routines

     Parallel routines

     PAW routines

   This run was terminated on:   1:55:23  14Jul2023

   JOB DONE.