     Program PWSCF v.7.1 starts on 16Jul2023 at 13: 4: 6

     Reading input from espresso_26059.pwi
Warning: card &CELL ignored
Warning: card / ignored

     Current dimensions of program PWSCF are:
     Max number of different atomic species (ntypx) = 10
     Max number of k-points (npk) =  40000
     Max angular momentum in pseudopotentials (lmaxx) =  4
     file O.pbe-n-kjpaw_psl.0.1.UPF: wavefunction(s)  2P renormalized
     Message from routine setup:
     using ibrav=0 with symmetry is DISCOURAGED, use correct ibrav instead

     K-points division:     npool     =       2
     R & G space division:  proc/nbgrp/npool/nimage =       4
     Subspace diagonalization in iterative solution of the eigenvalue problem:
     a serial algorithm will be used

     Using Slab Decomposition

     bravais-lattice index     =            0
     lattice parameter (alat)  =      14.6476  a.u.
     unit-cell volume          =     780.1272 (a.u.)^3
     number of atoms/cell      =            3
     number of atomic types    =            2
     number of electrons       =        24.00
     number of Kohn-Sham states=           64
     kinetic-energy cutoff     =      30.0000  Ry
     charge density cutoff     =     240.0000  Ry
     scf convergence threshold =      1.0E-06
     mixing beta               =       0.7000
     number of iterations used =            8  plain     mixing
     Exchange-correlation= SLA  PW   PBX  PBC
                           (   1   4   3   4   0   0   0)

     celldm(1)=  14.647560  celldm(2)=   0.000000  celldm(3)=   0.000000
     celldm(4)=   0.000000  celldm(5)=   0.000000  celldm(6)=   0.000000

     crystal axes: (cart. coord. in units of alat)
               a(1) = (   1.000000   0.000000   0.000000 )
               a(2) = (   0.848863   0.528613   0.000000 )
               a(3) = (   0.848863   0.242700   0.469604 )

     reciprocal axes: (cart. coord. in units 2 pi/alat)
               b(1) = (  1.000000 -1.605831 -0.977690 )
               b(2) = (  0.000000  1.891744 -0.977690 )
               b(3) = (  0.000000  0.000000  2.129453 )

     PseudoPot. # 1 for Cs read from file:
     /lustre07/scratch/pragov/crystal_structure_design/utils/SSSP/Cs_pbe_v1.uspp.F.UPF
     MD5 check sum: 3476d69cb178dfad3ffaa59df4e07ca4
     Pseudo is Ultrasoft + core correction, Zval =  9.0
     Generated by new atomic code, or converted to UPF format
     Using radial grid of  905 points,  6 beta functions with:
                l(1) =   0
                l(2) =   0
                l(3) =   1
                l(4) =   1
                l(5) =   2
                l(6) =   2
     Q(r) pseudized with  6 coefficients,  rinner =    1.500   1.500   1.500
                                                       1.500   1.500

     PseudoPot. # 2 for O  read from file:
     /lustre07/scratch/pragov/crystal_structure_design/utils/SSSP/O.pbe-n-kjpaw_psl.0.1.UPF
     MD5 check sum: 0234752ac141de4415c5fc33072bef88
     Pseudo is Projector augmented-wave + core cor, Zval =  6.0
     Generated using "atomic" code by A. Dal Corso  v.5.0.99 svn rev. 10869
     Shape of augmentation charge: BESSEL
     Using radial grid of 1095 points,  4 beta functions with:
                l(1) =   0
                l(2) =   0
                l(3) =   1
                l(4) =   1
     Q(r) pseudized with 0 coefficients

     atomic species   valence    mass     pseudopotential
        Cs             9.00   132.90545     Cs( 1.00)
        O              6.00    15.99900     O ( 1.00)

      2 Sym. Ops., with inversion, found

                                    s                        frac. trans.

      isym =  1     identity

 cryst.   s( 1) = (     1          0          0      )
                  (     0          1          0      )
                  (     0          0          1      )

 cart.    s( 1) = (  1.0000000  0.0000000  0.0000000 )
                  (  0.0000000  1.0000000 -0.0000000 )
                  (  0.0000000  0.0000000  1.0000000 )

      isym =  2     inversion

 cryst.   s( 2) = (    -1          0          0      )
                  (     0         -1          0      )
                  (     0          0         -1      )

 cart.    s( 2) = ( -1.0000000  0.0000000  0.0000000 )
                  (  0.0000000 -1.0000000  0.0000000 )
                  (  0.0000000  0.0000000 -1.0000000 )

   Cartesian axes

     site n.     atom                  positions (alat units)
         1           Cs  tau(   1) = (   0.7130576   0.2038720   0.1241248  )
         2           Cs  tau(   2) = (   1.9846685   0.5674413   0.3454793  )
         3           O   tau(   3) = (   0.0000000   0.0000000   0.0000000  )

   Crystallographic axes

     site n.     atom                  positions (cryst. coord.)
         1           Cs  tau(   1) = (  0.2643180  0.2643180  0.2643180  )
         2           Cs  tau(   2) = (  0.7356820  0.7356820  0.7356820  )
         3           O   tau(   3) = (  0.0000000  0.0000000  0.0000000  )

     number of k points=    14
                       cart. coord. in units 2pi/alat
        k(    1) = (   0.0000000   0.0000000   0.0000000), wk =   0.0740741
        k(    2) = (   0.0000000   0.0000000   0.7098178), wk =   0.1481481
        k(    3) = (   0.0000000   0.6305812  -0.3258965), wk =   0.1481481
        k(    4) = (   0.0000000   0.6305812   0.3839213), wk =   0.1481481
        k(    5) = (   0.0000000   0.6305812  -1.0357143), wk =   0.1481481
        k(    6) = (   0.3333333  -0.5352771  -0.3258965), wk =   0.1481481
        k(    7) = (   0.3333333  -0.5352771   0.3839213), wk =   0.1481481
        k(    8) = (   0.3333333  -0.5352771  -1.0357143), wk =   0.1481481
        k(    9) = (   0.3333333   0.0953041  -0.6517931), wk =   0.1481481
        k(   10) = (   0.3333333   0.0953041   0.0580247), wk =   0.1481481
        k(   11) = (   0.3333333   0.0953041  -1.3616109), wk =   0.1481481
        k(   12) = (   0.3333333  -1.1658583   0.0000000), wk =   0.1481481
        k(   13) = (   0.3333333  -1.1658583   0.7098178), wk =   0.1481481
        k(   14) = (   0.3333333  -1.1658583  -0.7098178), wk =   0.1481481

                       cryst. coord.
        k(    1) = (   0.0000000   0.0000000   0.0000000), wk =   0.0740741
        k(    2) = (   0.0000000   0.0000000   0.3333333), wk =   0.1481481
        k(    3) = (   0.0000000   0.3333333   0.0000000), wk =   0.1481481
        k(    4) = (   0.0000000   0.3333333   0.3333333), wk =   0.1481481
        k(    5) = (   0.0000000   0.3333333  -0.3333333), wk =   0.1481481
        k(    6) = (   0.3333333   0.0000000  -0.0000000), wk =   0.1481481
        k(    7) = (   0.3333333   0.0000000   0.3333333), wk =   0.1481481
        k(    8) = (   0.3333333   0.0000000  -0.3333333), wk =   0.1481481
        k(    9) = (   0.3333333   0.3333333   0.0000000), wk =   0.1481481
        k(   10) = (   0.3333333   0.3333333   0.3333333), wk =   0.1481481
        k(   11) = (   0.3333333   0.3333333  -0.3333333), wk =   0.1481481
        k(   12) = (   0.3333333  -0.3333333  -0.0000000), wk =   0.1481481
        k(   13) = (   0.3333333  -0.3333333   0.3333333), wk =   0.1481481
        k(   14) = (   0.3333333  -0.3333333  -0.3333333), wk =   0.1481481

     Check: negative core charge=   -0.000004

     Initial potential from superposition of free atoms

     starting charge      23.9212, renormalised to      24.0000
     Starting wfcs are   30 randomized atomic wfcs +   34 random wfcs
     Checking if some PAW data can be deallocated...

     Self-consistent Calculation

     iteration #  1     ecut=    30.00 Ry     beta= 0.70
     Davidson diagonalization with overlap

     ethr =  1.00E-02,  avg # of iterations =  8.0

     total energy              =    -167.02899337 Ry
     estimated scf accuracy    <       1.42477674 Ry

[...]

     total energy              =    -167.80886077 Ry
     estimated scf accuracy    <       0.00001694 Ry

     iteration # 10     ecut=    30.00 Ry     beta= 0.70
     Davidson diagonalization with overlap

     ethr =  7.06E-08,  avg # of iterations =  1.0

     End of self-consistent calculation

          k = 0.0000 0.0000 0.0000 (  2125 PWs)   bands (ev):

   -16.4635 -16.2466  -9.5927  -3.5857  -2.7971  -2.7971  -2.7794  -2.6638
    -2.6638   4.3385   4.6895   4.6895   5.6982   8.7074   9.6223  10.2651
    10.2651  11.3038  11.3038  12.1205  12.1205  12.2850  12.5089  13.8488
    13.8488  14.4771  14.6072  16.0378  16.0378  17.5013  17.5013  18.2449
    20.1747  21.1045  21.1045  21.1732  21.4672  21.5571  21.6594  23.2257
    23.2257  23.4797  23.4797  23.5698  23.9438  24.7017  24.7017  25.2124
    25.4144  26.2349  26.2349  27.1482  27.1482  28.1495  28.3931  28.3931
    29.3596  29.3596  29.4657  29.8685  30.2591  30.7928  30.7928  31.0448

     occupation numbers
     1.0000   1.0000   1.0000   1.0000   1.0000   1.0000   1.0000   1.0000
     1.0000   1.0000   1.0000   1.0000   0.0000   0.0000   0.0000   0.0000
     0.0000   0.0000   0.0000   0.0000   0.0000   0.0000   0.0000   0.0000
     0.0000   0.0000   0.0000   0.0000   0.0000   0.0000   0.0000   0.0000
     0.0000   0.0000   0.0000   0.0000   0.0000   0.0000   0.0000   0.0000
     0.0000   0.0000   0.0000   0.0000   0.0000   0.0000   0.0000   0.0000
     0.0000   0.0000   0.0000   0.0000   0.0000   0.0000   0.0000   0.0000
     0.0000   0.0000   0.0000   0.0000   0.0000   0.0000   0.0000   0.0000

[...]

          k = 0.3333-1.1659-0.7098 (  2156 PWs)   bands (ev):

   -16.3181 -16.2177  -9.6877  -3.6931  -3.3377  -3.1294  -3.0770  -2.9169
    -2.7430   4.6378   4.8778   5.0164   6.9395   8.2949   8.6285   9.7332
    11.1515  11.4399  11.8377  12.0210  12.1637  13.2500  13.6343  13.6544
    14.9022  15.4332  17.4922  17.7314  17.7775  18.0762  18.5541  18.6312
    19.1219  19.3004  19.4735  19.4887  20.3136  20.7492  21.2714  21.3902
    21.4703  21.6703  22.4576  23.3424  24.2456  24.3150  24.5592  25.1943
    25.3186  25.7028  25.9746  26.6347  27.0728  27.3232  28.1642  28.3392
    28.6510  28.9311  29.4586  29.8144  30.4044  31.7016  31.9988  32.4013

     occupation numbers
     1.0000   1.0000   1.0000   1.0000   1.0000   1.0000   1.0000   1.0000
     1.0000   1.0000   1.0000   1.0000   0.0000   0.0000   0.0000   0.0000
     0.0000   0.0000   0.0000   0.0000   0.0000   0.0000   0.0000   0.0000
     0.0000   0.0000   0.0000   0.0000   0.0000   0.0000   0.0000   0.0000
     0.0000   0.0000   0.0000   0.0000   0.0000   0.0000   0.0000   0.0000
     0.0000   0.0000   0.0000   0.0000   0.0000   0.0000   0.0000   0.0000
     0.0000   0.0000   0.0000   0.0000   0.0000   0.0000   0.0000   0.0000
     0.0000   0.0000   0.0000   0.0000   0.0000   0.0000   0.0000   0.0000

     highest occupied, lowest unoccupied level (ev):     5.0431    5.6982

!    total energy              =    -167.80886339 Ry
     estimated scf accuracy    <       0.00000028 Ry

     The total energy is the sum of the following terms:
     one-electron contribution =     -49.75311588 Ry
     hartree contribution      =      35.73091254 Ry
     xc contribution           =     -68.04014843 Ry
     ewald contribution        =     -76.21522399 Ry
     one-center paw contrib.   =      -9.53128763 Ry
      -> PAW hartree energy AE =       0.00000000 Ry
      -> PAW hartree energy PS =       0.00000000 Ry
      -> PAW xc energy AE      =       0.00000000 Ry
      -> PAW xc energy PS      =       0.00000000 Ry
      -> total E_H with PAW    =      35.73091254 Ry
      -> total E_XC with PAW   =     -68.04014843 Ry

     convergence has been achieved in  10 iterations

     Writing all to output data dir bands_nm/myprefix.save/

     General routines

     Parallel routines

     PAW routines

   This run was terminated on:  13: 4:25  16Jul2023

   JOB DONE.