     Program PWSCF v.7.1 starts on 15Jul2023 at 18:26:52

     Reading input from espresso_5695.pwi
Warning: card &CELL ignored
Warning: card / ignored

     Current dimensions of program PWSCF are:
     Max number of different atomic species (ntypx) = 10
     Max number of k-points (npk) =  40000
     Max angular momentum in pseudopotentials (lmaxx) =  4
     file Dy.paw.z_20.atompaw.wentzcovitch.v1.2.upf: wavefunction(s)  6S 0P 5D 0D 4F 0F renormalized
     file O.pbe-n-kjpaw_psl.0.1.UPF: wavefunction(s)  2P renormalized
     Message from routine setup:
     using ibrav=0 with symmetry is DISCOURAGED, use correct ibrav instead

     K-points division:     npool     =       2
     R & G space division:  proc/nbgrp/npool/nimage =       4
     Subspace diagonalization in iterative solution of the eigenvalue problem:
     one sub-group per band group will be used

     Using Slab Decomposition

     bravais-lattice index     =            0
     lattice parameter (alat)  =      10.0802  a.u.
     unit-cell volume          =    1578.6056 (a.u.)^3
     number of atoms/cell      =           20
     number of atomic types    =            3
     number of electrons       =       204.00
     number of Kohn-Sham states=          256
     kinetic-energy cutoff     =      30.0000  Ry
     charge density cutoff     =     240.0000  Ry
     scf convergence threshold =      1.0E-06
     mixing beta               =       0.7000
     number of iterations used =            8  plain     mixing
     Exchange-correlation= SLA  PW   PBX  PBC
                           (   1   4   3   4   0   0   0)

     celldm(1)=  10.080198  celldm(2)=   0.000000  celldm(3)=   0.000000
     celldm(4)=   0.000000  celldm(5)=   0.000000  celldm(6)=   0.000000

     crystal axes: (cart. coord. in units of alat)
               a(1) = (   1.000000   0.000000   0.000000 )
               a(2) = (   0.000000   1.076654   0.000000 )
               a(3) = (   0.000000   0.000000   1.431496 )

     reciprocal axes: (cart. coord. in units 2 pi/alat)
               b(1) = (  1.000000  0.000000  0.000000 )
               b(2) = (  0.000000  0.928803  0.000000 )
               b(3) = (  0.000000  0.000000  0.698570 )

     PseudoPot. # 1 for Dy read from file:
     /lustre07/scratch/pragov/crystal_structure_design/utils/SSSP/Dy.paw.z_20.atompaw.wentzcovitch.v1.2.upf
     MD5 check sum: fad4f994dc38884d1fc17fd7bf5e13bf
     Pseudo is Projector augmented-wave + core cor, Zval = 20.0
     Generated using ATOMPAW code
     Shape of augmentation charge: BESSEL
     Using radial grid of 1112 points,  8 beta functions with:
                l(1) =   0
                l(2) =   0
                l(3) =   1
                l(4) =   1
                l(5) =   2
                l(6) =   2
                l(7) =   3
                l(8) =   3
     Q(r) pseudized with 0 coefficients

     PseudoPot. # 2 for V  read from file:
     /lustre07/scratch/pragov/crystal_structure_design/utils/SSSP/v_pbe_v1.4.uspp.F.UPF
     MD5 check sum: 22b79981416ebb76fdaf5b1b8640f6fb
     Pseudo is Ultrasoft + core correction, Zval = 13.0
     Generated by new atomic code, or converted to UPF format
     Using radial grid of  853 points,  6 beta functions with:
                l(1) =   0
                l(2) =   0
                l(3) =   1
                l(4) =   1
                l(5) =   2
                l(6) =   2
     Q(r) pseudized with  8 coefficients,  rinner =    1.100   1.100   1.100
                                                       1.100   1.100

     PseudoPot. # 3 for O  read from file:
     /lustre07/scratch/pragov/crystal_structure_design/utils/SSSP/O.pbe-n-kjpaw_psl.0.1.UPF
     MD5 check sum: 0234752ac141de4415c5fc33072bef88
     Pseudo is Projector augmented-wave + core cor, Zval =  6.0
     Generated using "atomic" code by A. Dal Corso  v.5.0.99 svn rev. 10869
     Shape of augmentation charge: BESSEL
     Using radial grid of 1095 points,  4 beta functions with:
                l(1) =   0
                l(2) =   0
                l(3) =   1
                l(4) =   1
     Q(r) pseudized with 0 coefficients

     atomic species   valence    mass     pseudopotential
        Dy            20.00   162.50000     Dy( 1.00)
        V             13.00    50.94150     V ( 1.00)
        O              6.00    15.99900     O ( 1.00)

      8 Sym. Ops., with inversion, found ( 6 have fractional translation)

                                    s                        frac. trans.

      isym =  1     identity

 cryst.   s( 1) = (     1          0          0      )
                  (     0          1          0      )
                  (     0          0          1      )

 cart.    s( 1) = (  1.0000000  0.0000000  0.0000000 )
                  (  0.0000000  1.0000000  0.0000000 )
                  (  0.0000000  0.0000000  1.0000000 )

      isym =  2     180 deg rotation - cart. axis [0,0,1]

 cryst.   s( 2) = (    -1          0          0      )    f =(  0.0000000 )
                  (     0         -1          0      )       (  0.0000000 )
                  (     0          0          1      )       ( -0.5000000 )

 cart.    s( 2) = ( -1.0000000  0.0000000  0.0000000 )    f =(  0.0000000 )
                  (  0.0000000 -1.0000000  0.0000000 )       (  0.0000000 )
                  (  0.0000000  0.0000000  1.0000000 )       ( -0.7157482 )

[...]

      isym =  4     180 deg rotation - cart. axis [1,0,0]

[...]

      isym =  5     inversion

 cryst.   s( 5) = (    -1          0          0      )
                  (     0         -1          0      )
                  (     0          0         -1      )

 cart.    s( 5) = ( -1.0000000  0.0000000  0.0000000 )
                  (  0.0000000 -1.0000000  0.0000000 )
                  (  0.0000000  0.0000000 -1.0000000 )

      isym =  6     inv. 180 deg rotation - cart. axis [0,0,1]

[...]

      isym =  8     inv. 180 deg rotation - cart. axis [1,0,0]

 cryst.   s( 8) = (    -1          0          0      )    f =(  0.5000000 )
                  (     0          1          0      )       ( -0.5000000 )
                  (     0          0          1      )       (  0.0000000 )

 cart.    s( 8) = ( -1.0000000  0.0000000  0.0000000 )    f =(  0.5000000 )
                  (  0.0000000  1.0000000  0.0000000 )       ( -0.5383270 )
                  (  0.0000000  0.0000000  1.0000000 )       (  0.0000000 )

   Cartesian axes

     site n.     atom                  positions (alat units)
         1           Dy  tau(   1) = (   0.0201930   0.0757846   1.0736223  )
         2           Dy  tau(   2) = (   0.5201930   0.4625424   0.3578741  )
         3           Dy  tau(   3) = (   0.4798070   0.6141116   1.0736223  )
         4           Dy  tau(   4) = (   0.9798070   1.0008695   0.3578741  )
         5           V   tau(   5) = (   0.5000000   0.0000000   0.7157482  )
         6           V   tau(   6) = (   0.0000000   0.5383270   0.7157482  )
         7           V   tau(   7) = (   0.0000000   0.5383270   0.0000000  )
         8           V   tau(   8) = (   0.5000000   0.0000000   0.0000000  )
         9           O   tau(   9) = (   0.6948230   0.7419428   0.6307259  )
        10           O   tau(  10) = (   0.1948230   0.8730383   0.8007705  )
        11           O   tau(  11) = (   0.8051770   0.2036157   0.0850223  )
        12           O   tau(  12) = (   0.3051770   0.3347113   1.3464741  )
        13           O   tau(  13) = (   0.3051770   0.3347113   0.8007705  )
        14           O   tau(  14) = (   0.8051770   0.2036157   0.6307259  )
        15           O   tau(  15) = (   0.1948230   0.8730383   1.3464741  )
        16           O   tau(  16) = (   0.6948230   0.7419428   0.0850223  )
        17           O   tau(  17) = (   0.1187740   0.5881072   0.3578741  )
        18           O   tau(  18) = (   0.6187740   1.0268739   1.0736223  )
        19           O   tau(  19) = (   0.3812260   0.0497802   0.3578741  )
        20           O   tau(  20) = (   0.8812260   0.4885469   1.0736223  )

   Crystallographic axes

     site n.     atom                  positions (cryst. coord.)
         1           Dy  tau(   1) = (  0.0201930  0.0703890  0.7500000  )
         2           Dy  tau(   2) = (  0.5201930  0.4296110  0.2500000  )
         3           Dy  tau(   3) = (  0.4798070  0.5703890  0.7500000  )
         4           Dy  tau(   4) = (  0.9798070  0.9296110  0.2500000  )
         5           V   tau(   5) = (  0.5000000  0.0000000  0.5000000  )
         6           V   tau(   6) = (  0.0000000  0.5000000  0.5000000  )
         7           V   tau(   7) = (  0.0000000  0.5000000  0.0000000  )
         8           V   tau(   8) = (  0.5000000  0.0000000  0.0000000  )
         9           O   tau(   9) = (  0.6948230  0.6891190  0.4406060  )
        10           O   tau(  10) = (  0.1948230  0.8108810  0.5593940  )
        11           O   tau(  11) = (  0.8051770  0.1891190  0.0593940  )
        12           O   tau(  12) = (  0.3051770  0.3108810  0.9406060  )
        13           O   tau(  13) = (  0.3051770  0.3108810  0.5593940  )
        14           O   tau(  14) = (  0.8051770  0.1891190  0.4406060  )
        15           O   tau(  15) = (  0.1948230  0.8108810  0.9406060  )
        16           O   tau(  16) = (  0.6948230  0.6891190  0.0593940  )
        17           O   tau(  17) = (  0.1187740  0.5462360  0.2500000  )
        18           O   tau(  18) = (  0.6187740  0.9537640  0.7500000  )
        19           O   tau(  19) = (  0.3812260  0.0462360  0.2500000  )
        20           O   tau(  20) = (  0.8812260  0.4537640  0.7500000  )

     number of k points=     8
                       cart. coord. in units 2pi/alat
        k(    1) = (   0.0000000   0.0000000   0.0000000), wk =   0.0740741
        k(    2) = (   0.0000000   0.0000000   0.2328566), wk =   0.1481481
        k(    3) = (   0.0000000   0.3096011   0.0000000), wk =   0.1481481
        k(    4) = (   0.0000000   0.3096011   0.2328566), wk =   0.2962963
        k(    5) = (   0.3333333   0.0000000   0.0000000), wk =   0.1481481
        k(    6) = (   0.3333333   0.0000000   0.2328566), wk =   0.2962963
        k(    7) = (   0.3333333   0.3096011   0.0000000), wk =   0.2962963
        k(    8) = (   0.3333333   0.3096011   0.2328566), wk =   0.5925926

                       cryst. coord.
        k(    1) = (   0.0000000   0.0000000   0.0000000), wk =   0.0740741
        k(    2) = (   0.0000000   0.0000000   0.3333333), wk =   0.1481481
        k(    3) = (   0.0000000   0.3333333   0.0000000), wk =   0.1481481
        k(    4) = (   0.0000000   0.3333333   0.3333333), wk =   0.2962963
        k(    5) = (   0.3333333   0.0000000   0.0000000), wk =   0.1481481
        k(    6) = (   0.3333333   0.0000000   0.3333333), wk =   0.2962963
        k(    7) = (   0.3333333   0.3333333   0.0000000), wk =   0.2962963
        k(    8) = (   0.3333333   0.3333333   0.3333333), wk =   0.5925926

     Check: negative core charge=   -0.000015

     Initial potential from superposition of free atoms

     starting charge     203.9798, renormalised to     204.0000

     negative rho (up, down):  7.230E-03 0.000E+00
     Starting wfcs are  216 randomized atomic wfcs +   40 random wfcs
     Checking if some PAW data can be deallocated...

     Self-consistent Calculation

     iteration #  1     ecut=    30.00 Ry     beta= 0.70
     Davidson diagonalization with overlap

     ethr =  1.00E-02,  avg # of iterations =  9.0

     negative rho (up, down):  1.358E-02 0.000E+00

     total energy              =   -4171.89256945 Ry
     estimated scf accuracy    <      19.75319174 Ry

[...]

     c_bands:  1 eigenvalues not converged
     ethr =  8.50E-09,  avg # of iterations =  3.4

[...]

     total energy              =   -4189.73958354 Ry
     estimated scf accuracy    <       0.00000178 Ry

     iteration # 76     ecut=    30.00 Ry     beta= 0.70
     Davidson diagonalization with overlap

     ethr =  5.74E-10,  avg # of iterations =  1.0

     negative rho (up, down):  9.021E-03 0.000E+00

     End of self-consistent calculation

          k = 0.0000 0.0000 0.0000 (  4379 PWs)   bands (ev):

   -51.6513 -51.6510 -51.6506 -51.6499 -31.0051 -30.9980 -30.9858 -30.9789
   -25.5313 -25.5230 -25.5189 -25.5073 -25.4918 -25.4849 -25.4829 -25.4725
   -25.4218 -25.4185 -25.4141 -25.4129  -8.1401  -8.1241  -8.1104  -8.0822
    -7.9568  -7.5323  -7.4081  -7.3762  -7.2984  -7.2194  -7.2127  -7.1519
    -5.9255  -5.1166  -5.0002  -4.8111  -4.7147  -4.6150  -4.4608  -4.2623
    -4.1788  -4.1496  -3.8493  -3.7735   7.0966   7.1762   7.2657   7.3183
     7.8902   7.9375   7.9640   8.1665   8.2215   8.3738   8.4233   8.5685
     8.6902   8.7716   8.8449   8.9686   9.1208   9.2639   9.3080   9.3322
     9.4187   9.5130   9.5628   9.7375   9.9261  10.0538  10.1227  10.1589
    10.3103  10.4275  10.4385  10.5138  10.8100  10.9593  10.9747  11.1926
    13.1160  13.3576  13.3617  13.5386  13.5585  13.6451  13.6757  13.7481
    13.7661  13.7778  13.7938  13.8045  13.8051  13.8064  13.8128  13.8575
    13.8766  13.8825  13.8885  13.9161  13.9188  13.9272  13.9380  13.9382
    13.9541  13.9562  13.9627  13.9932  14.0370  14.0382  14.0565  14.1362
    14.1701  14.2444  14.3426  14.4280  14.5314  14.5855  14.7009  14.9603
    15.5404  15.5421  15.7758  16.1378  16.5157  17.4582  17.6195  17.6554
    17.6650  18.4022  18.6875  18.8153  18.8438  18.8823  19.0011  19.8637
    19.9014  20.1272  20.3152  20.5427  20.5827  20.5940  20.9600  21.0514
    21.4075  21.4900  21.5042  21.5505  21.6568  21.8469  22.1576  23.4524
    23.7616  23.8045  24.7866  26.0299  26.0795  26.1316  26.1451  26.1933
    26.4445  26.4603  26.4813  26.8177  26.8210  26.9567  27.0385  27.8260
    27.8945  28.0948  28.9132  28.9363  29.0323  29.2544  29.8466  30.4215
    30.4551  30.9041  31.2731  31.2776  31.3345  31.5432  31.5492  31.9798
    32.1452  33.3733  33.5600  33.5623  33.5691  33.9150  33.9782  34.2835
    34.5654  34.6365  34.6442  34.7176  34.7712  35.0522  35.5399  35.8942
    36.4009  36.7919  37.0760  37.0872  37.3885  37.6288  37.7094  37.9972
    38.3930  38.6954  38.7729  38.7897  39.1611  39.3839  39.4196  39.7505
    39.8601  39.9572  40.1054  40.5339  41.0716  41.6369  41.6373  41.7483
    41.7827  41.9097  42.1091  42.4061  42.5291  42.7966  42.9365  43.2658
    43.2898  43.4379  43.5324  43.5836  44.3473  44.3543  44.8355  44.8884
    45.2076  45.2167  45.2197  45.2959  45.3684  45.4513  45.7873  45.8795
    46.2043  46.2347  46.2495  46.8390  46.9547  47.0877  47.5116  47.5387

     occupation numbers
     1.0000   1.0000   1.0000   1.0000   1.0000   1.0000   1.0000   1.0000
     1.0000   1.0000   1.0000   1.0000   1.0000   1.0000   1.0000   1.0000
     1.0000   1.0000   1.0000   1.0000   1.0000   1.0000   1.0000   1.0000
     1.0000   1.0000   1.0000   1.0000   1.0000   1.0000   1.0000   1.0000
     1.0000   1.0000   1.0000   1.0000   1.0000   1.0000   1.0000   1.0000
     1.0000   1.0000   1.0000   1.0000   1.0000   1.0000   1.0000   1.0000
     1.0000   1.0000   1.0000   1.0000   1.0000   1.0000   1.0000   1.0000
     1.0000   1.0000   1.0000   1.0000   1.0000   1.0000   1.0000   1.0000
     1.0000   1.0000   1.0000   1.0000   1.0000   1.0000   1.0000   1.0000
     1.0000   1.0000   1.0000   1.0000   1.0000   1.0000   1.0000   1.0000
     1.0000   1.0000   1.0000   1.0000   1.0000   1.0000   1.0000   1.0000
     1.0000   1.0000   1.0000   1.0000   1.0000   1.0000   1.0000   1.0000
     1.0000   1.0000   1.0000   1.0000   1.0000   1.0000   0.0000   0.0000
     0.0000   0.0000   0.0000   0.0000   0.0000   0.0000   0.0000   0.0000
     0.0000   0.0000   0.0000   0.0000   0.0000   0.0000   0.0000   0.0000
     0.0000   0.0000   0.0000   0.0000   0.0000   0.0000   0.0000   0.0000
     0.0000   0.0000   0.0000   0.0000   0.0000   0.0000   0.0000   0.0000
     0.0000   0.0000   0.0000   0.0000   0.0000   0.0000   0.0000   0.0000
     0.0000   0.0000   0.0000   0.0000   0.0000   0.0000   0.0000   0.0000
     0.0000   0.0000   0.0000   0.0000   0.0000   0.0000   0.0000   0.0000
     0.0000   0.0000   0.0000   0.0000   0.0000   0.0000   0.0000   0.0000
     0.0000   0.0000   0.0000   0.0000   0.0000   0.0000   0.0000   0.0000
     0.0000   0.0000   0.0000   0.0000   0.0000   0.0000   0.0000   0.0000
     0.0000   0.0000   0.0000   0.0000   0.0000   0.0000   0.0000   0.0000
     0.0000   0.0000   0.0000   0.0000   0.0000   0.0000   0.0000   0.0000
     0.0000   0.0000   0.0000   0.0000   0.0000   0.0000   0.0000   0.0000
     0.0000   0.0000   0.0000   0.0000   0.0000   0.0000   0.0000   0.0000
     0.0000   0.0000   0.0000   0.0000   0.0000   0.0000   0.0000   0.0000
     0.0000   0.0000   0.0000   0.0000   0.0000   0.0000   0.0000   0.0000
     0.0000   0.0000   0.0000   0.0000   0.0000   0.0000   0.0000   0.0000
     0.0000   0.0000   0.0000   0.0000   0.0000   0.0000   0.0000   0.0000
     0.0000   0.0000   0.0000   0.0000   0.0000   0.0000   0.0000   0.0000

[...]

          k = 0.3333 0.3096 0.2329 (  4376 PWs)   bands (ev):

   -51.6511 -51.6507 -51.6506 -51.6503 -30.9966 -30.9936 -30.9903 -30.9873
   -25.5234 -25.5215 -25.5170 -25.5145 -25.4862 -25.4846 -25.4810 -25.4793
   -25.4193 -25.4188 -25.4161 -25.4154  -8.2498  -8.1510  -8.0947  -7.9952
    -7.7667  -7.6679  -7.5075  -7.4725  -7.4339  -7.3452  -7.2463  -7.2257
    -5.1285  -4.9813  -4.7952  -4.7666  -4.7207  -4.6297  -4.4517  -4.4041
    -4.1889  -4.1491  -4.0013  -3.9337   7.3290   7.3980   7.4641   7.5585
     7.7375   7.9323   8.0278   8.1306   8.1872   8.2850   8.4046   8.4944
     8.5824   8.7036   8.7342   8.8355   8.9079   8.9544   9.1132   9.3357
     9.4545   9.4680   9.6528   9.6634   9.7785   9.9720  10.0413  10.2024
    10.2456  10.3246  10.4910  10.5157  10.5582  10.6200  10.7151  10.7267
    13.4134  13.5012  13.5770  13.6151  13.7321  13.7422  13.7514  13.7714
    13.7812  13.7879  13.7965  13.8066  13.8174  13.8346  13.8459  13.8514
    13.8969  13.9158  13.9206  13.9278  13.9461  13.9508  13.9611  13.9664
    13.9721  13.9879  13.9972  14.0276  14.0466  14.1130  14.2056  14.2780
    14.2943  14.3366  14.3445  14.3821  14.4553  14.5898  14.6514  14.7136
    15.6352  15.7155  15.8574  16.0897  16.4546  16.8176  17.0596  17.3552
    18.7453  18.7961  19.0941  19.1308  19.1954  19.4367  19.5086  19.5714
    19.9448  20.0468  20.0925  20.2052  20.5212  20.6197  20.8375  21.0289
    21.1267  21.3627  21.6274  21.7175  21.8911  22.3246  23.0600  23.2863
    23.5861  23.9534  24.4068  24.6322  25.1478  25.2634  26.0946  26.4762
    26.5583  26.7974  27.0309  27.2722  27.4570  27.6663  27.8061  27.8931
    28.4388  28.5187  28.7097  29.1301  29.2458  29.4871  29.8885  29.9582
    30.1993  30.3217  30.3792  30.6720  30.9179  31.2081  31.3491  31.5595
    31.8958  32.2045  32.5967  32.9508  33.1063  33.2178  33.6630  33.7556
    34.9374  35.1096  35.2247  35.5521  35.6882  35.8243  36.0166  36.4418
    36.8723  37.0026  37.1637  37.4595  37.5177  37.7748  37.8567  38.3134
    38.3396  38.4510  38.7170  39.0064  39.1835  39.2946  39.3809  39.8126
    40.1388  40.2259  40.4250  40.5488  40.7246  40.8630  41.1235  41.2274
    41.6222  41.8644  42.0084  42.2864  42.3736  42.4818  42.7878  43.1338
    43.2287  43.4772  43.7554  43.9221  44.0483  44.2501  44.4092  44.5930
    44.8563  45.0472  45.1755  45.3400  45.4633  45.5896  45.7302  46.0478
    46.2111  46.3501  46.4374  46.5968  46.7984  47.0806  47.2965  47.4061

     occupation numbers
     1.0000   1.0000   1.0000   1.0000   1.0000   1.0000   1.0000   1.0000
     1.0000   1.0000   1.0000   1.0000   1.0000   1.0000   1.0000   1.0000
     1.0000   1.0000   1.0000   1.0000   1.0000   1.0000   1.0000   1.0000
     1.0000   1.0000   1.0000   1.0000   1.0000   1.0000   1.0000   1.0000
     1.0000   1.0000   1.0000   1.0000   1.0000   1.0000   1.0000   1.0000
     1.0000   1.0000   1.0000   1.0000   1.0000   1.0000   1.0000   1.0000
     1.0000   1.0000   1.0000   1.0000   1.0000   1.0000   1.0000   1.0000
     1.0000   1.0000   1.0000   1.0000   1.0000   1.0000   1.0000   1.0000
     1.0000   1.0000   1.0000   1.0000   1.0000   1.0000   1.0000   1.0000
     1.0000   1.0000   1.0000   1.0000   1.0000   1.0000   1.0000   1.0000
     1.0000   1.0000   1.0000   1.0000   1.0000   1.0000   1.0000   1.0000
     1.0000   1.0000   1.0000   1.0000   1.0000   1.0000   1.0000   1.0000
     1.0000   1.0000   1.0000   1.0000   1.0000   1.0000   0.0000   0.0000
     0.0000   0.0000   0.0000   0.0000   0.0000   0.0000   0.0000   0.0000
     0.0000   0.0000   0.0000   0.0000   0.0000   0.0000   0.0000   0.0000
     0.0000   0.0000   0.0000   0.0000   0.0000   0.0000   0.0000   0.0000
     0.0000   0.0000   0.0000   0.0000   0.0000   0.0000   0.0000   0.0000
     0.0000   0.0000   0.0000   0.0000   0.0000   0.0000   0.0000   0.0000
     0.0000   0.0000   0.0000   0.0000   0.0000   0.0000   0.0000   0.0000
     0.0000   0.0000   0.0000   0.0000   0.0000   0.0000   0.0000   0.0000
     0.0000   0.0000   0.0000   0.0000   0.0000   0.0000   0.0000   0.0000
     0.0000   0.0000   0.0000   0.0000   0.0000   0.0000   0.0000   0.0000
     0.0000   0.0000   0.0000   0.0000   0.0000   0.0000   0.0000   0.0000
     0.0000   0.0000   0.0000   0.0000   0.0000   0.0000   0.0000   0.0000
     0.0000   0.0000   0.0000   0.0000   0.0000   0.0000   0.0000   0.0000
     0.0000   0.0000   0.0000   0.0000   0.0000   0.0000   0.0000   0.0000
     0.0000   0.0000   0.0000   0.0000   0.0000   0.0000   0.0000   0.0000
     0.0000   0.0000   0.0000   0.0000   0.0000   0.0000   0.0000   0.0000
     0.0000   0.0000   0.0000   0.0000   0.0000   0.0000   0.0000   0.0000
     0.0000   0.0000   0.0000   0.0000   0.0000   0.0000   0.0000   0.0000
     0.0000   0.0000   0.0000   0.0000   0.0000   0.0000   0.0000   0.0000
     0.0000   0.0000   0.0000   0.0000   0.0000   0.0000   0.0000   0.0000

     highest occupied, lowest unoccupied level (ev):    13.9523   13.9333

!    total energy              =   -4189.73958266 Ry
     estimated scf accuracy    <       0.00000046 Ry

     The total energy is the sum of the following terms:
     one-electron contribution =    -832.66651907 Ry
     hartree contribution      =     540.17681845 Ry
     xc contribution           =    -278.47541973 Ry
     ewald contribution        =   -1585.42357060 Ry
     one-center paw contrib.   =   -2033.35089170 Ry
      -> PAW hartree energy AE =     768.64683273 Ry
      -> PAW hartree energy PS =    -712.52129901 Ry
      -> PAW xc energy AE      =   -1575.13076313 Ry
      -> PAW xc energy PS      =      79.69323169 Ry
      -> total E_H with PAW    =     596.30235217 Ry
      -> total E_XC with PAW   =   -1773.91295117 Ry

     convergence has been achieved in  76 iterations

     Writing all to output data dir bands_nm/myprefix.save/

     General routines

     Parallel routines

     PAW routines

   This run was terminated on:  18:30:54  15Jul2023

   JOB DONE.