     Program PWSCF v.7.1 starts on 13Jul2023 at  1:55:12

     Reading input from espresso_4557.pwi
Warning: card &CELL ignored
Warning: card / ignored

     Current dimensions of program PWSCF are:
     Max number of different atomic species (ntypx) = 10
     Max number of k-points (npk) =  40000
     Max angular momentum in pseudopotentials (lmaxx) =  4
     file Al.pbe-n-kjpaw_psl.1.0.0.UPF: wavefunction(s)  3S 3P renormalized
     Message from routine setup:
     using ibrav=0 with symmetry is DISCOURAGED, use correct ibrav instead

     K-points division:     npool     =       2
     R & G space division:  proc/nbgrp/npool/nimage =       8
     Subspace diagonalization in iterative solution of the eigenvalue problem:
     a serial algorithm will be used

     Using Slab Decomposition

     bravais-lattice index     =            0
     lattice parameter (alat)  =      13.3728  a.u.
     unit-cell volume          =    1691.0497 (a.u.)^3
     number of atoms/cell      =           14
     number of atomic types    =            3
     number of electrons       =        82.00
     number of Kohn-Sham states=           64
     kinetic-energy cutoff     =      30.0000  Ry
     charge density cutoff     =     240.0000  Ry
     scf convergence threshold =      1.0E-06
     mixing beta               =       0.7000
     number of iterations used =            8  plain     mixing
     Exchange-correlation=  SLA  PW   PBX  PBC
                           (   1   4   3   4   0   0   0)

     celldm(1)=  13.372844  celldm(2)=   0.000000  celldm(3)=   0.000000
     celldm(4)=   0.000000  celldm(5)=   0.000000  celldm(6)=   0.000000

     crystal axes: (cart. coord. in units of alat)
               a(1) = (   1.000000   0.000000   0.000000 )
               a(2) = (   0.500000   0.866025   0.000000 )
               a(3) = (   0.500000   0.288675   0.816497 )

     reciprocal axes: (cart. coord. in units 2 pi/alat)
               b(1) = (  1.000000 -0.577350 -0.408248 )
               b(2) = (  0.000000  1.154701 -0.408248 )
               b(3) = (  0.000000  0.000000  1.224745 )

     PseudoPot. # 1 for Al read from file:
     /lustre07/scratch/pragov/crystal_structure_design/utils/SSSP/Al.pbe-n-kjpaw_psl.1.0.0.UPF
     MD5 check sum: cfc449ca30b5f3223ec38ddd88ac046d
     Pseudo is Projector augmented-wave + core cor, Zval =  3.0
     Generated using "atomic" code by A. Dal Corso  v.5.1
     Shape of augmentation charge: PSQ
     Using radial grid of 1135 points,  6 beta functions with:
                l(1) =   0
                l(2) =   0
                l(3) =   1
                l(4) =   1
                l(5) =   2
                l(6) =   2
     Q(r) pseudized with 0 coefficients

     PseudoPot. # 2 for Cu read from file:
     /lustre07/scratch/pragov/crystal_structure_design/utils/SSSP/Cu_pbe_v1.2.uspp.F.UPF
     MD5 check sum: 6e991ff952a84172a2a52a1c1e996048
     Pseudo is Ultrasoft + core correction, Zval = 19.0
     Generated by new atomic code, or converted to UPF format
     Using radial grid of  867 points,  6 beta functions with:
                l(1) =   0
                l(2) =   0
                l(3) =   1
                l(4) =   1
                l(5) =   2
                l(6) =   2
     Q(r) pseudized with  8 coefficients,  rinner =    1.150   1.150   1.150
                                                       1.150   1.150

     PseudoPot. # 3 for S  read from file:
     /lustre07/scratch/pragov/crystal_structure_design/utils/SSSP/s_pbe_v1.4.uspp.F.UPF
     MD5 check sum: 88d86576ff6df21479756cfb9bdac1df
     Pseudo is Ultrasoft + core correction, Zval =  6.0
     Generated by new atomic code, or converted to UPF format
     Using radial grid of  907 points,  6 beta functions with:
                l(1) =   0
                l(2) =   0
                l(3) =   1
                l(4) =   1
                l(5) =   2
                l(6) =   2
     Q(r) pseudized with  8 coefficients,  rinner =    1.300   1.300   1.300
                                                       1.300   1.300

     atomic species   valence    mass     pseudopotential
        Al             3.00    26.98154     Al( 1.00)
        Cu            19.00    63.54600     Cu( 1.00)
        S              6.00    32.06000     S ( 1.00)

      6 Sym. Ops. (no inversion) found

                                    s                        frac. trans.

      isym =  1     identity

 cryst.   s( 1) = (     1          0          0      )
                  (     0          1          0      )
                  (     0          0          1      )

 cart.    s( 1) = (  1.0000000  0.0000000  0.0000000 )
                  (  0.0000000  1.0000000  0.0000000 )
                  (  0.0000000  0.0000000  1.0000000 )

      isym =  2     120 deg rotation - cryst. axis [0,0,1]

[...]

      isym =  3     120 deg rotation - cryst. axis [0,0,-1]

[...]

      isym =  4     inv. 180 deg rotation - cart. axis [1,0,0]

[...]

      isym =  5     inv. 180 deg rotation - cryst. axis [0,1,0]

[...]

      isym =  6     inv. 180 deg rotation - cryst. axis [1,1,0]

 cryst.   s( 6) = (     1         -1          0      )
                  (     0         -1          0      )
                  (     0         -1          1      )

 cart.    s( 6) = (  0.5000000 -0.8660254 -0.0000000 )
                  ( -0.8660254 -0.5000000 -0.0000000 )
                  (  0.0000000  0.0000000  1.0000000 )

   Cartesian axes

     site n.     atom                  positions (alat units)
         1           Al  tau(   1) = (   1.4999995   0.5932011   0.7088301  )
         2           Al  tau(   2) = (   1.2637270   1.0024371   0.7088301  )
         3           Al  tau(   3) = (   1.4999995   0.8660251   0.3229987  )
         4           Al  tau(   4) = (   1.7362720   1.0024371   0.7088301  )
         5           Al  tau(   5) = (   0.5000000   0.2886751   0.2041241  )
         6           Cu  tau(   6) = (   1.0000000   0.5773503   0.4082483  )
         7           S   tau(   7) = (   1.2637660   0.7296356   0.5159303  )
         8           S   tau(   8) = (   0.9999995   0.5773500   0.0852014  )
         9           S   tau(   9) = (   0.7362330   0.7296356   0.5159303  )
        10           S   tau(  10) = (   0.9999995   0.2727787   0.5159303  )
        11           S   tau(  11) = (   0.5000000   0.5969594   0.0951292  )
        12           S   tau(  12) = (   0.7669820   0.1345330   0.0951292  )
        13           S   tau(  13) = (   0.5000000   0.2886751   0.5311090  )
        14           S   tau(  14) = (   0.2330180   0.1345330   0.0951292  )

   Crystallographic axes

     site n.     atom                  positions (cryst. coord.)
         1           Al  tau(   1) = (  0.8681360  0.3955910  0.8681360  )
         2           Al  tau(   2) = (  0.3955910  0.8681360  0.8681360  )
         3           Al  tau(   3) = (  0.8681360  0.8681360  0.3955910  )
         4           Al  tau(   4) = (  0.8681360  0.8681360  0.8681360  )
         5           Al  tau(   5) = (  0.2500000  0.2500000  0.2500000  )
         6           Cu  tau(   6) = (  0.5000000  0.5000000  0.5000000  )
         7           S   tau(   7) = (  0.6318830  0.6318830  0.6318830  )
         8           S   tau(   8) = (  0.6318830  0.6318830  0.1043500  )
         9           S   tau(   9) = (  0.1043500  0.6318830  0.6318830  )
        10           S   tau(  10) = (  0.6318830  0.1043500  0.6318830  )
        11           S   tau(  11) = (  0.1165090  0.6504730  0.1165090  )
        12           S   tau(  12) = (  0.6504730  0.1165090  0.1165090  )
        13           S   tau(  13) = (  0.1165090  0.1165090  0.6504730  )
        14           S   tau(  14) = (  0.1165090  0.1165090  0.1165090  )

     number of k points=     6
                       cart. coord. in units 2pi/alat
        k(    1) = (   0.0000000   0.0000000   0.0000000), wk =   0.0740741
        k(    2) = (   0.0000000   0.0000000   0.4082483), wk =   0.1481481
        k(    3) = (   0.0000000   0.3849002  -0.1360828), wk =   0.4444444
        k(    4) = (   0.0000000   0.3849002   0.2721655), wk =   0.4444444
        k(    5) = (   0.0000000   0.3849002  -0.5443311), wk =   0.4444444
        k(    6) = (   0.3333333  -0.5773503  -0.0000000), wk =   0.4444444

                       cryst. coord.
        k(    1) = (   0.0000000   0.0000000   0.0000000), wk =   0.0740741
        k(    2) = (   0.0000000   0.0000000   0.3333333), wk =   0.1481481
        k(    3) = (   0.0000000   0.3333333   0.0000000), wk =   0.4444444
        k(    4) = (   0.0000000   0.3333333   0.3333333), wk =   0.4444444
        k(    5) = (   0.0000000   0.3333333  -0.3333333), wk =   0.4444444
        k(    6) = (   0.3333333  -0.3333333   0.0000000), wk =   0.4444444

     Initial potential from superposition of free atoms

     starting charge      80.9883, renormalised to      82.0000
     Starting wfcs are   65 randomized atomic wfcs
     Checking if some PAW data can be deallocated...

     Self-consistent Calculation

     iteration #  1     ecut=    30.00 Ry     beta= 0.70
     Davidson diagonalization with overlap

     ethr =  1.00E-02,  avg # of iterations =  7.8

     total energy              =    -794.04965701 Ry
     estimated scf accuracy    <       1.85166082 Ry

[...]

     total energy              =    -795.03937286 Ry
     estimated scf accuracy    <       0.00009682 Ry

     iteration # 12     ecut=    30.00 Ry     beta= 0.70
     Davidson diagonalization with overlap

     ethr =  1.18E-07,  avg # of iterations =  2.0

     End of self-consistent calculation

          k = 0.0000 0.0000 0.0000 (  4645 PWs)   bands (ev):

  -104.3221 -61.7125 -61.7125 -61.7125  -7.7203  -6.1979  -5.8670  -5.8670
    -5.8670  -5.3352  -5.3352  -5.3351  -0.7404   0.1476   0.1476   0.1477
     0.4883   1.3341   1.3341   3.2035   3.2035   3.2035   4.1880   4.1881
     4.1881   4.2547   4.2548   4.2548   4.9741   4.9741   5.3284   5.3284
     5.3284   5.6752   5.6753   5.6753   5.9329   5.9329   6.8341   6.8341
     6.8341   8.3193   8.3954   8.3954   8.3954   9.6410  10.1623  11.0483
    11.0483  11.0841  11.0841  11.0842  11.9036  11.9036  11.9036  13.1725
    13.1725  13.1725  13.3275  13.3275  13.3381  13.3381  13.3381  16.2228

     occupation numbers
     1.0000   1.0000   1.0000   1.0000   1.0000   1.0000   1.0000   1.0000
     1.0000   1.0000   1.0000   1.0000   1.0000   1.0000   1.0000   1.0000
     1.0000   1.0000   1.0000   1.0000   1.0000   1.0000   1.0000   1.0000
     1.0000   1.0000   1.0000   1.0000   1.0000   1.0000   1.0000   1.0000
     1.0000   1.0000   1.0000   1.0000   1.0000   1.0000   1.0000   1.0000
     1.0000   0.0000   0.0000   0.0000   0.0000   0.0000   0.0000   0.0000
     0.0000   0.0000   0.0000   0.0000   0.0000   0.0000   0.0000   0.0000
     0.0000   0.0000   0.0000   0.0000   0.0000   0.0000   0.0000   0.0000

[...]

          k = 0.3333-0.5774-0.0000 (  4694 PWs)   bands (ev):

  -104.3228 -61.7142 -61.7140 -61.7135  -7.0693  -6.7326  -6.3908  -5.8714
    -5.8166  -5.5002  -5.3840  -5.3429   0.2931   0.7652   0.9016   1.2544
     1.7006   1.9233   2.1044   2.2460   2.4447   2.7742   2.9304   3.0074
     3.1207   3.7750   3.9110   4.0964   4.3196   4.4689   4.5508   4.5893
     4.7954   4.8329   5.1534   5.4064   5.6837   6.0063   6.1366   6.3664
     6.8056   9.6116  10.2145  10.4523  10.6043  11.0149  11.2235  11.4303
    11.5430  12.3087  12.4596  12.5938  12.8898  12.9299  13.2378  13.2559
    13.3446  13.4403  13.7248  13.8182  14.0839  14.1789  14.2330  14.7912

     occupation numbers
     1.0000   1.0000   1.0000   1.0000   1.0000   1.0000   1.0000   1.0000
     1.0000   1.0000   1.0000   1.0000   1.0000   1.0000   1.0000   1.0000
     1.0000   1.0000   1.0000   1.0000   1.0000   1.0000   1.0000   1.0000
     1.0000   1.0000   1.0000   1.0000   1.0000   1.0000   1.0000   1.0000
     1.0000   1.0000   1.0000   1.0000   1.0000   1.0000   1.0000   1.0000
     1.0000   0.0000   0.0000   0.0000   0.0000   0.0000   0.0000   0.0000
     0.0000   0.0000   0.0000   0.0000   0.0000   0.0000   0.0000   0.0000
     0.0000   0.0000   0.0000   0.0000   0.0000   0.0000   0.0000   0.0000

     highest occupied, lowest unoccupied level (ev):     6.8402    8.3193

!    total energy              =    -795.03939012 Ry
     estimated scf accuracy    <       0.00000066 Ry

     The total energy is the sum of the following terms:
     one-electron contribution =    -452.27807277 Ry
     hartree contribution      =     265.44616130 Ry
     xc contribution           =    -119.96986119 Ry
     ewald contribution        =    -314.96695759 Ry
     one-center paw contrib.   =    -173.27065987 Ry
      -> PAW hartree energy AE =       1.33243934 Ry
      -> PAW hartree energy PS =      -1.32895266 Ry
      -> PAW xc energy AE      =     -36.52786456 Ry
      -> PAW xc energy PS      =       1.87203410 Ry
      -> total E_H with PAW    =     265.44964799 Ry
      -> total E_XC with PAW   =    -154.62569165 Ry

     convergence has been achieved in  12 iterations

     Writing all to output data dir bands_nm/myprefix.save/

     General routines

     Parallel routines

     PAW routines

   This run was terminated on:   1:55:19  13Jul2023

   JOB DONE.