     Program PWSCF v.7.1 starts on 15Jul2023 at 22:31:37

     Reading input from espresso_23385.pwi
Warning: card &CELL ignored
Warning: card / ignored

     Current dimensions of program PWSCF are:
     Max number of different atomic species (ntypx) = 10
     Max number of k-points (npk) =  40000
     Max angular momentum in pseudopotentials (lmaxx) =  4
     file Fe.pbe-spn-kjpaw_psl.0.2.1.UPF: wavefunction(s)  3D renormalized
     Message from routine setup:
     using ibrav=0 with symmetry is DISCOURAGED, use correct ibrav instead

     K-points division:     npool     =       2
     R & G space division:  proc/nbgrp/npool/nimage =       4
     Subspace diagonalization in iterative solution of the eigenvalue problem:
     one sub-group per band group will be used

     Using Slab Decomposition

     bravais-lattice index     =            0
     lattice parameter (alat)  =       8.9654  a.u.
     unit-cell volume          =    1413.7032 (a.u.)^3
     number of atoms/cell      =           18
     number of atomic types    =            3
     number of electrons       =       154.00
     number of Kohn-Sham states=          256
     kinetic-energy cutoff     =      30.0000  Ry
     charge density cutoff     =     240.0000  Ry
     scf convergence threshold =      1.0E-06
     mixing beta               =       0.7000
     number of iterations used =            8  plain     mixing
     Exchange-correlation=  SLA  PW   PBX  PBC
                           (   1   4   3   4   0   0   0)

     celldm(1)=   8.965365  celldm(2)=   0.000000  celldm(3)=   0.000000
     celldm(4)=   0.000000  celldm(5)=   0.000000  celldm(6)=   0.000000

     crystal axes: (cart. coord. in units of alat)
               a(1) = (   1.000000   0.000000   0.000000 )
               a(2) = (   0.000000   1.000000   0.000000 )
               a(3) = (   0.000000   0.000000   1.961798 )

     reciprocal axes: (cart. coord. in units 2 pi/alat)
               b(1) = (  1.000000  0.000000  0.000000 )
               b(2) = (  0.000000  1.000000  0.000000 )
               b(3) = (  0.000000  0.000000  0.509737 )

     PseudoPot. # 1 for Li read from file:
     /lustre07/scratch/pragov/crystal_structure_design/utils/SSSP/li_pbe_v1.4.uspp.F.UPF
     MD5 check sum: e912e257baa3777c20ea3d68f190483c
     Pseudo is Ultrasoft, Zval =  3.0
     Generated by new atomic code, or converted to UPF format
     Using radial grid of  751 points,  5 beta functions with:
                l(1) =   0
                l(2) =   0
                l(3) =   0
                l(4) =   1
                l(5) =   1
     Q(r) pseudized with 10 coefficients,  rinner =    1.150   1.150   1.150

     PseudoPot. # 2 for Fe read from file:
     /lustre07/scratch/pragov/crystal_structure_design/utils/SSSP/Fe.pbe-spn-kjpaw_psl.0.2.1.UPF
     MD5 check sum: e86618425769142926afa95317d90200
     Pseudo is Projector augmented-wave + core cor, Zval = 16.0
     Generated using "atomic" code by A. Dal Corso  v.5.0.99 svn rev. 10869
     Shape of augmentation charge: PSQ
     Using radial grid of 1191 points,  6 beta functions with:
                l(1) =   0
                l(2) =   0
                l(3) =   1
                l(4) =   1
                l(5) =   2
                l(6) =   2
     Q(r) pseudized with 0 coefficients

     PseudoPot. # 3 for F  read from file:
     /lustre07/scratch/pragov/crystal_structure_design/utils/SSSP/f_pbe_v1.4.uspp.F.UPF
     MD5 check sum: 4c38b6a325caf53ec0e86aed9459de46
     Pseudo is Ultrasoft, Zval =  7.0
     Generated by new atomic code, or converted to UPF format
     Using radial grid of  799 points,  4 beta functions with:
                l(1) =   0
                l(2) =   0
                l(3) =   1
                l(4) =   1
     Q(r) pseudized with  8 coefficients,  rinner =    0.950   0.950   0.950

     atomic species   valence    mass     pseudopotential
        Li             3.00     6.94000     Li( 1.00)
        Fe            16.00    55.84500     Fe( 1.00)
        F              7.00    18.99840     F ( 1.00)

      8 Sym. Ops. (no inversion) found ( 4 have fractional translation)

                                    s                        frac. trans.

      isym =  1     identity

 cryst.   s( 1) = (     1          0          0      )
                  (     0          1          0      )
                  (     0          0          1      )

 cart.    s( 1) = (  1.0000000  0.0000000  0.0000000 )
                  (  0.0000000  1.0000000  0.0000000 )
                  (  0.0000000  0.0000000  1.0000000 )

      isym =  2     180 deg rotation - cart. axis [0,0,1]

[...]

 cryst.   s( 3) = (     0         -1          0      )    f =( -0.5000000 )
                  (     1          0          0      )       (  0.5000000 )
                  (     0          0          1      )       (  0.5000000 )

 cart.    s( 3) = (  0.0000000  1.0000000  0.0000000 )    f =( -0.5000000 )
                  ( -1.0000000  0.0000000  0.0000000 )       (  0.5000000 )
                  (  0.0000000  0.0000000  1.0000000 )       (  0.9808989 )

      isym =  4      90 deg rotation - cart. axis [0,0,1]

[...]

      isym =  5     inv. 180 deg rotation - cart. axis [0,1,0]

[...]

 cryst.   s( 6) = (    -1          0          0      )    f =(  0.5000000 )
                  (     0          1          0      )       ( -0.5000000 )
                  (     0          0          1      )       (  0.5000000 )

 cart.    s( 6) = ( -1.0000000  0.0000000  0.0000000 )    f =(  0.5000000 )
                  (  0.0000000  1.0000000  0.0000000 )       ( -0.5000000 )
                  (  0.0000000  0.0000000  1.0000000 )       (  0.9808989 )

[...]

      isym =  8     inv. 180 deg rotation - cart. axis [1,-1,0]

 cryst.   s( 8) = (     0          1          0      )
                  (     1          0          0      )
                  (     0          0          1      )

 cart.    s( 8) = (  0.0000000  1.0000000  0.0000000 )
                  (  1.0000000  0.0000000  0.0000000 )
                  (  0.0000000  0.0000000  1.0000000 )

   Cartesian axes

     site n.     atom                  positions (alat units)
         1           Li  tau(   1) = (   0.0000000   0.0000000   1.3084839  )
         2           Li  tau(   2) = (   0.5000000   0.5000000   0.3275849  )
         3           Fe  tau(   3) = (   0.0000000   0.0000000   0.6504851  )
         4           Fe  tau(   4) = (   0.5000000   0.5000000   1.6313840  )
         5           Fe  tau(   5) = (   0.0000000   0.0000000   0.0069663  )
         6           Fe  tau(   6) = (   0.5000000   0.5000000   0.9878653  )
         7           F   tau(   7) = (   0.6998330   0.6998330   1.3101671  )
         8           F   tau(   8) = (   0.8001670   0.1998330   0.3292682  )
         9           F   tau(   9) = (   0.1998330   0.8001670   0.3292682  )
        10           F   tau(  10) = (   0.3001670   0.3001670   1.3101671  )
        11           F   tau(  11) = (   0.2976150   0.2976150   1.9556555  )
        12           F   tau(  12) = (   0.2023850   0.7976150   0.9747566  )
        13           F   tau(  13) = (   0.7976150   0.2023850   0.9747566  )
        14           F   tau(  14) = (   0.7023850   0.7023850   1.9556555  )
        15           F   tau(  15) = (   0.2977580   0.2977580   0.6626698  )
        16           F   tau(  16) = (   0.2022420   0.7977580   1.6435688  )
        17           F   tau(  17) = (   0.7977580   0.2022420   1.6435688  )
        18           F   tau(  18) = (   0.7022420   0.7022420   0.6626698  )

   Crystallographic axes

     site n.     atom                  positions (cryst. coord.)
         1           Li  tau(   1) = (  0.0000000  0.0000000  0.6669820  )
         2           Li  tau(   2) = (  0.5000000  0.5000000  0.1669820  )
         3           Fe  tau(   3) = (  0.0000000  0.0000000  0.3315760  )
         4           Fe  tau(   4) = (  0.5000000  0.5000000  0.8315760  )
         5           Fe  tau(   5) = (  0.0000000  0.0000000  0.0035510  )
         6           Fe  tau(   6) = (  0.5000000  0.5000000  0.5035510  )
         7           F   tau(   7) = (  0.6998330  0.6998330  0.6678400  )
         8           F   tau(   8) = (  0.8001670  0.1998330  0.1678400  )
         9           F   tau(   9) = (  0.1998330  0.8001670  0.1678400  )
        10           F   tau(  10) = (  0.3001670  0.3001670  0.6678400  )
        11           F   tau(  11) = (  0.2976150  0.2976150  0.9968690  )
        12           F   tau(  12) = (  0.2023850  0.7976150  0.4968690  )
        13           F   tau(  13) = (  0.7976150  0.2023850  0.4968690  )
        14           F   tau(  14) = (  0.7023850  0.7023850  0.9968690  )
        15           F   tau(  15) = (  0.2977580  0.2977580  0.3377870  )
        16           F   tau(  16) = (  0.2022420  0.7977580  0.8377870  )
        17           F   tau(  17) = (  0.7977580  0.2022420  0.8377870  )
        18           F   tau(  18) = (  0.7022420  0.7022420  0.3377870  )

     number of k points=     6
                       cart. coord. in units 2pi/alat
        k(    1) = (   0.0000000   0.0000000   0.0000000), wk =   0.0740741
        k(    2) = (   0.0000000   0.0000000   0.1699122), wk =   0.1481481
        k(    3) = (   0.0000000   0.3333333   0.0000000), wk =   0.2962963
        k(    4) = (   0.0000000   0.3333333   0.1699122), wk =   0.5925926
        k(    5) = (   0.3333333   0.3333333   0.0000000), wk =   0.2962963
        k(    6) = (   0.3333333   0.3333333   0.1699122), wk =   0.5925926

                       cryst. coord.
        k(    1) = (   0.0000000   0.0000000   0.0000000), wk =   0.0740741
        k(    2) = (   0.0000000   0.0000000   0.3333333), wk =   0.1481481
        k(    3) = (   0.0000000   0.3333333   0.0000000), wk =   0.2962963
        k(    4) = (   0.0000000   0.3333333   0.3333333), wk =   0.5925926
        k(    5) = (   0.3333333   0.3333333   0.0000000), wk =   0.2962963
        k(    6) = (   0.3333333   0.3333333   0.3333333), wk =   0.5925926

     Check: negative core charge=   -0.000128

     Initial potential from superposition of free atoms

     starting charge     153.0968, renormalised to     154.0000
     Starting wfcs are  110 randomized atomic wfcs +  146 random wfcs
     Checking if some PAW data can be deallocated...

     Self-consistent Calculation

     iteration #  1     ecut=    30.00 Ry     beta= 0.70
     Davidson diagonalization with overlap

     ethr =  1.00E-02,  avg # of iterations =  6.2

     total energy              =   -1927.36874046 Ry
     estimated scf accuracy    <       2.97268477 Ry

[...]

     negative rho (up, down):  3.060E-04 0.000E+00

[...]

     negative rho (up, down):  1.775E-07 0.000E+00

[...]

     total energy              =   -1928.91691324 Ry
     estimated scf accuracy    <       0.00000353 Ry

     iteration # 16     ecut=    30.00 Ry     beta= 0.70
     Davidson diagonalization with overlap

     ethr =  2.07E-09,  avg # of iterations =  1.0

     End of self-consistent calculation

          k = 0.0000 0.0000 0.0000 (  3911 PWs)   bands (ev):

   -82.7112 -82.7038 -82.6989 -82.6960 -48.3582 -48.3582 -48.3522 -48.3522
   -48.2714 -48.2145 -48.2145 -48.2052 -48.2052 -48.1843 -48.1752 -48.1559
   -38.9610 -38.9602 -18.6090 -18.3470 -18.3163 -18.0568 -18.0568 -18.0098
   -17.9476 -17.9265 -17.9265 -17.9148 -17.8873 -17.8873  -1.9171  -1.5861
    -1.0987  -1.0793  -0.8068  -0.7426  -0.6591  -0.5303  -0.5303  -0.4193
    -0.4193  -0.3150  -0.2965  -0.1303   0.0496   0.1082   0.1082   0.2025
     0.2025   0.2545   0.2560   0.4256   0.4772   0.4772   0.5364   0.5364
     0.9692   0.9692   1.2948   1.3692   1.4475   1.4475   1.4632   1.5821
     1.5821   1.9271   3.7707   3.8784   3.8893   3.9475   3.9650   3.9923
     3.9923   4.0247   4.1425   4.1425   4.3299   4.3965   5.2524   5.2942
     5.7514   5.7514   5.9586   5.9586   6.1742   6.2772   9.2000  11.4150
    12.0462  14.5856  14.5856  15.8311  16.1721  16.5363  16.5363  16.5985
    16.9219  17.0007  17.0007  17.1119  17.2028  17.2946  17.8701  18.3892
    18.5372  19.2332  19.3727  19.7362  19.7658  19.7658  19.8650  20.4780
    20.7684  20.7684  20.9277  21.2244  21.5716  21.5716  23.5148  23.5148
    24.2526  24.2792  24.2792  24.6445  24.6797  24.9192  26.3028  26.6082
    26.7737  26.7737  27.0423  27.4953  27.4953  28.2520  28.2972  28.2972
    28.6827  28.6827  29.5479  29.6760  29.7531  29.7604  30.0112  30.0112
    30.0123  30.3916  30.8939  32.3298  33.0162  33.0162  33.0321  33.2313
    33.2313  33.3766  33.6818  33.7669  33.7669  33.8430  34.7773  34.7966
    34.7966  35.0924  35.0924  35.6343  35.6343  36.5332  36.5820  37.1861
    37.2471  37.3067  37.3067  37.8321  37.9340  38.0646  38.5516  38.8024
    38.8024  38.8322  39.1733  39.1733  39.3369  39.3669  39.5052  39.5052
    39.9414  39.9997  40.0539  40.0539  40.1051  40.3341  40.6320  40.9181
    41.3232  41.3232  41.3293  41.3936  41.4222  41.5926  41.5926  41.8608
    41.8608  42.1399  42.2218  42.2218  42.6714  42.7479  42.7479  42.7900
    42.9666  42.9666  43.2499  44.4404  44.9193  45.0177  45.1548  45.2073
    45.2073  45.2824  45.2824  45.4143  45.5002  47.2012  47.4565  47.4712
    48.2819  48.2819  48.7063  48.7063  48.7618  48.8475  49.2412  49.2412
    49.4377  49.4377  50.3701  50.3701  50.6240  50.9345  50.9988  51.0483
    51.2865  51.3545  51.3545  51.4385  51.6799  51.6799  51.9380  52.3635
    52.5983  53.3426  53.3426  53.4719  53.8385  54.0647  54.0647  54.2328

     occupation numbers
     1.0000   1.0000   1.0000   1.0000   1.0000   1.0000   1.0000   1.0000
     1.0000   1.0000   1.0000   1.0000   1.0000   1.0000   1.0000   1.0000
     1.0000   1.0000   1.0000   1.0000   1.0000   1.0000   1.0000   1.0000
     1.0000   1.0000   1.0000   1.0000   1.0000   1.0000   1.0000   1.0000
     1.0000   1.0000   1.0000   1.0000   1.0000   1.0000   1.0000   1.0000
     1.0000   1.0000   1.0000   1.0000   1.0000   1.0000   1.0000   1.0000
     1.0000   1.0000   1.0000   1.0000   1.0000   1.0000   1.0000   1.0000
     1.0000   1.0000   1.0000   1.0000   1.0000   1.0000   1.0000   1.0000
     1.0000   1.0000   1.0000   1.0000   1.0000   1.0000   1.0000   1.0000
     1.0000   1.0000   1.0000   1.0000   1.0000   0.0000   0.0000   0.0000
     0.0000   0.0000   0.0000   0.0000   0.0000   0.0000   0.0000   0.0000
     0.0000   0.0000   0.0000   0.0000   0.0000   0.0000   0.0000   0.0000
     0.0000   0.0000   0.0000   0.0000   0.0000   0.0000   0.0000   0.0000
     0.0000   0.0000   0.0000   0.0000   0.0000   0.0000   0.0000   0.0000
     0.0000   0.0000   0.0000   0.0000   0.0000   0.0000   0.0000   0.0000
     0.0000   0.0000   0.0000   0.0000   0.0000   0.0000   0.0000   0.0000
     0.0000   0.0000   0.0000   0.0000   0.0000   0.0000   0.0000   0.0000
     0.0000   0.0000   0.0000   0.0000   0.0000   0.0000   0.0000   0.0000
     0.0000   0.0000   0.0000   0.0000   0.0000   0.0000   0.0000   0.0000
     0.0000   0.0000   0.0000   0.0000   0.0000   0.0000   0.0000   0.0000
     0.0000   0.0000   0.0000   0.0000   0.0000   0.0000   0.0000   0.0000
     0.0000   0.0000   0.0000   0.0000   0.0000   0.0000   0.0000   0.0000
     0.0000   0.0000   0.0000   0.0000   0.0000   0.0000   0.0000   0.0000
     0.0000   0.0000   0.0000   0.0000   0.0000   0.0000   0.0000   0.0000
     0.0000   0.0000   0.0000   0.0000   0.0000   0.0000   0.0000   0.0000
     0.0000   0.0000   0.0000   0.0000   0.0000   0.0000   0.0000   0.0000
     0.0000   0.0000   0.0000   0.0000   0.0000   0.0000   0.0000   0.0000
     0.0000   0.0000   0.0000   0.0000   0.0000   0.0000   0.0000   0.0000
     0.0000   0.0000   0.0000   0.0000   0.0000   0.0000   0.0000   0.0000
     0.0000   0.0000   0.0000   0.0000   0.0000   0.0000   0.0000   0.0000
     0.0000   0.0000   0.0000   0.0000   0.0000   0.0000   0.0000   0.0000
     0.0000   0.0000   0.0000   0.0000   0.0000   0.0000   0.0000   0.0000

[...]

          k = 0.3333 0.3333 0.1699 (  3920 PWs)   bands (ev):

   -82.7058 -82.7051 -82.6992 -82.6988 -48.3660 -48.3594 -48.3590 -48.3521
   -48.2279 -48.2199 -48.2165 -48.2062 -48.2023 -48.1992 -48.1667 -48.1598
   -38.9606 -38.9605 -18.3628 -18.3099 -18.1702 -18.1086 -18.0828 -18.0768
   -18.0377 -18.0338 -17.9563 -17.9378 -17.9162 -17.9142  -1.5995  -1.4906
    -1.3518  -1.2088  -0.9933  -0.9192  -0.8079  -0.8007  -0.6385  -0.6181
    -0.3894  -0.3792  -0.2070  -0.0581   0.0574   0.0863   0.2377   0.2712
     0.2976   0.5063   0.5108   0.5170   0.6450   0.7110   0.7968   0.9369
     1.0009   1.0046   1.0767   1.1959   1.2746   1.3360   1.4013   1.4327
     1.5029   1.5739   3.8273   3.8560   3.9058   3.9223   3.9630   4.0011
     4.0480   4.0711   4.1304   4.1448   4.2319   4.2904   5.4219   5.5524
     5.7122   5.7626   5.7648   5.9351   6.1151   6.2026  11.5523  12.1485
    13.6634  13.6877  14.2508  14.2938  14.5696  15.2776  15.4266  15.8027
    16.0242  16.6395  17.0501  17.3051  17.4892  17.9658  18.4939  18.6582
    19.0263  19.1984  19.3281  19.7501  19.9401  20.2950  20.5380  20.7024
    20.7473  21.0089  21.7148  21.9373  22.2247  22.5701  23.0753  23.1810
    23.3443  23.5947  23.9372  24.1724  24.3740  25.0262  25.5326  25.9391
    26.3519  26.5169  26.7401  27.0287  27.3111  27.3353  27.8297  28.2692
    28.5869  28.9749  29.1010  29.5625  29.7081  30.1094  30.1180  30.7916
    30.9208  31.0306  31.4181  31.5480  32.0222  32.0421  32.3235  32.4686
    32.9610  33.4337  34.0739  34.1995  34.2569  34.7649  34.8179  35.0321
    35.0990  35.2276  35.4538  35.5455  36.0090  36.0341  36.1572  36.3945
    36.7779  37.0606  37.1989  37.3124  37.5704  37.7686  38.0970  38.1983
    38.2095  38.7253  39.0908  39.3789  39.4633  39.5036  39.9244  39.9306
    40.0123  40.0532  40.5121  40.8028  40.8934  40.9726  41.1454  41.2819
    41.3943  41.7175  42.0885  42.2319  42.4003  42.4858  42.7080  42.7342
    42.8784  42.9892  43.0623  43.2696  43.3226  43.7248  43.8880  44.2266
    44.9505  45.1314  45.1945  45.2750  45.6643  45.7890  45.8756  46.0856
    46.1508  46.2948  46.4650  46.5592  46.8670  47.0803  47.4640  47.5314
    47.6162  47.8702  48.0343  48.3101  48.3860  48.8280  48.8487  48.9411
    49.3709  49.6977  49.8055  50.0832  50.0865  50.4868  50.4953  50.6675
    50.8335  50.8908  51.2463  51.2882  51.5660  51.5967  52.0377  52.1916
    52.5320  52.6232  52.8190  52.8553  53.1905  53.2381  53.4975  53.5857

     occupation numbers
     1.0000   1.0000   1.0000   1.0000   1.0000   1.0000   1.0000   1.0000
     1.0000   1.0000   1.0000   1.0000   1.0000   1.0000   1.0000   1.0000
     1.0000   1.0000   1.0000   1.0000   1.0000   1.0000   1.0000   1.0000
     1.0000   1.0000   1.0000   1.0000   1.0000   1.0000   1.0000   1.0000
     1.0000   1.0000   1.0000   1.0000   1.0000   1.0000   1.0000   1.0000
     1.0000   1.0000   1.0000   1.0000   1.0000   1.0000   1.0000   1.0000
     1.0000   1.0000   1.0000   1.0000   1.0000   1.0000   1.0000   1.0000
     1.0000   1.0000   1.0000   1.0000   1.0000   1.0000   1.0000   1.0000
     1.0000   1.0000   1.0000   1.0000   1.0000   1.0000   1.0000   1.0000
     1.0000   1.0000   1.0000   1.0000   1.0000   0.0000   0.0000   0.0000
     0.0000   0.0000   0.0000   0.0000   0.0000   0.0000   0.0000   0.0000
     0.0000   0.0000   0.0000   0.0000   0.0000   0.0000   0.0000   0.0000
     0.0000   0.0000   0.0000   0.0000   0.0000   0.0000   0.0000   0.0000
     0.0000   0.0000   0.0000   0.0000   0.0000   0.0000   0.0000   0.0000
     0.0000   0.0000   0.0000   0.0000   0.0000   0.0000   0.0000   0.0000
     0.0000   0.0000   0.0000   0.0000   0.0000   0.0000   0.0000   0.0000
     0.0000   0.0000   0.0000   0.0000   0.0000   0.0000   0.0000   0.0000
     0.0000   0.0000   0.0000   0.0000   0.0000   0.0000   0.0000   0.0000
     0.0000   0.0000   0.0000   0.0000   0.0000   0.0000   0.0000   0.0000
     0.0000   0.0000   0.0000   0.0000   0.0000   0.0000   0.0000   0.0000
     0.0000   0.0000   0.0000   0.0000   0.0000   0.0000   0.0000   0.0000
     0.0000   0.0000   0.0000   0.0000   0.0000   0.0000   0.0000   0.0000
     0.0000   0.0000   0.0000   0.0000   0.0000   0.0000   0.0000   0.0000
     0.0000   0.0000   0.0000   0.0000   0.0000   0.0000   0.0000   0.0000
     0.0000   0.0000   0.0000   0.0000   0.0000   0.0000   0.0000   0.0000
     0.0000   0.0000   0.0000   0.0000   0.0000   0.0000   0.0000   0.0000
     0.0000   0.0000   0.0000   0.0000   0.0000   0.0000   0.0000   0.0000
     0.0000   0.0000   0.0000   0.0000   0.0000   0.0000   0.0000   0.0000
     0.0000   0.0000   0.0000   0.0000   0.0000   0.0000   0.0000   0.0000
     0.0000   0.0000   0.0000   0.0000   0.0000   0.0000   0.0000   0.0000
     0.0000   0.0000   0.0000   0.0000   0.0000   0.0000   0.0000   0.0000
     0.0000   0.0000   0.0000   0.0000   0.0000   0.0000   0.0000   0.0000

     highest occupied, lowest unoccupied level (ev):     4.3516    4.2904

!    total energy              =   -1928.91692189 Ry
     estimated scf accuracy    <       0.00000067 Ry

     The total energy is the sum of the following terms:
     one-electron contribution =   -1058.17906781 Ry
     hartree contribution      =     594.86430364 Ry
     xc contribution           =    -257.29451195 Ry
     ewald contribution        =    -904.02303151 Ry
     one-center paw contrib.   =    -304.28461426 Ry
      -> PAW hartree energy AE =     204.93913908 Ry
      -> PAW hartree energy PS =    -204.15170676 Ry
      -> PAW xc energy AE      =    -110.90826157 Ry
      -> PAW xc energy PS      =      34.04963758 Ry
      -> total E_H with PAW    =     595.65173595 Ry
      -> total E_XC with PAW   =    -334.15313594 Ry

     convergence has been achieved in  16 iterations

     Writing all to output data dir bands_nm/myprefix.save/

     General routines

     Parallel routines

     PAW routines

   This run was terminated on:  22:32:21  15Jul2023

   JOB DONE.