     Program PWSCF v.7.1 starts on 15Jul2023 at 18:52:33

     Reading input from espresso_4267.pwi
Warning: card &CELL ignored
Warning: card / ignored

     Current dimensions of program PWSCF are:
     Max number of different atomic species (ntypx) = 10
     Max number of k-points (npk) =  40000
     Max angular momentum in pseudopotentials (lmaxx) =  4
     file Mg.pbe-n-kjpaw_psl.0.3.0.UPF: wavefunction(s)  3S renormalized
     file O.pbe-n-kjpaw_psl.0.1.UPF: wavefunction(s)  2P renormalized

     K-points division:     npool     =       2
     R & G space division:  proc/nbgrp/npool/nimage =       4
     Subspace diagonalization in iterative solution of the eigenvalue problem:
     one sub-group per band group will be used

     Using Slab Decomposition

     bravais-lattice index     =            0
     lattice parameter (alat)  =       9.9641  a.u.
     unit-cell volume          =    1585.8204 (a.u.)^3
     number of atoms/cell      =           20
     number of atomic types    =            4
     number of electrons       =       158.00
     number of Kohn-Sham states=          256
     kinetic-energy cutoff     =      30.0000  Ry
     charge density cutoff     =     240.0000  Ry
     scf convergence threshold =      1.0E-06
     mixing beta               =       0.7000
     number of iterations used =            8  plain     mixing
     Exchange-correlation= SLA  PW   PBX  PBC
                           (   1   4   3   4   0   0   0)

     celldm(1)=   9.964114  celldm(2)=   0.000000  celldm(3)=   0.000000
     celldm(4)=   0.000000  celldm(5)=   0.000000  celldm(6)=   0.000000

     crystal axes: (cart. coord. in units of alat)
               a(1) = (   1.000000   0.000000   0.000000 )
               a(2) = (   0.173058   1.266651   0.000000 )
               a(3) = (   0.173109   0.053462   1.265555 )

     reciprocal axes: (cart. coord. in units 2 pi/alat)
               b(1) = (  1.000000 -0.136627 -0.131014 )
               b(2) = (  0.000000  0.789484 -0.033351 )
               b(3) = (  0.000000  0.000000  0.790167 )

     PseudoPot. # 1 for Mg read from file:
     /lustre07/scratch/pragov/crystal_structure_design/utils/SSSP/Mg.pbe-n-kjpaw_psl.0.3.0.UPF
     MD5 check sum: 24ecedc7f3e3cbe212e682f4413594e4
     Pseudo is Projector augmented-wave + core cor, Zval =  2.0
     Generated using "atomic" code by A. Dal Corso  v.5.0.99 svn rev. 10869
     Shape of augmentation charge: PSQ
     Using radial grid of 1129 points,  4 beta functions with:
                l(1) =   0
                l(2) =   0
                l(3) =   1
                l(4) =   1
     Q(r) pseudized with 0 coefficients

     PseudoPot. # 2 for V  read from file:
     /lustre07/scratch/pragov/crystal_structure_design/utils/SSSP/v_pbe_v1.4.uspp.F.UPF
     MD5 check sum: 22b79981416ebb76fdaf5b1b8640f6fb
     Pseudo is Ultrasoft + core correction, Zval = 13.0
     Generated by new atomic code, or converted to UPF format
     Using radial grid of  853 points,  6 beta functions with:
                l(1) =   0
                l(2) =   0
                l(3) =   1
                l(4) =   1
                l(5) =   2
                l(6) =   2
     Q(r) pseudized with  8 coefficients,  rinner =    1.100   1.100   1.100
                                                       1.100   1.100

     PseudoPot. # 3 for Ge read from file:
     /lustre07/scratch/pragov/crystal_structure_design/utils/SSSP/ge_pbe_v1.4.uspp.F.UPF
     MD5 check sum: 9c9eaa91e581c3f09632fb3098b2c6b2
     Pseudo is Ultrasoft + core correction, Zval = 14.0
     Generated by new atomic code, or converted to UPF format
     Using radial grid of  873 points,  6 beta functions with:
                l(1) =   0
                l(2) =   0
                l(3) =   1
                l(4) =   1
                l(5) =   2
                l(6) =   2
     Q(r) pseudized with  8 coefficients,  rinner =    1.400   1.400   1.400
                                                       1.400   1.400

     PseudoPot. # 4 for O  read from file:
     /lustre07/scratch/pragov/crystal_structure_design/utils/SSSP/O.pbe-n-kjpaw_psl.0.1.UPF
     MD5 check sum: 0234752ac141de4415c5fc33072bef88
     Pseudo is Projector augmented-wave + core cor, Zval =  6.0
     Generated using "atomic" code by A. Dal Corso  v.5.0.99 svn rev. 10869
     Shape of augmentation charge: BESSEL
     Using radial grid of 1095 points,  4 beta functions with:
                l(1) =   0
                l(2) =   0
                l(3) =   1
                l(4) =   1
     Q(r) pseudized with 0 coefficients

     atomic species   valence    mass     pseudopotential
        Mg             2.00    24.30500     Mg( 1.00)
        V             13.00    50.94150     V ( 1.00)
        Ge            14.00    72.63000     Ge( 1.00)
        O              6.00    15.99900     O ( 1.00)

     No symmetry found

                                    s                        frac. trans.

      isym =  1     identity

 cryst.   s( 1) = (     1          0          0      )
                  (     0          1          0      )
                  (     0          0          1      )

 cart.    s( 1) = (  1.0000000  0.0000000  0.0000000 )
                  (  0.0000000  1.0000000  0.0000000 )
                  (  0.0000000  0.0000000  1.0000000 )

   Cartesian axes

     site n.     atom                  positions (alat units)
         1           Mg  tau(   1) = (   0.9230962   0.3809987   0.9238778  )
         2           Mg  tau(   2) = (   0.4230695   0.9391022   0.3416910  )
         3           V   tau(   3) = (   0.4231044   0.1660508   1.1481051  )
         4           V   tau(   4) = (   0.9230636   1.1540560   0.1174524  )
         5           Ge  tau(   5) = (   0.8932523   0.5118920   0.2640201  )
         6           Ge  tau(   6) = (   0.9529097   1.0347330   0.7652456  )
         7           Ge  tau(   7) = (   0.4529182   0.8082170   1.0015310  )
         8           Ge  tau(   8) = (   0.3932584   0.2853838   0.5003093  )
         9           O   tau(   9) = (   0.7229821   0.3899159   0.5427775  )
        10           O   tau(  10) = (   1.1231943   0.7613819   0.8988781  )
        11           O   tau(  11) = (   0.6231869   0.9302073   0.7227786  )
        12           O   tau(  12) = (   0.2229759   0.5587426   0.3666781  )
        13           O   tau(  13) = (   0.2482613   0.2202928   0.7873106  )
        14           O   tau(  14) = (   0.5979351   0.5242321   1.0786666  )
        15           O   tau(  15) = (   1.0979034   1.0998105   0.4782253  )
        16           O   tau(  16) = (   0.7482309   0.7959036   0.1868832  )
        17           O   tau(  17) = (   0.9009850   0.2713528   0.0298215  )
        18           O   tau(  18) = (   0.9451678   1.2788669   0.9956943  )
        19           O   tau(  19) = (   0.4451796   1.0487603   1.2357346  )
        20           O   tau(  20) = (   0.4009997   0.0412300   0.2698695  )

   Crystallographic axes

     site n.     atom                  positions (cryst. coord.)
         1           Mg  tau(   1) = (  0.7500010  0.2699800  0.7300180  )
         2           Mg  tau(   2) = (  0.2499970  0.7300100  0.2699930  )
         3           V   tau(   3) = (  0.2500000  0.0928040  0.9071950  )
         4           V   tau(   4) = (  0.7500010  0.9071910  0.0928070  )
         5           Ge  tau(   5) = (  0.7887240  0.3953250  0.2086200  )
         6           Ge  tau(   6) = (  0.7112800  0.7913830  0.6046720  )
         7           Ge  tau(   7) = (  0.2112800  0.6046720  0.7913770  )
         8           Ge  tau(   8) = (  0.2887200  0.2086200  0.3953280  )
         9           O   tau(   9) = (  0.5985980  0.2897300  0.4288850  )
        10           O   tau(  10) = (  0.9014040  0.5711200  0.7102640  )
        11           O   tau(  11) = (  0.4014020  0.7102780  0.5711160  )
        12           O   tau(  12) = (  0.0985970  0.4288890  0.2897370  )
        13           O   tau(  13) = (  0.1150150  0.1476600  0.6221070  )
        14           O   tau(  14) = (  0.3849910  0.3778980  0.8523270  )
        15           O   tau(  15) = (  0.8849860  0.8523330  0.3778780  )
        16           O   tau(  16) = (  0.6150050  0.6221200  0.1476690  )
        17           O   tau(  17) = (  0.8600040  0.2132340  0.0235640  )
        18           O   tau(  18) = (  0.6399910  0.9764370  0.7867650  )
        19           O   tau(  19) = (  0.1399930  0.7867660  0.9764370  )
        20           O   tau(  20) = (  0.3600100  0.0235500  0.2132420  )

     number of k points=    14
                       cart. coord. in units 2pi/alat
        k(    1) = (   0.0000000   0.0000000   0.0000000), wk =   0.0740741
        k(    2) = (   0.0000000   0.0000000   0.2633891), wk =   0.1481481
        k(    3) = (   0.0000000   0.2631612  -0.0111170), wk =   0.1481481
        k(    4) = (   0.0000000   0.2631612   0.2522721), wk =   0.1481481
        k(    5) = (   0.0000000   0.2631612  -0.2745061), wk =   0.1481481
        k(    6) = (   0.3333333  -0.0455422  -0.0436712), wk =   0.1481481
        k(    7) = (   0.3333333  -0.0455422   0.2197179), wk =   0.1481481
        k(    8) = (   0.3333333  -0.0455422  -0.3070603), wk =   0.1481481
        k(    9) = (   0.3333333   0.2176190  -0.0547882), wk =   0.1481481
        k(   10) = (   0.3333333   0.2176190   0.2086009), wk =   0.1481481
        k(   11) = (   0.3333333   0.2176190  -0.3181773), wk =   0.1481481
        k(   12) = (   0.3333333  -0.3087034  -0.0325542), wk =   0.1481481
        k(   13) = (   0.3333333  -0.3087034   0.2308349), wk =   0.1481481
        k(   14) = (   0.3333333  -0.3087034  -0.2959433), wk =   0.1481481

                       cryst. coord.
        k(    1) = (   0.0000000   0.0000000   0.0000000), wk =   0.0740741
        k(    2) = (   0.0000000   0.0000000   0.3333333), wk =   0.1481481
        k(    3) = (   0.0000000   0.3333333   0.0000000), wk =   0.1481481
        k(    4) = (   0.0000000   0.3333333   0.3333333), wk =   0.1481481
        k(    5) = (   0.0000000   0.3333333  -0.3333333), wk =   0.1481481
        k(    6) = (   0.3333333  -0.0000000   0.0000000), wk =   0.1481481
        k(    7) = (   0.3333333  -0.0000000   0.3333333), wk =   0.1481481
        k(    8) = (   0.3333333  -0.0000000  -0.3333333), wk =   0.1481481
        k(    9) = (   0.3333333   0.3333333   0.0000000), wk =   0.1481481
        k(   10) = (   0.3333333   0.3333333   0.3333333), wk =   0.1481481
        k(   11) = (   0.3333333   0.3333333  -0.3333333), wk =   0.1481481
        k(   12) = (   0.3333333  -0.3333333  -0.0000000), wk =   0.1481481
        k(   13) = (   0.3333333  -0.3333333   0.3333333), wk =   0.1481481
        k(   14) = (   0.3333333  -0.3333333  -0.3333333), wk =   0.1481481

     Check: negative core charge=   -0.000011

     Initial potential from superposition of free atoms

     starting charge     157.9922, renormalised to     158.0000

     negative rho (up, down):  1.934E-03 0.000E+00
     Starting wfcs are  112 randomized atomic wfcs +  144 random wfcs
     Checking if some PAW data can be deallocated...

     Self-consistent Calculation

     iteration #  1     ecut=    30.00 Ry     beta= 0.70
     Davidson diagonalization with overlap

     ethr =  1.00E-02,  avg # of iterations =  6.0

     negative rho (up, down):  2.764E-03 0.000E+00

     total energy              =   -1710.22972197 Ry
     estimated scf accuracy    <       3.97873685 Ry

[...]

     total energy              =   -1712.03926302 Ry
     estimated scf accuracy    <       0.00000215 Ry

     iteration # 15     ecut=    30.00 Ry     beta= 0.70
     Davidson diagonalization with overlap

     ethr =  1.36E-09,  avg # of iterations =  1.0

     negative rho (up, down):  2.517E-03 0.000E+00

     End of self-consistent calculation

          k = 0.0000 0.0000 0.0000 (  4375 PWs)   bands (ev):

   -54.9612 -54.9527 -28.8734 -28.8497 -28.8269 -28.7985 -28.7809 -28.7478
   -17.1585 -17.1585 -17.1286 -17.1282 -17.0810 -17.0783 -17.0709 -17.0701
   -17.0365 -17.0311 -16.9595 -16.9571 -16.8687 -16.8651 -16.8556 -16.8533
   -16.8491 -16.8483 -16.8355 -16.8343 -12.4894 -12.0583 -10.8620 -10.8284
   -10.7163 -10.6654 -10.6402 -10.3891 -10.3456 -10.0469 -10.0270  -9.9555
    -1.4534  -1.3706  -0.3590   0.3342   1.5313   1.7544   1.8590   1.9741
     2.0668   2.5036   2.6679   2.6903   2.9744   3.1016   3.3013   3.3844
     3.8383   4.0764   4.2242   4.2553   4.3939   4.4765   4.4998   4.6319
     4.6672   4.9093   4.9202   5.0977   5.1952   5.2557   5.5440   5.6668
     5.6864   5.7892   5.8395   6.3210   8.9668   9.8335  10.0114  10.0648
    10.3442  10.4068  10.4792  11.1003  11.2434  11.3963  11.8223  12.0887
    13.2438  13.6964  13.9110  14.1037  14.5517  14.5792  14.5894  14.7223
    14.8336  15.3479  16.1302  16.2145  16.7887  17.0415  17.1604  17.1624
    17.4572  17.9782  18.5794  18.9448  18.9568  19.1235  19.1841  19.6626
    19.6726  19.7703  19.9927  20.1231  20.2739  20.2882  20.6638  20.7683
    21.2130  21.4285  21.6955  22.2674  22.8003  23.2325  23.2835  24.2575
    24.2692  24.4029  24.5257  24.7603  24.8922  25.1909  25.3100  25.4765
    25.8630  26.2009  26.5005  26.9858  27.1722  27.2256  27.4664  27.5335
    28.0208  28.7327  28.7581  28.8824  29.6993  29.9440  30.3482  30.3865
    30.5986  30.7038  30.7087  30.9480  31.1451  31.4857  31.6416  31.8182
    32.1982  32.7805  33.1074  33.1219  33.5308  33.5551  33.6714  33.9038
    33.9639  34.2621  34.4146  34.4847  34.6208  34.7618  35.0309  35.1504
    35.1687  35.2714  35.2788  35.5046  35.8327  36.1980  36.4142  36.4240
    36.5401  36.7729  36.8741  37.1157  37.1728  37.3635  37.6369  37.7864
    37.9491  38.1129  38.1983  38.4972  38.5098  38.5834  39.0121  39.2281
    39.3651  39.4201  39.5892  39.8750  40.3473  40.4705  40.5766  40.6203
    40.6289  40.8741  41.2124  41.3390  41.6229  42.1581  42.2522  42.6256
    42.6969  42.8401  42.8637  43.0140  43.3076  43.3535  43.7205  44.2185
    44.4818  44.5632  44.5837  44.7775  44.9449  45.1356  45.3002  45.3803
    45.7498  46.0367  46.1388  46.2521  46.3596  46.7035  46.8076  47.1033
    47.2790  47.2816  47.4812  47.5075  47.6466  47.6523  48.0984  48.2498
    48.6656  48.7459  48.9408  48.9553  49.1160  49.5713  49.6628  49.7469

     occupation numbers
     1.0000   1.0000   1.0000   1.0000   1.0000   1.0000   1.0000   1.0000
     1.0000   1.0000   1.0000   1.0000   1.0000   1.0000   1.0000   1.0000
     1.0000   1.0000   1.0000   1.0000   1.0000   1.0000   1.0000   1.0000
     1.0000   1.0000   1.0000   1.0000   1.0000   1.0000   1.0000   1.0000
     1.0000   1.0000   1.0000   1.0000   1.0000   1.0000   1.0000   1.0000
     1.0000   1.0000   1.0000   1.0000   1.0000   1.0000   1.0000   1.0000
     1.0000   1.0000   1.0000   1.0000   1.0000   1.0000   1.0000   1.0000
     1.0000   1.0000   1.0000   1.0000   1.0000   1.0000   1.0000   1.0000
     1.0000   1.0000   1.0000   1.0000   1.0000   1.0000   1.0000   1.0000
     1.0000   1.0000   1.0000   1.0000   1.0000   1.0000   1.0000   0.0000
     0.0000   0.0000   0.0000   0.0000   0.0000   0.0000   0.0000   0.0000
     0.0000   0.0000   0.0000   0.0000   0.0000   0.0000   0.0000   0.0000
     0.0000   0.0000   0.0000   0.0000   0.0000   0.0000   0.0000   0.0000
     0.0000   0.0000   0.0000   0.0000   0.0000   0.0000   0.0000   0.0000
     0.0000   0.0000   0.0000   0.0000   0.0000   0.0000   0.0000   0.0000
     0.0000   0.0000   0.0000   0.0000   0.0000   0.0000   0.0000   0.0000
     0.0000   0.0000   0.0000   0.0000   0.0000   0.0000   0.0000   0.0000
     0.0000   0.0000   0.0000   0.0000   0.0000   0.0000   0.0000   0.0000
     0.0000   0.0000   0.0000   0.0000   0.0000   0.0000   0.0000   0.0000
     0.0000   0.0000   0.0000   0.0000   0.0000   0.0000   0.0000   0.0000
     0.0000   0.0000   0.0000   0.0000   0.0000   0.0000   0.0000   0.0000
     0.0000   0.0000   0.0000   0.0000   0.0000   0.0000   0.0000   0.0000
     0.0000   0.0000   0.0000   0.0000   0.0000   0.0000   0.0000   0.0000
     0.0000   0.0000   0.0000   0.0000   0.0000   0.0000   0.0000   0.0000
     0.0000   0.0000   0.0000   0.0000   0.0000   0.0000   0.0000   0.0000
     0.0000   0.0000   0.0000   0.0000   0.0000   0.0000   0.0000   0.0000
     0.0000   0.0000   0.0000   0.0000   0.0000   0.0000   0.0000   0.0000
     0.0000   0.0000   0.0000   0.0000   0.0000   0.0000   0.0000   0.0000
     0.0000   0.0000   0.0000   0.0000   0.0000   0.0000   0.0000   0.0000
     0.0000   0.0000   0.0000   0.0000   0.0000   0.0000   0.0000   0.0000
     0.0000   0.0000   0.0000   0.0000   0.0000   0.0000   0.0000   0.0000
     0.0000   0.0000   0.0000   0.0000   0.0000   0.0000   0.0000   0.0000

[...]

          k = 0.3333-0.3087-0.2959 (  4400 PWs)   bands (ev):

   -54.9591 -54.9549 -28.8746 -28.8673 -28.7978 -28.7946 -28.7848 -28.7618
   -17.1543 -17.1531 -17.1408 -17.1368 -17.0747 -17.0736 -17.0716 -17.0687
   -17.0216 -17.0184 -16.9810 -16.9802 -16.8688 -16.8684 -16.8644 -16.8628
   -16.8451 -16.8433 -16.8369 -16.8348 -12.0071 -11.9175 -11.4491 -11.2719
   -10.6985 -10.6936 -10.4244 -10.3720 -10.1759 -10.1707 -10.0086  -9.9889
    -1.1738  -1.0950  -0.2289   0.0865   1.5551   1.7473   1.8849   2.1497
     2.2607   2.3835   2.5052   2.6491   3.1392   3.1946   3.4099   3.4484
     3.6576   3.7496   3.8337   4.3087   4.4202   4.4460   4.4698   4.6131
     4.6548   4.8706   4.9777   5.0089   5.1451   5.3064   5.4361   5.4402
     5.5060   5.7523   6.0411   6.1778   9.7213   9.8205  10.1448  10.2775
    10.4618  10.6038  10.7725  11.3974  11.4336  11.7445  11.9443  11.9809
    12.1306  12.6889  13.4598  13.6427  13.9779  14.1058  14.4548  14.7604
    15.3311  15.5866  16.3702  16.5346  16.7637  16.9859  17.1284  17.2765
    18.0022  18.1004  18.3584  18.6119  18.7008  18.9802  19.2870  19.4560
    19.5955  19.6929  20.1174  20.3012  20.4616  20.6368  20.6694  21.0385
    21.0984  21.4344  22.1711  22.7245  23.0170  23.1800  23.6009  23.9085
    23.9488  24.1989  24.7706  24.7810  24.9280  25.2379  25.4812  25.6250
    25.6847  26.0452  26.4211  26.7660  26.8136  26.9248  27.5989  27.8257
    28.0982  28.2922  28.7682  28.8345  28.9154  29.5645  29.6114  29.8731
    29.9487  30.5391  30.9835  31.0571  31.3092  31.3608  31.6145  32.0173
    32.4092  32.8018  33.1961  33.3699  33.4173  33.6683  34.0332  34.0894
    34.3051  34.4171  34.5672  34.5805  34.7861  34.8070  35.2325  35.2354
    35.7356  35.8171  35.8444  35.8507  36.0125  36.3239  36.4326  36.7807
    36.8072  36.9723  37.1422  37.2154  37.4377  37.5849  37.6967  37.9264
    38.0866  38.3085  38.3596  38.6803  38.8738  39.1182  39.2248  39.4252
    39.4360  39.5805  40.0441  40.1436  40.3807  40.5069  40.5946  40.7362
    40.8910  41.1759  41.4330  41.4724  41.7888  41.9998  42.0836  42.1536
    42.3102  42.6283  42.8688  42.9445  43.2361  43.7872  43.9781  43.9808
    44.0322  44.0464  44.4705  44.7242  44.8658  44.9830  45.0551  45.1881
    45.3279  45.5047  45.8147  45.9119  46.0443  46.0727  46.3913  46.6842
    46.9815  47.2292  47.2580  47.4451  47.7967  47.8368  48.0546  48.4971
    48.6350  48.6780  48.8108  48.8818  48.9594  49.1547  49.3953  49.4714

     occupation numbers
     1.0000   1.0000   1.0000   1.0000   1.0000   1.0000   1.0000   1.0000
     1.0000   1.0000   1.0000   1.0000   1.0000   1.0000   1.0000   1.0000
     1.0000   1.0000   1.0000   1.0000   1.0000   1.0000   1.0000   1.0000
     1.0000   1.0000   1.0000   1.0000   1.0000   1.0000   1.0000   1.0000
     1.0000   1.0000   1.0000   1.0000   1.0000   1.0000   1.0000   1.0000
     1.0000   1.0000   1.0000   1.0000   1.0000   1.0000   1.0000   1.0000
     1.0000   1.0000   1.0000   1.0000   1.0000   1.0000   1.0000   1.0000
     1.0000   1.0000   1.0000   1.0000   1.0000   1.0000   1.0000   1.0000
     1.0000   1.0000   1.0000   1.0000   1.0000   1.0000   1.0000   1.0000
     1.0000   1.0000   1.0000   1.0000   1.0000   1.0000   1.0000   0.0000
     0.0000   0.0000   0.0000   0.0000   0.0000   0.0000   0.0000   0.0000
     0.0000   0.0000   0.0000   0.0000   0.0000   0.0000   0.0000   0.0000
     0.0000   0.0000   0.0000   0.0000   0.0000   0.0000   0.0000   0.0000
     0.0000   0.0000   0.0000   0.0000   0.0000   0.0000   0.0000   0.0000
     0.0000   0.0000   0.0000   0.0000   0.0000   0.0000   0.0000   0.0000
     0.0000   0.0000   0.0000   0.0000   0.0000   0.0000   0.0000   0.0000
     0.0000   0.0000   0.0000   0.0000   0.0000   0.0000   0.0000   0.0000
     0.0000   0.0000   0.0000   0.0000   0.0000   0.0000   0.0000   0.0000
     0.0000   0.0000   0.0000   0.0000   0.0000   0.0000   0.0000   0.0000
     0.0000   0.0000   0.0000   0.0000   0.0000   0.0000   0.0000   0.0000
     0.0000   0.0000   0.0000   0.0000   0.0000   0.0000   0.0000   0.0000
     0.0000   0.0000   0.0000   0.0000   0.0000   0.0000   0.0000   0.0000
     0.0000   0.0000   0.0000   0.0000   0.0000   0.0000   0.0000   0.0000
     0.0000   0.0000   0.0000   0.0000   0.0000   0.0000   0.0000   0.0000
     0.0000   0.0000   0.0000   0.0000   0.0000   0.0000   0.0000   0.0000
     0.0000   0.0000   0.0000   0.0000   0.0000   0.0000   0.0000   0.0000
     0.0000   0.0000   0.0000   0.0000   0.0000   0.0000   0.0000   0.0000
     0.0000   0.0000   0.0000   0.0000   0.0000   0.0000   0.0000   0.0000
     0.0000   0.0000   0.0000   0.0000   0.0000   0.0000   0.0000   0.0000
     0.0000   0.0000   0.0000   0.0000   0.0000   0.0000   0.0000   0.0000
     0.0000   0.0000   0.0000   0.0000   0.0000   0.0000   0.0000   0.0000
     0.0000   0.0000   0.0000   0.0000   0.0000   0.0000   0.0000   0.0000

     highest occupied, lowest unoccupied level (ev):    10.1640   10.0648

!    total energy              =   -1712.03926274 Ry
     estimated scf accuracy    <       0.00000036 Ry

     The total energy is the sum of the following terms:
     one-electron contribution =    -859.99053163 Ry
     hartree contribution      =     541.57325419 Ry
     xc contribution           =    -365.78392337 Ry
     ewald contribution        =    -851.03205991 Ry
     one-center paw contrib.   =    -176.80600202 Ry
      -> PAW hartree energy AE =       1.43569884 Ry
      -> PAW hartree energy PS =      -1.43358957 Ry
      -> PAW xc energy AE      =     -65.09229388 Ry
      -> PAW xc energy PS      =       2.54677333 Ry
      -> total E_H with PAW    =     541.57536345 Ry
      -> total E_XC with PAW   =    -428.32944392 Ry

     convergence has been achieved in  15 iterations

     Writing all to output data dir bands_nm/myprefix.save/

     General routines

     Parallel routines

     PAW routines

   This run was terminated on:  18:53:47  15Jul2023

   JOB DONE.