     Program PWSCF v.7.1 starts on 15Jul2023 at 18:15:46

     Reading input from espresso_8926.pwi
Warning: card &CELL ignored
Warning: card / ignored

     Current dimensions of program PWSCF are:
     Max number of different atomic species (ntypx) = 10
     Max number of k-points (npk) =  40000
     Max angular momentum in pseudopotentials (lmaxx) =  4
     file Fe.pbe-spn-kjpaw_psl.0.2.1.UPF: wavefunction(s)  3D renormalized
     file O.pbe-n-kjpaw_psl.0.1.UPF: wavefunction(s)  2P renormalized

     K-points division:     npool     =       2
     R & G space division:  proc/nbgrp/npool/nimage =       4
     Subspace diagonalization in iterative solution of the eigenvalue problem:
     one sub-group per band group will be used

     Using Slab Decomposition

     bravais-lattice index     =            0
     lattice parameter (alat)  =      11.1503  a.u.
     unit-cell volume          =    1938.3046 (a.u.)^3
     number of atoms/cell      =           16
     number of atomic types    =            3
     number of electrons       =       148.00
     number of Kohn-Sham states=          256
     kinetic-energy cutoff     =      30.0000  Ry
     charge density cutoff     =     240.0000  Ry
     scf convergence threshold =      1.0E-06
     mixing beta               =       0.7000
     number of iterations used =            8  plain     mixing
     Exchange-correlation= SLA  PW   PBX  PBC
                           (   1   4   3   4   0   0   0)

     celldm(1)=  11.150306  celldm(2)=   0.000000  celldm(3)=   0.000000
     celldm(4)=   0.000000  celldm(5)=   0.000000  celldm(6)=   0.000000

     crystal axes: (cart. coord. in units of alat)
               a(1) = (   1.000000   0.000000   0.000000 )
               a(2) = (  -0.000006   1.398172   0.000000 )
               a(3) = (   0.000002   0.000002   1.000002 )

     reciprocal axes: (cart. coord. in units 2 pi/alat)
               b(1) = (  1.000000  0.000004 -0.000002 )
               b(2) = (  0.000000  0.715220 -0.000001 )
               b(3) = (  0.000000  0.000000  0.999998 )

     PseudoPot. # 1 for Rb read from file:
     /lustre07/scratch/pragov/crystal_structure_design/utils/SSSP/Rb_ONCV_PBE-1.0.oncvpsp.upf
     MD5 check sum: 55a5172d6bfbce6759a58e35d43f6aa9
     Pseudo is Norm-conserving, Zval =  9.0
     Generated using ONCVPSP code by D. R. Hamann
     Using radial grid of 2308 points,  6 beta functions with:
                l(1) =   0
                l(2) =   0
                l(3) =   1
                l(4) =   1
                l(5) =   2
                l(6) =   2

     PseudoPot. # 2 for Fe read from file:
     /lustre07/scratch/pragov/crystal_structure_design/utils/SSSP/Fe.pbe-spn-kjpaw_psl.0.2.1.UPF
     MD5 check sum: e86618425769142926afa95317d90200
     Pseudo is Projector augmented-wave + core cor, Zval = 16.0
     Generated using "atomic" code by A. Dal Corso  v.5.0.99 svn rev. 10869
     Shape of augmentation charge: PSQ
     Using radial grid of 1191 points,  6 beta functions with:
                l(1) =   0
                l(2) =   0
                l(3) =   1
                l(4) =   1
                l(5) =   2
                l(6) =   2
     Q(r) pseudized with 0 coefficients

     PseudoPot. # 3 for O  read from file:
     /lustre07/scratch/pragov/crystal_structure_design/utils/SSSP/O.pbe-n-kjpaw_psl.0.1.UPF
     MD5 check sum: 0234752ac141de4415c5fc33072bef88
     Pseudo is Projector augmented-wave + core cor, Zval =  6.0
     Generated using "atomic" code by A. Dal Corso  v.5.0.99 svn rev. 10869
     Shape of augmentation charge: BESSEL
     Using radial grid of 1095 points,  4 beta functions with:
                l(1) =   0
                l(2) =   0
                l(3) =   1
                l(4) =   1
     Q(r) pseudized with 0 coefficients

     atomic species   valence    mass     pseudopotential
        Rb             9.00    85.46780     Rb( 1.00)
        Fe            16.00    55.84500     Fe( 1.00)
        O              6.00    15.99900     O ( 1.00)

     No symmetry found

                                    s                        frac. trans.

      isym =  1     identity

 cryst.   s( 1) = (     1          0          0      )
                  (     0          1          0      )
                  (     0          0          1      )

 cart.    s( 1) = (  1.0000000  0.0000000  0.0000000 )
                  (  0.0000000  1.0000000 -0.0000000 )
                  (  0.0000000  0.0000000  1.0000000 )

   Cartesian axes

     site n.     atom                  positions (alat units)
         1           Rb  tau(   1) = (   0.2227807   0.6990808   0.2227755  )
         2           Rb  tau(   2) = (   0.7228144   1.0486238   0.2772377  )
         3           Rb  tau(   3) = (   0.2771793   0.3495358   0.7227747  )
         4           Rb  tau(   4) = (   0.7771848   0.0000152   0.7772708  )
         5           Fe  tau(   5) = (   0.7109383   0.3495421   0.2890667  )
         6           Fe  tau(   6) = (   0.2890494   1.0486301   0.7109397  )
         7           Fe  tau(   7) = (   0.2109418   1.3981681   0.2109435  )
         8           Fe  tau(   8) = (   0.7890410   0.6990887   0.7890649  )
         9           O   tau(   9) = (   0.7562388   0.5981689   0.0924472  )
        10           O   tau(  10) = (   0.9075672   0.1009176   0.2437796  )
        11           O   tau(  11) = (   0.4075596   0.2486247   0.2562356  )
        12           O   tau(  12) = (   0.2562803   1.1495427   0.4075500  )
        13           O   tau(  13) = (   0.7437166   0.4504640   0.5924514  )
        14           O   tau(  14) = (   0.5924369   0.9477241   0.7437688  )
        15           O   tau(  15) = (   0.0924276   0.8000045   0.7562548  )
        16           O   tau(  16) = (   0.2437169   1.2972562   0.9075562  )

   Crystallographic axes

     site n.     atom                  positions (cryst. coord.)
         1           Rb  tau(   1) = (  0.2227830  0.4999960  0.2227750  )
         2           Rb  tau(   2) = (  0.7228180  0.7499960  0.2772370  )
         3           Rb  tau(   3) = (  0.2771790  0.2499940  0.7227730  )
         4           Rb  tau(   4) = (  0.7771830  0.0000100  0.7772690  )
         5           Fe  tau(   5) = (  0.7109390  0.2499990  0.2890660  )
         6           Fe  tau(   6) = (  0.2890520  0.7500000  0.7109380  )
         7           Fe  tau(   7) = (  0.2109470  0.9999970  0.2109430  )
         8           Fe  tau(   8) = (  0.7890420  0.5000010  0.7890630  )
         9           O   tau(   9) = (  0.7562410  0.4278220  0.0924470  )
        10           O   tau(  10) = (  0.9075670  0.0721780  0.2437790  )
        11           O   tau(  11) = (  0.4075600  0.1778210  0.2562350  )
        12           O   tau(  12) = (  0.2562840  0.8221750  0.4075490  )
        13           O   tau(  13) = (  0.7437170  0.3221800  0.5924500  )
        14           O   tau(  14) = (  0.5924390  0.6778300  0.7437670  )
        15           O   tau(  15) = (  0.0924290  0.5721780  0.7562530  )
        16           O   tau(  16) = (  0.2437200  0.9278220  0.9075540  )

     number of k points=    14
                       cart. coord. in units 2pi/alat
        k(    1) = (   0.0000000   0.0000000   0.0000000), wk =   0.0740741
        k(    2) = (   0.0000000   0.0000000   0.3333325), wk =   0.1481481
        k(    3) = (   0.0000000   0.2384065  -0.0000004), wk =   0.1481481
        k(    4) = (   0.0000000   0.2384065   0.3333322), wk =   0.1481481
        k(    5) = (   0.0000000   0.2384065  -0.3333329), wk =   0.1481481
        k(    6) = (   0.3333333   0.0000013  -0.0000008), wk =   0.1481481
        k(    7) = (   0.3333333   0.0000013   0.3333318), wk =   0.1481481
        k(    8) = (   0.3333333   0.0000013  -0.3333333), wk =   0.1481481
        k(    9) = (   0.3333333   0.2384079  -0.0000012), wk =   0.1481481
        k(   10) = (   0.3333333   0.2384079   0.3333314), wk =   0.1481481
        k(   11) = (   0.3333333   0.2384079  -0.3333337), wk =   0.1481481
        k(   12) = (   0.3333333  -0.2384052  -0.0000004), wk =   0.1481481
        k(   13) = (   0.3333333  -0.2384052   0.3333321), wk =   0.1481481
        k(   14) = (   0.3333333  -0.2384052  -0.3333330), wk =   0.1481481

                       cryst. coord.
        k(    1) = (   0.0000000   0.0000000   0.0000000), wk =   0.0740741
        k(    2) = (   0.0000000   0.0000000   0.3333333), wk =   0.1481481
        k(    3) = (   0.0000000   0.3333333   0.0000000), wk =   0.1481481
        k(    4) = (   0.0000000   0.3333333   0.3333333), wk =   0.1481481
        k(    5) = (   0.0000000   0.3333333  -0.3333333), wk =   0.1481481
        k(    6) = (   0.3333333  -0.0000000   0.0000000), wk =   0.1481481
        k(    7) = (   0.3333333  -0.0000000   0.3333333), wk =   0.1481481
        k(    8) = (   0.3333333  -0.0000000  -0.3333333), wk =   0.1481481
        k(    9) = (   0.3333333   0.3333333   0.0000000), wk =   0.1481481
        k(   10) = (   0.3333333   0.3333333   0.3333333), wk =   0.1481481
        k(   11) = (   0.3333333   0.3333333  -0.3333333), wk =   0.1481481
        k(   12) = (   0.3333333  -0.3333333   0.0000000), wk =   0.1481481
        k(   13) = (   0.3333333  -0.3333333   0.3333333), wk =   0.1481481
        k(   14) = (   0.3333333  -0.3333333  -0.3333333), wk =   0.1481481

     Check: negative core charge=   -0.000100

     Initial potential from superposition of free atoms

     starting charge     147.8992, renormalised to     148.0000
     Starting wfcs are  104 randomized atomic wfcs +  152 random wfcs
     Checking if some PAW data can be deallocated...

     Self-consistent Calculation

     iteration #  1     ecut=    30.00 Ry     beta= 0.70
     Davidson diagonalization with overlap

     ethr =  1.00E-02,  avg # of iterations =  7.0

     total energy              =   -1842.46524301 Ry
     estimated scf accuracy    <       3.63122095 Ry

[...]

     negative rho (up, down):  7.100E-07 0.000E+00

[...]

     total energy              =   -1844.52939975 Ry
     estimated scf accuracy    <       0.00000148 Ry

     iteration # 23     ecut=    30.00 Ry     beta= 0.70
     Davidson diagonalization with overlap

     ethr =  1.00E-09,  avg # of iterations =  1.0

     End of self-consistent calculation

          k = 0.0000 0.0000 0.0000 (  5423 PWs)   bands (ev):

   -80.5782 -80.5775 -80.5775 -80.5751 -46.3101 -46.3099 -46.3063 -46.3021
   -46.1511 -46.1424 -46.1424 -46.1302 -46.1146 -46.1007 -46.1007 -46.0966
   -20.1849 -20.0995 -20.0995 -20.0152 -11.5218 -11.2993 -11.2990 -11.0213
   -11.0158 -11.0072 -10.9952 -10.9949  -4.6391  -4.5954  -4.5042  -4.5041
    -4.4279  -4.2194  -4.2194  -4.0480  -4.0479  -3.9847  -3.9452  -3.9367
     1.2924   1.7405   1.7407   2.0277   2.0989   2.0990   2.1608   2.2000
     2.3460   2.5092   2.6636   2.6637   3.1513   3.2235   3.2235   3.2940
     3.2941   3.4530   3.5618   3.9673   4.1033   4.4252   4.4254   4.6745
     5.4050   5.5413   5.9137   5.9138   6.4093   6.4430   6.4595   6.4596
     6.7409   6.7410   7.2358   7.2682   7.6164   7.8002   7.8003   8.1626
     8.2420   8.7715   8.8107   8.8349   8.8350  11.5375  11.5376  12.1494
    12.2729  12.2731  12.3253  12.5691  12.5692  12.7982  12.9542  12.9544
    13.1163  13.1852  14.0958  14.7728  14.7733  14.8545  15.0018  15.3743
    15.7363  16.1576  16.1582  16.4921  16.5693  17.0052  17.0835  17.1174
    17.4771  17.4775  18.0940  18.4012  18.4017  18.6213  18.6215  19.4948
    20.0271  20.0275  20.0340  20.1746  20.3831  20.5498  21.1106  21.1107
    21.4986  21.8059  22.0184  22.0196  22.5658  22.5662  23.0093  23.1740
    23.2062  23.2065  23.3258  23.5406  24.0824  24.0831  24.1942  24.3693
    24.5160  24.7678  25.7713  26.0183  26.0185  26.2195  26.2200  26.5218
    26.5472  27.5372  27.5374  27.6728  27.6741  27.7882  28.1260  28.3953
    28.4251  28.4255  28.5660  28.6980  28.8009  28.8430  29.3375  29.3737
    29.3740  29.5422  29.5427  29.6417  30.1803  30.5816  30.6037  30.6048
    30.8386  31.3717  31.3719  31.4757  31.6911  32.3334  32.3339  33.0669
    33.0681  33.3427  33.3436  33.4250  33.4445  33.8548  34.3050  34.5714
    34.8088  34.8095  34.9000  35.0472  35.0806  35.2431  35.2434  35.6039
    35.6042  35.6755  35.9641  36.2574  36.2581  36.3381  36.7347  36.7354
    36.9856  37.1259  37.1266  37.2324  37.3553  38.3688  38.5005  38.5325
    38.5331  38.5707  38.7225  38.7768  39.0236  39.0792  39.0799  39.0828
    39.3419  39.3424  39.4452  39.5121  40.4479  40.5629  40.5974  40.5980
    40.6241  40.7158  41.0750  41.0751  41.1511  41.2037  41.2042  41.7986
    41.8886  42.1389  42.2906  42.5004  42.5006  42.6297  42.7463  42.7472
    43.0215  43.0793  43.0794  43.4182  43.6097  43.8596  43.8599  43.8613

     occupation numbers
     1.0000   1.0000   1.0000   1.0000   1.0000   1.0000   1.0000   1.0000
     1.0000   1.0000   1.0000   1.0000   1.0000   1.0000   1.0000   1.0000
     1.0000   1.0000   1.0000   1.0000   1.0000   1.0000   1.0000   1.0000
     1.0000   1.0000   1.0000   1.0000   1.0000   1.0000   1.0000   1.0000
     1.0000   1.0000   1.0000   1.0000   1.0000   1.0000   1.0000   1.0000
     1.0000   1.0000   1.0000   1.0000   1.0000   1.0000   1.0000   1.0000
     1.0000   1.0000   1.0000   1.0000   1.0000   1.0000   1.0000   1.0000
     1.0000   1.0000   1.0000   1.0000   1.0000   1.0000   1.0000   1.0000
     1.0000   1.0000   1.0000   1.0000   1.0000   1.0000   1.0000   1.0000
     1.0000   1.0000   0.0000   0.0000   0.0000   0.0000   0.0000   0.0000
     0.0000   0.0000   0.0000   0.0000   0.0000   0.0000   0.0000   0.0000
     0.0000   0.0000   0.0000   0.0000   0.0000   0.0000   0.0000   0.0000
     0.0000   0.0000   0.0000   0.0000   0.0000   0.0000   0.0000   0.0000
     0.0000   0.0000   0.0000   0.0000   0.0000   0.0000   0.0000   0.0000
     0.0000   0.0000   0.0000   0.0000   0.0000   0.0000   0.0000   0.0000
     0.0000   0.0000   0.0000   0.0000   0.0000   0.0000   0.0000   0.0000
     0.0000   0.0000   0.0000   0.0000   0.0000   0.0000   0.0000   0.0000
     0.0000   0.0000   0.0000   0.0000   0.0000   0.0000   0.0000   0.0000
     0.0000   0.0000   0.0000   0.0000   0.0000   0.0000   0.0000   0.0000
     0.0000   0.0000   0.0000   0.0000   0.0000   0.0000   0.0000   0.0000
     0.0000   0.0000   0.0000   0.0000   0.0000   0.0000   0.0000   0.0000
     0.0000   0.0000   0.0000   0.0000   0.0000   0.0000   0.0000   0.0000
     0.0000   0.0000   0.0000   0.0000   0.0000   0.0000   0.0000   0.0000
     0.0000   0.0000   0.0000   0.0000   0.0000   0.0000   0.0000   0.0000
     0.0000   0.0000   0.0000   0.0000   0.0000   0.0000   0.0000   0.0000
     0.0000   0.0000   0.0000   0.0000   0.0000   0.0000   0.0000   0.0000
     0.0000   0.0000   0.0000   0.0000   0.0000   0.0000   0.0000   0.0000
     0.0000   0.0000   0.0000   0.0000   0.0000   0.0000   0.0000   0.0000
     0.0000   0.0000   0.0000   0.0000   0.0000   0.0000   0.0000   0.0000
     0.0000   0.0000   0.0000   0.0000   0.0000   0.0000   0.0000   0.0000
     0.0000   0.0000   0.0000   0.0000   0.0000   0.0000   0.0000   0.0000
     0.0000   0.0000   0.0000   0.0000   0.0000   0.0000   0.0000   0.0000

[...]

          k = 0.3333-0.2384-0.3333 (  5380 PWs)   bands (ev):

   -80.5748 -80.5737 -80.5731 -80.5728 -46.3025 -46.2949 -46.2917 -46.2873
   -46.1320 -46.1298 -46.1285 -46.1242 -46.0957 -46.0939 -46.0927 -46.0893
   -20.1357 -20.1201 -20.0781 -20.0626 -11.4115 -11.3720 -11.2217 -11.1729
   -11.0171 -11.0121 -11.0087 -11.0023  -4.5351  -4.5149  -4.5036  -4.4974
    -4.3787  -4.3355  -4.1600  -4.1193  -3.9480  -3.9393  -3.9255  -3.9056
     1.4482   1.5243   1.7420   1.8119   2.1174   2.1285   2.1633   2.1756
     2.6021   2.6763   2.6987   2.7463   2.8482   2.9638   3.1952   3.2421
     3.4203   3.4985   3.6394   3.7038   3.8176   4.0447   4.2563   4.2929
     5.9266   5.9345   6.0508   6.1794   6.2229   6.3191   6.6240   6.6731
     7.0931   7.1503   7.2594   7.3836   7.5628   7.6178   7.7931   7.9906
     8.3526   8.4545   8.5214   8.5591  10.6937  11.2152  11.4477  11.6053
    11.7853  11.8943  12.0702  12.2833  12.7631  12.9823  13.0595  13.1803
    13.3651  13.5582  14.1354  14.4769  14.5724  14.7714  15.1362  15.2022
    15.6591  15.8042  16.0179  16.2460  16.2522  16.3512  16.5550  16.8275
    18.1130  18.3586  18.5669  18.7094  18.8131  19.0070  19.3291  19.6203
    19.7943  20.2662  20.3700  20.4905  20.6207  20.6799  20.9095  21.0547
    21.2435  21.3896  21.7472  21.9892  22.0957  22.2460  22.5883  22.8115
    22.8584  23.1451  23.4952  23.8407  24.0430  24.1215  24.3917  24.5923
    24.7597  24.9420  25.1907  25.3783  25.8477  26.2252  26.4484  26.5371
    26.9227  27.0748  27.2101  27.3885  27.4944  27.8188  27.9646  28.1362
    28.4951  28.5760  28.8358  29.1834  29.3095  29.5925  29.6763  29.7319
    30.0736  30.1943  30.3450  30.4642  30.7198  30.9020  31.0242  31.2243
    31.5144  31.7812  31.8501  32.0661  32.3400  32.4143  32.4595  32.5964
    32.8721  32.9207  33.2096  33.2785  33.3004  33.5306  33.6660  34.0424
    34.1002  34.2064  34.3467  34.5688  34.7946  35.0570  35.2289  35.3035
    35.3436  35.5221  35.8170  35.9042  36.0301  36.2268  36.3301  36.4014
    36.6221  36.7291  36.9885  37.0943  37.3582  37.5135  37.7299  37.7590
    37.9398  38.3084  38.3719  38.4213  38.5940  38.7970  38.8360  39.0084
    39.1925  39.3157  39.4997  39.6256  39.7116  39.9733  40.2040  40.4698
    40.5161  40.7157  40.8343  41.0658  41.1954  41.3193  41.4866  41.7898
    41.9093  41.9858  42.0379  42.2594  42.3386  42.6076  42.7220  42.9065
    42.9581  43.1710  43.2095  43.5497  43.6408  43.7132  43.9495  44.0364

     occupation numbers
     1.0000   1.0000   1.0000   1.0000   1.0000   1.0000   1.0000   1.0000
     1.0000   1.0000   1.0000   1.0000   1.0000   1.0000   1.0000   1.0000
     1.0000   1.0000   1.0000   1.0000   1.0000   1.0000   1.0000   1.0000
     1.0000   1.0000   1.0000   1.0000   1.0000   1.0000   1.0000   1.0000
     1.0000   1.0000   1.0000   1.0000   1.0000   1.0000   1.0000   1.0000
     1.0000   1.0000   1.0000   1.0000   1.0000   1.0000   1.0000   1.0000
     1.0000   1.0000   1.0000   1.0000   1.0000   1.0000   1.0000   1.0000
     1.0000   1.0000   1.0000   1.0000   1.0000   1.0000   1.0000   1.0000
     1.0000   1.0000   1.0000   1.0000   1.0000   1.0000   1.0000   1.0000
     1.0000   1.0000   0.0000   0.0000   0.0000   0.0000   0.0000   0.0000
     0.0000   0.0000   0.0000   0.0000   0.0000   0.0000   0.0000   0.0000
     0.0000   0.0000   0.0000   0.0000   0.0000   0.0000   0.0000   0.0000
     0.0000   0.0000   0.0000   0.0000   0.0000   0.0000   0.0000   0.0000
     0.0000   0.0000   0.0000   0.0000   0.0000   0.0000   0.0000   0.0000
     0.0000   0.0000   0.0000   0.0000   0.0000   0.0000   0.0000   0.0000
     0.0000   0.0000   0.0000   0.0000   0.0000   0.0000   0.0000   0.0000
     0.0000   0.0000   0.0000   0.0000   0.0000   0.0000   0.0000   0.0000
     0.0000   0.0000   0.0000   0.0000   0.0000   0.0000   0.0000   0.0000
     0.0000   0.0000   0.0000   0.0000   0.0000   0.0000   0.0000   0.0000
     0.0000   0.0000   0.0000   0.0000   0.0000   0.0000   0.0000   0.0000
     0.0000   0.0000   0.0000   0.0000   0.0000   0.0000   0.0000   0.0000
     0.0000   0.0000   0.0000   0.0000   0.0000   0.0000   0.0000   0.0000
     0.0000   0.0000   0.0000   0.0000   0.0000   0.0000   0.0000   0.0000
     0.0000   0.0000   0.0000   0.0000   0.0000   0.0000   0.0000   0.0000
     0.0000   0.0000   0.0000   0.0000   0.0000   0.0000   0.0000   0.0000
     0.0000   0.0000   0.0000   0.0000   0.0000   0.0000   0.0000   0.0000
     0.0000   0.0000   0.0000   0.0000   0.0000   0.0000   0.0000   0.0000
     0.0000   0.0000   0.0000   0.0000   0.0000   0.0000   0.0000   0.0000
     0.0000   0.0000   0.0000   0.0000   0.0000   0.0000   0.0000   0.0000
     0.0000   0.0000   0.0000   0.0000   0.0000   0.0000   0.0000   0.0000
     0.0000   0.0000   0.0000   0.0000   0.0000   0.0000   0.0000   0.0000
     0.0000   0.0000   0.0000   0.0000   0.0000   0.0000   0.0000   0.0000

     highest occupied, lowest unoccupied level (ev):     7.1503    7.0513

!    total energy              =   -1844.52939970 Ry
     estimated scf accuracy    <       0.00000061 Ry

     The total energy is the sum of the following terms:
     one-electron contribution =   -1076.27891452 Ry
     hartree contribution      =     597.63578413 Ry
     xc contribution           =    -227.41247027 Ry
     ewald contribution        =    -757.93888455 Ry
     one-center paw contrib.   =    -380.53491449 Ry
      -> PAW hartree energy AE =       0.00000000 Ry
      -> PAW hartree energy PS =       0.00000000 Ry
      -> PAW xc energy AE      =       0.00000000 Ry
      -> PAW xc energy PS      =       0.00000000 Ry
      -> total E_H with PAW    =     597.63578413 Ry
      -> total E_XC with PAW   =    -227.41247027 Ry

     convergence has been achieved in  23 iterations

     Writing all to output data dir bands_nm/myprefix.save/

     General routines

     Parallel routines

     PAW routines

   This run was terminated on:  18:18: 0  15Jul2023

   JOB DONE.