     Program PWSCF v.7.1 starts on 15Jul2023 at 18:28:53

     Reading input from espresso_18027.pwi
Warning: card &CELL ignored
Warning: card / ignored

     Current dimensions of program PWSCF are:
     Max number of different atomic species (ntypx) = 10
     Max number of k-points (npk) =  40000
     Max angular momentum in pseudopotentials (lmaxx) =  4
     file Cd.pbe-dn-rrkjus_psl.0.3.1.UPF: wavefunction(s)  4D renormalized
     file O.pbe-n-kjpaw_psl.0.1.UPF: wavefunction(s)  2P renormalized
     Message from routine setup:
     using ibrav=0 with symmetry is DISCOURAGED, use correct ibrav instead

     K-points division:     npool     =       2
     R & G space division:  proc/nbgrp/npool/nimage =       4
     Subspace diagonalization in iterative solution of the eigenvalue problem:
     one sub-group per band group will be used

     Using Slab Decomposition

     bravais-lattice index     =            0
     lattice parameter (alat)  =      14.2289  a.u.
     unit-cell volume          =    2010.0737 (a.u.)^3
     number of atoms/cell      =           20
     number of atomic types    =            4
     number of electrons       =       160.00
     number of Kohn-Sham states=          256
     kinetic-energy cutoff     =      30.0000  Ry
     charge density cutoff     =     240.0000  Ry
     scf convergence threshold =      1.0E-06
     mixing beta               =       0.7000
     number of iterations used =            8  plain     mixing
     Exchange-correlation= SLA  PW   PBX  PBC
                           (   1   4   3   4   0   0   0)

     celldm(1)=  14.228874  celldm(2)=   0.000000  celldm(3)=   0.000000
     celldm(4)=   0.000000  celldm(5)=   0.000000  celldm(6)=   0.000000

     crystal axes: (cart. coord. in units of alat)
               a(1) = (   1.000000   0.000000   0.000000 )
               a(2) = (  -0.311176   0.950352   0.000000 )
               a(3) = (   0.000000   0.000000   0.734202 )

     reciprocal axes: (cart. coord. in units 2 pi/alat)
               b(1) = (  1.000000  0.327433  0.000000 )
               b(2) = (  0.000000  1.052241  0.000000 )
               b(3) = (  0.000000  0.000000  1.362022 )

     PseudoPot. # 1 for Cd read from file:
     /lustre07/scratch/pragov/crystal_structure_design/utils/SSSP/Cd.pbe-dn-rrkjus_psl.0.3.1.UPF
     MD5 check sum: 558e9f355611b531a870a69ef6ace9e2
     Pseudo is Ultrasoft + core correction, Zval = 12.0
     Generated using "atomic" code by A. Dal Corso  v.5.0.99 svn rev. 10869
     Using radial grid of 1239 points,  6 beta functions with:
                l(1) =   0
                l(2) =   0
                l(3) =   1
                l(4) =   1
                l(5) =   2
                l(6) =   2
     Q(r) pseudized with 0 coefficients

     PseudoPot. # 2 for Bi read from file:
     /lustre07/scratch/pragov/crystal_structure_design/utils/SSSP/Bi_pbe_v1.uspp.F.UPF
     MD5 check sum: cceb9f28ec65b6d7ff33140f5b0b1758
     Pseudo is Ultrasoft + core correction, Zval = 15.0
     Generated by new atomic code, or converted to UPF format
     Using radial grid of  899 points,  6 beta functions with:
                l(1) =   0
                l(2) =   0
                l(3) =   1
                l(4) =   1
                l(5) =   2
                l(6) =   2
     Q(r) pseudized with  6 coefficients,  rinner =    1.000   1.000   1.000
                                                       1.000   1.000

     PseudoPot. # 3 for As read from file:
     /lustre07/scratch/pragov/crystal_structure_design/utils/SSSP/As.pbe-n-rrkjus_psl.0.2.UPF
     MD5 check sum: 767315de957beeeb34f87d97bf945c8f
     Pseudo is Ultrasoft + core correction, Zval =  5.0
     Generated using "atomic" code by A. Dal Corso  v.5.0.99 svn rev. 10869
     Using radial grid of 1209 points,  4 beta functions with:
                l(1) =   0
                l(2) =   0
                l(3) =   1
                l(4) =   1
     Q(r) pseudized with 0 coefficients

     PseudoPot. # 4 for O  read from file:
     /lustre07/scratch/pragov/crystal_structure_design/utils/SSSP/O.pbe-n-kjpaw_psl.0.1.UPF
     MD5 check sum: 0234752ac141de4415c5fc33072bef88
     Pseudo is Projector augmented-wave + core cor, Zval =  6.0
     Generated using "atomic" code by A. Dal Corso  v.5.0.99 svn rev. 10869
     Shape of augmentation charge: BESSEL
     Using radial grid of 1095 points,  4 beta functions with:
                l(1) =   0
                l(2) =   0
                l(3) =   1
                l(4) =   1
     Q(r) pseudized with 0 coefficients

     atomic species   valence    mass     pseudopotential
        Cd            12.00   112.41400     Cd( 1.00)
        Bi            15.00   208.98040     Bi( 1.00)
        As             5.00    74.92159     As( 1.00)
        O              6.00    15.99900     O ( 1.00)

      2 Sym. Ops. (no inversion) found ( 1 have fractional translation)

                                    s                        frac. trans.

      isym =  1     identity

 cryst.   s( 1) = (     1          0          0      )
                  (     0          1          0      )
                  (     0          0          1      )

 cart.    s( 1) = (  1.0000000  0.0000000  0.0000000 )
                  (  0.0000000  1.0000000  0.0000000 )
                  (  0.0000000  0.0000000  1.0000000 )

      isym =  2     180 deg rotation - cart. axis [0,0,1]

 cryst.   s( 2) = (    -1          0          0      )    f =( -0.0000000 )
                  (     0         -1          0      )       (  0.0000000 )
                  (     0          0          1      )       (  0.5000000 )

 cart.    s( 2) = ( -1.0000000  0.0000000  0.0000000 )    f =( -0.0000000 )
                  (  0.0000000 -1.0000000  0.0000000 )       (  0.0000000 )
                  (  0.0000000  0.0000000  1.0000000 )       (  0.3671012 )

   Cartesian axes

     site n.     atom                  positions (alat units)
         1           Cd  tau(   1) = (   0.3452496   0.1884064   0.2837259  )
         2           Cd  tau(   2) = (   0.6172048   0.5636159   0.2837259  )
         3           Cd  tau(   3) = (   0.3435741   0.7619458   0.6508271  )
         4           Cd  tau(   4) = (   0.0716189   0.3867363   0.6508271  )
         5           Bi  tau(   5) = (   0.8773421   0.0889036   0.2878007  )
         6           Bi  tau(   6) = (  -0.1885183   0.8614487   0.6549019  )
         7           As  tau(   7) = (   0.1039120   0.6494926   0.2542007  )
         8           As  tau(   8) = (   0.5849118   0.3008597   0.6213019  )
         9           O   tau(   9) = (   0.1095013   0.1441418   0.4642361  )
        10           O   tau(  10) = (  -0.0897407   0.5573046   0.1732534  )
        11           O   tau(  11) = (   0.1029113   0.1489183   0.0971350  )
        12           O   tau(  12) = (   0.5859125   0.8014339   0.4642361  )
        13           O   tau(  13) = (   0.5793225   0.8062104   0.0971350  )
        14           O   tau(  14) = (   0.4187608   0.4212873   0.5157551  )
        15           O   tau(  15) = (   0.1079989   0.6465303   0.4855207  )
        16           O   tau(  16) = (   0.7785644   0.3930476   0.5403546  )
        17           O   tau(  17) = (   0.5575608   0.0881347   0.5403546  )
        18           O   tau(  18) = (   0.2700629   0.5290649   0.1486540  )
        19           O   tau(  19) = (   0.5808248   0.3038219   0.1184195  )
        20           O   tau(  20) = (   0.1312629   0.8622175   0.1732534  )

   Crystallographic axes

     site n.     atom                  positions (cryst. coord.)
         1           Cd  tau(   1) = (  0.4069400  0.1982490  0.3864410  )
         2           Cd  tau(   2) = (  0.8017510  0.5930600  0.3864410  )
         3           Cd  tau(   3) = (  0.5930600  0.8017510  0.8864410  )
         4           Cd  tau(   4) = (  0.1982490  0.4069400  0.8864410  )
         5           Bi  tau(   5) = (  0.9064520  0.0935480  0.3919910  )
         6           Bi  tau(   6) = (  0.0935480  0.9064520  0.8919910  )
         7           As  tau(   7) = (  0.3165770  0.6834230  0.3462270  )
         8           As  tau(   8) = (  0.6834230  0.3165770  0.8462270  )
         9           O   tau(   9) = (  0.1566980  0.1516720  0.6323000  )
        10           O   tau(  10) = (  0.0927390  0.5864190  0.2359750  )
        11           O   tau(  11) = (  0.1516720  0.1566980  0.1323000  )
        12           O   tau(  12) = (  0.8483280  0.8433020  0.6323000  )
        13           O   tau(  13) = (  0.8433020  0.8483280  0.1323000  )
        14           O   tau(  14) = (  0.5567040  0.4432960  0.7024700  )
        15           O   tau(  15) = (  0.3196940  0.6803060  0.6612900  )
        16           O   tau(  16) = (  0.9072610  0.4135810  0.7359750  )
        17           O   tau(  17) = (  0.5864190  0.0927390  0.7359750  )
        18           O   tau(  18) = (  0.4432960  0.5567040  0.2024700  )
        19           O   tau(  19) = (  0.6803060  0.3196940  0.1612900  )
        20           O   tau(  20) = (  0.4135810  0.9072610  0.2359750  )

     number of k points=    10
                       cart. coord. in units 2pi/alat
        k(    1) = (   0.0000000   0.0000000   0.0000000), wk =   0.0740741
        k(    2) = (   0.0000000   0.0000000   0.4540074), wk =   0.1481481
        k(    3) = (   0.0000000   0.3507471   0.0000000), wk =   0.1481481
        k(    4) = (   0.0000000   0.3507471   0.4540074), wk =   0.2962963
        k(    5) = (   0.3333333   0.1091442   0.0000000), wk =   0.1481481
        k(    6) = (   0.3333333   0.1091442   0.4540074), wk =   0.2962963
        k(    7) = (   0.3333333   0.4598913   0.0000000), wk =   0.1481481
        k(    8) = (   0.3333333   0.4598913   0.4540074), wk =   0.2962963
        k(    9) = (   0.3333333  -0.2416030   0.0000000), wk =   0.1481481
        k(   10) = (   0.3333333  -0.2416030   0.4540074), wk =   0.2962963

                       cryst. coord.
        k(    1) = (   0.0000000   0.0000000   0.0000000), wk =   0.0740741
        k(    2) = (   0.0000000   0.0000000   0.3333333), wk =   0.1481481
        k(    3) = (   0.0000000   0.3333333   0.0000000), wk =   0.1481481
        k(    4) = (   0.0000000   0.3333333   0.3333333), wk =   0.2962963
        k(    5) = (   0.3333333   0.0000000   0.0000000), wk =   0.1481481
        k(    6) = (   0.3333333   0.0000000   0.3333333), wk =   0.2962963
        k(    7) = (   0.3333333   0.3333333   0.0000000), wk =   0.1481481
        k(    8) = (   0.3333333   0.3333333   0.3333333), wk =   0.2962963
        k(    9) = (   0.3333333  -0.3333333   0.0000000), wk =   0.1481481
        k(   10) = (   0.3333333  -0.3333333   0.3333333), wk =   0.2962963

     Check: negative core charge=   -0.000007

     Initial potential from superposition of free atoms

     starting charge     157.9799, renormalised to     160.0000

     negative rho (up, down):  8.447E-02 0.000E+00
     Starting wfcs are  110 randomized atomic wfcs +  146 random wfcs
     Checking if some PAW data can be deallocated...

     Self-consistent Calculation

     iteration #  1     ecut=    30.00 Ry     beta= 0.70
     Davidson diagonalization with overlap

     ethr =  1.00E-02,  avg # of iterations = 11.1

     negative rho (up, down):  7.931E-02 0.000E+00

     total energy              =   -1393.15899992 Ry
     estimated scf accuracy    <       3.88151751 Ry

[...]

     total energy              =   -1395.04169393 Ry
     estimated scf accuracy    <       0.00001327 Ry

     iteration # 10     ecut=    30.00 Ry     beta= 0.70
     Davidson diagonalization with overlap

     ethr =  8.29E-09,  avg # of iterations =  1.0

     negative rho (up, down):  8.235E-02 0.000E+00

     End of self-consistent calculation

          k = 0.0000 0.0000 0.0000 (  5581 PWs)   bands (ev):

   -15.0208 -15.0035 -14.9668 -14.8441 -14.8408 -14.8373 -14.8304 -14.8092
   -14.8068 -14.7831 -12.8164 -12.6361 -11.0421 -11.0383 -10.9366 -10.6825
   -10.5974 -10.5316 -10.4302  -9.8960  -9.6638  -9.1327  -2.9730  -2.0380
    -1.7081  -1.4361   0.0197   0.2539   0.2646   0.2697   0.2869   0.3725
     0.4043   0.4142   0.4671   0.4738   0.4833   0.6210   0.6318   0.6794
     0.7007   0.7056   0.7287   0.7417   0.7565   0.7832   1.3528   1.9941
     2.3774   2.4243   2.5231   2.6568   2.8886   2.9507   3.6162   3.6388
     3.7512   3.8792   4.0845   4.4010   4.4833   4.6320   4.6742   4.6876
     4.7676   4.9073   5.1536   5.2780   5.3290   5.3888   5.4197   5.5938
     5.9092   5.9214   5.9478   6.1630   6.4265   6.5611   6.5620   6.7794
     8.8578  10.4019  10.8451  11.0231  11.3089  11.8365  12.1451  12.4137
    12.5232  12.5866  12.7852  12.8717  13.4592  13.9797  14.0796  14.8409
    14.8697  14.9908  15.8967  15.8974  15.9370  16.2330  16.3997  16.5552
    16.8099  17.0584  17.0962  17.2636  17.7577  17.8220  17.9806  18.8465
    19.4734  19.6216  19.6578  19.7924  19.7943  20.2879  20.8600  21.2280
    21.3327  21.4110  21.7832  21.8943  21.9219  22.2120  22.4917  22.9792
    23.0703  23.4171  23.6037  23.8940  24.0682  24.1024  24.2409  24.8752
    25.0953  25.1266  25.3923  25.4640  25.4819  25.5980  26.0705  26.4443
    26.8666  26.8764  26.9722  27.0785  27.4340  27.4559  27.7701  27.7825
    28.3877  28.5716  28.8869  28.9500  28.9892  29.2169  29.3056  29.7186
    29.8483  29.9275  29.9732  30.3617  30.4105  30.7716  30.8466  30.9886
    31.0443  31.4074  31.4910  31.6158  31.6633  31.8260  31.8643  32.0436
    32.2494  32.3593  32.5670  32.6706  32.8344  33.1058  33.3300  33.3586
    33.4225  33.4623  33.5810  33.7189  33.8929  34.0151  34.0228  34.0766
    34.2240  34.2368  34.5620  34.6066  34.9529  35.1200  35.2370  35.4378
    35.5407  35.7503  35.7844  35.8051  35.8855  36.1357  36.2594  36.2775
    36.4305  36.7264  36.8045  37.0108  37.1834  37.3441  37.5395  37.8015
    37.9370  38.1209  38.3816  38.6867  38.7615  38.8432  38.8574  38.8962
    39.1875  39.3732  39.6795  39.8102  39.8171  40.1827  40.2299  40.3059
    40.7046  40.8847  40.8915  41.4377  41.5743  41.6285  41.8118  41.8400
    41.8680  41.9595  42.0906  42.4700  42.5120  42.5417  42.5744  42.8580
    42.8704  43.0402  43.1494  43.2223  43.4554  43.4681  43.8536  44.2313

     occupation numbers
     1.0000   1.0000   1.0000   1.0000   1.0000   1.0000   1.0000   1.0000
     1.0000   1.0000   1.0000   1.0000   1.0000   1.0000   1.0000   1.0000
     1.0000   1.0000   1.0000   1.0000   1.0000   1.0000   1.0000   1.0000
     1.0000   1.0000   1.0000   1.0000   1.0000   1.0000   1.0000   1.0000
     1.0000   1.0000   1.0000   1.0000   1.0000   1.0000   1.0000   1.0000
     1.0000   1.0000   1.0000   1.0000   1.0000   1.0000   1.0000   1.0000
     1.0000   1.0000   1.0000   1.0000   1.0000   1.0000   1.0000   1.0000
     1.0000   1.0000   1.0000   1.0000   1.0000   1.0000   1.0000   1.0000
     1.0000   1.0000   1.0000   1.0000   1.0000   1.0000   1.0000   1.0000
     1.0000   1.0000   1.0000   1.0000   1.0000   1.0000   1.0000   1.0000
     0.0000   0.0000   0.0000   0.0000   0.0000   0.0000   0.0000   0.0000
     0.0000   0.0000   0.0000   0.0000   0.0000   0.0000   0.0000   0.0000
     0.0000   0.0000   0.0000   0.0000   0.0000   0.0000   0.0000   0.0000
     0.0000   0.0000   0.0000   0.0000   0.0000   0.0000   0.0000   0.0000
     0.0000   0.0000   0.0000   0.0000   0.0000   0.0000   0.0000   0.0000
     0.0000   0.0000   0.0000   0.0000   0.0000   0.0000   0.0000   0.0000
     0.0000   0.0000   0.0000   0.0000   0.0000   0.0000   0.0000   0.0000
     0.0000   0.0000   0.0000   0.0000   0.0000   0.0000   0.0000   0.0000
     0.0000   0.0000   0.0000   0.0000   0.0000   0.0000   0.0000   0.0000
     0.0000   0.0000   0.0000   0.0000   0.0000   0.0000   0.0000   0.0000
     0.0000   0.0000   0.0000   0.0000   0.0000   0.0000   0.0000   0.0000
     0.0000   0.0000   0.0000   0.0000   0.0000   0.0000   0.0000   0.0000
     0.0000   0.0000   0.0000   0.0000   0.0000   0.0000   0.0000   0.0000
     0.0000   0.0000   0.0000   0.0000   0.0000   0.0000   0.0000   0.0000
     0.0000   0.0000   0.0000   0.0000   0.0000   0.0000   0.0000   0.0000
     0.0000   0.0000   0.0000   0.0000   0.0000   0.0000   0.0000   0.0000
     0.0000   0.0000   0.0000   0.0000   0.0000   0.0000   0.0000   0.0000
     0.0000   0.0000   0.0000   0.0000   0.0000   0.0000   0.0000   0.0000
     0.0000   0.0000   0.0000   0.0000   0.0000   0.0000   0.0000   0.0000
     0.0000   0.0000   0.0000   0.0000   0.0000   0.0000   0.0000   0.0000
     0.0000   0.0000   0.0000   0.0000   0.0000   0.0000   0.0000   0.0000
     0.0000   0.0000   0.0000   0.0000   0.0000   0.0000   0.0000   0.0000

[...]

          k = 0.3333-0.2416 0.4540 (  5580 PWs)   bands (ev):

   -14.9974 -14.9792 -14.9755 -14.8771 -14.8333 -14.8320 -14.8298 -14.8268
   -14.8083 -14.7971 -12.7104 -12.6635 -11.0730 -11.0516 -10.7551 -10.6516
   -10.5699 -10.5346 -10.4678 -10.0486  -9.7110  -9.3372  -2.4710  -1.8927
    -1.8589  -1.6954   0.0898   0.2156   0.2275   0.2693   0.3591   0.4089
     0.4175   0.4706   0.4771   0.5512   0.5766   0.6286   0.6606   0.6792
     0.6836   0.7117   0.7649   0.7822   0.8109   0.8505   1.9171   2.0339
     2.1884   2.2890   2.3997   2.4690   3.1737   3.3519   3.3526   3.4522
     3.6620   3.6934   3.8616   4.2276   4.4443   4.4609   4.5288   4.5794
     4.7642   4.8628   4.8633   5.1591   5.2558   5.3251   5.5912   5.7967
     5.8440   5.9097   5.9940   6.1453   6.1963   6.3342   6.3783   6.5503
    10.0475  10.7863  10.9338  11.1666  11.7734  12.0734  12.1735  12.2505
    12.3287  12.5026  12.6273  12.7265  13.4605  13.8204  14.2622  14.5473
    14.6767  14.9190  15.1875  15.4308  15.7731  16.2439  16.5715  16.6682
    16.8710  17.1663  17.7287  17.8761  18.0557  18.2601  18.4580  18.5418
    19.2023  19.7963  19.8368  20.1807  20.3168  20.4745  20.8154  21.1311
    21.3098  21.5686  21.6564  21.9427  22.2451  22.2813  22.4968  22.5630
    23.0425  23.1977  23.5682  23.5849  23.7474  23.8436  24.4451  24.6390
    24.9017  24.9247  25.0560  25.3034  25.4677  25.7305  25.8219  25.8922
    26.0917  26.2276  26.5382  26.8174  27.2256  27.4206  27.7037  27.7255
    27.8590  27.9717  28.2053  28.7353  28.7565  28.9667  29.3440  29.4788
    29.6178  29.7192  29.9456  30.3053  30.4049  30.6185  30.7522  31.0557
    31.1179  31.2191  31.5877  31.7006  31.8976  32.1067  32.2041  32.4496
    32.5498  32.7611  32.8365  33.0579  33.1413  33.3246  33.4337  33.7825
    33.8592  34.0112  34.0203  34.1428  34.1908  34.3704  34.4524  34.6431
    34.7216  34.7838  34.9653  35.0758  35.0780  35.3219  35.4577  35.5225
    35.7385  36.0585  36.1472  36.1749  36.2830  36.4633  36.6190  36.8558
    36.8917  36.9681  37.0511  37.2455  37.3233  37.5672  37.5736  37.9616
    37.9909  38.2730  38.2936  38.5580  38.9514  39.0995  39.1190  39.3642
    39.3843  39.7922  39.8629  39.8664  39.9962  40.0812  40.3138  40.5454
    40.6068  40.6630  40.7501  41.0496  41.0682  41.4121  41.4256  41.6014
    41.6270  41.7727  41.8699  41.9482  42.2258  42.3288  42.3409  42.4886
    42.7063  42.7700  43.0668  43.0716  43.2399  43.6007  43.7819  43.8126

     occupation numbers
     1.0000   1.0000   1.0000   1.0000   1.0000   1.0000   1.0000   1.0000
     1.0000   1.0000   1.0000   1.0000   1.0000   1.0000   1.0000   1.0000
     1.0000   1.0000   1.0000   1.0000   1.0000   1.0000   1.0000   1.0000
     1.0000   1.0000   1.0000   1.0000   1.0000   1.0000   1.0000   1.0000
     1.0000   1.0000   1.0000   1.0000   1.0000   1.0000   1.0000   1.0000
     1.0000   1.0000   1.0000   1.0000   1.0000   1.0000   1.0000   1.0000
     1.0000   1.0000   1.0000   1.0000   1.0000   1.0000   1.0000   1.0000
     1.0000   1.0000   1.0000   1.0000   1.0000   1.0000   1.0000   1.0000
     1.0000   1.0000   1.0000   1.0000   1.0000   1.0000   1.0000   1.0000
     1.0000   1.0000   1.0000   1.0000   1.0000   1.0000   1.0000   1.0000
     0.0000   0.0000   0.0000   0.0000   0.0000   0.0000   0.0000   0.0000
     0.0000   0.0000   0.0000   0.0000   0.0000   0.0000   0.0000   0.0000
     0.0000   0.0000   0.0000   0.0000   0.0000   0.0000   0.0000   0.0000
     0.0000   0.0000   0.0000   0.0000   0.0000   0.0000   0.0000   0.0000
     0.0000   0.0000   0.0000   0.0000   0.0000   0.0000   0.0000   0.0000
     0.0000   0.0000   0.0000   0.0000   0.0000   0.0000   0.0000   0.0000
     0.0000   0.0000   0.0000   0.0000   0.0000   0.0000   0.0000   0.0000
     0.0000   0.0000   0.0000   0.0000   0.0000   0.0000   0.0000   0.0000
     0.0000   0.0000   0.0000   0.0000   0.0000   0.0000   0.0000   0.0000
     0.0000   0.0000   0.0000   0.0000   0.0000   0.0000   0.0000   0.0000
     0.0000   0.0000   0.0000   0.0000   0.0000   0.0000   0.0000   0.0000
     0.0000   0.0000   0.0000   0.0000   0.0000   0.0000   0.0000   0.0000
     0.0000   0.0000   0.0000   0.0000   0.0000   0.0000   0.0000   0.0000
     0.0000   0.0000   0.0000   0.0000   0.0000   0.0000   0.0000   0.0000
     0.0000   0.0000   0.0000   0.0000   0.0000   0.0000   0.0000   0.0000
     0.0000   0.0000   0.0000   0.0000   0.0000   0.0000   0.0000   0.0000
     0.0000   0.0000   0.0000   0.0000   0.0000   0.0000   0.0000   0.0000
     0.0000   0.0000   0.0000   0.0000   0.0000   0.0000   0.0000   0.0000
     0.0000   0.0000   0.0000   0.0000   0.0000   0.0000   0.0000   0.0000
     0.0000   0.0000   0.0000   0.0000   0.0000   0.0000   0.0000   0.0000
     0.0000   0.0000   0.0000   0.0000   0.0000   0.0000   0.0000   0.0000
     0.0000   0.0000   0.0000   0.0000   0.0000   0.0000   0.0000   0.0000

     highest occupied, lowest unoccupied level (ev):     6.7794    8.8578

!    total energy              =   -1395.04169646 Ry
     estimated scf accuracy    <       0.00000065 Ry

     The total energy is the sum of the following terms:
     one-electron contribution =    -362.47541680 Ry
     hartree contribution      =     306.09547982 Ry
     xc contribution           =    -408.58070512 Ry
     ewald contribution        =    -815.70380600 Ry
     one-center paw contrib.   =    -114.37724836 Ry
      -> PAW hartree energy AE =       0.00000000 Ry
      -> PAW hartree energy PS =       0.00000000 Ry
      -> PAW xc energy AE      =       0.00000000 Ry
      -> PAW xc energy PS      =       0.00000000 Ry
      -> total E_H with PAW    =     306.09547982 Ry
      -> total E_XC with PAW   =    -408.58070512 Ry

     convergence has been achieved in  10 iterations

     Writing all to output data dir bands_nm/myprefix.save/

     General routines

     Parallel routines

     PAW routines

   This run was terminated on:  18:29:50  15Jul2023

   JOB DONE.