     Program PWSCF v.7.1 starts on 13Jul2023 at  3:35: 4

     Reading input from espresso_24937.pwi
Warning: card &CELL ignored
Warning: card / ignored

     Current dimensions of program PWSCF are:
     Max number of different atomic species (ntypx) = 10
     Max number of k-points (npk) =  40000
     Max angular momentum in pseudopotentials (lmaxx) =  4
     file O.pbe-n-kjpaw_psl.0.1.UPF: wavefunction(s)  2P renormalized
     Message from routine setup:
     using ibrav=0 with symmetry is DISCOURAGED, use correct ibrav instead

     K-points division:     npool     =       2
     R & G space division:  proc/nbgrp/npool/nimage =       8
     Subspace diagonalization in iterative solution of the eigenvalue problem:
     a serial algorithm will be used

     Using Slab Decomposition

     bravais-lattice index     =            0
     lattice parameter (alat)  =      12.3238  a.u.
     unit-cell volume          =     993.2922 (a.u.)^3
     number of atoms/cell      =           12
     number of atomic types    =            3
     number of electrons       =        96.00
     number of Kohn-Sham states=           64
     kinetic-energy cutoff     =      30.0000  Ry
     charge density cutoff     =     240.0000  Ry
     scf convergence threshold =      1.0E-06
     mixing beta               =       0.7000
     number of iterations used =            8  plain     mixing
     Exchange-correlation= SLA  PW   PBX  PBC
                           (   1   4   3   4   0   0   0)

     celldm(1)=  12.323819  celldm(2)=   0.000000  celldm(3)=   0.000000
     celldm(4)=   0.000000  celldm(5)=   0.000000  celldm(6)=   0.000000

     crystal axes: (cart. coord. in units of alat)
               a(1) = (   1.000000   0.000000   0.000000 )
               a(2) = (  -0.358335   0.933593   0.000000 )
               a(3) = (   0.000000   0.000000   0.568438 )

     reciprocal axes: (cart. coord. in units 2 pi/alat)
               b(1) = (  1.000000  0.383823  0.000000 )
               b(2) = (  0.000000  1.071130  0.000000 )
               b(3) = (  0.000000  0.000000  1.759206 )

     PseudoPot. # 1 for Ce read from file:
     /lustre07/scratch/pragov/crystal_structure_design/utils/SSSP/Ce.GGA-PBE-paw-v1.0.UPF
     MD5 check sum: f2b950f613061344c13339c8d844425d
     Pseudo is Projector augmented-wave + core cor, Zval = 12.0
     Generated using ATOMPAW code
     Shape of augmentation charge: BESSEL
     Using radial grid of 1102 points,  8 beta functions with:
                l(1) =   0
                l(2) =   0
                l(3) =   1
                l(4) =   1
                l(5) =   2
                l(6) =   2
                l(7) =   3
                l(8) =   3
     Q(r) pseudized with 0 coefficients

     PseudoPot. # 2 for Zr read from file:
     /lustre07/scratch/pragov/crystal_structure_design/utils/SSSP/Zr_pbe_v1.uspp.F.UPF
     MD5 check sum: 5db81b1e868ab7776c4564c113de050b
     Pseudo is Ultrasoft + core correction, Zval = 12.0
     Generated by new atomic code, or converted to UPF format
     Using radial grid of  887 points,  6 beta functions with:
                l(1) =   0
                l(2) =   0
                l(3) =   1
                l(4) =   1
                l(5) =   2
                l(6) =   2
     Q(r) pseudized with  6 coefficients,  rinner =    1.200   1.200   1.200
                                                       1.200   1.200

     PseudoPot. # 3 for O  read from file:
     /lustre07/scratch/pragov/crystal_structure_design/utils/SSSP/O.pbe-n-kjpaw_psl.0.1.UPF
     MD5 check sum: 0234752ac141de4415c5fc33072bef88
     Pseudo is Projector augmented-wave + core cor, Zval =  6.0
     Generated using "atomic" code by A. Dal Corso  v.5.0.99 svn rev. 10869
     Shape of augmentation charge: BESSEL
     Using radial grid of 1095 points,  4 beta functions with:
                l(1) =   0
                l(2) =   0
                l(3) =   1
                l(4) =   1
     Q(r) pseudized with 0 coefficients

     atomic species   valence    mass     pseudopotential
        Ce            12.00   140.11600     Ce( 1.00)
        Zr            12.00    91.22400     Zr( 1.00)
        O              6.00    15.99900     O ( 1.00)

      2 Sym. Ops. (no inversion) found

                                    s                        frac. trans.

      isym =  1     identity

 cryst.   s( 1) = (     1          0          0      )
                  (     0          1          0      )
                  (     0          0          1      )

 cart.    s( 1) = (  1.0000000 -0.0000000  0.0000000 )
                  (  0.0000000  1.0000000  0.0000000 )
                  (  0.0000000  0.0000000  1.0000000 )

      isym =  2     inv. 180 deg rotation - cart. axis [0,0,1]

 cryst.   s( 2) = (     1          0          0      )
                  (     0          1          0      )
                  (     0          0         -1      )

 cart.    s( 2) = (  1.0000000 -0.0000000  0.0000000 )
                  (  0.0000000  1.0000000  0.0000000 )
                  (  0.0000000  0.0000000 -1.0000000 )

   Cartesian axes

     site n.     atom                  positions (alat units)
         1           Ce  tau(   1) = (   0.3235222   0.4649481   0.2842192  )
         2           Zr  tau(   2) = (   0.9966544   0.0022994   0.2842192  )
         3           Zr  tau(   3) = (   0.1380049   0.9286676   0.0000000  )
         4           Zr  tau(   4) = (  -0.1758805   0.4719790   0.0000000  )
         5           O   tau(   5) = (   0.1682767   0.5716494   0.0000000  )
         6           O   tau(   6) = (   0.8725923   0.0875682   0.0000000  )
         7           O   tau(   7) = (  -0.0531197   0.3686143   0.2842192  )
         8           O   tau(   8) = (   0.2784948   0.8510981   0.2842192  )
         9           O   tau(   9) = (   0.2942399   0.1270900   0.2842192  )
        10           O   tau(  10) = (   0.6284513   0.6133521   0.2842192  )
        11           O   tau(  11) = (   0.5304495   0.3227254   0.0000000  )
        12           O   tau(  12) = (  -0.1516953   0.7915685   0.0000000  )

   Crystallographic axes

     site n.     atom                  positions (cryst. coord.)
         1           Ce  tau(   1) = (  0.5019800  0.4980200  0.5000000  )
         2           Zr  tau(   2) = (  0.9975370  0.0024630  0.5000000  )
         3           Zr  tau(   3) = (  0.4944490  0.9947240  0.0000000  )
         4           Zr  tau(   4) = (  0.0052760  0.5055510  0.0000000  )
         5           O   tau(   5) = (  0.3876890  0.6123110  0.0000000  )
         6           O   tau(   6) = (  0.9062030  0.0937970  0.0000000  )
         7           O   tau(   7) = (  0.0883630  0.3948340  0.5000000  )
         8           O   tau(   8) = (  0.6051660  0.9116370  0.5000000  )
         9           O   tau(   9) = (  0.3430200  0.1361300  0.5000000  )
        10           O   tau(  10) = (  0.8638700  0.6569800  0.5000000  )
        11           O   tau(  11) = (  0.6543190  0.3456810  0.0000000  )
        12           O   tau(  12) = (  0.1521270  0.8478730  0.0000000  )

     number of k points=    10
                       cart. coord. in units 2pi/alat
        k(    1) = (   0.0000000   0.0000000   0.0000000), wk =   0.0740741
        k(    2) = (   0.0000000   0.0000000   0.5864019), wk =   0.1481481
        k(    3) = (   0.0000000   0.3570434   0.0000000), wk =   0.1481481
        k(    4) = (   0.0000000   0.3570434   0.5864019), wk =   0.2962963
        k(    5) = (   0.3333333   0.1279411   0.0000000), wk =   0.1481481
        k(    6) = (   0.3333333   0.1279411   0.5864019), wk =   0.2962963
        k(    7) = (   0.3333333   0.4849845   0.0000000), wk =   0.1481481
        k(    8) = (   0.3333333   0.4849845   0.5864019), wk =   0.2962963
        k(    9) = (   0.3333333  -0.2291024   0.0000000), wk =   0.1481481
        k(   10) = (   0.3333333  -0.2291024   0.5864019), wk =   0.2962963

                       cryst. coord.
        k(    1) = (   0.0000000   0.0000000   0.0000000), wk =   0.0740741
        k(    2) = (   0.0000000   0.0000000   0.3333333), wk =   0.1481481
        k(    3) = (   0.0000000   0.3333333   0.0000000), wk =   0.1481481
        k(    4) = (   0.0000000   0.3333333   0.3333333), wk =   0.2962963
        k(    5) = (   0.3333333  -0.0000000   0.0000000), wk =   0.1481481
        k(    6) = (   0.3333333  -0.0000000   0.3333333), wk =   0.2962963
        k(    7) = (   0.3333333   0.3333333   0.0000000), wk =   0.1481481
        k(    8) = (   0.3333333   0.3333333   0.3333333), wk =   0.2962963
        k(    9) = (   0.3333333  -0.3333333   0.0000000), wk =   0.1481481
        k(   10) = (   0.3333333  -0.3333333   0.3333333), wk =   0.2962963

     Check: negative core charge=   -0.000014

     Initial potential from superposition of free atoms

     starting charge      95.9866, renormalised to      96.0000

     negative rho (up, down):  1.815E-01 0.000E+00
     Starting wfcs are  103 randomized atomic wfcs
     Checking if some PAW data can be deallocated...

     Self-consistent Calculation

     iteration #  1     ecut=    30.00 Ry     beta= 0.70
     Davidson diagonalization with overlap

     ethr =  1.00E-02,  avg # of iterations =  2.0

     negative rho (up, down):  1.898E-01 0.000E+00

     total energy              =   -1111.61121707 Ry
     estimated scf accuracy    <       4.41722854 Ry

[...]

     total energy              =   -1114.15452084 Ry
     estimated scf accuracy    <       0.00000676 Ry

     iteration # 18     ecut=    30.00 Ry     beta= 0.70
     Davidson diagonalization with overlap

     ethr =  7.04E-09,  avg # of iterations =  2.0

     negative rho (up, down):  1.950E-01 0.000E+00

     End of self-consistent calculation

          k = 0.0000 0.0000 0.0000 (  2765 PWs)   bands (ev):

   -37.2192 -37.2066 -36.9913 -21.8562 -15.5498 -15.4507 -15.3980 -15.1593
   -15.1488 -15.1283 -15.0668 -15.0218 -14.9282  -7.2347  -6.8955  -6.6839
    -6.0011  -5.9407  -5.6480  -5.2239  -4.9340  -4.4251  -2.8836  -2.5483
     6.1222   6.3069   6.4432   6.4819   6.9538   7.1507   7.2731   7.4337
     8.1493   8.3876   8.4088   8.6396   8.8215   8.9159   9.1816   9.2493
     9.3386   9.6251   9.7140   9.8844   9.9179  10.2997  10.3173  10.3286
    12.6744  12.7429  12.7630  12.7944  12.9198  13.0534  13.1184  14.5471
    14.8290  14.9942  15.2868  15.3141  15.4666  16.3966  16.6801  17.1487

     occupation numbers
     1.0000   1.0000   1.0000   1.0000   1.0000   1.0000   1.0000   1.0000
     1.0000   1.0000   1.0000   1.0000   1.0000   1.0000   1.0000   1.0000
     1.0000   1.0000   1.0000   1.0000   1.0000   1.0000   1.0000   1.0000
     1.0000   1.0000   1.0000   1.0000   1.0000   1.0000   1.0000   1.0000
     1.0000   1.0000   1.0000   1.0000   1.0000   1.0000   1.0000   1.0000
     1.0000   1.0000   1.0000   1.0000   1.0000   1.0000   1.0000   1.0000
     0.0000   0.0000   0.0000   0.0000   0.0000   0.0000   0.0000   0.0000
     0.0000   0.0000   0.0000   0.0000   0.0000   0.0000   0.0000   0.0000

[...]

          k = 0.3333-0.2291 0.5864 (  2757 PWs)   bands (ev):

   -37.2105 -37.1985 -36.9834 -21.7826 -15.5141 -15.4364 -15.4183 -15.3676
   -15.2693 -15.1556 -15.1362 -15.1005 -15.0254  -7.6037  -6.9112  -6.6642
    -5.8674  -5.6078  -5.5627  -5.4387  -5.0991  -3.5922  -2.9664  -2.6311
     6.1723   6.4628   6.7423   6.9415   7.0894   7.4937   7.6434   7.7250
     7.9316   7.9931   8.1952   8.5958   8.8740   9.1454   9.1609   9.3431
     9.3436   9.5785   9.6499   9.8466   9.9667  10.1169  10.1529  10.2384
    12.5937  12.7398  12.7539  12.7762  12.8350  12.8387  13.3351  14.9591
    15.1059  15.2423  15.3908  15.6327  15.7330  16.5010  16.6481  16.7847

     occupation numbers
     1.0000   1.0000   1.0000   1.0000   1.0000   1.0000   1.0000   1.0000
     1.0000   1.0000   1.0000   1.0000   1.0000   1.0000   1.0000   1.0000
     1.0000   1.0000   1.0000   1.0000   1.0000   1.0000   1.0000   1.0000
     1.0000   1.0000   1.0000   1.0000   1.0000   1.0000   1.0000   1.0000
     1.0000   1.0000   1.0000   1.0000   1.0000   1.0000   1.0000   1.0000
     1.0000   1.0000   1.0000   1.0000   1.0000   1.0000   1.0000   1.0000
     0.0000   0.0000   0.0000   0.0000   0.0000   0.0000   0.0000   0.0000
     0.0000   0.0000   0.0000   0.0000   0.0000   0.0000   0.0000   0.0000

     highest occupied, lowest unoccupied level (ev):    10.5200   12.5867

!    total energy              =   -1114.15452183 Ry
     estimated scf accuracy    <       0.00000014 Ry

     The total energy is the sum of the following terms:
     one-electron contribution =     -99.43420539 Ry
     hartree contribution      =     111.55835229 Ry
     xc contribution           =    -123.51070765 Ry
     ewald contribution        =    -518.43811209 Ry
     one-center paw contrib.   =    -484.32984898 Ry
      -> PAW hartree energy AE =      43.12533201 Ry
      -> PAW hartree energy PS =     -42.93851485 Ry
      -> PAW xc energy AE      =    -416.83530296 Ry
      -> PAW xc energy PS      =       8.49596846 Ry
      -> total E_H with PAW    =     111.74516945 Ry
      -> total E_XC with PAW   =    -531.85004215 Ry

     convergence has been achieved in  18 iterations

     Writing all to output data dir bands_nm/myprefix.save/

     General routines

     Parallel routines

     PAW routines

   This run was terminated on:   3:35:28  13Jul2023

   JOB DONE.