     Program PWSCF v.7.1 starts on 15Jul2023 at 20:41:42

     Reading input from espresso_11479.pwi
Warning: card &CELL ignored
Warning: card / ignored

     Current dimensions of program PWSCF are:
     Max number of different atomic species (ntypx) = 10
     Max number of k-points (npk) =  40000
     Max angular momentum in pseudopotentials (lmaxx) =  4
     file K.pbe-spn-kjpaw_psl.1.0.0.UPF: wavefunction(s)  3S renormalized
     Message from routine setup:
     using ibrav=0 with symmetry is DISCOURAGED, use correct ibrav instead

     K-points division:     npool     =       2
     R & G space division:  proc/nbgrp/npool/nimage =       4
     Subspace diagonalization in iterative solution of the eigenvalue problem:
     one sub-group per band group will be used

     Using Slab Decomposition

     bravais-lattice index     =            0
     lattice parameter (alat)  =      11.3603  a.u.
     unit-cell volume          =    2076.0167 (a.u.)^3
     number of atoms/cell      =           20
     number of atomic types    =            3
     number of electrons       =       180.00
     number of Kohn-Sham states=          256
     kinetic-energy cutoff     =      30.0000  Ry
     charge density cutoff     =     240.0000  Ry
     scf convergence threshold =      1.0E-06
     mixing beta               =       0.7000
     number of iterations used =            8  plain     mixing
     Exchange-correlation=  SLA  PW   PBX  PBC
                           (   1   4   3   4   0   0   0)

     celldm(1)=  11.360287  celldm(2)=   0.000000  celldm(3)=   0.000000
     celldm(4)=   0.000000  celldm(5)=   0.000000  celldm(6)=   0.000000

     crystal axes: (cart. coord. in units of alat)
               a(1) = (   1.000000   0.000000   0.000000 )
               a(2) = (   0.000000   1.001780   0.000000 )
               a(3) = (   0.000000   0.000000   1.413484 )

     reciprocal axes: (cart. coord. in units 2 pi/alat)
               b(1) = (  1.000000  0.000000  0.000000 )
               b(2) = (  0.000000  0.998224  0.000000 )
               b(3) = (  0.000000  0.000000  0.707472 )

     PseudoPot. # 1 for K  read from file:
     /lustre07/scratch/pragov/crystal_structure_design/utils/SSSP/K.pbe-spn-kjpaw_psl.1.0.0.UPF
     MD5 check sum: 7d58810084cac21f60fbe77ea2b688fd
     Pseudo is Projector augmented-wave + core cor, Zval =  9.0
     Generated using "atomic" code by A. Dal Corso  v.5.1
     Shape of augmentation charge: PSQ
     Using radial grid of 1165 points,  6 beta functions with:
                l(1) =   0
                l(2) =   0
                l(3) =   1
                l(4) =   1
                l(5) =   2
                l(6) =   2
     Q(r) pseudized with 0 coefficients

     PseudoPot. # 2 for Mn read from file:
     /lustre07/scratch/pragov/crystal_structure_design/utils/SSSP/mn_pbe_v1.5.uspp.F.UPF
     MD5 check sum: 82ef2b46521d7a7d9e736dc3972e4928
     Pseudo is Ultrasoft + core correction, Zval = 15.0
     Generated by new atomic code, or converted to UPF format
     Using radial grid of  859 points,  6 beta functions with:
                l(1) =   0
                l(2) =   0
                l(3) =   1
                l(4) =   1
                l(5) =   2
                l(6) =   2
     Q(r) pseudized with  8 coefficients,  rinner =    0.950   0.950   0.950
                                                       0.950   0.950

     PseudoPot. # 3 for F  read from file:
     /lustre07/scratch/pragov/crystal_structure_design/utils/SSSP/f_pbe_v1.4.uspp.F.UPF
     MD5 check sum: 4c38b6a325caf53ec0e86aed9459de46
     Pseudo is Ultrasoft, Zval =  7.0
     Generated by new atomic code, or converted to UPF format
     Using radial grid of  799 points,  4 beta functions with:
                l(1) =   0
                l(2) =   0
                l(3) =   1
                l(4) =   1
     Q(r) pseudized with  8 coefficients,  rinner =    0.950   0.950   0.950

     atomic species   valence    mass     pseudopotential
        K              9.00    39.09830     K ( 1.00)
        Mn            15.00    54.93804     Mn( 1.00)
        F              7.00    18.99840     F ( 1.00)

      8 Sym. Ops., with inversion, found ( 6 have fractional translation)

                                    s                        frac. trans.

      isym =  1     identity

 cryst.   s( 1) = (     1          0          0      )
                  (     0          1          0      )
                  (     0          0          1      )

 cart.    s( 1) = (  1.0000000  0.0000000  0.0000000 )
                  (  0.0000000  1.0000000  0.0000000 )
                  (  0.0000000  0.0000000  1.0000000 )

      isym =  2     180 deg rotation - cart. axis [0,0,1]

 cryst.   s( 2) = (    -1          0          0      )    f =(  0.0000000 )
                  (     0         -1          0      )       (  0.0000000 )
                  (     0          0          1      )       ( -0.5000000 )

 cart.    s( 2) = ( -1.0000000  0.0000000  0.0000000 )    f =(  0.0000000 )
                  (  0.0000000 -1.0000000  0.0000000 )       (  0.0000000 )
                  (  0.0000000  0.0000000  1.0000000 )       ( -0.7067418 )

[...]

      isym =  4     180 deg rotation - cart. axis [1,0,0]

[...]

      isym =  5     inversion

 cryst.   s( 5) = (    -1          0          0      )
                  (     0         -1          0      )
                  (     0          0         -1      )

 cart.    s( 5) = ( -1.0000000  0.0000000  0.0000000 )
                  (  0.0000000 -1.0000000  0.0000000 )
                  (  0.0000000  0.0000000 -1.0000000 )

      isym =  6     inv. 180 deg rotation - cart. axis [0,0,1]

[...]

      isym =  8     inv. 180 deg rotation - cart. axis [1,0,0]

 cryst.   s( 8) = (    -1          0          0      )    f =(  0.5000000 )
                  (     0          1          0      )       ( -0.5000000 )
                  (     0          0          1      )       (  0.0000000 )

 cart.    s( 8) = ( -1.0000000  0.0000000  0.0000000 )    f =(  0.5000000 )
                  (  0.0000000  1.0000000  0.0000000 )       ( -0.5008898 )
                  (  0.0000000  0.0000000  1.0000000 )       (  0.0000000 )

   Cartesian axes

     site n.     atom                  positions (alat units)
         1           K   tau(   1) = (   0.5071140   0.5116659   0.3533709  )
         2           K   tau(   2) = (   0.9928860   0.0107761   0.3533709  )
         3           K   tau(   3) = (   0.4928860   0.4901136   1.0601127  )
         4           K   tau(   4) = (   0.0071140   0.9910034   1.0601127  )
         5           Mn  tau(   5) = (   0.0000000   0.5008898   0.0000000  )
         6           Mn  tau(   6) = (   0.5000000   0.0000000   0.7067418  )
         7           Mn  tau(   7) = (   0.0000000   0.5008898   0.7067418  )
         8           Mn  tau(   8) = (   0.5000000   0.0000000   0.0000000  )
         9           F   tau(   9) = (   0.4547120   0.9962037   0.3533709  )
        10           F   tau(  10) = (   0.0452880   0.4953139   0.3533709  )
        11           F   tau(  11) = (   0.5452880   0.0055759   1.0601127  )
        12           F   tau(  12) = (   0.9547120   0.5064657   1.0601127  )
        13           F   tau(  13) = (   0.7524910   0.7534685   0.0354742  )
        14           F   tau(  14) = (   0.7475090   0.2525787   0.6712676  )
        15           F   tau(  15) = (   0.2475090   0.2483111   0.7422160  )
        16           F   tau(  16) = (   0.2524910   0.7492009   1.3780094  )
        17           F   tau(  17) = (   0.2475090   0.2483111   1.3780094  )
        18           F   tau(  18) = (   0.2524910   0.7492009   0.7422160  )
        19           F   tau(  19) = (   0.7524910   0.7534685   0.6712676  )
        20           F   tau(  20) = (   0.7475090   0.2525787   0.0354742  )

   Crystallographic axes

     site n.     atom                  positions (cryst. coord.)
         1           K   tau(   1) = (  0.5071140  0.5107570  0.2500000  )
         2           K   tau(   2) = (  0.9928860  0.0107570  0.2500000  )
         3           K   tau(   3) = (  0.4928860  0.4892430  0.7500000  )
         4           K   tau(   4) = (  0.0071140  0.9892430  0.7500000  )
         5           Mn  tau(   5) = (  0.0000000  0.5000000  0.0000000  )
         6           Mn  tau(   6) = (  0.5000000  0.0000000  0.5000000  )
         7           Mn  tau(   7) = (  0.0000000  0.5000000  0.5000000  )
         8           Mn  tau(   8) = (  0.5000000  0.0000000  0.0000000  )
         9           F   tau(   9) = (  0.4547120  0.9944340  0.2500000  )
        10           F   tau(  10) = (  0.0452880  0.4944340  0.2500000  )
        11           F   tau(  11) = (  0.5452880  0.0055660  0.7500000  )
        12           F   tau(  12) = (  0.9547120  0.5055660  0.7500000  )
        13           F   tau(  13) = (  0.7524910  0.7521300  0.0250970  )
        14           F   tau(  14) = (  0.7475090  0.2521300  0.4749030  )
        15           F   tau(  15) = (  0.2475090  0.2478700  0.5250970  )
        16           F   tau(  16) = (  0.2524910  0.7478700  0.9749030  )
        17           F   tau(  17) = (  0.2475090  0.2478700  0.9749030  )
        18           F   tau(  18) = (  0.2524910  0.7478700  0.5250970  )
        19           F   tau(  19) = (  0.7524910  0.7521300  0.4749030  )
        20           F   tau(  20) = (  0.7475090  0.2521300  0.0250970  )

     number of k points=     8
                       cart. coord. in units 2pi/alat
        k(    1) = (   0.0000000   0.0000000   0.0000000), wk =   0.0740741
        k(    2) = (   0.0000000   0.0000000   0.2358240), wk =   0.1481481
        k(    3) = (   0.0000000   0.3327412   0.0000000), wk =   0.1481481
        k(    4) = (   0.0000000   0.3327412   0.2358240), wk =   0.2962963
        k(    5) = (   0.3333333   0.0000000   0.0000000), wk =   0.1481481
        k(    6) = (   0.3333333   0.0000000   0.2358240), wk =   0.2962963
        k(    7) = (   0.3333333   0.3327412   0.0000000), wk =   0.2962963
        k(    8) = (   0.3333333   0.3327412   0.2358240), wk =   0.5925926

                       cryst. coord.
        k(    1) = (   0.0000000   0.0000000   0.0000000), wk =   0.0740741
        k(    2) = (   0.0000000   0.0000000   0.3333333), wk =   0.1481481
        k(    3) = (   0.0000000   0.3333333   0.0000000), wk =   0.1481481
        k(    4) = (   0.0000000   0.3333333   0.3333333), wk =   0.2962963
        k(    5) = (   0.3333333   0.0000000   0.0000000), wk =   0.1481481
        k(    6) = (   0.3333333   0.0000000   0.3333333), wk =   0.2962963
        k(    7) = (   0.3333333   0.3333333   0.0000000), wk =   0.2962963
        k(    8) = (   0.3333333   0.3333333   0.3333333), wk =   0.5925926

     Check: negative core charge=   -0.000015

     Initial potential from superposition of free atoms

     starting charge     177.9243, renormalised to     180.0000
     Starting wfcs are  132 randomized atomic wfcs +  124 random wfcs
     Checking if some PAW data can be deallocated...

     Self-consistent Calculation

     iteration #  1     ecut=    30.00 Ry     beta= 0.70
     Davidson diagonalization with overlap

     ethr =  1.00E-02,  avg # of iterations =  7.0

     Threshold (ethr) on eigenvalues was too large:
     Diagonalizing with lowered threshold

     Davidson diagonalization with overlap

[...]

     total energy              =   -1880.16040400 Ry
     estimated scf accuracy    <       1.74630199 Ry

[...]

     total energy              =   -1880.93204575 Ry
     estimated scf accuracy    <       0.00000247 Ry

     iteration # 89     ecut=    30.00 Ry     beta= 0.70
     Davidson diagonalization with overlap

     ethr =  5.93E-10,  avg # of iterations =  1.0

     End of self-consistent calculation

          k = 0.0000 0.0000 0.0000 (  5763 PWs)   bands (ev):

   -72.8309 -72.8304 -72.8298 -72.8298 -41.6052 -41.6027 -41.5973 -41.5969
   -41.5880 -41.5876 -41.5869 -41.5830 -41.5755 -41.5749 -41.5702 -41.5693
   -23.7149 -23.7053 -23.6964 -23.6909 -17.7770 -17.6927 -17.5214 -17.5001
   -17.4959 -17.4924 -17.4823 -17.4581 -17.4503 -17.4424 -17.4342 -17.4199
    -7.2956  -7.2785  -7.2727  -7.2363  -7.2308  -7.2083  -7.1881  -7.1878
    -7.1868  -7.1654  -7.1642  -7.1569  -1.2753  -0.9224  -0.4478  -0.0438
    -0.0288  -0.0203  -0.0060   0.0230   0.0313   0.1099   0.1419   0.1710
     0.3879   0.4285   0.4302   0.4394   0.8609   1.0466   1.0590   1.1582
     1.1635   1.1815   1.2583   1.3568   1.4311   1.4485   1.4793   1.4817
     1.4915   1.5933   1.5951   1.6048   1.8322   1.8696   1.8753   1.8839
     5.8498   5.8585   5.8694   5.8749   6.2103   6.2334   6.2575   6.2633
     6.3814   6.4144   6.5111   6.5237   6.5331   6.5770   6.6360   6.7886
     7.1629   8.0013   8.0066   8.0078   8.2239  11.1185  11.2459  12.0243
    12.0447  12.0847  12.0864  12.1866  12.3486  12.9955  13.0221  13.1456
    13.3313  14.1781  14.2017  14.2794  14.4341  14.4782  14.5280  14.5702
    14.6661  14.8314  14.8548  14.8699  15.4131  15.4200  15.4979  15.5300
    15.6345  15.8854  16.0330  16.1083  16.1884  16.2720  16.8948  16.9651
    16.9883  17.1864  18.2159  18.2564  18.2802  18.5475  18.7614  18.8173
    18.8678  19.1171  19.2946  19.7343  20.4727  21.2046  21.3701  22.0860
    22.1453  22.3873  22.5574  22.8513  22.9497  23.0382  23.1070  23.5318
    23.7005  24.2155  24.2947  24.3041  24.4650  24.4976  24.6256  24.6601
    24.8320  25.2206  25.2391  25.3450  25.5829  25.9553  26.0042  26.0076
    26.0161  26.3464  26.3646  26.3765  26.3822  26.9398  27.0896  27.5863
    27.6106  27.7527  28.0798  28.7142  28.8611  29.0472  29.1130  29.7172
    29.7671  29.8557  30.1490  30.2235  30.3245  30.3995  30.6039  30.7359
    30.7617  30.8984  31.0978  31.1859  31.3742  31.4544  31.6389  31.6523
    32.0614  32.1952  32.2104  32.5075  32.5243  32.7534  32.7679  32.9939
    33.1381  33.1517  33.1914  33.2413  33.6112  33.6412  33.7543  33.7734
    33.7943  33.8325  33.8402  34.0451  34.1424  35.1910  35.4557  35.5468
    35.5941  35.8586  35.8632  35.9465  36.0349  36.2196  36.4141  36.4557
    36.6364  36.7724  37.3299  37.3479  37.3935  37.7702  37.8579  38.3104
    38.6343  38.6649  38.6719  39.0312  39.3902  39.4416  39.4610  39.5475

     occupation numbers
     1.0000   1.0000   1.0000   1.0000   1.0000   1.0000   1.0000   1.0000
     1.0000   1.0000   1.0000   1.0000   1.0000   1.0000   1.0000   1.0000
     1.0000   1.0000   1.0000   1.0000   1.0000   1.0000   1.0000   1.0000
     1.0000   1.0000   1.0000   1.0000   1.0000   1.0000   1.0000   1.0000
     1.0000   1.0000   1.0000   1.0000   1.0000   1.0000   1.0000   1.0000
     1.0000   1.0000   1.0000   1.0000   1.0000   1.0000   1.0000   1.0000
     1.0000   1.0000   1.0000   1.0000   1.0000   1.0000   1.0000   1.0000
     1.0000   1.0000   1.0000   1.0000   1.0000   1.0000   1.0000   1.0000
     1.0000   1.0000   1.0000   1.0000   1.0000   1.0000   1.0000   1.0000
     1.0000   1.0000   1.0000   1.0000   1.0000   1.0000   1.0000   1.0000
     1.0000   1.0000   1.0000   1.0000   1.0000   1.0000   1.0000   1.0000
     1.0000   1.0000   0.0000   0.0000   0.0000   0.0000   0.0000   0.0000
     0.0000   0.0000   0.0000   0.0000   0.0000   0.0000   0.0000   0.0000
     0.0000   0.0000   0.0000   0.0000   0.0000   0.0000   0.0000   0.0000
     0.0000   0.0000   0.0000   0.0000   0.0000   0.0000   0.0000   0.0000
     0.0000   0.0000   0.0000   0.0000   0.0000   0.0000   0.0000   0.0000
     0.0000   0.0000   0.0000   0.0000   0.0000   0.0000   0.0000   0.0000
     0.0000   0.0000   0.0000   0.0000   0.0000   0.0000   0.0000   0.0000
     0.0000   0.0000   0.0000   0.0000   0.0000   0.0000   0.0000   0.0000
     0.0000   0.0000   0.0000   0.0000   0.0000   0.0000   0.0000   0.0000
     0.0000   0.0000   0.0000   0.0000   0.0000   0.0000   0.0000   0.0000
     0.0000   0.0000   0.0000   0.0000   0.0000   0.0000   0.0000   0.0000
     0.0000   0.0000   0.0000   0.0000   0.0000   0.0000   0.0000   0.0000
     0.0000   0.0000   0.0000   0.0000   0.0000   0.0000   0.0000   0.0000
     0.0000   0.0000   0.0000   0.0000   0.0000   0.0000   0.0000   0.0000
     0.0000   0.0000   0.0000   0.0000   0.0000   0.0000   0.0000   0.0000
     0.0000   0.0000   0.0000   0.0000   0.0000   0.0000   0.0000   0.0000
     0.0000   0.0000   0.0000   0.0000   0.0000   0.0000   0.0000   0.0000
     0.0000   0.0000   0.0000   0.0000   0.0000   0.0000   0.0000   0.0000
     0.0000   0.0000   0.0000   0.0000   0.0000   0.0000   0.0000   0.0000
     0.0000   0.0000   0.0000   0.0000   0.0000   0.0000   0.0000   0.0000
     0.0000   0.0000   0.0000   0.0000   0.0000   0.0000   0.0000   0.0000

[...]

          k = 0.3333 0.3327 0.2358 (  5771 PWs)   bands (ev):

   -72.8306 -72.8303 -72.8300 -72.8299 -41.6034 -41.6017 -41.5999 -41.5982
   -41.5887 -41.5860 -41.5852 -41.5848 -41.5747 -41.5730 -41.5730 -41.5702
   -23.7052 -23.7017 -23.7004 -23.6973 -17.6841 -17.6347 -17.6280 -17.5756
   -17.4941 -17.4932 -17.4749 -17.4718 -17.4429 -17.4421 -17.4285 -17.4237
    -7.2409  -7.2363  -7.2308  -7.2177  -7.2078  -7.2053  -7.1978  -7.1863
    -7.1780  -7.1744  -7.1666  -7.1556  -0.8521  -0.6603  -0.6467  -0.4462
     0.0085   0.0092   0.0660   0.0787   0.1266   0.1367   0.1856   0.2251
     0.3438   0.4237   0.5506   0.7375   0.7764   0.8095   0.8861   1.1239
     1.1471   1.1794   1.1983   1.2077   1.2522   1.2968   1.3934   1.4349
     1.4618   1.5209   1.5362   1.5454   1.5951   1.6133   1.7458   1.7964
     5.9760   6.0598   6.1437   6.1568   6.1606   6.2242   6.2420   6.3025
     6.3158   6.3225   6.3715   6.4146   6.6613   6.7297   6.8533   7.0514
     7.1957   7.4312   7.5972   7.7916  10.0551  10.8361  11.4023  11.6569
    11.7467  12.2260  12.4189  12.7790  12.9006  13.0932  13.1736  13.3115
    13.6218  13.6625  13.7370  14.0334  14.2774  14.3651  14.3762  14.4863
    14.5322  14.5813  14.6066  14.8389  15.0070  15.2977  15.4751  15.5144
    15.6635  15.7529  16.2303  16.3907  16.6029  17.1318  17.4293  17.7997
    17.8714  18.0052  18.0888  18.2956  18.3727  18.4426  18.7318  18.7967
    19.1409  19.3413  19.5200  19.6833  19.7897  19.8487  20.6430  21.1892
    21.8833  21.9540  22.1858  22.3247  22.3860  22.5295  22.6314  22.7971
    23.2083  23.4442  23.6824  23.7193  24.0646  24.2684  24.2982  24.4815
    24.7210  24.7325  25.1062  25.2943  25.4754  25.5759  25.6905  26.1866
    26.4457  26.6347  26.6758  26.9501  27.0876  27.2122  27.4121  27.8035
    28.1816  28.2755  28.3702  28.5861  28.6882  28.9934  29.1401  29.3341
    29.6120  29.7882  29.9406  30.2318  30.2781  30.4515  30.6545  30.7702
    30.8937  31.0333  31.3907  31.4971  31.5257  31.6808  31.8610  31.8933
    32.2218  32.3054  32.3902  32.5441  32.6282  32.7786  32.8871  33.2580
    33.6261  33.9085  34.2100  34.3264  34.3801  34.5215  34.5987  34.7235
    34.8448  35.1279  35.2379  35.3703  35.4607  35.6675  35.7361  35.8072
    36.0522  36.2317  36.2659  36.5109  36.5501  36.7182  36.9060  37.0340
    37.1228  37.1562  37.3738  37.3970  37.5360  37.5956  37.5992  37.9473
    37.9889  38.0469  38.2624  38.2999  38.3533  38.4479  38.6275  38.7063

     occupation numbers
     1.0000   1.0000   1.0000   1.0000   1.0000   1.0000   1.0000   1.0000
     1.0000   1.0000   1.0000   1.0000   1.0000   1.0000   1.0000   1.0000
     1.0000   1.0000   1.0000   1.0000   1.0000   1.0000   1.0000   1.0000
     1.0000   1.0000   1.0000   1.0000   1.0000   1.0000   1.0000   1.0000
     1.0000   1.0000   1.0000   1.0000   1.0000   1.0000   1.0000   1.0000
     1.0000   1.0000   1.0000   1.0000   1.0000   1.0000   1.0000   1.0000
     1.0000   1.0000   1.0000   1.0000   1.0000   1.0000   1.0000   1.0000
     1.0000   1.0000   1.0000   1.0000   1.0000   1.0000   1.0000   1.0000
     1.0000   1.0000   1.0000   1.0000   1.0000   1.0000   1.0000   1.0000
     1.0000   1.0000   1.0000   1.0000   1.0000   1.0000   1.0000   1.0000
     1.0000   1.0000   1.0000   1.0000   1.0000   1.0000   1.0000   1.0000
     1.0000   1.0000   0.0000   0.0000   0.0000   0.0000   0.0000   0.0000
     0.0000   0.0000   0.0000   0.0000   0.0000   0.0000   0.0000   0.0000
     0.0000   0.0000   0.0000   0.0000   0.0000   0.0000   0.0000   0.0000
     0.0000   0.0000   0.0000   0.0000   0.0000   0.0000   0.0000   0.0000
     0.0000   0.0000   0.0000   0.0000   0.0000   0.0000   0.0000   0.0000
     0.0000   0.0000   0.0000   0.0000   0.0000   0.0000   0.0000   0.0000
     0.0000   0.0000   0.0000   0.0000   0.0000   0.0000   0.0000   0.0000
     0.0000   0.0000   0.0000   0.0000   0.0000   0.0000   0.0000   0.0000
     0.0000   0.0000   0.0000   0.0000   0.0000   0.0000   0.0000   0.0000
     0.0000   0.0000   0.0000   0.0000   0.0000   0.0000   0.0000   0.0000
     0.0000   0.0000   0.0000   0.0000   0.0000   0.0000   0.0000   0.0000
     0.0000   0.0000   0.0000   0.0000   0.0000   0.0000   0.0000   0.0000
     0.0000   0.0000   0.0000   0.0000   0.0000   0.0000   0.0000   0.0000
     0.0000   0.0000   0.0000   0.0000   0.0000   0.0000   0.0000   0.0000
     0.0000   0.0000   0.0000   0.0000   0.0000   0.0000   0.0000   0.0000
     0.0000   0.0000   0.0000   0.0000   0.0000   0.0000   0.0000   0.0000
     0.0000   0.0000   0.0000   0.0000   0.0000   0.0000   0.0000   0.0000
     0.0000   0.0000   0.0000   0.0000   0.0000   0.0000   0.0000   0.0000
     0.0000   0.0000   0.0000   0.0000   0.0000   0.0000   0.0000   0.0000
     0.0000   0.0000   0.0000   0.0000   0.0000   0.0000   0.0000   0.0000
     0.0000   0.0000   0.0000   0.0000   0.0000   0.0000   0.0000   0.0000

     highest occupied, lowest unoccupied level (ev):     6.4298    6.3715

!    total energy              =   -1880.93204563 Ry
     estimated scf accuracy    <       0.00000074 Ry

     The total energy is the sum of the following terms:
     one-electron contribution =    -999.52697627 Ry
     hartree contribution      =     579.45095471 Ry
     xc contribution           =    -263.08875806 Ry
     ewald contribution        =    -976.09853420 Ry
     one-center paw contrib.   =    -221.66873181 Ry
      -> PAW hartree energy AE =     113.08979751 Ry
      -> PAW hartree energy PS =    -112.45914546 Ry
      -> PAW xc energy AE      =    -198.65512422 Ry
      -> PAW xc energy PS      =      31.77292332 Ry
      -> total E_H with PAW    =     580.08160676 Ry
      -> total E_XC with PAW   =    -429.97095896 Ry

     convergence has been achieved in  89 iterations

     Writing all to output data dir bands_nm/myprefix.save/

     General routines

     Parallel routines

     PAW routines

   This run was terminated on:  20:46:42  15Jul2023

   JOB DONE.