     Program PWSCF v.7.1 starts on 16Jul2023 at 18: 6:44

     Reading input from espresso_17336.pwi
Warning: card &CELL ignored
Warning: card / ignored

     Current dimensions of program PWSCF are:
     Max number of different atomic species (ntypx) = 10
     Max number of k-points (npk) =  40000
     Max angular momentum in pseudopotentials (lmaxx) =  4
     file O.pbe-n-kjpaw_psl.0.1.UPF: wavefunction(s)  2P renormalized
     Message from routine setup:
     using ibrav=0 with symmetry is DISCOURAGED, use correct ibrav instead

     K-points division:     npool     =       2
     R & G space division:  proc/nbgrp/npool/nimage =       4
     Subspace diagonalization in iterative solution of the eigenvalue problem:
     one sub-group per band group will be used

     Using Slab Decomposition

     bravais-lattice index     =            0
     lattice parameter (alat)  =       8.8184  a.u.
     unit-cell volume          =    1335.3292 (a.u.)^3
     number of atoms/cell      =           18
     number of atomic types    =            3
     number of electrons       =       156.00
     number of Kohn-Sham states=          256
     kinetic-energy cutoff     =      30.0000  Ry
     charge density cutoff     =     240.0000  Ry
     scf convergence threshold =      1.0E-06
     mixing beta               =       0.7000
     number of iterations used =            8  plain     mixing
     Exchange-correlation= SLA  PW   PBX  PBC
                           (   1   4   3   4   0   0   0)

     celldm(1)=   8.818377  celldm(2)=   0.000000  celldm(3)=   0.000000
     celldm(4)=   0.000000  celldm(5)=   0.000000  celldm(6)=   0.000000

     crystal axes: (cart. coord. in units of alat)
               a(1) = (   1.000000   0.000000   0.000000 )
               a(2) = (   0.000000   1.000001   0.000000 )
               a(3) = (  -0.000000   0.000001   1.947251 )

     reciprocal axes: (cart. coord. in units 2 pi/alat)
               b(1) = (  1.000000 -0.000000  0.000000 )
               b(2) = (  0.000000  0.999999 -0.000000 )
               b(3) = (  0.000000  0.000000  0.513545 )

     PseudoPot. # 1 for Cr read from file:
     /lustre07/scratch/pragov/crystal_structure_design/utils/SSSP/cr_pbe_v1.5.uspp.F.UPF
     MD5 check sum: 0d52af634a40206e4dee301ad30da4bf
     Pseudo is Ultrasoft + core correction, Zval = 14.0
     Generated by new atomic code, or converted to UPF format
     Using radial grid of  857 points,  6 beta functions with:
                l(1) =   0
                l(2) =   0
                l(3) =   1
                l(4) =   1
                l(5) =   2
                l(6) =   2
     Q(r) pseudized with  8 coefficients,  rinner =    0.950   0.950   0.950
                                                       0.950   0.950

     PseudoPot. # 2 for W  read from file:
     /lustre07/scratch/pragov/crystal_structure_design/utils/SSSP/W_pbe_v1.2.uspp.F.UPF
     MD5 check sum: 9c083fa34c2a2ea0f02f1f893e16e1c8
     Pseudo is Ultrasoft + core correction, Zval = 14.0
     Generated by new atomic code, or converted to UPF format
     Using radial grid of  923 points,  8 beta functions with:
                l(1) =   0
                l(2) =   0
                l(3) =   0
                l(4) =   1
                l(5) =   1
                l(6) =   2
                l(7) =   2
                l(8) =   3
     Q(r) pseudized with  6 coefficients,  rinner =    1.350   1.350   1.350
                                                       1.350   1.350   1.350
                                                       1.350

     PseudoPot. # 3 for O  read from file:
     /lustre07/scratch/pragov/crystal_structure_design/utils/SSSP/O.pbe-n-kjpaw_psl.0.1.UPF
     MD5 check sum: 0234752ac141de4415c5fc33072bef88
     Pseudo is Projector augmented-wave + core cor, Zval =  6.0
     Generated using "atomic" code by A. Dal Corso  v.5.0.99 svn rev. 10869
     Shape of augmentation charge: BESSEL
     Using radial grid of 1095 points,  4 beta functions with:
                l(1) =   0
                l(2) =   0
                l(3) =   1
                l(4) =   1
     Q(r) pseudized with 0 coefficients

     atomic species   valence    mass     pseudopotential
        Cr            14.00    51.99610     Cr( 1.00)
        W             14.00   183.84000     W ( 1.00)
        O              6.00    15.99900     O ( 1.00)

      2 Sym. Ops. (no inversion) found ( 1 have fractional translation)

                                    s                        frac. trans.

      isym =  1     identity

 cryst.   s( 1) = (     1          0          0      )
                  (     0          1          0      )
                  (     0          0          1      )

 cart.    s( 1) = (  1.0000000  0.0000000 -0.0000000 )
                  (  0.0000000  1.0000000  0.0000000 )
                  (  0.0000000  0.0000000  1.0000000 )

      isym =  2     180 deg rotation - cart. axis [1,0,0]

 cryst.   s( 2) = (     1          0          0      )    f =( -0.5000000 )
                  (     0         -1          0      )       (  0.5000000 )
                  (     0          0         -1      )       ( -0.4999980 )

 cart.    s( 2) = (  1.0000000 -0.0000009  0.0000002 )    f =( -0.4999997 )
                  (  0.0000000 -1.0000000 -0.0000000 )       (  0.5000002 )
                  (  0.0000000  0.0000000 -1.0000000 )       ( -0.9736214 )

   Cartesian axes

     site n.     atom                  positions (alat units)
         1           Cr  tau(   1) = (   0.5000000   0.5000013   1.6261295  )
         2           Cr  tau(   2) = (   0.0000003   1.0000018   1.2947425  )
         3           Cr  tau(   3) = (  -0.0000001   0.0000003   0.6524906  )
         4           Cr  tau(   4) = (   0.5000002   0.5000008   0.3211367  )
         5           W   tau(   5) = (   0.9999994   1.0000003   0.0000389  )
         6           W   tau(   6) = (   0.5000001   0.5000021   0.9735903  )
         7           O   tau(   7) = (   0.2991049   0.2991062   1.9472468  )
         8           O   tau(   8) = (   0.2008942   0.7991075   0.9736292  )
         9           O   tau(   9) = (   0.7991050   0.2008947   0.9736292  )
        10           O   tau(  10) = (   0.7008951   0.7008957   1.9472468  )
        11           O   tau(  11) = (   0.3055711   0.3055727   0.6612610  )
        12           O   tau(  12) = (   0.1944283   0.8055742   0.3123624  )
        13           O   tau(  13) = (   0.1944382   0.8055647   1.6348785  )
        14           O   tau(  14) = (   0.3055630   0.3055650   1.2859974  )
        15           O   tau(  15) = (   0.8055720   0.1944274   0.3123624  )
        16           O   tau(  16) = (   0.6944292   0.6944292   0.6612610  )
        17           O   tau(  17) = (   0.6944372   0.6944375   1.2859974  )
        18           O   tau(  18) = (   0.8055629   0.1944380   1.6348785  )

   Crystallographic axes

     site n.     atom                  positions (cryst. coord.)
         1           Cr  tau(   1) = (  0.5000000  0.5000000  0.8350900  )
         2           Cr  tau(   2) = ( -0.0000000  1.0000000  0.6649080  )
         3           Cr  tau(   3) = (  0.0000000 -0.0000000  0.3350830  )
         4           Cr  tau(   4) = (  0.5000000  0.5000000  0.1649180  )
         5           W   tau(   5) = (  0.9999990  0.9999990  0.0000200  )
         6           W   tau(   6) = (  0.5000000  0.5000010  0.4999820  )
         7           O   tau(   7) = (  0.2991050  0.2991050  0.9999980  )
         8           O   tau(   8) = (  0.2008940  0.7991060  0.5000020  )
         9           O   tau(   9) = (  0.7991050  0.2008940  0.5000020  )
        10           O   tau(  10) = (  0.7008950  0.7008940  0.9999980  )
        11           O   tau(  11) = (  0.3055710  0.3055720  0.3395870  )
        12           O   tau(  12) = (  0.1944280  0.8055730  0.1604120  )
        13           O   tau(  13) = (  0.1944380  0.8055630  0.8395830  )
        14           O   tau(  14) = (  0.3055630  0.3055640  0.6604170  )
        15           O   tau(  15) = (  0.8055720  0.1944270  0.1604120  )
        16           O   tau(  16) = (  0.6944290  0.6944280  0.3395870  )
        17           O   tau(  17) = (  0.6944370  0.6944360  0.6604170  )
        18           O   tau(  18) = (  0.8055630  0.1944370  0.8395830  )

     number of k points=    10
                       cart. coord. in units 2pi/alat
        k(    1) = (   0.0000000   0.0000000   0.0000000), wk =   0.0740741
        k(    2) = (   0.0000000   0.0000000   0.1711815), wk =   0.1481481
        k(    3) = (   0.0000000   0.3333329  -0.0000001), wk =   0.1481481
        k(    4) = (   0.0000000   0.3333329   0.1711814), wk =   0.1481481
        k(    5) = (   0.0000000   0.3333329  -0.1711817), wk =   0.1481481
        k(    6) = (   0.3333333  -0.0000001   0.0000000), wk =   0.1481481
        k(    7) = (   0.3333333  -0.0000001   0.1711816), wk =   0.2962963
        k(    8) = (   0.3333333   0.3333328  -0.0000001), wk =   0.2962963
        k(    9) = (   0.3333333   0.3333328   0.1711814), wk =   0.2962963
        k(   10) = (   0.3333333   0.3333328  -0.1711816), wk =   0.2962963

                       cryst. coord.
        k(    1) = (   0.0000000   0.0000000   0.0000000), wk =   0.0740741
        k(    2) = (   0.0000000   0.0000000   0.3333333), wk =   0.1481481
        k(    3) = (   0.0000000   0.3333333   0.0000000), wk =   0.1481481
        k(    4) = (   0.0000000   0.3333333   0.3333333), wk =   0.1481481
        k(    5) = (   0.0000000   0.3333333  -0.3333333), wk =   0.1481481
        k(    6) = (   0.3333333  -0.0000000   0.0000000), wk =   0.1481481
        k(    7) = (   0.3333333  -0.0000000   0.3333333), wk =   0.2962963
        k(    8) = (   0.3333333   0.3333333   0.0000000), wk =   0.2962963
        k(    9) = (   0.3333333   0.3333333   0.3333333), wk =   0.2962963
        k(   10) = (   0.3333333   0.3333333  -0.3333333), wk =   0.2962963

     Check: negative core charge=   -0.000016

     Initial potential from superposition of free atoms

     starting charge     151.7992, renormalised to     156.0000

     negative rho (up, down):  1.381E-01 0.000E+00
     Starting wfcs are  114 randomized atomic wfcs +  142 random wfcs
     Checking if some PAW data can be deallocated...

     Self-consistent Calculation

     iteration #  1     ecut=    30.00 Ry     beta= 0.70
     Davidson diagonalization with overlap

     ethr =  1.00E-02,  avg # of iterations =  6.0

     negative rho (up, down):  1.286E-01 0.000E+00

     total energy              =   -1516.58283624 Ry
     estimated scf accuracy    <       6.35865747 Ry

[...]

     total energy              =   -1520.02381947 Ry
     estimated scf accuracy    <       0.00000298 Ry

     iteration # 17     ecut=    30.00 Ry     beta= 0.70
     Davidson diagonalization with overlap

     ethr =  1.91E-09,  avg # of iterations =  1.0

     negative rho (up, down):  1.305E-01 0.000E+00

     End of self-consistent calculation

          k = 0.0000 0.0000 0.0000 (  3725 PWs)   bands (ev):

   -65.2291 -65.2285 -61.5971 -61.5960 -61.5932 -61.5915 -33.0048 -33.0041
   -32.9474 -32.9436 -32.9135 -32.9130 -32.9110 -32.9105 -32.8232 -32.8227
   -32.8158 -32.8153 -29.6199 -29.6190 -29.4358 -29.4353 -29.3456 -29.3451
    -9.4512  -8.8550  -8.3382  -8.2676  -8.2406  -8.2400  -8.1450  -7.7416
    -7.6467  -7.6465  -7.5634  -7.5626   2.8037   3.4100   3.6477   3.7213
     4.1615   4.2115   4.2118   4.4727   4.5502   4.8396   4.8998   5.0703
     5.0710   5.3716   5.3879   5.3882   5.4140   5.8994   5.9001   6.4255
     6.4255   6.6872   6.6875   6.8903   6.9957   6.9961   7.3220   7.3226
     7.4717   7.4721   7.8788   8.1194   8.2078   8.4717   8.4719   9.0187
    10.3099  10.4163  10.7103  10.7120  10.7123  10.7156  10.7445  10.8650
    11.1271  11.1628  11.3386  11.3391  11.6037  11.7640  12.2984  12.2988
    12.4831  12.7944  13.0599  13.1912  13.1916  13.3241  13.3839  13.9853
    13.9859  14.1401  16.0044  16.7075  17.6419  17.6665  17.6671  18.8997
    19.3400  20.0451  20.0453  22.3303  22.8137  22.8143  23.2654  23.2657
    23.2964  23.3809  23.3937  23.8987  24.1810  24.2060  24.2889  24.7600
    24.8885  25.3257  25.4163  25.6186  25.8937  26.1701  26.1705  26.2221
    26.2222  26.2228  26.4537  27.4643  27.4648  27.9166  28.1086  29.4315
    29.8678  30.3642  30.3646  30.9792  31.1894  31.1894  32.4884  32.4888
    32.7014  32.7015  33.0186  33.3663  33.3667  33.6422  33.8919  34.1661
    34.1665  34.2376  34.4701  34.9836  35.7133  35.7137  36.3730  36.4418
    36.4492  36.8224  36.8225  36.9915  37.5942  37.8484  37.8774  38.0982
    38.4385  38.4387  38.6827  38.6829  38.9107  39.2942  40.0032  40.1159
    40.1161  40.2274  40.6088  40.6091  41.4236  41.5940  41.5941  41.7617
    42.0255  42.5911  42.8091  42.8092  43.3553  43.6244  43.6248  43.9607
    43.9607  44.3219  44.4669  45.0142  45.3918  45.8126  45.9364  46.0400
    46.1002  46.1003  46.1090  46.1380  46.1386  46.3742  46.4240  46.8438
    46.8710  46.8711  47.1460  47.1461  47.6303  47.6304  47.7073  47.8211
    48.0395  48.0396  48.7674  49.1851  49.2854  49.2856  49.4355  49.6677
    49.7864  49.8644  49.8645  49.9425  50.6450  50.6451  50.7535  51.2606
    51.8380  51.8389  51.8416  52.1134  52.3514  52.4484  52.4487  52.6982
    53.0959  53.8596  53.8598  53.9361  54.0686  54.4496  54.4498  54.9111
    55.0093  56.2898  56.2898  56.3155  56.3158  56.6449  56.6585  57.1978

     occupation numbers
     1.0000   1.0000   1.0000   1.0000   1.0000   1.0000   1.0000   1.0000
     1.0000   1.0000   1.0000   1.0000   1.0000   1.0000   1.0000   1.0000
     1.0000   1.0000   1.0000   1.0000   1.0000   1.0000   1.0000   1.0000
     1.0000   1.0000   1.0000   1.0000   1.0000   1.0000   1.0000   1.0000
     1.0000   1.0000   1.0000   1.0000   1.0000   1.0000   1.0000   1.0000
     1.0000   1.0000   1.0000   1.0000   1.0000   1.0000   1.0000   1.0000
     1.0000   1.0000   1.0000   1.0000   1.0000   1.0000   1.0000   1.0000
     1.0000   1.0000   1.0000   1.0000   1.0000   1.0000   1.0000   1.0000
     1.0000   1.0000   1.0000   1.0000   1.0000   1.0000   1.0000   1.0000
     1.0000   1.0000   1.0000   1.0000   1.0000   1.0000   0.0000   0.0000
     0.0000   0.0000   0.0000   0.0000   0.0000   0.0000   0.0000   0.0000
     0.0000   0.0000   0.0000   0.0000   0.0000   0.0000   0.0000   0.0000
     0.0000   0.0000   0.0000   0.0000   0.0000   0.0000   0.0000   0.0000
     0.0000   0.0000   0.0000   0.0000   0.0000   0.0000   0.0000   0.0000
     0.0000   0.0000   0.0000   0.0000   0.0000   0.0000   0.0000   0.0000
     0.0000   0.0000   0.0000   0.0000   0.0000   0.0000   0.0000   0.0000
     0.0000   0.0000   0.0000   0.0000   0.0000   0.0000   0.0000   0.0000
     0.0000   0.0000   0.0000   0.0000   0.0000   0.0000   0.0000   0.0000
     0.0000   0.0000   0.0000   0.0000   0.0000   0.0000   0.0000   0.0000
     0.0000   0.0000   0.0000   0.0000   0.0000   0.0000   0.0000   0.0000
     0.0000   0.0000   0.0000   0.0000   0.0000   0.0000   0.0000   0.0000
     0.0000   0.0000   0.0000   0.0000   0.0000   0.0000   0.0000   0.0000
     0.0000   0.0000   0.0000   0.0000   0.0000   0.0000   0.0000   0.0000
     0.0000   0.0000   0.0000   0.0000   0.0000   0.0000   0.0000   0.0000
     0.0000   0.0000   0.0000   0.0000   0.0000   0.0000   0.0000   0.0000
     0.0000   0.0000   0.0000   0.0000   0.0000   0.0000   0.0000   0.0000
     0.0000   0.0000   0.0000   0.0000   0.0000   0.0000   0.0000   0.0000
     0.0000   0.0000   0.0000   0.0000   0.0000   0.0000   0.0000   0.0000
     0.0000   0.0000   0.0000   0.0000   0.0000   0.0000   0.0000   0.0000
     0.0000   0.0000   0.0000   0.0000   0.0000   0.0000   0.0000   0.0000
     0.0000   0.0000   0.0000   0.0000   0.0000   0.0000   0.0000   0.0000
     0.0000   0.0000   0.0000   0.0000   0.0000   0.0000   0.0000   0.0000

[...]

          k = 0.3333 0.3333-0.1712 (  3704 PWs)   bands (ev):

   -65.2290 -65.2284 -61.5968 -61.5964 -61.5922 -61.5916 -33.0050 -33.0044
   -32.9460 -32.9457 -32.9132 -32.9128 -32.9074 -32.9069 -32.8233 -32.8233
   -32.8119 -32.8115 -29.6194 -29.6189 -29.4371 -29.4362 -29.3468 -29.3464
    -8.9172  -8.7482  -8.5134  -8.3779  -8.3028  -8.2860  -7.9594  -7.8961
    -7.7388  -7.7094  -7.7040  -7.6550   3.1831   3.3474   3.7531   3.8080
     3.9233   4.0022   4.1210   4.4066   4.5276   4.7176   4.8419   4.8888
     5.0822   5.5684   5.6464   5.9517   6.0503   6.2401   6.3046   6.3216
     6.4470   6.5802   6.7709   6.7796   7.1040   7.1148   7.3303   7.3600
     7.5327   7.5389   7.5798   7.5975   7.8446   8.0814   8.1156   8.2306
    10.4622  10.5140  10.7569  10.7768  10.8511  10.8993  10.9674  11.0301
    11.0509  11.1914  11.4889  11.4905  11.5327  11.8134  12.1372  12.3174
    12.6935  12.7911  12.8731  13.1131  13.2781  13.3500  13.5214  13.5277
    13.8276  13.8546  16.9117  17.1878  17.5273  17.5312  18.9655  19.5593
    20.3903  20.4439  20.9018  20.9149  21.4060  21.4798  21.5772  22.1833
    22.5908  22.7434  23.3172  23.6040  23.6182  24.0598  24.1673  24.3949
    24.3984  24.8649  25.1571  25.3696  25.7610  26.1736  26.2279  26.7108
    26.7474  27.6010  27.6152  28.1545  28.2637  28.7818  28.9515  29.3102
    29.4815  29.7718  30.0545  30.1269  30.8693  31.3606  31.9217  32.0452
    32.1658  32.6165  32.7265  32.8301  33.0616  33.2012  33.3238  33.8790
    34.4248  34.7118  34.8081  35.2402  35.6687  35.9010  36.2951  36.4735
    36.9275  36.9283  37.2775  37.8026  37.8780  38.2202  38.3642  38.6904
    38.9002  39.3229  39.4965  39.7034  39.7778  40.0727  40.5529  40.6005
    40.9474  40.9713  41.0992  41.2655  41.5388  41.7511  42.2095  42.4623
    42.6775  42.7093  42.9262  43.0283  43.0884  43.6683  43.7675  44.1691
    44.4191  44.6277  44.9461  45.0276  45.3331  45.4836  45.5666  45.7699
    45.8119  45.8993  46.0295  46.2140  46.5267  46.6148  46.8860  46.9095
    47.0223  47.0891  47.4904  47.5186  47.5798  47.7467  47.9373  48.2022
    48.3358  48.5364  48.6943  49.0673  49.1267  49.3695  49.5349  49.5873
    49.9236  50.0413  50.1379  50.3636  50.5113  50.7701  50.8122  51.0651
    51.0761  51.3479  51.7287  51.9651  51.9849  52.5552  52.6375  53.1604
    53.5170  53.6455  53.7638  53.9418  54.3595  54.5012  54.6662  54.6864
    54.9968  55.0091  55.3063  55.3066  55.6382  55.7640  55.8839  55.9933

     occupation numbers
     1.0000   1.0000   1.0000   1.0000   1.0000   1.0000   1.0000   1.0000
     1.0000   1.0000   1.0000   1.0000   1.0000   1.0000   1.0000   1.0000
     1.0000   1.0000   1.0000   1.0000   1.0000   1.0000   1.0000   1.0000
     1.0000   1.0000   1.0000   1.0000   1.0000   1.0000   1.0000   1.0000
     1.0000   1.0000   1.0000   1.0000   1.0000   1.0000   1.0000   1.0000
     1.0000   1.0000   1.0000   1.0000   1.0000   1.0000   1.0000   1.0000
     1.0000   1.0000   1.0000   1.0000   1.0000   1.0000   1.0000   1.0000
     1.0000   1.0000   1.0000   1.0000   1.0000   1.0000   1.0000   1.0000
     1.0000   1.0000   1.0000   1.0000   1.0000   1.0000   1.0000   1.0000
     1.0000   1.0000   1.0000   1.0000   1.0000   1.0000   0.0000   0.0000
     0.0000   0.0000   0.0000   0.0000   0.0000   0.0000   0.0000   0.0000
     0.0000   0.0000   0.0000   0.0000   0.0000   0.0000   0.0000   0.0000
     0.0000   0.0000   0.0000   0.0000   0.0000   0.0000   0.0000   0.0000
     0.0000   0.0000   0.0000   0.0000   0.0000   0.0000   0.0000   0.0000
     0.0000   0.0000   0.0000   0.0000   0.0000   0.0000   0.0000   0.0000
     0.0000   0.0000   0.0000   0.0000   0.0000   0.0000   0.0000   0.0000
     0.0000   0.0000   0.0000   0.0000   0.0000   0.0000   0.0000   0.0000
     0.0000   0.0000   0.0000   0.0000   0.0000   0.0000   0.0000   0.0000
     0.0000   0.0000   0.0000   0.0000   0.0000   0.0000   0.0000   0.0000
     0.0000   0.0000   0.0000   0.0000   0.0000   0.0000   0.0000   0.0000
     0.0000   0.0000   0.0000   0.0000   0.0000   0.0000   0.0000   0.0000
     0.0000   0.0000   0.0000   0.0000   0.0000   0.0000   0.0000   0.0000
     0.0000   0.0000   0.0000   0.0000   0.0000   0.0000   0.0000   0.0000
     0.0000   0.0000   0.0000   0.0000   0.0000   0.0000   0.0000   0.0000
     0.0000   0.0000   0.0000   0.0000   0.0000   0.0000   0.0000   0.0000
     0.0000   0.0000   0.0000   0.0000   0.0000   0.0000   0.0000   0.0000
     0.0000   0.0000   0.0000   0.0000   0.0000   0.0000   0.0000   0.0000
     0.0000   0.0000   0.0000   0.0000   0.0000   0.0000   0.0000   0.0000
     0.0000   0.0000   0.0000   0.0000   0.0000   0.0000   0.0000   0.0000
     0.0000   0.0000   0.0000   0.0000   0.0000   0.0000   0.0000   0.0000
     0.0000   0.0000   0.0000   0.0000   0.0000   0.0000   0.0000   0.0000
     0.0000   0.0000   0.0000   0.0000   0.0000   0.0000   0.0000   0.0000

     highest occupied, lowest unoccupied level (ev):    10.9686   10.7445

!    total energy              =   -1520.02381926 Ry
     estimated scf accuracy    <       0.00000031 Ry

     The total energy is the sum of the following terms:
     one-electron contribution =    -552.77522895 Ry
     hartree contribution      =     351.78032402 Ry
     xc contribution           =    -260.01755887 Ry
     ewald contribution        =    -944.73303716 Ry
     one-center paw contrib.   =    -114.27831831 Ry
      -> PAW hartree energy AE =       0.00000000 Ry
      -> PAW hartree energy PS =       0.00000000 Ry
      -> PAW xc energy AE      =       0.00000000 Ry
      -> PAW xc energy PS      =       0.00000000 Ry
      -> total E_H with PAW    =     351.78032402 Ry
      -> total E_XC with PAW   =    -260.01755887 Ry

     convergence has been achieved in  17 iterations

     Writing all to output data dir bands_nm/myprefix.save/

     General routines

     Parallel routines

     PAW routines

   This run was terminated on:  18: 7:47  16Jul2023

   JOB DONE.