     Program PWSCF v.7.1 starts on 14Jul2023 at 19:19:23

     Reading input from espresso_21784.pwi
Warning: card &CELL ignored
Warning: card / ignored

     Current dimensions of program PWSCF are:
     Max number of different atomic species (ntypx) = 10
     Max number of k-points (npk) =  40000
     Max angular momentum in pseudopotentials (lmaxx) =  4
     file In.pbe-dn-rrkjus_psl.0.2.2.UPF: wavefunction(s)  5S renormalized
     file Ga.pbe-dn-kjpaw_psl.1.0.0.UPF: wavefunction(s)  4S renormalized
     file Cu.paw.z_11.ld1.psl.v1.0.0-low.upf: wavefunction(s)  4S 3D renormalized
     Message from routine setup:
     using ibrav=0 with symmetry is DISCOURAGED, use correct ibrav instead

     K-points division:     npool     =       2
     R & G space division:  proc/nbgrp/npool/nimage =       4
     Subspace diagonalization in iterative solution of the eigenvalue problem:
     a serial algorithm will be used

     Using Slab Decomposition

     bravais-lattice index     =            0
     lattice parameter (alat)  =      11.6591  a.u.
     unit-cell volume          =    1578.3674 (a.u.)^3
     number of atoms/cell      =            8
     number of atomic types    =            4
     number of electrons       =        72.00
     number of Kohn-Sham states=           64
     kinetic-energy cutoff     =      30.0000  Ry
     charge density cutoff     =     240.0000  Ry
     scf convergence threshold =      1.0E-06
     mixing beta               =       0.7000
     number of iterations used =            8  plain     mixing
     Exchange-correlation= SLA  PW   PBE  PBE
                           (   1   4   3   4   0   0   0)

     celldm(1)=  11.659149  celldm(2)=   0.000000  celldm(3)=   0.000000
     celldm(4)=   0.000000  celldm(5)=   0.000000  celldm(6)=   0.000000

     crystal axes: (cart. coord. in units of alat)
               a(1) = (   1.000000   0.000000   0.000000 )
               a(2) = (   0.000000   1.000000   0.000000 )
               a(3) = (   0.500000   0.500000   0.995881 )

     reciprocal axes: (cart. coord. in units 2 pi/alat)
               b(1) = (  1.000000  0.000000 -0.502068 )
               b(2) = (  0.000000  1.000000 -0.502068 )
               b(3) = (  0.000000  0.000000  1.004136 )

     PseudoPot. # 1 for In read from file:
     /lustre07/scratch/pragov/crystal_structure_design/utils/SSSP/In.pbe-dn-rrkjus_psl.0.2.2.UPF
     MD5 check sum: 25e7c42c3b55b68f4bf926be2e7201a4
     Pseudo is Ultrasoft + core correction, Zval = 13.0
     Generated using "atomic" code by A. Dal Corso  v.5.0.99 svn rev. 10869
     Using radial grid of 1241 points,  6 beta functions with:
                l(1) =   0
                l(2) =   0
                l(3) =   1
                l(4) =   1
                l(5) =   2
                l(6) =   2
     Q(r) pseudized with 0 coefficients

     PseudoPot. # 2 for Ga read from file:
     /lustre07/scratch/pragov/crystal_structure_design/utils/SSSP/Ga.pbe-dn-kjpaw_psl.1.0.0.UPF
     MD5 check sum: a27b4342b1af7e5f338de752e9ed7044
     Pseudo is Projector augmented-wave + core cor, Zval = 13.0
     Generated using "atomic" code by A. Dal Corso  v.5.1
     Shape of augmentation charge: PSQ
     Using radial grid of 1205 points,  6 beta functions with:
                l(1) =   0
                l(2) =   0
                l(3) =   1
                l(4) =   1
                l(5) =   2
                l(6) =   2
     Q(r) pseudized with 0 coefficients

     PseudoPot. # 3 for Cu read from file:
     /lustre07/scratch/pragov/crystal_structure_design/utils/SSSP/Cu.paw.z_11.ld1.psl.v1.0.0-low.upf
     MD5 check sum: 619f40885d92a09a85a8b37550532d0c
     Pseudo is Projector augmented-wave + core cor, Zval = 11.0
     Generated using &quot;atomic&quot; code by A. Dal Corso  v.6.3MaX
     Shape of augmentation charge: PSQ
     Using radial grid of 1199 points,  6 beta functions with:
                l(1) =   0
                l(2) =   0
                l(3) =   1
                l(4) =   1
                l(5) =   2
                l(6) =   2
     Q(r) pseudized with 0 coefficients

     PseudoPot. # 4 for Te read from file:
     /lustre07/scratch/pragov/crystal_structure_design/utils/SSSP/Te_pbe_v1.uspp.F.UPF
     MD5 check sum: c319670d6894cc26e93307826a071b75
     Pseudo is Ultrasoft + core correction, Zval =  6.0
     Generated by new atomic code, or converted to UPF format
     Using radial grid of  891 points,  5 beta functions with:
                l(1) =   0
                l(2) =   0
                l(3) =   1
                l(4) =   1
                l(5) =   2
     Q(r) pseudized with  6 coefficients,  rinner =    1.800   1.800   1.800
                                                       1.800   1.800

     atomic species   valence    mass     pseudopotential
        In            13.00   114.81800     In( 1.00)
        Ga            13.00    69.72300     Ga( 1.00)
        Cu            11.00    63.54600     Cu( 1.00)
        Te             6.00   127.60000     Te( 1.00)

      4 Sym. Ops. (no inversion) found

                                    s                        frac. trans.

      isym =  1     identity

 cryst.   s( 1) = (     1          0          0      )
                  (     0          1          0      )
                  (     0          0          1      )

 cart.    s( 1) = (  1.0000000  0.0000000  0.0000000 )
                  (  0.0000000  1.0000000  0.0000000 )
                  (  0.0000000  0.0000000  1.0000000 )

      isym =  2     180 deg rotation - cart. axis [0,0,1]

[...]

      isym =  3     inv.  90 deg rotation - cart. axis [0,0,-1]

[...]

      isym =  4     inv.  90 deg rotation - cart. axis [0,0,1]

 cryst.   s( 4) = (     0         -1          0      )
                  (     1          0          0      )
                  (     1          0         -1      )

 cart.    s( 4) = (  0.0000000  1.0000000  0.0000003 )
                  ( -1.0000000  0.0000000  0.0000000 )
                  (  0.0000000  0.0000000 -1.0000000 )

   Cartesian axes

     site n.     atom                  positions (alat units)
         1           In  tau(   1) = (   0.5000000   0.5000000   0.0000000  )
         2           Ga  tau(   2) = (   0.4999999   0.9999999   0.4979406  )
         3           Cu  tau(   3) = (   0.9999999   0.4999999   0.4979406  )
         4           Cu  tau(   4) = (   0.0000000   0.0000000   0.0000000  )
         5           Te  tau(   5) = (   0.7375404   1.2725124   0.7369192  )
         6           Te  tau(   6) = (   1.2624594   0.7274874   0.7369192  )
         7           Te  tau(   7) = (   0.2274875   0.2375405   0.2589620  )
         8           Te  tau(   8) = (   0.7725125   0.7624595   0.2589620  )

   Crystallographic axes

     site n.     atom                  positions (cryst. coord.)
         1           In  tau(   1) = (  0.5000000  0.5000000  0.0000000  )
         2           Ga  tau(   2) = (  0.2500000  0.7500000  0.5000000  )
         3           Cu  tau(   3) = (  0.7500000  0.2500000  0.5000000  )
         4           Cu  tau(   4) = (  0.0000000  0.0000000  0.0000000  )
         5           Te  tau(   5) = (  0.3675570  0.9025290  0.7399670  )
         6           Te  tau(   6) = (  0.8924760  0.3575040  0.7399670  )
         7           Te  tau(   7) = (  0.0974710  0.1075240  0.2600330  )
         8           Te  tau(   8) = (  0.6424960  0.6324430  0.2600330  )

     number of k points=     6
                       cart. coord. in units 2pi/alat
        k(    1) = (   0.0000000   0.0000000   0.0000000), wk =   0.0740741
        k(    2) = (   0.0000000   0.0000000   0.3347119), wk =   0.1481481
        k(    3) = (   0.0000000   0.3333333  -0.1673559), wk =   0.5925926
        k(    4) = (   0.0000000   0.3333333  -0.5020679), wk =   0.2962963
        k(    5) = (   0.3333333   0.3333333  -0.3347118), wk =   0.5925926
        k(    6) = (   0.3333333   0.3333333   0.0000001), wk =   0.2962963

                       cryst. coord.
        k(    1) = (   0.0000000   0.0000000   0.0000000), wk =   0.0740741
        k(    2) = (   0.0000000   0.0000000   0.3333333), wk =   0.1481481
        k(    3) = (   0.0000000   0.3333333   0.0000000), wk =   0.5925926
        k(    4) = (   0.0000000   0.3333333  -0.3333333), wk =   0.2962963
        k(    5) = (   0.3333333   0.3333333   0.0000000), wk =   0.5925926
        k(    6) = (   0.3333333   0.3333333   0.3333333), wk =   0.2962963

     Initial potential from superposition of free atoms

     starting charge      71.9920, renormalised to      72.0000
     Starting wfcs are   52 randomized atomic wfcs +   12 random wfcs
     Checking if some PAW data can be deallocated...

     Self-consistent Calculation

     iteration #  1     ecut=    30.00 Ry     beta= 0.70
     Davidson diagonalization with overlap

     ethr =  1.00E-02,  avg # of iterations =  7.2

     Threshold (ethr) on eigenvalues was too large:
     Diagonalizing with lowered threshold

     Davidson diagonalization with overlap

[...]

     total energy              =    -954.98618755 Ry
     estimated scf accuracy    <       0.13739557 Ry

[...]

     total energy              =    -955.03625226 Ry
     estimated scf accuracy    <       0.00000269 Ry

     iteration #  9     ecut=    30.00 Ry     beta= 0.70
     Davidson diagonalization with overlap

     ethr =  3.73E-09,  avg # of iterations =  2.2

     End of self-consistent calculation

          k = 0.0000 0.0000 0.0000 (  4357 PWs)   bands (ev):

    -9.3363  -9.3300  -9.3300  -9.2781  -9.2779  -8.8171  -8.8071  -8.8071
    -8.7214  -8.7126  -6.2992  -4.8661  -4.8564  -4.8564  -0.7513   0.3671
     1.4023   2.1732   2.2731   2.6480   2.6480   3.0021   3.0021   3.1990
     3.1990   3.2251   3.7533   3.8803   3.8992   4.1940   4.2726   4.2726
     4.3094   6.1671   6.1671   6.1739   6.2894   7.3537   7.8178   9.3378
     9.3378   9.4282  10.3010  10.4425  10.4425  10.5627  11.4738  11.4738
    11.7184  11.8815  13.1966  14.9396  14.9876  14.9876  15.1144  15.8856
    16.0617  16.2702  16.3147  16.3147  16.6291  17.0869  17.2701  17.2701

     occupation numbers
     1.0000   1.0000   1.0000   1.0000   1.0000   1.0000   1.0000   1.0000
     1.0000   1.0000   1.0000   1.0000   1.0000   1.0000   1.0000   1.0000
     1.0000   1.0000   1.0000   1.0000   1.0000   1.0000   1.0000   1.0000
     1.0000   1.0000   1.0000   1.0000   1.0000   1.0000   1.0000   1.0000
     1.0000   1.0000   1.0000   1.0000   0.0000   0.0000   0.0000   0.0000
     0.0000   0.0000   0.0000   0.0000   0.0000   0.0000   0.0000   0.0000
     0.0000   0.0000   0.0000   0.0000   0.0000   0.0000   0.0000   0.0000
     0.0000   0.0000   0.0000   0.0000   0.0000   0.0000   0.0000   0.0000

[...]

          k = 0.3333 0.3333 0.0000 (  4398 PWs)   bands (ev):

    -9.3376  -9.3311  -9.3301  -9.2787  -9.2777  -8.8197  -8.8110  -8.8086
    -8.7204  -8.7121  -5.7941  -5.1820  -5.1497  -4.9442  -0.5172   0.1541
     1.2457   1.9132   2.0371   2.8423   2.9064   2.9762   3.0564   3.1932
     3.3191   3.5229   3.9370   3.9641   4.0245   4.1579   4.4894   4.6100
     4.6977   4.8556   5.2991   5.8292   7.3266   7.4838   8.7272   9.1158
     9.6309   9.8991  10.0281  10.2761  10.9376  10.9947  11.6209  11.8610
    12.4365  13.0311  13.0961  13.3587  13.6070  13.6870  14.5519  14.5992
    14.8192  15.1323  15.4823  15.7315  16.0256  16.5617  16.6654  17.1517

     occupation numbers
     1.0000   1.0000   1.0000   1.0000   1.0000   1.0000   1.0000   1.0000
     1.0000   1.0000   1.0000   1.0000   1.0000   1.0000   1.0000   1.0000
     1.0000   1.0000   1.0000   1.0000   1.0000   1.0000   1.0000   1.0000
     1.0000   1.0000   1.0000   1.0000   1.0000   1.0000   1.0000   1.0000
     1.0000   1.0000   1.0000   1.0000   0.0000   0.0000   0.0000   0.0000
     0.0000   0.0000   0.0000   0.0000   0.0000   0.0000   0.0000   0.0000
     0.0000   0.0000   0.0000   0.0000   0.0000   0.0000   0.0000   0.0000
     0.0000   0.0000   0.0000   0.0000   0.0000   0.0000   0.0000   0.0000

     highest occupied, lowest unoccupied level (ev):     6.1739    6.2894

!    total energy              =    -955.03625260 Ry
     estimated scf accuracy    <       0.00000034 Ry

     The total energy is the sum of the following terms:
     one-electron contribution =    -337.02459441 Ry
     hartree contribution      =     229.65677274 Ry
     xc contribution           =    -232.82519981 Ry
     ewald contribution        =    -324.28584404 Ry
     one-center paw contrib.   =    -290.55738707 Ry
      -> PAW hartree energy AE =       0.00000000 Ry
      -> PAW hartree energy PS =       0.00000000 Ry
      -> PAW xc energy AE      =       0.00000000 Ry
      -> PAW xc energy PS      =       0.00000000 Ry
      -> total E_H with PAW    =     229.65677274 Ry
      -> total E_XC with PAW   =    -232.82519981 Ry

     convergence has been achieved in   9 iterations

     Writing all to output data dir bands_nm/myprefix.save/

     General routines

     Parallel routines

     PAW routines

   This run was terminated on:  19:19:33  14Jul2023

   JOB DONE.