     Program PWSCF v.7.0 starts on  7Jun2023 at  6:56: 0

     K-points division:     npool     =       2
     R & G space division:  proc/nbgrp/npool/nimage =       4

     Reading input from espresso_25242.pwi
Warning: card &CELL ignored
Warning: card / ignored

     Current dimensions of program PWSCF are:
     Max number of different atomic species (ntypx) = 10
     Max number of k-points (npk) =  40000
     Max angular momentum in pseudopotentials (lmaxx) =  4
     file O.pbe-n-kjpaw_psl.0.1.UPF: wavefunction(s)  2P renormalized
     Message from routine setup:
     using ibrav=0 with symmetry is DISCOURAGED, use correct ibrav instead

     Using Slab Decomposition

     bravais-lattice index     =            0
     lattice parameter (alat)  =       9.5344  a.u.
     unit-cell volume          =    1144.2663 (a.u.)^3
     number of atoms/cell      =           18
     number of atomic types    =            3
     number of electrons       =        80.00
     number of Kohn-Sham states=           64
     kinetic-energy cutoff     =      30.0000  Ry
     charge density cutoff     =     240.0000  Ry
     scf convergence threshold =      1.0E-06
     mixing beta               =       0.7000
     number of iterations used =            8  plain     mixing
     Exchange-correlation= SLA  PW   PBX  PBC
                           (   1   4   3   4   0   0   0)

     celldm(1)=   9.534403  celldm(2)=   0.000000  celldm(3)=   0.000000
     celldm(4)=   0.000000  celldm(5)=   0.000000  celldm(6)=   0.000000

     crystal axes: (cart. coord. in units of alat)
               a(1) = (   1.000000   0.000000   0.000000 )
               a(2) = (   0.369537   0.930616   0.000000 )
               a(3) = (   0.488544   0.009416   1.418652 )

     reciprocal axes: (cart. coord. in units 2 pi/alat)
               b(1) = (  1.000000 -0.397089 -0.341736 )
               b(2) = (  0.000000  1.074557 -0.007132 )
               b(3) = (  0.000000  0.000000  0.704894 )

     PseudoPot. # 1 for Li read from file:
     /home/pragov/projects/rrg-bengioy-ad/pragov/crystal_structure_design/SSSP/li_pbe_v1.4.uspp.F.UPF
     MD5 check sum: e912e257baa3777c20ea3d68f190483c
     Pseudo is Ultrasoft, Zval =  3.0
     Generated by new atomic code, or converted to UPF format
     Using radial grid of  751 points,  5 beta functions with:
                l(1) =   0
                l(2) =   0
                l(3) =   0
                l(4) =   1
                l(5) =   1
     Q(r) pseudized with 10 coefficients,  rinner =    1.150   1.150   1.150

     PseudoPot. # 2 for Si read from file:
     /home/pragov/projects/rrg-bengioy-ad/pragov/crystal_structure_design/SSSP/Si.pbe-n-rrkjus_psl.1.0.0.UPF
     MD5 check sum: 0b0bb1205258b0d07b9f9672cf965d36
     Pseudo is Ultrasoft + core correction, Zval =  4.0
     Generated using "atomic" code by A. Dal Corso  v.5.1
     Using radial grid of 1141 points,  6 beta functions with:
                l(1) =   0
                l(2) =   0
                l(3) =   1
                l(4) =   1
                l(5) =   2
                l(6) =   2
     Q(r) pseudized with 0 coefficients

     PseudoPot. # 3 for O  read from file:
     /home/pragov/projects/rrg-bengioy-ad/pragov/crystal_structure_design/SSSP/O.pbe-n-kjpaw_psl.0.1.UPF
     MD5 check sum: 0234752ac141de4415c5fc33072bef88
     Pseudo is Projector augmented-wave + core cor, Zval =  6.0
     Generated using "atomic" code by A. Dal Corso  v.5.0.99 svn rev. 10869
     Shape of augmentation charge: BESSEL
     Using radial grid of 1095 points,  4 beta functions with:
                l(1) =   0
                l(2) =   0
                l(3) =   1
                l(4) =   1
     Q(r) pseudized with 0 coefficients

     atomic species   valence    mass     pseudopotential
        Li             3.00     6.94000     Li( 1.00)
        Si             4.00    28.08500     Si( 1.00)
        O              6.00    15.99900     O ( 1.00)

      2 Sym. Ops., with inversion, found

                                    s                        frac. trans.

      isym =  1     identity

 cryst.   s( 1) = (     1          0          0      )
                  (     0          1          0      )
                  (     0          0          1      )

 cart.    s( 1) = (  1.0000000  0.0000000  0.0000000 )
                  (  0.0000000  1.0000000 -0.0000000 )
                  (  0.0000000  0.0000000  1.0000000 )

      isym =  2     inversion

 cryst.   s( 2) = (    -1          0          0      )
                  (     0         -1          0      )
                  (     0          0         -1      )

 cart.    s( 2) = ( -1.0000000 -0.0000000 -0.0000000 )
                  (  0.0000000 -1.0000000  0.0000000 )
                  (  0.0000000  0.0000000 -1.0000000 )

   Cartesian axes

     site n.     atom                  positions (alat units)
         1           Li  tau(   1) = (   1.0372365   0.6848644   0.0087829  )
         2           Li  tau(   2) = (   0.8208446   0.2551682   1.4098693  )
         3           Li  tau(   3) = (   1.0089667   0.7146981   0.6294829  )
         4           Li  tau(   4) = (   0.8491144   0.2253344   0.7891692  )
         5           Li  tau(   5) = (   0.3689555   0.2357091   0.5795790  )
         6           Li  tau(   6) = (   1.4891256   0.7043235   0.8390732  )
         7           Li  tau(   7) = (   0.7842618   0.2005680   0.2730806  )
         8           Li  tau(   8) = (   1.0738193   0.7394646   1.1455715  )
         9           Si  tau(   9) = (   1.2949521   0.2104883   1.0824685  )
        10           Si  tau(  10) = (   0.5631291   0.7295443   0.3361837  )
        11           O   tau(  11) = (   1.0356653   0.0202110   1.1436450  )
        12           O   tau(  12) = (   0.8224158   0.9198215   0.2750071  )
        13           O   tau(  13) = (   0.6744171   0.4860454   0.5305844  )
        14           O   tau(  14) = (   1.1836641   0.4539872   0.8880677  )
        15           O   tau(  15) = (   1.3580338   0.9062589   0.5230571  )
        16           O   tau(  16) = (   0.5000473   0.0337737   0.8955951  )
        17           O   tau(  17) = (   0.4188242   0.6185797   0.0684273  )
        18           O   tau(  18) = (   1.4392569   0.3214528   1.3502249  )

   Crystallographic axes

     site n.     atom                  positions (cryst. coord.)
         1           Li  tau(   1) = (  0.7622830  0.7358630  0.0061910  )
         2           Li  tau(   2) = (  0.2377170  0.2641370  0.9938090  )
         3           Li  tau(   3) = (  0.5100510  0.7634940  0.4437190  )
         4           Li  tau(   4) = (  0.4899490  0.2365060  0.5562810  )
         5           Li  tau(   5) = (  0.0772950  0.2491490  0.4085420  )
         6           Li  tau(   6) = (  0.9227050  0.7508510  0.5914580  )
         7           Li  tau(   7) = (  0.6112970  0.2135740  0.1924930  )
         8           Li  tau(   8) = (  0.3887030  0.7864260  0.8075070  )
         9           Si  tau(   9) = (  0.8414510  0.2184610  0.7630260  )
        10           Si  tau(  10) = (  0.1585490  0.7815390  0.2369740  )
        11           O   tau(  11) = (  0.6368150  0.0135610  0.8061490  )
        12           O   tau(  12) = (  0.3631850  0.9864390  0.1938510  )
        13           O   tau(  13) = (  0.3000940  0.5184990  0.3740060  )
        14           O   tau(  14) = (  0.6999060  0.4815010  0.6259940  )
        15           O   tau(  15) = (  0.8194210  0.9700960  0.3687000  )
        16           O   tau(  16) = (  0.1805790  0.0299040  0.6313000  )
        17           O   tau(  17) = (  0.1498090  0.6642110  0.0482340  )
        18           O   tau(  18) = (  0.8501910  0.3357890  0.9517660  )

     number of k points=    14
                       cart. coord. in units 2pi/alat
        k(    1) = (   0.0000000   0.0000000   0.0000000), wk =   0.0740741
        k(    2) = (   0.0000000   0.0000000   0.2349648), wk =   0.1481481
        k(    3) = (   0.0000000   0.3581856  -0.0023775), wk =   0.1481481
        k(    4) = (   0.0000000   0.3581856   0.2325873), wk =   0.1481481
        k(    5) = (   0.0000000   0.3581856  -0.2373423), wk =   0.1481481
        k(    6) = (   0.3333333  -0.1323630  -0.1139120), wk =   0.1481481
        k(    7) = (   0.3333333  -0.1323630   0.1210528), wk =   0.1481481
        k(    8) = (   0.3333333  -0.1323630  -0.3488768), wk =   0.1481481
        k(    9) = (   0.3333333   0.2258226  -0.1162895), wk =   0.1481481
        k(   10) = (   0.3333333   0.2258226   0.1186753), wk =   0.1481481
        k(   11) = (   0.3333333   0.2258226  -0.3512543), wk =   0.1481481
        k(   12) = (   0.3333333  -0.4905486  -0.1115346), wk =   0.1481481
        k(   13) = (   0.3333333  -0.4905486   0.1234303), wk =   0.1481481
        k(   14) = (   0.3333333  -0.4905486  -0.3464994), wk =   0.1481481

                       cryst. coord.
        k(    1) = (   0.0000000   0.0000000   0.0000000), wk =   0.0740741
        k(    2) = (   0.0000000   0.0000000   0.3333333), wk =   0.1481481
        k(    3) = (   0.0000000   0.3333333  -0.0000000), wk =   0.1481481
        k(    4) = (   0.0000000   0.3333333   0.3333333), wk =   0.1481481
        k(    5) = (   0.0000000   0.3333333  -0.3333333), wk =   0.1481481
        k(    6) = (   0.3333333   0.0000000   0.0000000), wk =   0.1481481
        k(    7) = (   0.3333333   0.0000000   0.3333333), wk =   0.1481481
        k(    8) = (   0.3333333   0.0000000  -0.3333333), wk =   0.1481481
        k(    9) = (   0.3333333   0.3333333   0.0000000), wk =   0.1481481
        k(   10) = (   0.3333333   0.3333333   0.3333333), wk =   0.1481481
        k(   11) = (   0.3333333   0.3333333  -0.3333333), wk =   0.1481481
        k(   12) = (   0.3333333  -0.3333333   0.0000000), wk =   0.1481481
        k(   13) = (   0.3333333  -0.3333333   0.3333333), wk =   0.1481481
        k(   14) = (   0.3333333  -0.3333333  -0.3333333), wk =   0.1481481

     Check: negative core charge=   -0.000013

     Initial potential from superposition of free atoms

     starting charge      76.3929, renormalised to      80.0000
     Starting wfcs are   80 randomized atomic wfcs
     Checking if some PAW data can be deallocated...

     Self-consistent Calculation

     iteration #  1     ecut=    30.00 Ry     beta= 0.70
     Davidson diagonalization with overlap

     ethr =  1.00E-02,  avg # of iterations =  3.5

     total energy              =    -473.08915123 Ry
     estimated scf accuracy    <       0.90653763 Ry

[...]

     total energy              =    -473.42871760 Ry
     estimated scf accuracy    <       0.00000260 Ry

     iteration #  9     ecut=    30.00 Ry     beta= 0.70
     Davidson diagonalization with overlap

     ethr =  3.24E-09,  avg # of iterations =  2.0

     End of self-consistent calculation

          k = 0.0000 0.0000 0.0000 (  3173 PWs)   bands (ev):

   -39.6217 -39.5850 -39.5753 -39.5618 -39.2491 -39.2346 -39.2150 -39.2086
   -14.6971 -14.4451 -13.2945 -13.2238 -13.1976 -13.1591 -13.0362 -12.9953
    -2.3520  -2.2002  -0.7126  -0.3311  -0.2909  -0.1742  -0.1173   0.0629
     0.8482   0.9063   0.9845   0.9890   1.4498   1.5314   1.7257   2.3936
     2.4008   2.5460   2.6372   2.7573   2.7802   2.9879   3.0671   3.0727
     8.1408   9.4117  10.7508  11.5201  12.1893  12.7826  12.8330  12.9419
    13.4327  14.0693  14.1583  14.6205  14.8400  14.9908  15.5305  15.7540
    16.0462  16.6762  17.0274  17.0365  17.0857  17.2663  17.8920  18.0179

     occupation numbers
     1.0000   1.0000   1.0000   1.0000   1.0000   1.0000   1.0000   1.0000
     1.0000   1.0000   1.0000   1.0000   1.0000   1.0000   1.0000   1.0000
     1.0000   1.0000   1.0000   1.0000   1.0000   1.0000   1.0000   1.0000
     1.0000   1.0000   1.0000   1.0000   1.0000   1.0000   1.0000   1.0000
     1.0000   1.0000   1.0000   1.0000   1.0000   1.0000   1.0000   1.0000
     0.0000   0.0000   0.0000   0.0000   0.0000   0.0000   0.0000   0.0000
     0.0000   0.0000   0.0000   0.0000   0.0000   0.0000   0.0000   0.0000
     0.0000   0.0000   0.0000   0.0000   0.0000   0.0000   0.0000   0.0000

[...]

          k = 0.3333-0.4905-0.3465 (  3169 PWs)   bands (ev):

   -39.6005 -39.5979 -39.5804 -39.5652 -39.2404 -39.2344 -39.2252 -39.2077
   -14.5081 -14.4777 -13.3428 -13.3026 -13.1878 -13.1488 -13.1115 -13.0730
    -2.1363  -1.8310  -0.7288  -0.5573  -0.3100  -0.1838  -0.0948   0.2415
     0.7949   0.9496   1.2339   1.2570   1.4835   1.5687   1.8255   1.9220
     2.0472   2.0828   2.5757   2.6443   2.8227   2.8492   2.9641   3.2366
    10.3729  10.4107  10.6494  11.5050  11.7899  12.1277  12.4493  12.8496
    13.4088  13.6877  13.9664  14.4206  14.4826  14.7136  15.0903  15.5579
    15.6921  15.8682  16.1954  16.4620  17.1194  17.4331  17.9153  18.3131

     occupation numbers
     1.0000   1.0000   1.0000   1.0000   1.0000   1.0000   1.0000   1.0000
     1.0000   1.0000   1.0000   1.0000   1.0000   1.0000   1.0000   1.0000
     1.0000   1.0000   1.0000   1.0000   1.0000   1.0000   1.0000   1.0000
     1.0000   1.0000   1.0000   1.0000   1.0000   1.0000   1.0000   1.0000
     1.0000   1.0000   1.0000   1.0000   1.0000   1.0000   1.0000   1.0000
     0.0000   0.0000   0.0000   0.0000   0.0000   0.0000   0.0000   0.0000
     0.0000   0.0000   0.0000   0.0000   0.0000   0.0000   0.0000   0.0000
     0.0000   0.0000   0.0000   0.0000   0.0000   0.0000   0.0000   0.0000

     highest occupied, lowest unoccupied level (ev):     3.2850    8.1408

!    total energy              =    -473.42871785 Ry
     estimated scf accuracy    <       0.00000023 Ry

     The total energy is the sum of the following terms:
     one-electron contribution =    -156.60575838 Ry
     hartree contribution      =     108.81643945 Ry
     xc contribution           =    -100.84320702 Ry
     ewald contribution        =    -248.68869536 Ry
     one-center paw contrib.   =     -76.10749654 Ry
      -> PAW hartree energy AE =       0.00000000 Ry
      -> PAW hartree energy PS =       0.00000000 Ry
      -> PAW xc energy AE      =       0.00000000 Ry
      -> PAW xc energy PS      =       0.00000000 Ry
      -> total E_H with PAW    =     108.81643945 Ry
      -> total E_XC with PAW   =    -100.84320702 Ry

     convergence has been achieved in   9 iterations

     Writing all to output data dir calculations_bands/myprefix.save/

     General routines

     Parallel routines

     PAW routines

   This run was terminated on:   6:56:20   7Jun2023

   JOB DONE.