     Program PWSCF v.7.1 starts on 15Jul2023 at 18:13: 6

     Reading input from espresso_8317.pwi
Warning: card &CELL ignored
Warning: card / ignored

     Current dimensions of program PWSCF are:
     Max number of different atomic species (ntypx) = 10
     Max number of k-points (npk) =  40000
     Max angular momentum in pseudopotentials (lmaxx) =  4
     file La.paw.z_11.atompaw.wentzcovitch.v1.2.upf: wavefunction(s)  6S 0P 5D 0D 4F 0F renormalized
     file O.pbe-n-kjpaw_psl.0.1.UPF: wavefunction(s)  2P renormalized
     Message from routine setup:
     using ibrav=0 with symmetry is DISCOURAGED, use correct ibrav instead

     K-points division:     npool     =       2
     R & G space division:  proc/nbgrp/npool/nimage =       4
     Subspace diagonalization in iterative solution of the eigenvalue problem:
     one sub-group per band group will be used

     Using Slab Decomposition

     bravais-lattice index     =            0
     lattice parameter (alat)  =      11.3023  a.u.
     unit-cell volume          =    2099.1402 (a.u.)^3
     number of atoms/cell      =           20
     number of atomic types    =            4
     number of electrons       =       164.00
     number of Kohn-Sham states=          256
     kinetic-energy cutoff     =      30.0000  Ry
     charge density cutoff     =     240.0000  Ry
     scf convergence threshold =      1.0E-06
     mixing beta               =       0.7000
     number of iterations used =            8  plain     mixing
     Exchange-correlation= SLA  PW   PBX  PBC
                           (   1   4   3   4   0   0   0)

     celldm(1)=  11.302291  celldm(2)=   0.000000  celldm(3)=   0.000000
     celldm(4)=   0.000000  celldm(5)=   0.000000  celldm(6)=   0.000000

     crystal axes: (cart. coord. in units of alat)
               a(1) = (   1.000000   0.000000   0.000000 )
               a(2) = (   0.000000   1.021154   0.000000 )
               a(3) = (  -0.978682   0.000000   1.423806 )

     reciprocal axes: (cart. coord. in units 2 pi/alat)
               b(1) = (  1.000000  0.000000  0.687371 )
               b(2) = (  0.000000  0.979284  0.000000 )
               b(3) = (  0.000000  0.000000  0.702343 )

     PseudoPot. # 1 for Sr read from file:
     /lustre07/scratch/pragov/crystal_structure_design/utils/SSSP/Sr_pbe_v1.uspp.F.UPF
     MD5 check sum: 6b418c05fbe9db5448babca5e47b7a5b
     Pseudo is Ultrasoft + core correction, Zval = 10.0
     Generated by new atomic code, or converted to UPF format
     Using radial grid of  883 points,  6 beta functions with:
                l(1) =   0
                l(2) =   0
                l(3) =   1
                l(4) =   1
                l(5) =   2
                l(6) =   2
     Q(r) pseudized with  6 coefficients,  rinner =    1.400   1.400   1.400
                                                       1.400   1.400

     PseudoPot. # 2 for La read from file:
     /lustre07/scratch/pragov/crystal_structure_design/utils/SSSP/La.paw.z_11.atompaw.wentzcovitch.v1.2.upf
     MD5 check sum: 754494e15ae71f30e5b5f678af019e01
     Pseudo is Projector augmented-wave + core cor, Zval = 11.0
     Generated using ATOMPAW code
     Shape of augmentation charge: BESSEL
     Using radial grid of 1101 points,  8 beta functions with:
                l(1) =   0
                l(2) =   0
                l(3) =   1
                l(4) =   1
                l(5) =   2
                l(6) =   2
                l(7) =   3
                l(8) =   3
     Q(r) pseudized with 0 coefficients

     PseudoPot. # 3 for Sb read from file:
     /lustre07/scratch/pragov/crystal_structure_design/utils/SSSP/sb_pbe_v1.4.uspp.F.UPF
     MD5 check sum: 9bc50dfb53373b713f5709b9110fe27f
     Pseudo is Ultrasoft + core correction, Zval = 15.0
     Generated by new atomic code, or converted to UPF format
     Using radial grid of  891 points,  6 beta functions with:
                l(1) =   0
                l(2) =   0
                l(3) =   1
                l(4) =   1
                l(5) =   2
                l(6) =   2
     Q(r) pseudized with  8 coefficients,  rinner =    1.350   1.350   1.350
                                                       1.350   1.350

     PseudoPot. # 4 for O  read from file:
     /lustre07/scratch/pragov/crystal_structure_design/utils/SSSP/O.pbe-n-kjpaw_psl.0.1.UPF
     MD5 check sum: 0234752ac141de4415c5fc33072bef88
     Pseudo is Projector augmented-wave + core cor, Zval =  6.0
     Generated using "atomic" code by A. Dal Corso  v.5.0.99 svn rev. 10869
     Shape of augmentation charge: BESSEL
     Using radial grid of 1095 points,  4 beta functions with:
                l(1) =   0
                l(2) =   0
                l(3) =   1
                l(4) =   1
     Q(r) pseudized with 0 coefficients

     atomic species   valence    mass     pseudopotential
        Sr            10.00    87.62000     Sr( 1.00)
        La            11.00   138.90547     La( 1.00)
        Sb            15.00   121.76000     Sb( 1.00)
        O              6.00    15.99900     O ( 1.00)

      4 Sym. Ops., with inversion, found ( 2 have fractional translation)

                                    s                        frac. trans.

      isym =  1     identity

 cryst.   s( 1) = (     1          0          0      )
                  (     0          1          0      )
                  (     0          0          1      )

 cart.    s( 1) = (  1.0000000  0.0000000  0.0000000 )
                  (  0.0000000  1.0000000  0.0000000 )
                  (  0.0000000  0.0000000  1.0000000 )

      isym =  2     180 deg rotation - cart. axis [0,1,0]

 cryst.   s( 2) = (    -1          0          0      )    f =(  0.0000000 )
                  (     0          1          0      )       ( -0.5000000 )
                  (     0          0         -1      )       ( -0.5000000 )

 cart.    s( 2) = ( -1.0000000  0.0000000  0.0000000 )    f =(  0.4893412 )
                  (  0.0000000  1.0000000  0.0000000 )       ( -0.5105770 )
                  (  0.0000000  0.0000000 -1.0000000 )       ( -0.7119029 )

      isym =  3     inversion

 cryst.   s( 3) = (    -1          0          0      )
                  (     0         -1          0      )
                  (     0          0         -1      )

 cart.    s( 3) = ( -1.0000000  0.0000000  0.0000000 )
                  (  0.0000000 -1.0000000  0.0000000 )
                  (  0.0000000  0.0000000 -1.0000000 )

      isym =  4     inv. 180 deg rotation - cart. axis [0,1,0]

 cryst.   s( 4) = (     1          0          0      )    f =( -0.0000000 )
                  (     0         -1          0      )       (  0.5000000 )
                  (     0          0          1      )       ( -0.5000000 )

 cart.    s( 4) = (  1.0000000  0.0000000  0.0000000 )    f =(  0.4893412 )
                  (  0.0000000 -1.0000000  0.0000000 )       (  0.5105770 )
                  (  0.0000000  0.0000000  1.0000000 )       ( -0.7119029 )

   Cartesian axes

     site n.     atom                  positions (alat units)
         1           Sr  tau(   1) = (  -0.5007778   0.4667685   1.0669146  )
         2           Sr  tau(   2) = (  -0.0114367   0.0438085   0.3550117  )
         3           Sr  tau(   3) = (   0.5220955   0.5543855   0.3568911  )
         4           Sr  tau(   4) = (   0.0327543   0.9773454   1.0687940  )
         5           La  tau(   5) = (   0.0106588   0.5105770   0.7119029  )
         6           La  tau(   6) = (   0.5000000   0.0000000   0.0000000  )
         7           Sb  tau(   7) = (  -0.4893412   0.0000000   0.7119029  )
         8           Sb  tau(   8) = (   0.0000000   0.5105770   0.0000000  )
         9           O   tau(   9) = (   0.2472744   0.2016575   0.7843390  )
        10           O   tau(  10) = (   0.7366155   0.3089195   0.0724361  )
        11           O   tau(  11) = (  -0.2259567   0.8194965   0.6394667  )
        12           O   tau(  12) = (  -0.7152979   0.7122345   1.3513696  )
        13           O   tau(  13) = (  -0.7904399   0.2392523   1.3364054  )
        14           O   tau(  14) = (  -0.3010988   0.2713247   0.6245025  )
        15           O   tau(  15) = (   0.8117576   0.7819017   0.0874003  )
        16           O   tau(  16) = (   0.3224164   0.7498293   0.7993032  )
        17           O   tau(  17) = (  -0.3818594   0.0400742   1.0334153  )
        18           O   tau(  18) = (   0.1074818   0.4705028   0.3215124  )
        19           O   tau(  19) = (   0.4031770   0.9810798   0.3903904  )
        20           O   tau(  20) = (  -0.0861641   0.5506511   1.1022933  )

   Crystallographic axes

     site n.     atom                  positions (cryst. coord.)
         1           Sr  tau(   1) = (  0.2325880  0.4570990  0.7493400  )
         2           Sr  tau(   2) = (  0.2325880  0.0429010  0.2493400  )
         3           Sr  tau(   3) = (  0.7674120  0.5429010  0.2506600  )
         4           Sr  tau(   4) = (  0.7674120  0.9570990  0.7506600  )
         5           La  tau(   5) = (  0.5000000  0.5000000  0.5000000  )
         6           La  tau(   6) = (  0.5000000  0.0000000  0.0000000  )
         7           Sb  tau(   7) = (  0.0000000  0.0000000  0.5000000  )
         8           Sb  tau(   8) = (  0.0000000  0.5000000  0.0000000  )
         9           O   tau(   9) = (  0.7864060  0.1974800  0.5508750  )
        10           O   tau(  10) = (  0.7864060  0.3025200  0.0508750  )
        11           O   tau(  11) = (  0.2135940  0.8025200  0.4491250  )
        12           O   tau(  12) = (  0.2135940  0.6974800  0.9491250  )
        13           O   tau(  13) = (  0.1281660  0.2342960  0.9386150  )
        14           O   tau(  14) = (  0.1281660  0.2657040  0.4386150  )
        15           O   tau(  15) = (  0.8718340  0.7657040  0.0613850  )
        16           O   tau(  16) = (  0.8718340  0.7342960  0.5613850  )
        17           O   tau(  17) = (  0.3284800  0.0392440  0.7258120  )
        18           O   tau(  18) = (  0.3284800  0.4607560  0.2258120  )
        19           O   tau(  19) = (  0.6715200  0.9607560  0.2741880  )
        20           O   tau(  20) = (  0.6715200  0.5392440  0.7741880  )

     number of k points=    10
                       cart. coord. in units 2pi/alat
        k(    1) = (   0.0000000   0.0000000   0.0000000), wk =   0.0740741
        k(    2) = (   0.0000000   0.0000000   0.2341143), wk =   0.1481481
        k(    3) = (   0.0000000   0.3264281   0.0000000), wk =   0.1481481
        k(    4) = (   0.0000000   0.3264281   0.2341143), wk =   0.2962963
        k(    5) = (   0.3333333   0.0000000   0.2291236), wk =   0.1481481
        k(    6) = (   0.3333333   0.0000000   0.4632379), wk =   0.1481481
        k(    7) = (   0.3333333   0.0000000  -0.0049908), wk =   0.1481481
        k(    8) = (   0.3333333   0.3264281   0.2291236), wk =   0.2962963
        k(    9) = (   0.3333333   0.3264281   0.4632379), wk =   0.2962963
        k(   10) = (   0.3333333   0.3264281  -0.0049908), wk =   0.2962963

                       cryst. coord.
        k(    1) = (   0.0000000   0.0000000   0.0000000), wk =   0.0740741
        k(    2) = (   0.0000000   0.0000000   0.3333333), wk =   0.1481481
        k(    3) = (   0.0000000   0.3333333   0.0000000), wk =   0.1481481
        k(    4) = (   0.0000000   0.3333333   0.3333333), wk =   0.2962963
        k(    5) = (   0.3333333   0.0000000   0.0000000), wk =   0.1481481
        k(    6) = (   0.3333333   0.0000000   0.3333333), wk =   0.1481481
        k(    7) = (   0.3333333   0.0000000  -0.3333333), wk =   0.1481481
        k(    8) = (   0.3333333   0.3333333   0.0000000), wk =   0.2962963
        k(    9) = (   0.3333333   0.3333333   0.3333333), wk =   0.2962963
        k(   10) = (   0.3333333   0.3333333  -0.3333333), wk =   0.2962963

     Check: negative core charge=   -0.000011

     Initial potential from superposition of free atoms

     starting charge     161.8483, renormalised to     164.0000

     negative rho (up, down):  2.587E-01 0.000E+00
     Starting wfcs are  182 randomized atomic wfcs +   74 random wfcs
     Checking if some PAW data can be deallocated...

     Self-consistent Calculation

     iteration #  1     ecut=    30.00 Ry     beta= 0.70
     Davidson diagonalization with overlap

     ethr =  1.00E-02,  avg # of iterations =  6.0

     negative rho (up, down):  2.585E-01 0.000E+00

     total energy              =   -2065.95595601 Ry
     estimated scf accuracy    <       4.71375491 Ry

[...]

     c_bands:  1 eigenvalues not converged
     ethr =  4.34E-05,  avg # of iterations = 10.4

[...]

     total energy              =   -2068.20348187 Ry
     estimated scf accuracy    <       0.00000270 Ry

     iteration #  9     ecut=    30.00 Ry     beta= 0.70
     Davidson diagonalization with overlap

     ethr =  1.65E-09,  avg # of iterations =  3.1

     negative rho (up, down):  2.683E-01 0.000E+00

     End of self-consistent calculation

          k = 0.0000 0.0000 0.0000 (  5801 PWs)   bands (ev):

   -24.2259 -24.2175 -24.2070 -24.2016 -21.2584 -21.2545 -19.8443 -19.8394
   -19.8254 -19.8242 -19.6955 -19.6945 -19.6920 -19.6912 -19.6838 -19.6834
    -9.2575  -9.0458  -8.8261  -8.8164  -8.5991  -8.4605  -8.4175  -8.3293
    -7.7884  -7.7792  -7.4561  -7.4529  -6.3272  -6.3136  -6.2729  -6.2641
    -6.2571  -6.2198  -6.2156  -5.9928  -5.9296  -5.8904  -5.7754  -5.7752
    -4.6075  -4.5658  -4.5575  -4.5265  -4.4988  -4.4890   1.0183   1.1435
     4.8485   4.9653   5.1277   5.1490   5.2203   5.2415   5.3948   5.9489
     6.0460   6.1061   6.2857   6.3087   6.4401   6.4764   7.0079   7.0792
     7.0916   7.1974   7.2909   7.3517   7.4202   7.4483   7.4513   7.4815
     7.5356   7.6595   7.7098   7.8073   7.8293   7.8483   7.8977   7.9149
     7.9168   8.1524  11.7163  11.8207  13.6244  13.6359  13.7876  13.8112
    13.8265  13.8436  13.8560  13.8614  13.8660  13.8728  13.9046  13.9059
    13.9416  13.9489  13.9652  14.0619  14.0979  14.1998  14.2884  14.4410
    14.6109  15.1848  15.2349  15.3255  15.3628  15.4792  15.5149  15.9869
    16.2287  16.3692  16.3718  16.5442  16.8389  17.1133  17.2049  17.3516
    17.5123  17.5497  17.5697  17.7724  17.7780  17.9093  17.9324  17.9686
    18.1041  18.6030  18.6756  18.7305  18.8574  18.9322  18.9351  19.0276
    19.2913  19.4625  19.9321  20.5568  20.6161  20.9924  21.3290  21.9449
    22.1954  22.2309  22.5899  22.7106  22.7725  22.8402  23.2647  23.3216
    23.5556  23.5969  24.2389  24.2753  24.4866  24.5166  24.6965  24.9909
    25.2017  25.6784  25.9609  26.4169  26.4630  26.5750  26.7902  26.8663
    26.9146  27.1152  27.7226  27.8034  28.2329  28.6185  28.8564  28.8793
    29.2223  29.2573  29.3032  29.4478  29.5509  29.7544  30.0967  30.1581
    30.1721  30.3402  30.4813  30.6900  30.8093  31.0162  31.0397  31.0800
    31.5051  31.8327  32.1516  32.5475  32.6341  32.6430  32.7756  32.9616
    33.2910  33.2927  33.4865  33.5160  33.5719  33.8365  33.8735  34.1531
    34.2461  34.3266  34.3299  34.5118  34.9643  35.0475  35.0879  35.1507
    35.4013  35.5411  35.9351  35.9670  36.1080  36.3317  36.5088  36.8587
    36.8816  36.9676  37.0942  37.2235  37.4699  37.5433  37.6139  37.6165
    37.8327  38.0787  38.1814  38.1996  38.4401  38.5018  38.6490  38.6886
    38.7812  38.9405  38.9438  39.1774  39.4237  39.6269  39.6950  39.6985
    39.7265  39.9861  40.1254  40.4370  40.4538  40.5387  40.7435  40.9868

     occupation numbers
     1.0000   1.0000   1.0000   1.0000   1.0000   1.0000   1.0000   1.0000
     1.0000   1.0000   1.0000   1.0000   1.0000   1.0000   1.0000   1.0000
     1.0000   1.0000   1.0000   1.0000   1.0000   1.0000   1.0000   1.0000
     1.0000   1.0000   1.0000   1.0000   1.0000   1.0000   1.0000   1.0000
     1.0000   1.0000   1.0000   1.0000   1.0000   1.0000   1.0000   1.0000
     1.0000   1.0000   1.0000   1.0000   1.0000   1.0000   1.0000   1.0000
     1.0000   1.0000   1.0000   1.0000   1.0000   1.0000   1.0000   1.0000
     1.0000   1.0000   1.0000   1.0000   1.0000   1.0000   1.0000   1.0000
     1.0000   1.0000   1.0000   1.0000   1.0000   1.0000   1.0000   1.0000
     1.0000   1.0000   1.0000   1.0000   1.0000   1.0000   1.0000   1.0000
     1.0000   1.0000   0.0000   0.0000   0.0000   0.0000   0.0000   0.0000
     0.0000   0.0000   0.0000   0.0000   0.0000   0.0000   0.0000   0.0000
     0.0000   0.0000   0.0000   0.0000   0.0000   0.0000   0.0000   0.0000
     0.0000   0.0000   0.0000   0.0000   0.0000   0.0000   0.0000   0.0000
     0.0000   0.0000   0.0000   0.0000   0.0000   0.0000   0.0000   0.0000
     0.0000   0.0000   0.0000   0.0000   0.0000   0.0000   0.0000   0.0000
     0.0000   0.0000   0.0000   0.0000   0.0000   0.0000   0.0000   0.0000
     0.0000   0.0000   0.0000   0.0000   0.0000   0.0000   0.0000   0.0000
     0.0000   0.0000   0.0000   0.0000   0.0000   0.0000   0.0000   0.0000
     0.0000   0.0000   0.0000   0.0000   0.0000   0.0000   0.0000   0.0000
     0.0000   0.0000   0.0000   0.0000   0.0000   0.0000   0.0000   0.0000
     0.0000   0.0000   0.0000   0.0000   0.0000   0.0000   0.0000   0.0000
     0.0000   0.0000   0.0000   0.0000   0.0000   0.0000   0.0000   0.0000
     0.0000   0.0000   0.0000   0.0000   0.0000   0.0000   0.0000   0.0000
     0.0000   0.0000   0.0000   0.0000   0.0000   0.0000   0.0000   0.0000
     0.0000   0.0000   0.0000   0.0000   0.0000   0.0000   0.0000   0.0000
     0.0000   0.0000   0.0000   0.0000   0.0000   0.0000   0.0000   0.0000
     0.0000   0.0000   0.0000   0.0000   0.0000   0.0000   0.0000   0.0000
     0.0000   0.0000   0.0000   0.0000   0.0000   0.0000   0.0000   0.0000
     0.0000   0.0000   0.0000   0.0000   0.0000   0.0000   0.0000   0.0000
     0.0000   0.0000   0.0000   0.0000   0.0000   0.0000   0.0000   0.0000
     0.0000   0.0000   0.0000   0.0000   0.0000   0.0000   0.0000   0.0000

[...]

          k = 0.3333 0.3264-0.0050 (  5829 PWs)   bands (ev):

   -24.2181 -24.2139 -24.2109 -24.2075 -21.2581 -21.2571 -19.8433 -19.8418
   -19.8278 -19.8262 -19.6994 -19.6989 -19.6937 -19.6915 -19.6846 -19.6828
    -9.3838  -9.2961  -8.7435  -8.6486  -8.6144  -8.4970  -8.3996  -8.3149
    -7.7673  -7.7128  -7.4803  -7.4695  -6.2729  -6.2536  -6.2375  -6.2108
    -6.1841  -6.1230  -6.0875  -6.0540  -5.9984  -5.9471  -5.8537  -5.7806
    -4.5900  -4.5854  -4.5509  -4.5291  -4.5149  -4.4790   1.1766   1.2327
     4.4616   4.5583   4.9192   4.9319   5.0097   5.0752   5.6443   5.8005
     6.2106   6.3622   6.4243   6.5158   6.6336   6.7975   6.9096   6.9842
     7.1015   7.1558   7.1769   7.2396   7.2707   7.3586   7.4096   7.4335
     7.5149   7.5506   7.6242   7.6986   7.7114   7.7353   7.8200   7.9478
     8.0757   8.1913  12.0952  12.2065  13.5624  13.5909  13.7512  13.8090
    13.8348  13.8437  13.8515  13.8749  13.9237  13.9327  13.9563  13.9812
    13.9895  14.0008  14.0301  14.0831  14.1534  14.2385  14.3929  14.4940
    14.7098  15.0847  15.3151  15.5325  15.5803  15.6668  15.8632  16.0870
    16.2022  16.3763  16.4161  16.6110  16.8192  16.9493  17.0063  17.1697
    17.2092  17.3918  17.4969  17.5566  17.6768  17.8134  18.0767  18.1671
    18.4240  18.4549  18.5369  18.6898  18.8509  19.1172  19.2048  19.5174
    19.6572  19.6643  19.9566  20.0077  20.1224  20.3263  20.6124  21.1672
    21.9787  22.2794  22.3567  22.7427  22.8547  23.0652  23.3225  23.6873
    23.8433  24.1526  24.3007  24.4278  24.5503  24.7164  24.9123  25.3127
    25.4720  25.5901  25.8460  25.9491  26.3108  26.9065  26.9864  27.0802
    27.2988  27.5086  27.6231  27.9133  28.1347  28.2615  28.3430  28.4701
    28.7996  29.1274  29.2577  29.5278  29.6897  29.9101  30.0993  30.1579
    30.4555  30.4866  30.6045  30.9351  31.0174  31.2271  31.4077  31.5440
    31.7512  31.8217  31.9914  32.1229  32.2026  32.4102  32.5419  32.6475
    32.7922  32.9787  33.2810  33.4703  33.5205  33.6654  33.8602  33.9672
    34.0126  34.1629  34.3054  34.3605  34.5826  34.8197  35.1313  35.2982
    35.3613  35.4955  35.6514  35.7350  35.8993  36.0975  36.1907  36.3600
    36.6139  36.6720  36.8653  37.0254  37.2061  37.2685  37.4275  37.5897
    37.7076  37.7444  37.8365  38.0474  38.2459  38.3541  38.4064  38.7093
    38.8048  38.8920  39.0180  39.2888  39.5393  39.6083  39.8113  39.9724
    40.1636  40.2338  40.3137  40.4658  40.5652  40.5895  40.8324  40.8801

     occupation numbers
     1.0000   1.0000   1.0000   1.0000   1.0000   1.0000   1.0000   1.0000
     1.0000   1.0000   1.0000   1.0000   1.0000   1.0000   1.0000   1.0000
     1.0000   1.0000   1.0000   1.0000   1.0000   1.0000   1.0000   1.0000
     1.0000   1.0000   1.0000   1.0000   1.0000   1.0000   1.0000   1.0000
     1.0000   1.0000   1.0000   1.0000   1.0000   1.0000   1.0000   1.0000
     1.0000   1.0000   1.0000   1.0000   1.0000   1.0000   1.0000   1.0000
     1.0000   1.0000   1.0000   1.0000   1.0000   1.0000   1.0000   1.0000
     1.0000   1.0000   1.0000   1.0000   1.0000   1.0000   1.0000   1.0000
     1.0000   1.0000   1.0000   1.0000   1.0000   1.0000   1.0000   1.0000
     1.0000   1.0000   1.0000   1.0000   1.0000   1.0000   1.0000   1.0000
     1.0000   1.0000   0.0000   0.0000   0.0000   0.0000   0.0000   0.0000
     0.0000   0.0000   0.0000   0.0000   0.0000   0.0000   0.0000   0.0000
     0.0000   0.0000   0.0000   0.0000   0.0000   0.0000   0.0000   0.0000
     0.0000   0.0000   0.0000   0.0000   0.0000   0.0000   0.0000   0.0000
     0.0000   0.0000   0.0000   0.0000   0.0000   0.0000   0.0000   0.0000
     0.0000   0.0000   0.0000   0.0000   0.0000   0.0000   0.0000   0.0000
     0.0000   0.0000   0.0000   0.0000   0.0000   0.0000   0.0000   0.0000
     0.0000   0.0000   0.0000   0.0000   0.0000   0.0000   0.0000   0.0000
     0.0000   0.0000   0.0000   0.0000   0.0000   0.0000   0.0000   0.0000
     0.0000   0.0000   0.0000   0.0000   0.0000   0.0000   0.0000   0.0000
     0.0000   0.0000   0.0000   0.0000   0.0000   0.0000   0.0000   0.0000
     0.0000   0.0000   0.0000   0.0000   0.0000   0.0000   0.0000   0.0000
     0.0000   0.0000   0.0000   0.0000   0.0000   0.0000   0.0000   0.0000
     0.0000   0.0000   0.0000   0.0000   0.0000   0.0000   0.0000   0.0000
     0.0000   0.0000   0.0000   0.0000   0.0000   0.0000   0.0000   0.0000
     0.0000   0.0000   0.0000   0.0000   0.0000   0.0000   0.0000   0.0000
     0.0000   0.0000   0.0000   0.0000   0.0000   0.0000   0.0000   0.0000
     0.0000   0.0000   0.0000   0.0000   0.0000   0.0000   0.0000   0.0000
     0.0000   0.0000   0.0000   0.0000   0.0000   0.0000   0.0000   0.0000
     0.0000   0.0000   0.0000   0.0000   0.0000   0.0000   0.0000   0.0000
     0.0000   0.0000   0.0000   0.0000   0.0000   0.0000   0.0000   0.0000
     0.0000   0.0000   0.0000   0.0000   0.0000   0.0000   0.0000   0.0000

     highest occupied, lowest unoccupied level (ev):     8.2981   11.7163

!    total energy              =   -2068.20348252 Ry
     estimated scf accuracy    <       0.00000021 Ry

     The total energy is the sum of the following terms:
     one-electron contribution =    -344.51264045 Ry
     hartree contribution      =     275.28495531 Ry
     xc contribution           =    -278.12465893 Ry
     ewald contribution        =    -819.28915689 Ry
     one-center paw contrib.   =    -901.56198157 Ry
      -> PAW hartree energy AE =       0.00000000 Ry
      -> PAW hartree energy PS =       0.00000000 Ry
      -> PAW xc energy AE      =       0.00000000 Ry
      -> PAW xc energy PS      =       0.00000000 Ry
      -> total E_H with PAW    =     275.28495531 Ry
      -> total E_XC with PAW   =    -278.12465893 Ry

     convergence has been achieved in   9 iterations

     Writing all to output data dir bands_nm/myprefix.save/

     General routines

     Parallel routines

     PAW routines

   This run was terminated on:  18:14:25  15Jul2023

   JOB DONE.