     Program PWSCF v.7.1 starts on 13Jul2023 at  6:35: 3

     Reading input from espresso_5493.pwi
Warning: card &CELL ignored
Warning: card / ignored

     Current dimensions of program PWSCF are:
     Max number of different atomic species (ntypx) = 10
     Max number of k-points (npk) =  40000
     Max angular momentum in pseudopotentials (lmaxx) =  4
     file O.pbe-n-kjpaw_psl.0.1.UPF: wavefunction(s)  2P renormalized
     Message from routine setup:
     using ibrav=0 with symmetry is DISCOURAGED, use correct ibrav instead

     K-points division:     npool     =       2
     R & G space division:  proc/nbgrp/npool/nimage =       8
     Subspace diagonalization in iterative solution of the eigenvalue problem:
     a serial algorithm will be used

     Using Slab Decomposition

     bravais-lattice index     =            0
     lattice parameter (alat)  =      10.4599  a.u.
     unit-cell volume          =    1028.9146 (a.u.)^3
     number of atoms/cell      =           12
     number of atomic types    =            3
     number of electrons       =       112.00
     number of Kohn-Sham states=           64
     kinetic-energy cutoff     =      30.0000  Ry
     charge density cutoff     =     240.0000  Ry
     scf convergence threshold =      1.0E-06
     mixing beta               =       0.7000
     number of iterations used =            8  plain     mixing
     Exchange-correlation= SLA  PW   PBX  PBC
                           (   1   4   3   4   0   0   0)

     celldm(1)=  10.459865  celldm(2)=   0.000000  celldm(3)=   0.000000
     celldm(4)=   0.000000  celldm(5)=   0.000000  celldm(6)=   0.000000

     crystal axes: (cart. coord. in units of alat)
               a(1) = (   1.000000   0.000000   0.000000 )
               a(2) = (   0.000000   0.934239   0.000000 )
               a(3) = (   0.000000   0.112302   0.962372 )

     reciprocal axes: (cart. coord. in units 2 pi/alat)
               b(1) = (  1.000000  0.000000  0.000000 )
               b(2) = (  0.000000  1.070390 -0.124907 )
               b(3) = (  0.000000  0.000000  1.039099 )

     PseudoPot. # 1 for Tb read from file:
     /lustre07/scratch/pragov/crystal_structure_design/utils/SSSP/Tb.GGA-PBE-paw-v1.0.UPF
     MD5 check sum: f7bf3d58e9b293961564f5b9598c921e
     Pseudo is Projector augmented-wave + core cor, Zval = 19.0
     Generated using ATOMPAW code
     Shape of augmentation charge: BESSEL
     Using radial grid of 1111 points,  8 beta functions with:
                l(1) =   0
                l(2) =   0
                l(3) =   1
                l(4) =   1
                l(5) =   2
                l(6) =   2
                l(7) =   3
                l(8) =   3
     Q(r) pseudized with 0 coefficients

     PseudoPot. # 2 for Ta read from file:
     /lustre07/scratch/pragov/crystal_structure_design/utils/SSSP/Ta_pbe_v1.uspp.F.UPF
     MD5 check sum: f8bbe9446314a3b8ea5d9f3e3836c939
     Pseudo is Ultrasoft + core correction, Zval = 13.0
     Generated by new atomic code, or converted to UPF format
     Using radial grid of  921 points,  7 beta functions with:
                l(1) =   0
                l(2) =   0
                l(3) =   1
                l(4) =   1
                l(5) =   2
                l(6) =   2
                l(7) =   3
     Q(r) pseudized with  6 coefficients,  rinner =    1.300   1.300   1.300
                                                       1.300   1.300   1.300
                                                       1.300

     PseudoPot. # 3 for O  read from file:
     /lustre07/scratch/pragov/crystal_structure_design/utils/SSSP/O.pbe-n-kjpaw_psl.0.1.UPF
     MD5 check sum: 0234752ac141de4415c5fc33072bef88
     Pseudo is Projector augmented-wave + core cor, Zval =  6.0
     Generated using "atomic" code by A. Dal Corso  v.5.0.99 svn rev. 10869
     Shape of augmentation charge: BESSEL
     Using radial grid of 1095 points,  4 beta functions with:
                l(1) =   0
                l(2) =   0
                l(3) =   1
                l(4) =   1
     Q(r) pseudized with 0 coefficients

     atomic species   valence    mass     pseudopotential
        Tb            19.00   158.92535     Tb( 1.00)
        Ta            13.00   180.94788     Ta( 1.00)
        O              6.00    15.99900     O ( 1.00)

      4 Sym. Ops., with inversion, found ( 2 have fractional translation)

                                    s                        frac. trans.

      isym =  1     identity

 cryst.   s( 1) = (     1          0          0      )
                  (     0          1          0      )
                  (     0          0          1      )

 cart.    s( 1) = (  1.0000000  0.0000000  0.0000000 )
                  (  0.0000000  1.0000000  0.0000000 )
                  (  0.0000000  0.0000000  1.0000000 )

      isym =  2     180 deg rotation - cart. axis [1,0,0]

 cryst.   s( 2) = (     1          0          0      )    f =(  0.0000000 )
                  (     0         -1          0      )       ( -0.0000000 )
                  (     0          0         -1      )       ( -0.5000000 )

 cart.    s( 2) = (  1.0000000  0.0000000  0.0000000 )    f =(  0.0000000 )
                  (  0.0000000 -1.0000000  0.0000000 )       ( -0.0561510 )
                  (  0.0000000  0.0000000 -1.0000000 )       ( -0.4811861 )

      isym =  3     inversion

 cryst.   s( 3) = (    -1          0          0      )
                  (     0         -1          0      )
                  (     0          0         -1      )

 cart.    s( 3) = ( -1.0000000  0.0000000  0.0000000 )
                  (  0.0000000 -1.0000000  0.0000000 )
                  (  0.0000000  0.0000000 -1.0000000 )

      isym =  4     inv. 180 deg rotation - cart. axis [1,0,0]

 cryst.   s( 4) = (    -1          0          0      )    f =(  0.0000000 )
                  (     0          1          0      )       (  0.0000000 )
                  (     0          0          1      )       ( -0.5000000 )

 cart.    s( 4) = ( -1.0000000  0.0000000  0.0000000 )    f =(  0.0000000 )
                  (  0.0000000  1.0000000  0.0000000 )       ( -0.0561510 )
                  (  0.0000000  0.0000000  1.0000000 )       ( -0.4811861 )

   Cartesian axes

     site n.     atom                  positions (alat units)
         1           Tb  tau(   1) = (   0.7666180   0.0842265   0.7217791  )
         2           Tb  tau(   2) = (   0.2333820   0.0280755   0.2405930  )
         3           Ta  tau(   3) = (   0.6921200   0.4951951   0.2405930  )
         4           Ta  tau(   4) = (   0.3078800   0.5513461   0.7217791  )
         5           O   tau(   5) = (   0.5640880   0.2523249   0.0053720  )
         6           O   tau(   6) = (   0.5640880   0.7380653   0.4758141  )
         7           O   tau(   7) = (   0.4359120   0.7942162   0.9570001  )
         8           O   tau(   8) = (   0.4359120   0.3084759   0.4865580  )
         9           O   tau(   9) = (   0.0866320   0.7678475   0.5793682  )
        10           O   tau(  10) = (   0.0866320   0.3348446   0.8641899  )
        11           O   tau(  11) = (   0.9133680   0.2786936   0.3830039  )
        12           O   tau(  12) = (   0.9133680   0.7116965   0.0981822  )

   Crystallographic axes

     site n.     atom                  positions (cryst. coord.)
         1           Tb  tau(   1) = (  0.7666180  0.0000000  0.7500000  )
         2           Tb  tau(   2) = (  0.2333820  0.0000000  0.2500000  )
         3           Ta  tau(   3) = (  0.6921200  0.5000000  0.2500000  )
         4           Ta  tau(   4) = (  0.3078800  0.5000000  0.7500000  )
         5           O   tau(   5) = (  0.5640880  0.2694150  0.0055820  )
         6           O   tau(   6) = (  0.5640880  0.7305850  0.4944180  )
         7           O   tau(   7) = (  0.4359120  0.7305850  0.9944180  )
         8           O   tau(   8) = (  0.4359120  0.2694150  0.5055820  )
         9           O   tau(   9) = (  0.0866320  0.7495290  0.6020210  )
        10           O   tau(  10) = (  0.0866320  0.2504710  0.8979790  )
        11           O   tau(  11) = (  0.9133680  0.2504710  0.3979790  )
        12           O   tau(  12) = (  0.9133680  0.7495290  0.1020210  )

     number of k points=    10
                       cart. coord. in units 2pi/alat
        k(    1) = (   0.0000000   0.0000000   0.0000000), wk =   0.0740741
        k(    2) = (   0.0000000   0.0000000   0.3463664), wk =   0.1481481
        k(    3) = (   0.0000000   0.3567966  -0.0416356), wk =   0.1481481
        k(    4) = (   0.0000000   0.3567966   0.3047308), wk =   0.1481481
        k(    5) = (   0.0000000   0.3567966  -0.3880020), wk =   0.1481481
        k(    6) = (   0.3333333   0.0000000   0.0000000), wk =   0.1481481
        k(    7) = (   0.3333333   0.0000000   0.3463664), wk =   0.2962963
        k(    8) = (   0.3333333   0.3567966  -0.0416356), wk =   0.2962963
        k(    9) = (   0.3333333   0.3567966   0.3047308), wk =   0.2962963
        k(   10) = (   0.3333333   0.3567966  -0.3880020), wk =   0.2962963

                       cryst. coord.
        k(    1) = (   0.0000000   0.0000000   0.0000000), wk =   0.0740741
        k(    2) = (   0.0000000   0.0000000   0.3333333), wk =   0.1481481
        k(    3) = (   0.0000000   0.3333333   0.0000000), wk =   0.1481481
        k(    4) = (   0.0000000   0.3333333   0.3333333), wk =   0.1481481
        k(    5) = (   0.0000000   0.3333333  -0.3333333), wk =   0.1481481
        k(    6) = (   0.3333333   0.0000000   0.0000000), wk =   0.1481481
        k(    7) = (   0.3333333   0.0000000   0.3333333), wk =   0.2962963
        k(    8) = (   0.3333333   0.3333333   0.0000000), wk =   0.2962963
        k(    9) = (   0.3333333   0.3333333   0.3333333), wk =   0.2962963
        k(   10) = (   0.3333333   0.3333333  -0.3333333), wk =   0.2962963

     Check: negative core charge=   -0.000010

     Initial potential from superposition of free atoms

     starting charge     111.9889, renormalised to     112.0000

     negative rho (up, down):  1.897E-01 0.000E+00
     Starting wfcs are  122 randomized atomic wfcs
     Checking if some PAW data can be deallocated...

     Self-consistent Calculation

     iteration #  1     ecut=    30.00 Ry     beta= 0.70
     Davidson diagonalization with overlap

     ethr =  1.00E-02,  avg # of iterations =  2.0

     negative rho (up, down):  1.902E-01 0.000E+00

     total energy              =   -2072.58440834 Ry
     estimated scf accuracy    <       3.96980274 Ry

[...]

     c_bands:  1 eigenvalues not converged
     ethr =  3.12E-06,  avg # of iterations =  7.7

[...]

     total energy              =   -2074.90995862 Ry
     estimated scf accuracy    <       0.00001142 Ry

     iteration # 38     ecut=    30.00 Ry     beta= 0.70
     Davidson diagonalization with overlap

     ethr =  1.02E-08,  avg # of iterations =  2.0

     negative rho (up, down):  1.918E-01 0.000E+00

     End of self-consistent calculation

          k = 0.0000 0.0000 0.0000 (  2867 PWs)   bands (ev):

   -56.8899 -56.8842 -31.5157 -31.4905 -23.5528 -23.5208 -23.4727 -23.4334
   -23.4092 -23.3903  -9.2165  -9.1529  -9.1105  -8.5829  -8.5431  -8.4175
    -7.3071  -6.2476  -6.1222  -5.9633  -5.6823  -5.2390  -5.0097  -4.9370
     5.4676   5.6844   5.8852   6.0542   6.2263   6.3043   7.5112   7.6042
     7.6080   7.8363   8.0252   8.1978   8.2878   8.4508   8.6522   8.7753
     8.8109   9.0716   9.4478   9.5901   9.8149   9.8314   9.9842  10.2355
    11.2796  11.3270  11.3567  11.3687  11.3853  11.4298  11.4643  11.5151
    11.6613  11.7570  11.7817  11.8194  11.8724  11.9531  14.8175  14.8181

     occupation numbers
     1.0000   1.0000   1.0000   1.0000   1.0000   1.0000   1.0000   1.0000
     1.0000   1.0000   1.0000   1.0000   1.0000   1.0000   1.0000   1.0000
     1.0000   1.0000   1.0000   1.0000   1.0000   1.0000   1.0000   1.0000
     1.0000   1.0000   1.0000   1.0000   1.0000   1.0000   1.0000   1.0000
     1.0000   1.0000   1.0000   1.0000   1.0000   1.0000   1.0000   1.0000
     1.0000   1.0000   1.0000   1.0000   1.0000   1.0000   1.0000   1.0000
     1.0000   1.0000   1.0000   1.0000   1.0000   1.0000   1.0000   1.0000
     0.0000   0.0000   0.0000   0.0000   0.0000   0.0000   0.0000   0.0000

[...]

          k = 0.3333 0.3568-0.3880 (  2857 PWs)   bands (ev):

   -56.8884 -56.8856 -31.5069 -31.4991 -23.5480 -23.5306 -23.4606 -23.4422
   -23.4052 -23.3932  -9.2902  -9.1645  -8.9765  -8.8280  -8.6508  -8.4138
    -6.6065  -6.3898  -6.0755  -5.9492  -5.6016  -5.4128  -5.2246  -5.0089
     5.9753   6.2019   6.4105   6.5543   6.7286   6.8314   6.9162   7.1537
     7.3653   7.4979   7.8420   8.0394   8.2328   8.4961   8.6494   8.7760
     8.8485   8.9945   9.0488   9.3310   9.4383   9.5058   9.6124   9.9095
    11.2959  11.3051  11.3846  11.3947  11.4151  11.4459  11.4672  11.4928
    11.6683  11.7032  11.7451  11.7624  11.8644  11.9047  14.4870  14.9779

     occupation numbers
     1.0000   1.0000   1.0000   1.0000   1.0000   1.0000   1.0000   1.0000
     1.0000   1.0000   1.0000   1.0000   1.0000   1.0000   1.0000   1.0000
     1.0000   1.0000   1.0000   1.0000   1.0000   1.0000   1.0000   1.0000
     1.0000   1.0000   1.0000   1.0000   1.0000   1.0000   1.0000   1.0000
     1.0000   1.0000   1.0000   1.0000   1.0000   1.0000   1.0000   1.0000
     1.0000   1.0000   1.0000   1.0000   1.0000   1.0000   1.0000   1.0000
     1.0000   1.0000   1.0000   1.0000   1.0000   1.0000   1.0000   1.0000
     0.0000   0.0000   0.0000   0.0000   0.0000   0.0000   0.0000   0.0000

     highest occupied, lowest unoccupied level (ev):    11.5225   11.6093

!    total energy              =   -2074.90996656 Ry
     estimated scf accuracy    <       0.00000086 Ry

     The total energy is the sum of the following terms:
     one-electron contribution =    -359.57570724 Ry
     hartree contribution      =     250.21394462 Ry
     xc contribution           =    -194.30161674 Ry
     ewald contribution        =    -748.00990719 Ry
     one-center paw contrib.   =   -1023.23668002 Ry
      -> PAW hartree energy AE =     214.26903495 Ry
      -> PAW hartree energy PS =    -200.90381038 Ry
      -> PAW xc energy AE      =    -510.61072916 Ry
      -> PAW xc energy PS      =      23.71360131 Ry
      -> total E_H with PAW    =     263.57916919 Ry
      -> total E_XC with PAW   =    -681.19874459 Ry

     convergence has been achieved in  38 iterations

     Writing all to output data dir bands_nm/myprefix.save/

     General routines

     Parallel routines

     PAW routines

   This run was terminated on:   6:35:26  13Jul2023

   JOB DONE.