     Program PWSCF v.7.1 starts on 15Jul2023 at 14:35: 9

     Reading input from espresso_5408.pwi
Warning: card &CELL ignored
Warning: card / ignored

     Current dimensions of program PWSCF are:
     Max number of different atomic species (ntypx) = 10
     Max number of k-points (npk) =  40000
     Max angular momentum in pseudopotentials (lmaxx) =  4
     file O.pbe-n-kjpaw_psl.0.1.UPF: wavefunction(s)  2P renormalized
     Message from routine setup:
     the system is metallic, specify occupations

     K-points division:     npool     =       2
     R & G space division:  proc/nbgrp/npool/nimage =       4
     Subspace diagonalization in iterative solution of the eigenvalue problem:
     a serial algorithm will be used

     Using Slab Decomposition

     bravais-lattice index     =            0
     lattice parameter (alat)  =       9.5027  a.u.
     unit-cell volume          =     705.4426 (a.u.)^3
     number of atoms/cell      =            9
     number of atomic types    =            3
     number of electrons       =        79.00 (up:  41.00, down:  38.00)
     number of Kohn-Sham states=           64
     kinetic-energy cutoff     =      30.0000  Ry
     charge density cutoff     =     240.0000  Ry
     scf convergence threshold =      1.0E-06
     mixing beta               =       0.7000
     number of iterations used =            8  plain     mixing
     Exchange-correlation= SLA  PW   PBX  PBC
                           (   1   4   3   4   0   0   0)

     celldm(1)=   9.502658  celldm(2)=   0.000000  celldm(3)=   0.000000
     celldm(4)=   0.000000  celldm(5)=   0.000000  celldm(6)=   0.000000

     crystal axes: (cart. coord. in units of alat)
               a(1) = (   1.000000   0.000000   0.000000 )
               a(2) = (   0.752152   0.658990   0.000000 )
               a(3) = (   0.454866   0.171077   1.247520 )

     reciprocal axes: (cart. coord. in units 2 pi/alat)
               b(1) = (  1.000000 -1.141370 -0.208096 )
               b(2) = (  0.000000  1.517473 -0.208096 )
               b(3) = (  0.000000  0.000000  0.801590 )

     PseudoPot. # 1 for V  read from file:
     /lustre07/scratch/pragov/crystal_structure_design/utils/SSSP/v_pbe_v1.4.uspp.F.UPF
     MD5 check sum: 22b79981416ebb76fdaf5b1b8640f6fb
     Pseudo is Ultrasoft + core correction, Zval = 13.0
     Generated by new atomic code, or converted to UPF format
     Using radial grid of  853 points,  6 beta functions with:
                l(1) =   0
                l(2) =   0
                l(3) =   1
                l(4) =   1
                l(5) =   2
                l(6) =   2
     Q(r) pseudized with  8 coefficients,  rinner =    1.100   1.100   1.100
                                                       1.100   1.100

     PseudoPot. # 2 for Co read from file:
     /lustre07/scratch/pragov/crystal_structure_design/utils/SSSP/Co_pbe_v1.2.uspp.F.UPF
     MD5 check sum: 5f91765df6ddd3222702df6e7b74a16d
     Pseudo is Ultrasoft + core correction, Zval = 17.0
     Generated by new atomic code, or converted to UPF format
     Using radial grid of  863 points,  6 beta functions with:
                l(1) =   0
                l(2) =   0
                l(3) =   1
                l(4) =   1
                l(5) =   2
                l(6) =   2
     Q(r) pseudized with  8 coefficients,  rinner =    1.200   1.200   1.200
                                                       1.200   1.200

     PseudoPot. # 3 for O  read from file:
     /lustre07/scratch/pragov/crystal_structure_design/utils/SSSP/O.pbe-n-kjpaw_psl.0.1.UPF
     MD5 check sum: 0234752ac141de4415c5fc33072bef88
     Pseudo is Projector augmented-wave + core cor, Zval =  6.0
     Generated using "atomic" code by A. Dal Corso  v.5.0.99 svn rev. 10869
     Shape of augmentation charge: BESSEL
     Using radial grid of 1095 points,  4 beta functions with:
                l(1) =   0
                l(2) =   0
                l(3) =   1
                l(4) =   1
     Q(r) pseudized with 0 coefficients

     atomic species   valence    mass     pseudopotential
        V             13.00    50.94150     V ( 1.00)
        Co            17.00    58.93319     Co( 1.00)
        O              6.00    15.99900     O ( 1.00)

     Starting magnetic structure
     atomic species   magnetization
        V            0.000
        Co           0.000
        O            0.000

     No symmetry found

                                    s                        frac. trans.

      isym =  1     identity

 cryst.   s( 1) = (     1          0          0      )
                  (     0          1          0      )
                  (     0          0          1      )

 cart.    s( 1) = (  1.0000000  0.0000000  0.0000000 )
                  (  0.0000000  1.0000000  0.0000000 )
                  (  0.0000000  0.0000000  1.0000000 )

   Cartesian axes

     site n.     atom                  positions (alat units)
         1           V   tau(   1) = (   1.7080437   0.6524738   0.8180961  )
         2           V   tau(   2) = (   0.4923357   0.1952419   0.4294238  )
         3           Co  tau(   3) = (   0.9998300   0.0004521   0.0000000  )
         4           O   tau(   4) = (   1.4085837   0.5395379   0.5427797  )
         5           O   tau(   5) = (   0.1844004   0.0792827   0.3435982  )
         6           O   tau(   6) = (   2.0160737   0.7681812   0.9039217  )
         7           O   tau(   7) = (   0.7919987   0.3076381   0.7047402  )
         8           O   tau(   8) = (   0.6543026   0.2585604   0.1383762  )
         9           O   tau(   9) = (   1.5444937   0.5933643   1.1091437  )

   Crystallographic axes

     site n.     atom                  positions (cryst. coord.)
         1           V   tau(   1) = (  0.7930870  0.8198690  0.6557780  )
         2           V   tau(   2) = (  0.1801310  0.2069130  0.3442220  )
         3           Co  tau(   3) = (  0.9993140  0.0006860  0.0000000  )
         4           O   tau(   4) = (  0.6798210  0.7057840  0.4350870  )
         5           O   tau(   5) = (  0.0224080  0.0488080  0.2754250  )
         6           O   tau(   6) = (  0.9511920  0.9775920  0.7245750  )
         7           O   tau(   7) = (  0.2942160  0.3201790  0.5649130  )
         8           O   tau(   8) = (  0.3303940  0.3635630  0.1109210  )
         9           O   tau(   9) = (  0.6364370  0.6696060  0.8890790  )

     number of k points=    14
                       cart. coord. in units 2pi/alat
        k(    1) = (   0.0000000   0.0000000   0.0000000), wk =   0.0370370
        k(    2) = (   0.0000000   0.0000000   0.2671968), wk =   0.0740741
        k(    3) = (   0.0000000   0.5058245  -0.0693654), wk =   0.0740741
        k(    4) = (   0.0000000   0.5058245   0.1978314), wk =   0.0740741
        k(    5) = (   0.0000000   0.5058245  -0.3365622), wk =   0.0740741
        k(    6) = (   0.3333333  -0.3804567  -0.0693654), wk =   0.0740741
        k(    7) = (   0.3333333  -0.3804567   0.1978314), wk =   0.0740741
        k(    8) = (   0.3333333  -0.3804567  -0.3365622), wk =   0.0740741
        k(    9) = (   0.3333333   0.1253678  -0.1387308), wk =   0.0740741
        k(   10) = (   0.3333333   0.1253678   0.1284661), wk =   0.0740741
        k(   11) = (   0.3333333   0.1253678  -0.4059276), wk =   0.0740741
        k(   12) = (   0.3333333  -0.8862812  -0.0000000), wk =   0.0740741
        k(   13) = (   0.3333333  -0.8862812   0.2671968), wk =   0.0740741
        k(   14) = (   0.3333333  -0.8862812  -0.2671968), wk =   0.0740741

                       cryst. coord.
        k(    1) = (   0.0000000   0.0000000   0.0000000), wk =   0.0370370
        k(    2) = (   0.0000000   0.0000000   0.3333333), wk =   0.0740741
        k(    3) = (   0.0000000   0.3333333   0.0000000), wk =   0.0740741
        k(    4) = (   0.0000000   0.3333333   0.3333333), wk =   0.0740741
        k(    5) = (   0.0000000   0.3333333  -0.3333333), wk =   0.0740741
        k(    6) = (   0.3333333   0.0000000  -0.0000000), wk =   0.0740741
        k(    7) = (   0.3333333   0.0000000   0.3333333), wk =   0.0740741
        k(    8) = (   0.3333333   0.0000000  -0.3333333), wk =   0.0740741
        k(    9) = (   0.3333333   0.3333333   0.0000000), wk =   0.0740741
        k(   10) = (   0.3333333   0.3333333   0.3333333), wk =   0.0740741
        k(   11) = (   0.3333333   0.3333333  -0.3333333), wk =   0.0740741
        k(   12) = (   0.3333333  -0.3333333  -0.0000000), wk =   0.0740741
        k(   13) = (   0.3333333  -0.3333333   0.3333333), wk =   0.0740741
        k(   14) = (   0.3333333  -0.3333333  -0.3333333), wk =   0.0740741

     Check: negative core charge=   -0.000020
     Generating pointlists ...
     new r_m :   0.1399 (alat units)  1.3290 (a.u.) for type    1
     new r_m :   0.1641 (alat units)  1.5598 (a.u.) for type    2
     new r_m :   0.1399 (alat units)  1.3290 (a.u.) for type    3

     Initial potential from superposition of free atoms

     starting charge      77.9975, renormalised to      79.0000

     negative rho (up, down):  5.945E-04 5.945E-04
     Starting wfcs are   57 randomized atomic wfcs +    7 random wfcs
     Checking if some PAW data can be deallocated...

     Self-consistent Calculation

     iteration #  1     ecut=    30.00 Ry     beta= 0.70
     Davidson diagonalization with overlap

     ethr =  1.00E-02,  avg # of iterations =  5.9

     negative rho (up, down):  3.484E-03 3.549E-03

     total energy              =    -834.75164737 Ry
     estimated scf accuracy    <       6.37998341 Ry

     total magnetization       =     3.00 Bohr mag/cell
     absolute magnetization    =     3.00 Bohr mag/cell

[...]

     total energy              =    -838.62683437 Ry
     estimated scf accuracy    <       0.00000180 Ry

[...]

     iteration # 18     ecut=    30.00 Ry     beta= 0.70
     Davidson diagonalization with overlap

     ethr =  2.28E-09,  avg # of iterations =  1.2

     negative rho (up, down):  1.593E-03 1.693E-03

     Magnetic moment per site  (integrated on atomic sphere of radius R)
     atom   1 (R=0.140)  charge=  8.8078  magn=  0.0231
     atom   2 (R=0.140)  charge=  8.8077  magn=  0.0231
     atom   3 (R=0.164)  charge= 14.2638  magn=  2.4620
     atom   4 (R=0.140)  charge=  4.7474  magn=  0.0129
     atom   5 (R=0.140)  charge=  4.6949  magn=  0.0587
     atom   6 (R=0.140)  charge=  4.6950  magn=  0.0587
     atom   7 (R=0.140)  charge=  4.7474  magn=  0.0129
     atom   8 (R=0.140)  charge=  4.6829  magn=  0.0580
     atom   9 (R=0.140)  charge=  4.6828  magn=  0.0580

     End of self-consistent calculation

 ------ SPIN UP ------------

          k = 0.0000 0.0000 0.0000 (  1961 PWs)   bands (ev):

   -89.4838 -57.7728 -57.7641 -52.9768 -52.8243 -52.1938 -31.7441 -31.7280
   -31.6354 -31.5742 -31.5692 -31.5494 -11.4867 -10.4801 -10.2188 -10.0712
    -9.8934  -9.8815   1.6950   1.9472   2.0703   2.3005   2.7660   2.8962
     2.9825   3.2944   3.6639   4.0346   4.3996   4.4449   4.5026   4.6720
     5.0676   5.1572   5.3499   5.4299   5.8115   5.8118   6.0055   6.3952
     6.6872   8.9857   9.2613   9.7328   9.9645  10.3878  10.6743  10.9318
    11.0247  11.7683  12.2895  12.7963  16.0366  17.4161  17.7850  19.4277
    20.7965  21.0203  21.4733  21.7115  21.9157  23.0397  23.7703  23.7741

     occupation numbers
     1.0000   1.0000   1.0000   1.0000   1.0000   1.0000   1.0000   1.0000
     1.0000   1.0000   1.0000   1.0000   1.0000   1.0000   1.0000   1.0000
     1.0000   1.0000   1.0000   1.0000   1.0000   1.0000   1.0000   1.0000
     1.0000   1.0000   1.0000   1.0000   1.0000   1.0000   1.0000   1.0000
     1.0000   1.0000   1.0000   1.0000   1.0000   1.0000   1.0000   1.0000
     1.0000   0.0000   0.0000   0.0000   0.0000   0.0000   0.0000   0.0000
     0.0000   0.0000   0.0000   0.0000   0.0000   0.0000   0.0000   0.0000
     0.0000   0.0000   0.0000   0.0000   0.0000   0.0000   0.0000   0.0000

[...]

 ------ SPIN DOWN ----------

[...]

          k = 0.3333-0.8863-0.2672 (  1961 PWs)   bands (ev):

   -86.0615 -57.7327 -57.7300 -49.4509 -49.4326 -49.2095 -31.6566 -31.6552
   -31.6202 -31.6160 -31.5631 -31.5616 -10.6229 -10.1330 -10.1152 -10.0589
    -9.8979  -9.8201   1.4583   2.0073   2.3242   2.5081   2.7847   2.8322
     2.9504   3.3121   3.5489   3.8192   4.2705   4.6815   4.9315   5.2153
     5.3265   5.6617   5.7319   5.9548   7.4505   7.7830   8.1803   8.5225
     8.7761   9.2685   9.3258   9.4824   9.6052   9.9962  10.3149  10.9874
    11.6191  11.8656  12.6658  16.1746  16.6788  18.3160  18.6625  19.1945
    19.5430  20.5103  20.8885  21.9087  22.2889  22.5378  23.0486  23.7939

     occupation numbers
     1.0000   1.0000   1.0000   1.0000   1.0000   1.0000   1.0000   1.0000
     1.0000   1.0000   1.0000   1.0000   1.0000   1.0000   1.0000   1.0000
     1.0000   1.0000   1.0000   1.0000   1.0000   1.0000   1.0000   1.0000
     1.0000   1.0000   1.0000   1.0000   1.0000   1.0000   1.0000   1.0000
     1.0000   1.0000   1.0000   1.0000   1.0000   1.0000   0.0000   0.0000
     0.0000   0.0000   0.0000   0.0000   0.0000   0.0000   0.0000   0.0000
     0.0000   0.0000   0.0000   0.0000   0.0000   0.0000   0.0000   0.0000
     0.0000   0.0000   0.0000   0.0000   0.0000   0.0000   0.0000   0.0000

     highest occupied, lowest unoccupied level (ev):     7.7830    8.0820

!    total energy              =    -838.62683526 Ry
     estimated scf accuracy    <       0.00000068 Ry

     The total energy is the sum of the following terms:
     one-electron contribution =    -455.03485599 Ry
     hartree contribution      =     260.39866981 Ry
     xc contribution           =    -115.82972449 Ry
     ewald contribution        =    -470.98783165 Ry
     one-center paw contrib.   =     -57.17309294 Ry
      -> PAW hartree energy AE =       0.00000000 Ry
      -> PAW hartree energy PS =       0.00000000 Ry
      -> PAW xc energy AE      =       0.00000000 Ry
      -> PAW xc energy PS      =       0.00000000 Ry
      -> total E_H with PAW    =     260.39866981 Ry
      -> total E_XC with PAW   =    -115.82972449 Ry

     total magnetization       =     3.00 Bohr mag/cell
     absolute magnetization    =     3.10 Bohr mag/cell

     convergence has been achieved in  18 iterations

     Writing all to output data dir bands_nm/myprefix.save/

     General routines

     Parallel routines

     PAW routines

   This run was terminated on:  14:35:35  15Jul2023

   JOB DONE.