     Program PWSCF v.7.1 starts on 13Jul2023 at  4:40:38

     Reading input from espresso_2805.pwi
Warning: card &CELL ignored
Warning: card / ignored

     Current dimensions of program PWSCF are:
     Max number of different atomic species (ntypx) = 10
     Max number of k-points (npk) =  40000
     Max angular momentum in pseudopotentials (lmaxx) =  4
     file O.pbe-n-kjpaw_psl.0.1.UPF: wavefunction(s)  2P renormalized
     Message from routine setup:
     using ibrav=0 with symmetry is DISCOURAGED, use correct ibrav instead

     K-points division:     npool     =       2
     R & G space division:  proc/nbgrp/npool/nimage =       8
     Subspace diagonalization in iterative solution of the eigenvalue problem:
     a serial algorithm will be used

     Using Slab Decomposition

     bravais-lattice index     =            0
     lattice parameter (alat)  =       7.1501  a.u.
     unit-cell volume          =     565.0492 (a.u.)^3
     number of atoms/cell      =            5
     number of atomic types    =            3
     number of electrons       =        64.00
     number of Kohn-Sham states=           64
     kinetic-energy cutoff     =      30.0000  Ry
     charge density cutoff     =     240.0000  Ry
     scf convergence threshold =      1.0E-06
     mixing beta               =       0.7000
     number of iterations used =            8  plain     mixing
     Exchange-correlation= SLA  PW   PBX  PBC
                           (   1   4   3   4   0   0   0)

     celldm(1)=   7.150119  celldm(2)=   0.000000  celldm(3)=   0.000000
     celldm(4)=   0.000000  celldm(5)=   0.000000  celldm(6)=   0.000000

     crystal axes: (cart. coord. in units of alat)
               a(1) = (   1.000000   0.000000   0.000000 )
               a(2) = (  -0.500000   0.866025   0.000000 )
               a(3) = (   0.000000   0.000000   1.784908 )

     reciprocal axes: (cart. coord. in units 2 pi/alat)
               b(1) = (  1.000000  0.577350  0.000000 )
               b(2) = (  0.000000  1.154701  0.000000 )
               b(3) = (  0.000000  0.000000  0.560253 )

     PseudoPot. # 1 for Tm read from file:
     /lustre07/scratch/pragov/crystal_structure_design/utils/SSSP/Tm.GGA-PBE-paw-v1.0.UPF
     MD5 check sum: e502ddec747d736c64e0ed72ddfd7d4c
     Pseudo is Projector augmented-wave + core cor, Zval = 23.0
     Generated using ATOMPAW code
     Shape of augmentation charge: BESSEL
     Using radial grid of 1116 points,  8 beta functions with:
                l(1) =   0
                l(2) =   0
                l(3) =   1
                l(4) =   1
                l(5) =   2
                l(6) =   2
                l(7) =   3
                l(8) =   3
     Q(r) pseudized with 0 coefficients

     PseudoPot. # 2 for Se read from file:
     /lustre07/scratch/pragov/crystal_structure_design/utils/SSSP/Se_pbe_v1.uspp.F.UPF
     MD5 check sum: 1b3568f3a8ae88f9a2a0ad0698632c85
     Pseudo is Ultrasoft + core correction, Zval =  6.0
     Generated by new atomic code, or converted to UPF format
     Using radial grid of  877 points,  6 beta functions with:
                l(1) =   0
                l(2) =   0
                l(3) =   1
                l(4) =   1
                l(5) =   2
                l(6) =   2
     Q(r) pseudized with  8 coefficients,  rinner =    1.300   1.300   1.300
                                                       1.300   1.300

     PseudoPot. # 3 for O  read from file:
     /lustre07/scratch/pragov/crystal_structure_design/utils/SSSP/O.pbe-n-kjpaw_psl.0.1.UPF
     MD5 check sum: 0234752ac141de4415c5fc33072bef88
     Pseudo is Projector augmented-wave + core cor, Zval =  6.0
     Generated using "atomic" code by A. Dal Corso  v.5.0.99 svn rev. 10869
     Shape of augmentation charge: BESSEL
     Using radial grid of 1095 points,  4 beta functions with:
                l(1) =   0
                l(2) =   0
                l(3) =   1
                l(4) =   1
     Q(r) pseudized with 0 coefficients

     atomic species   valence    mass     pseudopotential
        Tm            23.00   168.93422     Tm( 1.00)
        Se             6.00    78.97100     Se( 1.00)
        O              6.00    15.99900     O ( 1.00)

     12 Sym. Ops., with inversion, found

                                    s                        frac. trans.

      isym =  1     identity

 cryst.   s( 1) = (     1          0          0      )
                  (     0          1          0      )
                  (     0          0          1      )

 cart.    s( 1) = (  1.0000000  0.0000000  0.0000000 )
                  (  0.0000000  1.0000000  0.0000000 )
                  (  0.0000000  0.0000000  1.0000000 )

      isym =  2     180 deg rotation - cart. axis [1,0,0]

[...]

      isym =  3     120 deg rotation - cryst. axis [0,0,1]

[...]

      isym =  6     180 deg rotation - cryst. axis [1,1,0]

[...]

      isym =  7     inversion

[...]

      isym =  8     inv. 180 deg rotation - cart. axis [1,0,0]

[...]

      isym =  9     inv. 120 deg rotation - cryst. axis [0,0,1]

 cryst.   s( 9) = (     0         -1          0      )
                  (     1          1          0      )
                  (     0          0         -1      )

 cart.    s( 9) = (  0.5000000  0.8660254  0.0000000 )
                  ( -0.8660254  0.5000000  0.0000000 )
                  (  0.0000000  0.0000000 -1.0000000 )

[...]

 cryst.   s(10) = (     1          1          0      )
                  (    -1          0          0      )
                  (     0          0         -1      )

 cart.    s(10) = (  0.5000000 -0.8660254  0.0000000 )
                  (  0.8660254  0.5000000  0.0000000 )
                  (  0.0000000  0.0000000 -1.0000000 )

[...]

      isym = 12     inv. 180 deg rotation - cryst. axis [1,1,0]

 cryst.   s(12) = (     0         -1          0      )
                  (    -1          0          0      )
                  (     0          0          1      )

 cart.    s(12) = (  0.5000000 -0.8660254  0.0000000 )
                  ( -0.8660254 -0.5000000  0.0000000 )
                  (  0.0000000  0.0000000  1.0000000 )

   Cartesian axes

     site n.     atom                  positions (alat units)
         1           Tm  tau(   1) = (  -0.0000005   0.5773506   1.4137864  )
         2           Tm  tau(   2) = (   0.5000005   0.2886748   0.3711217  )
         3           Se  tau(   3) = (   0.0000000   0.0000000   0.8924540  )
         4           O   tau(   4) = (  -0.0000005   0.5773506   0.2240238  )
         5           O   tau(   5) = (   0.5000005   0.2886748   1.5608843  )

   Crystallographic axes

     site n.     atom                  positions (cryst. coord.)
         1           Tm  tau(   1) = (  0.3333330  0.6666670  0.7920780  )
         2           Tm  tau(   2) = (  0.6666670  0.3333330  0.2079220  )
         3           Se  tau(   3) = (  0.0000000  0.0000000  0.5000000  )
         4           O   tau(   4) = (  0.3333330  0.6666670  0.1255100  )
         5           O   tau(   5) = (  0.6666670  0.3333330  0.8744900  )

     number of k points=     7
                       cart. coord. in units 2pi/alat
        k(    1) = (   0.0000000   0.0000000   0.0000000), wk =   0.0740741
        k(    2) = (   0.0000000   0.0000000   0.1867510), wk =   0.1481481
        k(    3) = (   0.0000000   0.3849002   0.0000000), wk =   0.4444444
        k(    4) = (   0.0000000   0.3849002   0.1867510), wk =   0.4444444
        k(    5) = (   0.3333333   0.5773503   0.0000000), wk =   0.1481481
        k(    6) = (   0.3333333   0.5773503   0.1867510), wk =   0.2962963
        k(    7) = (   0.0000000   0.3849002  -0.1867510), wk =   0.4444444

                       cryst. coord.
        k(    1) = (   0.0000000   0.0000000   0.0000000), wk =   0.0740741
        k(    2) = (   0.0000000   0.0000000   0.3333333), wk =   0.1481481
        k(    3) = (   0.0000000   0.3333333   0.0000000), wk =   0.4444444
        k(    4) = (   0.0000000   0.3333333   0.3333333), wk =   0.4444444
        k(    5) = (   0.3333333   0.3333333   0.0000000), wk =   0.1481481
        k(    6) = (   0.3333333   0.3333333   0.3333333), wk =   0.2962963
        k(    7) = (   0.0000000   0.3333333  -0.3333333), wk =   0.4444444

     Check: negative core charge=   -0.000007

     Initial potential from superposition of free atoms

     starting charge      63.9912, renormalised to      64.0000
     Starting wfcs are   76 randomized atomic wfcs
     Checking if some PAW data can be deallocated...

     Self-consistent Calculation

     iteration #  1     ecut=    30.00 Ry     beta= 0.70
     Davidson diagonalization with overlap

     ethr =  1.00E-02,  avg # of iterations =  9.3

     total energy              =   -2016.50926052 Ry
     estimated scf accuracy    <       3.67981162 Ry

[...]

     total energy              =   -2020.10406636 Ry
     estimated scf accuracy    <       0.00000178 Ry

     iteration # 18     ecut=    30.00 Ry     beta= 0.70
     Davidson diagonalization with overlap

     ethr =  1.69E-09,  avg # of iterations =  1.0

     End of self-consistent calculation

          k = 0.0000 0.0000 0.0000 (  1583 PWs)   bands (ev):

   -37.2907 -37.2680 -10.9759 -10.3777 -10.3777 -10.3407 -10.3096 -10.3096
    -5.3323  -5.1959  -0.2232   8.1242   8.3372   8.3372   8.3939   8.7590
     8.7590  10.9049  11.3117  11.3118  11.6908  11.7651  11.7651  11.7878
    11.7995  11.8038  11.8380  11.8380  11.8840  11.8840  11.9198  12.2749
    12.4447  12.4447  15.1489  16.6946  16.9663  16.9663  18.5015  18.7205
    18.7205  19.6069  19.6069  21.5380  21.5380  22.0371  22.6906  23.8661
    23.8662  24.5974  25.3570  27.1061  27.1061  28.1138  28.1138  29.2750
    30.6883  34.0898  34.6011  34.6012  34.6036  34.6036  35.5279  35.5279

     occupation numbers
     1.0000   1.0000   1.0000   1.0000   1.0000   1.0000   1.0000   1.0000
     1.0000   1.0000   1.0000   1.0000   1.0000   1.0000   1.0000   1.0000
     1.0000   1.0000   1.0000   1.0000   1.0000   1.0000   1.0000   1.0000
     1.0000   1.0000   1.0000   1.0000   1.0000   1.0000   1.0000   1.0000
     0.0000   0.0000   0.0000   0.0000   0.0000   0.0000   0.0000   0.0000
     0.0000   0.0000   0.0000   0.0000   0.0000   0.0000   0.0000   0.0000
     0.0000   0.0000   0.0000   0.0000   0.0000   0.0000   0.0000   0.0000
     0.0000   0.0000   0.0000   0.0000   0.0000   0.0000   0.0000   0.0000

[...]

          k = 0.0000 0.3849-0.1868 (  1573 PWs)   bands (ev):

   -37.2762 -37.2637 -11.0376 -10.8775 -10.4838 -10.4489 -10.3624 -10.3581
    -4.8103  -4.7515   0.0619   7.6603   8.2258   8.5695   8.6401   8.7765
     9.5748  10.2324  10.4612  10.9059  11.7320  11.7501  11.7654  11.7761
    11.7915  11.7980  11.8348  11.8415  11.8750  11.9145  11.9606  12.0697
    12.1223  12.2209  16.3815  16.9641  17.4615  17.6664  18.1570  19.1963
    19.2016  19.6978  19.7463  20.7621  21.3889  22.0906  23.0154  23.9819
    24.9328  25.4652  26.4277  27.0021  27.5764  28.3126  29.8058  30.9187
    31.3507  31.7345  31.8975  32.1878  32.5198  34.0932  34.2059  34.7812

     occupation numbers
     1.0000   1.0000   1.0000   1.0000   1.0000   1.0000   1.0000   1.0000
     1.0000   1.0000   1.0000   1.0000   1.0000   1.0000   1.0000   1.0000
     1.0000   1.0000   1.0000   1.0000   1.0000   1.0000   1.0000   1.0000
     1.0000   1.0000   1.0000   1.0000   1.0000   1.0000   1.0000   1.0000
     0.0000   0.0000   0.0000   0.0000   0.0000   0.0000   0.0000   0.0000
     0.0000   0.0000   0.0000   0.0000   0.0000   0.0000   0.0000   0.0000
     0.0000   0.0000   0.0000   0.0000   0.0000   0.0000   0.0000   0.0000
     0.0000   0.0000   0.0000   0.0000   0.0000   0.0000   0.0000   0.0000

     highest occupied, lowest unoccupied level (ev):    12.2749   12.0256

!    total energy              =   -2020.10406585 Ry
     estimated scf accuracy    <       0.00000016 Ry

     The total energy is the sum of the following terms:
     one-electron contribution =    -682.44099912 Ry
     hartree contribution      =     336.87283951 Ry
     xc contribution           =    -115.90637781 Ry
     ewald contribution        =    -563.96874720 Ry
     one-center paw contrib.   =    -994.66078123 Ry
      -> PAW hartree energy AE =     390.99810909 Ry
      -> PAW hartree energy PS =    -344.02973969 Ry
      -> PAW xc energy AE      =    -569.15379121 Ry
      -> PAW xc energy PS      =      34.37770501 Ry
      -> total E_H with PAW    =     383.84120891 Ry
      -> total E_XC with PAW   =    -650.68246401 Ry

     convergence has been achieved in  18 iterations

     Writing all to output data dir bands_nm/myprefix.save/

     General routines

     Parallel routines

     PAW routines

   This run was terminated on:   4:40:55  13Jul2023

   JOB DONE.