     Program PWSCF v.7.1 starts on 12Jul2023 at 17:10: 7

     Reading input from espresso_23006.pwi
Warning: card &CELL ignored
Warning: card / ignored

     Current dimensions of program PWSCF are:
     Max number of different atomic species (ntypx) = 10
     Max number of k-points (npk) =  40000
     Max angular momentum in pseudopotentials (lmaxx) =  4
     file Mg.pbe-n-kjpaw_psl.0.3.0.UPF: wavefunction(s)  3S renormalized
     Message from routine setup:
     using ibrav=0 with symmetry is DISCOURAGED, use correct ibrav instead

     K-points division:     npool     =       2
     R & G space division:  proc/nbgrp/npool/nimage =       8
     Subspace diagonalization in iterative solution of the eigenvalue problem:
     a serial algorithm will be used

     Using Slab Decomposition

     bravais-lattice index     =            0
     lattice parameter (alat)  =      11.1500  a.u.
     unit-cell volume          =     611.7747 (a.u.)^3
     number of atoms/cell      =            8
     number of atomic types    =            3
     number of electrons       =        32.00
     number of Kohn-Sham states=           64
     kinetic-energy cutoff     =      30.0000  Ry
     charge density cutoff     =     240.0000  Ry
     scf convergence threshold =      1.0E-06
     mixing beta               =       0.7000
     number of iterations used =            8  plain     mixing
     Exchange-correlation=  SLA  PW   PBX  PBC
                           (   1   4   3   4   0   0   0)

     celldm(1)=  11.150001  celldm(2)=   0.000000  celldm(3)=   0.000000
     celldm(4)=   0.000000  celldm(5)=   0.000000  celldm(6)=   0.000000

     crystal axes: (cart. coord. in units of alat)
               a(1) = (   1.000000   0.000000   0.000000 )
               a(2) = (   0.488412   0.872613   0.000000 )
               a(3) = (  -0.744206  -0.436307   0.505761 )

     reciprocal axes: (cart. coord. in units 2 pi/alat)
               b(1) = (  1.000000 -0.559712  0.988610 )
               b(2) = (  0.000000  1.145983  0.988610 )
               b(3) = (  0.000000  0.000000  1.977220 )

     PseudoPot. # 1 for Mg read from file:
     /lustre07/scratch/pragov/crystal_structure_design/utils/SSSP/Mg.pbe-n-kjpaw_psl.0.3.0.UPF
     MD5 check sum: 24ecedc7f3e3cbe212e682f4413594e4
     Pseudo is Projector augmented-wave + core cor, Zval =  2.0
     Generated using "atomic" code by A. Dal Corso  v.5.0.99 svn rev. 10869
     Shape of augmentation charge: PSQ
     Using radial grid of 1129 points,  4 beta functions with:
                l(1) =   0
                l(2) =   0
                l(3) =   1
                l(4) =   1
     Q(r) pseudized with 0 coefficients

     PseudoPot. # 2 for N  read from file:
     /lustre07/scratch/pragov/crystal_structure_design/utils/SSSP/N.pbe-n-radius_5.UPF
     MD5 check sum: 16739722b17309cd8fe442a2ace49922
     Pseudo is Ultrasoft + core correction, Zval =  5.0
     Generated using "atomic" code by A. Dal Corso  v.5.1
     Using radial grid of 1085 points,  4 beta functions with:
                l(1) =   0
                l(2) =   0
                l(3) =   1
                l(4) =   1
     Q(r) pseudized with 0 coefficients

     PseudoPot. # 3 for F  read from file:
     /lustre07/scratch/pragov/crystal_structure_design/utils/SSSP/f_pbe_v1.4.uspp.F.UPF
     MD5 check sum: 4c38b6a325caf53ec0e86aed9459de46
     Pseudo is Ultrasoft, Zval =  7.0
     Generated by new atomic code, or converted to UPF format
     Using radial grid of  799 points,  4 beta functions with:
                l(1) =   0
                l(2) =   0
                l(3) =   1
                l(4) =   1
     Q(r) pseudized with  8 coefficients,  rinner =    0.950   0.950   0.950

     atomic species   valence    mass     pseudopotential
        Mg             2.00    24.30500     Mg( 1.00)
        N              5.00    14.00700     N ( 1.00)
        F              7.00    18.99840     F ( 1.00)

      4 Sym. Ops., with inversion, found ( 2 have fractional translation)

                                    s                        frac. trans.

      isym =  1     identity

 cryst.   s( 1) = (     1          0          0      )
                  (     0          1          0      )
                  (     0          0          1      )

 cart.    s( 1) = (  1.0000000  0.0000000  0.0000000 )
                  (  0.0000000  1.0000000  0.0000000 )
                  (  0.0000000  0.0000000  1.0000000 )

      isym =  2     180 deg rotation - cart. axis [0,0,1]

 cryst.   s( 2) = (    -1          0          0      )
                  (     0         -1          0      )
                  (     1          1          1      )

 cart.    s( 2) = ( -1.0000000  0.0000000 -0.0000000 )
                  (  0.0000000 -1.0000000 -0.0000000 )
                  (  0.0000000  0.0000000  1.0000000 )

      isym =  3     inversion

 cryst.   s( 3) = (    -1          0          0      )    f =(  0.2500000 )
                  (     0         -1          0      )       ( -0.2500000 )
                  (     0          0         -1      )       (  0.5000000 )

 cart.    s( 3) = ( -1.0000000  0.0000000  0.0000000 )    f =( -0.2442061 )
                  (  0.0000000 -1.0000000  0.0000000 )       ( -0.4363065 )
                  (  0.0000000  0.0000000 -1.0000000 )       (  0.2528804 )

      isym =  4     inv. 180 deg rotation - cart. axis [0,0,1]

 cryst.   s( 4) = (     1          0          0      )    f =(  0.2500000 )
                  (     0          1          0      )       ( -0.2500000 )
                  (    -1         -1         -1      )       (  0.5000000 )

 cart.    s( 4) = (  1.0000000  0.0000000  0.0000000 )    f =( -0.2442061 )
                  (  0.0000000  1.0000000  0.0000000 )       ( -0.4363065 )
                  (  0.0000000  0.0000000 -1.0000000 )       (  0.2528804 )

   Cartesian axes

     site n.     atom                  positions (alat units)
         1           Mg  tau(   1) = (   0.3155121   0.1849756   0.0000000  )
         2           Mg  tau(   2) = (   0.8155121   0.1849756   0.2528804  )
         3           Mg  tau(   3) = (   0.1844879  -0.1849756   0.2528804  )
         4           Mg  tau(   4) = (   1.1729001   0.6876374   0.0000000  )
         5           N   tau(   5) = (   0.0000000   0.0000000   0.0000000  )
         6           N   tau(   6) = (   0.5000000  -0.0000000   0.2528804  )
         7           F   tau(   7) = (   0.7442061   0.4363065   0.0000000  )
         8           F   tau(   8) = (   0.2442061   0.4363065   0.2528804  )

   Crystallographic axes

     site n.     atom                  positions (cryst. coord.)
         1           Mg  tau(   1) = (  0.2119790  0.2119790  0.0000000  )
         2           Mg  tau(   2) = (  0.9619790  0.4619790  0.5000000  )
         3           Mg  tau(   3) = (  0.5380210  0.0380210  0.5000000  )
         4           Mg  tau(   4) = (  0.7880210  0.7880210  0.0000000  )
         5           N   tau(   5) = (  0.0000000  0.0000000  0.0000000  )
         6           N   tau(   6) = (  0.7500000  0.2500000  0.5000000  )
         7           F   tau(   7) = (  0.5000000  0.5000000  0.0000000  )
         8           F   tau(   8) = (  0.2500000  0.7500000  0.5000000  )

     number of k points=    10
                       cart. coord. in units 2pi/alat
        k(    1) = (   0.0000000   0.0000000   0.0000000), wk =   0.0740741
        k(    2) = (   0.0000000   0.0000000   0.6590732), wk =   0.1481481
        k(    3) = (   0.0000000   0.3819944   0.3295366), wk =   0.2962963
        k(    4) = (   0.0000000   0.3819944   0.9886098), wk =   0.1481481
        k(    5) = (   0.3333333  -0.1865707   0.3295366), wk =   0.2962963
        k(    6) = (   0.3333333  -0.1865707   0.9886098), wk =   0.1481481
        k(    7) = (   0.3333333   0.1954237   0.6590732), wk =   0.2962963
        k(    8) = (   0.3333333   0.1954237   0.0000000), wk =   0.1481481
        k(    9) = (   0.3333333  -0.5685652   0.0000000), wk =   0.1481481
        k(   10) = (   0.3333333  -0.5685652   0.6590732), wk =   0.2962963

                       cryst. coord.
        k(    1) = (   0.0000000   0.0000000   0.0000000), wk =   0.0740741
        k(    2) = (   0.0000000   0.0000000   0.3333333), wk =   0.1481481
        k(    3) = (   0.0000000   0.3333333   0.0000000), wk =   0.2962963
        k(    4) = (   0.0000000   0.3333333   0.3333333), wk =   0.1481481
        k(    5) = (   0.3333333   0.0000000  -0.0000000), wk =   0.2962963
        k(    6) = (   0.3333333   0.0000000   0.3333333), wk =   0.1481481
        k(    7) = (   0.3333333   0.3333333   0.0000000), wk =   0.2962963
        k(    8) = (   0.3333333   0.3333333  -0.3333333), wk =   0.1481481
        k(    9) = (   0.3333333  -0.3333333   0.0000000), wk =   0.1481481
        k(   10) = (   0.3333333  -0.3333333   0.3333333), wk =   0.2962963

     Initial potential from superposition of free atoms

     starting charge      31.9963, renormalised to      32.0000
     Starting wfcs are   32 randomized atomic wfcs +   32 random wfcs
     Checking if some PAW data can be deallocated...

     Self-consistent Calculation

     iteration #  1     ecut=    30.00 Ry     beta= 0.70
     Davidson diagonalization with overlap

     ethr =  1.00E-02,  avg # of iterations =  7.4

     total energy              =    -271.85945361 Ry
     estimated scf accuracy    <       1.96803918 Ry

[...]

     total energy              =    -272.76708647 Ry
     estimated scf accuracy    <       0.00003613 Ry

     iteration #  7     ecut=    30.00 Ry     beta= 0.70
     Davidson diagonalization with overlap

     ethr =  1.13E-07,  avg # of iterations =  1.1

     End of self-consistent calculation

          k = 0.0000 0.0000 0.0000 (  1677 PWs)   bands (ev):

   -19.0638 -18.9226  -7.2008  -6.2266  -1.1025  -0.9805  -0.9805  -0.9047
    -0.9047   0.0908   2.8376   4.1273   4.1273   4.6158   4.6158   5.1825
     7.3650  11.7852  11.9462  13.1620  13.9043  14.3046  14.3046  14.5123
    14.5123  15.6506  16.5407  16.6865  18.2016  19.4724  19.4724  20.8077
    20.8077  21.4255  21.9181  22.0789  22.0789  23.1335  24.0817  24.0817
    26.0599  26.2939  26.6869  26.6869  27.6118  28.0722  28.5568  30.0570
    30.5785  32.8209  33.1495  34.1763  34.1763  34.4602  34.4745  34.4745
    35.1644  35.1645  36.7624  36.8769  36.9372  37.3179  37.3927  38.5258

     occupation numbers
     1.0000   1.0000   1.0000   1.0000   1.0000   1.0000   1.0000   1.0000
     1.0000   1.0000   1.0000   1.0000   1.0000   1.0000   1.0000   1.0000
     0.0000   0.0000   0.0000   0.0000   0.0000   0.0000   0.0000   0.0000
     0.0000   0.0000   0.0000   0.0000   0.0000   0.0000   0.0000   0.0000
     0.0000   0.0000   0.0000   0.0000   0.0000   0.0000   0.0000   0.0000
     0.0000   0.0000   0.0000   0.0000   0.0000   0.0000   0.0000   0.0000
     0.0000   0.0000   0.0000   0.0000   0.0000   0.0000   0.0000   0.0000
     0.0000   0.0000   0.0000   0.0000   0.0000   0.0000   0.0000   0.0000

[...]

          k = 0.3333-0.5686 0.6591 (  1693 PWs)   bands (ev):

   -18.9923 -18.9600  -6.8846  -6.5985  -1.0737  -1.0256  -0.8526  -0.6673
    -0.5055  -0.2374   2.4849   3.3754   3.7304   4.0265   4.6756   4.8276
    10.2754  10.6164  11.6887  13.1558  13.5919  13.9130  14.3005  15.1662
    15.5986  15.8722  16.7512  16.8352  18.1729  19.0402  19.7410  20.4517
    20.7773  21.3600  21.3990  21.7955  23.2577  24.3301  25.5369  26.0024
    26.2124  26.5611  27.7876  28.4192  28.5131  28.7902  29.4049  29.9858
    30.3375  30.3563  30.4303  30.6539  31.3849  31.7087  31.8435  32.6117
    33.7795  33.9628  34.6360  35.0594  35.5354  35.6873  37.0866  37.1616

     occupation numbers
     1.0000   1.0000   1.0000   1.0000   1.0000   1.0000   1.0000   1.0000
     1.0000   1.0000   1.0000   1.0000   1.0000   1.0000   1.0000   1.0000
     0.0000   0.0000   0.0000   0.0000   0.0000   0.0000   0.0000   0.0000
     0.0000   0.0000   0.0000   0.0000   0.0000   0.0000   0.0000   0.0000
     0.0000   0.0000   0.0000   0.0000   0.0000   0.0000   0.0000   0.0000
     0.0000   0.0000   0.0000   0.0000   0.0000   0.0000   0.0000   0.0000
     0.0000   0.0000   0.0000   0.0000   0.0000   0.0000   0.0000   0.0000
     0.0000   0.0000   0.0000   0.0000   0.0000   0.0000   0.0000   0.0000

     highest occupied, lowest unoccupied level (ev):     5.1825    7.3650

!    total energy              =    -272.76709157 Ry
     estimated scf accuracy    <       0.00000049 Ry

     The total energy is the sum of the following terms:
     one-electron contribution =     -62.08207870 Ry
     hartree contribution      =      50.57406535 Ry
     xc contribution           =     -36.71172186 Ry
     ewald contribution        =     -99.36092631 Ry
     one-center paw contrib.   =    -125.18643003 Ry
      -> PAW hartree energy AE =       1.00283860 Ry
      -> PAW hartree energy PS =      -1.00108050 Ry
      -> PAW xc energy AE      =     -32.71473189 Ry
      -> PAW xc energy PS      =       1.41636629 Ry
      -> total E_H with PAW    =      50.57582344 Ry
      -> total E_XC with PAW   =     -68.01008747 Ry

     convergence has been achieved in   7 iterations

     Writing all to output data dir bands_nm/myprefix.save/

     General routines

     Parallel routines

     PAW routines

   This run was terminated on:  17:10:11  12Jul2023

   JOB DONE.