     Program PWSCF v.7.1 starts on 17Jul2023 at  1:36:32

     Reading input from espresso_21293.pwi
Warning: card &CELL ignored
Warning: card / ignored

     Current dimensions of program PWSCF are:
     Max number of different atomic species (ntypx) = 10
     Max number of k-points (npk) =  40000
     Max angular momentum in pseudopotentials (lmaxx) =  4
     file O.pbe-n-kjpaw_psl.0.1.UPF: wavefunction(s)  2P renormalized
     Message from routine setup:
     using ibrav=0 with symmetry is DISCOURAGED, use correct ibrav instead

     K-points division:     npool     =       2
     R & G space division:  proc/nbgrp/npool/nimage =       4
     Subspace diagonalization in iterative solution of the eigenvalue problem:
     one sub-group per band group will be used

     Using Slab Decomposition

     bravais-lattice index     =            0
     lattice parameter (alat)  =      10.7495  a.u.
     unit-cell volume          =    1645.0083 (a.u.)^3
     number of atoms/cell      =           20
     number of atomic types    =            4
     number of electrons       =       176.00
     number of Kohn-Sham states=          256
     kinetic-energy cutoff     =      30.0000  Ry
     charge density cutoff     =     240.0000  Ry
     scf convergence threshold =      1.0E-06
     mixing beta               =       0.7000
     number of iterations used =            8  plain     mixing
     Exchange-correlation= SLA  PW   PBX  PBC
                           (   1   4   3   4   0   0   0)

     celldm(1)=  10.749486  celldm(2)=   0.000000  celldm(3)=   0.000000
     celldm(4)=   0.000000  celldm(5)=   0.000000  celldm(6)=   0.000000

     crystal axes: (cart. coord. in units of alat)
               a(1) = (   1.000000   0.000000   0.000000 )
               a(2) = (   0.232580   1.152944   0.000000 )
               a(3) = (   0.232580   0.099147   1.148674 )

     reciprocal axes: (cart. coord. in units 2 pi/alat)
               b(1) = (  1.000000 -0.201727 -0.185065 )
               b(2) = (  0.000000  0.867345 -0.074864 )
               b(3) = (  0.000000  0.000000  0.870569 )

     PseudoPot. # 1 for Na read from file:
     /lustre07/scratch/pragov/crystal_structure_design/utils/SSSP/na_pbe_v1.5.uspp.F.UPF
     MD5 check sum: 44600605ef58000f06b90626533354dc
     Pseudo is Ultrasoft, Zval =  9.0
     Generated by new atomic code, or converted to UPF format
     Using radial grid of  819 points,  5 beta functions with:
                l(1) =   0
                l(2) =   0
                l(3) =   1
                l(4) =   1
                l(5) =   2
     Q(r) pseudized with  8 coefficients,  rinner =    1.250   1.250   1.250
                                                       1.250   1.250

     PseudoPot. # 2 for Mn read from file:
     /lustre07/scratch/pragov/crystal_structure_design/utils/SSSP/mn_pbe_v1.5.uspp.F.UPF
     MD5 check sum: 82ef2b46521d7a7d9e736dc3972e4928
     Pseudo is Ultrasoft + core correction, Zval = 15.0
     Generated by new atomic code, or converted to UPF format
     Using radial grid of  859 points,  6 beta functions with:
                l(1) =   0
                l(2) =   0
                l(3) =   1
                l(4) =   1
                l(5) =   2
                l(6) =   2
     Q(r) pseudized with  8 coefficients,  rinner =    0.950   0.950   0.950
                                                       0.950   0.950

     PseudoPot. # 3 for Ge read from file:
     /lustre07/scratch/pragov/crystal_structure_design/utils/SSSP/ge_pbe_v1.4.uspp.F.UPF
     MD5 check sum: 9c9eaa91e581c3f09632fb3098b2c6b2
     Pseudo is Ultrasoft + core correction, Zval = 14.0
     Generated by new atomic code, or converted to UPF format
     Using radial grid of  873 points,  6 beta functions with:
                l(1) =   0
                l(2) =   0
                l(3) =   1
                l(4) =   1
                l(5) =   2
                l(6) =   2
     Q(r) pseudized with  8 coefficients,  rinner =    1.400   1.400   1.400
                                                       1.400   1.400

     PseudoPot. # 4 for O  read from file:
     /lustre07/scratch/pragov/crystal_structure_design/utils/SSSP/O.pbe-n-kjpaw_psl.0.1.UPF
     MD5 check sum: 0234752ac141de4415c5fc33072bef88
     Pseudo is Projector augmented-wave + core cor, Zval =  6.0
     Generated using "atomic" code by A. Dal Corso  v.5.0.99 svn rev. 10869
     Shape of augmentation charge: BESSEL
     Using radial grid of 1095 points,  4 beta functions with:
                l(1) =   0
                l(2) =   0
                l(3) =   1
                l(4) =   1
     Q(r) pseudized with 0 coefficients

     atomic species   valence    mass     pseudopotential
        Na             9.00    22.98977     Na( 1.00)
        Mn            15.00    54.93804     Mn( 1.00)
        Ge            14.00    72.63000     Ge( 1.00)
        O              6.00    15.99900     O ( 1.00)

      2 Sym. Ops., with inversion, found

                                    s                        frac. trans.

      isym =  1     identity

 cryst.   s( 1) = (     1          0          0      )
                  (     0          1          0      )
                  (     0          0          1      )

 cart.    s( 1) = (  1.0000000  0.0000000 -0.0000000 )
                  (  0.0000000  1.0000000  0.0000000 )
                  (  0.0000000  0.0000000  1.0000000 )

      isym =  2     inversion

 cryst.   s( 2) = (    -1          0          0      )
                  (     0         -1          0      )
                  (     0          0         -1      )

 cart.    s( 2) = ( -1.0000000  0.0000000  0.0000000 )
                  (  0.0000000 -1.0000000  0.0000000 )
                  (  0.0000000  0.0000000 -1.0000000 )

   Cartesian axes

     site n.     atom                  positions (alat units)
         1           Na  tau(   1) = (   0.9825804   0.9429244   0.2289284  )
         2           Na  tau(   2) = (   0.4825804   0.3091664   0.9197455  )
         3           Mn  tau(   3) = (   0.9825817   0.5306969   0.6782712  )
         4           Mn  tau(   4) = (   0.4825814   0.7213972   0.4704003  )
         5           Ge  tau(   5) = (   0.8379947   0.3589655   0.1346958  )
         6           Ge  tau(   6) = (   1.1271661   1.0870250   0.8026209  )
         7           Ge  tau(   7) = (   0.6271657   0.8931240   1.0139769  )
         8           Ge  tau(   8) = (   0.3379947   0.1650658   0.3460529  )
         9           O   tau(   9) = (   0.8335357   0.5741889   0.3583656  )
        10           O   tau(  10) = (   1.1316254   0.8456771   0.6074291  )
        11           O   tau(  11) = (   0.6316251   0.6779019   0.7903083  )
        12           O   tau(  12) = (   0.3335367   0.4064148   0.5412448  )
        13           O   tau(  13) = (   0.5803866   0.1806633   0.1439323  )
        14           O   tau(  14) = (   1.3847742   1.0931558   0.9810571  )
        15           O   tau(  15) = (   0.8847742   1.0714275   1.0047416  )
        16           O   tau(  16) = (   0.0803866   0.1589350   0.1676168  )
        17           O   tau(  17) = (   0.8578576   0.2121133   0.6763369  )
        18           O   tau(  18) = (   1.1073034   0.5600204   0.9955074  )
        19           O   tau(  19) = (   0.6073035   1.0399776   0.4723381  )
        20           O   tau(  20) = (   0.3578564   0.6920704   0.1531665  )

   Crystallographic axes

     site n.     atom                  positions (cryst. coord.)
         1           Na  tau(   1) = (  0.7500000  0.8007020  0.1992980  )
         2           Na  tau(   2) = (  0.2500000  0.1992980  0.8007020  )
         3           Mn  tau(   3) = (  0.7500010  0.4095190  0.5904820  )
         4           Mn  tau(   4) = (  0.2500010  0.5904840  0.4095160  )
         5           Ge  tau(   5) = (  0.7406540  0.3012630  0.1172620  )
         6           Ge  tau(   6) = (  0.7593460  0.8827380  0.6987370  )
         7           Ge  tau(   7) = (  0.2593460  0.6987360  0.8827370  )
         8           Ge  tau(   8) = (  0.2406540  0.1172620  0.3012630  )
         9           O   tau(   9) = (  0.6513850  0.4711910  0.3119820  )
        10           O   tau(  10) = (  0.8486150  0.6880190  0.5288090  )
        11           O   tau(  11) = (  0.3486150  0.5288090  0.6880180  )
        12           O   tau(  12) = (  0.1513860  0.3119820  0.4711910  )
        13           O   tau(  13) = (  0.5173050  0.1459220  0.1253030  )
        14           O   tau(  14) = (  0.9826950  0.8746970  0.8540780  )
        15           O   tau(  15) = (  0.4826950  0.8540780  0.8746970  )
        16           O   tau(  16) = (  0.0173050  0.1253030  0.1459220  )
        17           O   tau(  17) = (  0.6899020  0.1333420  0.5887980  )
        18           O   tau(  18) = (  0.8100980  0.4112030  0.8666580  )
        19           O   tau(  19) = (  0.3100980  0.8666580  0.4112030  )
        20           O   tau(  20) = (  0.1899010  0.5887970  0.1333420  )

     number of k points=    14
                       cart. coord. in units 2pi/alat
        k(    1) = (   0.0000000   0.0000000   0.0000000), wk =   0.0740741
        k(    2) = (   0.0000000   0.0000000   0.2901897), wk =   0.1481481
        k(    3) = (   0.0000000   0.2891149  -0.0249547), wk =   0.1481481
        k(    4) = (   0.0000000   0.2891149   0.2652350), wk =   0.1481481
        k(    5) = (   0.0000000   0.2891149  -0.3151444), wk =   0.1481481
        k(    6) = (   0.3333333  -0.0672425  -0.0616885), wk =   0.1481481
        k(    7) = (   0.3333333  -0.0672425   0.2285012), wk =   0.1481481
        k(    8) = (   0.3333333  -0.0672425  -0.3518782), wk =   0.1481481
        k(    9) = (   0.3333333   0.2218725  -0.0866432), wk =   0.1481481
        k(   10) = (   0.3333333   0.2218725   0.2035465), wk =   0.1481481
        k(   11) = (   0.3333333   0.2218725  -0.3768329), wk =   0.1481481
        k(   12) = (   0.3333333  -0.3563574  -0.0367338), wk =   0.1481481
        k(   13) = (   0.3333333  -0.3563574   0.2534559), wk =   0.1481481
        k(   14) = (   0.3333333  -0.3563574  -0.3269235), wk =   0.1481481

                       cryst. coord.
        k(    1) = (   0.0000000   0.0000000   0.0000000), wk =   0.0740741
        k(    2) = (   0.0000000   0.0000000   0.3333333), wk =   0.1481481
        k(    3) = (   0.0000000   0.3333333  -0.0000000), wk =   0.1481481
        k(    4) = (   0.0000000   0.3333333   0.3333333), wk =   0.1481481
        k(    5) = (   0.0000000   0.3333333  -0.3333333), wk =   0.1481481
        k(    6) = (   0.3333333   0.0000000   0.0000000), wk =   0.1481481
        k(    7) = (   0.3333333   0.0000000   0.3333333), wk =   0.1481481
        k(    8) = (   0.3333333   0.0000000  -0.3333333), wk =   0.1481481
        k(    9) = (   0.3333333   0.3333333   0.0000000), wk =   0.1481481
        k(   10) = (   0.3333333   0.3333333   0.3333333), wk =   0.1481481
        k(   11) = (   0.3333333   0.3333333  -0.3333333), wk =   0.1481481
        k(   12) = (   0.3333333  -0.3333333  -0.0000000), wk =   0.1481481
        k(   13) = (   0.3333333  -0.3333333   0.3333333), wk =   0.1481481
        k(   14) = (   0.3333333  -0.3333333  -0.3333333), wk =   0.1481481

     Check: negative core charge=   -0.000017

     Initial potential from superposition of free atoms

     starting charge     174.9837, renormalised to     176.0000
     Starting wfcs are  120 randomized atomic wfcs +  136 random wfcs
     Checking if some PAW data can be deallocated...

     Self-consistent Calculation

     iteration #  1     ecut=    30.00 Ry     beta= 0.70
     Davidson diagonalization with overlap

     ethr =  1.00E-02,  avg # of iterations =  6.0

     total energy              =   -1964.92053512 Ry
     estimated scf accuracy    <       4.82133737 Ry

[...]

     total energy              =   -1967.27271343 Ry
     estimated scf accuracy    <       0.00000139 Ry

     iteration # 20     ecut=    30.00 Ry     beta= 0.70
     Davidson diagonalization with overlap

     ethr =  7.92E-10,  avg # of iterations =  1.0

     End of self-consistent calculation

          k = 0.0000 0.0000 0.0000 (  4551 PWs)   bands (ev):

   -72.0731 -72.0717 -43.0531 -43.0526 -40.9000 -40.8980 -40.8235 -40.8182
   -40.6276 -40.6136 -17.9449 -17.9377 -17.8735 -17.8692 -17.8119 -17.8080
   -17.8056 -17.8011 -17.7601 -17.7562 -17.7210 -17.7195 -17.5983 -17.5965
   -17.5926 -17.5909 -17.5696 -17.5687 -17.5536 -17.5510 -15.0109 -15.0065
   -14.9778 -14.9763 -14.9732 -14.9606 -13.1880 -12.7835 -11.5543 -11.5172
   -11.4244 -11.3446 -11.2400 -11.0362 -10.7868 -10.7728 -10.5935 -10.5539
    -2.6892  -2.6432  -0.7894  -0.0165   0.9606   0.9936   1.1088   1.4017
     1.4831   1.5834   1.8828   2.4036   2.4519   2.5613   3.0008   3.0709
     3.1326   3.4189   3.7209   3.8951   3.8981   3.9942   4.1520   4.1528
     4.1754   4.2834   4.4277   4.4656   4.5712   4.8669   5.0071   5.0452
     5.1568   5.1805   5.3115   5.3240   7.3765   7.5441   7.5475   7.5659
     7.6838   7.6877   8.2422   8.7304   8.9608   8.9796   9.0414  11.0517
    12.7301  12.7829  12.8265  13.9496  14.3890  14.4317  14.4633  14.6751
    14.7774  15.0467  15.2279  15.6793  15.9923  16.1336  16.2253  16.6590
    16.7340  17.4296  17.9683  18.5532  18.6440  18.9091  19.1957  19.5633
    19.6522  19.7768  19.8814  20.1525  20.2318  20.3438  20.5252  21.0925
    21.2183  21.3740  21.4155  21.7719  22.3276  22.3693  22.5658  23.3474
    23.5079  24.3877  24.4059  24.5404  24.9340  24.9556  25.1920  25.2550
    25.2619  25.7743  25.8374  26.2499  26.5638  26.7229  26.9779  27.4569
    27.5185  27.8765  27.9361  28.1564  28.9223  29.0501  29.1891  29.5620
    29.8078  29.8100  29.9984  30.4432  30.4719  30.5970  30.6638  31.0245
    31.2516  31.2811  31.6689  31.8487  31.9067  32.2495  32.8580  33.3632
    33.4127  33.6690  33.7175  33.7293  33.8906  34.3101  34.4567  34.4796
    34.6431  35.0582  35.0724  35.1507  35.2606  35.5086  35.5235  35.6033
    36.0810  36.5570  36.6682  37.0794  37.1811  37.3401  37.4052  37.4980
    37.8012  37.9374  38.1861  38.5168  38.6940  38.7336  38.7948  39.3029
    39.4585  39.6628  39.8067  39.8381  39.9031  40.0050  40.2293  40.3411
    40.4373  40.5004  40.6335  40.9656  41.0002  41.1831  41.4788  41.8839
    41.9260  41.9956  42.2488  42.3014  42.5150  42.8318  42.8537  43.3944
    43.4199  43.5671  43.7199  43.8780  44.1034  44.4176  44.4283  44.6285
    45.1888  45.4597  45.4742  45.5194  45.5211  45.9061  45.9375  45.9432
    46.0700  46.1819  46.3632  46.5040  46.5118  46.6973  46.9000  47.3271

     occupation numbers
     1.0000   1.0000   1.0000   1.0000   1.0000   1.0000   1.0000   1.0000
     1.0000   1.0000   1.0000   1.0000   1.0000   1.0000   1.0000   1.0000
     1.0000   1.0000   1.0000   1.0000   1.0000   1.0000   1.0000   1.0000
     1.0000   1.0000   1.0000   1.0000   1.0000   1.0000   1.0000   1.0000
     1.0000   1.0000   1.0000   1.0000   1.0000   1.0000   1.0000   1.0000
     1.0000   1.0000   1.0000   1.0000   1.0000   1.0000   1.0000   1.0000
     1.0000   1.0000   1.0000   1.0000   1.0000   1.0000   1.0000   1.0000
     1.0000   1.0000   1.0000   1.0000   1.0000   1.0000   1.0000   1.0000
     1.0000   1.0000   1.0000   1.0000   1.0000   1.0000   1.0000   1.0000
     1.0000   1.0000   1.0000   1.0000   1.0000   1.0000   1.0000   1.0000
     1.0000   1.0000   1.0000   1.0000   1.0000   1.0000   1.0000   1.0000
     0.0000   0.0000   0.0000   0.0000   0.0000   0.0000   0.0000   0.0000
     0.0000   0.0000   0.0000   0.0000   0.0000   0.0000   0.0000   0.0000
     0.0000   0.0000   0.0000   0.0000   0.0000   0.0000   0.0000   0.0000
     0.0000   0.0000   0.0000   0.0000   0.0000   0.0000   0.0000   0.0000
     0.0000   0.0000   0.0000   0.0000   0.0000   0.0000   0.0000   0.0000
     0.0000   0.0000   0.0000   0.0000   0.0000   0.0000   0.0000   0.0000
     0.0000   0.0000   0.0000   0.0000   0.0000   0.0000   0.0000   0.0000
     0.0000   0.0000   0.0000   0.0000   0.0000   0.0000   0.0000   0.0000
     0.0000   0.0000   0.0000   0.0000   0.0000   0.0000   0.0000   0.0000
     0.0000   0.0000   0.0000   0.0000   0.0000   0.0000   0.0000   0.0000
     0.0000   0.0000   0.0000   0.0000   0.0000   0.0000   0.0000   0.0000
     0.0000   0.0000   0.0000   0.0000   0.0000   0.0000   0.0000   0.0000
     0.0000   0.0000   0.0000   0.0000   0.0000   0.0000   0.0000   0.0000
     0.0000   0.0000   0.0000   0.0000   0.0000   0.0000   0.0000   0.0000
     0.0000   0.0000   0.0000   0.0000   0.0000   0.0000   0.0000   0.0000
     0.0000   0.0000   0.0000   0.0000   0.0000   0.0000   0.0000   0.0000
     0.0000   0.0000   0.0000   0.0000   0.0000   0.0000   0.0000   0.0000
     0.0000   0.0000   0.0000   0.0000   0.0000   0.0000   0.0000   0.0000
     0.0000   0.0000   0.0000   0.0000   0.0000   0.0000   0.0000   0.0000
     0.0000   0.0000   0.0000   0.0000   0.0000   0.0000   0.0000   0.0000
     0.0000   0.0000   0.0000   0.0000   0.0000   0.0000   0.0000   0.0000

[...]

          k = 0.3333-0.3564-0.3269 (  4565 PWs)   bands (ev):

   -72.0729 -72.0721 -43.0532 -43.0528 -40.9014 -40.9010 -40.8213 -40.8206
   -40.6247 -40.6173 -17.9247 -17.9238 -17.8887 -17.8877 -17.8088 -17.8077
   -17.8060 -17.8027 -17.7535 -17.7523 -17.7340 -17.7325 -17.6003 -17.5984
   -17.5981 -17.5956 -17.5641 -17.5623 -17.5556 -17.5551 -15.0154 -15.0084
   -14.9807 -14.9804 -14.9725 -14.9629 -12.6940 -12.6473 -12.1418 -11.9773
   -11.4359 -11.1929 -11.1414 -11.0357 -10.8223 -10.7139 -10.6009 -10.5551
    -2.0954  -1.9834  -0.7520  -0.4375   0.9651   0.9670   1.1673   1.3227
     1.5639   1.6982   1.9276   1.9692   2.4219   2.5515   2.8499   3.0619
     3.1366   3.2176   3.4630   3.5881   3.7071   3.8996   3.9826   4.1108
     4.1281   4.2705   4.5743   4.6075   4.6338   4.6637   4.7394   4.7983
     4.9123   5.1169   5.1325   5.3788   7.4675   7.4837   7.5955   7.6054
     7.6358   7.6500   8.5006   8.6253   9.4726   9.4807  11.1553  11.4587
    11.7380  12.1465  13.7863  13.8175  13.8731  13.9590  14.3970  14.7302
    15.0112  15.2800  15.6023  15.8823  16.1932  16.3258  16.4159  16.8374
    17.0549  17.2854  17.5273  18.1019  18.1380  18.2947  18.5160  18.8290
    19.1654  19.4663  19.8144  19.9502  20.4749  20.5743  20.6756  20.9874
    21.5188  21.5605  21.8508  22.3271  22.4059  22.5885  23.0785  23.3078
    23.6385  23.7141  23.7940  24.4269  24.5709  24.8108  25.2733  25.4276
    25.7993  25.8436  26.1719  26.3859  26.4307  26.6346  26.9049  26.9616
    27.1855  28.1432  28.1577  28.4724  28.8258  29.0438  29.2263  29.3328
    29.5394  29.8016  29.8169  30.0149  30.3963  30.4890  30.6466  30.7122
    31.5898  31.7191  31.8615  32.2960  32.3391  32.5070  32.8030  32.8981
    33.2006  33.5218  33.6645  33.8421  34.2285  34.3184  34.5477  34.5506
    34.8359  34.9164  35.1396  35.5830  35.7781  35.8210  36.1208  36.2025
    36.4850  36.5625  36.7243  36.7925  37.1336  37.3037  37.3275  37.5535
    37.7632  37.8221  37.8956  38.1519  38.6385  38.8318  38.8644  39.0548
    39.0618  39.3883  39.5417  39.5648  39.8113  40.0968  40.2609  40.3186
    40.5216  40.7535  41.1809  41.4033  41.6011  41.6143  41.7222  41.8327
    42.0558  42.1789  42.2002  42.3842  42.3843  42.6753  42.7108  43.0346
    43.2581  43.3984  43.4027  43.8161  43.9612  44.2113  44.2751  44.3532
    44.5058  44.5668  44.8092  45.1332  45.7381  45.7811  45.8947  46.0229
    46.2112  46.4103  46.6101  46.7010  46.7085  47.0242  47.0316  47.3438

     occupation numbers
     1.0000   1.0000   1.0000   1.0000   1.0000   1.0000   1.0000   1.0000
     1.0000   1.0000   1.0000   1.0000   1.0000   1.0000   1.0000   1.0000
     1.0000   1.0000   1.0000   1.0000   1.0000   1.0000   1.0000   1.0000
     1.0000   1.0000   1.0000   1.0000   1.0000   1.0000   1.0000   1.0000
     1.0000   1.0000   1.0000   1.0000   1.0000   1.0000   1.0000   1.0000
     1.0000   1.0000   1.0000   1.0000   1.0000   1.0000   1.0000   1.0000
     1.0000   1.0000   1.0000   1.0000   1.0000   1.0000   1.0000   1.0000
     1.0000   1.0000   1.0000   1.0000   1.0000   1.0000   1.0000   1.0000
     1.0000   1.0000   1.0000   1.0000   1.0000   1.0000   1.0000   1.0000
     1.0000   1.0000   1.0000   1.0000   1.0000   1.0000   1.0000   1.0000
     1.0000   1.0000   1.0000   1.0000   1.0000   1.0000   1.0000   1.0000
     0.0000   0.0000   0.0000   0.0000   0.0000   0.0000   0.0000   0.0000
     0.0000   0.0000   0.0000   0.0000   0.0000   0.0000   0.0000   0.0000
     0.0000   0.0000   0.0000   0.0000   0.0000   0.0000   0.0000   0.0000
     0.0000   0.0000   0.0000   0.0000   0.0000   0.0000   0.0000   0.0000
     0.0000   0.0000   0.0000   0.0000   0.0000   0.0000   0.0000   0.0000
     0.0000   0.0000   0.0000   0.0000   0.0000   0.0000   0.0000   0.0000
     0.0000   0.0000   0.0000   0.0000   0.0000   0.0000   0.0000   0.0000
     0.0000   0.0000   0.0000   0.0000   0.0000   0.0000   0.0000   0.0000
     0.0000   0.0000   0.0000   0.0000   0.0000   0.0000   0.0000   0.0000
     0.0000   0.0000   0.0000   0.0000   0.0000   0.0000   0.0000   0.0000
     0.0000   0.0000   0.0000   0.0000   0.0000   0.0000   0.0000   0.0000
     0.0000   0.0000   0.0000   0.0000   0.0000   0.0000   0.0000   0.0000
     0.0000   0.0000   0.0000   0.0000   0.0000   0.0000   0.0000   0.0000
     0.0000   0.0000   0.0000   0.0000   0.0000   0.0000   0.0000   0.0000
     0.0000   0.0000   0.0000   0.0000   0.0000   0.0000   0.0000   0.0000
     0.0000   0.0000   0.0000   0.0000   0.0000   0.0000   0.0000   0.0000
     0.0000   0.0000   0.0000   0.0000   0.0000   0.0000   0.0000   0.0000
     0.0000   0.0000   0.0000   0.0000   0.0000   0.0000   0.0000   0.0000
     0.0000   0.0000   0.0000   0.0000   0.0000   0.0000   0.0000   0.0000
     0.0000   0.0000   0.0000   0.0000   0.0000   0.0000   0.0000   0.0000
     0.0000   0.0000   0.0000   0.0000   0.0000   0.0000   0.0000   0.0000

     highest occupied, lowest unoccupied level (ev):     7.6399    7.6095

!    total energy              =   -1967.27271342 Ry
     estimated scf accuracy    <       0.00000035 Ry

     The total energy is the sum of the following terms:
     one-electron contribution =   -1096.31461902 Ry
     hartree contribution      =     660.65500625 Ry
     xc contribution           =    -404.47310370 Ry
     ewald contribution        =   -1012.87245883 Ry
     one-center paw contrib.   =    -114.26753812 Ry
      -> PAW hartree energy AE =       0.00000000 Ry
      -> PAW hartree energy PS =       0.00000000 Ry
      -> PAW xc energy AE      =       0.00000000 Ry
      -> PAW xc energy PS      =       0.00000000 Ry
      -> total E_H with PAW    =     660.65500625 Ry
      -> total E_XC with PAW   =    -404.47310370 Ry

     convergence has been achieved in  20 iterations

     Writing all to output data dir bands_nm/myprefix.save/

     General routines

     Parallel routines

     PAW routines

   This run was terminated on:   1:38:37  17Jul2023

   JOB DONE.