     Program PWSCF v.7.1 starts on 15Jul2023 at 18: 4:22

     Reading input from espresso_6043.pwi
Warning: card &CELL ignored
Warning: card / ignored

     Current dimensions of program PWSCF are:
     Max number of different atomic species (ntypx) = 10
     Max number of k-points (npk) =  40000
     Max angular momentum in pseudopotentials (lmaxx) =  4
     file O.pbe-n-kjpaw_psl.0.1.UPF: wavefunction(s)  2P renormalized

     K-points division:     npool     =       2
     R & G space division:  proc/nbgrp/npool/nimage =       4
     Subspace diagonalization in iterative solution of the eigenvalue problem:
     one sub-group per band group will be used

     Using Slab Decomposition

     bravais-lattice index     =            0
     lattice parameter (alat)  =       8.9109  a.u.
     unit-cell volume          =    1285.1067 (a.u.)^3
     number of atoms/cell      =           20
     number of atomic types    =            3
     number of electrons       =       144.00
     number of Kohn-Sham states=          256
     kinetic-energy cutoff     =      30.0000  Ry
     charge density cutoff     =     240.0000  Ry
     scf convergence threshold =      1.0E-06
     mixing beta               =       0.7000
     number of iterations used =            8  plain     mixing
     Exchange-correlation= SLA  PW   PBX  PBC
                           (   1   4   3   4   0   0   0)

     celldm(1)=   8.910912  celldm(2)=   0.000000  celldm(3)=   0.000000
     celldm(4)=   0.000000  celldm(5)=   0.000000  celldm(6)=   0.000000

     crystal axes: (cart. coord. in units of alat)
               a(1) = (   1.000000   0.000000   0.000000 )
               a(2) = (   0.033831   1.187928   0.000000 )
               a(3) = (   0.064495   0.411494   1.528913 )

     reciprocal axes: (cart. coord. in units 2 pi/alat)
               b(1) = (  1.000000 -0.028479 -0.034518 )
               b(2) = (  0.000000  0.841802 -0.226564 )
               b(3) = (  0.000000  0.000000  0.654060 )

     PseudoPot. # 1 for Mn read from file:
     /lustre07/scratch/pragov/crystal_structure_design/utils/SSSP/mn_pbe_v1.5.uspp.F.UPF
     MD5 check sum: 82ef2b46521d7a7d9e736dc3972e4928
     Pseudo is Ultrasoft + core correction, Zval = 15.0
     Generated by new atomic code, or converted to UPF format
     Using radial grid of  859 points,  6 beta functions with:
                l(1) =   0
                l(2) =   0
                l(3) =   1
                l(4) =   1
                l(5) =   2
                l(6) =   2
     Q(r) pseudized with  8 coefficients,  rinner =    0.950   0.950   0.950
                                                       0.950   0.950

     PseudoPot. # 2 for B  read from file:
     /lustre07/scratch/pragov/crystal_structure_design/utils/SSSP/b_pbe_v1.4.uspp.F.UPF
     MD5 check sum: cc6de2960df11db49a60e589f9ebb39b
     Pseudo is Ultrasoft + core correction, Zval =  3.0
     Generated by new atomic code, or converted to UPF format
     Using radial grid of  781 points,  4 beta functions with:
                l(1) =   0
                l(2) =   0
                l(3) =   1
                l(4) =   1
     Q(r) pseudized with  8 coefficients,  rinner =    1.100   1.100   1.100

     PseudoPot. # 3 for O  read from file:
     /lustre07/scratch/pragov/crystal_structure_design/utils/SSSP/O.pbe-n-kjpaw_psl.0.1.UPF
     MD5 check sum: 0234752ac141de4415c5fc33072bef88
     Pseudo is Projector augmented-wave + core cor, Zval =  6.0
     Generated using "atomic" code by A. Dal Corso  v.5.0.99 svn rev. 10869
     Shape of augmentation charge: BESSEL
     Using radial grid of 1095 points,  4 beta functions with:
                l(1) =   0
                l(2) =   0
                l(3) =   1
                l(4) =   1
     Q(r) pseudized with 0 coefficients

     atomic species   valence    mass     pseudopotential
        Mn            15.00    54.93804     Mn( 1.00)
        B              3.00    10.81000     B ( 1.00)
        O              6.00    15.99900     O ( 1.00)

     No symmetry found

                                    s                        frac. trans.

      isym =  1     identity

 cryst.   s( 1) = (     1          0          0      )
                  (     0          1          0      )
                  (     0          0          1      )

 cart.    s( 1) = (  1.0000000  0.0000000  0.0000000 )
                  (  0.0000000  1.0000000 -0.0000000 )
                  (  0.0000000  0.0000000  1.0000000 )

   Cartesian axes

     site n.     atom                  positions (alat units)
         1           Mn  tau(   1) = (   0.5492077   0.7995026   0.7643708  )
         2           Mn  tau(   2) = (   0.5814466   1.0056059   1.5288395  )
         3           Mn  tau(   3) = (   0.0000745   0.0000445   0.0000948  )
         4           Mn  tau(   4) = (   1.0659016   1.3934860   0.7644259  )
         5           B   tau(   5) = (   1.0155509   0.6807336   0.3642543  )
         6           B   tau(   6) = (   0.6030535   1.4920989   1.1351444  )
         7           B   tau(   7) = (   0.0829882   0.9185620   1.1647319  )
         8           B   tau(   8) = (   0.4950516   0.1075433   0.3938143  )
         9           O   tau(   9) = (   0.8950586   1.4843997   1.1248686  )
        10           O   tau(  10) = (   0.3092230   0.6930363   0.3495278  )
        11           O   tau(  11) = (   0.2116447   1.0145372   0.9168998  )
        12           O   tau(  12) = (   0.6367070   0.2372653   0.1706909  )
        13           O   tau(  13) = (   0.6853983   1.1546287   0.5989822  )
        14           O   tau(  14) = (   0.2466010   0.8162547   1.3845086  )
        15           O   tau(  15) = (   0.4127305   0.4446444   0.9296952  )
        16           O   tau(  16) = (   0.8519825   0.7830079   0.1444257  )
        17           O   tau(  17) = (   0.8869231   0.5847957   0.6121018  )
        18           O   tau(  18) = (   0.4613880   1.3624897   1.3583474  )
        19           O   tau(  19) = (   0.2030566   0.1151298   0.4039541  )
        20           O   tau(  20) = (   0.7892625   0.9064532   1.1794508  )

   Crystallographic axes

     site n.     atom                  positions (cryst. coord.)
         1           Mn  tau(   1) = (  0.5000540  0.4998440  0.4999440  )
         2           Mn  tau(   2) = (  0.5000350  0.5001410  0.9999520  )
         3           Mn  tau(   3) = (  0.0000700  0.0000160  0.0000620  )
         4           Mn  tau(   4) = (  0.9998300  0.9998480  0.4999800  )
         5           B   tau(   5) = (  0.9835910  0.4905160  0.2382440  )
         6           B   tau(   6) = (  0.5213770  0.9988690  0.7424520  )
         7           B   tau(   7) = (  0.0166240  0.5093610  0.7618040  )
         8           B   tau(   8) = (  0.4783950  0.0013060  0.2575780  )
         9           O   tau(   9) = (  0.8139560  0.9947160  0.7357310  )
        10           O   tau(  10) = (  0.2774210  0.5042090  0.2286120  )
        11           O   tau(  11) = (  0.1511020  0.6463030  0.5997070  )
        12           O   tau(  12) = (  0.6240580  0.1610580  0.1116420  )
        13           O   tau(  13) = (  0.6318400  0.8362610  0.3917700  )
        14           O   tau(  14) = (  0.1755640  0.3734450  0.9055510  )
        15           O   tau(  15) = (  0.3679760  0.1636670  0.6080760  )
        16           O   tau(  16) = (  0.8246980  0.6264160  0.0944630  )
        17           O   tau(  17) = (  0.8491400  0.3536020  0.4003510  )
        18           O   tau(  18) = (  0.3756980  0.8391940  0.8884400  )
        19           O   tau(  19) = (  0.1858340  0.0053950  0.2642100  )
        20           O   tau(  20) = (  0.7227350  0.4958330  0.7714310  )

     number of k points=    14
                       cart. coord. in units 2pi/alat
        k(    1) = (   0.0000000   0.0000000   0.0000000), wk =   0.0740741
        k(    2) = (   0.0000000   0.0000000   0.2180198), wk =   0.1481481
        k(    3) = (   0.0000000   0.2806007  -0.0755214), wk =   0.1481481
        k(    4) = (   0.0000000   0.2806007   0.1424985), wk =   0.1481481
        k(    5) = (   0.0000000   0.2806007  -0.2935412), wk =   0.1481481
        k(    6) = (   0.3333333  -0.0094929  -0.0115061), wk =   0.1481481
        k(    7) = (   0.3333333  -0.0094929   0.2065137), wk =   0.1481481
        k(    8) = (   0.3333333  -0.0094929  -0.2295260), wk =   0.1481481
        k(    9) = (   0.3333333   0.2711078  -0.0870275), wk =   0.1481481
        k(   10) = (   0.3333333   0.2711078   0.1309923), wk =   0.1481481
        k(   11) = (   0.3333333   0.2711078  -0.3050473), wk =   0.1481481
        k(   12) = (   0.3333333  -0.2900936   0.0640152), wk =   0.1481481
        k(   13) = (   0.3333333  -0.2900936   0.2820351), wk =   0.1481481
        k(   14) = (   0.3333333  -0.2900936  -0.1540046), wk =   0.1481481

                       cryst. coord.
        k(    1) = (   0.0000000   0.0000000   0.0000000), wk =   0.0740741
        k(    2) = (   0.0000000   0.0000000   0.3333333), wk =   0.1481481
        k(    3) = (   0.0000000   0.3333333  -0.0000000), wk =   0.1481481
        k(    4) = (   0.0000000   0.3333333   0.3333333), wk =   0.1481481
        k(    5) = (   0.0000000   0.3333333  -0.3333333), wk =   0.1481481
        k(    6) = (   0.3333333   0.0000000   0.0000000), wk =   0.1481481
        k(    7) = (   0.3333333   0.0000000   0.3333333), wk =   0.1481481
        k(    8) = (   0.3333333   0.0000000  -0.3333333), wk =   0.1481481
        k(    9) = (   0.3333333   0.3333333  -0.0000000), wk =   0.1481481
        k(   10) = (   0.3333333   0.3333333   0.3333333), wk =   0.1481481
        k(   11) = (   0.3333333   0.3333333  -0.3333333), wk =   0.1481481
        k(   12) = (   0.3333333  -0.3333333   0.0000000), wk =   0.1481481
        k(   13) = (   0.3333333  -0.3333333   0.3333333), wk =   0.1481481
        k(   14) = (   0.3333333  -0.3333333  -0.3333333), wk =   0.1481481

     Check: negative core charge=   -0.000027

     Initial potential from superposition of free atoms

     starting charge     141.9985, renormalised to     144.0000
     Starting wfcs are  116 randomized atomic wfcs +  140 random wfcs
     Checking if some PAW data can be deallocated...

     Self-consistent Calculation

     iteration #  1     ecut=    30.00 Ry     beta= 0.70
     Davidson diagonalization with overlap

     ethr =  1.00E-02,  avg # of iterations =  6.0

     total energy              =   -1365.56689902 Ry
     estimated scf accuracy    <       7.26994408 Ry

[...]

     total energy              =   -1370.23139228 Ry
     estimated scf accuracy    <       0.00000244 Ry

     iteration # 28     ecut=    30.00 Ry     beta= 0.70
     Davidson diagonalization with overlap

     ethr =  1.69E-09,  avg # of iterations =  1.0

     End of self-consistent calculation

          k = 0.0000 0.0000 0.0000 (  3571 PWs)   bands (ev):

   -71.3307 -71.1089 -71.0961 -70.8555 -40.1950 -40.0448 -40.0329 -39.9830
   -39.9364 -39.8334 -39.8295 -39.7585 -39.5887 -39.5489 -39.4988 -39.4460
   -12.7625 -12.1412 -11.9432 -11.8445 -11.2173 -10.8697 -10.8328 -10.7752
   -10.7703 -10.5420 -10.5386 -10.4572   0.2607   0.5422   0.6372   0.9359
     1.1918   1.2319   1.2872   1.3625   1.5625   1.6359   2.0748   2.1618
     2.2142   2.4891   2.7311   3.2644   3.3082   3.5950   3.8070   3.9812
     4.3567   4.5346   4.6764   4.8028   4.8455   5.2046   5.2230   5.3217
     5.3873   5.6440   5.7206   5.7278   5.8447   6.3286   6.4644   6.6040
     7.9368   7.9935   8.0719   8.1037   8.1486   8.2157   8.3649   8.5325
     8.5532   8.6339   8.7266   8.8117   9.4094   9.4287   9.5064   9.6486
    10.3644  10.7680  10.9564  10.9833  13.0156  13.5210  14.6470  14.9344
    15.5660  15.9465  16.8607  17.8470  18.2907  18.4105  18.9037  19.0955
    19.4932  19.7702  20.1122  20.2211  20.9902  21.6053  21.7118  21.9103
    22.0145  22.0258  22.4958  22.6848  22.8680  23.0004  23.3230  23.3546
    23.4727  23.5616  23.5858  23.6799  23.8640  23.9190  24.1607  24.1666
    24.3542  24.6542  24.7423  24.7815  25.9148  26.4637  26.8636  27.3806
    27.8725  28.4056  28.7309  29.0081  29.1791  29.6438  29.8044  30.1129
    30.6982  31.4221  31.5721  31.6814  32.0511  32.4944  32.5562  33.0654
    33.4481  33.4877  33.6348  34.1011  34.1820  34.2942  34.3882  34.6512
    34.8720  35.5620  35.6409  35.8108  35.8446  36.0172  36.0305  36.3040
    36.3540  36.6674  37.4487  37.6527  38.2023  38.2988  38.8523  39.2441
    39.3545  39.4981  39.7275  39.8666  39.9084  40.3414  40.6904  40.7484
    41.0855  41.2565  41.5057  41.8097  42.1379  42.1576  42.2298  42.4198
    42.6385  42.9122  43.1157  43.4760  43.5571  43.8709  43.9125  44.0852
    44.4348  44.4898  44.8523  45.1699  45.3590  45.4430  45.6248  45.8169
    45.9893  46.3285  46.3886  46.4782  46.8451  46.9275  47.0422  47.2472
    47.2699  47.3312  47.7641  47.8142  48.3851  48.4342  48.5413  48.8262
    49.1533  49.2449  49.5257  49.8851  50.0335  50.2832  50.5212  50.6666
    51.0038  51.0759  51.2732  51.4391  51.5057  51.8313  52.0428  52.1917
    52.5578  52.7149  52.7473  53.3331  53.3652  53.6135  53.9118  53.9628
    54.2527  54.2850  54.8971  54.9612  55.2547  55.5650  55.5916  55.8118
    55.8354  56.0047  56.0454  56.3505  56.4665  56.6699  56.9123  57.3171

     occupation numbers
     1.0000   1.0000   1.0000   1.0000   1.0000   1.0000   1.0000   1.0000
     1.0000   1.0000   1.0000   1.0000   1.0000   1.0000   1.0000   1.0000
     1.0000   1.0000   1.0000   1.0000   1.0000   1.0000   1.0000   1.0000
     1.0000   1.0000   1.0000   1.0000   1.0000   1.0000   1.0000   1.0000
     1.0000   1.0000   1.0000   1.0000   1.0000   1.0000   1.0000   1.0000
     1.0000   1.0000   1.0000   1.0000   1.0000   1.0000   1.0000   1.0000
     1.0000   1.0000   1.0000   1.0000   1.0000   1.0000   1.0000   1.0000
     1.0000   1.0000   1.0000   1.0000   1.0000   1.0000   1.0000   1.0000
     1.0000   1.0000   1.0000   1.0000   1.0000   1.0000   1.0000   1.0000
     0.0000   0.0000   0.0000   0.0000   0.0000   0.0000   0.0000   0.0000
     0.0000   0.0000   0.0000   0.0000   0.0000   0.0000   0.0000   0.0000
     0.0000   0.0000   0.0000   0.0000   0.0000   0.0000   0.0000   0.0000
     0.0000   0.0000   0.0000   0.0000   0.0000   0.0000   0.0000   0.0000
     0.0000   0.0000   0.0000   0.0000   0.0000   0.0000   0.0000   0.0000
     0.0000   0.0000   0.0000   0.0000   0.0000   0.0000   0.0000   0.0000
     0.0000   0.0000   0.0000   0.0000   0.0000   0.0000   0.0000   0.0000
     0.0000   0.0000   0.0000   0.0000   0.0000   0.0000   0.0000   0.0000
     0.0000   0.0000   0.0000   0.0000   0.0000   0.0000   0.0000   0.0000
     0.0000   0.0000   0.0000   0.0000   0.0000   0.0000   0.0000   0.0000
     0.0000   0.0000   0.0000   0.0000   0.0000   0.0000   0.0000   0.0000
     0.0000   0.0000   0.0000   0.0000   0.0000   0.0000   0.0000   0.0000
     0.0000   0.0000   0.0000   0.0000   0.0000   0.0000   0.0000   0.0000
     0.0000   0.0000   0.0000   0.0000   0.0000   0.0000   0.0000   0.0000
     0.0000   0.0000   0.0000   0.0000   0.0000   0.0000   0.0000   0.0000
     0.0000   0.0000   0.0000   0.0000   0.0000   0.0000   0.0000   0.0000
     0.0000   0.0000   0.0000   0.0000   0.0000   0.0000   0.0000   0.0000
     0.0000   0.0000   0.0000   0.0000   0.0000   0.0000   0.0000   0.0000
     0.0000   0.0000   0.0000   0.0000   0.0000   0.0000   0.0000   0.0000
     0.0000   0.0000   0.0000   0.0000   0.0000   0.0000   0.0000   0.0000
     0.0000   0.0000   0.0000   0.0000   0.0000   0.0000   0.0000   0.0000
     0.0000   0.0000   0.0000   0.0000   0.0000   0.0000   0.0000   0.0000
     0.0000   0.0000   0.0000   0.0000   0.0000   0.0000   0.0000   0.0000

[...]

          k = 0.3333-0.2901-0.1540 (  3576 PWs)   bands (ev):

   -71.3307 -71.1090 -71.0962 -70.8556 -40.1963 -40.0445 -40.0359 -39.9831
   -39.9365 -39.8338 -39.8286 -39.7602 -39.5881 -39.5496 -39.4979 -39.4470
   -12.3213 -12.0979 -12.0273 -11.9784 -11.1043 -10.9629 -10.9003 -10.8589
   -10.7731 -10.7200 -10.5841 -10.5682   0.4814   0.5829   0.7808   0.8048
     1.3440   1.4372   1.5431   1.6453   1.7865   1.9325   2.0727   2.1283
     2.3282   2.7081   2.9224   3.0161   3.5083   3.6873   3.7835   3.8939
     3.9884   4.1521   4.3365   4.6701   4.7300   4.8951   5.0606   5.1808
     5.3441   5.5212   5.6079   5.6770   5.8702   6.0838   6.1225   6.2016
     8.0934   8.1361   8.2036   8.2367   8.2926   8.3508   8.4184   8.4983
     8.5993   8.6216   8.6886   8.7993   9.3832   9.5043   9.5605   9.6126
    10.3027  10.6605  10.6761  10.7462  14.2886  14.5594  14.7215  14.7831
    15.2581  16.3543  16.6372  16.9519  17.4472  18.1838  18.3180  18.8752
    19.7441  19.9444  19.9913  20.2769  20.7942  21.1482  21.3791  21.6361
    22.0005  22.2060  22.4772  22.6491  22.8754  23.0591  23.1947  23.4115
    23.7222  23.9413  24.1276  24.1818  24.2768  24.3317  24.4148  24.6388
    24.8758  25.3774  25.5450  25.6293  25.8605  26.3198  27.6733  28.0193
    28.1204  28.3046  28.6552  28.8856  29.1379  29.1656  29.6825  30.0485
    30.1238  30.3409  31.0354  31.2422  31.3690  31.5983  31.6180  32.1802
    32.4048  32.5484  32.8861  33.1541  33.7363  33.9932  34.0816  34.4863
    34.8340  35.0384  35.3849  35.7449  35.9907  36.2267  36.8109  37.0182
    37.2788  37.4138  38.0963  38.4099  38.5564  38.7914  38.8435  39.1337
    39.5955  39.8587  40.0200  40.3674  40.4032  40.7360  40.8275  41.1870
    41.2970  41.5354  41.8084  41.9761  42.0305  42.2442  42.4060  42.6557
    42.8548  43.0196  43.2098  43.4245  43.6661  43.7440  43.9755  44.0967
    44.2880  44.4415  44.5957  44.8098  45.0669  45.3740  45.4719  45.7464
    45.8829  46.0357  46.4312  46.6833  46.7156  46.8488  47.2315  47.4168
    47.6278  47.8380  48.0317  48.2377  48.2906  48.3900  48.6315  48.8137
    49.2765  49.3804  49.7196  49.8971  49.9899  50.1515  50.3187  50.5391
    50.8302  51.0196  51.2313  51.5424  51.7462  51.8395  52.0383  52.2572
    52.3763  52.7142  52.8531  53.0216  53.2565  53.5771  53.6692  53.7907
    54.0513  54.1812  54.6982  54.7769  55.1684  55.1984  55.4343  55.6196
    55.7039  55.9760  56.0405  56.6263  56.7346  57.1075  57.2467  57.5439

     occupation numbers
     1.0000   1.0000   1.0000   1.0000   1.0000   1.0000   1.0000   1.0000
     1.0000   1.0000   1.0000   1.0000   1.0000   1.0000   1.0000   1.0000
     1.0000   1.0000   1.0000   1.0000   1.0000   1.0000   1.0000   1.0000
     1.0000   1.0000   1.0000   1.0000   1.0000   1.0000   1.0000   1.0000
     1.0000   1.0000   1.0000   1.0000   1.0000   1.0000   1.0000   1.0000
     1.0000   1.0000   1.0000   1.0000   1.0000   1.0000   1.0000   1.0000
     1.0000   1.0000   1.0000   1.0000   1.0000   1.0000   1.0000   1.0000
     1.0000   1.0000   1.0000   1.0000   1.0000   1.0000   1.0000   1.0000
     1.0000   1.0000   1.0000   1.0000   1.0000   1.0000   1.0000   1.0000
     0.0000   0.0000   0.0000   0.0000   0.0000   0.0000   0.0000   0.0000
     0.0000   0.0000   0.0000   0.0000   0.0000   0.0000   0.0000   0.0000
     0.0000   0.0000   0.0000   0.0000   0.0000   0.0000   0.0000   0.0000
     0.0000   0.0000   0.0000   0.0000   0.0000   0.0000   0.0000   0.0000
     0.0000   0.0000   0.0000   0.0000   0.0000   0.0000   0.0000   0.0000
     0.0000   0.0000   0.0000   0.0000   0.0000   0.0000   0.0000   0.0000
     0.0000   0.0000   0.0000   0.0000   0.0000   0.0000   0.0000   0.0000
     0.0000   0.0000   0.0000   0.0000   0.0000   0.0000   0.0000   0.0000
     0.0000   0.0000   0.0000   0.0000   0.0000   0.0000   0.0000   0.0000
     0.0000   0.0000   0.0000   0.0000   0.0000   0.0000   0.0000   0.0000
     0.0000   0.0000   0.0000   0.0000   0.0000   0.0000   0.0000   0.0000
     0.0000   0.0000   0.0000   0.0000   0.0000   0.0000   0.0000   0.0000
     0.0000   0.0000   0.0000   0.0000   0.0000   0.0000   0.0000   0.0000
     0.0000   0.0000   0.0000   0.0000   0.0000   0.0000   0.0000   0.0000
     0.0000   0.0000   0.0000   0.0000   0.0000   0.0000   0.0000   0.0000
     0.0000   0.0000   0.0000   0.0000   0.0000   0.0000   0.0000   0.0000
     0.0000   0.0000   0.0000   0.0000   0.0000   0.0000   0.0000   0.0000
     0.0000   0.0000   0.0000   0.0000   0.0000   0.0000   0.0000   0.0000
     0.0000   0.0000   0.0000   0.0000   0.0000   0.0000   0.0000   0.0000
     0.0000   0.0000   0.0000   0.0000   0.0000   0.0000   0.0000   0.0000
     0.0000   0.0000   0.0000   0.0000   0.0000   0.0000   0.0000   0.0000
     0.0000   0.0000   0.0000   0.0000   0.0000   0.0000   0.0000   0.0000
     0.0000   0.0000   0.0000   0.0000   0.0000   0.0000   0.0000   0.0000

     highest occupied, lowest unoccupied level (ev):     8.5469    8.4867

!    total energy              =   -1370.23139158 Ry
     estimated scf accuracy    <       0.00000094 Ry

     The total energy is the sum of the following terms:
     one-electron contribution =    -618.67137911 Ry
     hartree contribution      =     380.93485169 Ry
     xc contribution           =    -206.34883046 Ry
     ewald contribution        =    -811.94917950 Ry
     one-center paw contrib.   =    -114.19685420 Ry
      -> PAW hartree energy AE =       0.00000000 Ry
      -> PAW hartree energy PS =       0.00000000 Ry
      -> PAW xc energy AE      =       0.00000000 Ry
      -> PAW xc energy PS      =       0.00000000 Ry
      -> total E_H with PAW    =     380.93485169 Ry
      -> total E_XC with PAW   =    -206.34883046 Ry

     convergence has been achieved in  28 iterations

     Writing all to output data dir bands_nm/myprefix.save/

     General routines

     Parallel routines

     PAW routines

   This run was terminated on:  18: 6:16  15Jul2023

   JOB DONE.