     Program PWSCF v.7.1 starts on 15Jul2023 at 18:28:53

     Reading input from espresso_19667.pwi
Warning: card &CELL ignored
Warning: card / ignored

     Current dimensions of program PWSCF are:
     Max number of different atomic species (ntypx) = 10
     Max number of k-points (npk) =  40000
     Max angular momentum in pseudopotentials (lmaxx) =  4
     file Sm.paw.z_16.atompaw.wentzcovitch.v1.2.upf: wavefunction(s)  6S 0P 5D 0D 4F 0F renormalized
     file O.pbe-n-kjpaw_psl.0.1.UPF: wavefunction(s)  2P renormalized
     Message from routine setup:
     using ibrav=0 with symmetry is DISCOURAGED, use correct ibrav instead

     K-points division:     npool     =       2
     R & G space division:  proc/nbgrp/npool/nimage =       4
     Subspace diagonalization in iterative solution of the eigenvalue problem:
     one sub-group per band group will be used

     Using Slab Decomposition

     bravais-lattice index     =            0
     lattice parameter (alat)  =      10.1202  a.u.
     unit-cell volume          =    1653.4583 (a.u.)^3
     number of atoms/cell      =           20
     number of atomic types    =            3
     number of electrons       =       204.00
     number of Kohn-Sham states=          256
     kinetic-energy cutoff     =      30.0000  Ry
     charge density cutoff     =     240.0000  Ry
     scf convergence threshold =      1.0E-06
     mixing beta               =       0.7000
     number of iterations used =            8  plain     mixing
     Exchange-correlation= SLA  PW   PBX  PBC
                           (   1   4   3   4   0   0   0)

     celldm(1)=  10.120222  celldm(2)=   0.000000  celldm(3)=   0.000000
     celldm(4)=   0.000000  celldm(5)=   0.000000  celldm(6)=   0.000000

     crystal axes: (cart. coord. in units of alat)
               a(1) = (   1.000000   0.000000   0.000000 )
               a(2) = (   0.000000   1.098949   0.000000 )
               a(3) = (   0.000000   0.000000   1.451595 )

     reciprocal axes: (cart. coord. in units 2 pi/alat)
               b(1) = (  1.000000  0.000000  0.000000 )
               b(2) = (  0.000000  0.909960  0.000000 )
               b(3) = (  0.000000  0.000000  0.688898 )

     PseudoPot. # 1 for Sm read from file:
     /lustre07/scratch/pragov/crystal_structure_design/utils/SSSP/Sm.paw.z_16.atompaw.wentzcovitch.v1.2.upf
     MD5 check sum: d38221e44bcfc3c784cbdb498a69732f
     Pseudo is Projector augmented-wave + core cor, Zval = 16.0
     Generated using ATOMPAW code
     Shape of augmentation charge: BESSEL
     Using radial grid of 1107 points,  8 beta functions with:
                l(1) =   0
                l(2) =   0
                l(3) =   1
                l(4) =   1
                l(5) =   2
                l(6) =   2
                l(7) =   3
                l(8) =   3
     Q(r) pseudized with 0 coefficients

     PseudoPot. # 2 for Rh read from file:
     /lustre07/scratch/pragov/crystal_structure_design/utils/SSSP/Rh_ONCV_PBE-1.0.oncvpsp.upf
     MD5 check sum: ba07c69523b14cacd10683cd4c4284c1
     Pseudo is Norm-conserving, Zval = 17.0
     Generated using ONCVPSP code by D. R. Hamann
     Using radial grid of 1442 points,  6 beta functions with:
                l(1) =   0
                l(2) =   0
                l(3) =   1
                l(4) =   1
                l(5) =   2
                l(6) =   2

     PseudoPot. # 3 for O  read from file:
     /lustre07/scratch/pragov/crystal_structure_design/utils/SSSP/O.pbe-n-kjpaw_psl.0.1.UPF
     MD5 check sum: 0234752ac141de4415c5fc33072bef88
     Pseudo is Projector augmented-wave + core cor, Zval =  6.0
     Generated using "atomic" code by A. Dal Corso  v.5.0.99 svn rev. 10869
     Shape of augmentation charge: BESSEL
     Using radial grid of 1095 points,  4 beta functions with:
                l(1) =   0
                l(2) =   0
                l(3) =   1
                l(4) =   1
     Q(r) pseudized with 0 coefficients

     atomic species   valence    mass     pseudopotential
        Sm            16.00   150.36000     Sm( 1.00)
        Rh            17.00   102.90550     Rh( 1.00)
        O              6.00    15.99900     O ( 1.00)

      8 Sym. Ops., with inversion, found ( 6 have fractional translation)

                                    s                        frac. trans.

      isym =  1     identity

 cryst.   s( 1) = (     1          0          0      )
                  (     0          1          0      )
                  (     0          0          1      )

 cart.    s( 1) = (  1.0000000  0.0000000  0.0000000 )
                  (  0.0000000  1.0000000  0.0000000 )
                  (  0.0000000  0.0000000  1.0000000 )

      isym =  2     180 deg rotation - cart. axis [0,0,1]

 cryst.   s( 2) = (    -1          0          0      )    f =(  0.0000000 )
                  (     0         -1          0      )       ( -0.0000000 )
                  (     0          0          1      )       (  0.5000000 )

 cart.    s( 2) = ( -1.0000000  0.0000000  0.0000000 )    f =(  0.0000000 )
                  (  0.0000000 -1.0000000  0.0000000 )       ( -0.0000000 )
                  (  0.0000000  0.0000000  1.0000000 )       (  0.7257973 )

[...]

      isym =  4     180 deg rotation - cart. axis [1,0,0]

[...]

      isym =  5     inversion

 cryst.   s( 5) = (    -1          0          0      )
                  (     0         -1          0      )
                  (     0          0         -1      )

 cart.    s( 5) = ( -1.0000000  0.0000000  0.0000000 )
                  (  0.0000000 -1.0000000  0.0000000 )
                  (  0.0000000  0.0000000 -1.0000000 )

      isym =  6     inv. 180 deg rotation - cart. axis [0,0,1]

[...]

      isym =  8     inv. 180 deg rotation - cart. axis [1,0,0]

 cryst.   s( 8) = (    -1          0          0      )    f =(  0.5000000 )
                  (     0          1          0      )       (  0.5000000 )
                  (     0          0          1      )       (  0.0000000 )

 cart.    s( 8) = ( -1.0000000  0.0000000  0.0000000 )    f =(  0.5000000 )
                  (  0.0000000  1.0000000  0.0000000 )       (  0.5494747 )
                  (  0.0000000  0.0000000  1.0000000 )       (  0.0000000 )

   Cartesian axes

     site n.     atom                  positions (alat units)
         1           Sm  tau(   1) = (   0.4711520   0.6397589   1.0886960  )
         2           Sm  tau(   2) = (   0.9711520   1.0086653   0.3628987  )
         3           Sm  tau(   3) = (   0.0288480   0.0902842   1.0886960  )
         4           Sm  tau(   4) = (   0.5288480   0.4591905   0.3628987  )
         5           Rh  tau(   5) = (   0.5000000   0.0000000   0.7257973  )
         6           Rh  tau(   6) = (   0.0000000   0.5494747   0.7257973  )
         7           Rh  tau(   7) = (   0.0000000   0.5494747   0.0000000  )
         8           Rh  tau(   8) = (   0.5000000   0.0000000   0.0000000  )
         9           O   tau(   9) = (   0.8199740   0.2121863   0.6413711  )
        10           O   tau(  10) = (   0.3199740   0.3372885   0.8102235  )
        11           O   tau(  11) = (   0.6800260   0.7616610   0.0844262  )
        12           O   tau(  12) = (   0.1800260   0.8867632   1.3671685  )
        13           O   tau(  13) = (   0.1800260   0.8867632   0.8102235  )
        14           O   tau(  14) = (   0.6800260   0.7616610   0.6413711  )
        15           O   tau(  15) = (   0.3199740   0.3372885   1.3671685  )
        16           O   tau(  16) = (   0.8199740   0.2121863   0.0844262  )
        17           O   tau(  17) = (   0.3764260   0.0479878   0.3628987  )
        18           O   tau(  18) = (   0.8764260   0.5014869   1.0886960  )
        19           O   tau(  19) = (   0.1235740   0.5974626   0.3628987  )
        20           O   tau(  20) = (   0.6235740   1.0509616   1.0886960  )

   Crystallographic axes

     site n.     atom                  positions (cryst. coord.)
         1           Sm  tau(   1) = (  0.4711520  0.5821550  0.7500000  )
         2           Sm  tau(   2) = (  0.9711520  0.9178450  0.2500000  )
         3           Sm  tau(   3) = (  0.0288480  0.0821550  0.7500000  )
         4           Sm  tau(   4) = (  0.5288480  0.4178450  0.2500000  )
         5           Rh  tau(   5) = (  0.5000000  0.0000000  0.5000000  )
         6           Rh  tau(   6) = (  0.0000000  0.5000000  0.5000000  )
         7           Rh  tau(   7) = (  0.0000000  0.5000000  0.0000000  )
         8           Rh  tau(   8) = (  0.5000000  0.0000000  0.0000000  )
         9           O   tau(   9) = (  0.8199740  0.1930810  0.4418390  )
        10           O   tau(  10) = (  0.3199740  0.3069190  0.5581610  )
        11           O   tau(  11) = (  0.6800260  0.6930810  0.0581610  )
        12           O   tau(  12) = (  0.1800260  0.8069190  0.9418390  )
        13           O   tau(  13) = (  0.1800260  0.8069190  0.5581610  )
        14           O   tau(  14) = (  0.6800260  0.6930810  0.4418390  )
        15           O   tau(  15) = (  0.3199740  0.3069190  0.9418390  )
        16           O   tau(  16) = (  0.8199740  0.1930810  0.0581610  )
        17           O   tau(  17) = (  0.3764260  0.0436670  0.2500000  )
        18           O   tau(  18) = (  0.8764260  0.4563330  0.7500000  )
        19           O   tau(  19) = (  0.1235740  0.5436670  0.2500000  )
        20           O   tau(  20) = (  0.6235740  0.9563330  0.7500000  )

     number of k points=     8
                       cart. coord. in units 2pi/alat
        k(    1) = (   0.0000000   0.0000000   0.0000000), wk =   0.0740741
        k(    2) = (   0.0000000   0.0000000   0.2296325), wk =   0.1481481
        k(    3) = (   0.0000000   0.3033200   0.0000000), wk =   0.1481481
        k(    4) = (   0.0000000   0.3033200   0.2296325), wk =   0.2962963
        k(    5) = (   0.3333333   0.0000000   0.0000000), wk =   0.1481481
        k(    6) = (   0.3333333   0.0000000   0.2296325), wk =   0.2962963
        k(    7) = (   0.3333333   0.3033200   0.0000000), wk =   0.2962963
        k(    8) = (   0.3333333   0.3033200   0.2296325), wk =   0.5925926

                       cryst. coord.
        k(    1) = (   0.0000000   0.0000000   0.0000000), wk =   0.0740741
        k(    2) = (   0.0000000   0.0000000   0.3333333), wk =   0.1481481
        k(    3) = (   0.0000000   0.3333333   0.0000000), wk =   0.1481481
        k(    4) = (   0.0000000   0.3333333   0.3333333), wk =   0.2962963
        k(    5) = (   0.3333333   0.0000000   0.0000000), wk =   0.1481481
        k(    6) = (   0.3333333   0.0000000   0.3333333), wk =   0.2962963
        k(    7) = (   0.3333333   0.3333333   0.0000000), wk =   0.2962963
        k(    8) = (   0.3333333   0.3333333   0.3333333), wk =   0.5925926

     Check: negative core charge=   -0.000014

     Initial potential from superposition of free atoms

     starting charge     203.9759, renormalised to     204.0000
     Starting wfcs are  216 randomized atomic wfcs +   40 random wfcs
     Checking if some PAW data can be deallocated...

     Self-consistent Calculation

     iteration #  1     ecut=    30.00 Ry     beta= 0.70
     Davidson diagonalization with overlap

     ethr =  1.00E-02,  avg # of iterations =  8.5

     total energy              =   -3781.77912962 Ry
     estimated scf accuracy    <       3.17679762 Ry

[...]

     total energy              =   -3783.99384468 Ry
     estimated scf accuracy    <       0.00000700 Ry

     iteration #118     ecut=    30.00 Ry     beta= 0.70
     Davidson diagonalization with overlap

     ethr =  3.43E-09,  avg # of iterations =  1.0

     End of self-consistent calculation

          k = 0.0000 0.0000 0.0000 (  4587 PWs)   bands (ev):

   -64.9669 -64.9667 -64.9666 -64.9664 -32.9000 -32.8974 -32.8937 -32.8902
   -32.8062 -32.8059 -32.7995 -32.7991 -32.7904 -32.7867 -32.7852 -32.7816
   -24.8455 -24.8291 -24.8047 -24.7928  -6.2329  -6.1954  -6.1893  -6.0626
    -5.9092  -5.1400  -5.0461  -4.9988  -4.8610  -4.6880  -4.5080  -4.5072
    -4.4326  -4.3447  -4.1635  -4.0283  -3.8100  -3.6036  -3.2677  -2.8657
    -2.5851  -2.5703  -2.2839  -2.2804   7.2680   7.3894   7.4692   7.6281
     7.6655   7.7421   7.7839   8.6045   8.7617   8.7989   8.8012   9.3094
     9.3359   9.4402   9.4956   9.4998   9.5504   9.5773   9.7353   9.9396
    10.1548  10.2765  10.3362  10.3658  10.4614  10.5184  10.7655  10.9421
    10.9687  11.0893  11.1014  11.2482  11.6877  11.7230  11.7258  11.8110
    11.8993  11.9314  12.0209  12.1972  12.6075  12.6523  12.9526  12.9926
    13.3960  13.4307  13.6198  13.8020  14.3722  14.3745  14.3769  14.3773
    14.3869  14.4455  14.4528  14.4603  14.4833  14.4916  14.5001  14.5126
    14.5339  14.5446  14.5512  14.5774  14.5893  14.6206  14.6494  14.6683
    14.6694  14.6879  14.7134  14.7317  14.7434  14.7466  14.7856  14.8654
    14.8930  14.9145  15.1456  15.4646  16.0082  17.2984  17.3559  17.4041
    18.2345  18.6014  19.0406  19.0662  19.1878  19.2405  19.4668  20.0108
    20.1162  20.5533  20.6053  20.6372  20.7782  20.8405  21.3199  21.3930
    21.5075  21.7065  21.8633  22.1760  22.4813  22.5546  22.6737  23.9943
    24.1111  24.4542  25.5808  25.9130  26.1304  26.1496  26.2666  26.2841
    26.7741  26.7963  27.0559  27.1814  27.2802  27.8459  27.9667  27.9885
    28.3940  28.6332  28.9951  29.7674  29.8774  30.0902  30.6105  30.7365
    30.9307  31.2542  31.6342  31.6928  31.9788  32.0555  32.2161  32.2958
    33.7120  33.7225  33.8164  34.0187  34.3710  34.4409  34.6601  34.9574
    35.4248  35.4900  35.5791  35.6163  35.6198  35.8663  35.8934  36.2398
    37.0790  37.1025  37.4497  37.6650  37.7510  37.8629  38.1533  38.5138
    38.6490  38.7468  38.9750  39.2498  39.7432  39.7465  39.9784  40.0072
    40.4205  40.4682  40.6002  40.6011  40.8635  41.6201  41.6685  41.8943
    41.9768  42.2773  42.3264  42.3561  42.4634  42.4706  42.7633  43.2066
    43.2889  43.4475  43.5020  43.9631  44.2725  44.4427  44.5903  44.7156
    44.7606  44.7721  45.3864  45.5597  45.5606  45.5830  45.6520  45.9791
    46.0078  46.2321  46.4247  46.5633  46.7713  46.7728  46.9836  47.1892

     occupation numbers
     1.0000   1.0000   1.0000   1.0000   1.0000   1.0000   1.0000   1.0000
     1.0000   1.0000   1.0000   1.0000   1.0000   1.0000   1.0000   1.0000
     1.0000   1.0000   1.0000   1.0000   1.0000   1.0000   1.0000   1.0000
     1.0000   1.0000   1.0000   1.0000   1.0000   1.0000   1.0000   1.0000
     1.0000   1.0000   1.0000   1.0000   1.0000   1.0000   1.0000   1.0000
     1.0000   1.0000   1.0000   1.0000   1.0000   1.0000   1.0000   1.0000
     1.0000   1.0000   1.0000   1.0000   1.0000   1.0000   1.0000   1.0000
     1.0000   1.0000   1.0000   1.0000   1.0000   1.0000   1.0000   1.0000
     1.0000   1.0000   1.0000   1.0000   1.0000   1.0000   1.0000   1.0000
     1.0000   1.0000   1.0000   1.0000   1.0000   1.0000   1.0000   1.0000
     1.0000   1.0000   1.0000   1.0000   1.0000   1.0000   1.0000   1.0000
     1.0000   1.0000   1.0000   1.0000   1.0000   1.0000   1.0000   1.0000
     1.0000   1.0000   1.0000   1.0000   1.0000   1.0000   0.0000   0.0000
     0.0000   0.0000   0.0000   0.0000   0.0000   0.0000   0.0000   0.0000
     0.0000   0.0000   0.0000   0.0000   0.0000   0.0000   0.0000   0.0000
     0.0000   0.0000   0.0000   0.0000   0.0000   0.0000   0.0000   0.0000
     0.0000   0.0000   0.0000   0.0000   0.0000   0.0000   0.0000   0.0000
     0.0000   0.0000   0.0000   0.0000   0.0000   0.0000   0.0000   0.0000
     0.0000   0.0000   0.0000   0.0000   0.0000   0.0000   0.0000   0.0000
     0.0000   0.0000   0.0000   0.0000   0.0000   0.0000   0.0000   0.0000
     0.0000   0.0000   0.0000   0.0000   0.0000   0.0000   0.0000   0.0000
     0.0000   0.0000   0.0000   0.0000   0.0000   0.0000   0.0000   0.0000
     0.0000   0.0000   0.0000   0.0000   0.0000   0.0000   0.0000   0.0000
     0.0000   0.0000   0.0000   0.0000   0.0000   0.0000   0.0000   0.0000
     0.0000   0.0000   0.0000   0.0000   0.0000   0.0000   0.0000   0.0000
     0.0000   0.0000   0.0000   0.0000   0.0000   0.0000   0.0000   0.0000
     0.0000   0.0000   0.0000   0.0000   0.0000   0.0000   0.0000   0.0000
     0.0000   0.0000   0.0000   0.0000   0.0000   0.0000   0.0000   0.0000
     0.0000   0.0000   0.0000   0.0000   0.0000   0.0000   0.0000   0.0000
     0.0000   0.0000   0.0000   0.0000   0.0000   0.0000   0.0000   0.0000
     0.0000   0.0000   0.0000   0.0000   0.0000   0.0000   0.0000   0.0000
     0.0000   0.0000   0.0000   0.0000   0.0000   0.0000   0.0000   0.0000

[...]

          k = 0.3333 0.3033 0.2296 (  4584 PWs)   bands (ev):

   -64.9667 -64.9667 -64.9666 -64.9666 -32.8973 -32.8966 -32.8940 -32.8932
   -32.8039 -32.8035 -32.8022 -32.8020 -32.7875 -32.7865 -32.7849 -32.7840
   -24.8265 -24.8217 -24.8133 -24.8091  -6.3517  -6.2298  -6.1446  -6.0128
    -5.6555  -5.4915  -5.2847  -5.2337  -5.0943  -4.9167  -4.6617  -4.6166
    -4.1849  -4.0911  -3.7290  -3.6333  -3.4881  -3.3231  -3.0445  -2.9382
    -2.7230  -2.6718  -2.4551  -2.4022   7.5253   7.5802   7.7251   7.8250
     7.8565   8.0300   8.2639   8.4346   8.6585   8.7303   8.7462   8.8954
     8.9566   9.0737   9.1795   9.3153   9.3792   9.4749   9.5850   9.7227
     9.8503   9.9773  10.1845  10.2612  10.3168  10.5364  10.5756  10.7623
    10.7881  10.8749  11.0715  11.1716  11.2059  11.2471  11.3702  11.4516
    12.4447  12.6871  12.8436  12.9463  13.0256  13.0826  13.1274  13.3063
    13.3460  13.4810  13.5790  13.6520  14.3544  14.3696  14.3970  14.4055
    14.4155  14.4226  14.4509  14.4539  14.4621  14.4715  14.4814  14.5036
    14.5173  14.5212  14.5599  14.5696  14.6656  14.6798  14.6851  14.6948
    14.7039  14.7183  14.7536  14.7786  14.7801  14.8007  14.8257  14.8420
    14.9669  15.0335  15.2260  15.5276  15.8507  16.3379  16.5992  17.0081
    19.0713  19.2249  19.2758  19.4525  19.5563  19.6950  19.7727  19.8900
    20.2081  20.3764  20.3877  20.5476  20.9467  21.0389  21.0724  21.3526
    21.3853  21.6930  21.8842  21.9825  22.3029  22.6452  23.2623  23.7753
    24.0464  24.3886  24.7930  25.0471  25.4422  25.8405  26.4308  26.7050
    26.8150  27.2961  27.5420  27.7441  27.9603  28.2113  28.3223  28.5925
    28.9500  29.1929  29.4463  29.7334  29.8628  30.1756  30.4066  30.6297
    30.8421  30.9918  30.9971  31.1752  31.5065  31.9756  32.0093  32.3941
    32.6697  32.7005  33.2175  33.5310  33.8524  33.8949  34.3262  34.5573
    35.4971  35.5375  35.7116  35.8924  36.1651  36.4036  36.5618  36.8873
    37.2327  37.4329  37.6127  37.7711  37.9581  38.1518  38.4386  38.5586
    38.8241  38.8895  38.9886  39.1668  39.6093  39.7558  39.9238  40.1003
    40.2349  40.2831  40.5286  40.5568  40.8515  41.0449  41.4157  41.5333
    41.8374  42.0505  42.2518  42.3882  42.5660  42.6281  42.8313  43.0258
    43.2765  43.5399  43.7706  43.8163  43.9607  44.2346  44.3815  44.5595
    44.6543  44.9029  45.0147  45.2214  45.4706  45.5849  45.6993  45.8298
    46.0542  46.2064  46.4776  46.6438  46.7285  46.8109  47.0526  47.2410

     occupation numbers
     1.0000   1.0000   1.0000   1.0000   1.0000   1.0000   1.0000   1.0000
     1.0000   1.0000   1.0000   1.0000   1.0000   1.0000   1.0000   1.0000
     1.0000   1.0000   1.0000   1.0000   1.0000   1.0000   1.0000   1.0000
     1.0000   1.0000   1.0000   1.0000   1.0000   1.0000   1.0000   1.0000
     1.0000   1.0000   1.0000   1.0000   1.0000   1.0000   1.0000   1.0000
     1.0000   1.0000   1.0000   1.0000   1.0000   1.0000   1.0000   1.0000
     1.0000   1.0000   1.0000   1.0000   1.0000   1.0000   1.0000   1.0000
     1.0000   1.0000   1.0000   1.0000   1.0000   1.0000   1.0000   1.0000
     1.0000   1.0000   1.0000   1.0000   1.0000   1.0000   1.0000   1.0000
     1.0000   1.0000   1.0000   1.0000   1.0000   1.0000   1.0000   1.0000
     1.0000   1.0000   1.0000   1.0000   1.0000   1.0000   1.0000   1.0000
     1.0000   1.0000   1.0000   1.0000   1.0000   1.0000   1.0000   1.0000
     1.0000   1.0000   1.0000   1.0000   1.0000   1.0000   0.0000   0.0000
     0.0000   0.0000   0.0000   0.0000   0.0000   0.0000   0.0000   0.0000
     0.0000   0.0000   0.0000   0.0000   0.0000   0.0000   0.0000   0.0000
     0.0000   0.0000   0.0000   0.0000   0.0000   0.0000   0.0000   0.0000
     0.0000   0.0000   0.0000   0.0000   0.0000   0.0000   0.0000   0.0000
     0.0000   0.0000   0.0000   0.0000   0.0000   0.0000   0.0000   0.0000
     0.0000   0.0000   0.0000   0.0000   0.0000   0.0000   0.0000   0.0000
     0.0000   0.0000   0.0000   0.0000   0.0000   0.0000   0.0000   0.0000
     0.0000   0.0000   0.0000   0.0000   0.0000   0.0000   0.0000   0.0000
     0.0000   0.0000   0.0000   0.0000   0.0000   0.0000   0.0000   0.0000
     0.0000   0.0000   0.0000   0.0000   0.0000   0.0000   0.0000   0.0000
     0.0000   0.0000   0.0000   0.0000   0.0000   0.0000   0.0000   0.0000
     0.0000   0.0000   0.0000   0.0000   0.0000   0.0000   0.0000   0.0000
     0.0000   0.0000   0.0000   0.0000   0.0000   0.0000   0.0000   0.0000
     0.0000   0.0000   0.0000   0.0000   0.0000   0.0000   0.0000   0.0000
     0.0000   0.0000   0.0000   0.0000   0.0000   0.0000   0.0000   0.0000
     0.0000   0.0000   0.0000   0.0000   0.0000   0.0000   0.0000   0.0000
     0.0000   0.0000   0.0000   0.0000   0.0000   0.0000   0.0000   0.0000
     0.0000   0.0000   0.0000   0.0000   0.0000   0.0000   0.0000   0.0000
     0.0000   0.0000   0.0000   0.0000   0.0000   0.0000   0.0000   0.0000

     highest occupied, lowest unoccupied level (ev):    14.5050   14.4814

!    total energy              =   -3783.99384896 Ry
     estimated scf accuracy    <       0.00000093 Ry

     The total energy is the sum of the following terms:
     one-electron contribution =    -516.77500964 Ry
     hartree contribution      =     411.81825861 Ry
     xc contribution           =    -248.88920955 Ry
     ewald contribution        =   -1517.80477123 Ry
     one-center paw contrib.   =   -1912.34311715 Ry
      -> PAW hartree energy AE =     380.52488926 Ry
      -> PAW hartree energy PS =    -371.29620517 Ry
      -> PAW xc energy AE      =   -1408.09278582 Ry
      -> PAW xc energy PS      =      50.34145546 Ry
      -> total E_H with PAW    =     421.04694270 Ry
      -> total E_XC with PAW   =   -1606.64053991 Ry

     convergence has been achieved in 118 iterations

     Writing all to output data dir bands_nm/myprefix.save/

     General routines

     Parallel routines

     PAW routines

   This run was terminated on:  18:35:34  15Jul2023

   JOB DONE.