     Program PWSCF v.7.1 starts on 17Jul2023 at  0:19:27

     Reading input from espresso_1709.pwi
Warning: card &CELL ignored
Warning: card / ignored

     Current dimensions of program PWSCF are:
     Max number of different atomic species (ntypx) = 10
     Max number of k-points (npk) =  40000
     Max angular momentum in pseudopotentials (lmaxx) =  4
     file O.pbe-n-kjpaw_psl.0.1.UPF: wavefunction(s)  2P renormalized
     Message from routine setup:
     using ibrav=0 with symmetry is DISCOURAGED, use correct ibrav instead

     K-points division:     npool     =       2
     R & G space division:  proc/nbgrp/npool/nimage =       4
     Subspace diagonalization in iterative solution of the eigenvalue problem:
     one sub-group per band group will be used

     Using Slab Decomposition

     bravais-lattice index     =            0
     lattice parameter (alat)  =      10.6287  a.u.
     unit-cell volume          =    1381.3964 (a.u.)^3
     number of atoms/cell      =           18
     number of atomic types    =            3
     number of electrons       =       190.00
     number of Kohn-Sham states=          256
     kinetic-energy cutoff     =      30.0000  Ry
     charge density cutoff     =     240.0000  Ry
     scf convergence threshold =      1.0E-06
     mixing beta               =       0.7000
     number of iterations used =            8  plain     mixing
     Exchange-correlation=  SLA  PW   PBX  PBC
                           (   1   4   3   4   0   0   0)

     celldm(1)=  10.628662  celldm(2)=   0.000000  celldm(3)=   0.000000
     celldm(4)=   0.000000  celldm(5)=   0.000000  celldm(6)=   0.000000

     crystal axes: (cart. coord. in units of alat)
               a(1) = (   1.000000   0.000000   0.000000 )
               a(2) = (   0.292302   0.956326   0.000000 )
               a(3) = (   0.383435   0.283749   1.203030 )

     reciprocal axes: (cart. coord. in units 2 pi/alat)
               b(1) = (  1.000000 -0.305651 -0.246633 )
               b(2) = (  0.000000  1.045668 -0.246633 )
               b(3) = (  0.000000  0.000000  0.831234 )

     PseudoPot. # 1 for Ni read from file:
     /lustre07/scratch/pragov/crystal_structure_design/utils/SSSP/ni_pbe_v1.4.uspp.F.UPF
     MD5 check sum: 1ee80287db30b12d2bc1f57a5b5d6409
     Pseudo is Ultrasoft + core correction, Zval = 18.0
     Generated by new atomic code, or converted to UPF format
     Using radial grid of  865 points,  6 beta functions with:
                l(1) =   0
                l(2) =   0
                l(3) =   1
                l(4) =   1
                l(5) =   2
                l(6) =   2
     Q(r) pseudized with 10 coefficients,  rinner =    0.980   0.980   0.980
                                                       0.980   0.980

     PseudoPot. # 2 for O  read from file:
     /lustre07/scratch/pragov/crystal_structure_design/utils/SSSP/O.pbe-n-kjpaw_psl.0.1.UPF
     MD5 check sum: 0234752ac141de4415c5fc33072bef88
     Pseudo is Projector augmented-wave + core cor, Zval =  6.0
     Generated using "atomic" code by A. Dal Corso  v.5.0.99 svn rev. 10869
     Shape of augmentation charge: BESSEL
     Using radial grid of 1095 points,  4 beta functions with:
                l(1) =   0
                l(2) =   0
                l(3) =   1
                l(4) =   1
     Q(r) pseudized with 0 coefficients

     PseudoPot. # 3 for F  read from file:
     /lustre07/scratch/pragov/crystal_structure_design/utils/SSSP/f_pbe_v1.4.uspp.F.UPF
     MD5 check sum: 4c38b6a325caf53ec0e86aed9459de46
     Pseudo is Ultrasoft, Zval =  7.0
     Generated by new atomic code, or converted to UPF format
     Using radial grid of  799 points,  4 beta functions with:
                l(1) =   0
                l(2) =   0
                l(3) =   1
                l(4) =   1
     Q(r) pseudized with  8 coefficients,  rinner =    0.950   0.950   0.950

     atomic species   valence    mass     pseudopotential
        Ni            18.00    58.69340     Ni( 1.00)
        O              6.00    15.99900     O ( 1.00)
        F              7.00    18.99840     F ( 1.00)

      2 Sym. Ops., with inversion, found

                                    s                        frac. trans.

      isym =  1     identity

 cryst.   s( 1) = (     1          0          0      )
                  (     0          1          0      )
                  (     0          0          1      )

 cart.    s( 1) = (  1.0000000  0.0000000  0.0000000 )
                  (  0.0000000  1.0000000  0.0000000 )
                  (  0.0000000  0.0000000  1.0000000 )

      isym =  2     inversion

 cryst.   s( 2) = (    -1          0          0      )
                  (     0         -1          0      )
                  (     0          0         -1      )

 cart.    s( 2) = ( -1.0000000  0.0000000  0.0000000 )
                  (  0.0000000 -1.0000000 -0.0000000 )
                  (  0.0000000  0.0000000 -1.0000000 )

   Cartesian axes

     site n.     atom                  positions (alat units)
         1           Ni  tau(   1) = (   0.6461509   0.4781631   0.0000000  )
         2           Ni  tau(   2) = (   0.8378683   0.6200374   0.6015150  )
         3           Ni  tau(   3) = (   0.5269986   0.3899883   1.0073523  )
         4           Ni  tau(   4) = (   0.3362758   0.2488500   0.3944386  )
         5           Ni  tau(   5) = (   1.3394609   0.9912248   0.8085913  )
         6           Ni  tau(   6) = (   1.1487381   0.8500865   0.1956776  )
         7           O   tau(   7) = (   0.1361869   0.1007807   0.1570640  )
         8           O   tau(   8) = (   1.5395498   1.1392941   1.0459660  )
         9           F   tau(   9) = (   1.0402991   1.0593480   1.0020013  )
        10           F   tau(  10) = (   1.0514602   0.3314067   0.6015150  )
        11           F   tau(  11) = (   1.1283396   0.8349913   0.5599816  )
        12           F   tau(  12) = (   0.8167523   0.6044112   0.9602224  )
        13           F   tau(  13) = (   0.8589844   0.6356637   0.2428075  )
        14           F   tau(  14) = (   0.5473971   0.4050835   0.6430484  )
        15           F   tau(  15) = (   0.6354376   0.1807268   0.2010287  )
        16           F   tau(  16) = (   0.6242765   0.9086681   0.6015150  )
        17           F   tau(  17) = (   1.3171634   0.6852160   1.0020013  )
        18           F   tau(  18) = (   0.3585733   0.5548588   0.2010287  )

   Crystallographic axes

     site n.     atom                  positions (cryst. coord.)
         1           Ni  tau(   1) = (  0.5000000  0.5000000  0.0000000  )
         2           Ni  tau(   2) = (  0.5000000  0.5000000  0.5000000  )
         3           Ni  tau(   3) = (  0.1593520  0.1593520  0.8373460  )
         4           Ni  tau(   4) = (  0.1629330  0.1629330  0.3278710  )
         5           Ni  tau(   5) = (  0.8370670  0.8370670  0.6721290  )
         6           Ni  tau(   6) = (  0.8406480  0.8406480  0.1626540  )
         7           O   tau(   7) = (  0.0666460  0.0666460  0.1305570  )
         8           O   tau(   8) = (  0.9333540  0.9333540  0.8694430  )
         9           F   tau(   9) = (  0.4693820  0.8606000  0.8328980  )
        10           F   tau(  10) = (  0.8018120  0.1981880  0.5000000  )
        11           F   tau(  11) = (  0.7350140  0.7350140  0.4654760  )
        12           F   tau(  12) = (  0.3951910  0.3951910  0.7981700  )
        13           F   tau(  13) = (  0.6048090  0.6048090  0.2018300  )
        14           F   tau(  14) = (  0.2649860  0.2649860  0.5345240  )
        15           F   tau(  15) = (  0.5306180  0.1394000  0.1671020  )
        16           F   tau(  16) = (  0.1981880  0.8018120  0.5000000  )
        17           F   tau(  17) = (  0.8606000  0.4693820  0.8328980  )
        18           F   tau(  18) = (  0.1394000  0.5306180  0.1671020  )

     number of k points=    14
                       cart. coord. in units 2pi/alat
        k(    1) = (   0.0000000   0.0000000   0.0000000), wk =   0.0740741
        k(    2) = (   0.0000000   0.0000000   0.2770782), wk =   0.1481481
        k(    3) = (   0.0000000   0.3485561  -0.0822110), wk =   0.1481481
        k(    4) = (   0.0000000   0.3485561   0.1948671), wk =   0.1481481
        k(    5) = (   0.0000000   0.3485561  -0.3592892), wk =   0.1481481
        k(    6) = (   0.3333333  -0.1018836  -0.0822110), wk =   0.1481481
        k(    7) = (   0.3333333  -0.1018836   0.1948671), wk =   0.1481481
        k(    8) = (   0.3333333  -0.1018836  -0.3592892), wk =   0.1481481
        k(    9) = (   0.3333333   0.2466726  -0.1644221), wk =   0.1481481
        k(   10) = (   0.3333333   0.2466726   0.1126561), wk =   0.1481481
        k(   11) = (   0.3333333   0.2466726  -0.4415002), wk =   0.1481481
        k(   12) = (   0.3333333  -0.4504397   0.0000000), wk =   0.1481481
        k(   13) = (   0.3333333  -0.4504397   0.2770782), wk =   0.1481481
        k(   14) = (   0.3333333  -0.4504397  -0.2770782), wk =   0.1481481

                       cryst. coord.
        k(    1) = (   0.0000000   0.0000000   0.0000000), wk =   0.0740741
        k(    2) = (   0.0000000   0.0000000   0.3333333), wk =   0.1481481
        k(    3) = (   0.0000000   0.3333333   0.0000000), wk =   0.1481481
        k(    4) = (   0.0000000   0.3333333   0.3333333), wk =   0.1481481
        k(    5) = (   0.0000000   0.3333333  -0.3333333), wk =   0.1481481
        k(    6) = (   0.3333333   0.0000000  -0.0000000), wk =   0.1481481
        k(    7) = (   0.3333333   0.0000000   0.3333333), wk =   0.1481481
        k(    8) = (   0.3333333   0.0000000  -0.3333333), wk =   0.1481481
        k(    9) = (   0.3333333   0.3333333   0.0000000), wk =   0.1481481
        k(   10) = (   0.3333333   0.3333333   0.3333333), wk =   0.1481481
        k(   11) = (   0.3333333   0.3333333  -0.3333333), wk =   0.1481481
        k(   12) = (   0.3333333  -0.3333333  -0.0000000), wk =   0.1481481
        k(   13) = (   0.3333333  -0.3333333   0.3333333), wk =   0.1481481
        k(   14) = (   0.3333333  -0.3333333  -0.3333333), wk =   0.1481481

     Check: negative core charge=   -0.000009

     Initial potential from superposition of free atoms

     starting charge     178.0000, renormalised to     190.0000
     Starting wfcs are  126 randomized atomic wfcs +  130 random wfcs
     Checking if some PAW data can be deallocated...

     Self-consistent Calculation

     iteration #  1     ecut=    30.00 Ry     beta= 0.70
     Davidson diagonalization with overlap

     ethr =  1.00E-02,  avg # of iterations =  6.0

     total energy              =   -2512.74696855 Ry
     estimated scf accuracy    <     160.18421979 Ry

[...]

     total energy              =   -2627.83845861 Ry
     estimated scf accuracy    <       0.00000220 Ry

     iteration # 31     ecut=    30.00 Ry     beta= 0.70
     Davidson diagonalization with overlap

     ethr =  1.16E-09,  avg # of iterations =  1.0

     End of self-consistent calculation

          k = 0.0000 0.0000 0.0000 (  3809 PWs)   bands (ev):

   -97.0214 -97.0203 -96.8635 -96.8633 -96.7914 -96.6602 -57.4533 -57.4445
   -57.3501 -57.3453 -57.2916 -57.2857 -57.2641 -57.2628 -57.2435 -57.2003
   -57.1982 -57.0950 -57.0817 -57.0266 -57.0108 -57.0092 -57.0049 -56.8757
   -17.2172 -16.8370 -16.8270 -16.7000 -16.6377 -16.6137 -16.5856 -16.5839
   -16.4837 -16.4656 -10.8985 -10.4867  -0.9059  -0.3212  -0.1904   0.0051
     0.1488   0.5289   0.5580   0.6518   0.6578   0.7133   0.9978   1.1466
     1.1709   1.2580   1.2964   1.4189   1.4233   1.4394   1.5555   1.6402
     1.7731   1.9374   2.2703   2.3205   2.3691   2.3960   2.6760   2.7619
     2.8222   2.9375   3.2687   3.2859   3.5583   3.6183   4.3401   4.7622
     5.1972   5.3165   5.3515   5.3756   5.3841   5.4075   5.4806   5.5231
     5.5301   5.5450   5.6126   5.6314   5.6483   5.6616   5.8829   5.9777
     5.9969   6.2719   6.3903   6.4564   6.5391   6.6647   6.7280   6.7611
     6.9149   7.0255   7.1361   7.5634   7.7482   7.8537  10.1498  14.1773
    14.3038  15.3526  15.5672  15.5673  15.9915  16.5755  16.6432  16.7940
    17.4087  17.4893  17.9948  18.5724  18.9938  19.4492  19.4694  19.6021
    19.6626  19.7273  20.6780  20.7102  21.3527  21.3862  21.5663  21.6184
    21.8988  21.9510  22.1237  22.4574  23.5150  23.9988  24.4170  24.5324
    24.6863  24.6882  24.9688  26.3582  27.7943  27.9606  27.9740  28.0289
    28.1288  28.4080  29.0404  29.3662  29.4713  29.7792  29.9275  30.0462
    30.2036  30.2512  30.4692  30.6479  31.1413  31.3232  31.8528  31.9255
    32.1275  32.1790  32.1846  32.2894  32.5821  33.1080  33.3871  33.5651
    33.6248  33.8390  35.2523  35.5569  35.6229  35.6256  35.9458  35.9703
    36.2305  36.3289  36.4298  36.4511  36.6037  37.7922  37.8543  38.1815
    38.2659  38.3559  38.3679  39.0358  39.2971  39.6682  40.0893  40.2754
    40.6548  40.7852  40.8004  41.2273  41.2978  41.6464  41.7436  41.9024
    41.9553  41.9949  42.0347  42.3454  42.4875  43.2895  43.3843  43.5916
    43.5940  43.7282  43.8948  44.0216  44.0240  44.1817  44.2166  44.2881
    44.4551  44.4993  44.6384  44.6471  44.7132  45.0049  45.0170  45.3067
    45.3396  46.4157  46.5053  46.7933  46.9194  47.0013  47.3822  47.6913
    47.7150  49.1944  49.3013  49.3990  49.9883  50.0548  50.0958  50.2565
    50.3348  50.3505  50.4910  50.7035  50.8875  51.0183  51.0738  51.4218
    51.4976  51.6040  51.7509  51.7595  52.0896  52.1295  52.4331  52.8799

     occupation numbers
     1.0000   1.0000   1.0000   1.0000   1.0000   1.0000   1.0000   1.0000
     1.0000   1.0000   1.0000   1.0000   1.0000   1.0000   1.0000   1.0000
     1.0000   1.0000   1.0000   1.0000   1.0000   1.0000   1.0000   1.0000
     1.0000   1.0000   1.0000   1.0000   1.0000   1.0000   1.0000   1.0000
     1.0000   1.0000   1.0000   1.0000   1.0000   1.0000   1.0000   1.0000
     1.0000   1.0000   1.0000   1.0000   1.0000   1.0000   1.0000   1.0000
     1.0000   1.0000   1.0000   1.0000   1.0000   1.0000   1.0000   1.0000
     1.0000   1.0000   1.0000   1.0000   1.0000   1.0000   1.0000   1.0000
     1.0000   1.0000   1.0000   1.0000   1.0000   1.0000   1.0000   1.0000
     1.0000   1.0000   1.0000   1.0000   1.0000   1.0000   1.0000   1.0000
     1.0000   1.0000   1.0000   1.0000   1.0000   1.0000   1.0000   1.0000
     1.0000   1.0000   1.0000   1.0000   1.0000   1.0000   1.0000   0.0000
     0.0000   0.0000   0.0000   0.0000   0.0000   0.0000   0.0000   0.0000
     0.0000   0.0000   0.0000   0.0000   0.0000   0.0000   0.0000   0.0000
     0.0000   0.0000   0.0000   0.0000   0.0000   0.0000   0.0000   0.0000
     0.0000   0.0000   0.0000   0.0000   0.0000   0.0000   0.0000   0.0000
     0.0000   0.0000   0.0000   0.0000   0.0000   0.0000   0.0000   0.0000
     0.0000   0.0000   0.0000   0.0000   0.0000   0.0000   0.0000   0.0000
     0.0000   0.0000   0.0000   0.0000   0.0000   0.0000   0.0000   0.0000
     0.0000   0.0000   0.0000   0.0000   0.0000   0.0000   0.0000   0.0000
     0.0000   0.0000   0.0000   0.0000   0.0000   0.0000   0.0000   0.0000
     0.0000   0.0000   0.0000   0.0000   0.0000   0.0000   0.0000   0.0000
     0.0000   0.0000   0.0000   0.0000   0.0000   0.0000   0.0000   0.0000
     0.0000   0.0000   0.0000   0.0000   0.0000   0.0000   0.0000   0.0000
     0.0000   0.0000   0.0000   0.0000   0.0000   0.0000   0.0000   0.0000
     0.0000   0.0000   0.0000   0.0000   0.0000   0.0000   0.0000   0.0000
     0.0000   0.0000   0.0000   0.0000   0.0000   0.0000   0.0000   0.0000
     0.0000   0.0000   0.0000   0.0000   0.0000   0.0000   0.0000   0.0000
     0.0000   0.0000   0.0000   0.0000   0.0000   0.0000   0.0000   0.0000
     0.0000   0.0000   0.0000   0.0000   0.0000   0.0000   0.0000   0.0000
     0.0000   0.0000   0.0000   0.0000   0.0000   0.0000   0.0000   0.0000
     0.0000   0.0000   0.0000   0.0000   0.0000   0.0000   0.0000   0.0000

[...]

          k = 0.3333-0.4504-0.2771 (  3830 PWs)   bands (ev):

   -97.0222 -97.0221 -96.8651 -96.8643 -96.7927 -96.6614 -57.4539 -57.4420
   -57.3550 -57.3536 -57.2964 -57.2942 -57.2671 -57.2552 -57.2468 -57.2042
   -57.2019 -57.0962 -57.0878 -57.0306 -57.0166 -57.0110 -57.0092 -56.8803
   -16.9566 -16.9061 -16.8528 -16.8168 -16.7354 -16.6145 -16.5888 -16.5689
   -16.4703 -16.4603 -10.9203 -10.4886  -0.2347  -0.1326  -0.0445   0.0280
     0.3573   0.4439   0.4546   0.7644   0.8809   0.9121   0.9568   1.0439
     1.1383   1.2485   1.2512   1.3594   1.4070   1.4581   1.5482   1.7018
     1.7271   1.9289   2.0298   2.1039   2.2474   2.3317   2.5299   2.6253
     2.6919   2.7738   2.9600   3.0976   3.1293   3.3140   4.1691   4.4190
     5.3172   5.3903   5.4078   5.4301   5.4514   5.5115   5.5377   5.5614
     5.5745   5.6254   5.6427   5.7526   5.7826   5.8393   5.8800   5.9644
     6.0756   6.3707   6.4297   6.4521   6.5474   6.5809   6.6689   6.7823
     6.9149   6.9888   7.1272   7.1934   7.3935   7.6605  12.7690  13.4054
    13.5819  14.1306  14.7398  15.9459  16.2136  16.5602  17.0464  17.2654
    17.6437  18.0796  18.7867  19.1561  19.4039  19.4916  19.8479  19.9686
    20.2310  20.3738  20.5773  20.8121  21.0715  21.2161  21.5305  21.7467
    21.9668  22.2255  22.3070  22.5032  22.8692  23.1403  23.2080  23.8034
    24.3237  24.5523  24.8885  25.8381  25.8826  25.9807  26.4510  26.9486
    28.1403  28.3275  28.4805  29.0867  29.1862  29.3176  29.5627  29.8926
    30.4380  30.6362  30.8899  30.9665  31.4695  31.6040  31.9327  32.0281
    32.2148  33.1371  33.4453  33.7086  33.8439  34.0103  34.3910  34.7650
    34.8295  35.3214  35.3876  35.6141  35.8717  36.0184  36.2070  36.4083
    36.4429  36.5431  36.7640  37.2938  37.3683  37.4914  37.6670  37.8275
    37.9151  38.3787  38.7975  39.0686  39.1592  39.2541  39.4602  39.6024
    39.8147  39.9613  40.3043  40.5708  41.2841  41.6674  41.9629  42.0671
    42.0941  42.1906  42.3262  42.5960  42.7440  42.7935  42.9135  43.0398
    43.2019  43.3425  43.4253  43.5838  43.8979  44.1250  44.3717  44.4574
    44.5671  44.7129  44.7983  44.9592  45.0144  45.1279  45.3256  45.5348
    45.7362  45.9236  46.9322  47.0765  47.2067  47.3723  47.5070  47.7114
    48.1008  48.3638  48.5014  48.5947  48.7193  48.8814  49.0199  49.2635
    49.3102  49.4438  49.7143  49.9323  50.1358  50.2477  50.4441  50.5686
    50.8912  51.0303  51.2318  51.2647  51.4494  51.8593  52.0880  52.2571

     occupation numbers
     1.0000   1.0000   1.0000   1.0000   1.0000   1.0000   1.0000   1.0000
     1.0000   1.0000   1.0000   1.0000   1.0000   1.0000   1.0000   1.0000
     1.0000   1.0000   1.0000   1.0000   1.0000   1.0000   1.0000   1.0000
     1.0000   1.0000   1.0000   1.0000   1.0000   1.0000   1.0000   1.0000
     1.0000   1.0000   1.0000   1.0000   1.0000   1.0000   1.0000   1.0000
     1.0000   1.0000   1.0000   1.0000   1.0000   1.0000   1.0000   1.0000
     1.0000   1.0000   1.0000   1.0000   1.0000   1.0000   1.0000   1.0000
     1.0000   1.0000   1.0000   1.0000   1.0000   1.0000   1.0000   1.0000
     1.0000   1.0000   1.0000   1.0000   1.0000   1.0000   1.0000   1.0000
     1.0000   1.0000   1.0000   1.0000   1.0000   1.0000   1.0000   1.0000
     1.0000   1.0000   1.0000   1.0000   1.0000   1.0000   1.0000   1.0000
     1.0000   1.0000   1.0000   1.0000   1.0000   1.0000   1.0000   0.0000
     0.0000   0.0000   0.0000   0.0000   0.0000   0.0000   0.0000   0.0000
     0.0000   0.0000   0.0000   0.0000   0.0000   0.0000   0.0000   0.0000
     0.0000   0.0000   0.0000   0.0000   0.0000   0.0000   0.0000   0.0000
     0.0000   0.0000   0.0000   0.0000   0.0000   0.0000   0.0000   0.0000
     0.0000   0.0000   0.0000   0.0000   0.0000   0.0000   0.0000   0.0000
     0.0000   0.0000   0.0000   0.0000   0.0000   0.0000   0.0000   0.0000
     0.0000   0.0000   0.0000   0.0000   0.0000   0.0000   0.0000   0.0000
     0.0000   0.0000   0.0000   0.0000   0.0000   0.0000   0.0000   0.0000
     0.0000   0.0000   0.0000   0.0000   0.0000   0.0000   0.0000   0.0000
     0.0000   0.0000   0.0000   0.0000   0.0000   0.0000   0.0000   0.0000
     0.0000   0.0000   0.0000   0.0000   0.0000   0.0000   0.0000   0.0000
     0.0000   0.0000   0.0000   0.0000   0.0000   0.0000   0.0000   0.0000
     0.0000   0.0000   0.0000   0.0000   0.0000   0.0000   0.0000   0.0000
     0.0000   0.0000   0.0000   0.0000   0.0000   0.0000   0.0000   0.0000
     0.0000   0.0000   0.0000   0.0000   0.0000   0.0000   0.0000   0.0000
     0.0000   0.0000   0.0000   0.0000   0.0000   0.0000   0.0000   0.0000
     0.0000   0.0000   0.0000   0.0000   0.0000   0.0000   0.0000   0.0000
     0.0000   0.0000   0.0000   0.0000   0.0000   0.0000   0.0000   0.0000
     0.0000   0.0000   0.0000   0.0000   0.0000   0.0000   0.0000   0.0000
     0.0000   0.0000   0.0000   0.0000   0.0000   0.0000   0.0000   0.0000

     highest occupied, lowest unoccupied level (ev):     6.7633    6.7463

!    total energy              =   -2627.83845866 Ry
     estimated scf accuracy    <       0.00000032 Ry

     The total energy is the sum of the following terms:
     one-electron contribution =   -1882.11382837 Ry
     hartree contribution      =    1025.96928429 Ry
     xc contribution           =    -320.12627474 Ry
     ewald contribution        =   -1432.49834188 Ry
     one-center paw contrib.   =     -19.06929796 Ry
      -> PAW hartree energy AE =       0.00000000 Ry
      -> PAW hartree energy PS =       0.00000000 Ry
      -> PAW xc energy AE      =       0.00000000 Ry
      -> PAW xc energy PS      =       0.00000000 Ry
      -> total E_H with PAW    =    1025.96928429 Ry
      -> total E_XC with PAW   =    -320.12627474 Ry

     convergence has been achieved in  31 iterations

     Writing all to output data dir bands_nm/myprefix.save/

     General routines

     Parallel routines

     PAW routines

   This run was terminated on:   0:22:56  17Jul2023

   JOB DONE.