     Program PWSCF v.7.0 starts on  7Jun2023 at  4:45:29

     K-points division:     npool     =       2
     R & G space division:  proc/nbgrp/npool/nimage =       4

     Reading input from espresso_1614.pwi
Warning: card &CELL ignored
Warning: card / ignored

     Current dimensions of program PWSCF are:
     Max number of different atomic species (ntypx) = 10
     Max number of k-points (npk) =  40000
     Max angular momentum in pseudopotentials (lmaxx) =  4
     file O.pbe-n-kjpaw_psl.0.1.UPF: wavefunction(s)  2P renormalized
     Message from routine setup:
     using ibrav=0 with symmetry is DISCOURAGED, use correct ibrav instead

     Using Slab Decomposition

     bravais-lattice index     =            0
     lattice parameter (alat)  =      11.3792  a.u.
     unit-cell volume          =    1122.5194 (a.u.)^3
     number of atoms/cell      =           12
     number of atomic types    =            3
     number of electrons       =        96.00
     number of Kohn-Sham states=           64
     kinetic-energy cutoff     =      30.0000  Ry
     charge density cutoff     =     240.0000  Ry
     scf convergence threshold =      1.0E-06
     mixing beta               =       0.7000
     number of iterations used =            8  plain     mixing
     Exchange-correlation= SLA  PW   PBX  PBC
                           (   1   4   3   4   0   0   0)

     celldm(1)=  11.379191  celldm(2)=   0.000000  celldm(3)=   0.000000
     celldm(4)=   0.000000  celldm(5)=   0.000000  celldm(6)=   0.000000

     crystal axes: (cart. coord. in units of alat)
               a(1) = (   1.000000   0.000000   0.000000 )
               a(2) = (  -0.440945   0.897534   0.000000 )
               a(3) = (  -0.279528  -0.448767   0.848806 )

     reciprocal axes: (cart. coord. in units 2 pi/alat)
               b(1) = (  1.000000  0.491285  0.589062 )
               b(2) = (  0.000000  1.114164  0.589062 )
               b(3) = (  0.000000  0.000000  1.178125 )

     PseudoPot. # 1 for Y  read from file:
     /home/pragov/projects/rrg-bengioy-ad/pragov/crystal_structure_design/SSSP/Y_pbe_v1.uspp.F.UPF
     MD5 check sum: 2cf71db95cafeb975fc457bd7f14888e
     Pseudo is Ultrasoft + core correction, Zval = 11.0
     Generated by new atomic code, or converted to UPF format
     Using radial grid of  885 points,  6 beta functions with:
                l(1) =   0
                l(2) =   0
                l(3) =   1
                l(4) =   1
                l(5) =   2
                l(6) =   2
     Q(r) pseudized with  6 coefficients,  rinner =    1.200   1.200   1.200
                                                       1.200   1.200

     PseudoPot. # 2 for V  read from file:
     /home/pragov/projects/rrg-bengioy-ad/pragov/crystal_structure_design/SSSP/v_pbe_v1.4.uspp.F.UPF
     MD5 check sum: 22b79981416ebb76fdaf5b1b8640f6fb
     Pseudo is Ultrasoft + core correction, Zval = 13.0
     Generated by new atomic code, or converted to UPF format
     Using radial grid of  853 points,  6 beta functions with:
                l(1) =   0
                l(2) =   0
                l(3) =   1
                l(4) =   1
                l(5) =   2
                l(6) =   2
     Q(r) pseudized with  8 coefficients,  rinner =    1.100   1.100   1.100
                                                       1.100   1.100

     PseudoPot. # 3 for O  read from file:
     /home/pragov/projects/rrg-bengioy-ad/pragov/crystal_structure_design/SSSP/O.pbe-n-kjpaw_psl.0.1.UPF
     MD5 check sum: 0234752ac141de4415c5fc33072bef88
     Pseudo is Projector augmented-wave + core cor, Zval =  6.0
     Generated using "atomic" code by A. Dal Corso  v.5.0.99 svn rev. 10869
     Shape of augmentation charge: BESSEL
     Using radial grid of 1095 points,  4 beta functions with:
                l(1) =   0
                l(2) =   0
                l(3) =   1
                l(4) =   1
     Q(r) pseudized with 0 coefficients

     atomic species   valence    mass     pseudopotential
        Y             11.00    88.90584     Y ( 1.00)
        V             13.00    50.94150     V ( 1.00)
        O              6.00    15.99900     O ( 1.00)

      4 Sym. Ops., with inversion, found ( 2 have fractional translation)

                                    s                        frac. trans.

      isym =  1     identity

 cryst.   s( 1) = (     1          0          0      )
                  (     0          1          0      )
                  (     0          0          1      )

 cart.    s( 1) = (  1.0000000  0.0000000 -0.0000000 )
                  (  0.0000000  1.0000000  0.0000000 )
                  (  0.0000000  0.0000000  1.0000000 )

      isym =  2     180 deg rotation - cart. axis [0,0,1]

 cryst.   s( 2) = (    -1          0          0      )
                  (     0         -1          0      )
                  (     1          1          1      )

 cart.    s( 2) = ( -1.0000000 -0.0000000  0.0000000 )
                  (  0.0000000 -1.0000000  0.0000000 )
                  (  0.0000000  0.0000000  1.0000000 )

      isym =  3     inversion

 cryst.   s( 3) = (    -1          0          0      )    f =( -0.2500000 )
                  (     0         -1          0      )       (  0.2500000 )
                  (     0          0         -1      )       (  0.5000000 )

 cart.    s( 3) = ( -1.0000000 -0.0000000  0.0000000 )    f =( -0.5000000 )
                  (  0.0000000 -1.0000000 -0.0000000 )       (  0.0000000 )
                  (  0.0000000  0.0000000 -1.0000000 )       (  0.4244032 )

      isym =  4     inv. 180 deg rotation - cart. axis [0,0,1]

 cryst.   s( 4) = (     1          0          0      )    f =( -0.2500000 )
                  (     0          1          0      )       (  0.2500000 )
                  (    -1         -1         -1      )       (  0.5000000 )

 cart.    s( 4) = (  1.0000000  0.0000000 -0.0000000 )    f =( -0.5000000 )
                  (  0.0000000  1.0000000 -0.0000000 )       (  0.0000000 )
                  (  0.0000000  0.0000000 -1.0000000 )       (  0.4244032 )

   Cartesian axes

     site n.     atom                  positions (alat units)
         1           Y   tau(   1) = (   0.0000000   0.0000000   0.0000000  )
         2           Y   tau(   2) = (  -0.2204723   0.4487671   0.4244032  )
         3           V   tau(   3) = (   0.2795277   0.4487671   0.0000000  )
         4           V   tau(   4) = (   0.5000000   0.0000000   0.4244032  )
         5           O   tau(   5) = (   0.5349334  -0.2402964   0.5811005  )
         6           O   tau(   6) = (   0.0484497   0.3741636   0.1566973  )
         7           O   tau(   7) = (   0.0349334  -0.2402964   0.6921091  )
         8           O   tau(   8) = (   0.2689220  -0.0746035   0.2677059  )
         9           O   tau(   9) = (   0.4650666   0.2402964   0.5811005  )
        10           O   tau(  10) = (   0.5106056   0.5233706   0.1566973  )
        11           O   tau(  11) = (  -0.0349334   0.2402964   0.6921091  )
        12           O   tau(  12) = (   0.7310780   0.0746035   0.2677059  )

   Crystallographic axes

     site n.     atom                  positions (cryst. coord.)
         1           Y   tau(   1) = (  0.0000000  0.0000000  0.0000000  )
         2           Y   tau(   2) = (  0.2500000  0.7500000  0.5000000  )
         3           V   tau(   3) = (  0.5000000  0.5000000  0.0000000  )
         4           V   tau(   4) = (  0.7500000  0.2500000  0.5000000  )
         5           O   tau(   5) = (  0.7591840  0.0745750  0.6846090  )
         6           O   tau(   6) = (  0.3245750  0.5091840  0.1846090  )
         7           O   tau(   7) = (  0.3245750  0.1399660  0.8153910  )
         8           O   tau(   8) = (  0.3899660  0.0745750  0.3153910  )
         9           O   tau(   9) = (  0.9254250  0.6100340  0.6846090  )
        10           O   tau(  10) = (  0.8600340  0.6754250  0.1846090  )
        11           O   tau(  11) = (  0.4908160  0.6754250  0.8153910  )
        12           O   tau(  12) = (  0.9254250  0.2408160  0.3153910  )

     number of k points=    10
                       cart. coord. in units 2pi/alat
        k(    1) = (   0.0000000   0.0000000   0.0000000), wk =   0.0740741
        k(    2) = (   0.0000000   0.0000000   0.3927083), wk =   0.1481481
        k(    3) = (   0.0000000   0.3713879   0.1963542), wk =   0.2962963
        k(    4) = (   0.0000000   0.3713879   0.5890625), wk =   0.1481481
        k(    5) = (   0.3333333   0.1637615   0.1963542), wk =   0.2962963
        k(    6) = (   0.3333333   0.1637615   0.5890625), wk =   0.1481481
        k(    7) = (   0.3333333   0.5351494   0.3927083), wk =   0.2962963
        k(    8) = (   0.3333333   0.5351494  -0.0000000), wk =   0.1481481
        k(    9) = (   0.3333333  -0.2076264  -0.0000000), wk =   0.1481481
        k(   10) = (   0.3333333  -0.2076264   0.3927083), wk =   0.2962963

                       cryst. coord.
        k(    1) = (   0.0000000   0.0000000   0.0000000), wk =   0.0740741
        k(    2) = (   0.0000000   0.0000000   0.3333333), wk =   0.1481481
        k(    3) = (   0.0000000   0.3333333  -0.0000000), wk =   0.2962963
        k(    4) = (   0.0000000   0.3333333   0.3333333), wk =   0.1481481
        k(    5) = (   0.3333333   0.0000000  -0.0000000), wk =   0.2962963
        k(    6) = (   0.3333333   0.0000000   0.3333333), wk =   0.1481481
        k(    7) = (   0.3333333   0.3333333  -0.0000000), wk =   0.2962963
        k(    8) = (   0.3333333   0.3333333  -0.3333333), wk =   0.1481481
        k(    9) = (   0.3333333  -0.3333333   0.0000000), wk =   0.1481481
        k(   10) = (   0.3333333  -0.3333333   0.3333333), wk =   0.2962963

     Check: negative core charge=   -0.000015

     Initial potential from superposition of free atoms

     starting charge      95.9886, renormalised to      96.0000

     negative rho (up, down):  9.211E-02 0.000E+00
     Starting wfcs are   78 randomized atomic wfcs
     Checking if some PAW data can be deallocated...

     Self-consistent Calculation

     iteration #  1     ecut=    30.00 Ry     beta= 0.70
     Davidson diagonalization with overlap

     ethr =  1.00E-02,  avg # of iterations =  2.0

     negative rho (up, down):  9.634E-02 0.000E+00

     total energy              =    -796.19955330 Ry
     estimated scf accuracy    <       5.42914024 Ry

[...]

     total energy              =    -799.50102106 Ry
     estimated scf accuracy    <       0.00000164 Ry

     iteration # 10     ecut=    30.00 Ry     beta= 0.70
     Davidson diagonalization with overlap

     ethr =  1.71E-09,  avg # of iterations =  3.2

     negative rho (up, down):  9.732E-02 0.000E+00

     End of self-consistent calculation

          k = 0.0000 0.0000 0.0000 (  3111 PWs)   bands (ev):

   -57.8398 -57.8391 -34.0279 -34.0085 -31.8633 -31.8621 -31.7055 -31.7055
   -31.7033 -31.7033 -14.3991 -14.3990 -14.2734 -14.1564 -14.0480 -14.0480
   -10.9183 -10.3137  -9.9980  -9.9639  -9.9639  -9.7264  -9.6862  -9.6862
     1.9230   2.2750   2.4890   2.5935   2.7918   2.7918   3.1739   3.1848
     3.1848   3.4253   3.4253   3.4505   3.6379   4.1475   4.3109   4.4173
     4.7123   4.7123   5.5180   5.5180   5.5308   5.5604   5.5604   5.9084
     8.6770   9.2865   9.5102   9.5651   9.8423  10.8843  11.0001  11.0001
    11.4416  11.4416  12.0943  12.8719  12.9223  12.9223  13.2520  13.7434

     occupation numbers
     1.0000   1.0000   1.0000   1.0000   1.0000   1.0000   1.0000   1.0000
     1.0000   1.0000   1.0000   1.0000   1.0000   1.0000   1.0000   1.0000
     1.0000   1.0000   1.0000   1.0000   1.0000   1.0000   1.0000   1.0000
     1.0000   1.0000   1.0000   1.0000   1.0000   1.0000   1.0000   1.0000
     1.0000   1.0000   1.0000   1.0000   1.0000   1.0000   1.0000   1.0000
     1.0000   1.0000   1.0000   1.0000   1.0000   1.0000   1.0000   1.0000
     0.0000   0.0000   0.0000   0.0000   0.0000   0.0000   0.0000   0.0000
     0.0000   0.0000   0.0000   0.0000   0.0000   0.0000   0.0000   0.0000

[...]

          k = 0.3333-0.2076 0.3927 (  3140 PWs)   bands (ev):

   -57.8395 -57.8395 -34.0206 -34.0158 -31.8626 -31.8624 -31.7069 -31.7060
   -31.7048 -31.7023 -14.4126 -14.3817 -14.2884 -14.1534 -14.0763 -14.0372
   -10.6193 -10.4338 -10.0694 -10.0292  -9.9378  -9.7324  -9.7193  -9.7117
     2.2417   2.2974   2.4855   2.5139   2.5571   2.6745   3.2531   3.2841
     3.3710   3.4403   3.5810   3.8347   3.9791   4.0048   4.2506   4.4599
     4.8198   4.9862   5.0030   5.0579   5.2046   5.2787   5.4321   5.4737
     9.2959   9.3468   9.3508   9.6349  10.2201  10.4438  10.6507  10.8177
    11.0587  11.3051  12.8910  12.9740  13.1369  13.2547  13.2810  13.6666

     occupation numbers
     1.0000   1.0000   1.0000   1.0000   1.0000   1.0000   1.0000   1.0000
     1.0000   1.0000   1.0000   1.0000   1.0000   1.0000   1.0000   1.0000
     1.0000   1.0000   1.0000   1.0000   1.0000   1.0000   1.0000   1.0000
     1.0000   1.0000   1.0000   1.0000   1.0000   1.0000   1.0000   1.0000
     1.0000   1.0000   1.0000   1.0000   1.0000   1.0000   1.0000   1.0000
     1.0000   1.0000   1.0000   1.0000   1.0000   1.0000   1.0000   1.0000
     0.0000   0.0000   0.0000   0.0000   0.0000   0.0000   0.0000   0.0000
     0.0000   0.0000   0.0000   0.0000   0.0000   0.0000   0.0000   0.0000

     highest occupied, lowest unoccupied level (ev):     5.9084    8.6770

!    total energy              =    -799.50102141 Ry
     estimated scf accuracy    <       0.00000049 Ry

     The total energy is the sum of the following terms:
     one-electron contribution =    -326.30359850 Ry
     hartree contribution      =     204.93276347 Ry
     xc contribution           =    -142.36005827 Ry
     ewald contribution        =    -459.56253873 Ry
     one-center paw contrib.   =     -76.20758939 Ry
      -> PAW hartree energy AE =       0.00000000 Ry
      -> PAW hartree energy PS =       0.00000000 Ry
      -> PAW xc energy AE      =       0.00000000 Ry
      -> PAW xc energy PS      =       0.00000000 Ry
      -> total E_H with PAW    =     204.93276347 Ry
      -> total E_XC with PAW   =    -142.36005827 Ry

     convergence has been achieved in  10 iterations

     Writing all to output data dir calculations_bands/myprefix.save/

     General routines

     Parallel routines

     PAW routines

   This run was terminated on:   4:45:40   7Jun2023

   JOB DONE.