     Program PWSCF v.7.1 starts on 17Jul2023 at  4: 6:36

     Reading input from espresso_4128.pwi
Warning: card &CELL ignored
Warning: card / ignored

     Current dimensions of program PWSCF are:
     Max number of different atomic species (ntypx) = 10
     Max number of k-points (npk) =  40000
     Max angular momentum in pseudopotentials (lmaxx) =  4
     Message from routine setup:
     using ibrav=0 with symmetry is DISCOURAGED, use correct ibrav instead

     K-points division:     npool     =       2
     R & G space division:  proc/nbgrp/npool/nimage =       4
     Subspace diagonalization in iterative solution of the eigenvalue problem:
     one sub-group per band group will be used

     Using Slab Decomposition

     bravais-lattice index     =            0
     lattice parameter (alat)  =      16.3825  a.u.
     unit-cell volume          =    1504.1429 (a.u.)^3
     number of atoms/cell      =           20
     number of atomic types    =            3
     number of electrons       =       128.00
     number of Kohn-Sham states=          256
     kinetic-energy cutoff     =      30.0000  Ry
     charge density cutoff     =     240.0000  Ry
     scf convergence threshold =      1.0E-06
     mixing beta               =       0.7000
     number of iterations used =            8  plain     mixing
     Exchange-correlation=  SLA  PW   PBX  PBC
                           (   1   4   3   4   0   0   0)

     celldm(1)=  16.382546  celldm(2)=   0.000000  celldm(3)=   0.000000
     celldm(4)=   0.000000  celldm(5)=   0.000000  celldm(6)=   0.000000

     crystal axes: (cart. coord. in units of alat)
               a(1) = (   1.000000   0.000000   0.000000 )
               a(2) = (   0.000000   0.596157   0.000000 )
               a(3) = (   0.000000   0.218778   0.573831 )

     reciprocal axes: (cart. coord. in units 2 pi/alat)
               b(1) = (  1.000000  0.000000  0.000000 )
               b(2) = (  0.000000  1.677409 -0.639527 )
               b(3) = (  0.000000  0.000000  1.742674 )

     PseudoPot. # 1 for Li read from file:
     /lustre07/scratch/pragov/crystal_structure_design/utils/SSSP/li_pbe_v1.4.uspp.F.UPF
     MD5 check sum: e912e257baa3777c20ea3d68f190483c
     Pseudo is Ultrasoft, Zval =  3.0
     Generated by new atomic code, or converted to UPF format
     Using radial grid of  751 points,  5 beta functions with:
                l(1) =   0
                l(2) =   0
                l(3) =   0
                l(4) =   1
                l(5) =   1
     Q(r) pseudized with 10 coefficients,  rinner =    1.150   1.150   1.150

     PseudoPot. # 2 for V  read from file:
     /lustre07/scratch/pragov/crystal_structure_design/utils/SSSP/v_pbe_v1.4.uspp.F.UPF
     MD5 check sum: 22b79981416ebb76fdaf5b1b8640f6fb
     Pseudo is Ultrasoft + core correction, Zval = 13.0
     Generated by new atomic code, or converted to UPF format
     Using radial grid of  853 points,  6 beta functions with:
                l(1) =   0
                l(2) =   0
                l(3) =   1
                l(4) =   1
                l(5) =   2
                l(6) =   2
     Q(r) pseudized with  8 coefficients,  rinner =    1.100   1.100   1.100
                                                       1.100   1.100

     PseudoPot. # 3 for F  read from file:
     /lustre07/scratch/pragov/crystal_structure_design/utils/SSSP/f_pbe_v1.4.uspp.F.UPF
     MD5 check sum: 4c38b6a325caf53ec0e86aed9459de46
     Pseudo is Ultrasoft, Zval =  7.0
     Generated by new atomic code, or converted to UPF format
     Using radial grid of  799 points,  4 beta functions with:
                l(1) =   0
                l(2) =   0
                l(3) =   1
                l(4) =   1
     Q(r) pseudized with  8 coefficients,  rinner =    0.950   0.950   0.950

     atomic species   valence    mass     pseudopotential
        Li             3.00     6.94000     Li( 1.00)
        V             13.00    50.94150     V ( 1.00)
        F              7.00    18.99840     F ( 1.00)

      2 Sym. Ops. (no inversion) found ( 1 have fractional translation)

                                    s                        frac. trans.

      isym =  1     identity

 cryst.   s( 1) = (     1          0          0      )
                  (     0          1          0      )
                  (     0          0          1      )

 cart.    s( 1) = (  1.0000000  0.0000000  0.0000000 )
                  (  0.0000000  1.0000000  0.0000000 )
                  (  0.0000000  0.0000000  1.0000000 )

      isym =  2     180 deg rotation - cart. axis [1,0,0]

 cryst.   s( 2) = (     1          0          0      )    f =( -0.5000000 )
                  (     0         -1          0      )       (  0.0000000 )
                  (     0          0         -1      )       ( -0.0000000 )

 cart.    s( 2) = (  1.0000000  0.0000000  0.0000000 )    f =( -0.5000000 )
                  (  0.0000000 -1.0000000  0.0000000 )       ( -0.0000000 )
                  (  0.0000000  0.0000000 -1.0000000 )       ( -0.0000000 )

   Cartesian axes

     site n.     atom                  positions (alat units)
         1           Li  tau(   1) = (   0.1630140   0.2520573   0.0062863  )
         2           Li  tau(   2) = (   0.3377560   0.5614614   0.0607159  )
         3           Li  tau(   3) = (   0.6603720   0.5750671   0.2599311  )
         4           Li  tau(   4) = (   0.1603720   0.2398684   0.3138998  )
         5           Li  tau(   5) = (   0.6630140   0.5628782   0.5675446  )
         6           Li  tau(   6) = (   0.8377560   0.2534741   0.5131150  )
         7           V   tau(   7) = (   0.9986600   0.5511787   0.2766611  )
         8           V   tau(   8) = (   0.4986600   0.2637568   0.2971698  )
         9           F   tau(   9) = (   0.8291480   0.4965230   0.1304639  )
        10           F   tau(  10) = (   0.5022540   0.4496541   0.1584169  )
        11           F   tau(  11) = (   0.1621290   0.4447719   0.1601660  )
        12           F   tau(  12) = (   0.6489060   0.1799897   0.1508183  )
        13           F   tau(  13) = (   0.0258320   0.1435203   0.1537327  )
        14           F   tau(  14) = (   0.3340730   0.1698928   0.1699722  )
        15           F   tau(  15) = (   0.6621290   0.3701636   0.4136649  )
        16           F   tau(  16) = (   0.0022540   0.3652814   0.4154140  )
        17           F   tau(  17) = (   0.3291480   0.3184126   0.4433670  )
        18           F   tau(  18) = (   0.8340730   0.6450427   0.4038587  )
        19           F   tau(  19) = (   0.5258320   0.6714152   0.4200982  )
        20           F   tau(  20) = (   0.1489060   0.6349458   0.4230126  )

   Crystallographic axes

     site n.     atom                  positions (cryst. coord.)
         1           Li  tau(   1) = (  0.1630140  0.4187830  0.0109550  )
         2           Li  tau(   2) = (  0.3377560  0.9029710  0.1058080  )
         3           Li  tau(   3) = (  0.6603720  0.7983900  0.4529750  )
         4           Li  tau(   4) = (  0.1603720  0.2016100  0.5470250  )
         5           Li  tau(   5) = (  0.6630140  0.5812170  0.9890450  )
         6           Li  tau(   6) = (  0.8377560  0.0970290  0.8941920  )
         7           V   tau(   7) = (  0.9986600  0.7476200  0.4821300  )
         8           V   tau(   8) = (  0.4986600  0.2523800  0.5178700  )
         9           F   tau(   9) = (  0.8291480  0.7494370  0.2273560  )
        10           F   tau(  10) = (  0.5022540  0.6529420  0.2760690  )
        11           F   tau(  11) = (  0.1621290  0.6436340  0.2791170  )
        12           F   tau(  12) = (  0.6489060  0.2054640  0.2628270  )
        13           F   tau(  13) = (  0.0258320  0.1424260  0.2679060  )
        14           F   tau(  14) = (  0.3340730  0.1762780  0.2962060  )
        15           F   tau(  15) = (  0.6621290  0.3563660  0.7208830  )
        16           F   tau(  16) = (  0.0022540  0.3470580  0.7239310  )
        17           F   tau(  17) = (  0.3291480  0.2505630  0.7726440  )
        18           F   tau(  18) = (  0.8340730  0.8237220  0.7037940  )
        19           F   tau(  19) = (  0.5258320  0.8575740  0.7320940  )
        20           F   tau(  20) = (  0.1489060  0.7945360  0.7371730  )

     number of k points=    10
                       cart. coord. in units 2pi/alat
        k(    1) = (   0.0000000   0.0000000   0.0000000), wk =   0.0740741
        k(    2) = (   0.0000000   0.0000000   0.5808912), wk =   0.1481481
        k(    3) = (   0.0000000   0.5591364  -0.2131756), wk =   0.1481481
        k(    4) = (   0.0000000   0.5591364   0.3677156), wk =   0.1481481
        k(    5) = (   0.0000000   0.5591364  -0.7940669), wk =   0.1481481
        k(    6) = (   0.3333333   0.0000000   0.0000000), wk =   0.1481481
        k(    7) = (   0.3333333   0.0000000   0.5808912), wk =   0.2962963
        k(    8) = (   0.3333333   0.5591364  -0.2131756), wk =   0.2962963
        k(    9) = (   0.3333333   0.5591364   0.3677156), wk =   0.2962963
        k(   10) = (   0.3333333   0.5591364  -0.7940669), wk =   0.2962963

                       cryst. coord.
        k(    1) = (   0.0000000   0.0000000   0.0000000), wk =   0.0740741
        k(    2) = (   0.0000000   0.0000000   0.3333333), wk =   0.1481481
        k(    3) = (   0.0000000   0.3333333  -0.0000000), wk =   0.1481481
        k(    4) = (   0.0000000   0.3333333   0.3333333), wk =   0.1481481
        k(    5) = (   0.0000000   0.3333333  -0.3333333), wk =   0.1481481
        k(    6) = (   0.3333333   0.0000000   0.0000000), wk =   0.1481481
        k(    7) = (   0.3333333   0.0000000   0.3333333), wk =   0.2962963
        k(    8) = (   0.3333333   0.3333333  -0.0000000), wk =   0.2962963
        k(    9) = (   0.3333333   0.3333333   0.3333333), wk =   0.2962963
        k(   10) = (   0.3333333   0.3333333  -0.3333333), wk =   0.2962963

     Check: negative core charge=   -0.000003

     Initial potential from superposition of free atoms

     starting charge     125.2931, renormalised to     128.0000

     negative rho (up, down):  1.526E-03 0.000E+00
     Starting wfcs are   98 randomized atomic wfcs +  158 random wfcs

     Self-consistent Calculation

     iteration #  1     ecut=    30.00 Ry     beta= 0.70
     Davidson diagonalization with overlap

     ethr =  1.00E-02,  avg # of iterations =  7.3

     negative rho (up, down):  5.202E-03 0.000E+00

     total energy              =    -959.77744990 Ry
     estimated scf accuracy    <       3.80851106 Ry

[...]

     total energy              =    -962.35799203 Ry
     estimated scf accuracy    <       0.00000176 Ry

     iteration # 19     ecut=    30.00 Ry     beta= 0.70
     Davidson diagonalization with overlap

     ethr =  1.37E-09,  avg # of iterations =  1.0

     negative rho (up, down):  2.389E-03 0.000E+00

     End of self-consistent calculation

          k = 0.0000 0.0000 0.0000 (  4179 PWs)   bands (ev):

   -60.5034 -60.5034 -40.8541 -40.8538 -40.7935 -40.7932 -40.3553 -40.3552
   -34.4320 -34.4311 -34.3847 -34.3845 -34.2860 -34.2855 -19.7070 -19.5358
   -19.3625 -19.3155 -19.2630 -19.1982 -19.1628 -19.1009 -19.0605 -19.0111
   -18.9942 -18.9523  -2.4173  -2.3763  -2.0996  -2.0017  -1.9991  -1.9577
    -1.9167  -1.8369  -1.8185  -1.7290  -1.6400  -1.5282  -1.5267  -1.2927
    -1.2316  -1.1316  -1.0575  -1.0092  -0.9195  -0.7670  -0.5471  -0.4098
    -0.3398  -0.2513  -0.1441  -0.0981  -0.0840  -0.0249   0.0047   0.0611
     0.1777   0.2822   0.2923   0.2986   0.4660   0.5027   5.3282   5.3662
     5.3720   5.3878   5.4065   5.4188   7.1010   7.2149   7.2994   7.3707
     8.3451  10.2571  10.7900  12.3711  12.9179  13.1513  13.5837  13.8641
    13.9688  14.1816  14.4941  14.5709  15.0924  15.1910  15.4695  15.7489
    15.8270  16.2179  16.2246  16.6094  16.7970  16.8908  17.0021  17.5674
    18.0476  18.2322  18.4253  19.0314  19.1132  19.2337  19.8080  19.9288
    20.1224  20.3875  20.8176  20.8345  21.1382  21.5431  21.9708  22.2473
    22.6091  22.7357  22.9345  23.4457  23.9275  24.1747  24.4132  24.6730
    24.8955  25.3836  25.5358  25.6140  26.0454  26.1709  26.1882  26.6152
    26.7297  27.3165  27.4952  27.6962  27.7539  27.8245  28.2507  28.4014
    28.5291  29.1268  29.2609  29.2956  29.4178  29.7511  30.3270  30.3771
    30.7217  30.7494  31.0502  31.1367  31.4095  31.9154  32.1271  32.4945
    32.6595  33.0179  33.5255  33.5866  33.8473  34.1479  34.2589  34.6539
    34.7783  35.0088  35.2850  35.2936  35.4528  35.4702  35.5754  35.9391
    36.5160  36.6991  36.7420  36.7910  36.7928  37.0002  37.4978  37.6179
    37.7577  37.8375  37.9966  38.1352  38.7898  38.8406  39.3165  39.3976
    39.4653  39.7771  39.8309  40.0985  40.1639  40.2266  40.2937  40.4527
    40.5497  40.8194  41.1303  41.2800  41.2869  41.5504  41.8048  41.8499
    42.1162  42.1575  42.8143  42.8809  42.9752  43.0930  43.2302  43.3560
    43.7005  43.7788  44.1201  44.5274  44.6555  44.6693  44.9706  44.9913
    45.2552  45.4688  45.6822  46.0150  46.1570  46.3294  46.5595  46.7964
    47.4837  47.5194  47.8249  47.9529  48.0040  48.1795  48.6161  48.7207
    48.8627  48.8851  49.2069  49.2613  49.3572  49.4868  49.6254  49.8748
    49.9743  50.1117  50.3455  50.7936  50.8648  50.9222  51.0800  51.3422
    51.6447  51.7166  51.8119  52.1945  52.3066  52.4673  52.6076  52.6589

     occupation numbers
     1.0000   1.0000   1.0000   1.0000   1.0000   1.0000   1.0000   1.0000
     1.0000   1.0000   1.0000   1.0000   1.0000   1.0000   1.0000   1.0000
     1.0000   1.0000   1.0000   1.0000   1.0000   1.0000   1.0000   1.0000
     1.0000   1.0000   1.0000   1.0000   1.0000   1.0000   1.0000   1.0000
     1.0000   1.0000   1.0000   1.0000   1.0000   1.0000   1.0000   1.0000
     1.0000   1.0000   1.0000   1.0000   1.0000   1.0000   1.0000   1.0000
     1.0000   1.0000   1.0000   1.0000   1.0000   1.0000   1.0000   1.0000
     1.0000   1.0000   1.0000   1.0000   1.0000   1.0000   1.0000   1.0000
     0.0000   0.0000   0.0000   0.0000   0.0000   0.0000   0.0000   0.0000
     0.0000   0.0000   0.0000   0.0000   0.0000   0.0000   0.0000   0.0000
     0.0000   0.0000   0.0000   0.0000   0.0000   0.0000   0.0000   0.0000
     0.0000   0.0000   0.0000   0.0000   0.0000   0.0000   0.0000   0.0000
     0.0000   0.0000   0.0000   0.0000   0.0000   0.0000   0.0000   0.0000
     0.0000   0.0000   0.0000   0.0000   0.0000   0.0000   0.0000   0.0000
     0.0000   0.0000   0.0000   0.0000   0.0000   0.0000   0.0000   0.0000
     0.0000   0.0000   0.0000   0.0000   0.0000   0.0000   0.0000   0.0000
     0.0000   0.0000   0.0000   0.0000   0.0000   0.0000   0.0000   0.0000
     0.0000   0.0000   0.0000   0.0000   0.0000   0.0000   0.0000   0.0000
     0.0000   0.0000   0.0000   0.0000   0.0000   0.0000   0.0000   0.0000
     0.0000   0.0000   0.0000   0.0000   0.0000   0.0000   0.0000   0.0000
     0.0000   0.0000   0.0000   0.0000   0.0000   0.0000   0.0000   0.0000
     0.0000   0.0000   0.0000   0.0000   0.0000   0.0000   0.0000   0.0000
     0.0000   0.0000   0.0000   0.0000   0.0000   0.0000   0.0000   0.0000
     0.0000   0.0000   0.0000   0.0000   0.0000   0.0000   0.0000   0.0000
     0.0000   0.0000   0.0000   0.0000   0.0000   0.0000   0.0000   0.0000
     0.0000   0.0000   0.0000   0.0000   0.0000   0.0000   0.0000   0.0000
     0.0000   0.0000   0.0000   0.0000   0.0000   0.0000   0.0000   0.0000
     0.0000   0.0000   0.0000   0.0000   0.0000   0.0000   0.0000   0.0000
     0.0000   0.0000   0.0000   0.0000   0.0000   0.0000   0.0000   0.0000
     0.0000   0.0000   0.0000   0.0000   0.0000   0.0000   0.0000   0.0000
     0.0000   0.0000   0.0000   0.0000   0.0000   0.0000   0.0000   0.0000
     0.0000   0.0000   0.0000   0.0000   0.0000   0.0000   0.0000   0.0000

[...]

          k = 0.3333 0.5591-0.7941 (  4176 PWs)   bands (ev):

   -60.5034 -60.5034 -40.8536 -40.8534 -40.7934 -40.7934 -40.3555 -40.3551
   -34.4318 -34.4314 -34.3843 -34.3841 -34.2857 -34.2853 -19.5201 -19.4821
   -19.3564 -19.3212 -19.2661 -19.2520 -19.2024 -19.1547 -19.0681 -19.0505
   -19.0169 -18.9991  -2.2882  -2.2229  -2.0966  -2.0465  -1.9532  -1.8865
    -1.7954  -1.7670  -1.6486  -1.6226  -1.5355  -1.4791  -1.2955  -1.2205
    -1.1693  -1.0133  -0.9585  -0.8795  -0.7474  -0.7267  -0.5785  -0.5281
    -0.4761  -0.4225  -0.3722  -0.3107  -0.2308  -0.2145  -0.1491  -0.0762
     0.0588   0.1199   0.1989   0.2297   0.2629   0.3236   5.3599   5.3733
     5.3831   5.4004   5.4086   5.4169   7.1258   7.1516   7.2403   7.2458
    10.6744  10.9161  11.1163  11.3752  11.5024  11.8427  12.8769  13.2260
    13.6219  13.7406  14.7408  14.9522  15.1895  15.5328  15.8979  16.1084
    16.3849  16.5485  16.9825  17.2022  17.5046  17.7104  17.9518  18.0988
    18.2960  18.4720  18.5739  18.8736  19.1497  19.3288  19.5986  19.7961
    19.8972  20.1749  20.2916  20.4639  20.7083  21.0778  21.4640  21.6804
    21.9042  22.1599  22.2946  22.5754  23.0146  23.3219  23.5268  23.8434
    24.3097  24.8108  25.0201  25.4066  25.5462  26.1782  26.3830  26.6892
    26.8132  27.0912  27.5464  27.6854  28.0912  28.2045  28.6570  28.8120
    29.1416  29.5607  29.8693  30.0726  30.3535  30.5471  30.6996  31.2245
    31.4254  31.6132  31.9233  32.0974  32.3057  32.6980  32.9568  33.1084
    33.3538  33.5436  33.6711  33.9062  33.9570  34.2088  34.3504  34.6237
    34.7867  35.0556  35.2540  35.3276  35.4639  35.7437  35.9549  36.0698
    36.3349  36.4805  36.6107  36.8085  37.1010  37.2744  37.4215  37.6124
    37.8970  38.1229  38.3596  38.5518  38.6115  38.7719  38.8879  39.0584
    39.1417  39.3970  39.5380  39.7732  39.9516  40.1625  40.2407  40.3173
    40.4374  40.7325  40.8391  40.9955  41.0686  41.3873  41.5907  41.8462
    41.9147  42.1311  42.3961  42.5132  42.7406  42.8470  43.1894  43.2963
    43.5235  43.6843  43.8565  43.9820  44.1810  44.4707  44.7243  44.8793
    45.0665  45.4732  45.6190  45.7372  45.8151  45.9983  46.2947  46.4594
    46.6135  46.8236  47.0481  47.1071  47.2364  47.4557  47.7963  48.0315
    48.1345  48.3151  48.4059  48.6647  48.9523  48.9926  49.3474  49.4087
    49.5447  49.7664  50.1117  50.2623  50.3374  50.4496  50.6650  50.7439
    50.9557  51.2072  51.2697  51.4360  51.6681  51.8139  51.9389  52.2309

     occupation numbers
     1.0000   1.0000   1.0000   1.0000   1.0000   1.0000   1.0000   1.0000
     1.0000   1.0000   1.0000   1.0000   1.0000   1.0000   1.0000   1.0000
     1.0000   1.0000   1.0000   1.0000   1.0000   1.0000   1.0000   1.0000
     1.0000   1.0000   1.0000   1.0000   1.0000   1.0000   1.0000   1.0000
     1.0000   1.0000   1.0000   1.0000   1.0000   1.0000   1.0000   1.0000
     1.0000   1.0000   1.0000   1.0000   1.0000   1.0000   1.0000   1.0000
     1.0000   1.0000   1.0000   1.0000   1.0000   1.0000   1.0000   1.0000
     1.0000   1.0000   1.0000   1.0000   1.0000   1.0000   1.0000   1.0000
     0.0000   0.0000   0.0000   0.0000   0.0000   0.0000   0.0000   0.0000
     0.0000   0.0000   0.0000   0.0000   0.0000   0.0000   0.0000   0.0000
     0.0000   0.0000   0.0000   0.0000   0.0000   0.0000   0.0000   0.0000
     0.0000   0.0000   0.0000   0.0000   0.0000   0.0000   0.0000   0.0000
     0.0000   0.0000   0.0000   0.0000   0.0000   0.0000   0.0000   0.0000
     0.0000   0.0000   0.0000   0.0000   0.0000   0.0000   0.0000   0.0000
     0.0000   0.0000   0.0000   0.0000   0.0000   0.0000   0.0000   0.0000
     0.0000   0.0000   0.0000   0.0000   0.0000   0.0000   0.0000   0.0000
     0.0000   0.0000   0.0000   0.0000   0.0000   0.0000   0.0000   0.0000
     0.0000   0.0000   0.0000   0.0000   0.0000   0.0000   0.0000   0.0000
     0.0000   0.0000   0.0000   0.0000   0.0000   0.0000   0.0000   0.0000
     0.0000   0.0000   0.0000   0.0000   0.0000   0.0000   0.0000   0.0000
     0.0000   0.0000   0.0000   0.0000   0.0000   0.0000   0.0000   0.0000
     0.0000   0.0000   0.0000   0.0000   0.0000   0.0000   0.0000   0.0000
     0.0000   0.0000   0.0000   0.0000   0.0000   0.0000   0.0000   0.0000
     0.0000   0.0000   0.0000   0.0000   0.0000   0.0000   0.0000   0.0000
     0.0000   0.0000   0.0000   0.0000   0.0000   0.0000   0.0000   0.0000
     0.0000   0.0000   0.0000   0.0000   0.0000   0.0000   0.0000   0.0000
     0.0000   0.0000   0.0000   0.0000   0.0000   0.0000   0.0000   0.0000
     0.0000   0.0000   0.0000   0.0000   0.0000   0.0000   0.0000   0.0000
     0.0000   0.0000   0.0000   0.0000   0.0000   0.0000   0.0000   0.0000
     0.0000   0.0000   0.0000   0.0000   0.0000   0.0000   0.0000   0.0000
     0.0000   0.0000   0.0000   0.0000   0.0000   0.0000   0.0000   0.0000
     0.0000   0.0000   0.0000   0.0000   0.0000   0.0000   0.0000   0.0000

     highest occupied, lowest unoccupied level (ev):     5.3796    5.3608

!    total energy              =    -962.35799163 Ry
     estimated scf accuracy    <       0.00000099 Ry

     The total energy is the sum of the following terms:
     one-electron contribution =    -575.47187178 Ry
     hartree contribution      =     336.50655075 Ry
     xc contribution           =    -172.48458652 Ry
     ewald contribution        =    -550.90808408 Ry

     convergence has been achieved in  19 iterations

     Writing all to output data dir bands_nm/myprefix.save/

     General routines

     Parallel routines

   This run was terminated on:   4: 7:42  17Jul2023

   JOB DONE.