     Program PWSCF v.7.1 starts on 15Jul2023 at 22:58: 8

     Reading input from espresso_17954.pwi
Warning: card &CELL ignored
Warning: card / ignored

     Current dimensions of program PWSCF are:
     Max number of different atomic species (ntypx) = 10
     Max number of k-points (npk) =  40000
     Max angular momentum in pseudopotentials (lmaxx) =  4
     file Pb.pbe-dn-kjpaw_psl.0.2.2.UPF: wavefunction(s)  6S renormalized

     K-points division:     npool     =       2
     R & G space division:  proc/nbgrp/npool/nimage =       4
     Subspace diagonalization in iterative solution of the eigenvalue problem:
     one sub-group per band group will be used

     Using Slab Decomposition

     bravais-lattice index     =            0
     lattice parameter (alat)  =       8.9605  a.u.
     unit-cell volume          =    3047.9243 (a.u.)^3
     number of atoms/cell      =           20
     number of atomic types    =            3
     number of electrons       =       176.00
     number of Kohn-Sham states=          256
     kinetic-energy cutoff     =      30.0000  Ry
     charge density cutoff     =     240.0000  Ry
     scf convergence threshold =      1.0E-06
     mixing beta               =       0.7000
     number of iterations used =            8  plain     mixing
     Exchange-correlation=  SLA  PW   PBX  PBC
                           (   1   4   3   4   0   0   0)

     celldm(1)=   8.960521  celldm(2)=   0.000000  celldm(3)=   0.000000
     celldm(4)=   0.000000  celldm(5)=   0.000000  celldm(6)=   0.000000

     crystal axes: (cart. coord. in units of alat)
               a(1) = (   1.000000   0.000000   0.000000 )
               a(2) = (  -0.001420   1.004823   0.000000 )
               a(3) = (  -1.111698   0.060048   4.216140 )

     reciprocal axes: (cart. coord. in units 2 pi/alat)
               b(1) = (  1.000000  0.001413  0.263657 )
               b(2) = (  0.000000  0.995201 -0.014174 )
               b(3) = (  0.000000  0.000000  0.237184 )

     PseudoPot. # 1 for Rb read from file:
     /lustre07/scratch/pragov/crystal_structure_design/utils/SSSP/Rb_ONCV_PBE-1.0.oncvpsp.upf
     MD5 check sum: 55a5172d6bfbce6759a58e35d43f6aa9
     Pseudo is Norm-conserving, Zval =  9.0
     Generated using ONCVPSP code by D. R. Hamann
     Using radial grid of 2308 points,  6 beta functions with:
                l(1) =   0
                l(2) =   0
                l(3) =   1
                l(4) =   1
                l(5) =   2
                l(6) =   2

     PseudoPot. # 2 for Pb read from file:
     /lustre07/scratch/pragov/crystal_structure_design/utils/SSSP/Pb.pbe-dn-kjpaw_psl.0.2.2.UPF
     MD5 check sum: 9d431e6316058b74ade52399a6cf67da
     Pseudo is Projector augmented-wave + core cor, Zval = 14.0
     Generated using "atomic" code by A. Dal Corso  v.5.0.99 svn rev. 10869
     Shape of augmentation charge: PSQ
     Using radial grid of 1281 points,  6 beta functions with:
                l(1) =   0
                l(2) =   0
                l(3) =   1
                l(4) =   1
                l(5) =   2
                l(6) =   2
     Q(r) pseudized with 0 coefficients

     PseudoPot. # 3 for F  read from file:
     /lustre07/scratch/pragov/crystal_structure_design/utils/SSSP/f_pbe_v1.4.uspp.F.UPF
     MD5 check sum: 4c38b6a325caf53ec0e86aed9459de46
     Pseudo is Ultrasoft, Zval =  7.0
     Generated by new atomic code, or converted to UPF format
     Using radial grid of  799 points,  4 beta functions with:
                l(1) =   0
                l(2) =   0
                l(3) =   1
                l(4) =   1
     Q(r) pseudized with  8 coefficients,  rinner =    0.950   0.950   0.950

     atomic species   valence    mass     pseudopotential
        Rb             9.00    85.46780     Rb( 1.00)
        Pb            14.00   207.20000     Pb( 1.00)
        F              7.00    18.99840     F ( 1.00)

     No symmetry found

                                    s                        frac. trans.

      isym =  1     identity

 cryst.   s( 1) = (     1          0          0      )
                  (     0          1          0      )
                  (     0          0          1      )

 cart.    s( 1) = (  1.0000000  0.0000000  0.0000000 )
                  (  0.0000000  1.0000000  0.0000000 )
                  (  0.0000000  0.0000000  1.0000000 )

   Cartesian axes

     site n.     atom                  positions (alat units)
         1           Rb  tau(   1) = (  -0.2431744   0.8291270   1.3679099  )
         2           Rb  tau(   2) = (   0.1842088   0.3327963   0.7575224  )
         3           Rb  tau(   3) = (   0.1312250   0.2352848   2.8466663  )
         4           Rb  tau(   4) = (  -0.2985357   0.7313453   3.4599588  )
         5           Pb  tau(   5) = (  -0.7856235   0.2376860   3.8975183  )
         6           Pb  tau(   6) = (   0.2704381   0.3207701   1.8072275  )
         7           Pb  tau(   7) = (  -0.3797483   0.7441809   2.4069735  )
         8           Pb  tau(   8) = (   0.6685716   0.8272895   0.3199545  )
         9           F   tau(   9) = (   0.6472280   0.8245804   0.7922254  )
        10           F   tau(  10) = (  -0.7669473   0.2412458   3.4252937  )
        11           F   tau(  11) = (   0.6716534   0.3261394   0.4003183  )
        12           F   tau(  12) = (   0.1595193   0.8383997   0.4102558  )
        13           F   tau(  13) = (  -0.3963303   0.7444407   2.8812556  )
        14           F   tau(  14) = (   0.2898926   0.3209991   1.3339573  )
        15           F   tau(  15) = (   0.2707952   0.8251173   1.7268468  )
        16           F   tau(  16) = (   0.1133918   0.7364197   2.4987589  )
        17           F   tau(  17) = (  -0.7868008   0.7391844   3.8178332  )
        18           F   tau(  18) = (  -0.2214900   0.3280435   1.7150500  )
        19           F   tau(  19) = (  -0.2775982   0.2256835   3.8081319  )
        20           F   tau(  20) = (  -0.3818611   0.2399680   2.4877505  )

   Crystallographic axes

     site n.     atom                  positions (cryst. coord.)
         1           Rb  tau(   1) = (  0.1186560  0.8057590  0.3244460  )
         2           Rb  tau(   2) = (  0.3844050  0.3204620  0.1796720  )
         3           Rb  tau(   3) = (  0.8821000  0.1938070  0.6751830  )
         4           Rb  tau(   4) = (  0.6147390  0.6787940  0.8206460  )
         5           Pb  tau(   5) = (  0.2423190  0.1813020  0.9244280  )
         6           Pb  tau(   6) = (  0.7473790  0.2936150  0.4286450  )
         7           Pb  tau(   7) = (  0.2559180  0.7064930  0.5708950  )
         8           Pb  tau(   8) = (  0.7540990  0.8187840  0.0758880  )
         9           F   tau(   9) = (  0.8572690  0.8093940  0.1879030  )
        10           F   tau(  10) = (  0.1364950  0.1915380  0.8124240  )
        11           F   tau(  11) = (  0.7776610  0.3189000  0.0949490  )
        12           F   tau(  12) = (  0.2688710  0.8285610  0.0973060  )
        13           F   tau(  13) = (  0.3643840  0.7000290  0.6833870  )
        14           F   tau(  14) = (  0.6420530  0.3005510  0.3163930  )
        15           F   tau(  15) = (  0.7272560  0.7966810  0.4095800  )
        16           F   tau(  16) = (  0.7732470  0.6974680  0.5926650  )
        17           F   tau(  17) = (  0.2208410  0.6815230  0.9055280  )
        18           F   tau(  18) = (  0.2311580  0.3021600  0.4067820  )
        19           F   tau(  19) = (  0.7267600  0.1706240  0.9032270  )
        20           F   tau(  20) = (  0.2743900  0.2035550  0.5900540  )

     number of k points=    14
                       cart. coord. in units 2pi/alat
        k(    1) = (   0.0000000   0.0000000   0.0000000), wk =   0.0740741
        k(    2) = (   0.0000000   0.0000000   0.0790613), wk =   0.1481481
        k(    3) = (   0.0000000   0.3317335  -0.0047247), wk =   0.1481481
        k(    4) = (   0.0000000   0.3317335   0.0743366), wk =   0.1481481
        k(    5) = (   0.0000000   0.3317335  -0.0837859), wk =   0.1481481
        k(    6) = (   0.3333333   0.0004711   0.0878855), wk =   0.1481481
        k(    7) = (   0.3333333   0.0004711   0.1669468), wk =   0.1481481
        k(    8) = (   0.3333333   0.0004711   0.0088243), wk =   0.1481481
        k(    9) = (   0.3333333   0.3322047   0.0831609), wk =   0.1481481
        k(   10) = (   0.3333333   0.3322047   0.1622221), wk =   0.1481481
        k(   11) = (   0.3333333   0.3322047   0.0040996), wk =   0.1481481
        k(   12) = (   0.3333333  -0.3312624   0.0926102), wk =   0.1481481
        k(   13) = (   0.3333333  -0.3312624   0.1716714), wk =   0.1481481
        k(   14) = (   0.3333333  -0.3312624   0.0135489), wk =   0.1481481

                       cryst. coord.
        k(    1) = (   0.0000000   0.0000000   0.0000000), wk =   0.0740741
        k(    2) = (   0.0000000   0.0000000   0.3333333), wk =   0.1481481
        k(    3) = (   0.0000000   0.3333333   0.0000000), wk =   0.1481481
        k(    4) = (   0.0000000   0.3333333   0.3333333), wk =   0.1481481
        k(    5) = (   0.0000000   0.3333333  -0.3333333), wk =   0.1481481
        k(    6) = (   0.3333333   0.0000000   0.0000000), wk =   0.1481481
        k(    7) = (   0.3333333   0.0000000   0.3333333), wk =   0.1481481
        k(    8) = (   0.3333333   0.0000000  -0.3333333), wk =   0.1481481
        k(    9) = (   0.3333333   0.3333333   0.0000000), wk =   0.1481481
        k(   10) = (   0.3333333   0.3333333   0.3333333), wk =   0.1481481
        k(   11) = (   0.3333333   0.3333333  -0.3333333), wk =   0.1481481
        k(   12) = (   0.3333333  -0.3333333   0.0000000), wk =   0.1481481
        k(   13) = (   0.3333333  -0.3333333   0.3333333), wk =   0.1481481
        k(   14) = (   0.3333333  -0.3333333  -0.3333333), wk =   0.1481481

     Initial potential from superposition of free atoms

     starting charge     175.8915, renormalised to     176.0000
     Starting wfcs are  104 randomized atomic wfcs +  152 random wfcs
     Checking if some PAW data can be deallocated...

     Self-consistent Calculation

     iteration #  1     ecut=    30.00 Ry     beta= 0.70
     Davidson diagonalization with overlap

     ethr =  1.00E-02,  avg # of iterations =  7.0

     total energy              =   -4261.32296077 Ry
     estimated scf accuracy    <       3.19505667 Ry

[...]

     total energy              =   -4262.85600661 Ry
     estimated scf accuracy    <       0.00000441 Ry

     iteration #  9     ecut=    30.00 Ry     beta= 0.70
     Davidson diagonalization with overlap

     ethr =  2.51E-09,  avg # of iterations =  1.4

     End of self-consistent calculation

          k = 0.0000 0.0000 0.0000 (  8439 PWs)   bands (ev):

   -21.4108 -21.4042 -21.3831 -21.3740 -18.1400 -18.1265 -18.1139 -18.1045
   -18.0185 -18.0102 -17.9892 -17.9841 -17.7161 -17.7073 -17.6873 -17.6768
   -11.8469 -11.8265 -11.8217 -11.8136 -11.8110 -11.8066 -11.7983 -11.7977
   -11.7977 -11.7895 -11.7874 -11.7814 -11.6800 -11.6709 -11.6565 -11.6549
   -11.5785 -11.5704 -11.5540 -11.5500  -5.6128  -5.6122  -5.5579  -5.5526
    -5.5018  -5.4907  -5.4738  -5.4702  -5.4656  -5.4618  -5.4082  -5.3999
    -2.7701  -2.7191  -2.2089  -2.1711  -0.8714  -0.8318  -0.8237  -0.7997
    -0.7850  -0.7772  -0.7625  -0.7583  -0.1114  -0.0494   0.3669   0.4275
     0.7095   0.7641   0.7755   0.7789   0.7891   0.7929   0.8100   0.8178
     0.8214   0.8307   0.8483   0.8503   1.1595   1.1620   1.1809   1.1886
     1.2065   1.2074   1.2124   1.2158   1.4608   1.5041   1.6187   1.6449
     7.3283   7.5395   7.7765   8.5418   8.8342   9.2367   9.3907   9.5964
     9.6695   9.7732  10.3892  10.4923  10.5172  10.6624  10.8222  10.8738
    11.2592  11.4531  11.8519  11.9294  11.9724  12.0789  12.1209  12.2237
    12.2360  12.4708  12.6828  12.7821  12.8199  12.8656  13.0189  13.0381
    14.0377  14.0612  14.1930  14.2486  14.3279  14.6168  15.0355  15.1217
    15.3714  15.5712  15.9186  16.2117  16.2453  16.4539  16.5372  16.6758
    16.9141  17.0140  17.0735  17.2432  17.3580  17.6366  17.9638  17.9669
    18.1220  18.3788  18.4424  18.5415  18.6614  18.7259  18.8167  19.0556
    19.3785  19.5682  19.6391  19.9259  20.1938  20.3657  20.5676  20.5870
    20.7710  20.9023  21.1316  21.1973  21.2499  21.2964  21.3755  21.5182
    21.6971  21.8569  22.0823  22.1801  22.2589  22.4621  22.4701  22.5641
    22.8002  22.9240  23.1523  23.2765  23.5758  23.6307  23.6675  23.9408
    23.9632  24.2470  24.2794  24.4507  24.4543  24.6129  24.6363  24.8234
    24.8441  25.0141  25.2352  25.3242  25.6105  25.7780  25.8685  25.9566
    26.0837  26.4644  26.6839  26.8401  27.1545  27.4591  27.6520  27.7287
    27.8357  28.0678  28.2237  28.2396  28.2700  28.3098  28.4417  28.4812
    28.5716  28.6684  28.7022  28.7347  28.7455  28.8461  29.0321  29.0951
    29.1525  29.2910  29.4064  29.5377  29.6561  29.7302  29.9697  29.9868
    30.0795  30.1008  30.5427  30.5785  30.6353  30.6979  30.7178  31.2115
    31.2673  31.3182  31.4392  31.8786  31.8984  31.9896  32.1035  32.1885
    32.2064  32.3192  32.4025  32.5347  32.5445  32.5633  32.6755  32.6972

     occupation numbers
     1.0000   1.0000   1.0000   1.0000   1.0000   1.0000   1.0000   1.0000
     1.0000   1.0000   1.0000   1.0000   1.0000   1.0000   1.0000   1.0000
     1.0000   1.0000   1.0000   1.0000   1.0000   1.0000   1.0000   1.0000
     1.0000   1.0000   1.0000   1.0000   1.0000   1.0000   1.0000   1.0000
     1.0000   1.0000   1.0000   1.0000   1.0000   1.0000   1.0000   1.0000
     1.0000   1.0000   1.0000   1.0000   1.0000   1.0000   1.0000   1.0000
     1.0000   1.0000   1.0000   1.0000   1.0000   1.0000   1.0000   1.0000
     1.0000   1.0000   1.0000   1.0000   1.0000   1.0000   1.0000   1.0000
     1.0000   1.0000   1.0000   1.0000   1.0000   1.0000   1.0000   1.0000
     1.0000   1.0000   1.0000   1.0000   1.0000   1.0000   1.0000   1.0000
     1.0000   1.0000   1.0000   1.0000   1.0000   1.0000   1.0000   1.0000
     0.0000   0.0000   0.0000   0.0000   0.0000   0.0000   0.0000   0.0000
     0.0000   0.0000   0.0000   0.0000   0.0000   0.0000   0.0000   0.0000
     0.0000   0.0000   0.0000   0.0000   0.0000   0.0000   0.0000   0.0000
     0.0000   0.0000   0.0000   0.0000   0.0000   0.0000   0.0000   0.0000
     0.0000   0.0000   0.0000   0.0000   0.0000   0.0000   0.0000   0.0000
     0.0000   0.0000   0.0000   0.0000   0.0000   0.0000   0.0000   0.0000
     0.0000   0.0000   0.0000   0.0000   0.0000   0.0000   0.0000   0.0000
     0.0000   0.0000   0.0000   0.0000   0.0000   0.0000   0.0000   0.0000
     0.0000   0.0000   0.0000   0.0000   0.0000   0.0000   0.0000   0.0000
     0.0000   0.0000   0.0000   0.0000   0.0000   0.0000   0.0000   0.0000
     0.0000   0.0000   0.0000   0.0000   0.0000   0.0000   0.0000   0.0000
     0.0000   0.0000   0.0000   0.0000   0.0000   0.0000   0.0000   0.0000
     0.0000   0.0000   0.0000   0.0000   0.0000   0.0000   0.0000   0.0000
     0.0000   0.0000   0.0000   0.0000   0.0000   0.0000   0.0000   0.0000
     0.0000   0.0000   0.0000   0.0000   0.0000   0.0000   0.0000   0.0000
     0.0000   0.0000   0.0000   0.0000   0.0000   0.0000   0.0000   0.0000
     0.0000   0.0000   0.0000   0.0000   0.0000   0.0000   0.0000   0.0000
     0.0000   0.0000   0.0000   0.0000   0.0000   0.0000   0.0000   0.0000
     0.0000   0.0000   0.0000   0.0000   0.0000   0.0000   0.0000   0.0000
     0.0000   0.0000   0.0000   0.0000   0.0000   0.0000   0.0000   0.0000
     0.0000   0.0000   0.0000   0.0000   0.0000   0.0000   0.0000   0.0000

[...]

          k = 0.3333-0.3313 0.0135 (  8461 PWs)   bands (ev):

   -21.3911 -21.3847 -21.3753 -21.3658 -18.0388 -18.0284 -18.0148 -18.0092
   -18.0028 -17.9950 -17.9714 -17.9658 -17.7339 -17.7246 -17.7050 -17.6935
   -11.8645 -11.8399 -11.8334 -11.8295 -11.8249 -11.8230 -11.8219 -11.8159
   -11.8011 -11.8009 -11.7966 -11.7829 -11.7801 -11.7589 -11.7526 -11.7464
   -11.7390 -11.7309 -11.7233 -11.7102  -5.6383  -5.6363  -5.5888  -5.5836
    -5.5150  -5.5077  -5.5008  -5.4919  -5.4851  -5.4760  -5.4754  -5.4658
    -4.0509  -4.0473  -3.9017  -3.8730   0.1577   0.1802   0.2062   0.2339
     0.2541   0.2628   0.3238   0.3898   0.4571   0.4855   0.5331   0.5848
     0.5981   0.6156   0.6812   0.6885   0.7084   0.7240   0.7962   0.8252
     0.9482   0.9576   0.9686   0.9857   1.0113   1.0317   1.1143   1.1313
     1.2131   1.2510   1.2824   1.3223   2.3189   2.3442   2.5656   2.6240
     7.3828   7.4121   7.7015   7.7260   7.9890   8.0316   8.4405   8.5769
     9.1406   9.3228   9.5598   9.7326  10.0587  10.2622  10.4880  10.5532
    11.4848  11.6117  11.8355  12.0832  12.3382  12.4615  12.6482  12.8468
    12.8978  13.1898  13.2638  13.3753  13.5012  13.6296  13.6510  13.7043
    13.7784  13.8937  14.0358  14.3227  14.4085  14.4822  14.8825  14.9116
    14.9903  15.2621  15.4331  15.6907  15.7814  15.8304  16.0843  16.2357
    16.3504  16.5684  16.6512  16.9684  17.2152  17.5884  17.8137  18.1027
    18.3321  18.4782  18.6353  18.7350  18.8128  18.9196  19.1479  19.2792
    19.4292  19.6387  19.7625  19.9939  20.1007  20.4005  20.5365  20.6217
    20.6879  20.8738  20.9458  21.1762  21.3428  21.5363  21.6892  21.8135
    21.9181  22.2940  22.3968  22.4374  22.5357  22.6576  22.8283  22.9124
    23.0145  23.2821  23.3412  23.4663  23.7244  23.8766  23.8951  24.0454
    24.0570  24.2113  24.3009  24.3666  24.4860  24.6150  24.6751  24.9907
    25.0761  25.1570  25.3041  25.3747  25.4544  25.6027  25.6154  25.6753
    25.8872  25.9572  26.0229  26.2505  26.3099  26.4292  26.5015  26.7346
    26.7653  27.0007  27.0411  27.1305  27.2313  27.3079  27.3985  27.4786
    27.6653  27.7294  27.9427  27.9831  28.1667  28.2848  28.3855  28.5599
    28.5972  28.8642  28.9431  28.9858  29.0732  29.2866  29.3455  29.4057
    29.5237  29.6794  29.7365  29.8312  29.9606  30.0971  30.2017  30.4197
    30.4748  30.5238  30.7274  30.8379  30.9754  31.1120  31.2067  31.4136
    31.4754  31.6507  31.7093  31.8214  31.9652  32.1955  32.2155  32.2967

     occupation numbers
     1.0000   1.0000   1.0000   1.0000   1.0000   1.0000   1.0000   1.0000
     1.0000   1.0000   1.0000   1.0000   1.0000   1.0000   1.0000   1.0000
     1.0000   1.0000   1.0000   1.0000   1.0000   1.0000   1.0000   1.0000
     1.0000   1.0000   1.0000   1.0000   1.0000   1.0000   1.0000   1.0000
     1.0000   1.0000   1.0000   1.0000   1.0000   1.0000   1.0000   1.0000
     1.0000   1.0000   1.0000   1.0000   1.0000   1.0000   1.0000   1.0000
     1.0000   1.0000   1.0000   1.0000   1.0000   1.0000   1.0000   1.0000
     1.0000   1.0000   1.0000   1.0000   1.0000   1.0000   1.0000   1.0000
     1.0000   1.0000   1.0000   1.0000   1.0000   1.0000   1.0000   1.0000
     1.0000   1.0000   1.0000   1.0000   1.0000   1.0000   1.0000   1.0000
     1.0000   1.0000   1.0000   1.0000   1.0000   1.0000   1.0000   1.0000
     0.0000   0.0000   0.0000   0.0000   0.0000   0.0000   0.0000   0.0000
     0.0000   0.0000   0.0000   0.0000   0.0000   0.0000   0.0000   0.0000
     0.0000   0.0000   0.0000   0.0000   0.0000   0.0000   0.0000   0.0000
     0.0000   0.0000   0.0000   0.0000   0.0000   0.0000   0.0000   0.0000
     0.0000   0.0000   0.0000   0.0000   0.0000   0.0000   0.0000   0.0000
     0.0000   0.0000   0.0000   0.0000   0.0000   0.0000   0.0000   0.0000
     0.0000   0.0000   0.0000   0.0000   0.0000   0.0000   0.0000   0.0000
     0.0000   0.0000   0.0000   0.0000   0.0000   0.0000   0.0000   0.0000
     0.0000   0.0000   0.0000   0.0000   0.0000   0.0000   0.0000   0.0000
     0.0000   0.0000   0.0000   0.0000   0.0000   0.0000   0.0000   0.0000
     0.0000   0.0000   0.0000   0.0000   0.0000   0.0000   0.0000   0.0000
     0.0000   0.0000   0.0000   0.0000   0.0000   0.0000   0.0000   0.0000
     0.0000   0.0000   0.0000   0.0000   0.0000   0.0000   0.0000   0.0000
     0.0000   0.0000   0.0000   0.0000   0.0000   0.0000   0.0000   0.0000
     0.0000   0.0000   0.0000   0.0000   0.0000   0.0000   0.0000   0.0000
     0.0000   0.0000   0.0000   0.0000   0.0000   0.0000   0.0000   0.0000
     0.0000   0.0000   0.0000   0.0000   0.0000   0.0000   0.0000   0.0000
     0.0000   0.0000   0.0000   0.0000   0.0000   0.0000   0.0000   0.0000
     0.0000   0.0000   0.0000   0.0000   0.0000   0.0000   0.0000   0.0000
     0.0000   0.0000   0.0000   0.0000   0.0000   0.0000   0.0000   0.0000
     0.0000   0.0000   0.0000   0.0000   0.0000   0.0000   0.0000   0.0000

     highest occupied, lowest unoccupied level (ev):     2.6241    7.1660

!    total energy              =   -4262.85600661 Ry
     estimated scf accuracy    <       0.00000099 Ry

     The total energy is the sum of the following terms:
     one-electron contribution =    -686.42892351 Ry
     hartree contribution      =     447.03390444 Ry
     xc contribution           =    -320.23437653 Ry
     ewald contribution        =    -789.28809163 Ry
     one-center paw contrib.   =   -2913.93851938 Ry
      -> PAW hartree energy AE =       0.00000000 Ry
      -> PAW hartree energy PS =       0.00000000 Ry
      -> PAW xc energy AE      =       0.00000000 Ry
      -> PAW xc energy PS      =       0.00000000 Ry
      -> total E_H with PAW    =     447.03390444 Ry
      -> total E_XC with PAW   =    -320.23437653 Ry

     convergence has been achieved in   9 iterations

     Writing all to output data dir bands_nm/myprefix.save/

     General routines

     Parallel routines

     PAW routines

   This run was terminated on:  22:59:52  15Jul2023

   JOB DONE.