     Program PWSCF v.7.1 starts on 15Jul2023 at 22: 2:44

     Reading input from espresso_9753.pwi
Warning: card &CELL ignored
Warning: card / ignored

     Current dimensions of program PWSCF are:
     Max number of different atomic species (ntypx) = 10
     Max number of k-points (npk) =  40000
     Max angular momentum in pseudopotentials (lmaxx) =  4
     file Lu.paw.z_25.atompaw.wentzcovitch.v1.2.upf: wavefunction(s)  6S 0P 5D 0D 0F renormalized
     file Al.pbe-n-kjpaw_psl.1.0.0.UPF: wavefunction(s)  3S 3P renormalized
     file O.pbe-n-kjpaw_psl.0.1.UPF: wavefunction(s)  2P renormalized
     Message from routine setup:
     using ibrav=0 with symmetry is DISCOURAGED, use correct ibrav instead

     K-points division:     npool     =       2
     R & G space division:  proc/nbgrp/npool/nimage =       4
     Subspace diagonalization in iterative solution of the eigenvalue problem:
     one sub-group per band group will be used

     Using Slab Decomposition

     bravais-lattice index     =            0
     lattice parameter (alat)  =      13.1302  a.u.
     unit-cell volume          =    1675.3297 (a.u.)^3
     number of atoms/cell      =           20
     number of atomic types    =            3
     number of electrons       =       228.00
     number of Kohn-Sham states=          256
     kinetic-energy cutoff     =      30.0000  Ry
     charge density cutoff     =     240.0000  Ry
     scf convergence threshold =      1.0E-06
     mixing beta               =       0.7000
     number of iterations used =            8  plain     mixing
     Exchange-correlation= SLA  PW   PBX  PBC
                           (   1   4   3   4   0   0   0)

     celldm(1)=  13.130209  celldm(2)=   0.000000  celldm(3)=   0.000000
     celldm(4)=   0.000000  celldm(5)=   0.000000  celldm(6)=   0.000000

     crystal axes: (cart. coord. in units of alat)
               a(1) = (   1.000000   0.000000   0.000000 )
               a(2) = (  -0.223150   0.974784   0.000000 )
               a(3) = (   0.000000   0.000000   0.759236 )

     reciprocal axes: (cart. coord. in units 2 pi/alat)
               b(1) = (  1.000000  0.228923  0.000000 )
               b(2) = (  0.000000  1.025868  0.000000 )
               b(3) = (  0.000000  0.000000  1.317113 )

     PseudoPot. # 1 for Lu read from file:
     /lustre07/scratch/pragov/crystal_structure_design/utils/SSSP/Lu.paw.z_25.atompaw.wentzcovitch.v1.2.upf
     MD5 check sum: a517b3205eadf2aa79773283867f4cbe
     Pseudo is Projector augmented-wave + core cor, Zval = 25.0
     Generated using ATOMPAW code
     Shape of augmentation charge: BESSEL
     Using radial grid of 1118 points,  8 beta functions with:
                l(1) =   0
                l(2) =   0
                l(3) =   1
                l(4) =   1
                l(5) =   2
                l(6) =   2
                l(7) =   3
                l(8) =   3
     Q(r) pseudized with 0 coefficients

     PseudoPot. # 2 for Al read from file:
     /lustre07/scratch/pragov/crystal_structure_design/utils/SSSP/Al.pbe-n-kjpaw_psl.1.0.0.UPF
     MD5 check sum: cfc449ca30b5f3223ec38ddd88ac046d
     Pseudo is Projector augmented-wave + core cor, Zval =  3.0
     Generated using "atomic" code by A. Dal Corso  v.5.1
     Shape of augmentation charge: PSQ
     Using radial grid of 1135 points,  6 beta functions with:
                l(1) =   0
                l(2) =   0
                l(3) =   1
                l(4) =   1
                l(5) =   2
                l(6) =   2
     Q(r) pseudized with 0 coefficients

     PseudoPot. # 3 for O  read from file:
     /lustre07/scratch/pragov/crystal_structure_design/utils/SSSP/O.pbe-n-kjpaw_psl.0.1.UPF
     MD5 check sum: 0234752ac141de4415c5fc33072bef88
     Pseudo is Projector augmented-wave + core cor, Zval =  6.0
     Generated using "atomic" code by A. Dal Corso  v.5.0.99 svn rev. 10869
     Shape of augmentation charge: BESSEL
     Using radial grid of 1095 points,  4 beta functions with:
                l(1) =   0
                l(2) =   0
                l(3) =   1
                l(4) =   1
     Q(r) pseudized with 0 coefficients

     atomic species   valence    mass     pseudopotential
        Lu            25.00   174.96680     Lu( 1.00)
        Al             3.00    26.98154     Al( 1.00)
        O              6.00    15.99900     O ( 1.00)

      2 Sym. Ops. (no inversion) found ( 1 have fractional translation)

                                    s                        frac. trans.

      isym =  1     identity

 cryst.   s( 1) = (     1          0          0      )
                  (     0          1          0      )
                  (     0          0          1      )

 cart.    s( 1) = (  1.0000000  0.0000000  0.0000000 )
                  (  0.0000000  1.0000000  0.0000000 )
                  (  0.0000000  0.0000000  1.0000000 )

      isym =  2     180 deg rotation - cart. axis [0,0,1]

 cryst.   s( 2) = (    -1          0          0      )    f =( -0.0000000 )
                  (     0         -1          0      )       ( -0.0000000 )
                  (     0          0          1      )       (  0.5000000 )

 cart.    s( 2) = ( -1.0000000  0.0000000  0.0000000 )    f =(  0.0000000 )
                  (  0.0000000 -1.0000000  0.0000000 )       ( -0.0000000 )
                  (  0.0000000  0.0000000  1.0000000 )       (  0.3796181 )

   Cartesian axes

     site n.     atom                  positions (alat units)
         1           Lu  tau(   1) = (   0.0206097   0.2913269   0.3612583  )
         2           Lu  tau(   2) = (   0.2793818   0.0850996   0.7408764  )
         3           Lu  tau(   3) = (   0.5125563   0.3884661   0.3246745  )
         4           Lu  tau(   4) = (   0.2642935   0.5863180   0.7042926  )
         5           Lu  tau(   5) = (   0.7562402   0.6834572   0.7408764  )
         6           Lu  tau(   6) = (   0.4974681   0.8896845   0.3612583  )
         7           Al  tau(   7) = (   0.7616129   0.1899815   0.0093925  )
         8           Al  tau(   8) = (   0.0152369   0.7848026   0.3890106  )
         9           O   tau(   9) = (   0.2421502   0.3475359   0.1531736  )
        10           O   tau(  10) = (   0.2847366   0.3135968   0.5327918  )
        11           O   tau(  11) = (   0.5555673   0.1058206   0.1382789  )
        12           O   tau(  12) = (  -0.0208227   0.5651720   0.5178971  )
        13           O   tau(  13) = (   0.9464774   0.0426546   0.1124786  )
        14           O   tau(  14) = (   0.7388281   0.2081398   0.5146255  )
        15           O   tau(  15) = (   0.0380218   0.7666443   0.1350074  )
        16           O   tau(  16) = (  -0.1696276   0.9321295   0.4920967  )
        17           O   tau(  17) = (   0.7976725   0.4096121   0.1382789  )
        18           O   tau(  18) = (   0.2212826   0.8689635   0.5178971  )
        19           O   tau(  19) = (   0.4921133   0.6611873   0.1531736  )
        20           O   tau(  20) = (   0.5346997   0.6272482   0.5327918  )

   Crystallographic axes

     site n.     atom                  positions (cryst. coord.)
         1           Lu  tau(   1) = (  0.0873010  0.2988630  0.4758180  )
         2           Lu  tau(   2) = (  0.2988630  0.0873010  0.9758180  )
         3           Lu  tau(   3) = (  0.6014850  0.3985150  0.4276330  )
         4           Lu  tau(   4) = (  0.3985150  0.6014850  0.9276330  )
         5           Lu  tau(   5) = (  0.9126990  0.7011370  0.9758180  )
         6           Lu  tau(   6) = (  0.7011370  0.9126990  0.4758180  )
         7           Al  tau(   7) = (  0.8051040  0.1948960  0.0123710  )
         8           Al  tau(   8) = (  0.1948960  0.8051040  0.5123710  )
         9           O   tau(   9) = (  0.3217090  0.3565260  0.2017470  )
        10           O   tau(  10) = (  0.3565260  0.3217090  0.7017470  )
        11           O   tau(  11) = (  0.5797920  0.1085580  0.1821290  )
        12           O   tau(  12) = (  0.1085580  0.5797920  0.6821290  )
        13           O   tau(  13) = (  0.9562420  0.0437580  0.1481470  )
        14           O   tau(  14) = (  0.7864760  0.2135240  0.6778200  )
        15           O   tau(  15) = (  0.2135240  0.7864760  0.1778200  )
        16           O   tau(  16) = (  0.0437580  0.9562420  0.6481470  )
        17           O   tau(  17) = (  0.8914420  0.4202080  0.1821290  )
        18           O   tau(  18) = (  0.4202080  0.8914420  0.6821290  )
        19           O   tau(  19) = (  0.6434740  0.6782910  0.2017470  )
        20           O   tau(  20) = (  0.6782910  0.6434740  0.7017470  )

     number of k points=    10
                       cart. coord. in units 2pi/alat
        k(    1) = (   0.0000000   0.0000000   0.0000000), wk =   0.0740741
        k(    2) = (   0.0000000   0.0000000   0.4390377), wk =   0.1481481
        k(    3) = (   0.0000000   0.3419561   0.0000000), wk =   0.1481481
        k(    4) = (   0.0000000   0.3419561   0.4390377), wk =   0.2962963
        k(    5) = (   0.3333333   0.0763076   0.0000000), wk =   0.1481481
        k(    6) = (   0.3333333   0.0763076   0.4390377), wk =   0.2962963
        k(    7) = (   0.3333333   0.4182636   0.0000000), wk =   0.1481481
        k(    8) = (   0.3333333   0.4182636   0.4390377), wk =   0.2962963
        k(    9) = (   0.3333333  -0.2656485   0.0000000), wk =   0.1481481
        k(   10) = (   0.3333333  -0.2656485   0.4390377), wk =   0.2962963

                       cryst. coord.
        k(    1) = (   0.0000000   0.0000000   0.0000000), wk =   0.0740741
        k(    2) = (   0.0000000   0.0000000   0.3333333), wk =   0.1481481
        k(    3) = (   0.0000000   0.3333333   0.0000000), wk =   0.1481481
        k(    4) = (   0.0000000   0.3333333   0.3333333), wk =   0.2962963
        k(    5) = (   0.3333333   0.0000000   0.0000000), wk =   0.1481481
        k(    6) = (   0.3333333   0.0000000   0.3333333), wk =   0.2962963
        k(    7) = (   0.3333333   0.3333333   0.0000000), wk =   0.1481481
        k(    8) = (   0.3333333   0.3333333   0.3333333), wk =   0.2962963
        k(    9) = (   0.3333333  -0.3333333   0.0000000), wk =   0.1481481
        k(   10) = (   0.3333333  -0.3333333   0.3333333), wk =   0.2962963

     Check: negative core charge=   -0.000012

     Initial potential from superposition of free atoms

     starting charge     227.9728, renormalised to     228.0000
     Starting wfcs are  248 randomized atomic wfcs +    8 random wfcs
     Checking if some PAW data can be deallocated...

     Self-consistent Calculation

     iteration #  1     ecut=    30.00 Ry     beta= 0.70
     Davidson diagonalization with overlap

     ethr =  1.00E-02,  avg # of iterations =  7.0

     total energy              =   -7059.97122089 Ry
     estimated scf accuracy    <       5.18705444 Ry

[...]

     total energy              =   -7062.39886384 Ry
     estimated scf accuracy    <       0.00000903 Ry

     iteration #  9     ecut=    30.00 Ry     beta= 0.70
     Davidson diagonalization with overlap

     ethr =  3.96E-09,  avg # of iterations =  2.0

     End of self-consistent calculation

          k = 0.0000 0.0000 0.0000 (  4679 PWs)   bands (ev):

   -41.6990 -41.6891 -41.6873 -41.6798 -41.5225 -41.5097 -12.9459 -12.8710
   -12.8396 -12.7133 -12.7022 -12.6385 -12.5495 -12.5016 -12.4648 -12.4387
   -12.4358 -12.4231 -12.3823 -12.3247 -12.2180 -12.2179 -12.2095 -12.1973
    -6.0107  -5.2725  -5.0101  -4.9631  -4.8226  -4.7080  -4.6868  -4.6406
    -4.2292  -4.1961  -4.1460  -3.9520   6.5415   6.9540   7.2597   7.6055
     7.6134   7.7526   7.9284   8.1428   8.1627   8.6388   8.7171   8.7906
     8.8357   8.9221   9.0032   9.1218   9.1221   9.1339   9.1905   9.2272
     9.3100   9.4595   9.4866   9.4965   9.5150   9.5573   9.5608   9.6284
     9.7001   9.7153   9.7404   9.7476   9.7873   9.8048   9.8108   9.8508
     9.8762   9.8799   9.8876   9.8890   9.8931   9.9233   9.9233   9.9378
     9.9456   9.9551   9.9647   9.9689   9.9746   9.9987  10.0098  10.0240
    10.0377  10.0529  10.0663  10.0723  10.1188  10.1228  10.1645  10.1703
    10.2050  10.2380  10.3478  10.3682  10.4473  10.6251  10.6305  10.6367
    10.6484  10.9369  10.9376  11.0152  11.0746  11.2103  11.2665  11.3315
    11.6832  11.6865  15.7020  16.7656  16.9241  17.0954  17.7587  17.8125
    18.1430  18.2850  18.4365  18.5448  18.6935  19.0158  19.0417  19.4013
    19.5684  19.7235  20.0888  20.1564  20.2103  20.4273  20.4662  20.5989
    20.8660  21.0829  21.2823  21.3515  21.4186  21.4526  21.5789  22.2454
    22.3012  22.3545  22.5650  22.6093  22.6872  22.7186  22.8006  22.9668
    23.1734  23.3361  24.1514  24.2593  24.5566  24.7851  25.1921  25.8217
    25.8552  26.0667  26.2716  26.2924  26.6322  26.8230  27.1226  27.3833
    27.4086  27.7406  27.9080  28.1482  28.4509  28.8134  29.4290  29.6639
    29.8924  29.9907  30.1011  30.1930  30.4367  30.9966  31.4296  31.4630
    31.5029  31.8756  32.1070  32.2063  32.8496  33.1840  33.3511  33.6679
    33.8922  34.3958  34.6845  34.7017  34.7376  34.9692  35.0991  35.3145
    35.5269  35.6405  36.4506  36.6566  36.6763  36.8932  37.3686  37.4265
    37.4661  37.7906  37.9402  38.1407  38.2399  38.2636  38.4664  38.6909
    38.8485  39.1529  39.4658  39.5823  39.6025  39.8264  39.9248  39.9984
    40.3025  40.5895  41.0407  41.1336  41.3005  41.4944  41.6034  42.0912
    42.1027  42.2908  42.4857  42.6463  42.8842  42.9296  42.9808  43.0781
    43.6862  44.0889  44.2649  44.3112  44.3907  44.4645  44.5338  44.5368
    44.7534  44.7624  45.0202  45.2759  45.2964  45.9040  46.0298  46.2446

     occupation numbers
     1.0000   1.0000   1.0000   1.0000   1.0000   1.0000   1.0000   1.0000
     1.0000   1.0000   1.0000   1.0000   1.0000   1.0000   1.0000   1.0000
     1.0000   1.0000   1.0000   1.0000   1.0000   1.0000   1.0000   1.0000
     1.0000   1.0000   1.0000   1.0000   1.0000   1.0000   1.0000   1.0000
     1.0000   1.0000   1.0000   1.0000   1.0000   1.0000   1.0000   1.0000
     1.0000   1.0000   1.0000   1.0000   1.0000   1.0000   1.0000   1.0000
     1.0000   1.0000   1.0000   1.0000   1.0000   1.0000   1.0000   1.0000
     1.0000   1.0000   1.0000   1.0000   1.0000   1.0000   1.0000   1.0000
     1.0000   1.0000   1.0000   1.0000   1.0000   1.0000   1.0000   1.0000
     1.0000   1.0000   1.0000   1.0000   1.0000   1.0000   1.0000   1.0000
     1.0000   1.0000   1.0000   1.0000   1.0000   1.0000   1.0000   1.0000
     1.0000   1.0000   1.0000   1.0000   1.0000   1.0000   1.0000   1.0000
     1.0000   1.0000   1.0000   1.0000   1.0000   1.0000   1.0000   1.0000
     1.0000   1.0000   1.0000   1.0000   1.0000   1.0000   1.0000   1.0000
     1.0000   1.0000   0.0000   0.0000   0.0000   0.0000   0.0000   0.0000
     0.0000   0.0000   0.0000   0.0000   0.0000   0.0000   0.0000   0.0000
     0.0000   0.0000   0.0000   0.0000   0.0000   0.0000   0.0000   0.0000
     0.0000   0.0000   0.0000   0.0000   0.0000   0.0000   0.0000   0.0000
     0.0000   0.0000   0.0000   0.0000   0.0000   0.0000   0.0000   0.0000
     0.0000   0.0000   0.0000   0.0000   0.0000   0.0000   0.0000   0.0000
     0.0000   0.0000   0.0000   0.0000   0.0000   0.0000   0.0000   0.0000
     0.0000   0.0000   0.0000   0.0000   0.0000   0.0000   0.0000   0.0000
     0.0000   0.0000   0.0000   0.0000   0.0000   0.0000   0.0000   0.0000
     0.0000   0.0000   0.0000   0.0000   0.0000   0.0000   0.0000   0.0000
     0.0000   0.0000   0.0000   0.0000   0.0000   0.0000   0.0000   0.0000
     0.0000   0.0000   0.0000   0.0000   0.0000   0.0000   0.0000   0.0000
     0.0000   0.0000   0.0000   0.0000   0.0000   0.0000   0.0000   0.0000
     0.0000   0.0000   0.0000   0.0000   0.0000   0.0000   0.0000   0.0000
     0.0000   0.0000   0.0000   0.0000   0.0000   0.0000   0.0000   0.0000
     0.0000   0.0000   0.0000   0.0000   0.0000   0.0000   0.0000   0.0000
     0.0000   0.0000   0.0000   0.0000   0.0000   0.0000   0.0000   0.0000
     0.0000   0.0000   0.0000   0.0000   0.0000   0.0000   0.0000   0.0000

[...]

          k = 0.3333-0.2656 0.4390 (  4635 PWs)   bands (ev):

   -41.6955 -41.6904 -41.6871 -41.6818 -41.5195 -41.5130 -12.8524 -12.8296
   -12.7673 -12.7182 -12.7152 -12.6793 -12.5488 -12.5219 -12.4676 -12.4647
   -12.4159 -12.4074 -12.3903 -12.3851 -12.2591 -12.2491 -12.2395 -12.2185
    -5.5074  -5.3322  -5.0860  -5.0410  -4.8006  -4.7618  -4.7114  -4.6413
    -4.2947  -4.1989  -4.1561  -4.1298   6.9069   6.9729   7.6740   7.8671
     7.9865   8.1249   8.1822   8.2966   8.3443   8.3952   8.5900   8.6097
     8.7422   8.8896   8.9176   8.9929   8.9947   9.1511   9.1883   9.2476
     9.3434   9.3760   9.4430   9.4927   9.4955   9.5083   9.5628   9.5909
     9.5992   9.6563   9.6965   9.7376   9.7480   9.7775   9.7946   9.8170
     9.8648   9.8815   9.8856   9.8898   9.8988   9.9133   9.9194   9.9208
     9.9403   9.9472   9.9685   9.9785   9.9850  10.0059  10.0064  10.0299
    10.0310  10.0480  10.0697  10.0790  10.0915  10.0923  10.1648  10.2153
    10.2630  10.2853  10.2988  10.4119  10.4359  10.4420  10.5474  10.6176
    10.7645  10.7766  10.8421  10.9275  10.9862  11.1441  11.1772  11.2678
    11.4139  11.4912  16.6500  17.0509  17.0584  17.5164  17.5305  17.7392
    17.9121  18.4303  18.5823  18.6994  18.8989  18.9620  19.0738  19.2308
    19.3619  19.4779  19.6548  19.6574  19.8725  19.9950  20.0219  20.4389
    20.6546  20.7184  20.9114  21.4089  21.5618  21.5684  21.7441  21.8150
    22.0756  22.1519  22.2617  22.3781  22.7541  22.7691  22.8776  23.0580
    23.4789  23.8330  24.0102  24.2261  24.9679  25.0834  25.2578  25.5982
    25.9234  25.9606  26.2692  26.3241  26.4395  27.0468  27.1432  27.4366
    27.7191  28.2631  28.3580  28.9885  29.0837  29.1715  29.5584  29.8312
    29.9321  30.2435  30.4168  30.8900  31.1862  31.3925  31.4709  31.5945
    31.9624  32.2121  32.4744  33.0393  33.0624  33.3937  33.4948  33.7246
    34.1595  34.1783  34.5172  34.5710  34.9092  34.9391  35.1931  35.2566
    35.3764  35.4991  35.8237  36.3966  36.4258  36.7273  36.7828  36.8808
    37.3835  37.5253  37.7813  37.8311  37.9889  38.1774  38.3751  38.3850
    38.7942  38.9689  39.0731  39.3026  39.4856  39.7620  39.8627  40.2152
    40.4025  40.5721  40.8622  41.0479  41.4281  41.6213  41.7784  41.9690
    42.0249  42.3564  42.4255  42.6665  42.7089  42.7856  43.1761  43.3166
    43.3713  43.6280  43.8436  43.9063  44.1325  44.2662  44.3472  44.4979
    44.7328  44.8743  44.9222  45.0953  45.4002  45.4999  45.7840  45.7872

     occupation numbers
     1.0000   1.0000   1.0000   1.0000   1.0000   1.0000   1.0000   1.0000
     1.0000   1.0000   1.0000   1.0000   1.0000   1.0000   1.0000   1.0000
     1.0000   1.0000   1.0000   1.0000   1.0000   1.0000   1.0000   1.0000
     1.0000   1.0000   1.0000   1.0000   1.0000   1.0000   1.0000   1.0000
     1.0000   1.0000   1.0000   1.0000   1.0000   1.0000   1.0000   1.0000
     1.0000   1.0000   1.0000   1.0000   1.0000   1.0000   1.0000   1.0000
     1.0000   1.0000   1.0000   1.0000   1.0000   1.0000   1.0000   1.0000
     1.0000   1.0000   1.0000   1.0000   1.0000   1.0000   1.0000   1.0000
     1.0000   1.0000   1.0000   1.0000   1.0000   1.0000   1.0000   1.0000
     1.0000   1.0000   1.0000   1.0000   1.0000   1.0000   1.0000   1.0000
     1.0000   1.0000   1.0000   1.0000   1.0000   1.0000   1.0000   1.0000
     1.0000   1.0000   1.0000   1.0000   1.0000   1.0000   1.0000   1.0000
     1.0000   1.0000   1.0000   1.0000   1.0000   1.0000   1.0000   1.0000
     1.0000   1.0000   1.0000   1.0000   1.0000   1.0000   1.0000   1.0000
     1.0000   1.0000   0.0000   0.0000   0.0000   0.0000   0.0000   0.0000
     0.0000   0.0000   0.0000   0.0000   0.0000   0.0000   0.0000   0.0000
     0.0000   0.0000   0.0000   0.0000   0.0000   0.0000   0.0000   0.0000
     0.0000   0.0000   0.0000   0.0000   0.0000   0.0000   0.0000   0.0000
     0.0000   0.0000   0.0000   0.0000   0.0000   0.0000   0.0000   0.0000
     0.0000   0.0000   0.0000   0.0000   0.0000   0.0000   0.0000   0.0000
     0.0000   0.0000   0.0000   0.0000   0.0000   0.0000   0.0000   0.0000
     0.0000   0.0000   0.0000   0.0000   0.0000   0.0000   0.0000   0.0000
     0.0000   0.0000   0.0000   0.0000   0.0000   0.0000   0.0000   0.0000
     0.0000   0.0000   0.0000   0.0000   0.0000   0.0000   0.0000   0.0000
     0.0000   0.0000   0.0000   0.0000   0.0000   0.0000   0.0000   0.0000
     0.0000   0.0000   0.0000   0.0000   0.0000   0.0000   0.0000   0.0000
     0.0000   0.0000   0.0000   0.0000   0.0000   0.0000   0.0000   0.0000
     0.0000   0.0000   0.0000   0.0000   0.0000   0.0000   0.0000   0.0000
     0.0000   0.0000   0.0000   0.0000   0.0000   0.0000   0.0000   0.0000
     0.0000   0.0000   0.0000   0.0000   0.0000   0.0000   0.0000   0.0000
     0.0000   0.0000   0.0000   0.0000   0.0000   0.0000   0.0000   0.0000
     0.0000   0.0000   0.0000   0.0000   0.0000   0.0000   0.0000   0.0000

     highest occupied, lowest unoccupied level (ev):    11.7539   15.7020

!    total energy              =   -7062.39886619 Ry
     total all-electron energy =     -9260.847138 Ry
     estimated scf accuracy    <       0.00000066 Ry

     The total energy is the sum of the following terms:
     one-electron contribution =   -2681.46515191 Ry
     hartree contribution      =    1266.19547689 Ry
     xc contribution           =    -345.59032152 Ry
     ewald contribution        =   -2165.23889793 Ry
     one-center paw contrib.   =   -3136.29997172 Ry
      -> PAW hartree energy AE =    1474.78329827 Ry
      -> PAW hartree energy PS =   -1273.49388280 Ry
      -> PAW xc energy AE      =   -1798.16097988 Ry
      -> PAW xc energy PS      =     120.50469721 Ry
      -> total E_H with PAW    =    1467.48489236 Ry
      -> total E_XC with PAW   =   -2023.24660419 Ry

     convergence has been achieved in   9 iterations

     Writing all to output data dir bands_nm/myprefix.save/

     General routines

     Parallel routines

     PAW routines

   This run was terminated on:  22: 3:41  15Jul2023

   JOB DONE.