     Program PWSCF v.7.1 starts on 14Jul2023 at 18:26:39

     Reading input from espresso_20812.pwi
Warning: card &CELL ignored
Warning: card / ignored

     Current dimensions of program PWSCF are:
     Max number of different atomic species (ntypx) = 10
     Max number of k-points (npk) =  40000
     Max angular momentum in pseudopotentials (lmaxx) =  4
     file O.pbe-n-kjpaw_psl.0.1.UPF: wavefunction(s)  2P renormalized

     K-points division:     npool     =       2
     R & G space division:  proc/nbgrp/npool/nimage =       4
     Subspace diagonalization in iterative solution of the eigenvalue problem:
     a serial algorithm will be used

     Using Slab Decomposition

     bravais-lattice index     =            0
     lattice parameter (alat)  =      10.6654  a.u.
     unit-cell volume          =     791.7329 (a.u.)^3
     number of atoms/cell      =           10
     number of atomic types    =            4
     number of electrons       =       104.00
     number of Kohn-Sham states=           64
     kinetic-energy cutoff     =      30.0000  Ry
     charge density cutoff     =     240.0000  Ry
     scf convergence threshold =      1.0E-06
     mixing beta               =       0.7000
     number of iterations used =            8  plain     mixing
     Exchange-correlation= SLA  PW   PBX  PBC
                           (   1   4   3   4   0   0   0)

     celldm(1)=  10.665386  celldm(2)=   0.000000  celldm(3)=   0.000000
     celldm(4)=   0.000000  celldm(5)=   0.000000  celldm(6)=   0.000000

     crystal axes: (cart. coord. in units of alat)
               a(1) = (   1.000000   0.000000   0.000000 )
               a(2) = (  -0.551841   0.832419   0.000000 )
               a(3) = (  -1.023362  -0.537927   0.783983 )

     reciprocal axes: (cart. coord. in units 2 pi/alat)
               b(1) = (  1.000000  0.662936  1.760208 )
               b(2) = (  0.000000  1.201317  0.824279 )
               b(3) = (  0.000000  0.000000  1.275538 )

     PseudoPot. # 1 for Zn read from file:
     /lustre07/scratch/pragov/crystal_structure_design/utils/SSSP/Zn_pbe_v1.uspp.F.UPF
     MD5 check sum: df62231357ef9e81f77b2b3087fa5675
     Pseudo is Ultrasoft, Zval = 20.0
     Generated by new atomic code, or converted to UPF format
     Using radial grid of  943 points,  6 beta functions with:
                l(1) =   0
                l(2) =   0
                l(3) =   1
                l(4) =   1
                l(5) =   2
                l(6) =   2
     Q(r) pseudized with  8 coefficients,  rinner =    1.100   1.100   1.100
                                                       1.100   1.100

     PseudoPot. # 2 for Mo read from file:
     /lustre07/scratch/pragov/crystal_structure_design/utils/SSSP/Mo_ONCV_PBE-1.0.oncvpsp.upf
     MD5 check sum: 1b5d28e075c9ccadda658a603575cd1f
     Pseudo is Norm-conserving, Zval = 14.0
     Generated using ONCVPSP code by D. R. Hamann
     Using radial grid of 1526 points,  6 beta functions with:
                l(1) =   0
                l(2) =   0
                l(3) =   1
                l(4) =   1
                l(5) =   2
                l(6) =   2

     PseudoPot. # 3 for W  read from file:
     /lustre07/scratch/pragov/crystal_structure_design/utils/SSSP/W_pbe_v1.2.uspp.F.UPF
     MD5 check sum: 9c083fa34c2a2ea0f02f1f893e16e1c8
     Pseudo is Ultrasoft + core correction, Zval = 14.0
     Generated by new atomic code, or converted to UPF format
     Using radial grid of  923 points,  8 beta functions with:
                l(1) =   0
                l(2) =   0
                l(3) =   0
                l(4) =   1
                l(5) =   1
                l(6) =   2
                l(7) =   2
                l(8) =   3
     Q(r) pseudized with  6 coefficients,  rinner =    1.350   1.350   1.350
                                                       1.350   1.350   1.350
                                                       1.350

     PseudoPot. # 4 for O  read from file:
     /lustre07/scratch/pragov/crystal_structure_design/utils/SSSP/O.pbe-n-kjpaw_psl.0.1.UPF
     MD5 check sum: 0234752ac141de4415c5fc33072bef88
     Pseudo is Projector augmented-wave + core cor, Zval =  6.0
     Generated using "atomic" code by A. Dal Corso  v.5.0.99 svn rev. 10869
     Shape of augmentation charge: BESSEL
     Using radial grid of 1095 points,  4 beta functions with:
                l(1) =   0
                l(2) =   0
                l(3) =   1
                l(4) =   1
     Q(r) pseudized with 0 coefficients

     atomic species   valence    mass     pseudopotential
        Zn            20.00    65.38000     Zn( 1.00)
        Mo            14.00    95.95000     Mo( 1.00)
        W             14.00   183.84000     W ( 1.00)
        O              6.00    15.99900     O ( 1.00)

     No symmetry found

                                    s                        frac. trans.

      isym =  1     identity

 cryst.   s( 1) = (     1          0          0      )
                  (     0          1          0      )
                  (     0          0          1      )

 cart.    s( 1) = (  1.0000000  0.0000000  0.0000000 )
                  (  0.0000000  1.0000000  0.0000000 )
                  (  0.0000000  0.0000000  1.0000000 )

   Cartesian axes

     site n.     atom                  positions (alat units)
         1           Zn  tau(   1) = (   0.4267452   0.3062871   0.2102588  )
         2           Zn  tau(   2) = (  -0.1058350   0.0317853   0.6027615  )
         3           Mo  tau(   3) = (  -0.0511001   0.5490189   0.3868071  )
         4           W   tau(   4) = (  -0.5649560   0.2808904   0.7794658  )
         5           O   tau(   5) = (  -0.1630964  -0.1250538   0.2921246  )
         6           O   tau(   6) = (  -0.3595132   0.3470887   0.4855215  )
         7           O   tau(   7) = (  -0.0013795   0.3380523   0.0739978  )
         8           O   tau(   8) = (  -0.8560970   0.2910092   0.5953403  )
         9           O   tau(   9) = (   0.3165217  -0.0265796   0.1716876  )
        10           O   tau(  10) = (  -0.5109968  -0.0669585   0.7007594  )

   Crystallographic axes

     site n.     atom                  positions (cryst. coord.)
         1           Zn  tau(   1) = (  0.9998930  0.5412600  0.2681930  )
         2           Zn  tau(   2) = (  0.9762220  0.5350280  0.7688450  )
         3           Mo  tau(   3) = (  0.9937250  0.9783830  0.4933870  )
         4           W   tau(   4) = (  0.9932780  0.9799360  0.9942380  )
         5           O   tau(   5) = (  0.2682010  0.0905630  0.3726160  )
         6           O   tau(   6) = (  0.7252030  0.8171690  0.6193010  )
         7           O   tau(   7) = (  0.3529790  0.4671030  0.0943870  )
         8           O   tau(   8) = (  0.3847460  0.8403210  0.7593790  )
         9           O   tau(   9) = (  0.6011070  0.1095880  0.2189940  )
        10           O   tau(  10) = (  0.6780960  0.4971830  0.8938450  )

     number of k points=    14
                       cart. coord. in units 2pi/alat
        k(    1) = (   0.0000000   0.0000000   0.0000000), wk =   0.0740741
        k(    2) = (   0.0000000   0.0000000   0.4251792), wk =   0.1481481
        k(    3) = (   0.0000000   0.4004391   0.2747597), wk =   0.1481481
        k(    4) = (   0.0000000   0.4004391   0.6999390), wk =   0.1481481
        k(    5) = (   0.0000000   0.4004391  -0.1504195), wk =   0.1481481
        k(    6) = (   0.3333333   0.2209786   0.5867359), wk =   0.1481481
        k(    7) = (   0.3333333   0.2209786   1.0119151), wk =   0.1481481
        k(    8) = (   0.3333333   0.2209786   0.1615566), wk =   0.1481481
        k(    9) = (   0.3333333   0.6214178   0.8614956), wk =   0.1481481
        k(   10) = (   0.3333333   0.6214178   1.2866749), wk =   0.1481481
        k(   11) = (   0.3333333   0.6214178   0.4363164), wk =   0.1481481
        k(   12) = (   0.3333333  -0.1794605   0.3119761), wk =   0.1481481
        k(   13) = (   0.3333333  -0.1794605   0.7371554), wk =   0.1481481
        k(   14) = (   0.3333333  -0.1794605  -0.1132031), wk =   0.1481481

                       cryst. coord.
        k(    1) = (   0.0000000   0.0000000   0.0000000), wk =   0.0740741
        k(    2) = (   0.0000000   0.0000000   0.3333333), wk =   0.1481481
        k(    3) = (   0.0000000   0.3333333   0.0000000), wk =   0.1481481
        k(    4) = (   0.0000000   0.3333333   0.3333333), wk =   0.1481481
        k(    5) = (   0.0000000   0.3333333  -0.3333333), wk =   0.1481481
        k(    6) = (   0.3333333  -0.0000000  -0.0000000), wk =   0.1481481
        k(    7) = (   0.3333333  -0.0000000   0.3333333), wk =   0.1481481
        k(    8) = (   0.3333333  -0.0000000  -0.3333333), wk =   0.1481481
        k(    9) = (   0.3333333   0.3333333  -0.0000000), wk =   0.1481481
        k(   10) = (   0.3333333   0.3333333   0.3333333), wk =   0.1481481
        k(   11) = (   0.3333333   0.3333333  -0.3333333), wk =   0.1481481
        k(   12) = (   0.3333333  -0.3333333  -0.0000000), wk =   0.1481481
        k(   13) = (   0.3333333  -0.3333333   0.3333333), wk =   0.1481481
        k(   14) = (   0.3333333  -0.3333333  -0.3333333), wk =   0.1481481

     Check: negative core charge=   -0.000013

     Initial potential from superposition of free atoms

     starting charge     103.8984, renormalised to     104.0000

     negative rho (up, down):  6.343E-02 0.000E+00
     Starting wfcs are   73 randomized atomic wfcs
     Checking if some PAW data can be deallocated...

     Self-consistent Calculation

     iteration #  1     ecut=    30.00 Ry     beta= 0.70
     Davidson diagonalization with overlap

     ethr =  1.00E-02,  avg # of iterations =  2.1

     negative rho (up, down):  6.027E-02 0.000E+00

     total energy              =   -1467.51573657 Ry
     estimated scf accuracy    <       2.75999576 Ry

[...]

     total energy              =   -1469.09573126 Ry
     estimated scf accuracy    <       0.00001399 Ry

     iteration # 12     ecut=    30.00 Ry     beta= 0.70
     Davidson diagonalization with overlap

     ethr =  1.34E-08,  avg # of iterations =  1.0

     negative rho (up, down):  6.169E-02 0.000E+00

     End of self-consistent calculation

          k = 0.0000 0.0000 0.0000 (  2211 PWs)   bands (ev):

  -113.7581-113.7421 -67.9373 -67.9350 -67.8767 -67.8691 -67.8476 -67.8453
   -63.6678 -49.5785 -27.9495 -27.8630 -27.8492 -23.6702 -23.6481 -23.6355
    -8.2714  -7.4163  -7.3346  -6.8276  -6.7323  -6.7183   4.0976   4.3158
     4.3629   4.6633   4.7380   4.7585   4.9773   5.0166   5.0761   5.1019
     5.3106   5.3465   5.3921   5.7588   5.8698   5.9303   6.4664   6.8177
     6.9271   7.2075   7.3436   8.8585   8.9403   8.9807   8.9902   9.1377
     9.2967   9.3292  11.8326  11.8883  11.9465  12.9314  13.1185  13.2350
    13.8939  15.3741  15.5458  16.4834  18.1817  18.6961  18.7073  19.3699

     occupation numbers
     1.0000   1.0000   1.0000   1.0000   1.0000   1.0000   1.0000   1.0000
     1.0000   1.0000   1.0000   1.0000   1.0000   1.0000   1.0000   1.0000
     1.0000   1.0000   1.0000   1.0000   1.0000   1.0000   1.0000   1.0000
     1.0000   1.0000   1.0000   1.0000   1.0000   1.0000   1.0000   1.0000
     1.0000   1.0000   1.0000   1.0000   1.0000   1.0000   1.0000   1.0000
     1.0000   1.0000   1.0000   1.0000   1.0000   1.0000   1.0000   1.0000
     1.0000   1.0000   1.0000   1.0000   0.0000   0.0000   0.0000   0.0000
     0.0000   0.0000   0.0000   0.0000   0.0000   0.0000   0.0000   0.0000

[...]

          k = 0.3333-0.1795-0.1132 (  2194 PWs)   bands (ev):

  -113.7572-113.7412 -67.9336 -67.9313 -67.8747 -67.8657 -67.8448 -67.8422
   -63.6677 -49.5784 -27.9494 -27.8630 -27.8492 -23.6706 -23.6484 -23.6360
    -7.9742  -7.3134  -7.2062  -7.1618  -6.8772  -6.8674   4.4053   4.4823
     4.5111   4.6823   4.7537   4.8066   4.9419   4.9775   5.0552   5.0856
     5.2467   5.4516   5.6370   5.9241   6.1063   6.2565   6.3224   6.6983
     6.7601   7.2754   7.4990   7.8830   7.9793   8.2246   8.8788   8.9701
     9.1809   9.3174  12.2483  12.5697  12.6466  13.2028  13.4272  13.5371
    14.5818  15.4260  15.5574  16.2705  17.4315  17.9560  18.2460  18.8021

     occupation numbers
     1.0000   1.0000   1.0000   1.0000   1.0000   1.0000   1.0000   1.0000
     1.0000   1.0000   1.0000   1.0000   1.0000   1.0000   1.0000   1.0000
     1.0000   1.0000   1.0000   1.0000   1.0000   1.0000   1.0000   1.0000
     1.0000   1.0000   1.0000   1.0000   1.0000   1.0000   1.0000   1.0000
     1.0000   1.0000   1.0000   1.0000   1.0000   1.0000   1.0000   1.0000
     1.0000   1.0000   1.0000   1.0000   1.0000   1.0000   1.0000   1.0000
     1.0000   1.0000   1.0000   1.0000   0.0000   0.0000   0.0000   0.0000
     0.0000   0.0000   0.0000   0.0000   0.0000   0.0000   0.0000   0.0000

     highest occupied, lowest unoccupied level (ev):    12.5697   11.9465

!    total energy              =   -1469.09573201 Ry
     estimated scf accuracy    <       0.00000011 Ry

     The total energy is the sum of the following terms:
     one-electron contribution =    -931.94299976 Ry
     hartree contribution      =     516.17242516 Ry
     xc contribution           =    -185.51594437 Ry
     ewald contribution        =    -810.67094449 Ry
     one-center paw contrib.   =     -57.13826855 Ry
      -> PAW hartree energy AE =       0.00000000 Ry
      -> PAW hartree energy PS =       0.00000000 Ry
      -> PAW xc energy AE      =       0.00000000 Ry
      -> PAW xc energy PS      =       0.00000000 Ry
      -> total E_H with PAW    =     516.17242516 Ry
      -> total E_XC with PAW   =    -185.51594437 Ry

     convergence has been achieved in  12 iterations

     Writing all to output data dir bands_nm/myprefix.save/

     General routines

     Parallel routines

     PAW routines

   This run was terminated on:  18:26:53  14Jul2023

   JOB DONE.