     Program PWSCF v.7.0 starts on  5Jun2023 at 21:53:27

     K-points division:     npool     =       2
     R & G space division:  proc/nbgrp/npool/nimage =       4

     Reading input from espresso_12040.pwi
Warning: card &CELL ignored
Warning: card / ignored

     Current dimensions of program PWSCF are:
     Max number of different atomic species (ntypx) = 10
     Max number of k-points (npk) =  40000
     Max angular momentum in pseudopotentials (lmaxx) =  4
     Message from routine setup:
     using ibrav=0 with symmetry is DISCOURAGED, use correct ibrav instead

     Using Slab Decomposition

     bravais-lattice index     =            0
     lattice parameter (alat)  =       7.8937  a.u.
     unit-cell volume          =    2771.3565 (a.u.)^3
     number of atoms/cell      =           12
     number of atomic types    =            4
     number of electrons       =       112.00
     number of Kohn-Sham states=           64
     kinetic-energy cutoff     =      30.0000  Ry
     charge density cutoff     =     240.0000  Ry
     scf convergence threshold =      1.0E-06
     mixing beta               =       0.7000
     number of iterations used =            8  plain     mixing
     Exchange-correlation= SLA  PW   PBX  PBC
                           (   1   4   3   4   0   0   0)

     celldm(1)=   7.893711  celldm(2)=   0.000000  celldm(3)=   0.000000
     celldm(4)=   0.000000  celldm(5)=   0.000000  celldm(6)=   0.000000

     crystal axes: (cart. coord. in units of alat)
               a(1) = (   1.000000   0.000000   0.000000 )
               a(2) = (   0.000000   2.182869   0.000000 )
               a(3) = (   0.000000   0.003941   2.581196 )

     reciprocal axes: (cart. coord. in units 2 pi/alat)
               b(1) = (  1.000000  0.000000  0.000000 )
               b(2) = (  0.000000  0.458113 -0.000699 )
               b(3) = (  0.000000  0.000000  0.387417 )

     PseudoPot. # 1 for Sb read from file:
     /home/pragov/projects/rrg-bengioy-ad/pragov/crystal_structure_design/SSSP/sb_pbe_v1.4.uspp.F.UPF
     MD5 check sum: 9bc50dfb53373b713f5709b9110fe27f
     Pseudo is Ultrasoft + core correction, Zval = 15.0
     Generated by new atomic code, or converted to UPF format
     Using radial grid of  891 points,  6 beta functions with:
                l(1) =   0
                l(2) =   0
                l(3) =   1
                l(4) =   1
                l(5) =   2
                l(6) =   2
     Q(r) pseudized with  8 coefficients,  rinner =    1.350   1.350   1.350
                                                       1.350   1.350

     PseudoPot. # 2 for Se read from file:
     /home/pragov/projects/rrg-bengioy-ad/pragov/crystal_structure_design/SSSP/Se_pbe_v1.uspp.F.UPF
     MD5 check sum: 1b3568f3a8ae88f9a2a0ad0698632c85
     Pseudo is Ultrasoft + core correction, Zval =  6.0
     Generated by new atomic code, or converted to UPF format
     Using radial grid of  877 points,  6 beta functions with:
                l(1) =   0
                l(2) =   0
                l(3) =   1
                l(4) =   1
                l(5) =   2
                l(6) =   2
     Q(r) pseudized with  8 coefficients,  rinner =    1.300   1.300   1.300
                                                       1.300   1.300

     PseudoPot. # 3 for S  read from file:
     /home/pragov/projects/rrg-bengioy-ad/pragov/crystal_structure_design/SSSP/s_pbe_v1.4.uspp.F.UPF
     MD5 check sum: 88d86576ff6df21479756cfb9bdac1df
     Pseudo is Ultrasoft + core correction, Zval =  6.0
     Generated by new atomic code, or converted to UPF format
     Using radial grid of  907 points,  6 beta functions with:
                l(1) =   0
                l(2) =   0
                l(3) =   1
                l(4) =   1
                l(5) =   2
                l(6) =   2
     Q(r) pseudized with  8 coefficients,  rinner =    1.300   1.300   1.300
                                                       1.300   1.300

     PseudoPot. # 4 for I  read from file:
     /home/pragov/projects/rrg-bengioy-ad/pragov/crystal_structure_design/SSSP/I.pbe-n-kjpaw_psl.0.2.UPF
     MD5 check sum: d4ef18d9c8f18dc85e5843bca1e50dc0
     Pseudo is Projector augmented-wave + core cor, Zval =  7.0
     Generated using "atomic" code by A. Dal Corso  v.5.0.99 svn rev. 10869
     Shape of augmentation charge: PSQ
     Using radial grid of 1247 points,  4 beta functions with:
                l(1) =   0
                l(2) =   0
                l(3) =   1
                l(4) =   1
     Q(r) pseudized with 0 coefficients

     atomic species   valence    mass     pseudopotential
        Sb            15.00   121.76000     Sb( 1.00)
        Se             6.00    78.97100     Se( 1.00)
        S              6.00    32.06000     S ( 1.00)
        I              7.00   126.90447     I ( 1.00)

      2 Sym. Ops. (no inversion) found

                                    s                        frac. trans.

      isym =  1     identity

 cryst.   s( 1) = (     1          0          0      )
                  (     0          1          0      )
                  (     0          0          1      )

 cart.    s( 1) = (  1.0000000  0.0000000  0.0000000 )
                  (  0.0000000  1.0000000 -0.0000000 )
                  (  0.0000000  0.0000000  1.0000000 )

      isym =  2     inv. 180 deg rotation - cart. axis [1,0,0]

 cryst.   s( 2) = (    -1          0          0      )
                  (     0          1          0      )
                  (     0          0          1      )

 cart.    s( 2) = ( -1.0000000  0.0000000  0.0000000 )
                  (  0.0000000  1.0000000 -0.0000000 )
                  (  0.0000000  0.0000000  1.0000000 )

   Cartesian axes

     site n.     atom                  positions (alat units)
         1           Sb  tau(   1) = (   0.5000000   0.8639895   0.9657080  )
         2           Sb  tau(   2) = (   0.5000000   1.9439905   0.3338699  )
         3           Sb  tau(   3) = (   0.0000000   1.3338917   1.6063014  )
         4           Sb  tau(   4) = (   0.0000000   0.2405130   2.2502530  )
         5           Se  tau(   5) = (   0.5000000   0.3538121   0.1126563  )
         6           Se  tau(   6) = (   0.0000000   0.7362986   1.4048210  )
         7           Se  tau(   7) = (   0.0000000   1.8335617   2.4700108  )
         8           S   tau(   8) = (   0.5000000   1.4171002   1.1929719  )
         9           I   tau(   9) = (   0.5000000   2.1528608   1.7508561  )
        10           I   tau(  10) = (   0.5000000   1.0808463   2.1034320  )
        11           I   tau(  11) = (   0.0000000   0.0275647   0.8302675  )
        12           I   tau(  12) = (   0.0000000   1.1364323   0.4660297  )

   Crystallographic axes

     site n.     atom                  positions (cryst. coord.)
         1           Sb  tau(   1) = (  0.5000000  0.3951290  0.3741320  )
         2           Sb  tau(   2) = (  0.5000000  0.8903330  0.1293470  )
         3           Sb  tau(   3) = (  0.0000000  0.6099490  0.6223090  )
         4           Sb  tau(   4) = (  0.0000000  0.1086080  0.8717870  )
         5           Se  tau(   5) = (  0.5000000  0.1620070  0.0436450  )
         6           Se  tau(   6) = (  0.0000000  0.3363250  0.5442520  )
         7           Se  tau(   7) = (  0.0000000  0.8382500  0.9569250  )
         8           S   tau(   8) = (  0.5000000  0.6483570  0.4621780  )
         9           I   tau(   9) = (  0.5000000  0.9850280  0.6783120  )
        10           I   tau(  10) = (  0.5000000  0.4936780  0.8149060  )
        11           I   tau(  11) = (  0.0000000  0.0120470  0.3216600  )
        12           I   tau(  12) = (  0.0000000  0.5202880  0.1805480  )

     number of k points=    10
                       cart. coord. in units 2pi/alat
        k(    1) = (   0.0000000   0.0000000   0.0000000), wk =   0.0740741
        k(    2) = (   0.0000000   0.0000000   0.1291391), wk =   0.1481481
        k(    3) = (   0.0000000   0.1527042  -0.0002332), wk =   0.1481481
        k(    4) = (   0.0000000   0.1527042   0.1289059), wk =   0.1481481
        k(    5) = (   0.0000000   0.1527042  -0.1293723), wk =   0.1481481
        k(    6) = (   0.3333333   0.0000000   0.0000000), wk =   0.1481481
        k(    7) = (   0.3333333   0.0000000   0.1291391), wk =   0.2962963
        k(    8) = (   0.3333333   0.1527042  -0.0002332), wk =   0.2962963
        k(    9) = (   0.3333333   0.1527042   0.1289059), wk =   0.2962963
        k(   10) = (   0.3333333   0.1527042  -0.1293723), wk =   0.2962963

                       cryst. coord.
        k(    1) = (   0.0000000   0.0000000   0.0000000), wk =   0.0740741
        k(    2) = (   0.0000000   0.0000000   0.3333333), wk =   0.1481481
        k(    3) = (   0.0000000   0.3333333   0.0000000), wk =   0.1481481
        k(    4) = (   0.0000000   0.3333333   0.3333333), wk =   0.1481481
        k(    5) = (   0.0000000   0.3333333  -0.3333333), wk =   0.1481481
        k(    6) = (   0.3333333   0.0000000   0.0000000), wk =   0.1481481
        k(    7) = (   0.3333333   0.0000000   0.3333333), wk =   0.2962963
        k(    8) = (   0.3333333   0.3333333   0.0000000), wk =   0.2962963
        k(    9) = (   0.3333333   0.3333333   0.3333333), wk =   0.2962963
        k(   10) = (   0.3333333   0.3333333  -0.3333333), wk =   0.2962963

     Check: negative core charge=   -0.000002

     Initial potential from superposition of free atoms

     starting charge     107.9994, renormalised to     112.0000
     Starting wfcs are   68 randomized atomic wfcs
     Checking if some PAW data can be deallocated...

     Self-consistent Calculation

     iteration #  1     ecut=    30.00 Ry     beta= 0.70
     Davidson diagonalization with overlap

     ethr =  1.00E-02,  avg # of iterations =  2.0

     total energy              =   -2409.70876731 Ry
     estimated scf accuracy    <       1.85134396 Ry

[...]

     total energy              =   -2410.51491381 Ry
     estimated scf accuracy    <       0.00001569 Ry

     iteration # 10     ecut=    30.00 Ry     beta= 0.70
     Davidson diagonalization with overlap

     ethr =  1.40E-08,  avg # of iterations =  2.0

     End of self-consistent calculation

          k = 0.0000 0.0000 0.0000 (  7645 PWs)   bands (ev):

   -24.4231 -24.4163 -24.3711 -24.3599 -24.3540 -24.3432 -24.3373 -24.3028
   -24.2899 -24.2897 -24.2814 -24.2790 -24.2748 -24.2727 -24.2413 -24.2364
   -24.2363 -24.2247 -24.2216 -24.2201  -8.8389  -8.6684  -7.3190  -7.2864
    -7.1395  -7.0067  -6.9416  -6.8729  -4.0003  -3.7725  -2.6250  -2.3530
     0.7926   0.9311   1.4652   1.8671   1.8801   1.9454   2.1075   2.3244
     3.1272   3.1509   3.2746   3.3288   3.4370   3.5355   3.6317   3.6606
     3.7387   3.8058   3.8901   3.9528   4.1351   4.1612   4.4042   4.5232
     6.3532   6.4539   6.8994   7.0457   7.1839   7.2465   7.2637   7.3809

     occupation numbers
     1.0000   1.0000   1.0000   1.0000   1.0000   1.0000   1.0000   1.0000
     1.0000   1.0000   1.0000   1.0000   1.0000   1.0000   1.0000   1.0000
     1.0000   1.0000   1.0000   1.0000   1.0000   1.0000   1.0000   1.0000
     1.0000   1.0000   1.0000   1.0000   1.0000   1.0000   1.0000   1.0000
     1.0000   1.0000   1.0000   1.0000   1.0000   1.0000   1.0000   1.0000
     1.0000   1.0000   1.0000   1.0000   1.0000   1.0000   1.0000   1.0000
     1.0000   1.0000   1.0000   1.0000   1.0000   1.0000   1.0000   1.0000
     0.0000   0.0000   0.0000   0.0000   0.0000   0.0000   0.0000   0.0000

[...]

          k = 0.3333 0.1527-0.1294 (  7711 PWs)   bands (ev):

   -24.4237 -24.4206 -24.3739 -24.3610 -24.3552 -24.3438 -24.3404 -24.3066
   -24.2923 -24.2897 -24.2821 -24.2803 -24.2781 -24.2765 -24.2435 -24.2412
   -24.2342 -24.2298 -24.2227 -24.2207  -8.2307  -8.1313  -7.3393  -7.3236
    -6.8742  -6.7876  -6.7059  -6.6694  -4.1271  -4.0240  -3.1883  -3.1579
     0.3559   0.5318   0.7931   0.8937   1.3112   1.4461   1.8264   2.0052
     2.0790   2.2316   2.6426   2.7127   3.0685   3.2614   3.3163   3.5039
     3.6417   3.6876   3.8091   3.8373   4.0273   4.2345   4.2774   4.4037
     6.7942   6.8846   7.4214   7.5396   7.6830   7.8012   7.9455   8.0178

     occupation numbers
     1.0000   1.0000   1.0000   1.0000   1.0000   1.0000   1.0000   1.0000
     1.0000   1.0000   1.0000   1.0000   1.0000   1.0000   1.0000   1.0000
     1.0000   1.0000   1.0000   1.0000   1.0000   1.0000   1.0000   1.0000
     1.0000   1.0000   1.0000   1.0000   1.0000   1.0000   1.0000   1.0000
     1.0000   1.0000   1.0000   1.0000   1.0000   1.0000   1.0000   1.0000
     1.0000   1.0000   1.0000   1.0000   1.0000   1.0000   1.0000   1.0000
     1.0000   1.0000   1.0000   1.0000   1.0000   1.0000   1.0000   1.0000
     0.0000   0.0000   0.0000   0.0000   0.0000   0.0000   0.0000   0.0000

     highest occupied, lowest unoccupied level (ev):     4.6989    6.1189

!    total energy              =   -2410.51491591 Ry
     estimated scf accuracy    <       0.00000052 Ry

     The total energy is the sum of the following terms:
     one-electron contribution =    -511.69696124 Ry
     hartree contribution      =     305.48551907 Ry
     xc contribution           =    -440.22689340 Ry
     ewald contribution        =    -481.97766771 Ry
     one-center paw contrib.   =   -1282.09891264 Ry
      -> PAW hartree energy AE =       0.00000000 Ry
      -> PAW hartree energy PS =       0.00000000 Ry
      -> PAW xc energy AE      =       0.00000000 Ry
      -> PAW xc energy PS      =       0.00000000 Ry
      -> total E_H with PAW    =     305.48551907 Ry
      -> total E_XC with PAW   =    -440.22689340 Ry

     convergence has been achieved in  10 iterations

     Writing all to output data dir calculations_bands/myprefix.save/

     General routines

     Parallel routines

     PAW routines

   This run was terminated on:  21:53:51   5Jun2023

   JOB DONE.