     Program PWSCF v.7.0 starts on 23Jun2023 at 13:58:40

     K-points division:     npool     =       2
     R & G space division:  proc/nbgrp/npool/nimage =       4

     Reading input from espresso_9693.pwi
Warning: card &CELL ignored
Warning: card / ignored

     Current dimensions of program PWSCF are:
     Max number of different atomic species (ntypx) = 10
     Max number of k-points (npk) =  40000
     Max angular momentum in pseudopotentials (lmaxx) =  4
     Message from routine setup:
     using ibrav=0 with symmetry is DISCOURAGED, use correct ibrav instead

     Using Slab Decomposition

     bravais-lattice index     =            0
     lattice parameter (alat)  =      16.4601  a.u.
     unit-cell volume          =    2110.5178 (a.u.)^3
     number of atoms/cell      =           12
     number of atomic types    =            3
     number of electrons       =       156.00
     number of Kohn-Sham states=           90
     kinetic-energy cutoff     =      30.0000  Ry
     charge density cutoff     =     240.0000  Ry
     scf convergence threshold =      1.0E-06
     mixing beta               =       0.7000
     number of iterations used =            8  plain     mixing
     Exchange-correlation= SLA  PW   PBE  PBE
                           (   1   4   3   4   0   0   0)

     celldm(1)=  16.460135  celldm(2)=   0.000000  celldm(3)=   0.000000
     celldm(4)=   0.000000  celldm(5)=   0.000000  celldm(6)=   0.000000

     crystal axes: (cart. coord. in units of alat)
               a(1) = (   1.000000   0.000000   0.000000 )
               a(2) = (   0.868927   0.494940   0.000000 )
               a(3) = (   0.408328   0.108136   0.956173 )

     reciprocal axes: (cart. coord. in units 2 pi/alat)
               b(1) = (  1.000000 -1.755623 -0.228497 )
               b(2) = (  0.000000  2.020449 -0.228497 )
               b(3) = (  0.000000  0.000000  1.045835 )

     PseudoPot. # 1 for Rb read from file:
     /home/pragov/projects/rrg-bengioy-ad/pragov/crystal_structure_design/SSSP/Rb_ONCV_PBE-1.0.oncvpsp.upf
     MD5 check sum: 55a5172d6bfbce6759a58e35d43f6aa9
     Pseudo is Norm-conserving, Zval =  9.0
     Generated using ONCVPSP code by D. R. Hamann
     Using radial grid of 2308 points,  6 beta functions with:
                l(1) =   0
                l(2) =   0
                l(3) =   1
                l(4) =   1
                l(5) =   2
                l(6) =   2

     PseudoPot. # 2 for Ag read from file:
     /home/pragov/projects/rrg-bengioy-ad/pragov/crystal_structure_design/SSSP/Ag_ONCV_PBE-1.0.oncvpsp.upf
     MD5 check sum: 94f47bd0669c641108e45594df92fabc
     Pseudo is Norm-conserving, Zval = 19.0
     Generated using ONCVPSP code by D. R. Hamann
     Using radial grid of 1398 points,  6 beta functions with:
                l(1) =   0
                l(2) =   0
                l(3) =   1
                l(4) =   1
                l(5) =   2
                l(6) =   2

     PseudoPot. # 3 for Se read from file:
     /home/pragov/projects/rrg-bengioy-ad/pragov/crystal_structure_design/SSSP/Se_pbe_v1.uspp.F.UPF
     MD5 check sum: 1b3568f3a8ae88f9a2a0ad0698632c85
     Pseudo is Ultrasoft + core correction, Zval =  6.0
     Generated by new atomic code, or converted to UPF format
     Using radial grid of  877 points,  6 beta functions with:
                l(1) =   0
                l(2) =   0
                l(3) =   1
                l(4) =   1
                l(5) =   2
                l(6) =   2
     Q(r) pseudized with  8 coefficients,  rinner =    1.300   1.300   1.300
                                                       1.300   1.300

     atomic species   valence    mass     pseudopotential
        Rb             9.00    85.46780     Rb( 1.00)
        Ag            19.00   107.86820     Ag( 1.00)
        Se             6.00    78.97100     Se( 1.00)

      2 Sym. Ops., with inversion, found

                                    s                        frac. trans.

      isym =  1     identity

 cryst.   s( 1) = (     1          0          0      )
                  (     0          1          0      )
                  (     0          0          1      )

 cart.    s( 1) = (  1.0000000  0.0000000  0.0000000 )
                  (  0.0000000  1.0000000  0.0000000 )
                  (  0.0000000  0.0000000  1.0000000 )

      isym =  2     inversion

 cryst.   s( 2) = (    -1          0          0      )
                  (     0         -1          0      )
                  (     0          0         -1      )

 cart.    s( 2) = ( -1.0000000 -0.0000000 -0.0000000 )
                  (  0.0000000 -1.0000000 -0.0000000 )
                  (  0.0000000  0.0000000 -1.0000000 )

   Cartesian axes

     site n.     atom                  positions (alat units)
         1           Rb  tau(   1) = (   1.6345983   0.4328832   0.0469653  )
         2           Rb  tau(   2) = (   0.6426568   0.1701919   0.9092081  )
         3           Ag  tau(   3) = (   0.7611688   0.2015769   0.4162720  )
         4           Ag  tau(   4) = (   1.9256810   0.5099693   0.3847537  )
         5           Ag  tau(   5) = (   1.5160863   0.4014982   0.5399014  )
         6           Ag  tau(   6) = (   1.0258090   0.2716603   0.6145203  )
         7           Ag  tau(   7) = (   1.2514461   0.3314148   0.3416532  )
         8           Ag  tau(   8) = (   0.3515741   0.0931058   0.5714198  )
         9           Se  tau(   9) = (   0.9888314   0.2618677   0.2090549  )
        10           Se  tau(  10) = (   0.4940432   0.1308352   0.2908747  )
        11           Se  tau(  11) = (   1.7832119   0.4722399   0.6652988  )
        12           Se  tau(  12) = (   1.2884237   0.3412074   0.7471186  )

   Crystallographic axes

     site n.     atom                  positions (cryst. coord.)
         1           Rb  tau(   1) = (  0.8638870  0.8638870  0.0491180  )
         2           Rb  tau(   2) = (  0.1361130  0.1361130  0.9508820  )
         3           Ag  tau(   3) = (  0.3121590  0.3121590  0.4353520  )
         4           Ag  tau(   4) = (  0.9424520  0.9424520  0.4023890  )
         5           Ag  tau(   5) = (  0.6878410  0.6878410  0.5646480  )
         6           Ag  tau(   6) = (  0.4084600  0.4084600  0.6426870  )
         7           Ag  tau(   7) = (  0.5915400  0.5915400  0.3573130  )
         8           Ag  tau(   8) = (  0.0575480  0.0575480  0.5976110  )
         9           Se  tau(   9) = (  0.4813220  0.4813220  0.2186370  )
        10           Se  tau(  10) = (  0.1978820  0.1978820  0.3042070  )
        11           Se  tau(  11) = (  0.8021180  0.8021180  0.6957930  )
        12           Se  tau(  12) = (  0.5186780  0.5186780  0.7813630  )

     number of k points=    14
                       cart. coord. in units 2pi/alat
        k(    1) = (   0.0000000   0.0000000   0.0000000), wk =   0.0740741
        k(    2) = (   0.0000000   0.0000000   0.3486118), wk =   0.1481481
        k(    3) = (   0.0000000   0.6734830  -0.0761655), wk =   0.1481481
        k(    4) = (   0.0000000   0.6734830   0.2724463), wk =   0.1481481
        k(    5) = (   0.0000000   0.6734830  -0.4247773), wk =   0.1481481
        k(    6) = (   0.3333333  -0.5852078  -0.0761655), wk =   0.1481481
        k(    7) = (   0.3333333  -0.5852078   0.2724463), wk =   0.1481481
        k(    8) = (   0.3333333  -0.5852078  -0.4247773), wk =   0.1481481
        k(    9) = (   0.3333333   0.0882751  -0.1523310), wk =   0.1481481
        k(   10) = (   0.3333333   0.0882751   0.1962807), wk =   0.1481481
        k(   11) = (   0.3333333   0.0882751  -0.5009428), wk =   0.1481481
        k(   12) = (   0.3333333  -1.2586908   0.0000000), wk =   0.1481481
        k(   13) = (   0.3333333  -1.2586908   0.3486118), wk =   0.1481481
        k(   14) = (   0.3333333  -1.2586908  -0.3486118), wk =   0.1481481

                       cryst. coord.
        k(    1) = (   0.0000000   0.0000000   0.0000000), wk =   0.0740741
        k(    2) = (   0.0000000   0.0000000   0.3333333), wk =   0.1481481
        k(    3) = (   0.0000000   0.3333333   0.0000000), wk =   0.1481481
        k(    4) = (   0.0000000   0.3333333   0.3333333), wk =   0.1481481
        k(    5) = (   0.0000000   0.3333333  -0.3333333), wk =   0.1481481
        k(    6) = (   0.3333333  -0.0000000  -0.0000000), wk =   0.1481481
        k(    7) = (   0.3333333  -0.0000000   0.3333333), wk =   0.1481481
        k(    8) = (   0.3333333  -0.0000000  -0.3333333), wk =   0.1481481
        k(    9) = (   0.3333333   0.3333333  -0.0000000), wk =   0.1481481
        k(   10) = (   0.3333333   0.3333333   0.3333333), wk =   0.1481481
        k(   11) = (   0.3333333   0.3333333  -0.3333333), wk =   0.1481481
        k(   12) = (   0.3333333  -0.3333333  -0.0000000), wk =   0.1481481
        k(   13) = (   0.3333333  -0.3333333   0.3333333), wk =   0.1481481
        k(   14) = (   0.3333333  -0.3333333  -0.3333333), wk =   0.1481481

     Initial potential from superposition of free atoms

     starting charge     155.9484, renormalised to     156.0000
     Starting wfcs are   86 randomized atomic wfcs +    4 random wfcs

     Self-consistent Calculation

     iteration #  1     ecut=    30.00 Ry     beta= 0.70
     Davidson diagonalization with overlap

     ethr =  1.00E-02,  avg # of iterations =  5.0

     Threshold (ethr) on eigenvalues was too large:
     Diagonalizing with lowered threshold

     Davidson diagonalization with overlap

[...]

     total energy              =   -1995.04619377 Ry
     estimated scf accuracy    <       0.39157503 Ry

[...]

     total energy              =   -1995.15062488 Ry
     estimated scf accuracy    <       0.00000103 Ry

     iteration # 10     ecut=    30.00 Ry     beta= 0.70
     Davidson diagonalization with overlap

     ethr =  6.63E-10,  avg # of iterations =  3.3

     End of self-consistent calculation

          k = 0.0000 0.0000 0.0000 (  5863 PWs)   bands (ev):

   -84.0998 -84.0962 -84.0929 -84.0919 -84.0651 -84.0644 -47.1891 -47.1789
   -47.1512 -47.1453 -47.1415 -47.1394 -47.1335 -47.1248 -47.1241 -47.1221
   -47.1193 -47.1071 -47.1042 -47.1038 -47.1027 -47.0881 -47.0749 -47.0725
   -18.4935 -18.4849  -4.2015  -4.0492  -4.0079  -3.9075  -2.6386  -2.5475
    -2.5406  -2.5357  -2.5255  -2.4514   3.2331   3.2333   3.3918   3.5238
     3.6030   3.7419   3.7574   3.7769   3.7986   3.9165   3.9500   3.9582
     4.1197   4.4090   4.4513   4.5524   4.6012   4.6091   4.6905   4.7186
     4.7811   4.9539   4.9604   4.9797   5.1335   5.1755   5.1959   5.2361
     5.2539   5.2559   5.3029   5.5469   5.6597   6.6182   7.2010   7.2613
     7.3849   7.6715   7.9548   8.1795   8.3131   8.4226   8.4817   9.9653
    10.3276  10.8666  11.7288  12.1427  12.4772  12.7595  13.0453  13.3748
    13.4609  13.8071

     occupation numbers
     1.0000   1.0000   1.0000   1.0000   1.0000   1.0000   1.0000   1.0000
     1.0000   1.0000   1.0000   1.0000   1.0000   1.0000   1.0000   1.0000
     1.0000   1.0000   1.0000   1.0000   1.0000   1.0000   1.0000   1.0000
     1.0000   1.0000   1.0000   1.0000   1.0000   1.0000   1.0000   1.0000
     1.0000   1.0000   1.0000   1.0000   1.0000   1.0000   1.0000   1.0000
     1.0000   1.0000   1.0000   1.0000   1.0000   1.0000   1.0000   1.0000
     1.0000   1.0000   1.0000   1.0000   1.0000   1.0000   1.0000   1.0000
     1.0000   1.0000   1.0000   1.0000   1.0000   1.0000   1.0000   1.0000
     1.0000   1.0000   1.0000   1.0000   1.0000   1.0000   1.0000   1.0000
     1.0000   1.0000   1.0000   1.0000   1.0000   1.0000   0.0000   0.0000
     0.0000   0.0000   0.0000   0.0000   0.0000   0.0000   0.0000   0.0000
     0.0000   0.0000

[...]

          k = 0.3333-1.2587-0.3486 (  5840 PWs)   bands (ev):

   -84.0987 -84.0969 -84.0929 -84.0921 -84.0651 -84.0644 -47.1889 -47.1824
   -47.1541 -47.1428 -47.1389 -47.1331 -47.1328 -47.1314 -47.1287 -47.1229
   -47.1164 -47.1091 -47.1031 -47.1001 -47.0994 -47.0877 -47.0737 -47.0724
   -18.4857 -18.4814  -4.0534  -3.9466  -3.9342  -3.8389  -2.6507  -2.6384
    -2.5834  -2.5719  -2.5418  -2.5393   3.2177   3.3112   3.4136   3.6474
     3.7488   3.7864   3.9174   3.9645   3.9749   4.0417   4.0832   4.2316
     4.2478   4.2924   4.3948   4.4145   4.5155   4.6371   4.7671   4.7864
     4.8112   4.8156   4.9495   4.9844   5.0201   5.1148   5.1295   5.2097
     5.2376   5.2893   5.3220   5.5575   5.7005   5.9206   6.5334   6.8190
     6.9106   7.0965   7.1592   7.2001   7.5748   7.6640  10.1884  10.3321
    10.9114  11.1895  12.0929  12.3866  12.4331  12.6376  13.0150  13.2766
    13.9125  13.9193

     occupation numbers
     1.0000   1.0000   1.0000   1.0000   1.0000   1.0000   1.0000   1.0000
     1.0000   1.0000   1.0000   1.0000   1.0000   1.0000   1.0000   1.0000
     1.0000   1.0000   1.0000   1.0000   1.0000   1.0000   1.0000   1.0000
     1.0000   1.0000   1.0000   1.0000   1.0000   1.0000   1.0000   1.0000
     1.0000   1.0000   1.0000   1.0000   1.0000   1.0000   1.0000   1.0000
     1.0000   1.0000   1.0000   1.0000   1.0000   1.0000   1.0000   1.0000
     1.0000   1.0000   1.0000   1.0000   1.0000   1.0000   1.0000   1.0000
     1.0000   1.0000   1.0000   1.0000   1.0000   1.0000   1.0000   1.0000
     1.0000   1.0000   1.0000   1.0000   1.0000   1.0000   1.0000   1.0000
     1.0000   1.0000   1.0000   1.0000   1.0000   1.0000   0.0000   0.0000
     0.0000   0.0000   0.0000   0.0000   0.0000   0.0000   0.0000   0.0000
     0.0000   0.0000

     highest occupied, lowest unoccupied level (ev):     8.4521    8.4817

!    total energy              =   -1995.15062512 Ry
     estimated scf accuracy    <       0.00000006 Ry

     The total energy is the sum of the following terms:
     one-electron contribution =   -1710.04301372 Ry
     hartree contribution      =     894.36748114 Ry
     xc contribution           =    -296.13017651 Ry
     ewald contribution        =    -883.34491604 Ry

     convergence has been achieved in  10 iterations

     Writing all to output data dir calculations_bands/myprefix.save/

     General routines

     Parallel routines

   This run was terminated on:  13:59:11  23Jun2023

   JOB DONE.