     Program PWSCF v.7.0 starts on 23Jun2023 at 12:12: 8

     K-points division:     npool     =       2
     R & G space division:  proc/nbgrp/npool/nimage =       4

     Reading input from espresso_770.pwi
Warning: card &CELL ignored
Warning: card / ignored

     Current dimensions of program PWSCF are:
     Max number of different atomic species (ntypx) = 10
     Max number of k-points (npk) =  40000
     Max angular momentum in pseudopotentials (lmaxx) =  4
     file O.pbe-n-kjpaw_psl.0.1.UPF: wavefunction(s)  2P renormalized

     Using Slab Decomposition

     bravais-lattice index     =            0
     lattice parameter (alat)  =      11.3162  a.u.
     unit-cell volume          =    1024.6871 (a.u.)^3
     number of atoms/cell      =           14
     number of atomic types    =            3
     number of electrons       =       138.00
     number of Kohn-Sham states=           90
     kinetic-energy cutoff     =      30.0000  Ry
     charge density cutoff     =     240.0000  Ry
     scf convergence threshold =      1.0E-06
     mixing beta               =       0.7000
     number of iterations used =            8  plain     mixing
     Exchange-correlation= SLA  PW   PBX  PBC
                           (   1   4   3   4   0   0   0)

     celldm(1)=  11.316239  celldm(2)=   0.000000  celldm(3)=   0.000000
     celldm(4)=   0.000000  celldm(5)=   0.000000  celldm(6)=   0.000000

     crystal axes: (cart. coord. in units of alat)
               a(1) = (   1.000000   0.000000   0.000000 )
               a(2) = (   0.500001   0.866026   0.000000 )
               a(3) = (  -0.499999   0.288676   0.816496 )

     reciprocal axes: (cart. coord. in units 2 pi/alat)
               b(1) = (  1.000000 -0.577351  0.816497 )
               b(2) = (  0.000000  1.154700 -0.408249 )
               b(3) = (  0.000000  0.000000  1.224746 )

     PseudoPot. # 1 for Cr read from file:
     /home/pragov/projects/rrg-bengioy-ad/pragov/crystal_structure_design/SSSP/cr_pbe_v1.5.uspp.F.UPF
     MD5 check sum: 0d52af634a40206e4dee301ad30da4bf
     Pseudo is Ultrasoft + core correction, Zval = 14.0
     Generated by new atomic code, or converted to UPF format
     Using radial grid of  857 points,  6 beta functions with:
                l(1) =   0
                l(2) =   0
                l(3) =   1
                l(4) =   1
                l(5) =   2
                l(6) =   2
     Q(r) pseudized with  8 coefficients,  rinner =    0.950   0.950   0.950
                                                       0.950   0.950

     PseudoPot. # 2 for Co read from file:
     /home/pragov/projects/rrg-bengioy-ad/pragov/crystal_structure_design/SSSP/Co_pbe_v1.2.uspp.F.UPF
     MD5 check sum: 5f91765df6ddd3222702df6e7b74a16d
     Pseudo is Ultrasoft + core correction, Zval = 17.0
     Generated by new atomic code, or converted to UPF format
     Using radial grid of  863 points,  6 beta functions with:
                l(1) =   0
                l(2) =   0
                l(3) =   1
                l(4) =   1
                l(5) =   2
                l(6) =   2
     Q(r) pseudized with  8 coefficients,  rinner =    1.200   1.200   1.200
                                                       1.200   1.200

     PseudoPot. # 3 for O  read from file:
     /home/pragov/projects/rrg-bengioy-ad/pragov/crystal_structure_design/SSSP/O.pbe-n-kjpaw_psl.0.1.UPF
     MD5 check sum: 0234752ac141de4415c5fc33072bef88
     Pseudo is Projector augmented-wave + core cor, Zval =  6.0
     Generated using "atomic" code by A. Dal Corso  v.5.0.99 svn rev. 10869
     Shape of augmentation charge: BESSEL
     Using radial grid of 1095 points,  4 beta functions with:
                l(1) =   0
                l(2) =   0
                l(3) =   1
                l(4) =   1
     Q(r) pseudized with 0 coefficients

     atomic species   valence    mass     pseudopotential
        Cr            14.00    51.99610     Cr( 1.00)
        Co            17.00    58.93319     Co( 1.00)
        O              6.00    15.99900     O ( 1.00)

     No symmetry found

                                    s                        frac. trans.

      isym =  1     identity

 cryst.   s( 1) = (     1          0          0      )
                  (     0          1          0      )
                  (     0          0          1      )

 cart.    s( 1) = (  1.0000000  0.0000000  0.0000000 )
                  (  0.0000000  1.0000000 -0.0000000 )
                  (  0.0000000  0.0000000  1.0000000 )

   Cartesian axes

     site n.     atom                  positions (alat units)
         1           Cr  tau(   1) = (   0.5000001   0.5773491   0.4082480  )
         2           Cr  tau(   2) = (   0.7500017   0.4330107   0.0000008  )
         3           Cr  tau(   3) = (   0.7500014   0.1443389   0.4082439  )
         4           Cr  tau(   4) = (   1.0000011   0.5773514   0.4082472  )
         5           Co  tau(   5) = (   0.2499998   0.1443380   0.1020628  )
         6           Co  tau(   6) = (   0.7500019   1.0103639   0.7144340  )
         7           O   tau(   7) = (   0.4771156   0.8528135   0.6030304  )
         8           O   tau(   8) = (   0.7499997   0.6952628   0.2134671  )
         9           O   tau(   9) = (   0.9771156   0.3018887   0.2134671  )
        10           O   tau(  10) = (   0.7500014   0.4330129   0.5843441  )
        11           O   tau(  11) = (   0.0228861   0.8528133   0.6030296  )
        12           O   tau(  12) = (   0.2500012   0.7216890   0.2321527  )
        13           O   tau(  13) = (   0.5228846   0.3018887   0.2134671  )
        14           O   tau(  14) = (   0.2500019   0.4594391   0.6030296  )

   Crystallographic axes

     site n.     atom                  positions (cryst. coord.)
         1           Cr  tau(   1) = (  0.5000000  0.4999980  0.5000000  )
         2           Cr  tau(   2) = (  0.5000030  0.4999970  0.0000010  )
         3           Cr  tau(   3) = (  0.9999970  0.0000030  0.4999950  )
         4           Cr  tau(   4) = (  0.9999990  0.5000010  0.4999990  )
         5           Co  tau(   5) = (  0.2500000  0.1250000  0.1250010  )
         6           Co  tau(   6) = (  0.7500000  0.8750000  0.8750000  )
         7           O   tau(   7) = (  0.4771150  0.7385570  0.7385590  )
         8           O   tau(   8) = (  0.5228840  0.7156720  0.2614430  )
         9           O   tau(   9) = (  0.9771150  0.2614430  0.2614430  )
        10           O   tau(  10) = (  0.9771160  0.2614420  0.7156730  )
        11           O   tau(  11) = (  0.0228850  0.7385570  0.7385580  )
        12           O   tau(  12) = (  0.0228850  0.7385580  0.2843280  )
        13           O   tau(  13) = (  0.5228840  0.2614430  0.2614430  )
        14           O   tau(  14) = (  0.4771160  0.2843280  0.7385580  )

     number of k points=    14
                       cart. coord. in units 2pi/alat
        k(    1) = (   0.0000000   0.0000000   0.0000000), wk =   0.0740741
        k(    2) = (   0.0000000   0.0000000   0.4082486), wk =   0.1481481
        k(    3) = (   0.0000000   0.3848999  -0.1360830), wk =   0.1481481
        k(    4) = (   0.0000000   0.3848999   0.2721656), wk =   0.1481481
        k(    5) = (   0.0000000   0.3848999  -0.5443316), wk =   0.1481481
        k(    6) = (   0.3333333  -0.1924505   0.2721657), wk =   0.1481481
        k(    7) = (   0.3333333  -0.1924505   0.6804143), wk =   0.1481481
        k(    8) = (   0.3333333  -0.1924505  -0.1360829), wk =   0.1481481
        k(    9) = (   0.3333333   0.1924494   0.1360827), wk =   0.1481481
        k(   10) = (   0.3333333   0.1924494   0.5443313), wk =   0.1481481
        k(   11) = (   0.3333333   0.1924494  -0.2721659), wk =   0.1481481
        k(   12) = (   0.3333333  -0.5773504   0.4082487), wk =   0.1481481
        k(   13) = (   0.3333333  -0.5773504   0.8164973), wk =   0.1481481
        k(   14) = (   0.3333333  -0.5773504   0.0000000), wk =   0.1481481

                       cryst. coord.
        k(    1) = (   0.0000000   0.0000000   0.0000000), wk =   0.0740741
        k(    2) = (   0.0000000   0.0000000   0.3333333), wk =   0.1481481
        k(    3) = (   0.0000000   0.3333333  -0.0000000), wk =   0.1481481
        k(    4) = (   0.0000000   0.3333333   0.3333333), wk =   0.1481481
        k(    5) = (   0.0000000   0.3333333  -0.3333333), wk =   0.1481481
        k(    6) = (   0.3333333   0.0000000   0.0000000), wk =   0.1481481
        k(    7) = (   0.3333333   0.0000000   0.3333333), wk =   0.1481481
        k(    8) = (   0.3333333   0.0000000  -0.3333333), wk =   0.1481481
        k(    9) = (   0.3333333   0.3333333   0.0000000), wk =   0.1481481
        k(   10) = (   0.3333333   0.3333333   0.3333333), wk =   0.1481481
        k(   11) = (   0.3333333   0.3333333  -0.3333333), wk =   0.1481481
        k(   12) = (   0.3333333  -0.3333333   0.0000000), wk =   0.1481481
        k(   13) = (   0.3333333  -0.3333333   0.3333333), wk =   0.1481481
        k(   14) = (   0.3333333  -0.3333333  -0.3333333), wk =   0.1481481

     Check: negative core charge=   -0.000023

     Initial potential from superposition of free atoms

     starting charge     131.9999, renormalised to     138.0000

     negative rho (up, down):  6.359E-03 0.000E+00
     Starting wfcs are   98 randomized atomic wfcs
     Checking if some PAW data can be deallocated...

     Self-consistent Calculation

     iteration #  1     ecut=    30.00 Ry     beta= 0.70
     Davidson diagonalization with overlap

     ethr =  1.00E-02,  avg # of iterations =  3.8

     negative rho (up, down):  3.033E-03 0.000E+00

     total energy              =   -1560.99095748 Ry
     estimated scf accuracy    <      88.23325374 Ry

[...]

     total energy              =   -1631.74530164 Ry
     estimated scf accuracy    <       0.00000110 Ry

     iteration # 38     ecut=    30.00 Ry     beta= 0.70
     Davidson diagonalization with overlap

     ethr =  7.94E-10,  avg # of iterations =  1.0

     negative rho (up, down):  6.188E-03 0.000E+00

     End of self-consistent calculation

          k = 0.0000 0.0000 0.0000 (  2741 PWs)   bands (ev):

   -83.2560 -83.2557 -61.2628 -61.2442 -61.2441 -61.2439 -46.5380 -46.5379
   -46.5379 -46.5375 -46.5374 -46.5374 -32.8142 -32.6627 -32.6626 -32.6625
   -32.5336 -32.5336 -32.5216 -32.5216 -32.5215 -32.4743 -32.4743 -32.4742
    -9.1783  -8.0654  -8.0643  -8.0641  -8.0640  -7.8717  -7.8715  -7.8715
     3.1610   4.1045   4.1045   4.1045   4.5427   5.0671   5.0671   5.5875
     5.5875   5.9401   5.9402   5.9402   6.2435   6.2436   6.2436   6.5384
     6.5386   6.5387   7.4024   7.4025   7.4026   7.7427   7.7427   7.7428
     9.8214   9.8214  10.7918  10.7918  10.7919  10.8121  10.8663  10.8663
    10.8874  10.8874  11.2471  11.2472  11.2472  11.5778  11.5778  11.5779
    11.6697  11.6697  11.6697  11.7739  11.7739  11.7739  13.6451  13.6451
    13.6452  13.7729  13.7730  13.7731  13.8284  13.8934  13.8934  18.1556
    18.5678  18.5678

     occupation numbers
     1.0000   1.0000   1.0000   1.0000   1.0000   1.0000   1.0000   1.0000
     1.0000   1.0000   1.0000   1.0000   1.0000   1.0000   1.0000   1.0000
     1.0000   1.0000   1.0000   1.0000   1.0000   1.0000   1.0000   1.0000
     1.0000   1.0000   1.0000   1.0000   1.0000   1.0000   1.0000   1.0000
     1.0000   1.0000   1.0000   1.0000   1.0000   1.0000   1.0000   1.0000
     1.0000   1.0000   1.0000   1.0000   1.0000   1.0000   1.0000   1.0000
     1.0000   1.0000   1.0000   1.0000   1.0000   1.0000   1.0000   1.0000
     1.0000   1.0000   1.0000   1.0000   1.0000   1.0000   1.0000   1.0000
     1.0000   1.0000   1.0000   1.0000   1.0000   0.0000   0.0000   0.0000
     0.0000   0.0000   0.0000   0.0000   0.0000   0.0000   0.0000   0.0000
     0.0000   0.0000   0.0000   0.0000   0.0000   0.0000   0.0000   0.0000
     0.0000   0.0000

[...]

          k = 0.3333-0.5774 0.0000 (  2858 PWs)   bands (ev):

   -83.2575 -83.2570 -61.2564 -61.2518 -61.2450 -61.2449 -46.5508 -46.5481
   -46.5468 -46.5453 -46.5443 -46.5440 -32.7577 -32.7156 -32.6568 -32.6532
   -32.5426 -32.5358 -32.5331 -32.5179 -32.5123 -32.5072 -32.5020 -32.4874
    -8.7010  -8.4644  -8.1717  -8.0499  -8.0347  -7.9138  -7.9083  -7.9077
     4.1221   4.3645   4.7293   4.7740   4.8180   5.1168   5.1713   5.2300
     5.3328   5.4417   5.7191   5.8842   5.9210   6.0295   6.1467   6.1609
     6.2619   6.4611   6.8648   6.8930   6.9706   7.1987   7.2417   7.6680
    10.3064  10.5174  10.5680  10.6437  10.6447  10.6625  10.8700  10.8890
    11.0162  11.0741  11.1214  11.2234  11.2636  11.2971  11.3400  11.5642
    11.7113  11.8292  11.8602  11.8795  11.8847  11.9184  13.1085  13.2417
    13.2971  13.3325  13.4448  13.5306  13.5641  13.6872  16.5412  17.2317
    17.8137  18.9538

     occupation numbers
     1.0000   1.0000   1.0000   1.0000   1.0000   1.0000   1.0000   1.0000
     1.0000   1.0000   1.0000   1.0000   1.0000   1.0000   1.0000   1.0000
     1.0000   1.0000   1.0000   1.0000   1.0000   1.0000   1.0000   1.0000
     1.0000   1.0000   1.0000   1.0000   1.0000   1.0000   1.0000   1.0000
     1.0000   1.0000   1.0000   1.0000   1.0000   1.0000   1.0000   1.0000
     1.0000   1.0000   1.0000   1.0000   1.0000   1.0000   1.0000   1.0000
     1.0000   1.0000   1.0000   1.0000   1.0000   1.0000   1.0000   1.0000
     1.0000   1.0000   1.0000   1.0000   1.0000   1.0000   1.0000   1.0000
     1.0000   1.0000   1.0000   1.0000   1.0000   0.0000   0.0000   0.0000
     0.0000   0.0000   0.0000   0.0000   0.0000   0.0000   0.0000   0.0000
     0.0000   0.0000   0.0000   0.0000   0.0000   0.0000   0.0000   0.0000
     0.0000   0.0000

     highest occupied, lowest unoccupied level (ev):    11.3814   11.2971

!    total energy              =   -1631.74530110 Ry
     estimated scf accuracy    <       0.00000063 Ry

     The total energy is the sum of the following terms:
     one-electron contribution =    -826.34036600 Ry
     hartree contribution      =     479.99087346 Ry
     xc contribution           =    -213.35894562 Ry
     ewald contribution        =    -995.83302151 Ry
     one-center paw contrib.   =     -76.20384143 Ry
      -> PAW hartree energy AE =       0.00000000 Ry
      -> PAW hartree energy PS =       0.00000000 Ry
      -> PAW xc energy AE      =       0.00000000 Ry
      -> PAW xc energy PS      =       0.00000000 Ry
      -> total E_H with PAW    =     479.99087346 Ry
      -> total E_XC with PAW   =    -213.35894562 Ry

     convergence has been achieved in  38 iterations

     Writing all to output data dir calculations_bands/myprefix.save/

     General routines

     Parallel routines

     PAW routines

   This run was terminated on:  12:12:52  23Jun2023

   JOB DONE.