     Program PWSCF v.7.0 starts on  5Jun2023 at  1: 2:58

     K-points division:     npool     =       2
     R & G space division:  proc/nbgrp/npool/nimage =       4

     Reading input from espresso_5324.pwi
Warning: card &CELL ignored
Warning: card / ignored

     Current dimensions of program PWSCF are:
     Max number of different atomic species (ntypx) = 10
     Max number of k-points (npk) =  40000
     Max angular momentum in pseudopotentials (lmaxx) =  4

     Using Slab Decomposition

     bravais-lattice index     =            0
     lattice parameter (alat)  =      10.2536  a.u.
     unit-cell volume          =    1077.6737 (a.u.)^3
     number of atoms/cell      =            5
     number of atomic types    =            3
     number of electrons       =        40.00
     number of Kohn-Sham states=           64
     kinetic-energy cutoff     =      30.0000  Ry
     charge density cutoff     =     240.0000  Ry
     scf convergence threshold =      1.0E-06
     mixing beta               =       0.7000
     number of iterations used =            8  plain     mixing
     Exchange-correlation=  SLA  PW   PBX  PBC
                           (   1   4   3   4   0   0   0)

     celldm(1)=  10.253556  celldm(2)=   0.000000  celldm(3)=   0.000000
     celldm(4)=   0.000000  celldm(5)=   0.000000  celldm(6)=   0.000000

     crystal axes: (cart. coord. in units of alat)
               a(1) = (   1.000000   0.000000   0.000000 )
               a(2) = (  -0.000908   1.000000   0.000000 )
               a(3) = (   0.001194   0.001196   0.999687 )

     reciprocal axes: (cart. coord. in units 2 pi/alat)
               b(1) = (  1.000000  0.000908 -0.001196 )
               b(2) = (  0.000000  1.000000 -0.001196 )
               b(3) = (  0.000000  0.000000  1.000313 )

     PseudoPot. # 1 for Rb read from file:
     /home/pragov/projects/rrg-bengioy-ad/pragov/crystal_structure_design/SSSP/Rb_ONCV_PBE-1.0.oncvpsp.upf
     MD5 check sum: 55a5172d6bfbce6759a58e35d43f6aa9
     Pseudo is Norm-conserving, Zval =  9.0
     Generated using ONCVPSP code by D. R. Hamann
     Using radial grid of 2308 points,  6 beta functions with:
                l(1) =   0
                l(2) =   0
                l(3) =   1
                l(4) =   1
                l(5) =   2
                l(6) =   2

     PseudoPot. # 2 for Ca read from file:
     /home/pragov/projects/rrg-bengioy-ad/pragov/crystal_structure_design/SSSP/Ca_pbe_v1.uspp.F.UPF
     MD5 check sum: 403a4c14b9e4d4dfdc3024c9a3812218
     Pseudo is Ultrasoft + core correction, Zval = 10.0
     Generated by new atomic code, or converted to UPF format
     Using radial grid of  845 points,  6 beta functions with:
                l(1) =   0
                l(2) =   0
                l(3) =   1
                l(4) =   1
                l(5) =   2
                l(6) =   2
     Q(r) pseudized with  8 coefficients,  rinner =    1.500   1.500   1.500
                                                       1.500   1.500

     PseudoPot. # 3 for Cl read from file:
     /home/pragov/projects/rrg-bengioy-ad/pragov/crystal_structure_design/SSSP/cl_pbe_v1.4.uspp.F.UPF
     MD5 check sum: fc6f6913ecf08c9257cb748ef0700058
     Pseudo is Ultrasoft + core correction, Zval =  7.0
     Generated by new atomic code, or converted to UPF format
     Using radial grid of  909 points,  6 beta functions with:
                l(1) =   0
                l(2) =   0
                l(3) =   1
                l(4) =   1
                l(5) =   2
                l(6) =   2
     Q(r) pseudized with  8 coefficients,  rinner =    1.300   1.300   1.300
                                                       1.300   1.300

     atomic species   valence    mass     pseudopotential
        Rb             9.00    85.46780     Rb( 1.00)
        Ca            10.00    40.07800     Ca( 1.00)
        Cl             7.00    35.45000     Cl( 1.00)

     No symmetry found

                                    s                        frac. trans.

      isym =  1     identity

 cryst.   s( 1) = (     1          0          0      )
                  (     0          1          0      )
                  (     0          0          1      )

 cart.    s( 1) = (  1.0000000  0.0000000  0.0000000 )
                  (  0.0000000  1.0000000 -0.0000000 )
                  (  0.0000000  0.0000000  1.0000000 )

   Cartesian axes

     site n.     atom                  positions (alat units)
         1           Rb  tau(   1) = (   0.0042007   0.0042045   0.9962597  )
         2           Ca  tau(   2) = (   0.5034248   0.5038820   0.4851469  )
         3           Cl  tau(   3) = (   0.5059402   0.0022723   0.4843472  )
         4           Cl  tau(   4) = (   0.4952642   0.4957130   0.9851942  )
         5           Cl  tau(   5) = (   0.0018130   0.5059420   0.4843472  )

   Crystallographic axes

     site n.     atom                  positions (cryst. coord.)
         1           Rb  tau(   1) = (  0.0030130  0.0030130  0.9965720  )
         2           Ca  tau(   2) = (  0.5033020  0.5033020  0.4852990  )
         3           Cl  tau(   3) = (  0.5053630  0.0016930  0.4844990  )
         4           Cl  tau(   4) = (  0.4945360  0.4945350  0.9855030  )
         5           Cl  tau(   5) = (  0.0016930  0.5053630  0.4844990  )

     number of k points=    14
                       cart. coord. in units 2pi/alat
        k(    1) = (   0.0000000   0.0000000   0.0000000), wk =   0.0740741
        k(    2) = (   0.0000000   0.0000000   0.3334378), wk =   0.1481481
        k(    3) = (   0.0000000   0.3333335  -0.0003986), wk =   0.1481481
        k(    4) = (   0.0000000   0.3333335   0.3330392), wk =   0.1481481
        k(    5) = (   0.0000000   0.3333335  -0.3338365), wk =   0.1481481
        k(    6) = (   0.3333333   0.0003026  -0.0003986), wk =   0.1481481
        k(    7) = (   0.3333333   0.0003026   0.3330392), wk =   0.1481481
        k(    8) = (   0.3333333   0.0003026  -0.3338365), wk =   0.1481481
        k(    9) = (   0.3333333   0.3336361  -0.0007973), wk =   0.1481481
        k(   10) = (   0.3333333   0.3336361   0.3326405), wk =   0.1481481
        k(   11) = (   0.3333333   0.3336361  -0.3342351), wk =   0.1481481
        k(   12) = (   0.3333333  -0.3330309   0.0000000), wk =   0.1481481
        k(   13) = (   0.3333333  -0.3330309   0.3334378), wk =   0.1481481
        k(   14) = (   0.3333333  -0.3330309  -0.3334378), wk =   0.1481481

                       cryst. coord.
        k(    1) = (   0.0000000   0.0000000   0.0000000), wk =   0.0740741
        k(    2) = (   0.0000000   0.0000000   0.3333333), wk =   0.1481481
        k(    3) = (   0.0000000   0.3333333  -0.0000000), wk =   0.1481481
        k(    4) = (   0.0000000   0.3333333   0.3333333), wk =   0.1481481
        k(    5) = (   0.0000000   0.3333333  -0.3333333), wk =   0.1481481
        k(    6) = (   0.3333333   0.0000000  -0.0000000), wk =   0.1481481
        k(    7) = (   0.3333333   0.0000000   0.3333333), wk =   0.1481481
        k(    8) = (   0.3333333   0.0000000  -0.3333333), wk =   0.1481481
        k(    9) = (   0.3333333   0.3333333   0.0000000), wk =   0.1481481
        k(   10) = (   0.3333333   0.3333333   0.3333333), wk =   0.1481481
        k(   11) = (   0.3333333   0.3333333  -0.3333333), wk =   0.1481481
        k(   12) = (   0.3333333  -0.3333333   0.0000000), wk =   0.1481481
        k(   13) = (   0.3333333  -0.3333333   0.3333333), wk =   0.1481481
        k(   14) = (   0.3333333  -0.3333333  -0.3333333), wk =   0.1481481

     Initial potential from superposition of free atoms

     starting charge      39.9698, renormalised to      40.0000

     negative rho (up, down):  4.453E-02 0.000E+00
     Starting wfcs are   27 randomized atomic wfcs +   37 random wfcs

     Self-consistent Calculation

     iteration #  1     ecut=    30.00 Ry     beta= 0.70
     Davidson diagonalization with overlap

     ethr =  1.00E-02,  avg # of iterations =  7.2

     Threshold (ethr) on eigenvalues was too large:
     Diagonalizing with lowered threshold

     Davidson diagonalization with overlap

[...]

     negative rho (up, down):  4.609E-02 0.000E+00

     total energy              =    -224.50843248 Ry
     estimated scf accuracy    <       0.14088905 Ry

[...]

     total energy              =    -224.54952100 Ry
     estimated scf accuracy    <       0.00000120 Ry

     iteration #  6     ecut=    30.00 Ry     beta= 0.70
     Davidson diagonalization with overlap

     ethr =  2.99E-09,  avg # of iterations =  4.0

     negative rho (up, down):  4.445E-02 0.000E+00

     End of self-consistent calculation

          k = 0.0000 0.0000 0.0000 (  2945 PWs)   bands (ev):

   -36.8226 -23.2437 -17.8629 -17.8624 -17.8622 -11.4146 -11.0798 -11.0787
    -7.3011  -7.3010  -7.3008  -0.1549  -0.1540  -0.1512   0.9059   0.9087
     0.9101   1.1340   1.1369   1.1388   6.3564   7.0258   7.0275   7.0320
     8.2833   8.2856   8.4332   8.4360   9.3379  10.4073  10.4089  10.4153
    13.1419  13.1426  13.1542  14.8008  14.8012  14.8113  14.9938  15.0125
    16.4788  17.0122  17.0654  17.1432  17.2360  17.3298  17.4291  17.6792
    17.7080  17.7513  18.3230  18.3370  18.3384  18.3789  18.6274  18.6284
    19.0846  20.4797  20.4912  20.5249  22.3627  22.4390  22.4436  23.4639

     occupation numbers
     1.0000   1.0000   1.0000   1.0000   1.0000   1.0000   1.0000   1.0000
     1.0000   1.0000   1.0000   1.0000   1.0000   1.0000   1.0000   1.0000
     1.0000   1.0000   1.0000   1.0000   0.0000   0.0000   0.0000   0.0000
     0.0000   0.0000   0.0000   0.0000   0.0000   0.0000   0.0000   0.0000
     0.0000   0.0000   0.0000   0.0000   0.0000   0.0000   0.0000   0.0000
     0.0000   0.0000   0.0000   0.0000   0.0000   0.0000   0.0000   0.0000
     0.0000   0.0000   0.0000   0.0000   0.0000   0.0000   0.0000   0.0000
     0.0000   0.0000   0.0000   0.0000   0.0000   0.0000   0.0000   0.0000

[...]

          k = 0.3333-0.3330-0.3334 (  3007 PWs)   bands (ev):

   -36.8223 -23.2426 -17.8864 -17.8859 -17.8855 -11.1415 -11.0548 -11.0446
    -7.3143  -7.3126  -7.3002  -0.8590   0.0088   0.0298   0.0343   0.1393
     0.2017   1.1996   1.2025   1.2694   8.0201   8.2534   8.2859   8.3833
     9.2757   9.3599   9.6306   9.9576   9.9665  10.5375  10.5836  11.0519
    11.6869  11.8890  11.9272  12.6600  12.8984  12.9265  13.3810  13.4908
    13.6460  16.0249  16.0857  16.3927  16.8511  16.9293  17.0545  17.0773
    17.3288  17.8676  18.8392  18.8999  19.0229  19.2336  19.3306  20.6430
    21.0107  21.2192  21.5470  21.5837  22.3226  22.5939  22.6968  23.3335

     occupation numbers
     1.0000   1.0000   1.0000   1.0000   1.0000   1.0000   1.0000   1.0000
     1.0000   1.0000   1.0000   1.0000   1.0000   1.0000   1.0000   1.0000
     1.0000   1.0000   1.0000   1.0000   0.0000   0.0000   0.0000   0.0000
     0.0000   0.0000   0.0000   0.0000   0.0000   0.0000   0.0000   0.0000
     0.0000   0.0000   0.0000   0.0000   0.0000   0.0000   0.0000   0.0000
     0.0000   0.0000   0.0000   0.0000   0.0000   0.0000   0.0000   0.0000
     0.0000   0.0000   0.0000   0.0000   0.0000   0.0000   0.0000   0.0000
     0.0000   0.0000   0.0000   0.0000   0.0000   0.0000   0.0000   0.0000

     highest occupied, lowest unoccupied level (ev):     1.2707    6.3564

!    total energy              =    -224.54952157 Ry
     estimated scf accuracy    <       0.00000026 Ry

     The total energy is the sum of the following terms:
     one-electron contribution =     -82.29371738 Ry
     hartree contribution      =      52.58003182 Ry
     xc contribution           =     -47.88764412 Ry
     ewald contribution        =    -146.94819189 Ry

     convergence has been achieved in   6 iterations

     Writing all to output data dir calculations_bands/myprefix.save/

     General routines

     Parallel routines

   This run was terminated on:   1: 3:39   5Jun2023

   JOB DONE.