     Program PWSCF v.7.0 starts on  5Jun2023 at 22:31:47

     K-points division:     npool     =       2
     R & G space division:  proc/nbgrp/npool/nimage =       4

     Reading input from espresso_12132.pwi
Warning: card &CELL ignored
Warning: card / ignored

     Current dimensions of program PWSCF are:
     Max number of different atomic species (ntypx) = 10
     Max number of k-points (npk) =  40000
     Max angular momentum in pseudopotentials (lmaxx) =  4
     Message from routine setup:
     using ibrav=0 with symmetry is DISCOURAGED, use correct ibrav instead

     Using Slab Decomposition

     bravais-lattice index     =            0
     lattice parameter (alat)  =      12.1673  a.u.
     unit-cell volume          =    1613.9555 (a.u.)^3
     number of atoms/cell      =            8
     number of atomic types    =            2
     number of electrons       =        76.00
     number of Kohn-Sham states=           64
     kinetic-energy cutoff     =      30.0000  Ry
     charge density cutoff     =     240.0000  Ry
     scf convergence threshold =      1.0E-06
     mixing beta               =       0.7000
     number of iterations used =            8  plain     mixing
     Exchange-correlation=  SLA  PW   PBX  PBC
                           (   1   4   3   4   0   0   0)

     celldm(1)=  12.167289  celldm(2)=   0.000000  celldm(3)=   0.000000
     celldm(4)=   0.000000  celldm(5)=   0.000000  celldm(6)=   0.000000

     crystal axes: (cart. coord. in units of alat)
               a(1) = (   1.000000   0.000000   0.000000 )
               a(2) = (  -0.500063   0.865989   0.000000 )
               a(3) = (   0.165663   0.286961   1.034660 )

     reciprocal axes: (cart. coord. in units 2 pi/alat)
               b(1) = (  1.000000  0.577447 -0.320268 )
               b(2) = (  0.000000  1.154749 -0.320268 )
               b(3) = (  0.000000  0.000000  0.966501 )

     PseudoPot. # 1 for Rh read from file:
     /home/pragov/projects/rrg-bengioy-ad/pragov/crystal_structure_design/SSSP/Rh_ONCV_PBE-1.0.oncvpsp.upf
     MD5 check sum: ba07c69523b14cacd10683cd4c4284c1
     Pseudo is Norm-conserving, Zval = 17.0
     Generated using ONCVPSP code by D. R. Hamann
     Using radial grid of 1442 points,  6 beta functions with:
                l(1) =   0
                l(2) =   0
                l(3) =   1
                l(4) =   1
                l(5) =   2
                l(6) =   2

     PseudoPot. # 2 for Br read from file:
     /home/pragov/projects/rrg-bengioy-ad/pragov/crystal_structure_design/SSSP/br_pbe_v1.4.uspp.F.UPF
     MD5 check sum: d3ffb7b29f6225aa16fe06858fb2a80b
     Pseudo is Ultrasoft + core correction, Zval =  7.0
     Generated by new atomic code, or converted to UPF format
     Using radial grid of  879 points,  6 beta functions with:
                l(1) =   0
                l(2) =   0
                l(3) =   1
                l(4) =   1
                l(5) =   2
                l(6) =   2
     Q(r) pseudized with  8 coefficients,  rinner =    1.100   1.100   1.100
                                                       1.100   1.100

     atomic species   valence    mass     pseudopotential
        Rh            17.00   102.90550     Rh( 1.00)
        Br             7.00    79.90400     Br( 1.00)

      2 Sym. Ops., with inversion, found

                                    s                        frac. trans.

      isym =  1     identity

 cryst.   s( 1) = (     1          0          0      )
                  (     0          1          0      )
                  (     0          0          1      )

 cart.    s( 1) = (  1.0000000  0.0000000  0.0000000 )
                  (  0.0000000  1.0000000 -0.0000000 )
                  (  0.0000000  0.0000000  1.0000000 )

      isym =  2     inversion

 cryst.   s( 2) = (    -1          0          0      )
                  (     0         -1          0      )
                  (     0          0         -1      )

 cart.    s( 2) = ( -1.0000000 -0.0000000 -0.0000000 )
                  (  0.0000000 -1.0000000  0.0000000 )
                  (  0.0000000  0.0000000 -1.0000000 )

   Cartesian axes

     site n.     atom                  positions (alat units)
         1           Rh  tau(   1) = (  -0.2500578   0.7216608   0.0000000  )
         2           Rh  tau(   2) = (   0.7499950   0.1443284   0.0000000  )
         3           Br  tau(   3) = (   0.4273154   0.1260595   0.2182987  )
         4           Br  tau(   4) = (   0.7701189   0.7198622   0.8163611  )
         5           Br  tau(   5) = (   0.2384505   0.4130430   0.8159141  )
         6           Br  tau(   6) = (   0.4271500   0.7399074   0.2187457  )
         7           Br  tau(   7) = (  -0.1045184   0.4330881   0.2182987  )
         8           Br  tau(   8) = (   0.2382851   1.0268909   0.8163611  )

   Crystallographic axes

     site n.     atom                  positions (cryst. coord.)
         1           Rh  tau(   1) = (  0.1666630  0.8333370  0.0000000  )
         2           Rh  tau(   2) = (  0.8333370  0.1666630  0.0000000  )
         3           Br  tau(   3) = (  0.4301940  0.0756530  0.2109860  )
         4           Br  tau(   4) = (  0.9243470  0.5698060  0.7890140  )
         5           Br  tau(   5) = (  0.2156500  0.2156500  0.7885820  )
         6           Br  tau(   6) = (  0.7843500  0.7843500  0.2114180  )
         7           Br  tau(   7) = (  0.0756530  0.4301940  0.2109860  )
         8           Br  tau(   8) = (  0.5698060  0.9243470  0.7890140  )

     number of k points=    14
                       cart. coord. in units 2pi/alat
        k(    1) = (   0.0000000   0.0000000   0.0000000), wk =   0.0740741
        k(    2) = (   0.0000000   0.0000000   0.3221671), wk =   0.1481481
        k(    3) = (   0.0000000   0.3849163  -0.1067559), wk =   0.1481481
        k(    4) = (   0.0000000   0.3849163   0.2154112), wk =   0.1481481
        k(    5) = (   0.0000000   0.3849163  -0.4289230), wk =   0.1481481
        k(    6) = (   0.3333333   0.1924823  -0.1067559), wk =   0.1481481
        k(    7) = (   0.3333333   0.1924823   0.2154112), wk =   0.1481481
        k(    8) = (   0.3333333   0.1924823  -0.4289230), wk =   0.1481481
        k(    9) = (   0.3333333   0.5773986  -0.2135118), wk =   0.1481481
        k(   10) = (   0.3333333   0.5773986   0.1086553), wk =   0.1481481
        k(   11) = (   0.3333333   0.5773986  -0.5356788), wk =   0.1481481
        k(   12) = (   0.3333333  -0.1924340  -0.0000000), wk =   0.1481481
        k(   13) = (   0.3333333  -0.1924340   0.3221671), wk =   0.1481481
        k(   14) = (   0.3333333  -0.1924340  -0.3221671), wk =   0.1481481

                       cryst. coord.
        k(    1) = (   0.0000000   0.0000000   0.0000000), wk =   0.0740741
        k(    2) = (   0.0000000   0.0000000   0.3333333), wk =   0.1481481
        k(    3) = (   0.0000000   0.3333333  -0.0000000), wk =   0.1481481
        k(    4) = (   0.0000000   0.3333333   0.3333333), wk =   0.1481481
        k(    5) = (   0.0000000   0.3333333  -0.3333333), wk =   0.1481481
        k(    6) = (   0.3333333  -0.0000000  -0.0000000), wk =   0.1481481
        k(    7) = (   0.3333333  -0.0000000   0.3333333), wk =   0.1481481
        k(    8) = (   0.3333333  -0.0000000  -0.3333333), wk =   0.1481481
        k(    9) = (   0.3333333   0.3333333   0.0000000), wk =   0.1481481
        k(   10) = (   0.3333333   0.3333333   0.3333333), wk =   0.1481481
        k(   11) = (   0.3333333   0.3333333  -0.3333333), wk =   0.1481481
        k(   12) = (   0.3333333  -0.3333333   0.0000000), wk =   0.1481481
        k(   13) = (   0.3333333  -0.3333333   0.3333333), wk =   0.1481481
        k(   14) = (   0.3333333  -0.3333333  -0.3333333), wk =   0.1481481

     Check: negative core charge=   -0.000001

     Initial potential from superposition of free atoms

     starting charge      75.9990, renormalised to      76.0000
     Starting wfcs are   44 randomized atomic wfcs +   20 random wfcs

     Self-consistent Calculation

     iteration #  1     ecut=    30.00 Ry     beta= 0.70
     Davidson diagonalization with overlap

     ethr =  1.00E-02,  avg # of iterations =  6.4

     Threshold (ethr) on eigenvalues was too large:
     Diagonalizing with lowered threshold

     Davidson diagonalization with overlap

[...]

     total energy              =    -714.73681902 Ry
     estimated scf accuracy    <       0.72771944 Ry

[...]

     total energy              =    -715.18028556 Ry
     estimated scf accuracy    <       0.00000732 Ry

     iteration #  8     ecut=    30.00 Ry     beta= 0.70
     Davidson diagonalization with overlap

     ethr =  9.64E-09,  avg # of iterations =  1.9

     End of self-consistent calculation

          k = 0.0000 0.0000 0.0000 (  4515 PWs)   bands (ev):

   -74.1012 -74.1006 -41.9583 -41.9571 -41.9498 -41.9485 -41.9430 -41.9406
   -11.1216 -10.3426 -10.2694 -10.2674 -10.2257 -10.2244  -0.7918  -0.6640
    -0.1346  -0.1266  -0.1062  -0.0763   0.1038   0.1094   0.7478   0.8765
     0.8807   1.1272   2.1368   2.5061   2.5308   2.8788   2.9111   2.9203
     2.9308   3.3982   3.4738   3.4906   3.7979   3.8297   5.4356   5.5061
     5.8726   5.8969   8.8961  10.5866  10.9739  11.8641  12.0716  12.5339
    12.5716  13.0500  13.2232  13.6808  13.8334  14.0407  14.0767  14.2703
    14.3037  14.5516  14.9405  15.2313  15.8783  15.8958  16.1764  16.2302

     occupation numbers
     1.0000   1.0000   1.0000   1.0000   1.0000   1.0000   1.0000   1.0000
     1.0000   1.0000   1.0000   1.0000   1.0000   1.0000   1.0000   1.0000
     1.0000   1.0000   1.0000   1.0000   1.0000   1.0000   1.0000   1.0000
     1.0000   1.0000   1.0000   1.0000   1.0000   1.0000   1.0000   1.0000
     1.0000   1.0000   1.0000   1.0000   1.0000   1.0000   0.0000   0.0000
     0.0000   0.0000   0.0000   0.0000   0.0000   0.0000   0.0000   0.0000
     0.0000   0.0000   0.0000   0.0000   0.0000   0.0000   0.0000   0.0000
     0.0000   0.0000   0.0000   0.0000   0.0000   0.0000   0.0000   0.0000

[...]

          k = 0.3333-0.1924-0.3222 (  4474 PWs)   bands (ev):

   -74.1010 -74.1007 -41.9587 -41.9552 -41.9498 -41.9493 -41.9424 -41.9410
   -10.9103 -10.4568 -10.3446 -10.2880 -10.2611 -10.2439  -0.8286  -0.4418
    -0.3229  -0.2103  -0.1457   0.0924   0.2511   0.4455   0.4763   0.9929
     1.4510   1.5720   1.7470   2.0303   2.2135   2.2596   2.7860   2.8330
     3.0347   3.4471   3.4970   3.6974   3.9020   4.0036   5.4227   5.4952
     5.6143   5.7587  10.7009  10.8607  11.2904  11.6529  11.7835  11.9392
    12.5412  12.6746  12.9029  13.1729  13.2247  13.5730  13.8054  14.4616
    14.5154  14.5969  14.8951  14.9664  15.0594  15.3296  15.7572  16.3303

     occupation numbers
     1.0000   1.0000   1.0000   1.0000   1.0000   1.0000   1.0000   1.0000
     1.0000   1.0000   1.0000   1.0000   1.0000   1.0000   1.0000   1.0000
     1.0000   1.0000   1.0000   1.0000   1.0000   1.0000   1.0000   1.0000
     1.0000   1.0000   1.0000   1.0000   1.0000   1.0000   1.0000   1.0000
     1.0000   1.0000   1.0000   1.0000   1.0000   1.0000   0.0000   0.0000
     0.0000   0.0000   0.0000   0.0000   0.0000   0.0000   0.0000   0.0000
     0.0000   0.0000   0.0000   0.0000   0.0000   0.0000   0.0000   0.0000
     0.0000   0.0000   0.0000   0.0000   0.0000   0.0000   0.0000   0.0000

     highest occupied, lowest unoccupied level (ev):     4.0691    5.3310

!    total energy              =    -715.18028601 Ry
     estimated scf accuracy    <       0.00000047 Ry

     The total energy is the sum of the following terms:
     one-electron contribution =    -477.37157783 Ry
     hartree contribution      =     259.38206661 Ry
     xc contribution           =    -200.54178958 Ry
     ewald contribution        =    -296.64898520 Ry

     convergence has been achieved in   8 iterations

     Writing all to output data dir calculations_bands/myprefix.save/

     General routines

     Parallel routines

   This run was terminated on:  22:31:59   5Jun2023

   JOB DONE.