     Program PWSCF v.7.1 starts on 14Jul2023 at  1:28: 0

     Reading input from espresso_6516.pwi
Warning: card &CELL ignored
Warning: card / ignored

     Current dimensions of program PWSCF are:
     Max number of different atomic species (ntypx) = 10
     Max number of k-points (npk) =  40000
     Max angular momentum in pseudopotentials (lmaxx) =  4
     file K.pbe-spn-kjpaw_psl.1.0.0.UPF: wavefunction(s)  3S renormalized
     file O.pbe-n-kjpaw_psl.0.1.UPF: wavefunction(s)  2P renormalized
     Message from routine setup:
     using ibrav=0 with symmetry is DISCOURAGED, use correct ibrav instead

     K-points division:     npool     =       2
     R & G space division:  proc/nbgrp/npool/nimage =       4
     Subspace diagonalization in iterative solution of the eigenvalue problem:
     a serial algorithm will be used

     Using Slab Decomposition

     bravais-lattice index     =            0
     lattice parameter (alat)  =      21.5503  a.u.
     unit-cell volume          =    1203.1761 (a.u.)^3
     number of atoms/cell      =           12
     number of atomic types    =            4
     number of electrons       =        96.00
     number of Kohn-Sham states=           64
     kinetic-energy cutoff     =      30.0000  Ry
     charge density cutoff     =     240.0000  Ry
     scf convergence threshold =      1.0E-06
     mixing beta               =       0.7000
     number of iterations used =            8  plain     mixing
     Exchange-correlation= SLA  PW   PBX  PBC
                           (   1   4   3   4   0   0   0)

     celldm(1)=  21.550290  celldm(2)=   0.000000  celldm(3)=   0.000000
     celldm(4)=   0.000000  celldm(5)=   0.000000  celldm(6)=   0.000000

     crystal axes: (cart. coord. in units of alat)
               a(1) = (   1.000000   0.000000   0.000000 )
               a(2) = (   0.875868   0.482551   0.000000 )
               a(3) = (  -0.937934  -0.241275   0.249130 )

     reciprocal axes: (cart. coord. in units 2 pi/alat)
               b(1) = (  1.000000 -1.815080  2.006981 )
               b(2) = (  0.000000  2.072321  2.006981 )
               b(3) = (  0.000000  0.000000  4.013961 )

     PseudoPot. # 1 for K  read from file:
     /lustre07/scratch/pragov/crystal_structure_design/utils/SSSP/K.pbe-spn-kjpaw_psl.1.0.0.UPF
     MD5 check sum: 7d58810084cac21f60fbe77ea2b688fd
     Pseudo is Projector augmented-wave + core cor, Zval =  9.0
     Generated using "atomic" code by A. Dal Corso  v.5.1
     Shape of augmentation charge: PSQ
     Using radial grid of 1165 points,  6 beta functions with:
                l(1) =   0
                l(2) =   0
                l(3) =   1
                l(4) =   1
                l(5) =   2
                l(6) =   2
     Q(r) pseudized with 0 coefficients

     PseudoPot. # 2 for Sr read from file:
     /lustre07/scratch/pragov/crystal_structure_design/utils/SSSP/Sr_pbe_v1.uspp.F.UPF
     MD5 check sum: 6b418c05fbe9db5448babca5e47b7a5b
     Pseudo is Ultrasoft + core correction, Zval = 10.0
     Generated by new atomic code, or converted to UPF format
     Using radial grid of  883 points,  6 beta functions with:
                l(1) =   0
                l(2) =   0
                l(3) =   1
                l(4) =   1
                l(5) =   2
                l(6) =   2
     Q(r) pseudized with  6 coefficients,  rinner =    1.400   1.400   1.400
                                                       1.400   1.400

     PseudoPot. # 3 for Ta read from file:
     /lustre07/scratch/pragov/crystal_structure_design/utils/SSSP/Ta_pbe_v1.uspp.F.UPF
     MD5 check sum: f8bbe9446314a3b8ea5d9f3e3836c939
     Pseudo is Ultrasoft + core correction, Zval = 13.0
     Generated by new atomic code, or converted to UPF format
     Using radial grid of  921 points,  7 beta functions with:
                l(1) =   0
                l(2) =   0
                l(3) =   1
                l(4) =   1
                l(5) =   2
                l(6) =   2
                l(7) =   3
     Q(r) pseudized with  6 coefficients,  rinner =    1.300   1.300   1.300
                                                       1.300   1.300   1.300
                                                       1.300

     PseudoPot. # 4 for O  read from file:
     /lustre07/scratch/pragov/crystal_structure_design/utils/SSSP/O.pbe-n-kjpaw_psl.0.1.UPF
     MD5 check sum: 0234752ac141de4415c5fc33072bef88
     Pseudo is Projector augmented-wave + core cor, Zval =  6.0
     Generated using "atomic" code by A. Dal Corso  v.5.0.99 svn rev. 10869
     Shape of augmentation charge: BESSEL
     Using radial grid of 1095 points,  4 beta functions with:
                l(1) =   0
                l(2) =   0
                l(3) =   1
                l(4) =   1
     Q(r) pseudized with 0 coefficients

     atomic species   valence    mass     pseudopotential
        K              9.00    39.09830     K ( 1.00)
        Sr            10.00    87.62000     Sr( 1.00)
        Ta            13.00   180.94788     Ta( 1.00)
        O              6.00    15.99900     O ( 1.00)

      4 Sym. Ops., with inversion, found

                                    s                        frac. trans.

      isym =  1     identity

 cryst.   s( 1) = (     1          0          0      )
                  (     0          1          0      )
                  (     0          0          1      )

 cart.    s( 1) = (  1.0000000  0.0000000  0.0000000 )
                  (  0.0000000  1.0000000  0.0000000 )
                  (  0.0000000  0.0000000  1.0000000 )

      isym =  2     180 deg rotation - cart. axis [0,0,1]

[...]

      isym =  3     inversion

[...]

      isym =  4     inv. 180 deg rotation - cart. axis [0,0,1]

 cryst.   s( 4) = (     1          0          0      )
                  (     0          1          0      )
                  (    -1         -1         -1      )

 cart.    s( 4) = (  1.0000000  0.0000000 -0.0000000 )
                  (  0.0000000  1.0000000 -0.0000000 )
                  (  0.0000000  0.0000000 -1.0000000 )

   Cartesian axes

     site n.     atom                  positions (alat units)
         1           K   tau(   1) = (   1.5135066   0.3893364   0.0000000  )
         2           K   tau(   2) = (   0.3623614   0.0932143   0.0000000  )
         3           Sr  tau(   3) = (   0.0000000   0.0000000   0.0000000  )
         4           Ta  tau(   4) = (   1.1181411   0.2876321   0.0000000  )
         5           Ta  tau(   5) = (   0.7577269   0.1949186   0.0000000  )
         6           O   tau(   6) = (   0.9379340   0.2412754   0.0000000  )
         7           O   tau(   7) = (   0.5985689   0.1539766   0.0000000  )
         8           O   tau(   8) = (   1.2772992   0.3285741   0.0000000  )
         9           O   tau(   9) = (   0.8050480   0.0784710   0.1245652  )
        10           O   tau(  10) = (   0.7429820   0.3197463   0.1245652  )
        11           O   tau(  11) = (   0.1949520  -0.0784710   0.1245652  )
        12           O   tau(  12) = (   0.1328860   0.1628044   0.1245652  )

   Crystallographic axes

     site n.     atom                  positions (cryst. coord.)
         1           K   tau(   1) = (  0.8068300  0.8068300  0.0000000  )
         2           K   tau(   2) = (  0.1931700  0.1931700  0.0000000  )
         3           Sr  tau(   3) = (  0.0000000  0.0000000  0.0000000  )
         4           Ta  tau(   4) = (  0.5960660  0.5960660  0.0000000  )
         5           Ta  tau(   5) = (  0.4039340  0.4039340  0.0000000  )
         6           O   tau(   6) = (  0.5000000  0.5000000  0.0000000  )
         7           O   tau(   7) = (  0.3190890  0.3190890  0.0000000  )
         8           O   tau(   8) = (  0.6809110  0.6809110  0.0000000  )
         9           O   tau(   9) = (  0.9126170  0.4126170  0.5000000  )
        10           O   tau(  10) = (  0.4126170  0.9126170  0.5000000  )
        11           O   tau(  11) = (  0.5873830  0.0873830  0.5000000  )
        12           O   tau(  12) = (  0.0873830  0.5873830  0.5000000  )

     number of k points=    10
                       cart. coord. in units 2pi/alat
        k(    1) = (   0.0000000   0.0000000   0.0000000), wk =   0.0740741
        k(    2) = (   0.0000000   0.0000000   1.3379870), wk =   0.1481481
        k(    3) = (   0.0000000   0.6907737   0.6689935), wk =   0.2962963
        k(    4) = (   0.0000000   0.6907737   2.0069805), wk =   0.1481481
        k(    5) = (   0.3333333  -0.6050266   0.6689935), wk =   0.2962963
        k(    6) = (   0.3333333  -0.6050266   2.0069805), wk =   0.1481481
        k(    7) = (   0.3333333   0.0857471   1.3379870), wk =   0.2962963
        k(    8) = (   0.3333333   0.0857471  -0.0000000), wk =   0.1481481
        k(    9) = (   0.3333333  -1.2958002  -0.0000000), wk =   0.1481481
        k(   10) = (   0.3333333  -1.2958002   1.3379870), wk =   0.2962963

                       cryst. coord.
        k(    1) = (   0.0000000   0.0000000   0.0000000), wk =   0.0740741
        k(    2) = (   0.0000000   0.0000000   0.3333333), wk =   0.1481481
        k(    3) = (   0.0000000   0.3333333   0.0000000), wk =   0.2962963
        k(    4) = (   0.0000000   0.3333333   0.3333333), wk =   0.1481481
        k(    5) = (   0.3333333   0.0000000  -0.0000000), wk =   0.2962963
        k(    6) = (   0.3333333   0.0000000   0.3333333), wk =   0.1481481
        k(    7) = (   0.3333333   0.3333333  -0.0000000), wk =   0.2962963
        k(    8) = (   0.3333333   0.3333333  -0.3333333), wk =   0.1481481
        k(    9) = (   0.3333333  -0.3333333  -0.0000000), wk =   0.1481481
        k(   10) = (   0.3333333  -0.3333333   0.3333333), wk =   0.2962963

     Check: negative core charge=   -0.000009

     Initial potential from superposition of free atoms

     starting charge      95.9265, renormalised to      96.0000

     negative rho (up, down):  2.522E-01 0.000E+00
     Starting wfcs are   83 randomized atomic wfcs
     Checking if some PAW data can be deallocated...

     Self-consistent Calculation

     iteration #  1     ecut=    30.00 Ry     beta= 0.70
     Davidson diagonalization with overlap

     ethr =  1.00E-02,  avg # of iterations =  4.7

     negative rho (up, down):  2.539E-01 0.000E+00

     total energy              =    -870.63639305 Ry
     estimated scf accuracy    <       3.68333119 Ry

[...]

     c_bands:  1 eigenvalues not converged
     ethr =  4.62E-05,  avg # of iterations =  9.0

[...]

     total energy              =    -872.54912512 Ry
     estimated scf accuracy    <       0.00000393 Ry

     iteration # 12     ecut=    30.00 Ry     beta= 0.70
     Davidson diagonalization with overlap

     ethr =  4.09E-09,  avg # of iterations =  2.2

     negative rho (up, down):  2.590E-01 0.000E+00

     End of self-consistent calculation

          k = 0.0000 0.0000 0.0000 (  3345 PWs)   bands (ev):

   -59.8609 -59.8608 -26.4132 -26.4132 -26.4124 -26.4124 -26.3543 -26.3314
   -25.1564 -20.5569 -20.5115 -10.2533 -10.1271  -9.5275  -9.5091  -8.6972
    -8.2651  -7.8951  -7.1282  -7.1282  -6.9591  -4.1773  -4.0519  -4.0519
    -3.9390  -3.9390  -3.9283   3.6406   4.6206   4.6207   4.7624   4.7625
     5.1110   5.4606   5.4651   5.7029   5.8221   5.8221   6.0494   6.0494
     6.0916   6.4369   6.4369   6.5072   6.5072   7.0955   7.0956   7.1660
     9.7279   9.8333  11.3916  11.3916  12.3396  12.3396  12.4567  13.8650
    13.8818  14.1086  14.2082  14.3574  14.4278  14.4763  15.6976  15.8893

     occupation numbers
     1.0000   1.0000   1.0000   1.0000   1.0000   1.0000   1.0000   1.0000
     1.0000   1.0000   1.0000   1.0000   1.0000   1.0000   1.0000   1.0000
     1.0000   1.0000   1.0000   1.0000   1.0000   1.0000   1.0000   1.0000
     1.0000   1.0000   1.0000   1.0000   1.0000   1.0000   1.0000   1.0000
     1.0000   1.0000   1.0000   1.0000   1.0000   1.0000   1.0000   1.0000
     1.0000   1.0000   1.0000   1.0000   1.0000   1.0000   1.0000   1.0000
     0.0000   0.0000   0.0000   0.0000   0.0000   0.0000   0.0000   0.0000
     0.0000   0.0000   0.0000   0.0000   0.0000   0.0000   0.0000   0.0000

[...]

          k = 0.3333-1.2958 1.3380 (  3322 PWs)   bands (ev):

   -59.8604 -59.8603 -26.4790 -26.4761 -26.4108 -26.4101 -26.3491 -26.3286
   -25.1457 -20.5355 -20.5127 -10.0140  -9.8756  -9.1456  -9.0605  -8.7742
    -8.3040  -8.0639  -7.1011  -7.0033  -6.8008  -4.1370  -4.0349  -3.9976
    -3.9741  -3.9414  -3.9407   2.7594   2.8357   3.6089   3.8372   4.5414
     4.5656   4.6224   5.0902   5.4690   5.5294   5.5332   5.5921   5.7288
     5.7512   6.0080   6.0082   6.3129   6.7325   6.9078   7.1294   7.3617
    11.5102  11.7148  11.7961  12.3221  12.3583  12.5817  14.0298  14.4404
    14.6737  14.7761  15.0847  15.4418  15.8723  16.1236  16.2349  16.5125

     occupation numbers
     1.0000   1.0000   1.0000   1.0000   1.0000   1.0000   1.0000   1.0000
     1.0000   1.0000   1.0000   1.0000   1.0000   1.0000   1.0000   1.0000
     1.0000   1.0000   1.0000   1.0000   1.0000   1.0000   1.0000   1.0000
     1.0000   1.0000   1.0000   1.0000   1.0000   1.0000   1.0000   1.0000
     1.0000   1.0000   1.0000   1.0000   1.0000   1.0000   1.0000   1.0000
     1.0000   1.0000   1.0000   1.0000   1.0000   1.0000   1.0000   1.0000
     0.0000   0.0000   0.0000   0.0000   0.0000   0.0000   0.0000   0.0000
     0.0000   0.0000   0.0000   0.0000   0.0000   0.0000   0.0000   0.0000

     highest occupied, lowest unoccupied level (ev):     7.4560    9.7279

!    total energy              =    -872.54912501 Ry
     estimated scf accuracy    <       0.00000059 Ry

     The total energy is the sum of the following terms:
     one-electron contribution =    -284.52998099 Ry
     hartree contribution      =     189.92377541 Ry
     xc contribution           =    -177.68426986 Ry
     ewald contribution        =    -422.78163844 Ry
     one-center paw contrib.   =    -177.47701112 Ry
      -> PAW hartree energy AE =      75.67639256 Ry
      -> PAW hartree energy PS =     -75.25536244 Ry
      -> PAW xc energy AE      =    -132.47278330 Ry
      -> PAW xc energy PS      =      21.21613695 Ry
      -> total E_H with PAW    =     190.34480553 Ry
      -> total E_XC with PAW   =    -288.94091621 Ry

     convergence has been achieved in  12 iterations

     Writing all to output data dir bands_nm/myprefix.save/

     General routines

     Parallel routines

     PAW routines

   This run was terminated on:   1:28:23  14Jul2023

   JOB DONE.