     Program PWSCF v.7.1 starts on 13Jul2023 at  2:53:13

     Reading input from espresso_12708.pwi
Warning: card &CELL ignored
Warning: card / ignored

     Current dimensions of program PWSCF are:
     Max number of different atomic species (ntypx) = 10
     Max number of k-points (npk) =  40000
     Max angular momentum in pseudopotentials (lmaxx) =  4
     file Ba.pbe-spn-kjpaw_psl.1.0.0.UPF: wavefunction(s)  5S 6S renormalized
     file O.pbe-n-kjpaw_psl.0.1.UPF: wavefunction(s)  2P renormalized
     Message from routine setup:
     using ibrav=0 with symmetry is DISCOURAGED, use correct ibrav instead

     K-points division:     npool     =       2
     R & G space division:  proc/nbgrp/npool/nimage =       8
     Subspace diagonalization in iterative solution of the eigenvalue problem:
     a serial algorithm will be used

     Using Slab Decomposition

     bravais-lattice index     =            0
     lattice parameter (alat)  =      18.7621  a.u.
     unit-cell volume          =    1052.9911 (a.u.)^3
     number of atoms/cell      =            6
     number of atomic types    =            4
     number of electrons       =        58.00
     number of Kohn-Sham states=           64
     kinetic-energy cutoff     =      30.0000  Ry
     charge density cutoff     =     240.0000  Ry
     scf convergence threshold =      1.0E-06
     mixing beta               =       0.7000
     number of iterations used =            8  plain     mixing
     Exchange-correlation= SLA  PW   PBX  PBC
                           (   1   4   3   4   0   0   0)

     celldm(1)=  18.762081  celldm(2)=   0.000000  celldm(3)=   0.000000
     celldm(4)=   0.000000  celldm(5)=   0.000000  celldm(6)=   0.000000

     crystal axes: (cart. coord. in units of alat)
               a(1) = (   1.000000   0.000000   0.000000 )
               a(2) = (   0.904886   0.425655   0.000000 )
               a(3) = (   0.904886   0.202201   0.374562 )

     reciprocal axes: (cart. coord. in units 2 pi/alat)
               b(1) = (  1.000000 -2.125867 -1.268238 )
               b(2) = (  0.000000  2.349322 -1.268238 )
               b(3) = (  0.000000  0.000000  2.669782 )

     PseudoPot. # 1 for Ba read from file:
     /lustre07/scratch/pragov/crystal_structure_design/utils/SSSP/Ba.pbe-spn-kjpaw_psl.1.0.0.UPF
     MD5 check sum: c432291d3e53af55f19d5e8866385beb
     Pseudo is Projector augmented-wave + core cor, Zval = 10.0
     Generated using "atomic" code by A. Dal Corso  v.5.1
     Shape of augmentation charge: PSQ
     Using radial grid of 1251 points,  7 beta functions with:
                l(1) =   0
                l(2) =   0
                l(3) =   0
                l(4) =   1
                l(5) =   1
                l(6) =   2
                l(7) =   2
     Q(r) pseudized with 0 coefficients

     PseudoPot. # 2 for Cu read from file:
     /lustre07/scratch/pragov/crystal_structure_design/utils/SSSP/Cu_pbe_v1.2.uspp.F.UPF
     MD5 check sum: 6e991ff952a84172a2a52a1c1e996048
     Pseudo is Ultrasoft + core correction, Zval = 19.0
     Generated by new atomic code, or converted to UPF format
     Using radial grid of  867 points,  6 beta functions with:
                l(1) =   0
                l(2) =   0
                l(3) =   1
                l(4) =   1
                l(5) =   2
                l(6) =   2
     Q(r) pseudized with  8 coefficients,  rinner =    1.150   1.150   1.150
                                                       1.150   1.150

     PseudoPot. # 3 for Cl read from file:
     /lustre07/scratch/pragov/crystal_structure_design/utils/SSSP/cl_pbe_v1.4.uspp.F.UPF
     MD5 check sum: fc6f6913ecf08c9257cb748ef0700058
     Pseudo is Ultrasoft + core correction, Zval =  7.0
     Generated by new atomic code, or converted to UPF format
     Using radial grid of  909 points,  6 beta functions with:
                l(1) =   0
                l(2) =   0
                l(3) =   1
                l(4) =   1
                l(5) =   2
                l(6) =   2
     Q(r) pseudized with  8 coefficients,  rinner =    1.300   1.300   1.300
                                                       1.300   1.300

     PseudoPot. # 4 for O  read from file:
     /lustre07/scratch/pragov/crystal_structure_design/utils/SSSP/O.pbe-n-kjpaw_psl.0.1.UPF
     MD5 check sum: 0234752ac141de4415c5fc33072bef88
     Pseudo is Projector augmented-wave + core cor, Zval =  6.0
     Generated using "atomic" code by A. Dal Corso  v.5.0.99 svn rev. 10869
     Shape of augmentation charge: BESSEL
     Using radial grid of 1095 points,  4 beta functions with:
                l(1) =   0
                l(2) =   0
                l(3) =   1
                l(4) =   1
     Q(r) pseudized with 0 coefficients

     atomic species   valence    mass     pseudopotential
        Ba            10.00   137.32700     Ba( 1.00)
        Cu            19.00    63.54600     Cu( 1.00)
        Cl             7.00    35.45000     Cl( 1.00)
        O              6.00    15.99900     O ( 1.00)

      2 Sym. Ops., with inversion, found

                                    s                        frac. trans.

      isym =  1     identity

 cryst.   s( 1) = (     1          0          0      )
                  (     0          1          0      )
                  (     0          0          1      )

 cart.    s( 1) = (  1.0000000  0.0000000  0.0000000 )
                  (  0.0000000  1.0000000  0.0000000 )
                  (  0.0000000  0.0000000  1.0000000 )

      isym =  2     inversion

 cryst.   s( 2) = (    -1          0          0      )
                  (     0         -1          0      )
                  (     0          0         -1      )

 cart.    s( 2) = ( -1.0000000  0.0000000  0.0000000 )
                  (  0.0000000 -1.0000000  0.0000000 )
                  (  0.0000000  0.0000000 -1.0000000 )

   Cartesian axes

     site n.     atom                  positions (alat units)
         1           Ba  tau(   1) = (   2.0936561   0.4678363   0.2790992  )
         2           Ba  tau(   2) = (   0.7161152   0.1600190   0.0954632  )
         3           Cu  tau(   3) = (   1.4048857   0.3139277   0.1872812  )
         4           Cl  tau(   4) = (   0.0000000   0.0000000   0.0000000  )
         5           O   tau(   5) = (   1.5819462   0.3534926   0.2108846  )
         6           O   tau(   6) = (   1.2278251   0.2743627   0.1636778  )

   Crystallographic axes

     site n.     atom                  positions (cryst. coord.)
         1           Ba  tau(   1) = (  0.7451340  0.7451340  0.7451340  )
         2           Ba  tau(   2) = (  0.2548660  0.2548660  0.2548660  )
         3           Cu  tau(   3) = (  0.5000000  0.5000000  0.5000000  )
         4           Cl  tau(   4) = (  0.0000000  0.0000000  0.0000000  )
         5           O   tau(   5) = (  0.5630160  0.5630160  0.5630160  )
         6           O   tau(   6) = (  0.4369840  0.4369840  0.4369840  )

     number of k points=    14
                       cart. coord. in units 2pi/alat
        k(    1) = (   0.0000000   0.0000000   0.0000000), wk =   0.0740741
        k(    2) = (   0.0000000   0.0000000   0.8899274), wk =   0.1481481
        k(    3) = (   0.0000000   0.7831072  -0.4227459), wk =   0.1481481
        k(    4) = (   0.0000000   0.7831072   0.4671815), wk =   0.1481481
        k(    5) = (   0.0000000   0.7831072  -1.3126732), wk =   0.1481481
        k(    6) = (   0.3333333  -0.7086225  -0.4227459), wk =   0.1481481
        k(    7) = (   0.3333333  -0.7086225   0.4671815), wk =   0.1481481
        k(    8) = (   0.3333333  -0.7086225  -1.3126732), wk =   0.1481481
        k(    9) = (   0.3333333   0.0744847  -0.8454917), wk =   0.1481481
        k(   10) = (   0.3333333   0.0744847   0.0444356), wk =   0.1481481
        k(   11) = (   0.3333333   0.0744847  -1.7354191), wk =   0.1481481
        k(   12) = (   0.3333333  -1.4917297  -0.0000000), wk =   0.1481481
        k(   13) = (   0.3333333  -1.4917297   0.8899274), wk =   0.1481481
        k(   14) = (   0.3333333  -1.4917297  -0.8899274), wk =   0.1481481

                       cryst. coord.
        k(    1) = (   0.0000000   0.0000000   0.0000000), wk =   0.0740741
        k(    2) = (   0.0000000   0.0000000   0.3333333), wk =   0.1481481
        k(    3) = (   0.0000000   0.3333333   0.0000000), wk =   0.1481481
        k(    4) = (   0.0000000   0.3333333   0.3333333), wk =   0.1481481
        k(    5) = (   0.0000000   0.3333333  -0.3333333), wk =   0.1481481
        k(    6) = (   0.3333333   0.0000000   0.0000000), wk =   0.1481481
        k(    7) = (   0.3333333   0.0000000   0.3333333), wk =   0.1481481
        k(    8) = (   0.3333333   0.0000000  -0.3333333), wk =   0.1481481
        k(    9) = (   0.3333333   0.3333333  -0.0000000), wk =   0.1481481
        k(   10) = (   0.3333333   0.3333333   0.3333333), wk =   0.1481481
        k(   11) = (   0.3333333   0.3333333  -0.3333333), wk =   0.1481481
        k(   12) = (   0.3333333  -0.3333333   0.0000000), wk =   0.1481481
        k(   13) = (   0.3333333  -0.3333333   0.3333333), wk =   0.1481481
        k(   14) = (   0.3333333  -0.3333333  -0.3333333), wk =   0.1481481

     Check: negative core charge=   -0.000005

     Initial potential from superposition of free atoms

     starting charge      56.9660, renormalised to      58.0000

     negative rho (up, down):  1.495E-02 0.000E+00
     Starting wfcs are   35 randomized atomic wfcs +   29 random wfcs
     Checking if some PAW data can be deallocated...

     Self-consistent Calculation

     iteration #  1     ecut=    30.00 Ry     beta= 0.70
     Davidson diagonalization with overlap

     ethr =  1.00E-02,  avg # of iterations =  6.4

     negative rho (up, down):  6.396E-02 0.000E+00

     total energy              =   -1389.65906489 Ry
     estimated scf accuracy    <       4.92542169 Ry

[...]

     total energy              =   -1393.22171034 Ry
     estimated scf accuracy    <       0.00000101 Ry

     iteration # 15     ecut=    30.00 Ry     beta= 0.70
     Davidson diagonalization with overlap

     ethr =  1.75E-09,  avg # of iterations =  2.0

     negative rho (up, down):  1.475E-02 0.000E+00

     End of self-consistent calculation

          k = 0.0000 0.0000 0.0000 (  2899 PWs)   bands (ev):

  -105.1677 -62.7310 -62.4498 -62.4498 -20.4970 -20.4903 -10.8032 -10.5650
    -9.2825  -5.6932  -5.5796  -5.4934  -5.4934  -5.4905  -5.4905   1.8952
     2.2781   2.7122   2.7122   3.0632   3.0632   3.6657   3.8958   3.8958
     4.4189   4.9291   4.9291   5.8450   5.8450   8.4075   9.6641  10.5370
    10.9158  10.9158  11.0814  11.6618  11.6618  12.0527  12.5447  12.5447
    13.8191  13.8191  14.9863  14.9863  14.9949  15.3087  15.3087  15.8076
    17.0005  17.8625  18.4846  18.4846  18.6364  19.6191  19.6191  20.4689
    20.4689  20.8330  22.3360  22.5343  23.2041  23.2041  23.4477  23.4477

     occupation numbers
     1.0000   1.0000   1.0000   1.0000   1.0000   1.0000   1.0000   1.0000
     1.0000   1.0000   1.0000   1.0000   1.0000   1.0000   1.0000   1.0000
     1.0000   1.0000   1.0000   1.0000   1.0000   1.0000   1.0000   1.0000
     1.0000   1.0000   1.0000   1.0000   1.0000   0.0000   0.0000   0.0000
     0.0000   0.0000   0.0000   0.0000   0.0000   0.0000   0.0000   0.0000
     0.0000   0.0000   0.0000   0.0000   0.0000   0.0000   0.0000   0.0000
     0.0000   0.0000   0.0000   0.0000   0.0000   0.0000   0.0000   0.0000
     0.0000   0.0000   0.0000   0.0000   0.0000   0.0000   0.0000   0.0000

[...]

          k = 0.3333-1.4917-0.8899 (  2935 PWs)   bands (ev):

  -105.1689 -62.7331 -62.4528 -62.4516 -20.4407 -20.4386 -11.0288 -10.8112
    -9.2120  -5.8303  -5.7953  -5.6320  -5.6149  -5.3674  -5.3002   1.9592
     2.2763   2.3322   2.6632   3.2103   3.3069   3.5999   4.0499   4.2036
     4.8143   4.9899   5.1182   5.8816   6.0446   8.7619   9.7564  10.5174
    10.6722  10.9346  11.1549  11.6301  11.7955  12.1175  12.9824  13.1561
    13.6609  13.8168  13.8389  14.6328  14.8644  15.3302  16.8714  17.0173
    17.3291  18.2000  18.3051  19.0326  19.3983  19.7752  20.2037  20.6758
    20.9818  21.0242  21.2089  21.9323  22.3362  22.5268  23.2008  23.4155

     occupation numbers
     1.0000   1.0000   1.0000   1.0000   1.0000   1.0000   1.0000   1.0000
     1.0000   1.0000   1.0000   1.0000   1.0000   1.0000   1.0000   1.0000
     1.0000   1.0000   1.0000   1.0000   1.0000   1.0000   1.0000   1.0000
     1.0000   1.0000   1.0000   1.0000   1.0000   0.0000   0.0000   0.0000
     0.0000   0.0000   0.0000   0.0000   0.0000   0.0000   0.0000   0.0000
     0.0000   0.0000   0.0000   0.0000   0.0000   0.0000   0.0000   0.0000
     0.0000   0.0000   0.0000   0.0000   0.0000   0.0000   0.0000   0.0000
     0.0000   0.0000   0.0000   0.0000   0.0000   0.0000   0.0000   0.0000

     highest occupied, lowest unoccupied level (ev):     6.0843    8.4075

!    total energy              =   -1393.22171041 Ry
     estimated scf accuracy    <       0.00000011 Ry

     The total energy is the sum of the following terms:
     one-electron contribution =    -559.59445857 Ry
     hartree contribution      =     305.48796875 Ry
     xc contribution           =    -103.74839086 Ry
     ewald contribution        =    -266.40587951 Ry
     one-center paw contrib.   =    -768.96095021 Ry
      -> PAW hartree energy AE =      28.78839515 Ry
      -> PAW hartree energy PS =     -28.67823077 Ry
      -> PAW xc energy AE      =    -394.23859683 Ry
      -> PAW xc energy PS      =      19.17274631 Ry
      -> total E_H with PAW    =     305.59813313 Ry
      -> total E_XC with PAW   =    -478.81424138 Ry

     convergence has been achieved in  15 iterations

     Writing all to output data dir bands_nm/myprefix.save/

     General routines

     Parallel routines

     PAW routines

   This run was terminated on:   2:53:34  13Jul2023

   JOB DONE.