     Program PWSCF v.7.1 starts on 16Jul2023 at 23:51:37

     Reading input from espresso_23889.pwi
Warning: card &CELL ignored
Warning: card / ignored

     Current dimensions of program PWSCF are:
     Max number of different atomic species (ntypx) = 10
     Max number of k-points (npk) =  40000
     Max angular momentum in pseudopotentials (lmaxx) =  4
     file Mg.pbe-n-kjpaw_psl.0.3.0.UPF: wavefunction(s)  3S renormalized
     file In.pbe-dn-rrkjus_psl.0.2.2.UPF: wavefunction(s)  5S renormalized
     Message from routine setup:
     using ibrav=0 with symmetry is DISCOURAGED, use correct ibrav instead

     K-points division:     npool     =       2
     R & G space division:  proc/nbgrp/npool/nimage =       4
     Subspace diagonalization in iterative solution of the eigenvalue problem:
     one sub-group per band group will be used

     Using Slab Decomposition

     bravais-lattice index     =            0
     lattice parameter (alat)  =      14.4581  a.u.
     unit-cell volume          =    2143.1252 (a.u.)^3
     number of atoms/cell      =           18
     number of atomic types    =            4
     number of electrons       =       132.00
     number of Kohn-Sham states=          256
     kinetic-energy cutoff     =      30.0000  Ry
     charge density cutoff     =     240.0000  Ry
     scf convergence threshold =      1.0E-06
     mixing beta               =       0.7000
     number of iterations used =            8  plain     mixing
     Exchange-correlation=  SLA  PW   PBX  PBC
                           (   1   4   3   4   0   0   0)

     celldm(1)=  14.458057  celldm(2)=   0.000000  celldm(3)=   0.000000
     celldm(4)=   0.000000  celldm(5)=   0.000000  celldm(6)=   0.000000

     crystal axes: (cart. coord. in units of alat)
               a(1) = (   1.000000   0.000000   0.000000 )
               a(2) = (  -0.007516   0.999972   0.000000 )
               a(3) = (  -0.475151  -0.520919   0.709137 )

     reciprocal axes: (cart. coord. in units 2 pi/alat)
               b(1) = (  1.000000  0.007516  0.675562 )
               b(2) = (  0.000000  1.000028  0.734603 )
               b(3) = (  0.000000  0.000000  1.410165 )

     PseudoPot. # 1 for Cs read from file:
     /lustre07/scratch/pragov/crystal_structure_design/utils/SSSP/Cs_pbe_v1.uspp.F.UPF
     MD5 check sum: 3476d69cb178dfad3ffaa59df4e07ca4
     Pseudo is Ultrasoft + core correction, Zval =  9.0
     Generated by new atomic code, or converted to UPF format
     Using radial grid of  905 points,  6 beta functions with:
                l(1) =   0
                l(2) =   0
                l(3) =   1
                l(4) =   1
                l(5) =   2
                l(6) =   2
     Q(r) pseudized with  6 coefficients,  rinner =    1.500   1.500   1.500
                                                       1.500   1.500

     PseudoPot. # 2 for Mg read from file:
     /lustre07/scratch/pragov/crystal_structure_design/utils/SSSP/Mg.pbe-n-kjpaw_psl.0.3.0.UPF
     MD5 check sum: 24ecedc7f3e3cbe212e682f4413594e4
     Pseudo is Projector augmented-wave + core cor, Zval =  2.0
     Generated using "atomic" code by A. Dal Corso  v.5.0.99 svn rev. 10869
     Shape of augmentation charge: PSQ
     Using radial grid of 1129 points,  4 beta functions with:
                l(1) =   0
                l(2) =   0
                l(3) =   1
                l(4) =   1
     Q(r) pseudized with 0 coefficients

     PseudoPot. # 3 for In read from file:
     /lustre07/scratch/pragov/crystal_structure_design/utils/SSSP/In.pbe-dn-rrkjus_psl.0.2.2.UPF
     MD5 check sum: 25e7c42c3b55b68f4bf926be2e7201a4
     Pseudo is Ultrasoft + core correction, Zval = 13.0
     Generated using "atomic" code by A. Dal Corso  v.5.0.99 svn rev. 10869
     Using radial grid of 1241 points,  6 beta functions with:
                l(1) =   0
                l(2) =   0
                l(3) =   1
                l(4) =   1
                l(5) =   2
                l(6) =   2
     Q(r) pseudized with 0 coefficients

     PseudoPot. # 4 for F  read from file:
     /lustre07/scratch/pragov/crystal_structure_design/utils/SSSP/f_pbe_v1.4.uspp.F.UPF
     MD5 check sum: 4c38b6a325caf53ec0e86aed9459de46
     Pseudo is Ultrasoft, Zval =  7.0
     Generated by new atomic code, or converted to UPF format
     Using radial grid of  799 points,  4 beta functions with:
                l(1) =   0
                l(2) =   0
                l(3) =   1
                l(4) =   1
     Q(r) pseudized with  8 coefficients,  rinner =    0.950   0.950   0.950

     atomic species   valence    mass     pseudopotential
        Cs             9.00   132.90545     Cs( 1.00)
        Mg             2.00    24.30500     Mg( 1.00)
        In            13.00   114.81800     In( 1.00)
        F              7.00    18.99840     F ( 1.00)

      2 Sym. Ops., with inversion, found

                                    s                        frac. trans.

      isym =  1     identity

 cryst.   s( 1) = (     1          0          0      )
                  (     0          1          0      )
                  (     0          0          1      )

 cart.    s( 1) = (  1.0000000 -0.0000000  0.0000000 )
                  (  0.0000000  1.0000000  0.0000000 )
                  (  0.0000000  0.0000000  1.0000000 )

      isym =  2     inversion

 cryst.   s( 2) = (    -1          0          0      )
                  (     0         -1          0      )
                  (     0          0         -1      )

 cart.    s( 2) = ( -1.0000000  0.0000000  0.0000000 )
                  (  0.0000000 -1.0000000  0.0000000 )
                  (  0.0000000  0.0000000 -1.0000000 )

   Cartesian axes

     site n.     atom                  positions (alat units)
         1           Cs  tau(   1) = (   0.7333702   0.4764711   0.1772842  )
         2           Cs  tau(   2) = (  -0.2160369   0.0025815   0.5318526  )
         3           Mg  tau(   3) = (   0.5000000   0.0000000   0.0000000  )
         4           Mg  tau(   4) = (   0.2586666   0.2395263   0.3545684  )
         5           In  tau(   5) = (   0.2624246  -0.2604596   0.3545684  )
         6           In  tau(   6) = (   0.0000000   0.0000000   0.0000000  )
         7           F   tau(   7) = (   0.2510845  -0.0072895   0.4536773  )
         8           F   tau(   8) = (   0.4611217   0.2929273   0.5187584  )
         9           F   tau(   9) = (   0.0767282  -0.3180685   0.5449468  )
        10           F   tau(  10) = (  -0.2294185   0.4696165   0.6100278  )
        11           F   tau(  11) = (   0.2662488   0.4863420   0.2554594  )
        12           F   tau(  12) = (   0.0562116   0.1861252   0.1903784  )
        13           F   tau(  13) = (   0.4406051   0.7971210   0.1641900  )
        14           F   tau(  14) = (   0.7467518   0.0094360   0.0991090  )
        15           F   tau(  15) = (   0.4756767  -0.3080308   0.5318526  )
        16           F   tau(  16) = (   0.0416566   0.7870833   0.1772842  )
        17           F   tau(  17) = (   0.4301356   0.1709487   0.1772842  )
        18           F   tau(  18) = (   0.0871977   0.3081038   0.5318526  )

   Crystallographic axes

     site n.     atom                  positions (cryst. coord.)
         1           Cs  tau(   1) = (  0.8567180  0.6067180  0.2500000  )
         2           Cs  tau(   2) = (  0.1432820  0.3932820  0.7500000  )
         3           Mg  tau(   3) = (  0.5000000  0.0000000  0.0000000  )
         4           Mg  tau(   4) = (  0.5000000  0.5000000  0.5000000  )
         5           In  tau(   5) = (  0.5000000  0.0000000  0.5000000  )
         6           In  tau(   6) = (  0.0000000  0.0000000  0.0000000  )
         7           F   tau(   7) = (  0.5575170  0.3259830  0.6397600  )
         8           F   tau(   8) = (  0.8137770  0.6740170  0.7315350  )
         9           F   tau(   9) = (  0.4424830  0.0822420  0.7684650  )
        10           F   tau(  10) = (  0.1862230  0.9177580  0.8602400  )
        11           F   tau(  11) = (  0.4424830  0.6740170  0.3602400  )
        12           F   tau(  12) = (  0.1862230  0.3259830  0.2684650  )
        13           F   tau(  13) = (  0.5575170  0.9177580  0.2315350  )
        14           F   tau(  14) = (  0.8137770  0.0822420  0.1397600  )
        15           F   tau(  15) = (  0.8326610  0.0826610  0.7500000  )
        16           F   tau(  16) = (  0.1673390  0.9173390  0.2500000  )
        17           F   tau(  17) = (  0.5511870  0.3011870  0.2500000  )
        18           F   tau(  18) = (  0.4488130  0.6988130  0.7500000  )

     number of k points=    14
                       cart. coord. in units 2pi/alat
        k(    1) = (   0.0000000   0.0000000   0.0000000), wk =   0.0740741
        k(    2) = (   0.0000000   0.0000000   0.4700551), wk =   0.1481481
        k(    3) = (   0.0000000   0.3333427   0.2448676), wk =   0.1481481
        k(    4) = (   0.0000000   0.3333427   0.7149227), wk =   0.1481481
        k(    5) = (   0.0000000   0.3333427  -0.2251874), wk =   0.1481481
        k(    6) = (   0.3333333   0.0025054   0.2251874), wk =   0.1481481
        k(    7) = (   0.3333333   0.0025054   0.6952425), wk =   0.1481481
        k(    8) = (   0.3333333   0.0025054  -0.2448676), wk =   0.1481481
        k(    9) = (   0.3333333   0.3358482   0.4700551), wk =   0.1481481
        k(   10) = (   0.3333333   0.3358482   0.9401101), wk =   0.1481481
        k(   11) = (   0.3333333   0.3358482   0.0000000), wk =   0.1481481
        k(   12) = (   0.3333333  -0.3308373  -0.0196802), wk =   0.1481481
        k(   13) = (   0.3333333  -0.3308373   0.4503749), wk =   0.1481481
        k(   14) = (   0.3333333  -0.3308373  -0.4897353), wk =   0.1481481

                       cryst. coord.
        k(    1) = (   0.0000000   0.0000000   0.0000000), wk =   0.0740741
        k(    2) = (   0.0000000   0.0000000   0.3333333), wk =   0.1481481
        k(    3) = (   0.0000000   0.3333333   0.0000000), wk =   0.1481481
        k(    4) = (   0.0000000   0.3333333   0.3333333), wk =   0.1481481
        k(    5) = (   0.0000000   0.3333333  -0.3333333), wk =   0.1481481
        k(    6) = (   0.3333333   0.0000000   0.0000000), wk =   0.1481481
        k(    7) = (   0.3333333   0.0000000   0.3333333), wk =   0.1481481
        k(    8) = (   0.3333333   0.0000000  -0.3333333), wk =   0.1481481
        k(    9) = (   0.3333333   0.3333333   0.0000000), wk =   0.1481481
        k(   10) = (   0.3333333   0.3333333   0.3333333), wk =   0.1481481
        k(   11) = (   0.3333333   0.3333333  -0.3333333), wk =   0.1481481
        k(   12) = (   0.3333333  -0.3333333   0.0000000), wk =   0.1481481
        k(   13) = (   0.3333333  -0.3333333   0.3333333), wk =   0.1481481
        k(   14) = (   0.3333333  -0.3333333  -0.3333333), wk =   0.1481481

     Initial potential from superposition of free atoms

     starting charge     131.9119, renormalised to     132.0000
     Starting wfcs are  100 randomized atomic wfcs +  156 random wfcs
     Checking if some PAW data can be deallocated...

     Self-consistent Calculation

     iteration #  1     ecut=    30.00 Ry     beta= 0.70
     Davidson diagonalization with overlap

     ethr =  1.00E-02,  avg # of iterations =  7.0

     total energy              =   -1067.27804002 Ry
     estimated scf accuracy    <       2.23581577 Ry

[...]

     c_bands:  1 eigenvalues not converged
     ethr =  1.83E-05,  avg # of iterations = 11.1

[...]

     c_bands:  1 eigenvalues not converged
     c_bands:  1 eigenvalues not converged
     ethr =  2.66E-09,  avg # of iterations =  5.9

     total energy              =   -1068.24373678 Ry
     estimated scf accuracy    <       0.00000153 Ry

     iteration #  8     ecut=    30.00 Ry     beta= 0.70
     Davidson diagonalization with overlap

     ethr =  1.16E-09,  avg # of iterations =  2.3

     End of self-consistent calculation

          k = 0.0000 0.0000 0.0000 (  5957 PWs)   bands (ev):

   -19.6604 -19.4743 -19.1407 -18.9791 -18.9515 -18.8514 -18.8481 -18.7960
   -18.7922 -18.7880 -17.7784 -17.7573 -16.7507 -16.7295 -10.2665 -10.0636
   -10.0294  -9.9737  -9.9734  -9.9714  -9.9660  -9.9390  -9.8970  -9.7423
    -3.7414  -3.6939  -3.6806  -3.5895  -3.5207  -3.4714  -3.3748  -2.7894
    -2.1885  -1.6582  -1.5767  -1.3899  -1.3184  -1.2526  -1.0120  -0.9594
    -0.5755  -0.4946  -0.3995  -0.3852  -0.3486  -0.2807  -0.0111  -0.0070
     0.0226   0.0977   0.1118   0.1146   0.2298   0.2473   0.2910   0.3122
     0.3908   0.4473   0.5263   0.6822   0.6929   0.6936   1.0981   1.1526
     1.2158   1.3405   5.7926   8.2453   9.5535   9.5741   9.6549   9.8646
    10.1424  10.1963  10.2006  10.5101  10.6873  11.2498  11.8505  12.0005
    12.1851  12.9464  13.1016  13.3630  13.4468  13.5037  13.5388  13.8393
    13.9029  13.9646  14.4294  15.0999  15.1660  15.7537  16.0337  16.0986
    16.5489  16.8128  17.0104  17.0130  17.2798  17.3841  17.4647  17.6575
    17.7998  17.8625  17.9441  18.0025  18.0790  18.4820  18.6039  18.6465
    18.6847  18.9492  19.4199  19.6399  19.6667  19.7952  20.0642  20.1246
    20.7680  20.8042  20.8459  21.0717  21.0985  21.2395  21.4780  21.5281
    21.6369  21.7575  21.8939  22.0251  22.0804  22.5032  22.9282  23.2428
    23.2950  23.3860  23.6610  23.8016  24.2510  24.5318  24.5919  24.6118
    24.7032  25.4500  25.5970  25.7308  25.9509  26.1320  26.1878  26.2361
    26.3118  26.3857  26.8228  26.8447  26.8527  27.0252  27.0348  27.0452
    27.0916  27.1509  27.5352  28.0149  28.0427  28.2526  29.1251  29.1738
    29.2309  29.2493  29.3549  29.4430  29.7162  29.7599  29.9294  29.9709
    30.2486  30.2538  30.5749  30.7206  30.8158  31.1672  31.2741  31.4056
    31.4622  31.5100  31.7958  31.8179  32.1606  32.4224  32.4735  32.5000
    32.5073  32.6940  32.9258  32.9839  33.2780  33.5318  33.5777  33.5798
    33.6759  33.6904  34.1576  34.2523  34.3381  34.4540  34.4737  34.4924
    34.6269  34.9810  35.2661  35.2832  35.3531  35.3756  35.4213  35.5734
    36.1156  36.2762  36.4975  36.6034  36.8543  37.0087  37.6859  37.8199
    37.8490  37.8814  37.8933  38.0121  38.1569  38.1714  38.1759  38.7104
    38.8219  38.8929  38.9780  38.9835  39.2169  39.2900  39.5012  39.5468
    39.5597  39.8225  39.8706  40.1335  40.4706  40.5839  40.6794  40.7483
    40.7975  40.8243  41.0368  41.1191  41.2270  41.4858  41.5047  41.7449

     occupation numbers
     1.0000   1.0000   1.0000   1.0000   1.0000   1.0000   1.0000   1.0000
     1.0000   1.0000   1.0000   1.0000   1.0000   1.0000   1.0000   1.0000
     1.0000   1.0000   1.0000   1.0000   1.0000   1.0000   1.0000   1.0000
     1.0000   1.0000   1.0000   1.0000   1.0000   1.0000   1.0000   1.0000
     1.0000   1.0000   1.0000   1.0000   1.0000   1.0000   1.0000   1.0000
     1.0000   1.0000   1.0000   1.0000   1.0000   1.0000   1.0000   1.0000
     1.0000   1.0000   1.0000   1.0000   1.0000   1.0000   1.0000   1.0000
     1.0000   1.0000   1.0000   1.0000   1.0000   1.0000   1.0000   1.0000
     1.0000   1.0000   0.0000   0.0000   0.0000   0.0000   0.0000   0.0000
     0.0000   0.0000   0.0000   0.0000   0.0000   0.0000   0.0000   0.0000
     0.0000   0.0000   0.0000   0.0000   0.0000   0.0000   0.0000   0.0000
     0.0000   0.0000   0.0000   0.0000   0.0000   0.0000   0.0000   0.0000
     0.0000   0.0000   0.0000   0.0000   0.0000   0.0000   0.0000   0.0000
     0.0000   0.0000   0.0000   0.0000   0.0000   0.0000   0.0000   0.0000
     0.0000   0.0000   0.0000   0.0000   0.0000   0.0000   0.0000   0.0000
     0.0000   0.0000   0.0000   0.0000   0.0000   0.0000   0.0000   0.0000
     0.0000   0.0000   0.0000   0.0000   0.0000   0.0000   0.0000   0.0000
     0.0000   0.0000   0.0000   0.0000   0.0000   0.0000   0.0000   0.0000
     0.0000   0.0000   0.0000   0.0000   0.0000   0.0000   0.0000   0.0000
     0.0000   0.0000   0.0000   0.0000   0.0000   0.0000   0.0000   0.0000
     0.0000   0.0000   0.0000   0.0000   0.0000   0.0000   0.0000   0.0000
     0.0000   0.0000   0.0000   0.0000   0.0000   0.0000   0.0000   0.0000
     0.0000   0.0000   0.0000   0.0000   0.0000   0.0000   0.0000   0.0000
     0.0000   0.0000   0.0000   0.0000   0.0000   0.0000   0.0000   0.0000
     0.0000   0.0000   0.0000   0.0000   0.0000   0.0000   0.0000   0.0000
     0.0000   0.0000   0.0000   0.0000   0.0000   0.0000   0.0000   0.0000
     0.0000   0.0000   0.0000   0.0000   0.0000   0.0000   0.0000   0.0000
     0.0000   0.0000   0.0000   0.0000   0.0000   0.0000   0.0000   0.0000
     0.0000   0.0000   0.0000   0.0000   0.0000   0.0000   0.0000   0.0000
     0.0000   0.0000   0.0000   0.0000   0.0000   0.0000   0.0000   0.0000
     0.0000   0.0000   0.0000   0.0000   0.0000   0.0000   0.0000   0.0000
     0.0000   0.0000   0.0000   0.0000   0.0000   0.0000   0.0000   0.0000

[...]

          k = 0.3333-0.3308-0.4897 (  5940 PWs)   bands (ev):

   -19.6526 -19.4754 -19.0516 -19.0136 -18.9646 -18.9235 -18.8624 -18.8375
   -18.7887 -18.7199 -17.7670 -17.7623 -16.7447 -16.7346 -10.2708 -10.0633
   -10.0283  -9.9739  -9.9730  -9.9718  -9.9662  -9.9141  -9.9137  -9.7338
    -3.7042  -3.6711  -3.6179  -3.5757  -3.5211  -3.5110  -3.4388  -2.6906
    -2.2030  -1.9731  -1.7115  -1.3735  -1.1574  -1.0135  -0.9079  -0.8223
    -0.5522  -0.4485  -0.4066  -0.3743  -0.3379  -0.2860  -0.2403  -0.0925
    -0.0511  -0.0134  -0.0102   0.1762   0.1792   0.1966   0.2628   0.3709
     0.3889   0.4841   0.5335   0.5375   0.5915   0.7318   1.1204   1.2311
     1.2447   1.3952   6.5924   7.9792   9.2825   9.3343   9.5865   9.8968
    10.1318  10.5971  10.7152  10.8400  11.2192  11.2755  11.5665  11.7196
    12.0078  12.1697  12.8991  12.9032  12.9685  13.5605  13.8198  13.8569
    14.0356  14.0983  14.5790  14.6651  15.5311  15.7472  15.8165  16.4795
    16.5306  16.6213  16.9172  16.9427  16.9933  17.3307  17.5780  17.6587
    17.6668  17.8011  17.9128  17.9357  18.0205  18.3797  18.5293  18.6193
    19.0397  19.6244  19.6273  19.6566  20.0897  20.2809  20.4712  20.5606
    20.5913  20.6392  20.8193  20.8815  21.2753  21.2967  21.3077  21.3854
    21.4625  21.5446  21.7428  21.7904  22.0968  22.1897  22.8575  23.1369
    23.2821  23.4388  23.4953  23.6148  24.4508  24.6458  24.6748  24.7529
    24.7998  24.8226  25.0148  25.3462  25.7869  25.9496  25.9765  25.9882
    26.2881  26.6005  26.7314  26.7807  26.8841  27.1283  27.3937  27.4536
    27.6986  28.2963  28.3250  28.6063  28.9109  28.9663  28.9727  28.9797
    29.0342  29.3525  29.5517  29.5905  29.6465  29.6762  29.9628  30.2783
    30.3327  30.3487  30.4407  30.4897  30.5141  30.7552  31.0680  31.2382
    31.2853  31.3929  31.7003  31.7488  31.8206  31.8679  32.0909  32.2730
    32.4330  32.4962  32.7199  32.8914  33.0222  33.2804  33.3710  33.5937
    33.9392  33.9692  33.9737  34.2516  34.3475  34.5643  34.6845  34.7949
    34.8212  35.2859  35.3133  35.3428  35.8167  35.9645  36.0673  36.1366
    36.1667  36.1897  36.3530  36.7422  36.9529  37.0404  37.1046  37.1192
    37.1985  37.5773  37.6869  37.9648  38.0757  38.0965  38.3666  38.5902
    38.7440  38.8765  39.1274  39.1525  39.2197  39.4921  39.5733  39.6696
    39.6698  39.8346  39.9736  40.1679  40.2585  40.2661  40.5241  40.6068
    40.7418  40.8819  41.1157  41.2435  41.3128  41.3919  41.4006  41.4164

     occupation numbers
     1.0000   1.0000   1.0000   1.0000   1.0000   1.0000   1.0000   1.0000
     1.0000   1.0000   1.0000   1.0000   1.0000   1.0000   1.0000   1.0000
     1.0000   1.0000   1.0000   1.0000   1.0000   1.0000   1.0000   1.0000
     1.0000   1.0000   1.0000   1.0000   1.0000   1.0000   1.0000   1.0000
     1.0000   1.0000   1.0000   1.0000   1.0000   1.0000   1.0000   1.0000
     1.0000   1.0000   1.0000   1.0000   1.0000   1.0000   1.0000   1.0000
     1.0000   1.0000   1.0000   1.0000   1.0000   1.0000   1.0000   1.0000
     1.0000   1.0000   1.0000   1.0000   1.0000   1.0000   1.0000   1.0000
     1.0000   1.0000   0.0000   0.0000   0.0000   0.0000   0.0000   0.0000
     0.0000   0.0000   0.0000   0.0000   0.0000   0.0000   0.0000   0.0000
     0.0000   0.0000   0.0000   0.0000   0.0000   0.0000   0.0000   0.0000
     0.0000   0.0000   0.0000   0.0000   0.0000   0.0000   0.0000   0.0000
     0.0000   0.0000   0.0000   0.0000   0.0000   0.0000   0.0000   0.0000
     0.0000   0.0000   0.0000   0.0000   0.0000   0.0000   0.0000   0.0000
     0.0000   0.0000   0.0000   0.0000   0.0000   0.0000   0.0000   0.0000
     0.0000   0.0000   0.0000   0.0000   0.0000   0.0000   0.0000   0.0000
     0.0000   0.0000   0.0000   0.0000   0.0000   0.0000   0.0000   0.0000
     0.0000   0.0000   0.0000   0.0000   0.0000   0.0000   0.0000   0.0000
     0.0000   0.0000   0.0000   0.0000   0.0000   0.0000   0.0000   0.0000
     0.0000   0.0000   0.0000   0.0000   0.0000   0.0000   0.0000   0.0000
     0.0000   0.0000   0.0000   0.0000   0.0000   0.0000   0.0000   0.0000
     0.0000   0.0000   0.0000   0.0000   0.0000   0.0000   0.0000   0.0000
     0.0000   0.0000   0.0000   0.0000   0.0000   0.0000   0.0000   0.0000
     0.0000   0.0000   0.0000   0.0000   0.0000   0.0000   0.0000   0.0000
     0.0000   0.0000   0.0000   0.0000   0.0000   0.0000   0.0000   0.0000
     0.0000   0.0000   0.0000   0.0000   0.0000   0.0000   0.0000   0.0000
     0.0000   0.0000   0.0000   0.0000   0.0000   0.0000   0.0000   0.0000
     0.0000   0.0000   0.0000   0.0000   0.0000   0.0000   0.0000   0.0000
     0.0000   0.0000   0.0000   0.0000   0.0000   0.0000   0.0000   0.0000
     0.0000   0.0000   0.0000   0.0000   0.0000   0.0000   0.0000   0.0000
     0.0000   0.0000   0.0000   0.0000   0.0000   0.0000   0.0000   0.0000
     0.0000   0.0000   0.0000   0.0000   0.0000   0.0000   0.0000   0.0000

     highest occupied, lowest unoccupied level (ev):     1.3952    5.7926

!    total energy              =   -1068.24373714 Ry
     estimated scf accuracy    <       0.00000020 Ry

     The total energy is the sum of the following terms:
     one-electron contribution =    -605.56229923 Ry
     hartree contribution      =     383.90827778 Ry
     xc contribution           =    -272.34689426 Ry
     ewald contribution        =    -511.69760447 Ry
     one-center paw contrib.   =     -62.54521697 Ry
      -> PAW hartree energy AE =       0.79391595 Ry
      -> PAW hartree energy PS =      -0.79294759 Ry
      -> PAW xc energy AE      =     -32.58635596 Ry
      -> PAW xc energy PS      =       1.31277911 Ry
      -> total E_H with PAW    =     383.90924615 Ry
      -> total E_XC with PAW   =    -303.62047110 Ry

     convergence has been achieved in   8 iterations

     Writing all to output data dir bands_nm/myprefix.save/

     General routines

     Parallel routines

     PAW routines

   This run was terminated on:  23:53: 6  16Jul2023

   JOB DONE.