     Program PWSCF v.7.1 starts on 13Jul2023 at  6:47: 3

     Reading input from espresso_5676.pwi
Warning: card &CELL ignored
Warning: card / ignored

     Current dimensions of program PWSCF are:
     Max number of different atomic species (ntypx) = 10
     Max number of k-points (npk) =  40000
     Max angular momentum in pseudopotentials (lmaxx) =  4
     file O.pbe-n-kjpaw_psl.0.1.UPF: wavefunction(s)  2P renormalized
     Message from routine setup:
     using ibrav=0 with symmetry is DISCOURAGED, use correct ibrav instead

     K-points division:     npool     =       2
     R & G space division:  proc/nbgrp/npool/nimage =       8
     Subspace diagonalization in iterative solution of the eigenvalue problem:
     a serial algorithm will be used

     Using Slab Decomposition

     bravais-lattice index     =            0
     lattice parameter (alat)  =       9.6925  a.u.
     unit-cell volume          =    1535.9466 (a.u.)^3
     number of atoms/cell      =           19
     number of atomic types    =            4
     number of electrons       =       120.00
     number of Kohn-Sham states=           64
     kinetic-energy cutoff     =      30.0000  Ry
     charge density cutoff     =     240.0000  Ry
     scf convergence threshold =      1.0E-06
     mixing beta               =       0.7000
     number of iterations used =            8  plain     mixing
     Exchange-correlation= SLA  PW   PBX  PBC
                           (   1   4   3   4   0   0   0)

     celldm(1)=   9.692485  celldm(2)=   0.000000  celldm(3)=   0.000000
     celldm(4)=   0.000000  celldm(5)=   0.000000  celldm(6)=   0.000000

     crystal axes: (cart. coord. in units of alat)
               a(1) = (   1.000000   0.000000   0.000000 )
               a(2) = (  -0.307586   1.199483   0.000000 )
               a(3) = (   0.020484  -0.296782   1.406295 )

     reciprocal axes: (cart. coord. in units 2 pi/alat)
               b(1) = (  1.000000  0.256432  0.039551 )
               b(2) = (  0.000000  0.833692  0.175941 )
               b(3) = (  0.000000  0.000000  0.711088 )

     PseudoPot. # 1 for Sr read from file:
     /lustre07/scratch/pragov/crystal_structure_design/utils/SSSP/Sr_pbe_v1.uspp.F.UPF
     MD5 check sum: 6b418c05fbe9db5448babca5e47b7a5b
     Pseudo is Ultrasoft + core correction, Zval = 10.0
     Generated by new atomic code, or converted to UPF format
     Using radial grid of  883 points,  6 beta functions with:
                l(1) =   0
                l(2) =   0
                l(3) =   1
                l(4) =   1
                l(5) =   2
                l(6) =   2
     Q(r) pseudized with  6 coefficients,  rinner =    1.400   1.400   1.400
                                                       1.400   1.400

     PseudoPot. # 2 for Sc read from file:
     /lustre07/scratch/pragov/crystal_structure_design/utils/SSSP/Sc_ONCV_PBE-1.0.oncvpsp.upf
     MD5 check sum: e21af8023abb52e52cb7cd3133e4a229
     Pseudo is Norm-conserving, Zval = 11.0
     Generated using ONCVPSP code by D. R. Hamann
     Using radial grid of 1662 points,  6 beta functions with:
                l(1) =   0
                l(2) =   0
                l(3) =   1
                l(4) =   1
                l(5) =   2
                l(6) =   2

     PseudoPot. # 3 for B  read from file:
     /lustre07/scratch/pragov/crystal_structure_design/utils/SSSP/b_pbe_v1.4.uspp.F.UPF
     MD5 check sum: cc6de2960df11db49a60e589f9ebb39b
     Pseudo is Ultrasoft + core correction, Zval =  3.0
     Generated by new atomic code, or converted to UPF format
     Using radial grid of  781 points,  4 beta functions with:
                l(1) =   0
                l(2) =   0
                l(3) =   1
                l(4) =   1
     Q(r) pseudized with  8 coefficients,  rinner =    1.100   1.100   1.100

     PseudoPot. # 4 for O  read from file:
     /lustre07/scratch/pragov/crystal_structure_design/utils/SSSP/O.pbe-n-kjpaw_psl.0.1.UPF
     MD5 check sum: 0234752ac141de4415c5fc33072bef88
     Pseudo is Projector augmented-wave + core cor, Zval =  6.0
     Generated using "atomic" code by A. Dal Corso  v.5.0.99 svn rev. 10869
     Shape of augmentation charge: BESSEL
     Using radial grid of 1095 points,  4 beta functions with:
                l(1) =   0
                l(2) =   0
                l(3) =   1
                l(4) =   1
     Q(r) pseudized with 0 coefficients

     atomic species   valence    mass     pseudopotential
        Sr            10.00    87.62000     Sr( 1.00)
        Sc            11.00    44.95591     Sc( 1.00)
        B              3.00    10.81000     B ( 1.00)
        O              6.00    15.99900     O ( 1.00)

      2 Sym. Ops., with inversion, found

                                    s                        frac. trans.

      isym =  1     identity

 cryst.   s( 1) = (     1          0          0      )
                  (     0          1          0      )
                  (     0          0          1      )

 cart.    s( 1) = (  1.0000000  0.0000000  0.0000000 )
                  (  0.0000000  1.0000000  0.0000000 )
                  (  0.0000000  0.0000000  1.0000000 )

      isym =  2     inversion

 cryst.   s( 2) = (    -1          0          0      )
                  (     0         -1          0      )
                  (     0          0         -1      )

 cart.    s( 2) = ( -1.0000000  0.0000000 -0.0000000 )
                  (  0.0000000 -1.0000000  0.0000000 )
                  (  0.0000000  0.0000000 -1.0000000 )

   Cartesian axes

     site n.     atom                  positions (alat units)
         1           Sr  tau(   1) = (  -0.0216010   0.9177068   0.2296157  )
         2           Sr  tau(   2) = (   0.7344987  -0.0150059   1.1766797  )
         3           Sc  tau(   3) = (  -0.0217272   0.6694499   0.9091151  )
         4           Sc  tau(   4) = (   0.7346248   0.2332510   0.4971803  )
         5           B   tau(   5) = (   0.4889140   0.8192852   0.5534082  )
         6           B   tau(   6) = (   0.2500432   0.3825237   0.1432692  )
         7           B   tau(   7) = (   0.4628545   0.5201772   1.2630262  )
         8           B   tau(   8) = (   0.2239837   0.0834158   0.8528872  )
         9           O   tau(   9) = (   0.6978743   0.6471834   0.5955070  )
        10           O   tau(  10) = (   0.7245657   0.5321721   1.2193579  )
        11           O   tau(  11) = (   0.4737752   0.1409492   0.7830562  )
        12           O   tau(  12) = (   0.2391225   0.7617518   0.6232392  )
        13           O   tau(  13) = (   0.3462070   0.5997416   0.0000000  )
        14           O   tau(  14) = (   0.2805989   0.7013687   1.1913037  )
        15           O   tau(  15) = (   0.0150233   0.2555175   0.8107883  )
        16           O   tau(  16) = (   0.5404618   1.0490918   0.4181015  )
        17           O   tau(  17) = (  -0.0116681   0.3705288   0.1869374  )
        18           O   tau(  18) = (   0.1724359  -0.1463908   0.9881939  )
        19           O   tau(  19) = (   0.4322988   0.2013322   0.2149916  )

   Crystallographic axes

     site n.     atom                  positions (cryst. coord.)
         1           Sr  tau(   1) = (  0.2228100  0.8054840  0.1632770  )
         2           Sr  tau(   2) = (  0.7771900  0.1945160  0.8367230  )
         3           Sc  tau(   3) = (  0.1858980  0.7180660  0.6464610  )
         4           Sc  tau(   4) = (  0.8141020  0.2819340  0.3535390  )
         5           B   tau(   5) = (  0.7208930  0.7803990  0.3935220  )
         6           B   tau(   6) = (  0.3538010  0.3441140  0.1018770  )
         7           B   tau(   7) = (  0.6461990  0.6558860  0.8981230  )
         8           B   tau(   8) = (  0.2791070  0.2196010  0.6064780  )
         9           O   tau(   9) = (  0.8873860  0.6443260  0.4234580  )
        10           O   tau(  10) = (  0.9092590  0.6582030  0.8670710  )
        11           O   tau(  11) = (  0.5408900  0.2552800  0.5568220  )
        12           O   tau(  12) = (  0.4591100  0.7447200  0.4431780  )
        13           O   tau(  13) = (  0.5000000  0.5000000  0.0000000  )
        14           O   tau(  14) = (  0.5075700  0.7943250  0.8471220  )
        15           O   tau(  15) = (  0.1126140  0.3556740  0.5765420  )
        16           O   tau(  16) = (  0.8260190  0.9481810  0.2973070  )
        17           O   tau(  17) = (  0.0907410  0.3417970  0.1329290  )
        18           O   tau(  18) = (  0.1739810  0.0518190  0.7026930  )
        19           O   tau(  19) = (  0.4924300  0.2056750  0.1528780  )

     number of k points=    14
                       cart. coord. in units 2pi/alat
        k(    1) = (   0.0000000   0.0000000   0.0000000), wk =   0.0740741
        k(    2) = (   0.0000000   0.0000000   0.2370294), wk =   0.1481481
        k(    3) = (   0.0000000   0.2778974   0.0586470), wk =   0.1481481
        k(    4) = (   0.0000000   0.2778974   0.2956764), wk =   0.1481481
        k(    5) = (   0.0000000   0.2778974  -0.1783824), wk =   0.1481481
        k(    6) = (   0.3333333   0.0854773   0.0131838), wk =   0.1481481
        k(    7) = (   0.3333333   0.0854773   0.2502132), wk =   0.1481481
        k(    8) = (   0.3333333   0.0854773  -0.2238456), wk =   0.1481481
        k(    9) = (   0.3333333   0.3633748   0.0718308), wk =   0.1481481
        k(   10) = (   0.3333333   0.3633748   0.3088602), wk =   0.1481481
        k(   11) = (   0.3333333   0.3633748  -0.1651986), wk =   0.1481481
        k(   12) = (   0.3333333  -0.1924201  -0.0454632), wk =   0.1481481
        k(   13) = (   0.3333333  -0.1924201   0.1915662), wk =   0.1481481
        k(   14) = (   0.3333333  -0.1924201  -0.2824926), wk =   0.1481481

                       cryst. coord.
        k(    1) = (   0.0000000   0.0000000   0.0000000), wk =   0.0740741
        k(    2) = (   0.0000000   0.0000000   0.3333333), wk =   0.1481481
        k(    3) = (   0.0000000   0.3333333   0.0000000), wk =   0.1481481
        k(    4) = (   0.0000000   0.3333333   0.3333333), wk =   0.1481481
        k(    5) = (   0.0000000   0.3333333  -0.3333333), wk =   0.1481481
        k(    6) = (   0.3333333  -0.0000000   0.0000000), wk =   0.1481481
        k(    7) = (   0.3333333  -0.0000000   0.3333333), wk =   0.1481481
        k(    8) = (   0.3333333  -0.0000000  -0.3333333), wk =   0.1481481
        k(    9) = (   0.3333333   0.3333333   0.0000000), wk =   0.1481481
        k(   10) = (   0.3333333   0.3333333   0.3333333), wk =   0.1481481
        k(   11) = (   0.3333333   0.3333333  -0.3333333), wk =   0.1481481
        k(   12) = (   0.3333333  -0.3333333   0.0000000), wk =   0.1481481
        k(   13) = (   0.3333333  -0.3333333   0.3333333), wk =   0.1481481
        k(   14) = (   0.3333333  -0.3333333  -0.3333333), wk =   0.1481481

     Check: negative core charge=   -0.000013

     Initial potential from superposition of free atoms

     starting charge     119.9263, renormalised to     120.0000

     negative rho (up, down):  1.280E-01 0.000E+00
     Starting wfcs are  106 randomized atomic wfcs
     Checking if some PAW data can be deallocated...

     Self-consistent Calculation

     iteration #  1     ecut=    30.00 Ry     beta= 0.70
     Davidson diagonalization with overlap

     ethr =  1.00E-02,  avg # of iterations =  2.0

     negative rho (up, down):  1.305E-01 0.000E+00

     total energy              =    -807.94770223 Ry
     estimated scf accuracy    <       4.06213465 Ry

[...]

     c_bands:  1 eigenvalues not converged
     c_bands:  1 eigenvalues not converged
     ethr =  8.24E-07,  avg # of iterations =  8.5

[...]

     total energy              =    -809.74567787 Ry
     estimated scf accuracy    <       0.00000499 Ry

     iteration # 10     ecut=    30.00 Ry     beta= 0.70
     Davidson diagonalization with overlap

     ethr =  4.16E-09,  avg # of iterations =  4.4

     negative rho (up, down):  1.344E-01 0.000E+00

     End of self-consistent calculation

          k = 0.0000 0.0000 0.0000 (  4271 PWs)   bands (ev):

   -41.7784 -41.7685 -26.4003 -26.3912 -20.5268 -20.4637 -20.4242 -20.4083
   -20.3900 -20.3691 -13.7325 -12.6062 -12.3894 -12.2545 -11.7167 -11.4907
   -11.4275 -11.1342 -11.0775 -10.9636 -10.9500  -8.4126  -8.3661  -8.3571
    -8.3276  -8.2967  -8.2826  -2.4701  -0.1730   0.2415   0.7218   0.7777
     0.9387   1.2627   1.3315   1.4920   1.5690   1.7901   1.9723   2.1328
     2.5674   3.0847   3.7242   3.7628   3.8097   4.0369   4.0781   4.2234
     4.3636   4.5955   4.7227   4.8470   4.8759   4.9060   5.0089   5.1259
     5.4119   5.5486   5.7656   6.0533  10.5500  10.8829  10.9645  11.0361

     occupation numbers
     1.0000   1.0000   1.0000   1.0000   1.0000   1.0000   1.0000   1.0000
     1.0000   1.0000   1.0000   1.0000   1.0000   1.0000   1.0000   1.0000
     1.0000   1.0000   1.0000   1.0000   1.0000   1.0000   1.0000   1.0000
     1.0000   1.0000   1.0000   1.0000   1.0000   1.0000   1.0000   1.0000
     1.0000   1.0000   1.0000   1.0000   1.0000   1.0000   1.0000   1.0000
     1.0000   1.0000   1.0000   1.0000   1.0000   1.0000   1.0000   1.0000
     1.0000   1.0000   1.0000   1.0000   1.0000   1.0000   1.0000   1.0000
     1.0000   1.0000   1.0000   1.0000   0.0000   0.0000   0.0000   0.0000

[...]

          k = 0.3333-0.1924-0.2825 (  4259 PWs)   bands (ev):

   -41.7783 -41.7685 -26.3985 -26.3914 -20.5279 -20.4645 -20.4233 -20.4121
   -20.3897 -20.3695 -13.7271 -12.4743 -12.3573 -12.2970 -11.6642 -11.5266
   -11.4909 -11.2283 -11.1535 -11.0058 -10.9639  -8.4118  -8.3866  -8.3326
    -8.2873  -8.2692  -8.2483  -2.4807   0.2431   0.4934   0.7921   0.9857
     1.0259   1.2464   1.3383   1.5708   1.6425   1.7874   1.9811   2.4210
     2.4454   2.7428   3.5365   3.6986   3.8973   3.9423   4.0167   4.2112
     4.2923   4.4066   4.4766   4.6745   4.8166   4.8539   4.9136   5.0870
     5.1747   5.5562   5.7592   5.8109  10.6854  10.8702  11.0645  11.1410

     occupation numbers
     1.0000   1.0000   1.0000   1.0000   1.0000   1.0000   1.0000   1.0000
     1.0000   1.0000   1.0000   1.0000   1.0000   1.0000   1.0000   1.0000
     1.0000   1.0000   1.0000   1.0000   1.0000   1.0000   1.0000   1.0000
     1.0000   1.0000   1.0000   1.0000   1.0000   1.0000   1.0000   1.0000
     1.0000   1.0000   1.0000   1.0000   1.0000   1.0000   1.0000   1.0000
     1.0000   1.0000   1.0000   1.0000   1.0000   1.0000   1.0000   1.0000
     1.0000   1.0000   1.0000   1.0000   1.0000   1.0000   1.0000   1.0000
     1.0000   1.0000   1.0000   1.0000   0.0000   0.0000   0.0000   0.0000

     highest occupied, lowest unoccupied level (ev):     6.0794   10.5500

!    total energy              =    -809.74567955 Ry
     estimated scf accuracy    <       0.00000068 Ry

     The total energy is the sum of the following terms:
     one-electron contribution =    -233.80732755 Ry
     hartree contribution      =     177.96968058 Ry
     xc contribution           =    -155.08582549 Ry
     ewald contribution        =    -494.19459684 Ry
     one-center paw contrib.   =    -104.62761025 Ry
      -> PAW hartree energy AE =       0.00000000 Ry
      -> PAW hartree energy PS =       0.00000000 Ry
      -> PAW xc energy AE      =       0.00000000 Ry
      -> PAW xc energy PS      =       0.00000000 Ry
      -> total E_H with PAW    =     177.96968058 Ry
      -> total E_XC with PAW   =    -155.08582549 Ry

     convergence has been achieved in  10 iterations

     Writing all to output data dir bands_nm/myprefix.save/

     General routines

     Parallel routines

     PAW routines

   This run was terminated on:   6:47:15  13Jul2023

   JOB DONE.