     Program PWSCF v.7.1 starts on 15Jul2023 at 18:40:17

     Reading input from espresso_23025.pwi
Warning: card &CELL ignored
Warning: card / ignored

     Current dimensions of program PWSCF are:
     Max number of different atomic species (ntypx) = 10
     Max number of k-points (npk) =  40000
     Max angular momentum in pseudopotentials (lmaxx) =  4
     file Fe.pbe-spn-kjpaw_psl.0.2.1.UPF: wavefunction(s)  3D renormalized
     file Pb.pbe-dn-kjpaw_psl.0.2.2.UPF: wavefunction(s)  6S renormalized
     file O.pbe-n-kjpaw_psl.0.1.UPF: wavefunction(s)  2P renormalized
     Message from routine setup:
     using ibrav=0 with symmetry is DISCOURAGED, use correct ibrav instead

     K-points division:     npool     =       2
     R & G space division:  proc/nbgrp/npool/nimage =       4
     Subspace diagonalization in iterative solution of the eigenvalue problem:
     one sub-group per band group will be used

     Using Slab Decomposition

     bravais-lattice index     =            0
     lattice parameter (alat)  =       9.0054  a.u.
     unit-cell volume          =    1402.5561 (a.u.)^3
     number of atoms/cell      =           15
     number of atomic types    =            5
     number of electrons       =       142.00
     number of Kohn-Sham states=          256
     kinetic-energy cutoff     =      30.0000  Ry
     charge density cutoff     =     240.0000  Ry
     scf convergence threshold =      1.0E-06
     mixing beta               =       0.7000
     number of iterations used =            8  plain     mixing
     Exchange-correlation= SLA  PW   PBX  PBC
                           (   1   4   3   4   0   0   0)

     celldm(1)=   9.005435  celldm(2)=   0.000000  celldm(3)=   0.000000
     celldm(4)=   0.000000  celldm(5)=   0.000000  celldm(6)=   0.000000

     crystal axes: (cart. coord. in units of alat)
               a(1) = (   1.000000   0.000000   0.000000 )
               a(2) = (   0.000000   1.133595   0.000000 )
               a(3) = (   0.000000  -0.566797   1.694136 )

     reciprocal axes: (cart. coord. in units 2 pi/alat)
               b(1) = (  1.000000  0.000000  0.000000 )
               b(2) = (  0.000000  0.882149  0.295136 )
               b(3) = (  0.000000  0.000000  0.590271 )

     PseudoPot. # 1 for Ti read from file:
     /lustre07/scratch/pragov/crystal_structure_design/utils/SSSP/ti_pbe_v1.4.uspp.F.UPF
     MD5 check sum: 88a00a6731bd790ddea75d31a80cb452
     Pseudo is Ultrasoft + core correction, Zval = 12.0
     Generated by new atomic code, or converted to UPF format
     Using radial grid of  851 points,  6 beta functions with:
                l(1) =   0
                l(2) =   0
                l(3) =   1
                l(4) =   1
                l(5) =   2
                l(6) =   2
     Q(r) pseudized with  6 coefficients,  rinner =    1.000   1.000   1.000
                                                       1.000   1.000

     PseudoPot. # 2 for Fe read from file:
     /lustre07/scratch/pragov/crystal_structure_design/utils/SSSP/Fe.pbe-spn-kjpaw_psl.0.2.1.UPF
     MD5 check sum: e86618425769142926afa95317d90200
     Pseudo is Projector augmented-wave + core cor, Zval = 16.0
     Generated using "atomic" code by A. Dal Corso  v.5.0.99 svn rev. 10869
     Shape of augmentation charge: PSQ
     Using radial grid of 1191 points,  6 beta functions with:
                l(1) =   0
                l(2) =   0
                l(3) =   1
                l(4) =   1
                l(5) =   2
                l(6) =   2
     Q(r) pseudized with 0 coefficients

     PseudoPot. # 3 for Bi read from file:
     /lustre07/scratch/pragov/crystal_structure_design/utils/SSSP/Bi_pbe_v1.uspp.F.UPF
     MD5 check sum: cceb9f28ec65b6d7ff33140f5b0b1758
     Pseudo is Ultrasoft + core correction, Zval = 15.0
     Generated by new atomic code, or converted to UPF format
     Using radial grid of  899 points,  6 beta functions with:
                l(1) =   0
                l(2) =   0
                l(3) =   1
                l(4) =   1
                l(5) =   2
                l(6) =   2
     Q(r) pseudized with  6 coefficients,  rinner =    1.000   1.000   1.000
                                                       1.000   1.000

     PseudoPot. # 4 for Pb read from file:
     /lustre07/scratch/pragov/crystal_structure_design/utils/SSSP/Pb.pbe-dn-kjpaw_psl.0.2.2.UPF
     MD5 check sum: 9d431e6316058b74ade52399a6cf67da
     Pseudo is Projector augmented-wave + core cor, Zval = 14.0
     Generated using "atomic" code by A. Dal Corso  v.5.0.99 svn rev. 10869
     Shape of augmentation charge: PSQ
     Using radial grid of 1281 points,  6 beta functions with:
                l(1) =   0
                l(2) =   0
                l(3) =   1
                l(4) =   1
                l(5) =   2
                l(6) =   2
     Q(r) pseudized with 0 coefficients

     PseudoPot. # 5 for O  read from file:
     /lustre07/scratch/pragov/crystal_structure_design/utils/SSSP/O.pbe-n-kjpaw_psl.0.1.UPF
     MD5 check sum: 0234752ac141de4415c5fc33072bef88
     Pseudo is Projector augmented-wave + core cor, Zval =  6.0
     Generated using "atomic" code by A. Dal Corso  v.5.0.99 svn rev. 10869
     Shape of augmentation charge: BESSEL
     Using radial grid of 1095 points,  4 beta functions with:
                l(1) =   0
                l(2) =   0
                l(3) =   1
                l(4) =   1
     Q(r) pseudized with 0 coefficients

     atomic species   valence    mass     pseudopotential
        Ti            12.00    47.86700     Ti( 1.00)
        Fe            16.00    55.84500     Fe( 1.00)
        Bi            15.00   208.98040     Bi( 1.00)
        Pb            14.00   207.20000     Pb( 1.00)
        O              6.00    15.99900     O ( 1.00)

      4 Sym. Ops. (no inversion) found ( 2 have fractional translation)

                                    s                        frac. trans.

      isym =  1     identity

 cryst.   s( 1) = (     1          0          0      )
                  (     0          1          0      )
                  (     0          0          1      )

 cart.    s( 1) = (  1.0000000  0.0000000  0.0000000 )
                  (  0.0000000  1.0000000  0.0000000 )
                  (  0.0000000  0.0000000  1.0000000 )

      isym =  2     180 deg rotation - cart. axis [1,0,0]

 cryst.   s( 2) = (     1          0          0      )    f =(  0.0000000 )
                  (     0         -1          0      )       ( -0.3333340 )
                  (     0          0         -1      )       (  0.3333340 )

 cart.    s( 2) = (  1.0000000  0.0000000  0.0000000 )    f =(  0.0000000 )
                  (  0.0000000 -1.0000000 -0.0000000 )       ( -0.5667985 )
                  (  0.0000000  0.0000000 -1.0000000 )       (  0.5647132 )

      isym =  3     inv. 180 deg rotation - cart. axis [0,0,1]

 cryst.   s( 3) = (     1          0          0      )    f =(  0.0000000 )
                  (     0          1          0      )       ( -0.3333330 )
                  (     0         -1         -1      )       (  0.3333340 )

 cart.    s( 3) = (  1.0000000  0.0000000  0.0000000 )    f =(  0.0000000 )
                  (  0.0000000  1.0000000 -0.0000002 )       ( -0.5667974 )
                  (  0.0000000  0.0000000 -1.0000000 )       (  0.5647132 )

      isym =  4     inv. 180 deg rotation - cart. axis [0,1,0]

 cryst.   s( 4) = (     1          0          0      )
                  (     0         -1          0      )
                  (     0          1          1      )

 cart.    s( 4) = (  1.0000000  0.0000000  0.0000000 )
                  (  0.0000000 -1.0000000  0.0000002 )
                  (  0.0000000  0.0000000  1.0000000 )

   Cartesian axes

     site n.     atom                  positions (alat units)
         1           Ti  tau(   1) = (   0.5214470   0.0000006   0.5647115  )
         2           Fe  tau(   2) = (   0.5063990   0.5667969   0.0098717  )
         3           Fe  tau(   3) = (   0.5063990   0.5667975   1.1195529  )
         4           Bi  tau(   4) = (   0.9341380   0.5667976   1.6684496  )
         5           Bi  tau(   5) = (   0.9341380  -0.0000005   1.1551111  )
         6           Pb  tau(   6) = (   0.9681710   0.5667980   0.5647115  )
         7           O   tau(   7) = (   0.6470050   0.2833994   1.4117795  )
         8           O   tau(   8) = (   0.6419900   0.2760865   0.2801237  )
         9           O   tau(   9) = (   0.6419900  -0.2760870   0.8493009  )
        10           O   tau(  10) = (   0.6419900   0.2760882   0.8493009  )
        11           O   tau(  11) = (   0.6470050  -0.2833980   1.4117795  )
        12           O   tau(  12) = (   0.6419900   0.8575061   0.2801237  )
        13           O   tau(  13) = (   0.1191340   0.5667975   1.1710445  )
        14           O   tau(  14) = (   0.1191340  -0.0000004   1.6525162  )
        15           O   tau(  15) = (   0.1529900   0.0000006   0.5647115  )

   Crystallographic axes

     site n.     atom                  positions (cryst. coord.)
         1           Ti  tau(   1) = (  0.5214470  0.1666670  0.3333330  )
         2           Fe  tau(   2) = (  0.5063990  0.5029130  0.0058270  )
         3           Fe  tau(   3) = (  0.5063990  0.8304200  0.6608400  )
         4           Bi  tau(   4) = (  0.9341380  0.9924190  0.9848380  )
         5           Bi  tau(   5) = (  0.9341380  0.3409140  0.6818290  )
         6           Pb  tau(   6) = (  0.9681710  0.6666670  0.3333330  )
         7           O   tau(   7) = (  0.6470050  0.6666670  0.8333330  )
         8           O   tau(   8) = (  0.6419900  0.3262240  0.1653490  )
         9           O   tau(   9) = (  0.6419900  0.0071090  0.5013180  )
        10           O   tau(  10) = (  0.6419900  0.4942100  0.5013180  )
        11           O   tau(  11) = (  0.6470050  0.1666670  0.8333330  )
        12           O   tau(  12) = (  0.6419900  0.8391230  0.1653490  )
        13           O   tau(  13) = (  0.1191340  0.8456170  0.6912340  )
        14           O   tau(  14) = (  0.1191340  0.4877160  0.9754330  )
        15           O   tau(  15) = (  0.1529900  0.1666670  0.3333330  )

     number of k points=     8
                       cart. coord. in units 2pi/alat
        k(    1) = (   0.0000000   0.0000000   0.0000000), wk =   0.0740741
        k(    2) = (   0.0000000   0.0000000   0.1967571), wk =   0.1481481
        k(    3) = (   0.0000000   0.2940498   0.0983785), wk =   0.2962963
        k(    4) = (   0.0000000   0.2940498   0.2951357), wk =   0.1481481
        k(    5) = (   0.3333333   0.0000000   0.0000000), wk =   0.1481481
        k(    6) = (   0.3333333   0.0000000   0.1967571), wk =   0.2962963
        k(    7) = (   0.3333333   0.2940498   0.0983785), wk =   0.5925926
        k(    8) = (   0.3333333   0.2940498   0.2951357), wk =   0.2962963

                       cryst. coord.
        k(    1) = (   0.0000000   0.0000000   0.0000000), wk =   0.0740741
        k(    2) = (   0.0000000   0.0000000   0.3333333), wk =   0.1481481
        k(    3) = (   0.0000000   0.3333333   0.0000000), wk =   0.2962963
        k(    4) = (   0.0000000   0.3333333   0.3333333), wk =   0.1481481
        k(    5) = (   0.3333333   0.0000000   0.0000000), wk =   0.1481481
        k(    6) = (   0.3333333   0.0000000   0.3333333), wk =   0.2962963
        k(    7) = (   0.3333333   0.3333333   0.0000000), wk =   0.5925926
        k(    8) = (   0.3333333   0.3333333   0.3333333), wk =   0.2962963

     Check: negative core charge=   -0.000071

     Initial potential from superposition of free atoms

     starting charge     138.9966, renormalised to     142.0000

     negative rho (up, down):  8.795E-02 0.000E+00
     Starting wfcs are   99 randomized atomic wfcs +  157 random wfcs
     Checking if some PAW data can be deallocated...

     Self-consistent Calculation

     iteration #  1     ecut=    30.00 Ry     beta= 0.70
     Davidson diagonalization with overlap

     ethr =  1.00E-02,  avg # of iterations =  7.1

     negative rho (up, down):  7.987E-02 0.000E+00

     total energy              =   -2317.93791577 Ry
     estimated scf accuracy    <      89.81570807 Ry

[...]

     total energy              =   -2392.94575601 Ry
     estimated scf accuracy    <       0.00000320 Ry

     iteration # 30     ecut=    30.00 Ry     beta= 0.70
     Davidson diagonalization with overlap

     ethr =  2.26E-09,  avg # of iterations =  1.1

     negative rho (up, down):  8.396E-02 0.000E+00

     End of self-consistent calculation

          k = 0.0000 0.0000 0.0000 (  3849 PWs)   bands (ev):

   -77.3973 -77.3971 -47.1526 -43.2357 -43.2293 -42.8888 -42.8778 -42.7947
   -42.7805 -23.5883 -23.4535 -23.4460 -13.2723 -13.1795 -13.1357 -13.1169
   -13.1106 -13.1097 -13.1017 -13.0762 -13.0718 -13.0608  -9.5441  -8.3937
    -8.2594  -8.1401  -7.7849  -7.6792  -7.5586  -7.4757  -7.3491  -6.1812
    -6.1004  -6.0864  -6.0670  -6.0414  -0.7219  -0.0049   2.2398   4.2309
     4.7157   4.7576   4.8147   4.9610   5.0647   5.2187   5.6408   5.6509
     5.8673   6.1052   6.3206   6.3291   6.5874   6.6246   6.7253   6.7525
     6.8012   6.9973   7.0516   7.0592   7.5058   7.5964   7.7988   7.8245
     8.0370   8.3080   8.9715   9.4486   9.5247   9.6957   9.9959  10.1410
    10.4938  10.7466  11.4147  11.6424  11.8980  12.9694  13.1054  13.4571
    13.5012  13.6764  13.7846  14.1008  14.2322  14.4379  15.1116  15.3072
    15.8587  15.8827  17.0570  18.6543  19.0573  19.1376  19.6930  20.4070
    20.9028  20.9051  21.3252  21.4467  22.0746  22.5263  22.7182  23.1909
    23.6501  23.8714  23.8932  24.0397  24.3716  24.4414  25.0009  25.6232
    25.9101  27.0367  27.1518  27.4441  27.4583  27.7592  27.8224  27.8576
    28.1493  28.5833  29.3850  29.7836  29.9413  30.1738  30.2321  30.4022
    30.5709  30.8680  31.2186  31.6062  31.6475  32.0926  32.2737  32.4068
    32.5448  32.6744  32.6853  32.8263  33.0339  33.2830  33.5648  33.5761
    33.6686  33.7044  34.3169  34.5374  34.6379  34.6931  35.3030  35.7023
    35.7346  35.7665  35.7954  36.4142  36.7281  36.7288  36.9845  37.0667
    37.1834  37.6168  37.7029  37.9327  37.9879  38.1661  38.3317  38.4338
    38.7715  39.0560  39.1984  39.6361  39.6866  39.9316  40.2647  40.8983
    41.0038  41.0714  41.1437  41.2152  41.3278  41.6630  41.6998  41.9348
    42.1224  42.3800  42.8931  42.9788  43.0734  43.3348  43.6127  43.6726
    43.7184  44.4194  44.4533  44.5088  45.0534  45.3012  45.6044  45.6358
    45.6447  45.6934  45.8342  46.3044  46.5729  46.6078  46.8593  47.4322
    47.4391  47.4509  47.9499  48.0518  48.0619  48.4712  48.6126  48.8990
    49.1957  49.2712  49.3973  49.5655  49.6708  49.9320  50.0791  50.3001
    50.5247  50.5988  50.6251  50.7820  51.3827  51.6888  51.9087  52.0177
    52.0180  52.6240  52.7060  52.8693  52.9765  53.2109  53.5483  53.6035
    53.7196  53.7342  54.1786  54.3575  54.4390  54.6376  54.7449  54.7770
    55.4778  55.7284  55.7333  55.7936  56.3318  56.4560  56.5442  56.7189

     occupation numbers
     1.0000   1.0000   1.0000   1.0000   1.0000   1.0000   1.0000   1.0000
     1.0000   1.0000   1.0000   1.0000   1.0000   1.0000   1.0000   1.0000
     1.0000   1.0000   1.0000   1.0000   1.0000   1.0000   1.0000   1.0000
     1.0000   1.0000   1.0000   1.0000   1.0000   1.0000   1.0000   1.0000
     1.0000   1.0000   1.0000   1.0000   1.0000   1.0000   1.0000   1.0000
     1.0000   1.0000   1.0000   1.0000   1.0000   1.0000   1.0000   1.0000
     1.0000   1.0000   1.0000   1.0000   1.0000   1.0000   1.0000   1.0000
     1.0000   1.0000   1.0000   1.0000   1.0000   1.0000   1.0000   1.0000
     1.0000   1.0000   1.0000   1.0000   1.0000   1.0000   1.0000   0.0000
     0.0000   0.0000   0.0000   0.0000   0.0000   0.0000   0.0000   0.0000
     0.0000   0.0000   0.0000   0.0000   0.0000   0.0000   0.0000   0.0000
     0.0000   0.0000   0.0000   0.0000   0.0000   0.0000   0.0000   0.0000
     0.0000   0.0000   0.0000   0.0000   0.0000   0.0000   0.0000   0.0000
     0.0000   0.0000   0.0000   0.0000   0.0000   0.0000   0.0000   0.0000
     0.0000   0.0000   0.0000   0.0000   0.0000   0.0000   0.0000   0.0000
     0.0000   0.0000   0.0000   0.0000   0.0000   0.0000   0.0000   0.0000
     0.0000   0.0000   0.0000   0.0000   0.0000   0.0000   0.0000   0.0000
     0.0000   0.0000   0.0000   0.0000   0.0000   0.0000   0.0000   0.0000
     0.0000   0.0000   0.0000   0.0000   0.0000   0.0000   0.0000   0.0000
     0.0000   0.0000   0.0000   0.0000   0.0000   0.0000   0.0000   0.0000
     0.0000   0.0000   0.0000   0.0000   0.0000   0.0000   0.0000   0.0000
     0.0000   0.0000   0.0000   0.0000   0.0000   0.0000   0.0000   0.0000
     0.0000   0.0000   0.0000   0.0000   0.0000   0.0000   0.0000   0.0000
     0.0000   0.0000   0.0000   0.0000   0.0000   0.0000   0.0000   0.0000
     0.0000   0.0000   0.0000   0.0000   0.0000   0.0000   0.0000   0.0000
     0.0000   0.0000   0.0000   0.0000   0.0000   0.0000   0.0000   0.0000
     0.0000   0.0000   0.0000   0.0000   0.0000   0.0000   0.0000   0.0000
     0.0000   0.0000   0.0000   0.0000   0.0000   0.0000   0.0000   0.0000
     0.0000   0.0000   0.0000   0.0000   0.0000   0.0000   0.0000   0.0000
     0.0000   0.0000   0.0000   0.0000   0.0000   0.0000   0.0000   0.0000
     0.0000   0.0000   0.0000   0.0000   0.0000   0.0000   0.0000   0.0000
     0.0000   0.0000   0.0000   0.0000   0.0000   0.0000   0.0000   0.0000

[...]

          k = 0.3333 0.2940 0.2951 (  3890 PWs)   bands (ev):

   -77.4001 -77.3990 -47.1527 -43.2391 -43.2320 -42.9010 -42.8969 -42.7984
   -42.7975 -23.5921 -23.4533 -23.4462 -13.2512 -13.2045 -13.1349 -13.1185
   -13.1069 -13.1054 -13.0973 -13.0764 -13.0752 -13.0696  -9.1048  -8.5934
    -8.3798  -7.9510  -7.8569  -7.8280  -7.5702  -7.5042  -7.3163  -6.1752
    -6.1679  -6.0874  -6.0492  -6.0355  -0.5434  -0.2406   2.0860   4.1344
     4.2993   4.3405   4.6754   4.7974   5.2623   5.2648   5.5476   5.6946
     6.0164   6.0956   6.1963   6.2058   6.3517   6.4626   6.5270   6.5483
     6.9567   7.2358   7.3506   7.4091   7.4269   7.6341   7.6343   7.9749
     8.1690   8.3561   9.4024   9.4032   9.6539   9.7092  10.0011  10.0458
    10.9977  11.0498  11.3016  11.5255  12.2596  12.8801  13.0974  13.3242
    13.3380  13.6044  13.7071  14.1911  14.6355  14.7079  14.8216  14.8806
    15.2871  15.3664  19.0458  19.3750  19.6336  19.9519  20.3161  20.4247
    20.9586  20.9685  21.1983  21.7814  22.2189  22.3611  23.3609  23.4457
    23.5380  23.8642  23.9655  24.1624  24.6124  24.8865  25.0653  25.0890
    25.4314  25.9711  26.0463  26.1318  26.5760  26.9417  27.5059  27.7151
    28.7105  28.8202  28.9334  29.1469  29.1492  29.5247  29.6495  29.9010
    30.2191  30.2798  30.3137  30.9236  31.1074  31.3423  31.3766  31.6250
    31.6698  32.0173  32.6922  32.7201  33.0887  33.2987  33.4183  33.5001
    33.9079  34.3450  34.3787  34.9808  34.9977  35.5050  35.5155  35.5768
    35.7336  35.7352  35.8227  36.1203  36.2018  36.2178  36.7189  37.1238
    37.4726  37.7342  37.7516  38.2371  38.3922  38.6191  38.6985  39.0136
    39.0978  39.2343  39.5877  39.9888  40.0422  40.4358  40.8619  40.9230
    41.1616  41.1923  41.6796  42.0118  42.0561  42.2829  42.7563  42.7810
    43.0912  43.1329  43.3009  43.6398  43.8860  44.0737  44.1198  44.1897
    44.4565  44.6407  44.7271  45.0908  45.2165  45.3394  45.6168  45.8133
    45.8429  46.1984  46.3984  46.7106  46.7634  47.0881  47.1190  47.3476
    47.3676  47.7561  47.8842  47.8979  48.2665  48.5327  48.8641  48.9614
    49.1129  49.2812  49.5770  49.6204  49.9939  50.1444  50.2653  50.5995
    50.7393  50.8879  51.2035  51.2499  51.3936  51.5768  51.6259  51.9185
    52.0401  52.1292  52.2168  52.4552  52.5110  52.6535  52.6953  52.8330
    53.2966  53.4304  53.6845  53.8482  54.0217  54.1237  54.1689  54.2518
    54.7209  55.0453  55.2547  55.3076  55.6745  55.7900  56.2028  56.4164

     occupation numbers
     1.0000   1.0000   1.0000   1.0000   1.0000   1.0000   1.0000   1.0000
     1.0000   1.0000   1.0000   1.0000   1.0000   1.0000   1.0000   1.0000
     1.0000   1.0000   1.0000   1.0000   1.0000   1.0000   1.0000   1.0000
     1.0000   1.0000   1.0000   1.0000   1.0000   1.0000   1.0000   1.0000
     1.0000   1.0000   1.0000   1.0000   1.0000   1.0000   1.0000   1.0000
     1.0000   1.0000   1.0000   1.0000   1.0000   1.0000   1.0000   1.0000
     1.0000   1.0000   1.0000   1.0000   1.0000   1.0000   1.0000   1.0000
     1.0000   1.0000   1.0000   1.0000   1.0000   1.0000   1.0000   1.0000
     1.0000   1.0000   1.0000   1.0000   1.0000   1.0000   1.0000   0.0000
     0.0000   0.0000   0.0000   0.0000   0.0000   0.0000   0.0000   0.0000
     0.0000   0.0000   0.0000   0.0000   0.0000   0.0000   0.0000   0.0000
     0.0000   0.0000   0.0000   0.0000   0.0000   0.0000   0.0000   0.0000
     0.0000   0.0000   0.0000   0.0000   0.0000   0.0000   0.0000   0.0000
     0.0000   0.0000   0.0000   0.0000   0.0000   0.0000   0.0000   0.0000
     0.0000   0.0000   0.0000   0.0000   0.0000   0.0000   0.0000   0.0000
     0.0000   0.0000   0.0000   0.0000   0.0000   0.0000   0.0000   0.0000
     0.0000   0.0000   0.0000   0.0000   0.0000   0.0000   0.0000   0.0000
     0.0000   0.0000   0.0000   0.0000   0.0000   0.0000   0.0000   0.0000
     0.0000   0.0000   0.0000   0.0000   0.0000   0.0000   0.0000   0.0000
     0.0000   0.0000   0.0000   0.0000   0.0000   0.0000   0.0000   0.0000
     0.0000   0.0000   0.0000   0.0000   0.0000   0.0000   0.0000   0.0000
     0.0000   0.0000   0.0000   0.0000   0.0000   0.0000   0.0000   0.0000
     0.0000   0.0000   0.0000   0.0000   0.0000   0.0000   0.0000   0.0000
     0.0000   0.0000   0.0000   0.0000   0.0000   0.0000   0.0000   0.0000
     0.0000   0.0000   0.0000   0.0000   0.0000   0.0000   0.0000   0.0000
     0.0000   0.0000   0.0000   0.0000   0.0000   0.0000   0.0000   0.0000
     0.0000   0.0000   0.0000   0.0000   0.0000   0.0000   0.0000   0.0000
     0.0000   0.0000   0.0000   0.0000   0.0000   0.0000   0.0000   0.0000
     0.0000   0.0000   0.0000   0.0000   0.0000   0.0000   0.0000   0.0000
     0.0000   0.0000   0.0000   0.0000   0.0000   0.0000   0.0000   0.0000
     0.0000   0.0000   0.0000   0.0000   0.0000   0.0000   0.0000   0.0000
     0.0000   0.0000   0.0000   0.0000   0.0000   0.0000   0.0000   0.0000

     highest occupied, lowest unoccupied level (ev):    10.0131   10.0154

!    total energy              =   -2392.94575682 Ry
     estimated scf accuracy    <       0.00000042 Ry

     The total energy is the sum of the following terms:
     one-electron contribution =    -611.74653835 Ry
     hartree contribution      =     394.37758172 Ry
     xc contribution           =    -327.54029689 Ry
     ewald contribution        =    -881.63625074 Ry
     one-center paw contrib.   =    -966.40025255 Ry
      -> PAW hartree energy AE =     208.04673329 Ry
      -> PAW hartree energy PS =    -207.25909005 Ry
      -> PAW xc energy AE      =    -111.03060424 Ry
      -> PAW xc energy PS      =      34.16906768 Ry
      -> total E_H with PAW    =     395.16522496 Ry
      -> total E_XC with PAW   =    -404.40183345 Ry

     convergence has been achieved in  30 iterations

     Writing all to output data dir bands_nm/myprefix.save/

     General routines

     Parallel routines

     PAW routines

   This run was terminated on:  18:41:39  15Jul2023

   JOB DONE.