     Program PWSCF v.7.1 starts on 13Jul2023 at  4:24:39

     Reading input from espresso_7885.pwi
Warning: card &CELL ignored
Warning: card / ignored

     Current dimensions of program PWSCF are:
     Max number of different atomic species (ntypx) = 10
     Max number of k-points (npk) =  40000
     Max angular momentum in pseudopotentials (lmaxx) =  4
     file K.pbe-spn-kjpaw_psl.1.0.0.UPF: wavefunction(s)  3S renormalized
     file Fe.pbe-spn-kjpaw_psl.0.2.1.UPF: wavefunction(s)  3D renormalized
     Message from routine setup:
     using ibrav=0 with symmetry is DISCOURAGED, use correct ibrav instead

     K-points division:     npool     =       2
     R & G space division:  proc/nbgrp/npool/nimage =       8
     Subspace diagonalization in iterative solution of the eigenvalue problem:
     a serial algorithm will be used

     Using Slab Decomposition

     bravais-lattice index     =            0
     lattice parameter (alat)  =      13.8876  a.u.
     unit-cell volume          =    1843.3498 (a.u.)^3
     number of atoms/cell      =           12
     number of atomic types    =            4
     number of electrons       =       118.00
     number of Kohn-Sham states=           64
     kinetic-energy cutoff     =      30.0000  Ry
     charge density cutoff     =     240.0000  Ry
     scf convergence threshold =      1.0E-06
     mixing beta               =       0.7000
     number of iterations used =            8  plain     mixing
     Exchange-correlation=  SLA  PW   PBX  PBC
                           (   1   4   3   4   0   0   0)

     celldm(1)=  13.887636  celldm(2)=   0.000000  celldm(3)=   0.000000
     celldm(4)=   0.000000  celldm(5)=   0.000000  celldm(6)=   0.000000

     crystal axes: (cart. coord. in units of alat)
               a(1) = (   1.000000   0.000000   0.000000 )
               a(2) = (  -0.217571   0.976044   0.000000 )
               a(3) = (   0.000000   0.000000   0.705104 )

     reciprocal axes: (cart. coord. in units 2 pi/alat)
               b(1) = (  1.000000  0.222911  0.000000 )
               b(2) = (  0.000000  1.024544  0.000000 )
               b(3) = (  0.000000  0.000000  1.418230 )

     PseudoPot. # 1 for Cs read from file:
     /lustre07/scratch/pragov/crystal_structure_design/utils/SSSP/Cs_pbe_v1.uspp.F.UPF
     MD5 check sum: 3476d69cb178dfad3ffaa59df4e07ca4
     Pseudo is Ultrasoft + core correction, Zval =  9.0
     Generated by new atomic code, or converted to UPF format
     Using radial grid of  905 points,  6 beta functions with:
                l(1) =   0
                l(2) =   0
                l(3) =   1
                l(4) =   1
                l(5) =   2
                l(6) =   2
     Q(r) pseudized with  6 coefficients,  rinner =    1.500   1.500   1.500
                                                       1.500   1.500

     PseudoPot. # 2 for K  read from file:
     /lustre07/scratch/pragov/crystal_structure_design/utils/SSSP/K.pbe-spn-kjpaw_psl.1.0.0.UPF
     MD5 check sum: 7d58810084cac21f60fbe77ea2b688fd
     Pseudo is Projector augmented-wave + core cor, Zval =  9.0
     Generated using "atomic" code by A. Dal Corso  v.5.1
     Shape of augmentation charge: PSQ
     Using radial grid of 1165 points,  6 beta functions with:
                l(1) =   0
                l(2) =   0
                l(3) =   1
                l(4) =   1
                l(5) =   2
                l(6) =   2
     Q(r) pseudized with 0 coefficients

     PseudoPot. # 3 for Fe read from file:
     /lustre07/scratch/pragov/crystal_structure_design/utils/SSSP/Fe.pbe-spn-kjpaw_psl.0.2.1.UPF
     MD5 check sum: e86618425769142926afa95317d90200
     Pseudo is Projector augmented-wave + core cor, Zval = 16.0
     Generated using "atomic" code by A. Dal Corso  v.5.0.99 svn rev. 10869
     Shape of augmentation charge: PSQ
     Using radial grid of 1191 points,  6 beta functions with:
                l(1) =   0
                l(2) =   0
                l(3) =   1
                l(4) =   1
                l(5) =   2
                l(6) =   2
     Q(r) pseudized with 0 coefficients

     PseudoPot. # 4 for S  read from file:
     /lustre07/scratch/pragov/crystal_structure_design/utils/SSSP/s_pbe_v1.4.uspp.F.UPF
     MD5 check sum: 88d86576ff6df21479756cfb9bdac1df
     Pseudo is Ultrasoft + core correction, Zval =  6.0
     Generated by new atomic code, or converted to UPF format
     Using radial grid of  907 points,  6 beta functions with:
                l(1) =   0
                l(2) =   0
                l(3) =   1
                l(4) =   1
                l(5) =   2
                l(6) =   2
     Q(r) pseudized with  8 coefficients,  rinner =    1.300   1.300   1.300
                                                       1.300   1.300

     atomic species   valence    mass     pseudopotential
        Cs             9.00   132.90545     Cs( 1.00)
        K              9.00    39.09830     K ( 1.00)
        Fe            16.00    55.84500     Fe( 1.00)
        S              6.00    32.06000     S ( 1.00)

      2 Sym. Ops. (no inversion) found

                                    s                        frac. trans.

      isym =  1     identity

 cryst.   s( 1) = (     1          0          0      )
                  (     0          1          0      )
                  (     0          0          1      )

 cart.    s( 1) = (  1.0000000 -0.0000000  0.0000000 )
                  (  0.0000000  1.0000000  0.0000000 )
                  (  0.0000000  0.0000000  1.0000000 )

      isym =  2     inv. 180 deg rotation - cart. axis [0,0,1]

 cryst.   s( 2) = (     1          0          0      )
                  (     0          1          0      )
                  (     0          0         -1      )

 cart.    s( 2) = (  1.0000000 -0.0000000  0.0000000 )
                  (  0.0000000  1.0000000  0.0000000 )
                  (  0.0000000  0.0000000 -1.0000000 )

   Cartesian axes

     site n.     atom                  positions (alat units)
         1           Cs  tau(   1) = (   0.5987858   0.3216261   0.0000000  )
         2           K   tau(   2) = (   0.1838277   0.6542699   0.3525520  )
         3           Fe  tau(   3) = (   0.6728684   0.8419603   0.1759312  )
         4           Fe  tau(   4) = (   0.6728684   0.8419603   0.5291728  )
         5           Fe  tau(   5) = (   0.1070349   0.1361084   0.1759312  )
         6           Fe  tau(   6) = (   0.1070349   0.1361084   0.5291728  )
         7           S   tau(   7) = (   0.4435152   0.8106888   0.0000000  )
         8           S   tau(   8) = (   0.7052616   0.6151159   0.3525520  )
         9           S   tau(   9) = (   0.3354929   0.1538461   0.3525520  )
        10           S   tau(  10) = (   0.0876565   0.3667711   0.0000000  )
        11           S   tau(  11) = (  -0.0892200   0.8731537   0.0000000  )
        12           S   tau(  12) = (   0.8694447   0.1046573   0.3525520  )

   Crystallographic axes

     site n.     atom                  positions (cryst. coord.)
         1           Cs  tau(   1) = (  0.6704800  0.3295200  0.0000000  )
         2           K   tau(   2) = (  0.3296720  0.6703280  0.5000000  )
         3           Fe  tau(   3) = (  0.8605510  0.8626250  0.2495110  )
         4           Fe  tau(   4) = (  0.8605510  0.8626250  0.7504890  )
         5           Fe  tau(   5) = (  0.1373750  0.1394490  0.2495110  )
         6           Fe  tau(   6) = (  0.1373750  0.1394490  0.7504890  )
         7           S   tau(   7) = (  0.6242270  0.8305860  0.0000000  )
         8           S   tau(   8) = (  0.8423780  0.6302130  0.5000000  )
         9           S   tau(   9) = (  0.3697870  0.1576220  0.5000000  )
        10           S   tau(  10) = (  0.1694140  0.3757730  0.0000000  )
        11           S   tau(  11) = (  0.1054160  0.8945840  0.0000000  )
        12           S   tau(  12) = (  0.8927740  0.1072260  0.5000000  )

     number of k points=    10
                       cart. coord. in units 2pi/alat
        k(    1) = (   0.0000000   0.0000000   0.0000000), wk =   0.0740741
        k(    2) = (   0.0000000   0.0000000   0.4727435), wk =   0.1481481
        k(    3) = (   0.0000000   0.3415145   0.0000000), wk =   0.1481481
        k(    4) = (   0.0000000   0.3415145   0.4727435), wk =   0.2962963
        k(    5) = (   0.3333333   0.0743038   0.0000000), wk =   0.1481481
        k(    6) = (   0.3333333   0.0743038   0.4727435), wk =   0.2962963
        k(    7) = (   0.3333333   0.4158183   0.0000000), wk =   0.1481481
        k(    8) = (   0.3333333   0.4158183   0.4727435), wk =   0.2962963
        k(    9) = (   0.3333333  -0.2672107   0.0000000), wk =   0.1481481
        k(   10) = (   0.3333333  -0.2672107   0.4727435), wk =   0.2962963

                       cryst. coord.
        k(    1) = (   0.0000000   0.0000000   0.0000000), wk =   0.0740741
        k(    2) = (   0.0000000   0.0000000   0.3333333), wk =   0.1481481
        k(    3) = (   0.0000000   0.3333333   0.0000000), wk =   0.1481481
        k(    4) = (   0.0000000   0.3333333   0.3333333), wk =   0.2962963
        k(    5) = (   0.3333333  -0.0000000   0.0000000), wk =   0.1481481
        k(    6) = (   0.3333333  -0.0000000   0.3333333), wk =   0.2962963
        k(    7) = (   0.3333333   0.3333333   0.0000000), wk =   0.1481481
        k(    8) = (   0.3333333   0.3333333   0.3333333), wk =   0.2962963
        k(    9) = (   0.3333333  -0.3333333   0.0000000), wk =   0.1481481
        k(   10) = (   0.3333333  -0.3333333   0.3333333), wk =   0.2962963

     Check: negative core charge=   -0.000090

     Initial potential from superposition of free atoms

     starting charge     117.9398, renormalised to     118.0000
     Starting wfcs are   97 randomized atomic wfcs
     Checking if some PAW data can be deallocated...

     Self-consistent Calculation

     iteration #  1     ecut=    30.00 Ry     beta= 0.70
     Davidson diagonalization with overlap

     ethr =  1.00E-02,  avg # of iterations =  2.0

     total energy              =   -1636.10575571 Ry
     estimated scf accuracy    <       1.27156655 Ry

[...]

     total energy              =   -1636.94511074 Ry
     estimated scf accuracy    <       0.00001885 Ry

     iteration # 14     ecut=    30.00 Ry     beta= 0.70
     Davidson diagonalization with overlap

     ethr =  1.60E-08,  avg # of iterations =  3.5

     End of self-consistent calculation

          k = 0.0000 0.0000 0.0000 (  5125 PWs)   bands (ev):

   -80.3542 -80.3495 -80.3401 -80.3305 -46.3008 -46.2737 -46.1519 -46.1307
   -46.0992 -46.0985 -45.9882 -45.9818 -45.7895 -45.7778 -45.7447 -45.7421
   -23.4598 -14.2100  -7.4992  -6.9742  -6.9652  -6.9473  -6.6343  -5.9927
    -5.7828  -5.4491  -5.4130  -1.2165  -1.1670  -1.1128   1.0632   1.2754
     1.3126   1.9431   2.2900   2.6435   2.7363   2.9185   3.1843   3.2445
     3.3519   3.5704   3.6621   3.7108   3.7273   4.1759   4.2847   4.8861
     4.9832   5.0186   5.2746   5.4569   5.8563   5.8924   6.1325   6.2100
     6.4152   6.4377   6.8377   7.3361   7.3450   7.4455   7.4666   7.5461

     occupation numbers
     1.0000   1.0000   1.0000   1.0000   1.0000   1.0000   1.0000   1.0000
     1.0000   1.0000   1.0000   1.0000   1.0000   1.0000   1.0000   1.0000
     1.0000   1.0000   1.0000   1.0000   1.0000   1.0000   1.0000   1.0000
     1.0000   1.0000   1.0000   1.0000   1.0000   1.0000   1.0000   1.0000
     1.0000   1.0000   1.0000   1.0000   1.0000   1.0000   1.0000   1.0000
     1.0000   1.0000   1.0000   1.0000   1.0000   1.0000   1.0000   1.0000
     1.0000   1.0000   1.0000   1.0000   1.0000   1.0000   1.0000   1.0000
     1.0000   1.0000   1.0000   0.0000   0.0000   0.0000   0.0000   0.0000

[...]

          k = 0.3333-0.2672 0.4727 (  5098 PWs)   bands (ev):

   -80.3510 -80.3428 -80.3418 -80.3321 -46.2426 -46.2238 -46.1388 -46.1323
   -46.1245 -46.1170 -45.9919 -45.9755 -45.7905 -45.7653 -45.7589 -45.7441
   -23.4594 -14.2031  -7.2483  -7.0019  -6.9546  -6.9521  -6.7793  -5.8681
    -5.7633  -5.6048  -5.5468  -1.1928  -1.1343  -1.1317   1.3523   1.5199
     1.6410   2.0438   2.2995   2.3227   2.7439   2.8992   3.2312   3.2933
     3.3713   3.3720   3.5262   3.5556   3.6386   3.6756   3.8715   4.2126
     4.5818   5.2212   5.4088   5.6545   5.7036   5.9286   5.9819   6.0414
     6.6441   6.7460   6.8477   7.0981   7.6359   7.7419   7.8447   7.9345

     occupation numbers
     1.0000   1.0000   1.0000   1.0000   1.0000   1.0000   1.0000   1.0000
     1.0000   1.0000   1.0000   1.0000   1.0000   1.0000   1.0000   1.0000
     1.0000   1.0000   1.0000   1.0000   1.0000   1.0000   1.0000   1.0000
     1.0000   1.0000   1.0000   1.0000   1.0000   1.0000   1.0000   1.0000
     1.0000   1.0000   1.0000   1.0000   1.0000   1.0000   1.0000   1.0000
     1.0000   1.0000   1.0000   1.0000   1.0000   1.0000   1.0000   1.0000
     1.0000   1.0000   1.0000   1.0000   1.0000   1.0000   1.0000   1.0000
     1.0000   1.0000   1.0000   0.0000   0.0000   0.0000   0.0000   0.0000

     highest occupied, lowest unoccupied level (ev):     6.9366    6.9481

!    total energy              =   -1636.94511336 Ry
     estimated scf accuracy    <       0.00000093 Ry

     The total energy is the sum of the following terms:
     one-electron contribution =   -1263.33205852 Ry
     hartree contribution      =     672.42161019 Ry
     xc contribution           =    -231.25728979 Ry
     ewald contribution        =    -455.06239349 Ry
     one-center paw contrib.   =    -359.71498176 Ry
      -> PAW hartree energy AE =       0.00000000 Ry
      -> PAW hartree energy PS =       0.00000000 Ry
      -> PAW xc energy AE      =       0.00000000 Ry
      -> PAW xc energy PS      =       0.00000000 Ry
      -> total E_H with PAW    =     672.42161019 Ry
      -> total E_XC with PAW   =    -231.25728979 Ry

     convergence has been achieved in  14 iterations

     Writing all to output data dir bands_nm/myprefix.save/

     General routines

     Parallel routines

     PAW routines

   This run was terminated on:   4:25: 3  13Jul2023

   JOB DONE.