     Program PWSCF v.7.1 starts on 17Jul2023 at  1:36:46

     Reading input from espresso_26543.pwi
Warning: card &CELL ignored
Warning: card / ignored

     Current dimensions of program PWSCF are:
     Max number of different atomic species (ntypx) = 10
     Max number of k-points (npk) =  40000
     Max angular momentum in pseudopotentials (lmaxx) =  4
     Message from routine setup:
     using ibrav=0 with symmetry is DISCOURAGED, use correct ibrav instead

     K-points division:     npool     =       2
     R & G space division:  proc/nbgrp/npool/nimage =       4
     Subspace diagonalization in iterative solution of the eigenvalue problem:
     one sub-group per band group will be used

     Using Slab Decomposition

     bravais-lattice index     =            0
     lattice parameter (alat)  =      15.5315  a.u.
     unit-cell volume          =    2884.1763 (a.u.)^3
     number of atoms/cell      =           20
     number of atomic types    =            3
     number of electrons       =       288.00
     number of Kohn-Sham states=          256
     kinetic-energy cutoff     =      30.0000  Ry
     charge density cutoff     =     240.0000  Ry
     scf convergence threshold =      1.0E-06
     mixing beta               =       0.7000
     number of iterations used =            8  plain     mixing
     Exchange-correlation=  SLA  PW   PBX  PBC
                           (   1   4   3   4   0   0   0)

     celldm(1)=  15.531542  celldm(2)=   0.000000  celldm(3)=   0.000000
     celldm(4)=   0.000000  celldm(5)=   0.000000  celldm(6)=   0.000000

     crystal axes: (cart. coord. in units of alat)
               a(1) = (   1.000000   0.000000   0.000000 )
               a(2) = (  -0.333333   0.942809   0.000000 )
               a(3) = (  -0.333333  -0.471405   0.816497 )

     reciprocal axes: (cart. coord. in units 2 pi/alat)
               b(1) = (  1.000000  0.353553  0.612372 )
               b(2) = (  0.000000  1.060660  0.612372 )
               b(3) = (  0.000000  0.000000  1.224745 )

     PseudoPot. # 1 for Zr read from file:
     /lustre07/scratch/pragov/crystal_structure_design/utils/SSSP/Zr_pbe_v1.uspp.F.UPF
     MD5 check sum: 5db81b1e868ab7776c4564c113de050b
     Pseudo is Ultrasoft + core correction, Zval = 12.0
     Generated by new atomic code, or converted to UPF format
     Using radial grid of  887 points,  6 beta functions with:
                l(1) =   0
                l(2) =   0
                l(3) =   1
                l(4) =   1
                l(5) =   2
                l(6) =   2
     Q(r) pseudized with  6 coefficients,  rinner =    1.200   1.200   1.200
                                                       1.200   1.200

     PseudoPot. # 2 for Sb read from file:
     /lustre07/scratch/pragov/crystal_structure_design/utils/SSSP/sb_pbe_v1.4.uspp.F.UPF
     MD5 check sum: 9bc50dfb53373b713f5709b9110fe27f
     Pseudo is Ultrasoft + core correction, Zval = 15.0
     Generated by new atomic code, or converted to UPF format
     Using radial grid of  891 points,  6 beta functions with:
                l(1) =   0
                l(2) =   0
                l(3) =   1
                l(4) =   1
                l(5) =   2
                l(6) =   2
     Q(r) pseudized with  8 coefficients,  rinner =    1.350   1.350   1.350
                                                       1.350   1.350

     PseudoPot. # 3 for Pt read from file:
     /lustre07/scratch/pragov/crystal_structure_design/utils/SSSP/pt_pbe_v1.4.uspp.F.UPF
     MD5 check sum: f09d6de1a584b5a045c4fc126da2d0c4
     Pseudo is Ultrasoft + core correction, Zval = 16.0
     Generated by new atomic code, or converted to UPF format
     Using radial grid of  985 points,  6 beta functions with:
                l(1) =   0
                l(2) =   0
                l(3) =   1
                l(4) =   1
                l(5) =   2
                l(6) =   2
     Q(r) pseudized with  8 coefficients,  rinner =    1.300   1.300   1.300
                                                       1.300   1.300

     atomic species   valence    mass     pseudopotential
        Zr            12.00    91.22400     Zr( 1.00)
        Sb            15.00   121.76000     Sb( 1.00)
        Pt            16.00   195.08400     Pt( 1.00)

      2 Sym. Ops. (no inversion) found ( 1 have fractional translation)

                                    s                        frac. trans.

      isym =  1     identity

 cryst.   s( 1) = (     1          0          0      )
                  (     0          1          0      )
                  (     0          0          1      )

 cart.    s( 1) = (  1.0000000  0.0000000  0.0000000 )
                  (  0.0000000  1.0000000  0.0000000 )
                  (  0.0000000  0.0000000  1.0000000 )

      isym =  2     inv. 180 deg rotation - cart. axis [0,0,1]

 cryst.   s( 2) = (     1          0          0      )    f =(  0.5000000 )
                  (     0          1          0      )       ( -0.0000000 )
                  (    -1         -1         -1      )       (  0.0000000 )

 cart.    s( 2) = (  1.0000000  0.0000000 -0.0000000 )    f =(  0.5000000 )
                  (  0.0000000  1.0000000 -0.0000000 )       ( -0.0000000 )
                  (  0.0000000  0.0000000 -1.0000000 )       (  0.0000000 )

   Cartesian axes

     site n.     atom                  positions (alat units)
         1           Zr  tau(   1) = (   0.4166667   0.2357023   0.2041241  )
         2           Zr  tau(   2) = (   0.5833333  -0.2357023   0.6123724  )
         3           Zr  tau(   3) = (   0.0833333  -0.0589256   0.5103104  )
         4           Zr  tau(   4) = (  -0.4166667   0.2946278   0.7144345  )
         5           Zr  tau(   5) = (  -0.0833333   0.4124790   0.3061862  )
         6           Zr  tau(   6) = (   0.4166667   0.7660323   0.1020621  )
         7           Sb  tau(   7) = (   0.0616323   0.0871613   0.1509678  )
         8           Sb  tau(   8) = (   0.1484363   0.4714045   0.0000000  )
         9           Sb  tau(   9) = (  -0.2717010   0.0613797   0.4082483  )
        10           Sb  tau(  10) = (   0.2282990   0.3228635   0.5592161  )
        11           Sb  tau(  11) = (   0.3949657  -0.1485410   0.2572805  )
        12           Sb  tau(  12) = (   0.6484363   0.4714045   0.0000000  )
        13           Sb  tau(  13) = (   0.2282990  -0.3842432   0.6655288  )
        14           Sb  tau(  14) = (   0.5616323   0.5327842   0.4082483  )
        15           Pt  tau(  15) = (  -0.2500000   0.7071068   0.2041241  )
        16           Pt  tau(  16) = (  -0.0833333   0.2357023   0.6123724  )
        17           Pt  tau(  17) = (   0.7500000   0.1767767   0.1020621  )
        18           Pt  tau(  18) = (   0.2500000   0.5303301   0.3061862  )
        19           Pt  tau(  19) = (  -0.0833333  -0.2946278   0.7144345  )
        20           Pt  tau(  20) = (   0.4166667   0.0589256   0.5103104  )

   Crystallographic axes

     site n.     atom                  positions (cryst. coord.)
         1           Zr  tau(   1) = (  0.6250000  0.3750000  0.2500000  )
         2           Zr  tau(   2) = (  0.8750000  0.1250000  0.7500000  )
         3           Zr  tau(   3) = (  0.3750000  0.2500000  0.6250000  )
         4           Zr  tau(   4) = (  0.1250000  0.7500000  0.8750000  )
         5           Zr  tau(   5) = (  0.2500000  0.6250000  0.3750000  )
         6           Zr  tau(   6) = (  0.7500000  0.8750000  0.1250000  )
         7           Sb  tau(   7) = (  0.1848970  0.1848970  0.1848970  )
         8           Sb  tau(   8) = (  0.3151030  0.5000000  0.0000000  )
         9           Sb  tau(   9) = (  0.0000000  0.3151030  0.5000000  )
        10           Sb  tau(  10) = (  0.6848970  0.6848970  0.6848970  )
        11           Sb  tau(  11) = (  0.5000000  0.0000000  0.3151030  )
        12           Sb  tau(  12) = (  0.8151030  0.5000000  0.0000000  )
        13           Sb  tau(  13) = (  0.5000000 -0.0000000  0.8151030  )
        14           Sb  tau(  14) = (  1.0000000  0.8151030  0.5000000  )
        15           Pt  tau(  15) = (  0.1250000  0.8750000  0.2500000  )
        16           Pt  tau(  16) = (  0.3750000  0.6250000  0.7500000  )
        17           Pt  tau(  17) = (  0.8750000  0.2500000  0.1250000  )
        18           Pt  tau(  18) = (  0.6250000  0.7500000  0.3750000  )
        19           Pt  tau(  19) = (  0.2500000  0.1250000  0.8750000  )
        20           Pt  tau(  20) = (  0.7500000  0.3750000  0.6250000  )

     number of k points=    10
                       cart. coord. in units 2pi/alat
        k(    1) = (   0.0000000   0.0000000   0.0000000), wk =   0.0740741
        k(    2) = (   0.0000000   0.0000000   0.4082483), wk =   0.1481481
        k(    3) = (   0.0000000   0.3535534   0.2041241), wk =   0.2962963
        k(    4) = (   0.0000000   0.3535534   0.6123724), wk =   0.1481481
        k(    5) = (   0.3333333   0.1178511   0.2041241), wk =   0.2962963
        k(    6) = (   0.3333333   0.1178511   0.6123724), wk =   0.1481481
        k(    7) = (   0.3333333   0.4714045   0.4082483), wk =   0.2962963
        k(    8) = (   0.3333333   0.4714045  -0.0000000), wk =   0.1481481
        k(    9) = (   0.3333333  -0.2357023  -0.0000000), wk =   0.1481481
        k(   10) = (   0.3333333  -0.2357023   0.4082483), wk =   0.2962963

                       cryst. coord.
        k(    1) = (   0.0000000   0.0000000   0.0000000), wk =   0.0740741
        k(    2) = (   0.0000000   0.0000000   0.3333333), wk =   0.1481481
        k(    3) = (   0.0000000   0.3333333   0.0000000), wk =   0.2962963
        k(    4) = (   0.0000000   0.3333333   0.3333333), wk =   0.1481481
        k(    5) = (   0.3333333  -0.0000000  -0.0000000), wk =   0.2962963
        k(    6) = (   0.3333333  -0.0000000   0.3333333), wk =   0.1481481
        k(    7) = (   0.3333333   0.3333333   0.0000000), wk =   0.2962963
        k(    8) = (   0.3333333   0.3333333  -0.3333333), wk =   0.1481481
        k(    9) = (   0.3333333  -0.3333333  -0.0000000), wk =   0.1481481
        k(   10) = (   0.3333333  -0.3333333   0.3333333), wk =   0.2962963

     Check: negative core charge=   -0.000004

     Initial potential from superposition of free atoms

     starting charge     276.9869, renormalised to     288.0000

     negative rho (up, down):  1.582E+00 0.000E+00
     Starting wfcs are  222 randomized atomic wfcs +   34 random wfcs

     Self-consistent Calculation

     iteration #  1     ecut=    30.00 Ry     beta= 0.70
     Davidson diagonalization with overlap

     ethr =  1.00E-02,  avg # of iterations =  6.8

     negative rho (up, down):  1.377E+00 0.000E+00

     total energy              =   -3321.04578583 Ry
     estimated scf accuracy    <      30.16895186 Ry

[...]

     c_bands:  1 eigenvalues not converged
     ethr =  7.21E-06,  avg # of iterations =  6.5

[...]

     total energy              =   -3339.60520365 Ry
     estimated scf accuracy    <       0.00000387 Ry

     iteration # 12     ecut=    30.00 Ry     beta= 0.70
     Davidson diagonalization with overlap

     ethr =  1.34E-09,  avg # of iterations =  1.0

     negative rho (up, down):  1.469E+00 0.000E+00

     End of self-consistent calculation

          k = 0.0000 0.0000 0.0000 (  8007 PWs)   bands (ev):

   -37.6028 -37.6026 -37.6026 -37.6024 -37.6016 -37.6016 -37.4548 -37.4548
   -37.4546 -37.4529 -37.4529 -37.4527 -37.4526 -37.4526 -37.4523 -37.4519
   -37.4519 -37.4517 -34.1303 -34.1280 -34.1278 -34.1264 -34.1261 -34.1261
   -13.4882 -13.4882 -13.4770 -13.4770 -13.4755 -13.4753 -13.4752 -13.4701
   -13.4699 -13.4698 -13.4568 -13.4565 -13.4564 -13.4477 -13.4474 -13.4473
   -13.4240 -13.4239 -13.4237 -13.4234 -13.4233 -13.4205 -13.4202 -13.4201
   -13.4157 -13.4157 -13.4136 -13.4134 -13.4133 -13.4101 -13.4099 -13.4099
   -13.4054 -13.4002 -13.3911 -13.3908 -13.3904 -13.3830 -13.3829 -13.3825
   -12.1710 -12.1537 -12.1534 -12.1534 -12.1444 -12.1443 -12.1271 -12.1271
   -12.1269 -12.1095 -12.1095 -12.1093 -12.1037 -12.1037 -12.1035 -12.0992
   -12.0992 -12.0991   3.7274   5.2018   5.6978   5.6978   5.6981   5.8251
     5.8252   5.8255   8.9384   8.9385  10.0916  10.0916  10.3544  10.3544
    10.3546  10.4425  10.4425  10.4426  10.6320  10.8577  10.8578  10.8578
    11.2429  11.2429  11.2430  11.2445  11.2446  11.2446  11.6558  11.6559
    11.6879  11.7719  11.7722  11.7722  11.9029  11.9671  11.9673  12.2303
    12.2304  12.2305  12.2781  12.2783  12.2783  12.7481  12.7481  12.7481
    13.0135  13.0135  13.4763  14.1856  14.1857  14.1857  14.3837  14.6416
    14.6417  14.6417  14.7636  14.7636  14.7637  14.8289  14.8289  14.8289
    16.1020  16.1021  16.8339  16.8339  16.8340  16.9936  16.9937  16.9937
    16.9990  16.9991  16.9991  17.3243  17.3244  17.4143  17.4143  17.4144
    17.6497  17.8888  18.1272  18.1273  18.1396  18.1396  18.1396  18.7832
    18.7833  18.7833  19.0425  19.0426  19.0426  19.1696  19.2464  19.9988
    19.9988  20.2148  20.2149  20.2149  20.9430  20.9718  20.9718  20.9718
    21.9762  21.9763  21.9763  22.2687  22.2688  22.3179  22.3179  22.3179
    22.9334  22.9334  23.0330  23.0330  23.0330  23.9706  23.9706  23.9707
    24.9566  24.9566  24.9566  25.0558  25.6244  25.6244  25.6644  25.6645
    25.6645  26.4142  26.4142  26.4142  27.1011  27.1012  27.1013  27.5682
    27.5683  27.5684  27.7155  27.7396  27.9929  27.9930  27.9930  28.2830
    28.2831  28.2831  28.7133  28.7133  28.7134  28.9920  29.3449  29.3449
    29.5205  29.5206  30.0253  30.0253  30.0253  30.0867  30.0867  30.0868
    30.9172  30.9172  30.9173  30.9177  30.9178  30.9178  31.0566  31.0566
    31.0566  31.1200  31.1201  31.4877  31.4877  31.4877  31.9894  31.9895

     occupation numbers
     1.0000   1.0000   1.0000   1.0000   1.0000   1.0000   1.0000   1.0000
     1.0000   1.0000   1.0000   1.0000   1.0000   1.0000   1.0000   1.0000
     1.0000   1.0000   1.0000   1.0000   1.0000   1.0000   1.0000   1.0000
     1.0000   1.0000   1.0000   1.0000   1.0000   1.0000   1.0000   1.0000
     1.0000   1.0000   1.0000   1.0000   1.0000   1.0000   1.0000   1.0000
     1.0000   1.0000   1.0000   1.0000   1.0000   1.0000   1.0000   1.0000
     1.0000   1.0000   1.0000   1.0000   1.0000   1.0000   1.0000   1.0000
     1.0000   1.0000   1.0000   1.0000   1.0000   1.0000   1.0000   1.0000
     1.0000   1.0000   1.0000   1.0000   1.0000   1.0000   1.0000   1.0000
     1.0000   1.0000   1.0000   1.0000   1.0000   1.0000   1.0000   1.0000
     1.0000   1.0000   1.0000   1.0000   1.0000   1.0000   1.0000   1.0000
     1.0000   1.0000   1.0000   1.0000   1.0000   1.0000   1.0000   1.0000
     1.0000   1.0000   1.0000   1.0000   1.0000   1.0000   1.0000   1.0000
     1.0000   1.0000   1.0000   1.0000   1.0000   1.0000   1.0000   1.0000
     1.0000   1.0000   1.0000   1.0000   1.0000   1.0000   1.0000   1.0000
     1.0000   1.0000   1.0000   1.0000   1.0000   1.0000   1.0000   1.0000
     1.0000   1.0000   1.0000   1.0000   1.0000   1.0000   1.0000   1.0000
     1.0000   1.0000   1.0000   1.0000   1.0000   1.0000   1.0000   1.0000
     0.0000   0.0000   0.0000   0.0000   0.0000   0.0000   0.0000   0.0000
     0.0000   0.0000   0.0000   0.0000   0.0000   0.0000   0.0000   0.0000
     0.0000   0.0000   0.0000   0.0000   0.0000   0.0000   0.0000   0.0000
     0.0000   0.0000   0.0000   0.0000   0.0000   0.0000   0.0000   0.0000
     0.0000   0.0000   0.0000   0.0000   0.0000   0.0000   0.0000   0.0000
     0.0000   0.0000   0.0000   0.0000   0.0000   0.0000   0.0000   0.0000
     0.0000   0.0000   0.0000   0.0000   0.0000   0.0000   0.0000   0.0000
     0.0000   0.0000   0.0000   0.0000   0.0000   0.0000   0.0000   0.0000
     0.0000   0.0000   0.0000   0.0000   0.0000   0.0000   0.0000   0.0000
     0.0000   0.0000   0.0000   0.0000   0.0000   0.0000   0.0000   0.0000
     0.0000   0.0000   0.0000   0.0000   0.0000   0.0000   0.0000   0.0000
     0.0000   0.0000   0.0000   0.0000   0.0000   0.0000   0.0000   0.0000
     0.0000   0.0000   0.0000   0.0000   0.0000   0.0000   0.0000   0.0000
     0.0000   0.0000   0.0000   0.0000   0.0000   0.0000   0.0000   0.0000

[...]

          k = 0.3333-0.2357 0.4082 (  7980 PWs)   bands (ev):

   -37.6027 -37.6026 -37.6026 -37.6026 -37.6017 -37.6017 -37.4542 -37.4538
   -37.4538 -37.4535 -37.4531 -37.4530 -37.4529 -37.4527 -37.4524 -37.4521
   -37.4521 -37.4519 -34.1286 -34.1277 -34.1275 -34.1274 -34.1270 -34.1266
   -13.4818 -13.4794 -13.4782 -13.4779 -13.4779 -13.4766 -13.4679 -13.4678
   -13.4642 -13.4642 -13.4587 -13.4583 -13.4484 -13.4484 -13.4466 -13.4465
   -13.4248 -13.4235 -13.4235 -13.4220 -13.4186 -13.4186 -13.4180 -13.4169
   -13.4161 -13.4161 -13.4159 -13.4149 -13.4131 -13.4130 -13.4126 -13.4110
   -13.3964 -13.3925 -13.3921 -13.3907 -13.3905 -13.3829 -13.3824 -13.3821
   -12.1619 -12.1534 -12.1534 -12.1532 -12.1527 -12.1453 -12.1209 -12.1179
   -12.1178 -12.1169 -12.1112 -12.1111 -12.1087 -12.1069 -12.1031 -12.1030
   -12.0993 -12.0991   4.3898   5.0202   5.1374   5.1374   5.2517   5.5508
     6.4600   6.4600   9.2409   9.3621   9.6735   9.7855   9.7855  10.1792
    10.3694  10.4023  10.4793  10.5066  10.5067  10.7587  11.0430  11.0431
    11.2001  11.2003  11.3581  11.3601  11.4263  11.4788  11.4789  11.5830
    11.7215  11.8139  11.8140  11.8368  11.9527  12.0255  12.0605  12.1265
    12.1267  12.2382  12.2812  12.3487  12.3487  12.7643  12.8327  12.9178
    13.2367  13.2367  13.7337  13.7338  13.7661  13.8822  14.4134  14.4150
    14.4151  14.5740  14.8312  14.9303  14.9303  14.9448  15.2640  15.2641
    16.3506  16.3556  16.7744  16.7744  16.8031  16.8441  16.9821  16.9821
    17.0002  17.1953  17.2447  17.2447  17.2758  17.3789  17.3979  17.3979
    17.4918  17.6032  17.7626  17.8269  17.9595  17.9596  18.0514  18.0514
    18.1121  18.6977  19.0202  19.0202  19.0435  19.2595  19.9270  20.1227
    20.2394  20.5100  20.6475  20.6475  20.6759  20.9891  21.0210  21.0211
    21.2967  21.5926  21.5927  21.7689  22.3064  22.5005  22.5005  23.0359
    23.1989  23.1989  23.5597  23.7041  24.0624  24.0624  24.2621  24.5012
    24.5666  24.8098  24.9578  24.9579  25.3489  25.3791  25.5724  25.5724
    26.0046  26.0637  26.3730  26.3730  26.7940  26.8235  26.8236  26.9474
    27.1712  27.3220  27.3220  27.4739  27.6581  27.6999  27.8657  27.8657
    28.2462  28.3639  28.4020  28.4020  28.8228  28.8228  28.9099  29.0601
    29.2807  29.2807  29.6011  29.6263  29.9561  30.1129  30.1129  30.3543
    30.3544  30.3933  30.5088  30.8823  30.9639  30.9639  31.1575  31.3333
    31.5231  31.5616  31.5616  31.7585  31.9096  32.0743  32.0893  32.0893

     occupation numbers
     1.0000   1.0000   1.0000   1.0000   1.0000   1.0000   1.0000   1.0000
     1.0000   1.0000   1.0000   1.0000   1.0000   1.0000   1.0000   1.0000
     1.0000   1.0000   1.0000   1.0000   1.0000   1.0000   1.0000   1.0000
     1.0000   1.0000   1.0000   1.0000   1.0000   1.0000   1.0000   1.0000
     1.0000   1.0000   1.0000   1.0000   1.0000   1.0000   1.0000   1.0000
     1.0000   1.0000   1.0000   1.0000   1.0000   1.0000   1.0000   1.0000
     1.0000   1.0000   1.0000   1.0000   1.0000   1.0000   1.0000   1.0000
     1.0000   1.0000   1.0000   1.0000   1.0000   1.0000   1.0000   1.0000
     1.0000   1.0000   1.0000   1.0000   1.0000   1.0000   1.0000   1.0000
     1.0000   1.0000   1.0000   1.0000   1.0000   1.0000   1.0000   1.0000
     1.0000   1.0000   1.0000   1.0000   1.0000   1.0000   1.0000   1.0000
     1.0000   1.0000   1.0000   1.0000   1.0000   1.0000   1.0000   1.0000
     1.0000   1.0000   1.0000   1.0000   1.0000   1.0000   1.0000   1.0000
     1.0000   1.0000   1.0000   1.0000   1.0000   1.0000   1.0000   1.0000
     1.0000   1.0000   1.0000   1.0000   1.0000   1.0000   1.0000   1.0000
     1.0000   1.0000   1.0000   1.0000   1.0000   1.0000   1.0000   1.0000
     1.0000   1.0000   1.0000   1.0000   1.0000   1.0000   1.0000   1.0000
     1.0000   1.0000   1.0000   1.0000   1.0000   1.0000   1.0000   1.0000
     0.0000   0.0000   0.0000   0.0000   0.0000   0.0000   0.0000   0.0000
     0.0000   0.0000   0.0000   0.0000   0.0000   0.0000   0.0000   0.0000
     0.0000   0.0000   0.0000   0.0000   0.0000   0.0000   0.0000   0.0000
     0.0000   0.0000   0.0000   0.0000   0.0000   0.0000   0.0000   0.0000
     0.0000   0.0000   0.0000   0.0000   0.0000   0.0000   0.0000   0.0000
     0.0000   0.0000   0.0000   0.0000   0.0000   0.0000   0.0000   0.0000
     0.0000   0.0000   0.0000   0.0000   0.0000   0.0000   0.0000   0.0000
     0.0000   0.0000   0.0000   0.0000   0.0000   0.0000   0.0000   0.0000
     0.0000   0.0000   0.0000   0.0000   0.0000   0.0000   0.0000   0.0000
     0.0000   0.0000   0.0000   0.0000   0.0000   0.0000   0.0000   0.0000
     0.0000   0.0000   0.0000   0.0000   0.0000   0.0000   0.0000   0.0000
     0.0000   0.0000   0.0000   0.0000   0.0000   0.0000   0.0000   0.0000
     0.0000   0.0000   0.0000   0.0000   0.0000   0.0000   0.0000   0.0000
     0.0000   0.0000   0.0000   0.0000   0.0000   0.0000   0.0000   0.0000

     highest occupied, lowest unoccupied level (ev):    15.2925   16.1020

!    total energy              =   -3339.60520389 Ry
     estimated scf accuracy    <       0.00000035 Ry

     The total energy is the sum of the following terms:
     one-electron contribution =    -941.44480030 Ry
     hartree contribution      =     653.18406408 Ry
     xc contribution           =    -801.34594222 Ry
     ewald contribution        =   -2249.99852545 Ry

     convergence has been achieved in  12 iterations

     Writing all to output data dir bands_nm/myprefix.save/

     General routines

     Parallel routines

   This run was terminated on:   1:38:40  17Jul2023

   JOB DONE.