     Program PWSCF v.7.1 starts on 15Jul2023 at 18:56: 3

     Reading input from espresso_3111.pwi
Warning: card &CELL ignored
Warning: card / ignored

     Current dimensions of program PWSCF are:
     Max number of different atomic species (ntypx) = 10
     Max number of k-points (npk) =  40000
     Max angular momentum in pseudopotentials (lmaxx) =  4
     file O.pbe-n-kjpaw_psl.0.1.UPF: wavefunction(s)  2P renormalized

     K-points division:     npool     =       2
     R & G space division:  proc/nbgrp/npool/nimage =       4
     Subspace diagonalization in iterative solution of the eigenvalue problem:
     one sub-group per band group will be used

     Using Slab Decomposition

     bravais-lattice index     =            0
     lattice parameter (alat)  =      10.0347  a.u.
     unit-cell volume          =    1472.8934 (a.u.)^3
     number of atoms/cell      =           16
     number of atomic types    =            3
     number of electrons       =       132.00
     number of Kohn-Sham states=          256
     kinetic-energy cutoff     =      30.0000  Ry
     charge density cutoff     =     240.0000  Ry
     scf convergence threshold =      1.0E-06
     mixing beta               =       0.7000
     number of iterations used =            8  plain     mixing
     Exchange-correlation=  SLA  PW   PBX  PBC
                           (   1   4   3   4   0   0   0)

     celldm(1)=  10.034679  celldm(2)=   0.000000  celldm(3)=   0.000000
     celldm(4)=   0.000000  celldm(5)=   0.000000  celldm(6)=   0.000000

     crystal axes: (cart. coord. in units of alat)
               a(1) = (   1.000000   0.000000   0.000000 )
               a(2) = (   0.495571   0.884984   0.000000 )
               a(3) = (  -0.467895  -0.299250   1.647121 )

     reciprocal axes: (cart. coord. in units 2 pi/alat)
               b(1) = (  1.000000 -0.559977  0.182331 )
               b(2) = (  0.000000  1.129964  0.205293 )
               b(3) = (  0.000000  0.000000  0.607120 )

     PseudoPot. # 1 for V  read from file:
     /lustre07/scratch/pragov/crystal_structure_design/utils/SSSP/v_pbe_v1.4.uspp.F.UPF
     MD5 check sum: 22b79981416ebb76fdaf5b1b8640f6fb
     Pseudo is Ultrasoft + core correction, Zval = 13.0
     Generated by new atomic code, or converted to UPF format
     Using radial grid of  853 points,  6 beta functions with:
                l(1) =   0
                l(2) =   0
                l(3) =   1
                l(4) =   1
                l(5) =   2
                l(6) =   2
     Q(r) pseudized with  8 coefficients,  rinner =    1.100   1.100   1.100
                                                       1.100   1.100

     PseudoPot. # 2 for O  read from file:
     /lustre07/scratch/pragov/crystal_structure_design/utils/SSSP/O.pbe-n-kjpaw_psl.0.1.UPF
     MD5 check sum: 0234752ac141de4415c5fc33072bef88
     Pseudo is Projector augmented-wave + core cor, Zval =  6.0
     Generated using "atomic" code by A. Dal Corso  v.5.0.99 svn rev. 10869
     Shape of augmentation charge: BESSEL
     Using radial grid of 1095 points,  4 beta functions with:
                l(1) =   0
                l(2) =   0
                l(3) =   1
                l(4) =   1
     Q(r) pseudized with 0 coefficients

     PseudoPot. # 3 for F  read from file:
     /lustre07/scratch/pragov/crystal_structure_design/utils/SSSP/f_pbe_v1.4.uspp.F.UPF
     MD5 check sum: 4c38b6a325caf53ec0e86aed9459de46
     Pseudo is Ultrasoft, Zval =  7.0
     Generated by new atomic code, or converted to UPF format
     Using radial grid of  799 points,  4 beta functions with:
                l(1) =   0
                l(2) =   0
                l(3) =   1
                l(4) =   1
     Q(r) pseudized with  8 coefficients,  rinner =    0.950   0.950   0.950

     atomic species   valence    mass     pseudopotential
        V             13.00    50.94150     V ( 1.00)
        O              6.00    15.99900     O ( 1.00)
        F              7.00    18.99840     F ( 1.00)

     No symmetry found

                                    s                        frac. trans.

      isym =  1     identity

 cryst.   s( 1) = (     1          0          0      )
                  (     0          1          0      )
                  (     0          0          1      )

 cart.    s( 1) = (  1.0000000  0.0000000  0.0000000 )
                  (  0.0000000  1.0000000  0.0000000 )
                  (  0.0000000  0.0000000  1.0000000 )

   Cartesian axes

     site n.     atom                  positions (alat units)
         1           V   tau(   1) = (   0.5373666   0.3063924   0.8079655  )
         2           V   tau(   2) = (   0.0434175   0.0085795   1.2143943  )
         3           V   tau(   3) = (  -0.4443442  -0.2856670   1.6315490  )
         4           V   tau(   4) = (   1.0251854   0.6006851   0.3908585  )
         5           O   tau(   5) = (   0.7670662   0.4456829   0.6439502  )
         6           O   tau(   6) = (  -0.2146252  -0.1463412   1.4675633  )
         7           O   tau(   7) = (   1.2311160   0.7259743   0.1888721  )
         8           O   tau(   8) = (   0.2492536   0.1338261   1.0123452  )
         9           F   tau(   9) = (   0.2654440   0.3766263   0.5640467  )
        10           F   tau(  10) = (   0.2837189  -0.2153850   1.3876533  )
        11           F   tau(  11) = (   0.9196675   0.3149048   0.1773702  )
        12           F   tau(  12) = (   0.4335125   0.6077025   1.0009653  )
        13           F   tau(  13) = (   0.5777055  -0.0317793   0.6597329  )
        14           F   tau(  14) = (   0.0915707   0.2611999   1.4831714  )
        15           F   tau(  15) = (   0.7277262   0.7917587   0.2732541  )
        16           F   tau(  16) = (   0.7458935   0.1995916   1.0968359  )

   Crystallographic axes

     site n.     atom                  positions (cryst. coord.)
         1           V   tau(   1) = (  0.5131110  0.5120820  0.4905320  )
         2           V   tau(   2) = (  0.2600350  0.2590010  0.7372830  )
         3           V   tau(   3) = (  0.0131050  0.0121520  0.9905460  )
         4           V   tau(   4) = (  0.7600810  0.7589930  0.2372980  )
         5           O   tau(   5) = (  0.6349060  0.6358040  0.3909550  )
         6           O   tau(   6) = (  0.1349050  0.1359200  0.8909870  )
         7           O   tau(   7) = (  0.8590240  0.8590990  0.1146680  )
         8           O   tau(   8) = (  0.3588960  0.3590460  0.6146150  )
         9           F   tau(   9) = (  0.1573850  0.5413690  0.3424440  )
        10           F   tau(  10) = (  0.6573420  0.0414980  0.8424720  )
        11           F   tau(  11) = (  0.7756680  0.3922440  0.1076850  )
        12           F   tau(  12) = (  0.2757200  0.8921730  0.6077060  )
        13           F   tau(  13) = (  0.7157910  0.0995290  0.4005370  )
        14           F   tau(  14) = (  0.2157330  0.5996310  0.9004630  )
        15           F   tau(  15) = (  0.3341820  0.9507560  0.1658980  )
        16           F   tau(  16) = (  0.8341140  0.4507040  0.6659110  )

     number of k points=    14
                       cart. coord. in units 2pi/alat
        k(    1) = (   0.0000000   0.0000000   0.0000000), wk =   0.0740741
        k(    2) = (   0.0000000   0.0000000   0.2023733), wk =   0.1481481
        k(    3) = (   0.0000000   0.3766547   0.0684310), wk =   0.1481481
        k(    4) = (   0.0000000   0.3766547   0.2708043), wk =   0.1481481
        k(    5) = (   0.0000000   0.3766547  -0.1339424), wk =   0.1481481
        k(    6) = (   0.3333333  -0.1866591   0.0607770), wk =   0.1481481
        k(    7) = (   0.3333333  -0.1866591   0.2631504), wk =   0.1481481
        k(    8) = (   0.3333333  -0.1866591  -0.1415963), wk =   0.1481481
        k(    9) = (   0.3333333   0.1899956   0.1292080), wk =   0.1481481
        k(   10) = (   0.3333333   0.1899956   0.3315813), wk =   0.1481481
        k(   11) = (   0.3333333   0.1899956  -0.0731653), wk =   0.1481481
        k(   12) = (   0.3333333  -0.5633138  -0.0076539), wk =   0.1481481
        k(   13) = (   0.3333333  -0.5633138   0.1947194), wk =   0.1481481
        k(   14) = (   0.3333333  -0.5633138  -0.2100273), wk =   0.1481481

                       cryst. coord.
        k(    1) = (   0.0000000   0.0000000   0.0000000), wk =   0.0740741
        k(    2) = (   0.0000000   0.0000000   0.3333333), wk =   0.1481481
        k(    3) = (   0.0000000   0.3333333   0.0000000), wk =   0.1481481
        k(    4) = (   0.0000000   0.3333333   0.3333333), wk =   0.1481481
        k(    5) = (   0.0000000   0.3333333  -0.3333333), wk =   0.1481481
        k(    6) = (   0.3333333   0.0000000   0.0000000), wk =   0.1481481
        k(    7) = (   0.3333333   0.0000000   0.3333333), wk =   0.1481481
        k(    8) = (   0.3333333   0.0000000  -0.3333333), wk =   0.1481481
        k(    9) = (   0.3333333   0.3333333   0.0000000), wk =   0.1481481
        k(   10) = (   0.3333333   0.3333333   0.3333333), wk =   0.1481481
        k(   11) = (   0.3333333   0.3333333  -0.3333333), wk =   0.1481481
        k(   12) = (   0.3333333  -0.3333333  -0.0000000), wk =   0.1481481
        k(   13) = (   0.3333333  -0.3333333   0.3333333), wk =   0.1481481
        k(   14) = (   0.3333333  -0.3333333  -0.3333333), wk =   0.1481481

     Check: negative core charge=   -0.000010

     Initial potential from superposition of free atoms

     starting charge     131.9951, renormalised to     132.0000

     negative rho (up, down):  2.491E-03 0.000E+00
     Starting wfcs are   88 randomized atomic wfcs +  168 random wfcs
     Checking if some PAW data can be deallocated...

     Self-consistent Calculation

     iteration #  1     ecut=    30.00 Ry     beta= 0.70
     Davidson diagonalization with overlap

     ethr =  1.00E-02,  avg # of iterations =  7.1

     negative rho (up, down):  9.314E-03 0.000E+00

     total energy              =   -1133.77157702 Ry
     estimated scf accuracy    <       4.85357722 Ry

[...]

     c_bands:  1 eigenvalues not converged
     ethr =  4.96E-07,  avg # of iterations =  4.1

[...]

     total energy              =   -1136.68974244 Ry
     estimated scf accuracy    <       0.00002150 Ry

     iteration # 20     ecut=    30.00 Ry     beta= 0.70
     Davidson diagonalization with overlap

     ethr =  1.63E-08,  avg # of iterations =  1.0

     negative rho (up, down):  6.311E-03 0.000E+00

     End of self-consistent calculation

          k = 0.0000 0.0000 0.0000 (  4093 PWs)   bands (ev):

   -61.0018 -61.0004 -61.0003 -60.9992 -35.1957 -35.1776 -35.1748 -35.1575
   -34.7044 -34.7025 -34.6817 -34.6811 -34.6790 -34.6777 -34.6594 -34.6565
   -19.3698 -19.1012 -19.0921 -18.9993 -18.9059 -18.9025 -18.8161 -18.8122
   -13.8141 -13.4984 -13.4683 -13.0931  -2.6428  -2.3472  -2.1385  -2.1073
    -1.8938  -1.8642  -1.7060  -1.6934  -1.4838  -1.4810  -1.2632  -1.2593
    -1.0696  -1.0308  -0.8254  -0.7553  -0.5402  -0.4046  -0.3624  -0.0806
    -0.0423   0.2198   0.4901   0.4979   0.5059   0.5110   0.5204   1.4846
     1.5237   1.5360   1.5916   1.6255   1.6344   1.6413   1.9548   1.9614
     4.6703   5.1715   5.1831   5.2503   5.2819   5.4420   5.8449   5.8940
     5.9387   5.9614   6.2995   6.4036   6.6611   6.7781   7.1579   7.2764
     8.1864   8.2291   8.3484   9.8295  10.0815  12.4351  12.4639  13.9333
    16.2368  16.2747  16.3324  16.3763  16.5944  16.7309  17.2426  17.3228
    17.5083  17.6328  17.7472  17.7868  18.4809  18.9570  19.0492  19.2872
    19.4719  19.6277  19.9940  20.0217  20.3094  20.5644  20.8018  21.5115
    22.1577  22.8961  23.0011  23.4206  23.6602  23.7919  23.8073  24.0696
    24.0806  24.1460  24.9015  25.2416  25.6980  25.8983  26.6552  26.6723
    26.8342  27.5273  27.6196  27.8071  27.8369  28.1207  28.4011  29.2443
    29.2907  29.3111  29.9881  29.9921  30.0245  30.2868  30.5441  30.6479
    31.2755  31.3343  31.3389  31.5012  31.5129  31.8373  31.8904  31.9798
    32.3786  32.5790  32.6572  32.9705  33.1681  33.2155  33.6490  34.1051
    34.4502  34.6723  34.7945  35.2582  35.5166  35.5636  35.6482  35.7937
    35.8982  36.2359  36.7505  37.1045  37.4928  37.7762  37.8694  38.0443
    38.4451  38.9229  38.9351  38.9610  39.1374  39.2160  39.3270  39.4083
    39.5423  39.7723  39.9497  40.4189  40.4807  40.5334  40.8582  41.2512
    41.3906  41.4760  41.6937  41.8192  41.9950  42.0396  42.2341  42.8048
    42.8171  43.0183  43.1338  43.2407  43.2898  43.4473  43.6027  43.6178
    43.6731  43.9478  44.4230  44.5431  44.7355  44.8119  44.8580  45.3927
    45.5186  45.5751  45.6325  45.8435  46.2674  46.3755  46.7332  47.2687
    47.4535  47.6725  47.7650  48.2325  48.3149  48.3190  48.5285  49.0125
    49.0456  49.1967  49.2742  49.6014  49.9003  50.4213  50.4360  50.6636
    50.8600  51.0488  51.1459  51.2512  51.3083  51.4606  51.4784  51.5244
    51.7010  52.1605  52.2863  52.2976  52.3540  52.6663  52.7679  52.8834

     occupation numbers
     1.0000   1.0000   1.0000   1.0000   1.0000   1.0000   1.0000   1.0000
     1.0000   1.0000   1.0000   1.0000   1.0000   1.0000   1.0000   1.0000
     1.0000   1.0000   1.0000   1.0000   1.0000   1.0000   1.0000   1.0000
     1.0000   1.0000   1.0000   1.0000   1.0000   1.0000   1.0000   1.0000
     1.0000   1.0000   1.0000   1.0000   1.0000   1.0000   1.0000   1.0000
     1.0000   1.0000   1.0000   1.0000   1.0000   1.0000   1.0000   1.0000
     1.0000   1.0000   1.0000   1.0000   1.0000   1.0000   1.0000   1.0000
     1.0000   1.0000   1.0000   1.0000   1.0000   1.0000   1.0000   1.0000
     1.0000   1.0000   0.0000   0.0000   0.0000   0.0000   0.0000   0.0000
     0.0000   0.0000   0.0000   0.0000   0.0000   0.0000   0.0000   0.0000
     0.0000   0.0000   0.0000   0.0000   0.0000   0.0000   0.0000   0.0000
     0.0000   0.0000   0.0000   0.0000   0.0000   0.0000   0.0000   0.0000
     0.0000   0.0000   0.0000   0.0000   0.0000   0.0000   0.0000   0.0000
     0.0000   0.0000   0.0000   0.0000   0.0000   0.0000   0.0000   0.0000
     0.0000   0.0000   0.0000   0.0000   0.0000   0.0000   0.0000   0.0000
     0.0000   0.0000   0.0000   0.0000   0.0000   0.0000   0.0000   0.0000
     0.0000   0.0000   0.0000   0.0000   0.0000   0.0000   0.0000   0.0000
     0.0000   0.0000   0.0000   0.0000   0.0000   0.0000   0.0000   0.0000
     0.0000   0.0000   0.0000   0.0000   0.0000   0.0000   0.0000   0.0000
     0.0000   0.0000   0.0000   0.0000   0.0000   0.0000   0.0000   0.0000
     0.0000   0.0000   0.0000   0.0000   0.0000   0.0000   0.0000   0.0000
     0.0000   0.0000   0.0000   0.0000   0.0000   0.0000   0.0000   0.0000
     0.0000   0.0000   0.0000   0.0000   0.0000   0.0000   0.0000   0.0000
     0.0000   0.0000   0.0000   0.0000   0.0000   0.0000   0.0000   0.0000
     0.0000   0.0000   0.0000   0.0000   0.0000   0.0000   0.0000   0.0000
     0.0000   0.0000   0.0000   0.0000   0.0000   0.0000   0.0000   0.0000
     0.0000   0.0000   0.0000   0.0000   0.0000   0.0000   0.0000   0.0000
     0.0000   0.0000   0.0000   0.0000   0.0000   0.0000   0.0000   0.0000
     0.0000   0.0000   0.0000   0.0000   0.0000   0.0000   0.0000   0.0000
     0.0000   0.0000   0.0000   0.0000   0.0000   0.0000   0.0000   0.0000
     0.0000   0.0000   0.0000   0.0000   0.0000   0.0000   0.0000   0.0000
     0.0000   0.0000   0.0000   0.0000   0.0000   0.0000   0.0000   0.0000

[...]

          k = 0.3333-0.5633-0.2100 (  4098 PWs)   bands (ev):

   -61.0005 -61.0004 -61.0004 -61.0002 -35.1944 -35.1871 -35.1653 -35.1565
   -34.7043 -34.7010 -34.6928 -34.6807 -34.6784 -34.6686 -34.6594 -34.6568
   -19.2001 -19.1684 -19.0489 -19.0000 -18.9359 -18.9154 -18.8664 -18.8598
   -13.7597 -13.6447 -13.3172 -13.1925  -2.5963  -2.5187  -2.3483  -2.0751
    -1.8924  -1.7609  -1.5635  -1.4134  -1.4058  -1.2523  -1.2328  -1.0056
    -0.8916  -0.8140  -0.6633  -0.4071  -0.3998  -0.2735  -0.1738  -0.1189
    -0.0588  -0.0172   0.1239   0.3141   0.3511   0.4880   0.6091   0.9515
     0.9656   1.1404   1.4761   1.4982   1.5535   1.6102   1.6536   1.7596
     5.0343   5.1587   5.3376   5.3762   5.4283   5.5221   5.5666   5.7475
     6.2648   6.3107   6.3874   6.5403   6.6741   6.7261   7.0941   7.2257
     7.6926   8.0281   8.7864   8.8234  12.8267  12.9128  13.0823  13.1972
    14.2087  14.7628  14.9604  15.7485  16.0998  16.8044  17.0881  17.5062
    18.4299  18.4817  18.6957  18.7587  19.0346  19.0637  19.2341  19.4467
    20.1889  20.5744  20.9893  21.0227  21.3131  21.4435  22.1818  22.3327
    22.4133  22.5199  22.6608  22.8977  23.1801  23.2782  23.4980  23.7111
    23.8637  24.1321  24.2448  24.5363  24.6918  24.7535  25.0729  25.4667
    25.7263  25.9568  25.9980  26.4656  27.1091  27.2429  27.2549  28.5755
    29.1009  29.2899  29.3168  29.8716  30.0086  30.5313  30.7292  30.8476
    31.2183  31.4329  31.6343  31.7607  31.9541  32.2288  32.4547  32.5947
    32.6062  33.0909  33.1798  33.7881  33.7896  34.0205  34.7872  35.0235
    35.1552  35.5627  35.7495  35.8279  36.0520  36.0568  36.3573  36.5525
    36.7433  37.0233  37.0255  37.5870  37.6528  38.1259  38.1601  38.6168
    38.6640  38.8132  38.8497  39.0536  39.1212  39.2364  39.5890  39.6078
    40.1519  40.1719  40.5080  40.6674  40.7669  40.9977  41.1357  41.3210
    41.3612  41.5620  41.8722  41.8822  42.1289  42.2295  42.3497  42.6717
    42.8565  42.9181  43.0211  43.0913  43.2259  43.4087  43.8329  43.9791
    44.0163  44.2879  44.3909  44.4053  44.7493  44.7855  44.8915  45.0776
    45.4110  45.5084  45.9157  45.9328  46.4708  46.5017  46.6271  46.6509
    46.9449  47.0832  47.2090  47.2102  47.6986  47.7366  47.8429  47.9245
    47.9901  48.2763  48.3076  48.5068  48.6587  49.2449  49.3038  49.4360
    49.5595  49.6752  49.9552  50.1572  50.2672  50.4269  50.6881  50.8476
    50.9681  51.1201  51.3361  51.3593  51.5781  51.8887  52.1517  52.3152

     occupation numbers
     1.0000   1.0000   1.0000   1.0000   1.0000   1.0000   1.0000   1.0000
     1.0000   1.0000   1.0000   1.0000   1.0000   1.0000   1.0000   1.0000
     1.0000   1.0000   1.0000   1.0000   1.0000   1.0000   1.0000   1.0000
     1.0000   1.0000   1.0000   1.0000   1.0000   1.0000   1.0000   1.0000
     1.0000   1.0000   1.0000   1.0000   1.0000   1.0000   1.0000   1.0000
     1.0000   1.0000   1.0000   1.0000   1.0000   1.0000   1.0000   1.0000
     1.0000   1.0000   1.0000   1.0000   1.0000   1.0000   1.0000   1.0000
     1.0000   1.0000   1.0000   1.0000   1.0000   1.0000   1.0000   1.0000
     1.0000   1.0000   0.0000   0.0000   0.0000   0.0000   0.0000   0.0000
     0.0000   0.0000   0.0000   0.0000   0.0000   0.0000   0.0000   0.0000
     0.0000   0.0000   0.0000   0.0000   0.0000   0.0000   0.0000   0.0000
     0.0000   0.0000   0.0000   0.0000   0.0000   0.0000   0.0000   0.0000
     0.0000   0.0000   0.0000   0.0000   0.0000   0.0000   0.0000   0.0000
     0.0000   0.0000   0.0000   0.0000   0.0000   0.0000   0.0000   0.0000
     0.0000   0.0000   0.0000   0.0000   0.0000   0.0000   0.0000   0.0000
     0.0000   0.0000   0.0000   0.0000   0.0000   0.0000   0.0000   0.0000
     0.0000   0.0000   0.0000   0.0000   0.0000   0.0000   0.0000   0.0000
     0.0000   0.0000   0.0000   0.0000   0.0000   0.0000   0.0000   0.0000
     0.0000   0.0000   0.0000   0.0000   0.0000   0.0000   0.0000   0.0000
     0.0000   0.0000   0.0000   0.0000   0.0000   0.0000   0.0000   0.0000
     0.0000   0.0000   0.0000   0.0000   0.0000   0.0000   0.0000   0.0000
     0.0000   0.0000   0.0000   0.0000   0.0000   0.0000   0.0000   0.0000
     0.0000   0.0000   0.0000   0.0000   0.0000   0.0000   0.0000   0.0000
     0.0000   0.0000   0.0000   0.0000   0.0000   0.0000   0.0000   0.0000
     0.0000   0.0000   0.0000   0.0000   0.0000   0.0000   0.0000   0.0000
     0.0000   0.0000   0.0000   0.0000   0.0000   0.0000   0.0000   0.0000
     0.0000   0.0000   0.0000   0.0000   0.0000   0.0000   0.0000   0.0000
     0.0000   0.0000   0.0000   0.0000   0.0000   0.0000   0.0000   0.0000
     0.0000   0.0000   0.0000   0.0000   0.0000   0.0000   0.0000   0.0000
     0.0000   0.0000   0.0000   0.0000   0.0000   0.0000   0.0000   0.0000
     0.0000   0.0000   0.0000   0.0000   0.0000   0.0000   0.0000   0.0000
     0.0000   0.0000   0.0000   0.0000   0.0000   0.0000   0.0000   0.0000

     highest occupied, lowest unoccupied level (ev):     5.2776    5.1774

!    total energy              =   -1136.68974225 Ry
     estimated scf accuracy    <       0.00000080 Ry

     The total energy is the sum of the following terms:
     one-electron contribution =    -705.49024076 Ry
     hartree contribution      =     401.49510640 Ry
     xc contribution           =    -181.94368550 Ry
     ewald contribution        =    -612.61970838 Ry
     one-center paw contrib.   =     -38.13121401 Ry
      -> PAW hartree energy AE =       0.00000000 Ry
      -> PAW hartree energy PS =       0.00000000 Ry
      -> PAW xc energy AE      =       0.00000000 Ry
      -> PAW xc energy PS      =       0.00000000 Ry
      -> total E_H with PAW    =     401.49510640 Ry
      -> total E_XC with PAW   =    -181.94368550 Ry

     convergence has been achieved in  20 iterations

     Writing all to output data dir bands_nm/myprefix.save/

     General routines

     Parallel routines

     PAW routines

   This run was terminated on:  18:57:33  15Jul2023

   JOB DONE.