     Program PWSCF v.7.1 starts on 17Jul2023 at  3: 7:13

     Reading input from espresso_25086.pwi
Warning: card &CELL ignored
Warning: card / ignored

     Current dimensions of program PWSCF are:
     Max number of different atomic species (ntypx) = 10
     Max number of k-points (npk) =  40000
     Max angular momentum in pseudopotentials (lmaxx) =  4
     file Pr.paw.z_13.atompaw.wentzcovitch.v1.2.upf: wavefunction(s)  6S 0P 5D 0D 4F 0F renormalized
     Message from routine setup:
     using ibrav=0 with symmetry is DISCOURAGED, use correct ibrav instead

     K-points division:     npool     =       2
     R & G space division:  proc/nbgrp/npool/nimage =       4
     Subspace diagonalization in iterative solution of the eigenvalue problem:
     one sub-group per band group will be used

     Using Slab Decomposition

     bravais-lattice index     =            0
     lattice parameter (alat)  =       8.2141  a.u.
     unit-cell volume          =    3510.3030 (a.u.)^3
     number of atoms/cell      =           14
     number of atomic types    =            3
     number of electrons       =       152.00
     number of Kohn-Sham states=          256
     kinetic-energy cutoff     =      30.0000  Ry
     charge density cutoff     =     240.0000  Ry
     scf convergence threshold =      1.0E-06
     mixing beta               =       0.7000
     number of iterations used =            8  plain     mixing
     Exchange-correlation= SLA  PW   PBX  PBC
                           (   1   4   3   4   0   0   0)

     celldm(1)=   8.214073  celldm(2)=   0.000000  celldm(3)=   0.000000
     celldm(4)=   0.000000  celldm(5)=   0.000000  celldm(6)=   0.000000

     crystal axes: (cart. coord. in units of alat)
               a(1) = (   1.000000   0.000000   0.000000 )
               a(2) = (   0.000000   2.171361   0.000000 )
               a(3) = (   0.000000   0.158273   2.917003 )

     reciprocal axes: (cart. coord. in units 2 pi/alat)
               b(1) = (  1.000000  0.000000  0.000000 )
               b(2) = (  0.000000  0.460541 -0.024988 )
               b(3) = (  0.000000  0.000000  0.342818 )

     PseudoPot. # 1 for Pr read from file:
     /lustre07/scratch/pragov/crystal_structure_design/utils/SSSP/Pr.paw.z_13.atompaw.wentzcovitch.v1.2.upf
     MD5 check sum: e0f8e046fa815e336ba020f7e7bc75cb
     Pseudo is Projector augmented-wave + core cor, Zval = 13.0
     Generated using ATOMPAW code
     Shape of augmentation charge: BESSEL
     Using radial grid of 1103 points,  8 beta functions with:
                l(1) =   0
                l(2) =   0
                l(3) =   1
                l(4) =   1
                l(5) =   2
                l(6) =   2
                l(7) =   3
                l(8) =   3
     Q(r) pseudized with 0 coefficients

     PseudoPot. # 2 for Ru read from file:
     /lustre07/scratch/pragov/crystal_structure_design/utils/SSSP/Ru_ONCV_PBE-1.0.oncvpsp.upf
     MD5 check sum: be037bb81c227cfb9b1461a9f099f4bd
     Pseudo is Norm-conserving, Zval = 16.0
     Generated using ONCVPSP code by D. R. Hamann
     Using radial grid of 1458 points,  6 beta functions with:
                l(1) =   0
                l(2) =   0
                l(3) =   1
                l(4) =   1
                l(5) =   2
                l(6) =   2

     PseudoPot. # 3 for I  read from file:
     /lustre07/scratch/pragov/crystal_structure_design/utils/SSSP/I.pbe-n-kjpaw_psl.0.2.UPF
     MD5 check sum: d4ef18d9c8f18dc85e5843bca1e50dc0
     Pseudo is Projector augmented-wave + core cor, Zval =  7.0
     Generated using "atomic" code by A. Dal Corso  v.5.0.99 svn rev. 10869
     Shape of augmentation charge: PSQ
     Using radial grid of 1247 points,  4 beta functions with:
                l(1) =   0
                l(2) =   0
                l(3) =   1
                l(4) =   1
     Q(r) pseudized with 0 coefficients

     atomic species   valence    mass     pseudopotential
        Pr            13.00   140.90766     Pr( 1.00)
        Ru            16.00   101.07000     Ru( 1.00)
        I              7.00   126.90447     I ( 1.00)

      4 Sym. Ops., with inversion, found ( 2 have fractional translation)

                                    s                        frac. trans.

      isym =  1     identity

 cryst.   s( 1) = (     1          0          0      )
                  (     0          1          0      )
                  (     0          0          1      )

 cart.    s( 1) = (  1.0000000  0.0000000  0.0000000 )
                  (  0.0000000  1.0000000  0.0000000 )
                  (  0.0000000  0.0000000  1.0000000 )

      isym =  2     180 deg rotation - cart. axis [1,0,0]

 cryst.   s( 2) = (     1          0          0      )    f =(  0.5000000 )
                  (     0         -1          0      )       ( -0.0000000 )
                  (     0          0         -1      )       (  0.0000000 )

 cart.    s( 2) = (  1.0000000  0.0000000  0.0000000 )    f =(  0.5000000 )
                  (  0.0000000 -1.0000000  0.0000000 )       ( -0.0000000 )
                  (  0.0000000  0.0000000 -1.0000000 )       (  0.0000000 )

      isym =  3     inversion

 cryst.   s( 3) = (    -1          0          0      )
                  (     0         -1          0      )
                  (     0          0         -1      )

 cart.    s( 3) = ( -1.0000000  0.0000000  0.0000000 )
                  (  0.0000000 -1.0000000  0.0000000 )
                  (  0.0000000  0.0000000 -1.0000000 )

      isym =  4     inv. 180 deg rotation - cart. axis [1,0,0]

 cryst.   s( 4) = (    -1          0          0      )    f =(  0.5000000 )
                  (     0          1          0      )       (  0.0000000 )
                  (     0          0          1      )       (  0.0000000 )

 cart.    s( 4) = ( -1.0000000  0.0000000  0.0000000 )    f =(  0.5000000 )
                  (  0.0000000  1.0000000  0.0000000 )       (  0.0000000 )
                  (  0.0000000  0.0000000  1.0000000 )       (  0.0000000 )

   Cartesian axes

     site n.     atom                  positions (alat units)
         1           Pr  tau(   1) = (   0.7500000   1.5190687   0.3441130  )
         2           Pr  tau(   2) = (   0.2500000   0.8105655   2.5728902  )
         3           Pr  tau(   3) = (   0.2500000   1.9730205   0.9634103  )
         4           Pr  tau(   4) = (   0.7500000   0.3566137   1.9535929  )
         5           Pr  tau(   5) = (   0.2500000   2.1036374   2.6012289  )
         6           Pr  tau(   6) = (   0.7500000   0.2259968   0.3157744  )
         7           Ru  tau(   7) = (   0.2500000   1.9520551   0.3503875  )
         8           Ru  tau(   8) = (   0.7500000   0.3775791   2.5666157  )
         9           I   tau(   9) = (   0.2500000   1.9831873   1.8030901  )
        10           I   tau(  10) = (   0.7500000   0.3464469   1.1139131  )
        11           I   tau(  11) = (   0.7500000   1.4376904   1.0966620  )
        12           I   tau(  12) = (   0.2500000   0.8919438   1.8203413  )
        13           I   tau(  13) = (   0.2500000   0.8786846   0.3886178  )
        14           I   tau(  14) = (   0.7500000   1.4509496   2.5283855  )

   Crystallographic axes

     site n.     atom                  positions (cryst. coord.)
         1           Pr  tau(   1) = (  0.7500000  0.6909940  0.1179680  )
         2           Pr  tau(   2) = (  0.2500000  0.3090060  0.8820320  )
         3           Pr  tau(   3) = (  0.2500000  0.8845820  0.3302740  )
         4           Pr  tau(   4) = (  0.7500000  0.1154180  0.6697260  )
         5           Pr  tau(   5) = (  0.2500000  0.9038100  0.8917470  )
         6           Pr  tau(   6) = (  0.7500000  0.0961900  0.1082530  )
         7           Ru  tau(   7) = (  0.2500000  0.8902450  0.1201190  )
         8           Ru  tau(   8) = (  0.7500000  0.1097550  0.8798810  )
         9           I   tau(   9) = (  0.2500000  0.8682820  0.6181310  )
        10           I   tau(  10) = (  0.7500000  0.1317180  0.3818690  )
        11           I   tau(  11) = (  0.7500000  0.6347110  0.3759550  )
        12           I   tau(  12) = (  0.2500000  0.3652890  0.6240450  )
        13           I   tau(  13) = (  0.2500000  0.3949590  0.1332250  )
        14           I   tau(  14) = (  0.7500000  0.6050410  0.8667750  )

     number of k points=    10
                       cart. coord. in units 2pi/alat
        k(    1) = (   0.0000000   0.0000000   0.0000000), wk =   0.0740741
        k(    2) = (   0.0000000   0.0000000   0.1142725), wk =   0.1481481
        k(    3) = (   0.0000000   0.1535135  -0.0083295), wk =   0.1481481
        k(    4) = (   0.0000000   0.1535135   0.1059431), wk =   0.1481481
        k(    5) = (   0.0000000   0.1535135  -0.1226020), wk =   0.1481481
        k(    6) = (   0.3333333   0.0000000   0.0000000), wk =   0.1481481
        k(    7) = (   0.3333333   0.0000000   0.1142725), wk =   0.2962963
        k(    8) = (   0.3333333   0.1535135  -0.0083295), wk =   0.2962963
        k(    9) = (   0.3333333   0.1535135   0.1059431), wk =   0.2962963
        k(   10) = (   0.3333333   0.1535135  -0.1226020), wk =   0.2962963

                       cryst. coord.
        k(    1) = (   0.0000000   0.0000000   0.0000000), wk =   0.0740741
        k(    2) = (   0.0000000   0.0000000   0.3333333), wk =   0.1481481
        k(    3) = (   0.0000000   0.3333333  -0.0000000), wk =   0.1481481
        k(    4) = (   0.0000000   0.3333333   0.3333333), wk =   0.1481481
        k(    5) = (   0.0000000   0.3333333  -0.3333333), wk =   0.1481481
        k(    6) = (   0.3333333   0.0000000   0.0000000), wk =   0.1481481
        k(    7) = (   0.3333333   0.0000000   0.3333333), wk =   0.2962963
        k(    8) = (   0.3333333   0.3333333  -0.0000000), wk =   0.2962963
        k(    9) = (   0.3333333   0.3333333   0.3333333), wk =   0.2962963
        k(   10) = (   0.3333333   0.3333333  -0.3333333), wk =   0.2962963

     Initial potential from superposition of free atoms

     starting charge     151.9539, renormalised to     152.0000
     Starting wfcs are  236 randomized atomic wfcs +   20 random wfcs
     Checking if some PAW data can be deallocated...

     Self-consistent Calculation

     iteration #  1     ecut=    30.00 Ry     beta= 0.70
     Davidson diagonalization with overlap

     ethr =  1.00E-02,  avg # of iterations =  6.0

     total energy              =   -5688.58228082 Ry
     estimated scf accuracy    <      15.25073257 Ry

[...]

     total energy              =   -5701.25942904 Ry
     estimated scf accuracy    <       0.00000196 Ry

     iteration #143     ecut=    30.00 Ry     beta= 0.70
     Davidson diagonalization with overlap

     ethr =  1.29E-09,  avg # of iterations =  1.0

     End of self-consistent calculation

          k = 0.0000 0.0000 0.0000 (  9727 PWs)   bands (ev):

   -63.8018 -63.8017 -33.8664 -33.8638 -33.7879 -33.7867 -33.7467 -33.7462
   -27.9963 -27.9952 -27.8806 -27.8784 -27.7058 -27.6931 -10.2892 -10.2776
   -10.1895 -10.1807 -10.0727 -10.0549 -10.0484 -10.0449 -10.0211  -9.9538
    -9.8576  -9.8513  -9.8146  -9.7047  -9.6959  -9.6854  -9.6631  -9.6355
    -5.6696  -5.5066  -5.4947  -5.3909  -5.2652  -5.2643   3.3140   3.3478
     3.5611   3.7382   3.8780   4.1256   4.2502   4.5498   4.5832   4.7337
     4.8015   4.8407   4.8567   5.0490   5.1063   5.1265   5.3032   5.4630
     5.6282   5.6874   5.9967   6.0101   6.1485   6.2355   6.3036   6.3551
     6.4260   6.4406   6.5101   6.6575   7.8547   7.9578   8.1708   8.2139
     8.2401   8.2745   8.2887   8.2920   8.2934   8.2945   8.3097   8.3137
     8.3202   8.3323   8.3646   8.3655   8.3840   8.3976   8.4016   8.4069
     8.4111   8.4267   8.4285   8.4338   8.4357   8.4650   8.4681   8.4688
     8.4749   8.4787   8.4788   8.4850   8.4940   8.5083   8.5220   8.5308
     8.5401   8.5578   8.5677   8.5749   8.5934   8.6387   8.6537   8.6656
     8.9119   8.9185   9.3468   9.5919   9.5925   9.7710  10.1787  10.2596
    10.5480  10.6278  10.7311  10.7390  10.7622  10.9217  10.9945  11.0116
    11.0536  11.3312  11.4321  11.4643  11.5740  11.6595  11.7472  11.8121
    11.9593  11.9931  12.0412  12.0432  12.1921  12.3018  12.4859  12.5616
    12.8397  12.9170  13.3697  13.3890  13.8798  14.1505  14.4795  14.6390
    14.7672  14.9208  14.9875  14.9891  15.3821  15.4399  15.5465  15.5726
    15.9196  16.0587  16.1835  16.2087  16.5212  16.7384  16.9194  16.9667
    17.0532  17.1528  17.3354  17.3877  17.8569  18.0190  18.4615  18.5687
    18.5888  18.7031  18.7194  18.9196  18.9946  19.1183  19.2596  19.3830
    19.4084  19.4814  19.5095  19.9114  20.1050  20.1859  20.5840  20.6306
    20.6754  20.6927  20.8585  20.8713  21.0870  21.1183  21.1875  21.4122
    21.4195  21.5571  21.5719  21.6000  21.9032  22.0157  22.3353  22.3817
    22.4596  22.4893  22.7382  22.7809  23.2721  23.3161  23.3532  23.3773
    23.6185  23.8278  23.8407  23.8676  24.1912  24.4306  24.6398  24.6402
    24.6931  25.0125  25.0269  25.0819  25.0971  25.3074  25.4108  25.5009
    25.5117  25.8395  26.0587  26.1446  26.2402  26.2597  26.2747  26.3390
    26.3699  26.6523  26.7338  26.7431  26.8016  26.9605  27.1172  27.4690
    27.5421  27.7384  27.7527  27.9181  28.0068  28.0102  28.0473  28.2538

     occupation numbers
     1.0000   1.0000   1.0000   1.0000   1.0000   1.0000   1.0000   1.0000
     1.0000   1.0000   1.0000   1.0000   1.0000   1.0000   1.0000   1.0000
     1.0000   1.0000   1.0000   1.0000   1.0000   1.0000   1.0000   1.0000
     1.0000   1.0000   1.0000   1.0000   1.0000   1.0000   1.0000   1.0000
     1.0000   1.0000   1.0000   1.0000   1.0000   1.0000   1.0000   1.0000
     1.0000   1.0000   1.0000   1.0000   1.0000   1.0000   1.0000   1.0000
     1.0000   1.0000   1.0000   1.0000   1.0000   1.0000   1.0000   1.0000
     1.0000   1.0000   1.0000   1.0000   1.0000   1.0000   1.0000   1.0000
     1.0000   1.0000   1.0000   1.0000   1.0000   1.0000   1.0000   1.0000
     1.0000   1.0000   1.0000   1.0000   0.0000   0.0000   0.0000   0.0000
     0.0000   0.0000   0.0000   0.0000   0.0000   0.0000   0.0000   0.0000
     0.0000   0.0000   0.0000   0.0000   0.0000   0.0000   0.0000   0.0000
     0.0000   0.0000   0.0000   0.0000   0.0000   0.0000   0.0000   0.0000
     0.0000   0.0000   0.0000   0.0000   0.0000   0.0000   0.0000   0.0000
     0.0000   0.0000   0.0000   0.0000   0.0000   0.0000   0.0000   0.0000
     0.0000   0.0000   0.0000   0.0000   0.0000   0.0000   0.0000   0.0000
     0.0000   0.0000   0.0000   0.0000   0.0000   0.0000   0.0000   0.0000
     0.0000   0.0000   0.0000   0.0000   0.0000   0.0000   0.0000   0.0000
     0.0000   0.0000   0.0000   0.0000   0.0000   0.0000   0.0000   0.0000
     0.0000   0.0000   0.0000   0.0000   0.0000   0.0000   0.0000   0.0000
     0.0000   0.0000   0.0000   0.0000   0.0000   0.0000   0.0000   0.0000
     0.0000   0.0000   0.0000   0.0000   0.0000   0.0000   0.0000   0.0000
     0.0000   0.0000   0.0000   0.0000   0.0000   0.0000   0.0000   0.0000
     0.0000   0.0000   0.0000   0.0000   0.0000   0.0000   0.0000   0.0000
     0.0000   0.0000   0.0000   0.0000   0.0000   0.0000   0.0000   0.0000
     0.0000   0.0000   0.0000   0.0000   0.0000   0.0000   0.0000   0.0000
     0.0000   0.0000   0.0000   0.0000   0.0000   0.0000   0.0000   0.0000
     0.0000   0.0000   0.0000   0.0000   0.0000   0.0000   0.0000   0.0000
     0.0000   0.0000   0.0000   0.0000   0.0000   0.0000   0.0000   0.0000
     0.0000   0.0000   0.0000   0.0000   0.0000   0.0000   0.0000   0.0000
     0.0000   0.0000   0.0000   0.0000   0.0000   0.0000   0.0000   0.0000
     0.0000   0.0000   0.0000   0.0000   0.0000   0.0000   0.0000   0.0000

[...]

          k = 0.3333 0.1535-0.1226 (  9745 PWs)   bands (ev):

   -63.8017 -63.8017 -33.8656 -33.8644 -33.7929 -33.7924 -33.7443 -33.7440
   -27.9898 -27.9896 -27.8744 -27.8741 -27.6991 -27.6922 -10.2613 -10.2524
   -10.2005 -10.1915 -10.1606 -10.1429 -10.0519 -10.0322  -9.9817  -9.9602
    -9.9494  -9.9400  -9.7997  -9.7958  -9.7232  -9.7043  -9.6888  -9.6768
    -5.4762  -5.4161  -5.3691  -5.3501  -5.2446  -5.2210   3.5739   3.5840
     3.6586   3.7321   3.7647   3.8627   3.9230   4.1380   4.1682   4.2466
     4.3169   4.4541   4.6179   4.6429   4.7183   4.8038   4.9366   5.0633
     5.6389   5.7029   6.2716   6.2820   6.3329   6.3660   6.4533   6.5124
     6.5767   6.6632   6.7548   7.0487   7.9799   8.0093   8.2136   8.2255
     8.2385   8.2544   8.2621   8.2793   8.2894   8.2942   8.3239   8.3289
     8.3313   8.3421   8.3522   8.3692   8.3753   8.3838   8.3958   8.3988
     8.4113   8.4241   8.4350   8.4442   8.4513   8.4555   8.4650   8.4757
     8.4802   8.4929   8.5002   8.5107   8.5147   8.5252   8.5303   8.5541
     8.5622   8.5963   8.6208   8.6360   8.6447   8.6934   8.7491   8.7783
     9.0770   9.1506   9.4139   9.6758  10.0369  10.1628  10.2575  10.3384
    10.3918  10.4441  10.5399  10.6860  10.7745  10.9030  10.9555  11.1063
    11.3003  11.4181  11.4546  11.5412  11.6215  11.7955  11.8134  12.0693
    12.1168  12.1856  12.3442  12.5135  12.6238  12.7611  13.1250  13.3423
    13.4859  13.6642  13.7985  14.0080  14.1578  14.1669  14.2822  14.4183
    14.5315  14.6525  14.7817  14.9641  15.0450  15.1960  15.3248  15.6027
    15.6583  15.8661  15.9926  16.2192  16.2937  16.4480  16.5871  16.6094
    16.9098  17.1041  17.2637  17.4244  17.5156  17.8412  18.0087  18.0353
    18.2903  18.7761  18.8361  19.0732  19.1581  19.2955  19.3167  19.5310
    19.6890  19.7965  19.8834  20.2471  20.3741  20.4293  20.7377  20.7950
    20.9238  20.9776  21.0716  21.3409  21.4445  21.5395  21.6457  21.6884
    21.9812  22.0378  22.2698  22.3665  22.4121  22.5692  22.7428  22.9167
    22.9586  23.0425  23.0930  23.1623  23.3434  23.3895  23.4383  23.5731
    23.6132  23.8330  23.9251  23.9541  24.1343  24.3940  24.4495  24.5069
    24.6494  24.7306  24.7916  24.8869  25.0218  25.1791  25.2033  25.3046
    25.3746  25.5441  25.6940  25.7477  25.8168  25.8835  25.9851  26.1056
    26.3486  26.4623  26.5604  26.6714  26.7741  26.8704  26.9595  27.1288
    27.2088  27.3078  27.4318  27.5916  27.7175  27.8195  27.9653  28.1088

     occupation numbers
     1.0000   1.0000   1.0000   1.0000   1.0000   1.0000   1.0000   1.0000
     1.0000   1.0000   1.0000   1.0000   1.0000   1.0000   1.0000   1.0000
     1.0000   1.0000   1.0000   1.0000   1.0000   1.0000   1.0000   1.0000
     1.0000   1.0000   1.0000   1.0000   1.0000   1.0000   1.0000   1.0000
     1.0000   1.0000   1.0000   1.0000   1.0000   1.0000   1.0000   1.0000
     1.0000   1.0000   1.0000   1.0000   1.0000   1.0000   1.0000   1.0000
     1.0000   1.0000   1.0000   1.0000   1.0000   1.0000   1.0000   1.0000
     1.0000   1.0000   1.0000   1.0000   1.0000   1.0000   1.0000   1.0000
     1.0000   1.0000   1.0000   1.0000   1.0000   1.0000   1.0000   1.0000
     1.0000   1.0000   1.0000   1.0000   0.0000   0.0000   0.0000   0.0000
     0.0000   0.0000   0.0000   0.0000   0.0000   0.0000   0.0000   0.0000
     0.0000   0.0000   0.0000   0.0000   0.0000   0.0000   0.0000   0.0000
     0.0000   0.0000   0.0000   0.0000   0.0000   0.0000   0.0000   0.0000
     0.0000   0.0000   0.0000   0.0000   0.0000   0.0000   0.0000   0.0000
     0.0000   0.0000   0.0000   0.0000   0.0000   0.0000   0.0000   0.0000
     0.0000   0.0000   0.0000   0.0000   0.0000   0.0000   0.0000   0.0000
     0.0000   0.0000   0.0000   0.0000   0.0000   0.0000   0.0000   0.0000
     0.0000   0.0000   0.0000   0.0000   0.0000   0.0000   0.0000   0.0000
     0.0000   0.0000   0.0000   0.0000   0.0000   0.0000   0.0000   0.0000
     0.0000   0.0000   0.0000   0.0000   0.0000   0.0000   0.0000   0.0000
     0.0000   0.0000   0.0000   0.0000   0.0000   0.0000   0.0000   0.0000
     0.0000   0.0000   0.0000   0.0000   0.0000   0.0000   0.0000   0.0000
     0.0000   0.0000   0.0000   0.0000   0.0000   0.0000   0.0000   0.0000
     0.0000   0.0000   0.0000   0.0000   0.0000   0.0000   0.0000   0.0000
     0.0000   0.0000   0.0000   0.0000   0.0000   0.0000   0.0000   0.0000
     0.0000   0.0000   0.0000   0.0000   0.0000   0.0000   0.0000   0.0000
     0.0000   0.0000   0.0000   0.0000   0.0000   0.0000   0.0000   0.0000
     0.0000   0.0000   0.0000   0.0000   0.0000   0.0000   0.0000   0.0000
     0.0000   0.0000   0.0000   0.0000   0.0000   0.0000   0.0000   0.0000
     0.0000   0.0000   0.0000   0.0000   0.0000   0.0000   0.0000   0.0000
     0.0000   0.0000   0.0000   0.0000   0.0000   0.0000   0.0000   0.0000
     0.0000   0.0000   0.0000   0.0000   0.0000   0.0000   0.0000   0.0000

     highest occupied, lowest unoccupied level (ev):     8.2991    8.2840

!    total energy              =   -5701.25942839 Ry
     estimated scf accuracy    <       0.00000070 Ry

     The total energy is the sum of the following terms:
     one-electron contribution =    -898.52631457 Ry
     hartree contribution      =     527.03311195 Ry
     xc contribution           =    -361.84490407 Ry
     ewald contribution        =    -527.21791647 Ry
     one-center paw contrib.   =   -4440.70340524 Ry
      -> PAW hartree energy AE =     126.53840756 Ry
      -> PAW hartree energy PS =    -126.62857656 Ry
      -> PAW xc energy AE      =    -860.39948049 Ry
      -> PAW xc energy PS      =      21.29735488 Ry
      -> total E_H with PAW    =     526.94294295 Ry
      -> total E_XC with PAW   =   -1200.94702967 Ry

     convergence has been achieved in 143 iterations

     Writing all to output data dir bands_nm/myprefix.save/

     General routines

     Parallel routines

     PAW routines

   This run was terminated on:   3:25:28  17Jul2023

   JOB DONE.