     Program PWSCF v.7.0 starts on 23Jun2023 at  5:53:46

     K-points division:     npool     =       2
     R & G space division:  proc/nbgrp/npool/nimage =       4

     Reading input from espresso_5255.pwi
Warning: card &CELL ignored
Warning: card / ignored

     Current dimensions of program PWSCF are:
     Max number of different atomic species (ntypx) = 10
     Max number of k-points (npk) =  40000
     Max angular momentum in pseudopotentials (lmaxx) =  4
     Message from routine setup:
     using ibrav=0 with symmetry is DISCOURAGED, use correct ibrav instead

     Using Slab Decomposition

     bravais-lattice index     =            0
     lattice parameter (alat)  =      15.2468  a.u.
     unit-cell volume          =    3754.3181 (a.u.)^3
     number of atoms/cell      =           20
     number of atomic types    =            3
     number of electrons       =       160.00
     number of Kohn-Sham states=           90
     kinetic-energy cutoff     =      30.0000  Ry
     charge density cutoff     =     240.0000  Ry
     scf convergence threshold =      1.0E-06
     mixing beta               =       0.7000
     number of iterations used =            8  plain     mixing
     Exchange-correlation=  SLA  PW   PBX  PBC
                           (   1   4   3   4   0   0   0)

     celldm(1)=  15.246826  celldm(2)=   0.000000  celldm(3)=   0.000000
     celldm(4)=   0.000000  celldm(5)=   0.000000  celldm(6)=   0.000000

     crystal axes: (cart. coord. in units of alat)
               a(1) = (   1.000000   0.000000   0.000000 )
               a(2) = (  -0.335680   0.994513   0.000000 )
               a(3) = (  -0.367055  -0.325223   1.065080 )

     reciprocal axes: (cart. coord. in units 2 pi/alat)
               b(1) = (  1.000000  0.337532  0.447692 )
               b(2) = (  0.000000  1.005517  0.307035 )
               b(3) = (  0.000000  0.000000  0.938896 )

     PseudoPot. # 1 for Mo read from file:
     /home/pragov/projects/rrg-bengioy-ad/pragov/crystal_structure_design/SSSP/Mo_ONCV_PBE-1.0.oncvpsp.upf
     MD5 check sum: 1b5d28e075c9ccadda658a603575cd1f
     Pseudo is Norm-conserving, Zval = 14.0
     Generated using ONCVPSP code by D. R. Hamann
     Using radial grid of 1526 points,  6 beta functions with:
                l(1) =   0
                l(2) =   0
                l(3) =   1
                l(4) =   1
                l(5) =   2
                l(6) =   2

     PseudoPot. # 2 for N  read from file:
     /home/pragov/projects/rrg-bengioy-ad/pragov/crystal_structure_design/SSSP/N.pbe-n-radius_5.UPF
     MD5 check sum: 16739722b17309cd8fe442a2ace49922
     Pseudo is Ultrasoft + core correction, Zval =  5.0
     Generated using "atomic" code by A. Dal Corso  v.5.1
     Using radial grid of 1085 points,  4 beta functions with:
                l(1) =   0
                l(2) =   0
                l(3) =   1
                l(4) =   1
     Q(r) pseudized with 0 coefficients

     PseudoPot. # 3 for Cl read from file:
     /home/pragov/projects/rrg-bengioy-ad/pragov/crystal_structure_design/SSSP/cl_pbe_v1.4.uspp.F.UPF
     MD5 check sum: fc6f6913ecf08c9257cb748ef0700058
     Pseudo is Ultrasoft + core correction, Zval =  7.0
     Generated by new atomic code, or converted to UPF format
     Using radial grid of  909 points,  6 beta functions with:
                l(1) =   0
                l(2) =   0
                l(3) =   1
                l(4) =   1
                l(5) =   2
                l(6) =   2
     Q(r) pseudized with  8 coefficients,  rinner =    1.300   1.300   1.300
                                                       1.300   1.300

     atomic species   valence    mass     pseudopotential
        Mo            14.00    95.95000     Mo( 1.00)
        N              5.00    14.00700     N ( 1.00)
        Cl             7.00    35.45000     Cl( 1.00)

      2 Sym. Ops., with inversion, found

                                    s                        frac. trans.

      isym =  1     identity

 cryst.   s( 1) = (     1          0          0      )
                  (     0          1          0      )
                  (     0          0          1      )

 cart.    s( 1) = (  1.0000000  0.0000000 -0.0000000 )
                  (  0.0000000  1.0000000 -0.0000000 )
                  (  0.0000000  0.0000000  1.0000000 )

      isym =  2     inversion

 cryst.   s( 2) = (    -1          0          0      )
                  (     0         -1          0      )
                  (     0          0         -1      )

 cart.    s( 2) = ( -1.0000000 -0.0000000  0.0000000 )
                  (  0.0000000 -1.0000000  0.0000000 )
                  (  0.0000000  0.0000000 -1.0000000 )

   Cartesian axes

     site n.     atom                  positions (alat units)
         1           Mo  tau(   1) = (   0.1086894   0.6392254   0.6720614  )
         2           Mo  tau(   2) = (   0.1885757   0.0300644   0.3930189  )
         3           Mo  tau(   3) = (   0.0547870   0.1916087   0.8157141  )
         4           Mo  tau(   4) = (   0.2424781   0.4776812   0.2493662  )
         5           N   tau(   5) = (   0.0831805   0.4410795   0.7383019  )
         6           N   tau(   6) = (   0.2140846   0.2282103   0.3267783  )
         7           N   tau(   7) = (   0.1193488   0.0969856   0.6390737  )
         8           N   tau(   8) = (   0.1779163   0.5723042   0.4260065  )
         9           Cl  tau(   9) = (  -0.0085363   0.4197562   0.1256560  )
        10           Cl  tau(  10) = (   0.3058014   0.2495337   0.9394242  )
        11           Cl  tau(  11) = (   0.3057471   0.7008128   0.0780544  )
        12           Cl  tau(  12) = (  -0.0084820  -0.0315230   0.9870258  )
        13           Cl  tau(  13) = (   0.5147610   0.4236450   0.3161510  )
        14           Cl  tau(  14) = (  -0.2174959   0.2456448   0.7489293  )
        15           Cl  tau(  15) = (  -0.0932032  -0.0031587   0.3641147  )
        16           Cl  tau(  16) = (   0.3904683   0.6724485   0.7009655  )
        17           Cl  tau(  17) = (  -0.0852344   0.8780725   0.1593328  )
        18           Cl  tau(  18) = (   0.3824995  -0.2087826   0.9057474  )
        19           Cl  tau(  19) = (   0.4537288  -0.0065682   0.5143134  )
        20           Cl  tau(  20) = (  -0.1564637   0.6758580   0.5507668  )

   Crystallographic axes

     site n.     atom                  positions (cryst. coord.)
         1           Mo  tau(   1) = (  0.6253250  0.8490990  0.6309960  )
         2           Mo  tau(   2) = (  0.3746750  0.1509010  0.3690040  )
         3           Mo  tau(   3) = (  0.4846500  0.4431190  0.7658710  )
         4           Mo  tau(   4) = (  0.5153500  0.5568810  0.2341290  )
         5           N   tau(   5) = (  0.5625910  0.6701980  0.6931890  )
         6           N   tau(   6) = (  0.4374090  0.3298020  0.3068110  )
         7           N   tau(   7) = (  0.4381930  0.2937390  0.6000240  )
         8           N   tau(   8) = (  0.5618070  0.7062610  0.3999760  )
         9           Cl  tau(   9) = (  0.1894000  0.4606530  0.1179780  )
        10           Cl  tau(  10) = (  0.8106000  0.5393470  0.8820220  )
        11           Cl  tau(  11) = (  0.5772380  0.7286450  0.0732850  )
        12           Cl  tau(  12) = (  0.4227620  0.2713550  0.9267150  )
        13           Cl  tau(  13) = (  0.7992930  0.5230520  0.2968330  )
        14           Cl  tau(  14) = (  0.2007070  0.4769480  0.7031670  )
        15           Cl  tau(  15) = (  0.0687420  0.1086200  0.3418660  )
        16           Cl  tau(  16) = (  0.9312580  0.8913800  0.6581340  )
        17           Cl  tau(  17) = (  0.2824750  0.9318380  0.1495970  )
        18           Cl  tau(  18) = (  0.7175250  0.0681620  0.8504030  )
        19           Cl  tau(  19) = (  0.6817660  0.1513080  0.4828870  )
        20           Cl  tau(  20) = (  0.3182340  0.8486920  0.5171130  )

     number of k points=    14
                       cart. coord. in units 2pi/alat
        k(    1) = (   0.0000000   0.0000000   0.0000000), wk =   0.0740741
        k(    2) = (   0.0000000   0.0000000   0.3129655), wk =   0.1481481
        k(    3) = (   0.0000000   0.3351725   0.1023452), wk =   0.1481481
        k(    4) = (   0.0000000   0.3351725   0.4153106), wk =   0.1481481
        k(    5) = (   0.0000000   0.3351725  -0.2106203), wk =   0.1481481
        k(    6) = (   0.3333333   0.1125106   0.1492308), wk =   0.1481481
        k(    7) = (   0.3333333   0.1125106   0.4621963), wk =   0.1481481
        k(    8) = (   0.3333333   0.1125106  -0.1637347), wk =   0.1481481
        k(    9) = (   0.3333333   0.4476831   0.2515760), wk =   0.1481481
        k(   10) = (   0.3333333   0.4476831   0.5645414), wk =   0.1481481
        k(   11) = (   0.3333333   0.4476831  -0.0613895), wk =   0.1481481
        k(   12) = (   0.3333333  -0.2226619   0.0468856), wk =   0.1481481
        k(   13) = (   0.3333333  -0.2226619   0.3598511), wk =   0.1481481
        k(   14) = (   0.3333333  -0.2226619  -0.2660798), wk =   0.1481481

                       cryst. coord.
        k(    1) = (   0.0000000   0.0000000   0.0000000), wk =   0.0740741
        k(    2) = (   0.0000000   0.0000000   0.3333333), wk =   0.1481481
        k(    3) = (   0.0000000   0.3333333   0.0000000), wk =   0.1481481
        k(    4) = (   0.0000000   0.3333333   0.3333333), wk =   0.1481481
        k(    5) = (   0.0000000   0.3333333  -0.3333333), wk =   0.1481481
        k(    6) = (   0.3333333   0.0000000  -0.0000000), wk =   0.1481481
        k(    7) = (   0.3333333   0.0000000   0.3333333), wk =   0.1481481
        k(    8) = (   0.3333333   0.0000000  -0.3333333), wk =   0.1481481
        k(    9) = (   0.3333333   0.3333333   0.0000000), wk =   0.1481481
        k(   10) = (   0.3333333   0.3333333   0.3333333), wk =   0.1481481
        k(   11) = (   0.3333333   0.3333333  -0.3333333), wk =   0.1481481
        k(   12) = (   0.3333333  -0.3333333  -0.0000000), wk =   0.1481481
        k(   13) = (   0.3333333  -0.3333333   0.3333333), wk =   0.1481481
        k(   14) = (   0.3333333  -0.3333333  -0.3333333), wk =   0.1481481

     Check: negative core charge=   -0.000001

     Initial potential from superposition of free atoms

     starting charge     159.9959, renormalised to     160.0000

     negative rho (up, down):  1.799E-01 0.000E+00
     Starting wfcs are  104 randomized atomic wfcs

     Self-consistent Calculation

     iteration #  1     ecut=    30.00 Ry     beta= 0.70
     Davidson diagonalization with overlap

     ethr =  1.00E-02,  avg # of iterations =  2.0

     negative rho (up, down):  1.845E-01 0.000E+00

     total energy              =   -1026.95132473 Ry
     estimated scf accuracy    <       4.59647533 Ry

[...]

     total energy              =   -1029.79044246 Ry
     estimated scf accuracy    <       0.00000166 Ry

     iteration # 14     ecut=    30.00 Ry     beta= 0.70
     Davidson diagonalization with overlap

     ethr =  1.04E-09,  avg # of iterations =  2.0

     negative rho (up, down):  1.810E-01 0.000E+00

     End of self-consistent calculation

          k = 0.0000 0.0000 0.0000 ( 10407 PWs)   bands (ev):

   -60.0570 -60.0569 -60.0479 -60.0479 -34.3450 -34.3432 -34.3388 -34.3359
   -34.1700 -34.1696 -34.1565 -34.1561 -34.1211 -34.1200 -34.1158 -34.1137
   -12.8499 -12.5991 -12.4935 -12.4262 -12.3741 -12.3247 -12.2670 -12.2501
   -12.1249 -12.1178 -12.0815 -12.0620 -11.3097 -11.2692 -11.2367 -11.1883
    -3.5130  -3.1982  -3.0099  -2.8579  -2.7892  -2.5489  -2.4833  -2.3958
    -2.3916  -2.2947  -2.2777  -2.1407  -2.0620  -2.0312  -1.9415  -1.7347
    -1.6191  -1.5293  -1.4554  -1.2951  -1.2445  -1.1488  -1.0627  -0.8407
    -0.8393  -0.7925  -0.7153  -0.5014  -0.4539  -0.1504  -0.1266  -0.0002
     0.0111   0.1245   0.2089   0.2769   0.3239   0.3926   0.4166   0.4633
     0.5159   0.5404   0.6232   0.7332   0.7523   0.7857   0.9140   0.9561
     2.6653   2.6914   2.7982   2.8780   3.5929   4.1165   4.3599   4.7721
     4.8346   4.9128

     occupation numbers
     1.0000   1.0000   1.0000   1.0000   1.0000   1.0000   1.0000   1.0000
     1.0000   1.0000   1.0000   1.0000   1.0000   1.0000   1.0000   1.0000
     1.0000   1.0000   1.0000   1.0000   1.0000   1.0000   1.0000   1.0000
     1.0000   1.0000   1.0000   1.0000   1.0000   1.0000   1.0000   1.0000
     1.0000   1.0000   1.0000   1.0000   1.0000   1.0000   1.0000   1.0000
     1.0000   1.0000   1.0000   1.0000   1.0000   1.0000   1.0000   1.0000
     1.0000   1.0000   1.0000   1.0000   1.0000   1.0000   1.0000   1.0000
     1.0000   1.0000   1.0000   1.0000   1.0000   1.0000   1.0000   1.0000
     1.0000   1.0000   1.0000   1.0000   1.0000   1.0000   1.0000   1.0000
     1.0000   1.0000   1.0000   1.0000   1.0000   1.0000   1.0000   1.0000
     0.0000   0.0000   0.0000   0.0000   0.0000   0.0000   0.0000   0.0000
     0.0000   0.0000

[...]

          k = 0.3333-0.2227-0.2661 ( 10399 PWs)   bands (ev):

   -60.0570 -60.0569 -60.0479 -60.0478 -34.3448 -34.3433 -34.3385 -34.3364
   -34.1699 -34.1696 -34.1569 -34.1558 -34.1212 -34.1202 -34.1152 -34.1142
   -12.7577 -12.6655 -12.4880 -12.4543 -12.3774 -12.2930 -12.2568 -12.2478
   -12.1485 -12.1386 -12.1217 -12.0441 -11.3398 -11.2497 -11.2134 -11.1869
    -3.4350  -3.1787  -3.1232  -2.8528  -2.6978  -2.4972  -2.4701  -2.3994
    -2.3553  -2.3236  -2.2517  -2.2379  -2.1400  -2.0639  -1.9125  -1.5353
    -1.4918  -1.4329  -1.3351  -1.3050  -1.2353  -1.1011  -1.0630  -1.0058
    -0.9024  -0.8256  -0.7747  -0.6846  -0.4553  -0.3569  -0.1260  -0.0127
     0.0705   0.1469   0.1658   0.1879   0.2850   0.3393   0.3979   0.4648
     0.5576   0.5986   0.6675   0.6732   0.7549   0.8201   0.8939   0.9577
     2.7154   2.7220   2.7783   2.8409   3.4958   4.2262   4.5148   4.6661
     4.7997   4.8716

     occupation numbers
     1.0000   1.0000   1.0000   1.0000   1.0000   1.0000   1.0000   1.0000
     1.0000   1.0000   1.0000   1.0000   1.0000   1.0000   1.0000   1.0000
     1.0000   1.0000   1.0000   1.0000   1.0000   1.0000   1.0000   1.0000
     1.0000   1.0000   1.0000   1.0000   1.0000   1.0000   1.0000   1.0000
     1.0000   1.0000   1.0000   1.0000   1.0000   1.0000   1.0000   1.0000
     1.0000   1.0000   1.0000   1.0000   1.0000   1.0000   1.0000   1.0000
     1.0000   1.0000   1.0000   1.0000   1.0000   1.0000   1.0000   1.0000
     1.0000   1.0000   1.0000   1.0000   1.0000   1.0000   1.0000   1.0000
     1.0000   1.0000   1.0000   1.0000   1.0000   1.0000   1.0000   1.0000
     1.0000   1.0000   1.0000   1.0000   1.0000   1.0000   1.0000   1.0000
     0.0000   0.0000   0.0000   0.0000   0.0000   0.0000   0.0000   0.0000
     0.0000   0.0000

     highest occupied, lowest unoccupied level (ev):     0.9803    2.6653

!    total energy              =   -1029.79044238 Ry
     estimated scf accuracy    <       0.00000035 Ry

     The total energy is the sum of the following terms:
     one-electron contribution =    -792.22544972 Ry
     hartree contribution      =     430.87223046 Ry
     xc contribution           =    -195.97131904 Ry
     ewald contribution        =    -472.46590408 Ry

     convergence has been achieved in  14 iterations

     Writing all to output data dir calculations_bands/myprefix.save/

     General routines

     Parallel routines

   This run was terminated on:   5:54:34  23Jun2023

   JOB DONE.