     Program PWSCF v.7.1 starts on 14Jul2023 at  1:12:37

     Reading input from espresso_3950.pwi
Warning: card &CELL ignored
Warning: card / ignored

     Current dimensions of program PWSCF are:
     Max number of different atomic species (ntypx) = 10
     Max number of k-points (npk) =  40000
     Max angular momentum in pseudopotentials (lmaxx) =  4
     file C.pbe-n-kjpaw_psl.1.0.0.UPF: wavefunction(s)  2S 2P renormalized
     file O.pbe-n-kjpaw_psl.0.1.UPF: wavefunction(s)  2P renormalized
     Message from routine setup:
     using ibrav=0 with symmetry is DISCOURAGED, use correct ibrav instead

     K-points division:     npool     =       2
     R & G space division:  proc/nbgrp/npool/nimage =       4
     Subspace diagonalization in iterative solution of the eigenvalue problem:
     a serial algorithm will be used

     Using Slab Decomposition

     bravais-lattice index     =            0
     lattice parameter (alat)  =       9.2727  a.u.
     unit-cell volume          =     829.3587 (a.u.)^3
     number of atoms/cell      =           12
     number of atomic types    =            3
     number of electrons       =        56.00
     number of Kohn-Sham states=           64
     kinetic-energy cutoff     =      30.0000  Ry
     charge density cutoff     =     240.0000  Ry
     scf convergence threshold =      1.0E-06
     mixing beta               =       0.7000
     number of iterations used =            8  plain     mixing
     Exchange-correlation= SLA  PW   PBX  PBC
                           (   1   4   3   4   0   0   0)

     celldm(1)=   9.272741  celldm(2)=   0.000000  celldm(3)=   0.000000
     celldm(4)=   0.000000  celldm(5)=   0.000000  celldm(6)=   0.000000

     crystal axes: (cart. coord. in units of alat)
               a(1) = (   1.000000   0.000000   0.000000 )
               a(2) = (   0.471601   0.881812   0.000000 )
               a(3) = (   0.455519   0.272956   1.179619 )

     reciprocal axes: (cart. coord. in units 2 pi/alat)
               b(1) = (  1.000000 -0.534808 -0.262406 )
               b(2) = (  0.000000  1.134028 -0.262406 )
               b(3) = (  0.000000  0.000000  0.847731 )

     PseudoPot. # 1 for Li read from file:
     /lustre07/scratch/pragov/crystal_structure_design/utils/SSSP/li_pbe_v1.4.uspp.F.UPF
     MD5 check sum: e912e257baa3777c20ea3d68f190483c
     Pseudo is Ultrasoft, Zval =  3.0
     Generated by new atomic code, or converted to UPF format
     Using radial grid of  751 points,  5 beta functions with:
                l(1) =   0
                l(2) =   0
                l(3) =   0
                l(4) =   1
                l(5) =   1
     Q(r) pseudized with 10 coefficients,  rinner =    1.150   1.150   1.150

     PseudoPot. # 2 for C  read from file:
     /lustre07/scratch/pragov/crystal_structure_design/utils/SSSP/C.pbe-n-kjpaw_psl.1.0.0.UPF
     MD5 check sum: 5d2aebdfa2cae82b50a7e79e9516da0f
     Pseudo is Projector augmented-wave + core cor, Zval =  4.0
     Generated using "atomic" code by A. Dal Corso  v.5.1
     Shape of augmentation charge: PSQ
     Using radial grid of 1073 points,  4 beta functions with:
                l(1) =   0
                l(2) =   0
                l(3) =   1
                l(4) =   1
     Q(r) pseudized with 0 coefficients

     PseudoPot. # 3 for O  read from file:
     /lustre07/scratch/pragov/crystal_structure_design/utils/SSSP/O.pbe-n-kjpaw_psl.0.1.UPF
     MD5 check sum: 0234752ac141de4415c5fc33072bef88
     Pseudo is Projector augmented-wave + core cor, Zval =  6.0
     Generated using "atomic" code by A. Dal Corso  v.5.0.99 svn rev. 10869
     Shape of augmentation charge: BESSEL
     Using radial grid of 1095 points,  4 beta functions with:
                l(1) =   0
                l(2) =   0
                l(3) =   1
                l(4) =   1
     Q(r) pseudized with 0 coefficients

     atomic species   valence    mass     pseudopotential
        Li             3.00     6.94000     Li( 1.00)
        C              4.00    12.01100     C ( 1.00)
        O              6.00    15.99900     O ( 1.00)

      2 Sym. Ops., with inversion, found

                                    s                        frac. trans.

      isym =  1     identity

 cryst.   s( 1) = (     1          0          0      )
                  (     0          1          0      )
                  (     0          0          1      )

 cart.    s( 1) = (  1.0000000  0.0000000  0.0000000 )
                  (  0.0000000  1.0000000  0.0000000 )
                  (  0.0000000  0.0000000  1.0000000 )

      isym =  2     inversion

 cryst.   s( 2) = (    -1          0          0      )
                  (     0         -1          0      )
                  (     0          0         -1      )

 cart.    s( 2) = ( -1.0000000  0.0000000  0.0000000 )
                  (  0.0000000 -1.0000000  0.0000000 )
                  (  0.0000000  0.0000000 -1.0000000 )

   Cartesian axes

     site n.     atom                  positions (alat units)
         1           Li  tau(   1) = (   1.1286879   0.6153237   0.1899706  )
         2           Li  tau(   2) = (   0.6244701   0.3131865   0.3998391  )
         3           Li  tau(   3) = (   0.7984316   0.5394444   0.9896488  )
         4           Li  tau(   4) = (   1.3026493   0.8415816   0.7797804  )
         5           C   tau(   5) = (   1.3072736   0.2620673   0.8847146  )
         6           C   tau(   6) = (   0.6198459   0.8927008   0.2949049  )
         7           O   tau(   7) = (   1.1726285   0.4867681   0.8847146  )
         8           O   tau(   8) = (   0.7544910   0.6680000   0.2949049  )
         9           O   tau(   9) = (   0.5625236   0.2594247   0.8083378  )
        10           O   tau(  10) = (   1.6608285   0.9175508   0.9610914  )
        11           O   tau(  11) = (   1.3645969   0.8953434   0.3712817  )
        12           O   tau(  12) = (   0.2662905   0.2372164   0.2185280  )

   Crystallographic axes

     site n.     atom                  positions (cryst. coord.)
         1           Li  tau(   1) = (  0.7497580  0.6479450  0.1610440  )
         2           Li  tau(   2) = (  0.3520550  0.2502420  0.3389560  )
         3           Li  tau(   3) = (  0.2502420  0.3520550  0.8389560  )
         4           Li  tau(   4) = (  0.6479450  0.7497580  0.6610440  )
         5           C   tau(   5) = (  0.9349630  0.0650370  0.7500000  )
         6           C   tau(   6) = (  0.0650370  0.9349630  0.2500000  )
         7           O   tau(   7) = (  0.6801460  0.3198540  0.7500000  )
         8           O   tau(   8) = (  0.3198540  0.6801460  0.2500000  )
         9           O   tau(   9) = (  0.2116680  0.0820820  0.6852530  )
        10           O   tau(  10) = (  0.9179180  0.7883320  0.8147470  )
        11           O   tau(  11) = (  0.7883330  0.9179180  0.3147470  )
        12           O   tau(  12) = (  0.0820820  0.2116670  0.1852530  )

     number of k points=    14
                       cart. coord. in units 2pi/alat
        k(    1) = (   0.0000000   0.0000000   0.0000000), wk =   0.0740741
        k(    2) = (   0.0000000   0.0000000   0.2825770), wk =   0.1481481
        k(    3) = (   0.0000000   0.3780094  -0.0874688), wk =   0.1481481
        k(    4) = (   0.0000000   0.3780094   0.1951082), wk =   0.1481481
        k(    5) = (   0.0000000   0.3780094  -0.3700458), wk =   0.1481481
        k(    6) = (   0.3333333  -0.1782695  -0.0874688), wk =   0.1481481
        k(    7) = (   0.3333333  -0.1782695   0.1951082), wk =   0.1481481
        k(    8) = (   0.3333333  -0.1782695  -0.3700458), wk =   0.1481481
        k(    9) = (   0.3333333   0.1997399  -0.1749376), wk =   0.1481481
        k(   10) = (   0.3333333   0.1997399   0.1076394), wk =   0.1481481
        k(   11) = (   0.3333333   0.1997399  -0.4575146), wk =   0.1481481
        k(   12) = (   0.3333333  -0.5562789   0.0000000), wk =   0.1481481
        k(   13) = (   0.3333333  -0.5562789   0.2825770), wk =   0.1481481
        k(   14) = (   0.3333333  -0.5562789  -0.2825770), wk =   0.1481481

                       cryst. coord.
        k(    1) = (   0.0000000   0.0000000   0.0000000), wk =   0.0740741
        k(    2) = (   0.0000000   0.0000000   0.3333333), wk =   0.1481481
        k(    3) = (   0.0000000   0.3333333  -0.0000000), wk =   0.1481481
        k(    4) = (   0.0000000   0.3333333   0.3333333), wk =   0.1481481
        k(    5) = (   0.0000000   0.3333333  -0.3333333), wk =   0.1481481
        k(    6) = (   0.3333333   0.0000000  -0.0000000), wk =   0.1481481
        k(    7) = (   0.3333333   0.0000000   0.3333333), wk =   0.1481481
        k(    8) = (   0.3333333   0.0000000  -0.3333333), wk =   0.1481481
        k(    9) = (   0.3333333   0.3333333   0.0000000), wk =   0.1481481
        k(   10) = (   0.3333333   0.3333333   0.3333333), wk =   0.1481481
        k(   11) = (   0.3333333   0.3333333  -0.3333333), wk =   0.1481481
        k(   12) = (   0.3333333  -0.3333333   0.0000000), wk =   0.1481481
        k(   13) = (   0.3333333  -0.3333333   0.3333333), wk =   0.1481481
        k(   14) = (   0.3333333  -0.3333333  -0.3333333), wk =   0.1481481

     Check: negative core charge=   -0.000020

     Initial potential from superposition of free atoms

     starting charge      54.1969, renormalised to      56.0000
     Starting wfcs are   52 randomized atomic wfcs +   12 random wfcs
     Checking if some PAW data can be deallocated...

     Self-consistent Calculation

     iteration #  1     ecut=    30.00 Ry     beta= 0.70
     Davidson diagonalization with overlap

     ethr =  1.00E-02,  avg # of iterations =  6.9

     total energy              =    -344.86158217 Ry
     estimated scf accuracy    <       0.89207354 Ry

[...]

     total energy              =    -345.21559956 Ry
     estimated scf accuracy    <       0.00000750 Ry

     iteration #  7     ecut=    30.00 Ry     beta= 0.70
     Davidson diagonalization with overlap

     ethr =  1.34E-08,  avg # of iterations =  2.4

     End of self-consistent calculation

          k = 0.0000 0.0000 0.0000 (  2305 PWs)   bands (ev):

   -40.8055 -40.7868 -40.7866 -40.7790 -19.5601 -19.3779 -16.4034 -16.3889
   -16.3867 -16.3862  -5.9136  -5.4951  -4.4363  -4.0368  -3.8662  -3.8319
    -3.8115  -2.5205  -0.0011   0.1437   0.1995   0.5813   0.6268   0.6996
     0.7204   0.7260   1.5365   1.8305   7.0931   7.4872   8.3625  11.6075
    11.7460  12.3451  12.4100  12.5102  12.6950  12.7921  13.9654  14.4735
    16.0291  16.1120  16.2607  16.2947  16.8930  17.3537  17.3866  17.7096
    18.2704  18.3812  18.6431  19.3640  19.5886  20.6036  20.7820  20.8014
    21.4199  22.4456  22.6443  22.6953  23.6575  24.8550  25.2176  25.7097

     occupation numbers
     1.0000   1.0000   1.0000   1.0000   1.0000   1.0000   1.0000   1.0000
     1.0000   1.0000   1.0000   1.0000   1.0000   1.0000   1.0000   1.0000
     1.0000   1.0000   1.0000   1.0000   1.0000   1.0000   1.0000   1.0000
     1.0000   1.0000   1.0000   1.0000   0.0000   0.0000   0.0000   0.0000
     0.0000   0.0000   0.0000   0.0000   0.0000   0.0000   0.0000   0.0000
     0.0000   0.0000   0.0000   0.0000   0.0000   0.0000   0.0000   0.0000
     0.0000   0.0000   0.0000   0.0000   0.0000   0.0000   0.0000   0.0000
     0.0000   0.0000   0.0000   0.0000   0.0000   0.0000   0.0000   0.0000

[...]

          k = 0.3333-0.5563-0.2826 (  2305 PWs)   bands (ev):

   -40.7965 -40.7948 -40.7838 -40.7828 -19.4750 -19.4118 -16.4754 -16.4443
   -16.4184 -16.3872  -5.6181  -5.4917  -3.9394  -3.8797  -3.7722  -3.6443
    -3.5309  -3.0439  -0.4065  -0.3067   0.0273   0.0847   0.2221   0.6111
     0.7174   0.9242   1.7986   1.9210   7.6692   7.8274   9.5252  10.4169
    11.0240  11.0403  11.7200  12.1510  13.1106  13.4029  14.8680  15.0222
    15.2653  15.9497  16.4184  16.7316  17.0031  17.2180  18.2230  18.3767
    18.5676  19.1182  19.3831  19.4333  19.9869  20.3571  20.9191  21.2766
    21.8202  22.1487  22.7472  22.9909  23.6838  24.1146  24.5991  24.6134

     occupation numbers
     1.0000   1.0000   1.0000   1.0000   1.0000   1.0000   1.0000   1.0000
     1.0000   1.0000   1.0000   1.0000   1.0000   1.0000   1.0000   1.0000
     1.0000   1.0000   1.0000   1.0000   1.0000   1.0000   1.0000   1.0000
     1.0000   1.0000   1.0000   1.0000   0.0000   0.0000   0.0000   0.0000
     0.0000   0.0000   0.0000   0.0000   0.0000   0.0000   0.0000   0.0000
     0.0000   0.0000   0.0000   0.0000   0.0000   0.0000   0.0000   0.0000
     0.0000   0.0000   0.0000   0.0000   0.0000   0.0000   0.0000   0.0000
     0.0000   0.0000   0.0000   0.0000   0.0000   0.0000   0.0000   0.0000

     highest occupied, lowest unoccupied level (ev):     1.9916    7.0931

!    total energy              =    -345.21560305 Ry
     estimated scf accuracy    <       0.00000055 Ry

     The total energy is the sum of the following terms:
     one-electron contribution =    -143.52148658 Ry
     hartree contribution      =      92.17289413 Ry
     xc contribution           =     -67.97017156 Ry
     ewald contribution        =    -156.48376163 Ry
     one-center paw contrib.   =     -69.41307741 Ry
      -> PAW hartree energy AE =       0.00000000 Ry
      -> PAW hartree energy PS =       0.00000000 Ry
      -> PAW xc energy AE      =       0.00000000 Ry
      -> PAW xc energy PS      =       0.00000000 Ry
      -> total E_H with PAW    =      92.17289413 Ry
      -> total E_XC with PAW   =     -67.97017156 Ry

     convergence has been achieved in   7 iterations

     Writing all to output data dir bands_nm/myprefix.save/

     General routines

     Parallel routines

     PAW routines

   This run was terminated on:   1:12:42  14Jul2023

   JOB DONE.