     Program PWSCF v.7.1 starts on 14Jul2023 at 18:35: 2

     Reading input from espresso_21355.pwi
Warning: card &CELL ignored
Warning: card / ignored

     Current dimensions of program PWSCF are:
     Max number of different atomic species (ntypx) = 10
     Max number of k-points (npk) =  40000
     Max angular momentum in pseudopotentials (lmaxx) =  4
     file Cu.paw.z_11.ld1.psl.v1.0.0-low.upf: wavefunction(s)  4S 3D renormalized
     file O.pbe-n-kjpaw_psl.0.1.UPF: wavefunction(s)  2P renormalized
     Message from routine setup:
     using ibrav=0 with symmetry is DISCOURAGED, use correct ibrav instead

     K-points division:     npool     =       2
     R & G space division:  proc/nbgrp/npool/nimage =       4
     Subspace diagonalization in iterative solution of the eigenvalue problem:
     a serial algorithm will be used

     Using Slab Decomposition

     bravais-lattice index     =            0
     lattice parameter (alat)  =      10.9982  a.u.
     unit-cell volume          =     956.7854 (a.u.)^3
     number of atoms/cell      =           12
     number of atomic types    =            3
     number of electrons       =        96.00
     number of Kohn-Sham states=           64
     kinetic-energy cutoff     =      30.0000  Ry
     charge density cutoff     =     240.0000  Ry
     scf convergence threshold =      1.0E-06
     mixing beta               =       0.7000
     number of iterations used =            8  plain     mixing
     Exchange-correlation= SLA  PW   PBX  PBC
                           (   1   4   3   4   0   0   0)

     celldm(1)=  10.998206  celldm(2)=   0.000000  celldm(3)=   0.000000
     celldm(4)=   0.000000  celldm(5)=   0.000000  celldm(6)=   0.000000

     crystal axes: (cart. coord. in units of alat)
               a(1) = (   1.000000   0.000000   0.000000 )
               a(2) = (  -0.045291   0.998974   0.000000 )
               a(3) = (  -0.429754  -0.544979   0.719938 )

     reciprocal axes: (cart. coord. in units 2 pi/alat)
               b(1) = (  1.000000  0.045337  0.631251 )
               b(2) = (  0.000000  1.001027  0.757758 )
               b(3) = (  0.000000  0.000000  1.389009 )

     PseudoPot. # 1 for V  read from file:
     /lustre07/scratch/pragov/crystal_structure_design/utils/SSSP/v_pbe_v1.4.uspp.F.UPF
     MD5 check sum: 22b79981416ebb76fdaf5b1b8640f6fb
     Pseudo is Ultrasoft + core correction, Zval = 13.0
     Generated by new atomic code, or converted to UPF format
     Using radial grid of  853 points,  6 beta functions with:
                l(1) =   0
                l(2) =   0
                l(3) =   1
                l(4) =   1
                l(5) =   2
                l(6) =   2
     Q(r) pseudized with  8 coefficients,  rinner =    1.100   1.100   1.100
                                                       1.100   1.100

     PseudoPot. # 2 for Cu read from file:
     /lustre07/scratch/pragov/crystal_structure_design/utils/SSSP/Cu.paw.z_11.ld1.psl.v1.0.0-low.upf
     MD5 check sum: 619f40885d92a09a85a8b37550532d0c
     Pseudo is Projector augmented-wave + core cor, Zval = 11.0
     Generated using &quot;atomic&quot; code by A. Dal Corso  v.6.3MaX
     Shape of augmentation charge: PSQ
     Using radial grid of 1199 points,  6 beta functions with:
                l(1) =   0
                l(2) =   0
                l(3) =   1
                l(4) =   1
                l(5) =   2
                l(6) =   2
     Q(r) pseudized with 0 coefficients

     PseudoPot. # 3 for O  read from file:
     /lustre07/scratch/pragov/crystal_structure_design/utils/SSSP/O.pbe-n-kjpaw_psl.0.1.UPF
     MD5 check sum: 0234752ac141de4415c5fc33072bef88
     Pseudo is Projector augmented-wave + core cor, Zval =  6.0
     Generated using "atomic" code by A. Dal Corso  v.5.0.99 svn rev. 10869
     Shape of augmentation charge: BESSEL
     Using radial grid of 1095 points,  4 beta functions with:
                l(1) =   0
                l(2) =   0
                l(3) =   1
                l(4) =   1
     Q(r) pseudized with 0 coefficients

     atomic species   valence    mass     pseudopotential
        V             13.00    50.94150     V ( 1.00)
        Cu            11.00    63.54600     Cu( 1.00)
        O              6.00    15.99900     O ( 1.00)

      2 Sym. Ops., with inversion, found

                                    s                        frac. trans.

      isym =  1     identity

 cryst.   s( 1) = (     1          0          0      )
                  (     0          1          0      )
                  (     0          0          1      )

 cart.    s( 1) = (  1.0000000  0.0000000  0.0000000 )
                  (  0.0000000  1.0000000  0.0000000 )
                  (  0.0000000  0.0000000  1.0000000 )

      isym =  2     inversion

 cryst.   s( 2) = (    -1          0          0      )
                  (     0         -1          0      )
                  (     0          0         -1      )

 cart.    s( 2) = ( -1.0000000  0.0000000  0.0000000 )
                  (  0.0000000 -1.0000000  0.0000000 )
                  (  0.0000000  0.0000000 -1.0000000 )

   Cartesian axes

     site n.     atom                  positions (alat units)
         1           V   tau(   1) = (  -0.1102352   0.6456022   0.1799844  )
         2           V   tau(   2) = (   0.6351908  -0.1916070   0.5399531  )
         3           Cu  tau(   3) = (   0.2624778   0.2269976   0.3599688  )
         4           Cu  tau(   4) = (   0.5000000   0.0000000   0.0000000  )
         5           O   tau(   5) = (   0.2913652   0.2381702   0.0420638  )
         6           O   tau(   6) = (   0.5844622   0.5712587   0.3655303  )
         7           O   tau(   7) = (  -0.0595067  -0.1172635   0.3544072  )
         8           O   tau(   8) = (   0.1253854   0.6617280   0.0055615  )
         9           O   tau(   9) = (   0.0151038   0.4246314   0.4020325  )
        10           O   tau(  10) = (   0.2335903   0.2158250   0.6778737  )
        11           O   tau(  11) = (   0.3995702  -0.2077328   0.7143760  )
        12           O   tau(  12) = (   0.5098518   0.0293638   0.3179050  )

   Crystallographic axes

     site n.     atom                  positions (cryst. coord.)
         1           V   tau(   1) = (  0.0326500  0.7826500  0.2500000  )
         2           V   tau(   2) = (  0.9673500  0.2173500  0.7500000  )
         3           Cu  tau(   3) = (  0.5000000  0.5000000  0.5000000  )
         4           Cu  tau(   4) = (  0.5000000  0.0000000  0.0000000  )
         5           O   tau(   5) = (  0.3287160  0.2702890  0.0584270  )
         6           O   tau(   6) = (  0.8411030  0.8488290  0.5077250  )
         7           O   tau(   7) = (  0.1588970  0.1511710  0.4922750  )
         8           O   tau(   8) = (  0.1588970  0.6666220  0.0077250  )
         9           O   tau(   9) = (  0.2881390  0.7297110  0.5584270  )
        10           O   tau(  10) = (  0.6712840  0.7297110  0.9415730  )
        11           O   tau(  11) = (  0.8411030  0.3333780  0.9922750  )
        12           O   tau(  12) = (  0.7118610  0.2702890  0.4415730  )

     number of k points=    14
                       cart. coord. in units 2pi/alat
        k(    1) = (   0.0000000   0.0000000   0.0000000), wk =   0.0740741
        k(    2) = (   0.0000000   0.0000000   0.4630031), wk =   0.1481481
        k(    3) = (   0.0000000   0.3336757   0.2525860), wk =   0.1481481
        k(    4) = (   0.0000000   0.3336757   0.7155892), wk =   0.1481481
        k(    5) = (   0.0000000   0.3336757  -0.2104171), wk =   0.1481481
        k(    6) = (   0.3333333   0.0151124   0.2104171), wk =   0.1481481
        k(    7) = (   0.3333333   0.0151124   0.6734203), wk =   0.1481481
        k(    8) = (   0.3333333   0.0151124  -0.2525860), wk =   0.1481481
        k(    9) = (   0.3333333   0.3487881   0.4630031), wk =   0.1481481
        k(   10) = (   0.3333333   0.3487881   0.9260063), wk =   0.1481481
        k(   11) = (   0.3333333   0.3487881   0.0000000), wk =   0.1481481
        k(   12) = (   0.3333333  -0.3185633  -0.0421689), wk =   0.1481481
        k(   13) = (   0.3333333  -0.3185633   0.4208343), wk =   0.1481481
        k(   14) = (   0.3333333  -0.3185633  -0.5051720), wk =   0.1481481

                       cryst. coord.
        k(    1) = (   0.0000000   0.0000000   0.0000000), wk =   0.0740741
        k(    2) = (   0.0000000   0.0000000   0.3333333), wk =   0.1481481
        k(    3) = (   0.0000000   0.3333333  -0.0000000), wk =   0.1481481
        k(    4) = (   0.0000000   0.3333333   0.3333333), wk =   0.1481481
        k(    5) = (   0.0000000   0.3333333  -0.3333333), wk =   0.1481481
        k(    6) = (   0.3333333   0.0000000   0.0000000), wk =   0.1481481
        k(    7) = (   0.3333333   0.0000000   0.3333333), wk =   0.1481481
        k(    8) = (   0.3333333   0.0000000  -0.3333333), wk =   0.1481481
        k(    9) = (   0.3333333   0.3333333   0.0000000), wk =   0.1481481
        k(   10) = (   0.3333333   0.3333333   0.3333333), wk =   0.1481481
        k(   11) = (   0.3333333   0.3333333  -0.3333333), wk =   0.1481481
        k(   12) = (   0.3333333  -0.3333333   0.0000000), wk =   0.1481481
        k(   13) = (   0.3333333  -0.3333333   0.3333333), wk =   0.1481481
        k(   14) = (   0.3333333  -0.3333333  -0.3333333), wk =   0.1481481

     Check: negative core charge=   -0.000014

     Initial potential from superposition of free atoms

     starting charge      95.9971, renormalised to      96.0000

     negative rho (up, down):  1.954E-03 0.000E+00
     Starting wfcs are   70 randomized atomic wfcs
     Checking if some PAW data can be deallocated...

     Self-consistent Calculation

     iteration #  1     ecut=    30.00 Ry     beta= 0.70
     Davidson diagonalization with overlap

     ethr =  1.00E-02,  avg # of iterations =  2.4

     negative rho (up, down):  3.413E-03 0.000E+00

     total energy              =   -1044.66809977 Ry
     estimated scf accuracy    <       6.95205054 Ry

[...]

     total energy              =   -1049.24750075 Ry
     estimated scf accuracy    <       0.00000495 Ry

     iteration # 13     ecut=    30.00 Ry     beta= 0.70
     Davidson diagonalization with overlap

     ethr =  5.16E-09,  avg # of iterations =  1.4

     negative rho (up, down):  2.891E-03 0.000E+00

     End of self-consistent calculation

          k = 0.0000 0.0000 0.0000 (  2659 PWs)   bands (ev):

   -59.1094 -59.0813 -33.1947 -32.9646 -32.9109 -32.9009 -32.9005 -32.8766
   -13.1145 -12.2059 -11.7849 -11.6720 -11.6195 -11.3417 -10.9502 -10.9405
    -1.0226  -0.2370   0.0856   0.4031   0.4539   0.8090   0.8279   1.3679
     1.4492   1.5072   1.7002   2.7734   2.8307   2.8855   2.9047   2.9641
     3.0594   3.1876   3.3067   3.3719   3.3760   3.4134   3.6778   3.8898
     3.9936   4.0123   4.0741   4.6595   4.7056   4.7451   5.2710   5.6252
     6.2492   6.3525   7.3887   7.8851   8.2229   8.4653   8.4862   8.6666
     9.9645  10.4004  10.9243  11.2037  11.8127  15.0477  15.1889  15.7788

     occupation numbers
     1.0000   1.0000   1.0000   1.0000   1.0000   1.0000   1.0000   1.0000
     1.0000   1.0000   1.0000   1.0000   1.0000   1.0000   1.0000   1.0000
     1.0000   1.0000   1.0000   1.0000   1.0000   1.0000   1.0000   1.0000
     1.0000   1.0000   1.0000   1.0000   1.0000   1.0000   1.0000   1.0000
     1.0000   1.0000   1.0000   1.0000   1.0000   1.0000   1.0000   1.0000
     1.0000   1.0000   1.0000   1.0000   1.0000   1.0000   1.0000   1.0000
     0.0000   0.0000   0.0000   0.0000   0.0000   0.0000   0.0000   0.0000
     0.0000   0.0000   0.0000   0.0000   0.0000   0.0000   0.0000   0.0000

[...]

          k = 0.3333-0.3186-0.5052 (  2666 PWs)   bands (ev):

   -59.1024 -59.0884 -33.1261 -32.9860 -32.9485 -32.9156 -32.8942 -32.8820
   -12.8029 -12.4675 -11.6747 -11.6423 -11.6222 -11.2419 -11.1999 -11.0809
    -0.7054  -0.0098   0.0106   0.1692   0.4485   1.0906   1.1135   1.8160
     1.8531   2.0137   2.0614   2.1890   2.2357   2.4045   2.4396   2.5645
     2.9052   3.2246   3.2587   3.3485   3.3992   3.7532   3.7912   3.8620
     3.9545   4.0129   4.1568   4.1643   4.4555   4.7714   5.1994   5.4232
     6.2177   6.2424   8.0376   8.0433   8.2720   8.3515   8.5301   8.5860
     9.7893   9.8140  10.6656  10.7748  14.1981  14.4972  15.1727  15.9819

     occupation numbers
     1.0000   1.0000   1.0000   1.0000   1.0000   1.0000   1.0000   1.0000
     1.0000   1.0000   1.0000   1.0000   1.0000   1.0000   1.0000   1.0000
     1.0000   1.0000   1.0000   1.0000   1.0000   1.0000   1.0000   1.0000
     1.0000   1.0000   1.0000   1.0000   1.0000   1.0000   1.0000   1.0000
     1.0000   1.0000   1.0000   1.0000   1.0000   1.0000   1.0000   1.0000
     1.0000   1.0000   1.0000   1.0000   1.0000   1.0000   1.0000   1.0000
     0.0000   0.0000   0.0000   0.0000   0.0000   0.0000   0.0000   0.0000
     0.0000   0.0000   0.0000   0.0000   0.0000   0.0000   0.0000   0.0000

     highest occupied, lowest unoccupied level (ev):     5.6252    5.9010

!    total energy              =   -1049.24750121 Ry
     estimated scf accuracy    <       0.00000035 Ry

     The total energy is the sum of the following terms:
     one-electron contribution =    -397.61547797 Ry
     hartree contribution      =     260.27888965 Ry
     xc contribution           =    -186.65522699 Ry
     ewald contribution        =    -469.26386947 Ry
     one-center paw contrib.   =    -255.99181642 Ry
      -> PAW hartree energy AE =       0.00000000 Ry
      -> PAW hartree energy PS =       0.00000000 Ry
      -> PAW xc energy AE      =       0.00000000 Ry
      -> PAW xc energy PS      =       0.00000000 Ry
      -> total E_H with PAW    =     260.27888965 Ry
      -> total E_XC with PAW   =    -186.65522699 Ry

     convergence has been achieved in  13 iterations

     Writing all to output data dir bands_nm/myprefix.save/

     General routines

     Parallel routines

     PAW routines

   This run was terminated on:  18:35:24  14Jul2023

   JOB DONE.