     Program PWSCF v.7.0 starts on  5Jun2023 at 23: 9:25

     K-points division:     npool     =       2
     R & G space division:  proc/nbgrp/npool/nimage =       4

     Reading input from espresso_12286.pwi
Warning: card &CELL ignored
Warning: card / ignored

     Current dimensions of program PWSCF are:
     Max number of different atomic species (ntypx) = 10
     Max number of k-points (npk) =  40000
     Max angular momentum in pseudopotentials (lmaxx) =  4
     file Fe.pbe-spn-kjpaw_psl.0.2.1.UPF: wavefunction(s)  3D renormalized
     file O.pbe-n-kjpaw_psl.0.1.UPF: wavefunction(s)  2P renormalized
     Message from routine setup:
     using ibrav=0 with symmetry is DISCOURAGED, use correct ibrav instead

     Using Slab Decomposition

     bravais-lattice index     =            0
     lattice parameter (alat)  =      11.3186  a.u.
     unit-cell volume          =    1014.2662 (a.u.)^3
     number of atoms/cell      =           15
     number of atomic types    =            4
     number of electrons       =       120.00
     number of Kohn-Sham states=           64
     kinetic-energy cutoff     =      30.0000  Ry
     charge density cutoff     =     240.0000  Ry
     scf convergence threshold =      1.0E-06
     mixing beta               =       0.7000
     number of iterations used =            8  plain     mixing
     Exchange-correlation= SLA  PW   PBX  PBC
                           (   1   4   3   4   0   0   0)

     celldm(1)=  11.318590  celldm(2)=   0.000000  celldm(3)=   0.000000
     celldm(4)=   0.000000  celldm(5)=   0.000000  celldm(6)=   0.000000

     crystal axes: (cart. coord. in units of alat)
               a(1) = (   1.000000   0.000000   0.000000 )
               a(2) = (   0.507153   0.861856   0.000000 )
               a(3) = (   0.507153   0.290012   0.811597 )

     reciprocal axes: (cart. coord. in units 2 pi/alat)
               b(1) = (  1.000000 -0.588442 -0.414611 )
               b(2) = (  0.000000  1.160286 -0.414611 )
               b(3) = (  0.000000  0.000000  1.232139 )

     PseudoPot. # 1 for Li read from file:
     /home/pragov/projects/rrg-bengioy-ad/pragov/crystal_structure_design/SSSP/li_pbe_v1.4.uspp.F.UPF
     MD5 check sum: e912e257baa3777c20ea3d68f190483c
     Pseudo is Ultrasoft, Zval =  3.0
     Generated by new atomic code, or converted to UPF format
     Using radial grid of  751 points,  5 beta functions with:
                l(1) =   0
                l(2) =   0
                l(3) =   0
                l(4) =   1
                l(5) =   1
     Q(r) pseudized with 10 coefficients,  rinner =    1.150   1.150   1.150

     PseudoPot. # 2 for Mn read from file:
     /home/pragov/projects/rrg-bengioy-ad/pragov/crystal_structure_design/SSSP/mn_pbe_v1.5.uspp.F.UPF
     MD5 check sum: 82ef2b46521d7a7d9e736dc3972e4928
     Pseudo is Ultrasoft + core correction, Zval = 15.0
     Generated by new atomic code, or converted to UPF format
     Using radial grid of  859 points,  6 beta functions with:
                l(1) =   0
                l(2) =   0
                l(3) =   1
                l(4) =   1
                l(5) =   2
                l(6) =   2
     Q(r) pseudized with  8 coefficients,  rinner =    0.950   0.950   0.950
                                                       0.950   0.950

     PseudoPot. # 3 for Fe read from file:
     /home/pragov/projects/rrg-bengioy-ad/pragov/crystal_structure_design/SSSP/Fe.pbe-spn-kjpaw_psl.0.2.1.UPF
     MD5 check sum: e86618425769142926afa95317d90200
     Pseudo is Projector augmented-wave + core cor, Zval = 16.0
     Generated using "atomic" code by A. Dal Corso  v.5.0.99 svn rev. 10869
     Shape of augmentation charge: PSQ
     Using radial grid of 1191 points,  6 beta functions with:
                l(1) =   0
                l(2) =   0
                l(3) =   1
                l(4) =   1
                l(5) =   2
                l(6) =   2
     Q(r) pseudized with 0 coefficients

     PseudoPot. # 4 for O  read from file:
     /home/pragov/projects/rrg-bengioy-ad/pragov/crystal_structure_design/SSSP/O.pbe-n-kjpaw_psl.0.1.UPF
     MD5 check sum: 0234752ac141de4415c5fc33072bef88
     Pseudo is Projector augmented-wave + core cor, Zval =  6.0
     Generated using "atomic" code by A. Dal Corso  v.5.0.99 svn rev. 10869
     Shape of augmentation charge: BESSEL
     Using radial grid of 1095 points,  4 beta functions with:
                l(1) =   0
                l(2) =   0
                l(3) =   1
                l(4) =   1
     Q(r) pseudized with 0 coefficients

     atomic species   valence    mass     pseudopotential
        Li             3.00     6.94000     Li( 1.00)
        Mn            15.00    54.93804     Mn( 1.00)
        Fe            16.00    55.84500     Fe( 1.00)
        O              6.00    15.99900     O ( 1.00)

      2 Sym. Ops., with inversion, found

                                    s                        frac. trans.

      isym =  1     identity

 cryst.   s( 1) = (     1          0          0      )
                  (     0          1          0      )
                  (     0          0          1      )

 cart.    s( 1) = (  1.0000000 -0.0000000  0.0000000 )
                  (  0.0000000  1.0000000  0.0000000 )
                  (  0.0000000  0.0000000  1.0000000 )

      isym =  2     inversion

 cryst.   s( 2) = (    -1          0          0      )
                  (     0         -1          0      )
                  (     0          0         -1      )

 cart.    s( 2) = ( -1.0000000  0.0000000 -0.0000000 )
                  (  0.0000000 -1.0000000 -0.0000000 )
                  (  0.0000000  0.0000000 -1.0000000 )

   Cartesian axes

     site n.     atom                  positions (alat units)
         1           Li  tau(   1) = (   0.2535763   0.1450061   0.4057983  )
         2           Li  tau(   2) = (   0.2535763   0.4309281   0.0000000  )
         3           Li  tau(   3) = (   0.5000000   0.0000000   0.0000000  )
         4           Mn  tau(   4) = (   0.0000000   0.0000000   0.0000000  )
         5           Fe  tau(   5) = (   0.7535763   0.4309281   0.0000000  )
         6           Fe  tau(   6) = (   0.7535763   0.1450061   0.4057983  )
         7           Fe  tau(   7) = (   0.5071527   0.5759342   0.4057983  )
         8           O   tau(   8) = (   1.4944373   0.8545850   0.6021333  )
         9           O   tau(   9) = (   0.7306067   0.4177931   0.6145215  )
        10           O   tau(  10) = (   0.7306068   0.7192715   0.1866445  )
        11           O   tau(  11) = (   0.5198680   0.2972834   0.2094633  )
        12           O   tau(  12) = (   0.9904378   0.2648975   0.1866445  )
        13           O   tau(  13) = (   1.2836986   0.7340753   0.1970751  )
        14           O   tau(  14) = (   1.2836986   0.4325969   0.6249521  )
        15           O   tau(  15) = (   1.0238675   0.8869709   0.6249521  )

   Crystallographic axes

     site n.     atom                  positions (cryst. coord.)
         1           Li  tau(   1) = ( -0.0000000 -0.0000000  0.5000000  )
         2           Li  tau(   2) = ( -0.0000000  0.5000000  0.0000000  )
         3           Li  tau(   3) = (  0.5000000  0.0000000  0.0000000  )
         4           Mn  tau(   4) = (  0.0000000  0.0000000  0.0000000  )
         5           Fe  tau(   5) = (  0.5000000  0.5000000  0.0000000  )
         6           Fe  tau(   6) = (  0.5000000 -0.0000000  0.5000000  )
         7           Fe  tau(   7) = (  0.0000000  0.5000000  0.5000000  )
         8           O   tau(   8) = (  0.7419120  0.7419120  0.7419120  )
         9           O   tau(   9) = (  0.2299720  0.2299720  0.7571760  )
        10           O   tau(  10) = (  0.2299720  0.7571760  0.2299720  )
        11           O   tau(  11) = (  0.2580880  0.2580880  0.2580880  )
        12           O   tau(  12) = (  0.7571760  0.2299720  0.2299720  )
        13           O   tau(  13) = (  0.7700280  0.7700280  0.2428240  )
        14           O   tau(  14) = (  0.7700280  0.2428240  0.7700280  )
        15           O   tau(  15) = (  0.2428240  0.7700280  0.7700280  )

     number of k points=    14
                       cart. coord. in units 2pi/alat
        k(    1) = (   0.0000000   0.0000000   0.0000000), wk =   0.0740741
        k(    2) = (   0.0000000   0.0000000   0.4107131), wk =   0.1481481
        k(    3) = (   0.0000000   0.3867621  -0.1382038), wk =   0.1481481
        k(    4) = (   0.0000000   0.3867621   0.2725093), wk =   0.1481481
        k(    5) = (   0.0000000   0.3867621  -0.5489169), wk =   0.1481481
        k(    6) = (   0.3333333  -0.1961474  -0.1382038), wk =   0.1481481
        k(    7) = (   0.3333333  -0.1961474   0.2725093), wk =   0.1481481
        k(    8) = (   0.3333333  -0.1961474  -0.5489169), wk =   0.1481481
        k(    9) = (   0.3333333   0.1906147  -0.2764076), wk =   0.1481481
        k(   10) = (   0.3333333   0.1906147   0.1343055), wk =   0.1481481
        k(   11) = (   0.3333333   0.1906147  -0.6871207), wk =   0.1481481
        k(   12) = (   0.3333333  -0.5829096   0.0000000), wk =   0.1481481
        k(   13) = (   0.3333333  -0.5829096   0.4107131), wk =   0.1481481
        k(   14) = (   0.3333333  -0.5829096  -0.4107131), wk =   0.1481481

                       cryst. coord.
        k(    1) = (   0.0000000   0.0000000   0.0000000), wk =   0.0740741
        k(    2) = (   0.0000000   0.0000000   0.3333333), wk =   0.1481481
        k(    3) = (   0.0000000   0.3333333  -0.0000000), wk =   0.1481481
        k(    4) = (   0.0000000   0.3333333   0.3333333), wk =   0.1481481
        k(    5) = (   0.0000000   0.3333333  -0.3333333), wk =   0.1481481
        k(    6) = (   0.3333333  -0.0000000   0.0000000), wk =   0.1481481
        k(    7) = (   0.3333333  -0.0000000   0.3333333), wk =   0.1481481
        k(    8) = (   0.3333333  -0.0000000  -0.3333333), wk =   0.1481481
        k(    9) = (   0.3333333   0.3333333  -0.0000000), wk =   0.1481481
        k(   10) = (   0.3333333   0.3333333   0.3333333), wk =   0.1481481
        k(   11) = (   0.3333333   0.3333333  -0.3333333), wk =   0.1481481
        k(   12) = (   0.3333333  -0.3333333  -0.0000000), wk =   0.1481481
        k(   13) = (   0.3333333  -0.3333333   0.3333333), wk =   0.1481481
        k(   14) = (   0.3333333  -0.3333333  -0.3333333), wk =   0.1481481

     Check: negative core charge=   -0.000128

     Initial potential from superposition of free atoms

     starting charge     118.1464, renormalised to     120.0000
     Starting wfcs are   99 randomized atomic wfcs
     Checking if some PAW data can be deallocated...

     Self-consistent Calculation

     iteration #  1     ecut=    30.00 Ry     beta= 0.70
     Davidson diagonalization with overlap

     ethr =  1.00E-02,  avg # of iterations =  2.0

     negative rho (up, down):  7.698E-04 0.000E+00

     total energy              =   -1563.38524153 Ry
     estimated scf accuracy    <      15.33522215 Ry

[...]

     c_bands:  1 eigenvalues not converged
     ethr =  6.04E-07,  avg # of iterations = 14.1

[...]

     total energy              =   -1574.72556661 Ry
     estimated scf accuracy    <       0.00000103 Ry

     iteration # 46     ecut=    30.00 Ry     beta= 0.70
     Davidson diagonalization with overlap

     ethr =  8.57E-10,  avg # of iterations =  1.3

     negative rho (up, down):  1.292E-04 0.000E+00

     End of self-consistent calculation

          k = 0.0000 0.0000 0.0000 (  2753 PWs)   bands (ev):

   -79.1307 -79.1250 -79.1248 -72.2679 -44.8433 -44.8175 -44.8172 -44.6265
   -44.6208 -44.6206 -44.5724 -44.5629 -44.5627 -40.9811 -40.9811 -40.9013
   -36.4980 -36.4835 -36.4834 -11.0139  -9.7875  -9.7873  -9.7801  -9.7799
    -9.7539  -9.6753  -9.6622   1.8336   1.8337   2.0679   2.3638   3.1201
     3.1588   3.1588   3.5797   3.5798   4.0602   4.0603   4.3913   4.4170
     4.7691   4.7691   5.2644   5.3017   5.3018   5.4013   5.4014   5.4876
     6.3683   6.4238   6.4238   7.0218   7.0362   7.0364   7.1731   7.1733
     7.6936   7.7066   7.7067   7.8433   8.0130   8.0132   8.0423  10.0744

     occupation numbers
     1.0000   1.0000   1.0000   1.0000   1.0000   1.0000   1.0000   1.0000
     1.0000   1.0000   1.0000   1.0000   1.0000   1.0000   1.0000   1.0000
     1.0000   1.0000   1.0000   1.0000   1.0000   1.0000   1.0000   1.0000
     1.0000   1.0000   1.0000   1.0000   1.0000   1.0000   1.0000   1.0000
     1.0000   1.0000   1.0000   1.0000   1.0000   1.0000   1.0000   1.0000
     1.0000   1.0000   1.0000   1.0000   1.0000   1.0000   1.0000   1.0000
     1.0000   1.0000   1.0000   1.0000   1.0000   1.0000   1.0000   1.0000
     1.0000   1.0000   1.0000   1.0000   0.0000   0.0000   0.0000   0.0000

[...]

          k = 0.3333-0.5829-0.4107 (  2808 PWs)   bands (ev):

   -79.1321 -79.1318 -79.1307 -72.2684 -44.8573 -44.8439 -44.8367 -44.6360
   -44.6349 -44.6158 -44.6069 -44.5895 -44.5820 -40.9854 -40.9842 -40.9063
   -36.4951 -36.4873 -36.4846 -10.6840 -10.1731  -9.8638  -9.8453  -9.7890
    -9.7143  -9.6534  -9.6189   2.3976   2.4219   2.8943   3.1333   3.1599
     3.1618   3.2752   3.5198   3.5584   3.6002   3.8753   4.0546   4.2345
     4.3885   4.5181   4.6483   4.7420   5.0203   5.1869   5.2888   5.4331
     5.6960   5.7791   5.8326   7.2240   7.3974   7.4364   7.5072   7.5743
     7.7602   7.7856   7.8586   7.9298   8.0639   8.1229   8.2847   9.6255

     occupation numbers
     1.0000   1.0000   1.0000   1.0000   1.0000   1.0000   1.0000   1.0000
     1.0000   1.0000   1.0000   1.0000   1.0000   1.0000   1.0000   1.0000
     1.0000   1.0000   1.0000   1.0000   1.0000   1.0000   1.0000   1.0000
     1.0000   1.0000   1.0000   1.0000   1.0000   1.0000   1.0000   1.0000
     1.0000   1.0000   1.0000   1.0000   1.0000   1.0000   1.0000   1.0000
     1.0000   1.0000   1.0000   1.0000   1.0000   1.0000   1.0000   1.0000
     1.0000   1.0000   1.0000   1.0000   1.0000   1.0000   1.0000   1.0000
     1.0000   1.0000   1.0000   1.0000   0.0000   0.0000   0.0000   0.0000

     highest occupied, lowest unoccupied level (ev):     8.0092    7.9844

!    total energy              =   -1574.72556605 Ry
     estimated scf accuracy    <       0.00000077 Ry

     The total energy is the sum of the following terms:
     one-electron contribution =    -845.29062275 Ry
     hartree contribution      =     474.25853626 Ry
     xc contribution           =    -199.51019085 Ry
     ewald contribution        =    -699.74112748 Ry
     one-center paw contrib.   =    -304.44216122 Ry
      -> PAW hartree energy AE =       0.00000000 Ry
      -> PAW hartree energy PS =       0.00000000 Ry
      -> PAW xc energy AE      =       0.00000000 Ry
      -> PAW xc energy PS      =       0.00000000 Ry
      -> total E_H with PAW    =     474.25853626 Ry
      -> total E_XC with PAW   =    -199.51019085 Ry

     convergence has been achieved in  46 iterations

     Writing all to output data dir calculations_bands/myprefix.save/

     General routines

     Parallel routines

     PAW routines

   This run was terminated on:  23:10:11   5Jun2023

   JOB DONE.