     Program PWSCF v.7.1 starts on 17Jul2023 at  0:26:55

     Reading input from espresso_26694.pwi
Warning: card &CELL ignored
Warning: card / ignored

     Current dimensions of program PWSCF are:
     Max number of different atomic species (ntypx) = 10
     Max number of k-points (npk) =  40000
     Max angular momentum in pseudopotentials (lmaxx) =  4
     file Nb.pbe-spn-kjpaw_psl.0.3.0.UPF: wavefunction(s)  4S 4P renormalized
     Message from routine setup:
     using ibrav=0 with symmetry is DISCOURAGED, use correct ibrav instead

     K-points division:     npool     =       2
     R & G space division:  proc/nbgrp/npool/nimage =       4
     Subspace diagonalization in iterative solution of the eigenvalue problem:
     one sub-group per band group will be used

     Using Slab Decomposition

     bravais-lattice index     =            0
     lattice parameter (alat)  =      13.1742  a.u.
     unit-cell volume          =    3308.3857 (a.u.)^3
     number of atoms/cell      =           16
     number of atomic types    =            3
     number of electrons       =       136.00
     number of Kohn-Sham states=          256
     kinetic-energy cutoff     =      30.0000  Ry
     charge density cutoff     =     240.0000  Ry
     scf convergence threshold =      1.0E-06
     mixing beta               =       0.7000
     number of iterations used =            8  plain     mixing
     Exchange-correlation=  SLA  PW   PBX  PBC
                           (   1   4   3   4   0   0   0)

     celldm(1)=  13.174162  celldm(2)=   0.000000  celldm(3)=   0.000000
     celldm(4)=   0.000000  celldm(5)=   0.000000  celldm(6)=   0.000000

     crystal axes: (cart. coord. in units of alat)
               a(1) = (   1.000000   0.000000   0.000000 )
               a(2) = (   0.567481   0.823386   0.000000 )
               a(3) = (   0.323667   0.170020   1.757290 )

     reciprocal axes: (cart. coord. in units 2 pi/alat)
               b(1) = (  1.000000 -0.689204 -0.117504 )
               b(2) = (  0.000000  1.214497 -0.117504 )
               b(3) = (  0.000000  0.000000  0.569058 )

     PseudoPot. # 1 for Nb read from file:
     /lustre07/scratch/pragov/crystal_structure_design/utils/SSSP/Nb.pbe-spn-kjpaw_psl.0.3.0.UPF
     MD5 check sum: 411d72ad547312f8017e2943ceca08cc
     Pseudo is Projector augmented-wave + core cor, Zval = 13.0
     Generated using "atomic" code by A. Dal Corso  v.5.0.99 svn rev. 10869
     Shape of augmentation charge: PSQ
     Using radial grid of 1227 points,  6 beta functions with:
                l(1) =   0
                l(2) =   0
                l(3) =   1
                l(4) =   1
                l(5) =   2
                l(6) =   2
     Q(r) pseudized with 0 coefficients

     PseudoPot. # 2 for Tl read from file:
     /lustre07/scratch/pragov/crystal_structure_design/utils/SSSP/Tl_pbe_v1.2.uspp.F.UPF
     MD5 check sum: b76cf1f7e72655a2b2c53cf6385d7059
     Pseudo is Ultrasoft + core correction, Zval = 13.0
     Generated by new atomic code, or converted to UPF format
     Using radial grid of  899 points,  6 beta functions with:
                l(1) =   0
                l(2) =   0
                l(3) =   1
                l(4) =   1
                l(5) =   2
                l(6) =   2
     Q(r) pseudized with  6 coefficients,  rinner =    1.100   1.100   1.100
                                                       1.100   1.100

     PseudoPot. # 3 for Cl read from file:
     /lustre07/scratch/pragov/crystal_structure_design/utils/SSSP/cl_pbe_v1.4.uspp.F.UPF
     MD5 check sum: fc6f6913ecf08c9257cb748ef0700058
     Pseudo is Ultrasoft + core correction, Zval =  7.0
     Generated by new atomic code, or converted to UPF format
     Using radial grid of  909 points,  6 beta functions with:
                l(1) =   0
                l(2) =   0
                l(3) =   1
                l(4) =   1
                l(5) =   2
                l(6) =   2
     Q(r) pseudized with  8 coefficients,  rinner =    1.300   1.300   1.300
                                                       1.300   1.300

     atomic species   valence    mass     pseudopotential
        Nb            13.00    92.90637     Nb( 1.00)
        Tl            13.00   204.38000     Tl( 1.00)
        Cl             7.00    35.45000     Cl( 1.00)

      2 Sym. Ops., with inversion, found

                                    s                        frac. trans.

      isym =  1     identity

 cryst.   s( 1) = (     1          0          0      )
                  (     0          1          0      )
                  (     0          0          1      )

 cart.    s( 1) = (  1.0000000  0.0000000 -0.0000000 )
                  (  0.0000000  1.0000000  0.0000000 )
                  (  0.0000000  0.0000000  1.0000000 )

      isym =  2     inversion

 cryst.   s( 2) = (    -1          0          0      )
                  (     0         -1          0      )
                  (     0          0         -1      )

 cart.    s( 2) = ( -1.0000000 -0.0000000  0.0000000 )
                  (  0.0000000 -1.0000000  0.0000000 )
                  (  0.0000000  0.0000000 -1.0000000 )

   Cartesian axes

     site n.     atom                  positions (alat units)
         1           Nb  tau(   1) = (   0.6618333   0.0850099   0.8786450  )
         2           Nb  tau(   2) = (   0.2837406   0.4116932   0.0000000  )
         3           Tl  tau(   3) = (   1.1914623   0.2251511   1.3179675  )
         4           Tl  tau(   4) = (   0.6996854   0.7682550   0.4393225  )
         5           Cl  tau(   5) = (   1.0548368   0.6780856   1.0609744  )
         6           Cl  tau(   6) = (   0.8363110   0.3153206   0.6963156  )
         7           Cl  tau(   7) = (   0.8960547   0.5946785   1.5749606  )
         8           Cl  tau(   8) = (   0.9950931   0.3987277   0.1823294  )
         9           Cl  tau(   9) = (   0.6980980   0.2779308   1.1585321  )
        10           Cl  tau(  10) = (   1.1930498   0.7154753   0.5987579  )
        11           Cl  tau(  11) = (   1.4279792   0.6613321   1.4774029  )
        12           Cl  tau(  12) = (   0.4631686   0.3320741   0.2798871  )
        13           Cl  tau(  13) = (   1.3161499   0.7435418   0.0707380  )
        14           Cl  tau(  14) = (   0.5749979   0.2498644   1.6865520  )
        15           Cl  tau(  15) = (   0.3702020   0.2466423   0.8079070  )
        16           Cl  tau(  16) = (   1.5209457   0.7467639   0.9493829  )

   Crystallographic axes

     site n.     atom                  positions (cryst. coord.)
         1           Nb  tau(   1) = (  0.5000000 -0.0000000  0.5000000  )
         2           Nb  tau(   2) = ( -0.0000000  0.5000000  0.0000000  )
         3           Tl  tau(   3) = (  0.8814210  0.1185790  0.7500000  )
         4           Tl  tau(   4) = (  0.1185790  0.8814210  0.2500000  )
         5           Cl  tau(   5) = (  0.4628290  0.6988640  0.6037560  )
         6           Cl  tau(   6) = (  0.5371710  0.3011360  0.3962440  )
         7           Cl  tau(   7) = (  0.3011360  0.5371710  0.8962440  )
         8           Cl  tau(   8) = (  0.6988640  0.4628290  0.1037560  )
         9           Cl  tau(   9) = (  0.3704150  0.2014140  0.6592720  )
        10           Cl  tau(  10) = (  0.6295850  0.7985860  0.3407280  )
        11           Cl  tau(  11) = (  0.7985860  0.6295850  0.8407280  )
        12           Cl  tau(  12) = (  0.2014140  0.3704150  0.1592720  )
        13           Cl  tau(  13) = (  0.7953860  0.8947170  0.0402540  )
        14           Cl  tau(  14) = (  0.2046140  0.1052830  0.9597460  )
        15           Cl  tau(  15) = (  0.1052830  0.2046140  0.4597460  )
        16           Cl  tau(  16) = (  0.8947170  0.7953860  0.5402540  )

     number of k points=    14
                       cart. coord. in units 2pi/alat
        k(    1) = (   0.0000000   0.0000000   0.0000000), wk =   0.0740741
        k(    2) = (   0.0000000   0.0000000   0.1896860), wk =   0.1481481
        k(    3) = (   0.0000000   0.4048322  -0.0391680), wk =   0.1481481
        k(    4) = (   0.0000000   0.4048322   0.1505181), wk =   0.1481481
        k(    5) = (   0.0000000   0.4048322  -0.2288540), wk =   0.1481481
        k(    6) = (   0.3333333  -0.2297346  -0.0391680), wk =   0.1481481
        k(    7) = (   0.3333333  -0.2297346   0.1505181), wk =   0.1481481
        k(    8) = (   0.3333333  -0.2297346  -0.2288540), wk =   0.1481481
        k(    9) = (   0.3333333   0.1750976  -0.0783359), wk =   0.1481481
        k(   10) = (   0.3333333   0.1750976   0.1113501), wk =   0.1481481
        k(   11) = (   0.3333333   0.1750976  -0.2680219), wk =   0.1481481
        k(   12) = (   0.3333333  -0.6345668   0.0000000), wk =   0.1481481
        k(   13) = (   0.3333333  -0.6345668   0.1896860), wk =   0.1481481
        k(   14) = (   0.3333333  -0.6345668  -0.1896860), wk =   0.1481481

                       cryst. coord.
        k(    1) = (   0.0000000   0.0000000   0.0000000), wk =   0.0740741
        k(    2) = (   0.0000000   0.0000000   0.3333333), wk =   0.1481481
        k(    3) = (   0.0000000   0.3333333   0.0000000), wk =   0.1481481
        k(    4) = (   0.0000000   0.3333333   0.3333333), wk =   0.1481481
        k(    5) = (   0.0000000   0.3333333  -0.3333333), wk =   0.1481481
        k(    6) = (   0.3333333   0.0000000   0.0000000), wk =   0.1481481
        k(    7) = (   0.3333333   0.0000000   0.3333333), wk =   0.1481481
        k(    8) = (   0.3333333   0.0000000  -0.3333333), wk =   0.1481481
        k(    9) = (   0.3333333   0.3333333   0.0000000), wk =   0.1481481
        k(   10) = (   0.3333333   0.3333333   0.3333333), wk =   0.1481481
        k(   11) = (   0.3333333   0.3333333  -0.3333333), wk =   0.1481481
        k(   12) = (   0.3333333  -0.3333333  -0.0000000), wk =   0.1481481
        k(   13) = (   0.3333333  -0.3333333   0.3333333), wk =   0.1481481
        k(   14) = (   0.3333333  -0.3333333  -0.3333333), wk =   0.1481481

     Check: negative core charge=   -0.000006

     Initial potential from superposition of free atoms

     starting charge     135.9859, renormalised to     136.0000

     negative rho (up, down):  2.812E-01 0.000E+00
     Starting wfcs are   86 randomized atomic wfcs +  170 random wfcs
     Checking if some PAW data can be deallocated...

     Self-consistent Calculation

     iteration #  1     ecut=    30.00 Ry     beta= 0.70
     Davidson diagonalization with overlap

     ethr =  1.00E-02,  avg # of iterations =  8.6

     negative rho (up, down):  2.880E-01 0.000E+00

     total energy              =   -1358.02958851 Ry
     estimated scf accuracy    <       2.51745090 Ry

[...]

     c_bands:  1 eigenvalues not converged
     ethr =  1.21E-06,  avg # of iterations = 15.3

[...]

     total energy              =   -1359.36276927 Ry
     estimated scf accuracy    <       0.00000102 Ry

     iteration # 12     ecut=    30.00 Ry     beta= 0.70
     Davidson diagonalization with overlap

     ethr =  7.48E-10,  avg # of iterations =  1.1

     negative rho (up, down):  2.798E-01 0.000E+00

     End of self-consistent calculation

          k = 0.0000 0.0000 0.0000 (  9219 PWs)   bands (ev):

   -53.7461 -53.7460 -29.7399 -29.7399 -29.7287 -29.7287 -29.7203 -29.7202
   -12.0503 -11.9555 -11.4874 -11.4836 -11.4549 -11.4356 -11.4259 -11.3070
   -11.2942 -11.2870 -11.2569 -11.2504  -7.7908  -7.7907  -7.7898  -7.7878
    -7.7828  -7.7825  -7.7782  -7.7778  -7.7773  -7.7752  -2.0203  -1.7993
    -1.6049  -1.4615  -1.4205  -1.3856  -1.3563  -1.2948  -1.1982  -0.9675
    -0.9367  -0.7658  -0.7312  -0.6976  -0.6240  -0.6117  -0.4762  -0.4548
    -0.2077  -0.0680   0.4734   0.5940   0.8037   0.8088   0.9983   1.0660
     1.1069   1.1272   1.1969   1.2060   1.2513   1.3068   1.3165   1.3635
     1.4219   1.4371   1.5023   1.5851   3.7649   3.9364   3.9922   3.9993
     4.0946   4.1220   6.1609   6.5546   6.6512   6.8884   6.9171   6.9893
     7.1050   7.1461   7.3374   7.3525   9.2741  10.2877  10.6995  10.7575
    11.0625  11.0873  11.2163  11.5363  11.6005  11.6664  11.7578  11.8402
    11.9822  12.0352  12.1533  12.4945  12.5652  12.6192  12.9343  13.1222
    13.1403  13.1902  13.3765  13.4296  13.5243  13.5613  13.7143  13.7234
    13.8869  13.9333  14.0364  14.1452  14.1635  14.4559  14.5283  14.8438
    14.9756  14.9917  15.0925  15.4400  15.4782  15.5556  15.6021  15.7034
    15.8347  15.9035  15.9747  16.1359  16.2403  16.3895  16.4298  16.4424
    16.4932  16.5863  16.6935  16.7972  16.9654  17.1433  17.2882  17.4923
    17.6405  17.6924  17.8364  18.0122  18.0606  18.1425  18.1751  18.3432
    18.4698  18.4855  18.9268  18.9931  18.9976  19.0303  19.2987  19.4227
    19.5851  19.6332  19.8006  19.9237  19.9580  20.2780  20.2954  20.3370
    20.4905  20.6533  20.7228  20.8354  21.0556  21.1019  21.1592  21.3390
    21.3792  21.5778  21.9264  21.9313  21.9726  21.9751  22.1016  22.2989
    22.6160  22.6956  22.7420  22.8210  22.8546  22.8809  22.9903  23.5068
    23.5266  23.5647  23.5687  23.8292  23.8549  24.1284  24.1553  24.3561
    24.4803  24.4867  24.6470  24.6783  24.7907  24.8601  24.9645  25.0239
    25.2175  25.3112  25.4646  25.5004  25.5490  25.7717  25.8850  25.9605
    26.0185  26.2353  26.2571  26.3735  26.4050  26.5774  26.7410  26.7519
    26.9653  27.0375  27.1195  27.1521  27.2724  27.4655  27.5561  27.7440
    28.1489  28.2199  28.2437  28.3216  28.4684  28.4924  28.4983  28.5052
    28.5682  28.8411  28.8657  29.0046  29.0845  29.1720  29.2677  29.5028
    29.5212  29.6126  29.6854  29.7404  29.9446  29.9689  30.1685  30.4407

     occupation numbers
     1.0000   1.0000   1.0000   1.0000   1.0000   1.0000   1.0000   1.0000
     1.0000   1.0000   1.0000   1.0000   1.0000   1.0000   1.0000   1.0000
     1.0000   1.0000   1.0000   1.0000   1.0000   1.0000   1.0000   1.0000
     1.0000   1.0000   1.0000   1.0000   1.0000   1.0000   1.0000   1.0000
     1.0000   1.0000   1.0000   1.0000   1.0000   1.0000   1.0000   1.0000
     1.0000   1.0000   1.0000   1.0000   1.0000   1.0000   1.0000   1.0000
     1.0000   1.0000   1.0000   1.0000   1.0000   1.0000   1.0000   1.0000
     1.0000   1.0000   1.0000   1.0000   1.0000   1.0000   1.0000   1.0000
     1.0000   1.0000   1.0000   1.0000   0.0000   0.0000   0.0000   0.0000
     0.0000   0.0000   0.0000   0.0000   0.0000   0.0000   0.0000   0.0000
     0.0000   0.0000   0.0000   0.0000   0.0000   0.0000   0.0000   0.0000
     0.0000   0.0000   0.0000   0.0000   0.0000   0.0000   0.0000   0.0000
     0.0000   0.0000   0.0000   0.0000   0.0000   0.0000   0.0000   0.0000
     0.0000   0.0000   0.0000   0.0000   0.0000   0.0000   0.0000   0.0000
     0.0000   0.0000   0.0000   0.0000   0.0000   0.0000   0.0000   0.0000
     0.0000   0.0000   0.0000   0.0000   0.0000   0.0000   0.0000   0.0000
     0.0000   0.0000   0.0000   0.0000   0.0000   0.0000   0.0000   0.0000
     0.0000   0.0000   0.0000   0.0000   0.0000   0.0000   0.0000   0.0000
     0.0000   0.0000   0.0000   0.0000   0.0000   0.0000   0.0000   0.0000
     0.0000   0.0000   0.0000   0.0000   0.0000   0.0000   0.0000   0.0000
     0.0000   0.0000   0.0000   0.0000   0.0000   0.0000   0.0000   0.0000
     0.0000   0.0000   0.0000   0.0000   0.0000   0.0000   0.0000   0.0000
     0.0000   0.0000   0.0000   0.0000   0.0000   0.0000   0.0000   0.0000
     0.0000   0.0000   0.0000   0.0000   0.0000   0.0000   0.0000   0.0000
     0.0000   0.0000   0.0000   0.0000   0.0000   0.0000   0.0000   0.0000
     0.0000   0.0000   0.0000   0.0000   0.0000   0.0000   0.0000   0.0000
     0.0000   0.0000   0.0000   0.0000   0.0000   0.0000   0.0000   0.0000
     0.0000   0.0000   0.0000   0.0000   0.0000   0.0000   0.0000   0.0000
     0.0000   0.0000   0.0000   0.0000   0.0000   0.0000   0.0000   0.0000
     0.0000   0.0000   0.0000   0.0000   0.0000   0.0000   0.0000   0.0000
     0.0000   0.0000   0.0000   0.0000   0.0000   0.0000   0.0000   0.0000
     0.0000   0.0000   0.0000   0.0000   0.0000   0.0000   0.0000   0.0000

[...]

          k = 0.3333-0.6346-0.1897 (  9155 PWs)   bands (ev):

   -53.7460 -53.7459 -29.7399 -29.7398 -29.7287 -29.7286 -29.7202 -29.7201
   -11.8953 -11.8805 -11.4991 -11.4927 -11.4856 -11.4672 -11.3923 -11.3772
   -11.3416 -11.3235 -11.2956 -11.2798  -7.7880  -7.7877  -7.7873  -7.7872
    -7.7826  -7.7825  -7.7810  -7.7809  -7.7797  -7.7786  -2.1754  -2.0957
    -1.4986  -1.4890  -1.4375  -1.4251  -1.3957  -1.3435  -0.9586  -0.8196
    -0.7780  -0.7455  -0.6550  -0.5529  -0.4180  -0.3165  -0.1532  -0.1282
    -0.0744  -0.0392   0.6132   0.6486   0.6866   0.7155   0.7712   0.7844
     0.8251   0.9315   0.9341   0.9780   1.0202   1.0942   1.3416   1.3490
     1.4260   1.4647   1.4944   1.5418   3.9522   4.0282   4.1118   4.1440
     4.1509   4.1879   6.2883   6.3745   6.4624   6.6242   6.7464   6.8902
     7.0324   7.0553   7.1746   7.2048  10.5329  10.7291  10.8050  10.9233
    11.2330  11.3584  11.4343  11.5405  11.5791  11.6852  11.8270  12.0100
    12.0768  12.1178  12.1835  12.3068  12.3481  12.6090  12.7586  12.9199
    13.0259  13.0525  13.2153  13.3195  13.4141  13.4907  13.5637  13.6525
    13.7095  13.8075  14.0548  14.0798  14.1740  14.2420  14.3837  14.4861
    14.6753  14.8789  15.0124  15.1194  15.1957  15.3036  15.3771  15.5493
    15.6433  15.7810  15.8615  16.0063  16.0608  16.3153  16.4604  16.5714
    16.7852  16.8390  17.0389  17.2289  17.2741  17.3652  17.4219  17.5531
    17.6561  17.8751  18.0058  18.1348  18.1657  18.3355  18.4554  18.6092
    18.6787  18.7816  18.8958  18.9560  19.0659  19.2140  19.3582  19.4099
    19.5533  19.6333  19.8722  19.9088  20.0703  20.2035  20.2985  20.5673
    20.5952  20.6726  20.7873  20.8647  20.9526  20.9778  21.0730  21.1580
    21.3900  21.4978  21.5182  21.7289  21.8997  22.0786  22.1759  22.2662
    22.4476  22.5481  22.7532  22.8458  22.9058  23.1451  23.1863  23.3687
    23.4473  23.6404  23.7813  23.9468  24.0782  24.1737  24.2782  24.3489
    24.4639  24.6258  24.6954  24.7278  24.9379  25.0052  25.0609  25.2319
    25.2819  25.3965  25.6289  25.7519  25.8068  25.8594  26.0081  26.0807
    26.1865  26.3536  26.4201  26.4486  26.5677  26.5873  26.7352  26.7770
    26.9358  27.0453  27.1736  27.2088  27.2963  27.4154  27.4930  27.5918
    27.7211  27.8139  27.9787  28.0707  28.1537  28.2218  28.2750  28.3365
    28.4491  28.6043  28.6563  28.7443  28.8732  29.0345  29.1293  29.3074
    29.4112  29.5306  29.6376  29.7502  29.8980  29.9671  30.0680  30.0804

     occupation numbers
     1.0000   1.0000   1.0000   1.0000   1.0000   1.0000   1.0000   1.0000
     1.0000   1.0000   1.0000   1.0000   1.0000   1.0000   1.0000   1.0000
     1.0000   1.0000   1.0000   1.0000   1.0000   1.0000   1.0000   1.0000
     1.0000   1.0000   1.0000   1.0000   1.0000   1.0000   1.0000   1.0000
     1.0000   1.0000   1.0000   1.0000   1.0000   1.0000   1.0000   1.0000
     1.0000   1.0000   1.0000   1.0000   1.0000   1.0000   1.0000   1.0000
     1.0000   1.0000   1.0000   1.0000   1.0000   1.0000   1.0000   1.0000
     1.0000   1.0000   1.0000   1.0000   1.0000   1.0000   1.0000   1.0000
     1.0000   1.0000   1.0000   1.0000   0.0000   0.0000   0.0000   0.0000
     0.0000   0.0000   0.0000   0.0000   0.0000   0.0000   0.0000   0.0000
     0.0000   0.0000   0.0000   0.0000   0.0000   0.0000   0.0000   0.0000
     0.0000   0.0000   0.0000   0.0000   0.0000   0.0000   0.0000   0.0000
     0.0000   0.0000   0.0000   0.0000   0.0000   0.0000   0.0000   0.0000
     0.0000   0.0000   0.0000   0.0000   0.0000   0.0000   0.0000   0.0000
     0.0000   0.0000   0.0000   0.0000   0.0000   0.0000   0.0000   0.0000
     0.0000   0.0000   0.0000   0.0000   0.0000   0.0000   0.0000   0.0000
     0.0000   0.0000   0.0000   0.0000   0.0000   0.0000   0.0000   0.0000
     0.0000   0.0000   0.0000   0.0000   0.0000   0.0000   0.0000   0.0000
     0.0000   0.0000   0.0000   0.0000   0.0000   0.0000   0.0000   0.0000
     0.0000   0.0000   0.0000   0.0000   0.0000   0.0000   0.0000   0.0000
     0.0000   0.0000   0.0000   0.0000   0.0000   0.0000   0.0000   0.0000
     0.0000   0.0000   0.0000   0.0000   0.0000   0.0000   0.0000   0.0000
     0.0000   0.0000   0.0000   0.0000   0.0000   0.0000   0.0000   0.0000
     0.0000   0.0000   0.0000   0.0000   0.0000   0.0000   0.0000   0.0000
     0.0000   0.0000   0.0000   0.0000   0.0000   0.0000   0.0000   0.0000
     0.0000   0.0000   0.0000   0.0000   0.0000   0.0000   0.0000   0.0000
     0.0000   0.0000   0.0000   0.0000   0.0000   0.0000   0.0000   0.0000
     0.0000   0.0000   0.0000   0.0000   0.0000   0.0000   0.0000   0.0000
     0.0000   0.0000   0.0000   0.0000   0.0000   0.0000   0.0000   0.0000
     0.0000   0.0000   0.0000   0.0000   0.0000   0.0000   0.0000   0.0000
     0.0000   0.0000   0.0000   0.0000   0.0000   0.0000   0.0000   0.0000
     0.0000   0.0000   0.0000   0.0000   0.0000   0.0000   0.0000   0.0000

     highest occupied, lowest unoccupied level (ev):     1.5851    3.7649

!    total energy              =   -1359.36276943 Ry
     estimated scf accuracy    <          9.8E-09 Ry

     The total energy is the sum of the following terms:
     one-electron contribution =    -347.48928062 Ry
     hartree contribution      =     226.44627838 Ry
     xc contribution           =    -294.48830249 Ry
     ewald contribution        =    -526.86691043 Ry
     one-center paw contrib.   =    -416.96455426 Ry
      -> PAW hartree energy AE =     129.82445665 Ry
      -> PAW hartree energy PS =    -129.09555303 Ry
      -> PAW xc energy AE      =    -470.97287600 Ry
      -> PAW xc energy PS      =      53.27941811 Ry
      -> total E_H with PAW    =     227.17518200 Ry
      -> total E_XC with PAW   =    -712.18176038 Ry

     convergence has been achieved in  12 iterations

     Writing all to output data dir bands_nm/myprefix.save/

     General routines

     Parallel routines

     PAW routines

   This run was terminated on:   0:29: 5  17Jul2023

   JOB DONE.