     Program PWSCF v.7.1 starts on 16Jul2023 at 14: 3:25

     Reading input from espresso_16751.pwi
Warning: card &CELL ignored
Warning: card / ignored

     Current dimensions of program PWSCF are:
     Max number of different atomic species (ntypx) = 10
     Max number of k-points (npk) =  40000
     Max angular momentum in pseudopotentials (lmaxx) =  4
     file Mg.pbe-n-kjpaw_psl.0.3.0.UPF: wavefunction(s)  3S renormalized

     K-points division:     npool     =       2
     R & G space division:  proc/nbgrp/npool/nimage =       4
     Subspace diagonalization in iterative solution of the eigenvalue problem:
     a serial algorithm will be used

     Using Slab Decomposition

     bravais-lattice index     =            0
     lattice parameter (alat)  =       9.9883  a.u.
     unit-cell volume          =    1242.9788 (a.u.)^3
     number of atoms/cell      =           14
     number of atomic types    =            3
     number of electrons       =       104.00
     number of Kohn-Sham states=           64
     kinetic-energy cutoff     =      30.0000  Ry
     charge density cutoff     =     240.0000  Ry
     scf convergence threshold =      1.0E-06
     mixing beta               =       0.7000
     number of iterations used =            8  plain     mixing
     Exchange-correlation=  SLA  PW   PBX  PBC
                           (   1   4   3   4   0   0   0)

     celldm(1)=   9.988295  celldm(2)=   0.000000  celldm(3)=   0.000000
     celldm(4)=   0.000000  celldm(5)=   0.000000  celldm(6)=   0.000000

     crystal axes: (cart. coord. in units of alat)
               a(1) = (   1.000000   0.000000   0.000000 )
               a(2) = (  -0.346179   0.941030   0.000000 )
               a(3) = (  -0.427992  -0.414845   1.325519 )

     reciprocal axes: (cart. coord. in units 2 pi/alat)
               b(1) = (  1.000000  0.367873  0.438019 )
               b(2) = (  0.000000  1.062665  0.332580 )
               b(3) = (  0.000000  0.000000  0.754421 )

     PseudoPot. # 1 for Mg read from file:
     /lustre07/scratch/pragov/crystal_structure_design/utils/SSSP/Mg.pbe-n-kjpaw_psl.0.3.0.UPF
     MD5 check sum: 24ecedc7f3e3cbe212e682f4413594e4
     Pseudo is Projector augmented-wave + core cor, Zval =  2.0
     Generated using "atomic" code by A. Dal Corso  v.5.0.99 svn rev. 10869
     Shape of augmentation charge: PSQ
     Using radial grid of 1129 points,  4 beta functions with:
                l(1) =   0
                l(2) =   0
                l(3) =   1
                l(4) =   1
     Q(r) pseudized with 0 coefficients

     PseudoPot. # 2 for Mn read from file:
     /lustre07/scratch/pragov/crystal_structure_design/utils/SSSP/mn_pbe_v1.5.uspp.F.UPF
     MD5 check sum: 82ef2b46521d7a7d9e736dc3972e4928
     Pseudo is Ultrasoft + core correction, Zval = 15.0
     Generated by new atomic code, or converted to UPF format
     Using radial grid of  859 points,  6 beta functions with:
                l(1) =   0
                l(2) =   0
                l(3) =   1
                l(4) =   1
                l(5) =   2
                l(6) =   2
     Q(r) pseudized with  8 coefficients,  rinner =    0.950   0.950   0.950
                                                       0.950   0.950

     PseudoPot. # 3 for F  read from file:
     /lustre07/scratch/pragov/crystal_structure_design/utils/SSSP/f_pbe_v1.4.uspp.F.UPF
     MD5 check sum: 4c38b6a325caf53ec0e86aed9459de46
     Pseudo is Ultrasoft, Zval =  7.0
     Generated by new atomic code, or converted to UPF format
     Using radial grid of  799 points,  4 beta functions with:
                l(1) =   0
                l(2) =   0
                l(3) =   1
                l(4) =   1
     Q(r) pseudized with  8 coefficients,  rinner =    0.950   0.950   0.950

     atomic species   valence    mass     pseudopotential
        Mg             2.00    24.30500     Mg( 1.00)
        Mn            15.00    54.93804     Mn( 1.00)
        F              7.00    18.99840     F ( 1.00)

     No symmetry found

                                    s                        frac. trans.

      isym =  1     identity

 cryst.   s( 1) = (     1          0          0      )
                  (     0          1          0      )
                  (     0          0          1      )

 cart.    s( 1) = (  1.0000000  0.0000000  0.0000000 )
                  (  0.0000000  1.0000000  0.0000000 )
                  (  0.0000000  0.0000000  1.0000000 )

   Cartesian axes

     site n.     atom                  positions (alat units)
         1           Mg  tau(   1) = (  -0.2264739   0.1798827   0.9978336  )
         2           Mg  tau(   2) = (   0.4548751   0.3489367   0.3248755  )
         3           Mn  tau(   3) = (  -0.4260624  -0.4133980   1.3236422  )
         4           Mn  tau(   4) = (   0.2873612  -0.2065012   0.6623526  )
         5           F   tau(   5) = (   0.2425221   0.0369579   0.3313970  )
         6           F   tau(   6) = (  -0.0131322   0.4902909   0.9920636  )
         7           F   tau(   7) = (   0.1837000   0.5428820   0.4898522  )
         8           F   tau(   8) = (   0.7313237   0.1577156   0.1641801  )
         9           F   tau(   9) = (   0.5108559   0.6233817   0.0751039  )
        10           F   tau(  10) = (  -0.3064211   0.4887300   0.5786501  )
        11           F   tau(  11) = (  -0.2791904  -0.0936664   1.2513153  )
        12           F   tau(  12) = (   0.5358998   0.0370177   0.7465669  )
        13           F   tau(  13) = (  -0.5062164   0.3689449   1.1545272  )
        14           F   tau(  14) = (   0.0464419  -0.0149813   0.8367181  )

   Crystallographic axes

     site n.     atom                  positions (cryst. coord.)
         1           Mg  tau(   1) = (  0.2767700  0.5230150  0.7527870  )
         2           Mg  tau(   2) = (  0.7255410  0.4788500  0.2450930  )
         3           Mn  tau(   3) = (  0.0016400  0.0009140  0.9985840  )
         4           Mn  tau(   4) = (  0.5015180  0.0008440  0.4996930  )
         5           F   tau(   5) = (  0.4012760  0.1494900  0.2500130  )
         6           F   tau(   6) = (  0.6017750  0.8509560  0.7484340  )
         7           F   tau(   7) = (  0.5979760  0.7398170  0.3695550  )
         8           F   tau(   8) = (  0.8612570  0.2222020  0.1238610  )
         9           F   tau(   9) = (  0.7730780  0.6874240  0.0566600  )
        10           F   tau(  10) = (  0.1268290  0.7118040  0.4365460  )
        11           F   tau(  11) = (  0.2344520  0.3166270  0.9440190  )
        12           F   tau(  12) = (  0.8765280  0.2876310  0.5632260  )
        13           F   tau(  13) = (  0.1352130  0.7760380  0.8710000  )
        14           F   tau(  14) = (  0.4074290  0.2623560  0.6312380  )

     number of k points=    14
                       cart. coord. in units 2pi/alat
        k(    1) = (   0.0000000   0.0000000   0.0000000), wk =   0.0740741
        k(    2) = (   0.0000000   0.0000000   0.2514738), wk =   0.1481481
        k(    3) = (   0.0000000   0.3542217   0.1108602), wk =   0.1481481
        k(    4) = (   0.0000000   0.3542217   0.3623339), wk =   0.1481481
        k(    5) = (   0.0000000   0.3542217  -0.1406136), wk =   0.1481481
        k(    6) = (   0.3333333   0.1226242   0.1460063), wk =   0.1481481
        k(    7) = (   0.3333333   0.1226242   0.3974801), wk =   0.1481481
        k(    8) = (   0.3333333   0.1226242  -0.1054675), wk =   0.1481481
        k(    9) = (   0.3333333   0.4768459   0.2568664), wk =   0.1481481
        k(   10) = (   0.3333333   0.4768459   0.5083402), wk =   0.1481481
        k(   11) = (   0.3333333   0.4768459   0.0053926), wk =   0.1481481
        k(   12) = (   0.3333333  -0.2315974   0.0351461), wk =   0.1481481
        k(   13) = (   0.3333333  -0.2315974   0.2866199), wk =   0.1481481
        k(   14) = (   0.3333333  -0.2315974  -0.2163277), wk =   0.1481481

                       cryst. coord.
        k(    1) = (   0.0000000   0.0000000   0.0000000), wk =   0.0740741
        k(    2) = (   0.0000000   0.0000000   0.3333333), wk =   0.1481481
        k(    3) = (   0.0000000   0.3333333  -0.0000000), wk =   0.1481481
        k(    4) = (   0.0000000   0.3333333   0.3333333), wk =   0.1481481
        k(    5) = (   0.0000000   0.3333333  -0.3333333), wk =   0.1481481
        k(    6) = (   0.3333333   0.0000000   0.0000000), wk =   0.1481481
        k(    7) = (   0.3333333   0.0000000   0.3333333), wk =   0.1481481
        k(    8) = (   0.3333333   0.0000000  -0.3333333), wk =   0.1481481
        k(    9) = (   0.3333333   0.3333333   0.0000000), wk =   0.1481481
        k(   10) = (   0.3333333   0.3333333   0.3333333), wk =   0.1481481
        k(   11) = (   0.3333333   0.3333333  -0.3333333), wk =   0.1481481
        k(   12) = (   0.3333333  -0.3333333   0.0000000), wk =   0.1481481
        k(   13) = (   0.3333333  -0.3333333   0.3333333), wk =   0.1481481
        k(   14) = (   0.3333333  -0.3333333  -0.3333333), wk =   0.1481481

     Check: negative core charge=   -0.000011

     Initial potential from superposition of free atoms

     starting charge     102.9980, renormalised to     104.0000
     Starting wfcs are   74 randomized atomic wfcs
     Checking if some PAW data can be deallocated...

     Self-consistent Calculation

     iteration #  1     ecut=    30.00 Ry     beta= 0.70
     Davidson diagonalization with overlap

     ethr =  1.00E-02,  avg # of iterations =  3.1

     total energy              =    -975.48147929 Ry
     estimated scf accuracy    <       2.17224682 Ry

[...]

     negative rho (up, down):  9.041E-07 0.000E+00

[...]

     negative rho (up, down):  1.527E-05 0.000E+00

[...]

     total energy              =    -976.62422418 Ry
     estimated scf accuracy    <       0.00004076 Ry

     iteration #103     ecut=    30.00 Ry     beta= 0.70
     Davidson diagonalization with overlap

     ethr =  9.93E-09,  avg # of iterations =  1.0

     End of self-consistent calculation

          k = 0.0000 0.0000 0.0000 (  3451 PWs)   bands (ev):

   -76.4863 -76.4736 -45.4829 -45.4757 -45.2627 -45.2344 -44.8470 -44.8351
   -20.2645 -19.9221 -19.8738 -19.7646 -19.6401 -19.5529 -19.4938 -19.4667
   -19.4444 -19.3944  -3.6269  -3.2489  -2.8977  -2.8416  -2.7204  -2.5679
    -2.4023  -2.3589  -2.3557  -2.2407  -1.7701  -1.5968  -1.5617  -1.5357
    -1.5106  -1.1966  -1.1869  -0.9307  -0.9169  -0.8668  -0.5458  -0.2977
    -0.1750  -0.0965  -0.0593  -0.0512  -0.0071   0.0253   0.2649   0.4653
     3.2790   3.3245   3.3289   3.3762   3.4237   3.4347   4.0124   4.7039
     5.2414   5.3558   7.6944  11.1802  11.4422  13.0216  13.2083  14.1115

     occupation numbers
     1.0000   1.0000   1.0000   1.0000   1.0000   1.0000   1.0000   1.0000
     1.0000   1.0000   1.0000   1.0000   1.0000   1.0000   1.0000   1.0000
     1.0000   1.0000   1.0000   1.0000   1.0000   1.0000   1.0000   1.0000
     1.0000   1.0000   1.0000   1.0000   1.0000   1.0000   1.0000   1.0000
     1.0000   1.0000   1.0000   1.0000   1.0000   1.0000   1.0000   1.0000
     1.0000   1.0000   1.0000   1.0000   1.0000   1.0000   1.0000   1.0000
     1.0000   1.0000   1.0000   1.0000   0.0000   0.0000   0.0000   0.0000
     0.0000   0.0000   0.0000   0.0000   0.0000   0.0000   0.0000   0.0000

[...]

          k = 0.3333-0.2316-0.2163 (  3434 PWs)   bands (ev):

   -76.4861 -76.4734 -45.4815 -45.4748 -45.2617 -45.2328 -44.8441 -44.8332
   -20.1312 -19.9422 -19.8686 -19.7533 -19.6428 -19.6132 -19.5079 -19.4828
   -19.4656 -19.4302  -3.3876  -3.2951  -3.0591  -2.9728  -2.5817  -2.5286
    -2.4313  -2.2847  -1.8975  -1.8824  -1.7311  -1.7079  -1.6658  -1.4677
    -1.3821  -1.1851  -0.9324  -0.8920  -0.8468  -0.7872  -0.6632  -0.6274
    -0.4620  -0.3985  -0.2087  -0.1768  -0.0485  -0.0205   0.0849   0.2586
     3.2891   3.3125   3.3740   3.4406   3.4453   3.4875   3.9718   4.6988
     5.0739   5.2055   9.3902  10.7487  12.1125  12.3897  12.4099  12.7544

     occupation numbers
     1.0000   1.0000   1.0000   1.0000   1.0000   1.0000   1.0000   1.0000
     1.0000   1.0000   1.0000   1.0000   1.0000   1.0000   1.0000   1.0000
     1.0000   1.0000   1.0000   1.0000   1.0000   1.0000   1.0000   1.0000
     1.0000   1.0000   1.0000   1.0000   1.0000   1.0000   1.0000   1.0000
     1.0000   1.0000   1.0000   1.0000   1.0000   1.0000   1.0000   1.0000
     1.0000   1.0000   1.0000   1.0000   1.0000   1.0000   1.0000   1.0000
     1.0000   1.0000   1.0000   1.0000   0.0000   0.0000   0.0000   0.0000
     0.0000   0.0000   0.0000   0.0000   0.0000   0.0000   0.0000   0.0000

     highest occupied, lowest unoccupied level (ev):     3.4406    3.3983

!    total energy              =    -976.62422464 Ry
     estimated scf accuracy    <       0.00000062 Ry

     The total energy is the sum of the following terms:
     one-electron contribution =    -657.94999380 Ry
     hartree contribution      =     374.05967446 Ry
     xc contribution           =    -149.63959928 Ry
     ewald contribution        =    -480.56673976 Ry
     one-center paw contrib.   =     -62.52756625 Ry
      -> PAW hartree energy AE =       1.34043346 Ry
      -> PAW hartree energy PS =      -1.33880528 Ry
      -> PAW xc energy AE      =     -65.02410711 Ry
      -> PAW xc energy PS      =       2.49491267 Ry
      -> total E_H with PAW    =     374.06130264 Ry
      -> total E_XC with PAW   =    -212.16879372 Ry

     convergence has been achieved in 103 iterations

     Writing all to output data dir bands_nm/myprefix.save/

     General routines

     Parallel routines

     PAW routines

   This run was terminated on:  14: 4:27  16Jul2023

   JOB DONE.