     Program PWSCF v.7.1 starts on 15Jul2023 at 18:30:32

     Reading input from espresso_21346.pwi
Warning: card &CELL ignored
Warning: card / ignored

     Current dimensions of program PWSCF are:
     Max number of different atomic species (ntypx) = 10
     Max number of k-points (npk) =  40000
     Max angular momentum in pseudopotentials (lmaxx) =  4
     file O.pbe-n-kjpaw_psl.0.1.UPF: wavefunction(s)  2P renormalized
     Message from routine setup:
     using ibrav=0 with symmetry is DISCOURAGED, use correct ibrav instead

     K-points division:     npool     =       2
     R & G space division:  proc/nbgrp/npool/nimage =       4
     Subspace diagonalization in iterative solution of the eigenvalue problem:
     one sub-group per band group will be used

     Using Slab Decomposition

     bravais-lattice index     =            0
     lattice parameter (alat)  =      11.3241  a.u.
     unit-cell volume          =    1113.2114 (a.u.)^3
     number of atoms/cell      =           14
     number of atomic types    =            3
     number of electrons       =       136.00
     number of Kohn-Sham states=          256
     kinetic-energy cutoff     =      30.0000  Ry
     charge density cutoff     =     240.0000  Ry
     scf convergence threshold =      1.0E-06
     mixing beta               =       0.7000
     number of iterations used =            8  plain     mixing
     Exchange-correlation= SLA  PW   PBX  PBC
                           (   1   4   3   4   0   0   0)

     celldm(1)=  11.324067  celldm(2)=   0.000000  celldm(3)=   0.000000
     celldm(4)=   0.000000  celldm(5)=   0.000000  celldm(6)=   0.000000

     crystal axes: (cart. coord. in units of alat)
               a(1) = (   1.000000   0.000000   0.000000 )
               a(2) = (  -0.402248   0.915531   0.000000 )
               a(3) = (  -0.298876  -0.457765   0.837331 )

     reciprocal axes: (cart. coord. in units 2 pi/alat)
               b(1) = (  1.000000  0.439360  0.597135 )
               b(2) = (  0.000000  1.092262  0.597135 )
               b(3) = (  0.000000  0.000000  1.194270 )

     PseudoPot. # 1 for Zn read from file:
     /lustre07/scratch/pragov/crystal_structure_design/utils/SSSP/Zn_pbe_v1.uspp.F.UPF
     MD5 check sum: df62231357ef9e81f77b2b3087fa5675
     Pseudo is Ultrasoft, Zval = 20.0
     Generated by new atomic code, or converted to UPF format
     Using radial grid of  943 points,  6 beta functions with:
                l(1) =   0
                l(2) =   0
                l(3) =   1
                l(4) =   1
                l(5) =   2
                l(6) =   2
     Q(r) pseudized with  8 coefficients,  rinner =    1.100   1.100   1.100
                                                       1.100   1.100

     PseudoPot. # 2 for Si read from file:
     /lustre07/scratch/pragov/crystal_structure_design/utils/SSSP/Si.pbe-n-rrkjus_psl.1.0.0.UPF
     MD5 check sum: 0b0bb1205258b0d07b9f9672cf965d36
     Pseudo is Ultrasoft + core correction, Zval =  4.0
     Generated using "atomic" code by A. Dal Corso  v.5.1
     Using radial grid of 1141 points,  6 beta functions with:
                l(1) =   0
                l(2) =   0
                l(3) =   1
                l(4) =   1
                l(5) =   2
                l(6) =   2
     Q(r) pseudized with 0 coefficients

     PseudoPot. # 3 for O  read from file:
     /lustre07/scratch/pragov/crystal_structure_design/utils/SSSP/O.pbe-n-kjpaw_psl.0.1.UPF
     MD5 check sum: 0234752ac141de4415c5fc33072bef88
     Pseudo is Projector augmented-wave + core cor, Zval =  6.0
     Generated using "atomic" code by A. Dal Corso  v.5.0.99 svn rev. 10869
     Shape of augmentation charge: BESSEL
     Using radial grid of 1095 points,  4 beta functions with:
                l(1) =   0
                l(2) =   0
                l(3) =   1
                l(4) =   1
     Q(r) pseudized with 0 coefficients

     atomic species   valence    mass     pseudopotential
        Zn            20.00    65.38000     Zn( 1.00)
        Si             4.00    28.08500     Si( 1.00)
        O              6.00    15.99900     O ( 1.00)

      2 Sym. Ops. (no inversion) found ( 1 have fractional translation)

                                    s                        frac. trans.

      isym =  1     identity

 cryst.   s( 1) = (     1          0          0      )
                  (     0          1          0      )
                  (     0          0          1      )

 cart.    s( 1) = (  1.0000000 -0.0000000  0.0000000 )
                  (  0.0000000  1.0000000  0.0000000 )
                  (  0.0000000  0.0000000  1.0000000 )

      isym =  2     inv. 180 deg rotation - cart. axis [0,0,1]

 cryst.   s( 2) = (     1          0          0      )    f =( -0.2500000 )
                  (     0          1          0      )       (  0.2500000 )
                  (    -1         -1         -1      )       (  0.5000000 )

 cart.    s( 2) = (  1.0000000 -0.0000000 -0.0000000 )    f =( -0.5000000 )
                  (  0.0000000  1.0000000 -0.0000000 )       (  0.0000000 )
                  (  0.0000000  0.0000000 -1.0000000 )       (  0.4186657 )

   Cartesian axes

     site n.     atom                  positions (alat units)
         1           Zn  tau(   1) = (   0.4382788   0.5299747   0.4959154  )
         2           Zn  tau(   2) = (   0.0100355   0.1566734   0.3414160  )
         3           Zn  tau(   3) = (   0.3405265  -0.3855561   0.7600817  )
         4           Zn  tau(   4) = (  -0.1910884   0.6144389   0.0772497  )
         5           Si  tau(   5) = (   0.2988762   0.4577654   0.0000000  )
         6           Si  tau(   6) = (   0.5000000   0.0000000   0.4186657  )
         7           O   tau(   7) = (   0.2716944  -0.0344317   0.2670861  )
         8           O   tau(   8) = (   0.7109191   0.0457834   0.2463220  )
         9           O   tau(   9) = (  -0.0429256   0.2115192   0.6649877  )
        10           O   tau(  10) = (   0.0603121  -0.2228709   0.6857518  )
        11           O   tau(  11) = (   0.0705706   0.4233337   0.1515796  )
        12           O   tau(  12) = (   0.4570744   0.2115192   0.5910094  )
        13           O   tau(  13) = (   0.5603121  -0.2228709   0.5702453  )
        14           O   tau(  14) = (   0.5097952   0.5035488   0.1723437  )

   Crystallographic axes

     site n.     atom                  positions (cryst. coord.)
         1           Zn  tau(   1) = (  0.9672570  0.8750000  0.5922570  )
         2           Zn  tau(   2) = (  0.2827430  0.3750000  0.4077430  )
         3           Zn  tau(   3) = (  0.6250000  0.0327430  0.9077430  )
         4           Zn  tau(   4) = (  0.1250000  0.7172570  0.0922570  )
         5           Si  tau(   5) = (  0.5000000  0.5000000  0.0000000  )
         6           Si  tau(   6) = (  0.7500000  0.2500000  0.5000000  )
         7           O   tau(   7) = (  0.4160530  0.1218780  0.3189730  )
         8           O   tau(   8) = (  0.8781220  0.1970950  0.2941750  )
         9           O   tau(   9) = (  0.4470950  0.6281220  0.7941750  )
        10           O   tau(  10) = (  0.3718780  0.1660530  0.8189730  )
        11           O   tau(  11) = (  0.3470800  0.5529050  0.1810270  )
        12           O   tau(  12) = (  0.9029200  0.5839470  0.7058250  )
        13           O   tau(  13) = (  0.8029050  0.0970800  0.6810270  )
        14           O   tau(  14) = (  0.8339470  0.6529200  0.2058250  )

     number of k points=    10
                       cart. coord. in units 2pi/alat
        k(    1) = (   0.0000000   0.0000000   0.0000000), wk =   0.0740741
        k(    2) = (   0.0000000   0.0000000   0.3980901), wk =   0.1481481
        k(    3) = (   0.0000000   0.3640875   0.1990450), wk =   0.2962963
        k(    4) = (   0.0000000   0.3640875   0.5971351), wk =   0.1481481
        k(    5) = (   0.3333333   0.1464534   0.1990450), wk =   0.2962963
        k(    6) = (   0.3333333   0.1464534   0.5971351), wk =   0.1481481
        k(    7) = (   0.3333333   0.5105408   0.3980901), wk =   0.2962963
        k(    8) = (   0.3333333   0.5105408  -0.0000000), wk =   0.1481481
        k(    9) = (   0.3333333  -0.2176341  -0.0000000), wk =   0.1481481
        k(   10) = (   0.3333333  -0.2176341   0.3980901), wk =   0.2962963

                       cryst. coord.
        k(    1) = (   0.0000000   0.0000000   0.0000000), wk =   0.0740741
        k(    2) = (   0.0000000   0.0000000   0.3333333), wk =   0.1481481
        k(    3) = (   0.0000000   0.3333333   0.0000000), wk =   0.2962963
        k(    4) = (   0.0000000   0.3333333   0.3333333), wk =   0.1481481
        k(    5) = (   0.3333333   0.0000000   0.0000000), wk =   0.2962963
        k(    6) = (   0.3333333   0.0000000   0.3333333), wk =   0.1481481
        k(    7) = (   0.3333333   0.3333333   0.0000000), wk =   0.2962963
        k(    8) = (   0.3333333   0.3333333  -0.3333333), wk =   0.1481481
        k(    9) = (   0.3333333  -0.3333333   0.0000000), wk =   0.1481481
        k(   10) = (   0.3333333  -0.3333333   0.3333333), wk =   0.2962963

     Check: negative core charge=   -0.000013

     Initial potential from superposition of free atoms

     starting charge     135.9983, renormalised to     136.0000
     Starting wfcs are   92 randomized atomic wfcs +  164 random wfcs
     Checking if some PAW data can be deallocated...

     Self-consistent Calculation

     iteration #  1     ecut=    30.00 Ry     beta= 0.70
     Davidson diagonalization with overlap

     ethr =  1.00E-02,  avg # of iterations =  7.0

     total energy              =   -2201.31127024 Ry
     estimated scf accuracy    <       2.85940370 Ry

[...]

     total energy              =   -2202.58505601 Ry
     estimated scf accuracy    <       0.00000244 Ry

     iteration #  8     ecut=    30.00 Ry     beta= 0.70
     Davidson diagonalization with overlap

     ethr =  1.80E-09,  avg # of iterations =  1.0

     End of self-consistent calculation

          k = 0.0000 0.0000 0.0000 (  3095 PWs)   bands (ev):

  -116.6823-116.6823-116.6814-116.6800 -70.8529 -70.8469 -70.8468 -70.8454
   -70.8226 -70.8196 -70.8174 -70.8174 -70.7941 -70.7903 -70.7838 -70.7838
   -12.3031 -11.6502 -10.7715 -10.7714 -10.7466 -10.7312 -10.7311 -10.4757
    -0.6148   0.0378   0.7120   0.9133   0.9133   1.2324   1.2325   1.3372
     1.3749   1.6432   1.6433   1.6876   1.7268   1.8364   1.8500   1.8501
     1.9711   2.3429   2.3767   2.3767   2.4288   2.4288   2.4604   2.5546
     2.6079   3.7585   3.7830   3.7830   3.8672   4.1229   4.1664   4.1664
     4.5112   5.0523   5.3465   5.5270   5.5271   5.7837   6.0552   6.0556
     6.1565   6.2350   6.2353   6.4238   9.0784  12.7256  12.7256  13.4804
    13.8692  13.8693  14.4578  14.9982  15.4860  15.5162  16.7041  16.7042
    17.6516  17.7174  17.7935  18.0206  18.0206  18.9979  19.8649  19.8649
    20.3533  20.4144  20.6054  21.0344  21.0345  22.1936  22.3303  23.0158
    23.2303  23.6370  23.6370  24.2787  24.6920  25.3806  25.3806  25.5773
    26.1631  26.2457  26.2764  26.2764  27.6085  28.0504  28.0504  28.0926
    28.3029  28.3570  29.0513  29.2382  29.2382  30.7309  30.7309  31.0562
    31.4870  31.5673  32.2803  32.2804  33.3790  33.5051  33.5362  34.0631
    34.0632  35.2257  35.3302  35.5412  35.5412  35.8660  35.8660  36.6320
    36.9265  36.9266  37.0727  37.1171  37.4316  37.4317  37.9147  37.9313
    37.9313  38.3693  38.6235  38.6236  38.8202  39.4799  39.9588  40.6150
    40.6597  40.6597  40.6696  41.4670  41.7085  41.7085  42.3517  42.3517
    43.7134  43.7246  44.0650  44.2920  44.3425  44.3716  44.3716  44.5561
    44.5561  45.1272  45.6998  45.6998  45.7835  45.8512  46.0403  46.1809
    46.5553  46.5785  46.5785  46.8087  47.1304  47.7096  47.8817  47.8818
    48.0500  48.3437  48.3927  48.3927  48.7650  49.9116  50.4991  50.4992
    50.5180  50.8278  50.8278  51.4249  52.1265  52.2602  52.2602  52.4699
    52.4699  52.7804  52.8541  53.0677  53.0677  53.7888  53.8370  53.8370
    54.1303  54.2689  54.6454  54.6454  54.6881  54.6881  54.9322  56.0659
    56.2619  56.3150  56.9711  57.4258  57.6377  57.7306  57.7306  57.8453
    58.5047  58.5048  58.6420  58.9582  58.9582  59.4421  59.7235  59.7236
    59.7766  60.0239  60.3317  60.3317  60.5755  60.7127  61.8613  62.0252
    62.3084  62.3084  63.0171  63.1407  63.3637  63.3901  63.5466  63.6584
    63.6584  63.9079  64.1338  64.1338  64.1773  64.7328  65.1046  65.6555

     occupation numbers
     1.0000   1.0000   1.0000   1.0000   1.0000   1.0000   1.0000   1.0000
     1.0000   1.0000   1.0000   1.0000   1.0000   1.0000   1.0000   1.0000
     1.0000   1.0000   1.0000   1.0000   1.0000   1.0000   1.0000   1.0000
     1.0000   1.0000   1.0000   1.0000   1.0000   1.0000   1.0000   1.0000
     1.0000   1.0000   1.0000   1.0000   1.0000   1.0000   1.0000   1.0000
     1.0000   1.0000   1.0000   1.0000   1.0000   1.0000   1.0000   1.0000
     1.0000   1.0000   1.0000   1.0000   1.0000   1.0000   1.0000   1.0000
     1.0000   1.0000   1.0000   1.0000   1.0000   1.0000   1.0000   1.0000
     1.0000   1.0000   1.0000   1.0000   0.0000   0.0000   0.0000   0.0000
     0.0000   0.0000   0.0000   0.0000   0.0000   0.0000   0.0000   0.0000
     0.0000   0.0000   0.0000   0.0000   0.0000   0.0000   0.0000   0.0000
     0.0000   0.0000   0.0000   0.0000   0.0000   0.0000   0.0000   0.0000
     0.0000   0.0000   0.0000   0.0000   0.0000   0.0000   0.0000   0.0000
     0.0000   0.0000   0.0000   0.0000   0.0000   0.0000   0.0000   0.0000
     0.0000   0.0000   0.0000   0.0000   0.0000   0.0000   0.0000   0.0000
     0.0000   0.0000   0.0000   0.0000   0.0000   0.0000   0.0000   0.0000
     0.0000   0.0000   0.0000   0.0000   0.0000   0.0000   0.0000   0.0000
     0.0000   0.0000   0.0000   0.0000   0.0000   0.0000   0.0000   0.0000
     0.0000   0.0000   0.0000   0.0000   0.0000   0.0000   0.0000   0.0000
     0.0000   0.0000   0.0000   0.0000   0.0000   0.0000   0.0000   0.0000
     0.0000   0.0000   0.0000   0.0000   0.0000   0.0000   0.0000   0.0000
     0.0000   0.0000   0.0000   0.0000   0.0000   0.0000   0.0000   0.0000
     0.0000   0.0000   0.0000   0.0000   0.0000   0.0000   0.0000   0.0000
     0.0000   0.0000   0.0000   0.0000   0.0000   0.0000   0.0000   0.0000
     0.0000   0.0000   0.0000   0.0000   0.0000   0.0000   0.0000   0.0000
     0.0000   0.0000   0.0000   0.0000   0.0000   0.0000   0.0000   0.0000
     0.0000   0.0000   0.0000   0.0000   0.0000   0.0000   0.0000   0.0000
     0.0000   0.0000   0.0000   0.0000   0.0000   0.0000   0.0000   0.0000
     0.0000   0.0000   0.0000   0.0000   0.0000   0.0000   0.0000   0.0000
     0.0000   0.0000   0.0000   0.0000   0.0000   0.0000   0.0000   0.0000
     0.0000   0.0000   0.0000   0.0000   0.0000   0.0000   0.0000   0.0000
     0.0000   0.0000   0.0000   0.0000   0.0000   0.0000   0.0000   0.0000

[...]

          k = 0.3333-0.2176 0.3981 (  3100 PWs)   bands (ev):

  -116.6830-116.6814-116.6804-116.6800 -70.8555 -70.8506 -70.8496 -70.8431
   -70.8221 -70.8190 -70.8174 -70.8098 -70.7882 -70.7874 -70.7866 -70.7841
   -12.0039 -11.8243 -10.8754 -10.8661 -10.7499 -10.6705 -10.6573 -10.6451
    -0.2021  -0.0549   0.9456   0.9935   1.1693   1.2782   1.3194   1.4711
     1.5436   1.6489   1.6702   1.7421   1.7770   1.8089   1.8537   1.9718
     2.1539   2.1979   2.3182   2.4035   2.4577   2.4629   2.6746   2.8929
     3.0625   3.2826   3.4532   3.4931   3.8655   3.8971   4.1848   4.2066
     4.2784   4.3026   4.7917   5.1624   5.3921   5.5649   5.6225   5.6550
     5.9742   6.0053   6.1321   6.2483  11.4808  12.9216  13.0629  13.4892
    14.3879  14.6592  15.0559  15.2248  15.9518  16.0824  16.4848  17.1327
    17.1902  17.7691  17.9248  17.9257  18.2320  18.3770  18.6709  19.0381
    19.5687  20.0236  20.5847  20.9942  21.0567  21.3584  22.1957  22.2834
    22.4900  22.6255  23.5571  24.0820  24.2023  24.6965  25.1641  25.2256
    25.9029  26.2335  26.6220  27.3669  27.7883  28.5599  28.7080  29.0316
    29.0670  29.6312  29.8386  30.3694  30.8528  30.9843  31.6870  31.9173
    31.9725  32.4628  32.5374  32.7815  32.8482  33.3509  33.4038  33.6546
    33.8704  34.2418  34.7216  34.9019  35.0695  35.2810  36.2389  36.4565
    36.4948  36.5339  36.7671  36.9909  37.4761  37.7020  37.8226  37.8530
    38.1093  38.2954  38.3834  38.8220  38.9199  39.3999  39.8127  40.1323
    40.2631  40.3370  40.7157  40.8748  41.0365  41.1079  41.4900  41.9339
    42.1571  42.2071  42.8404  43.1877  43.2421  43.6587  43.8510  43.9660
    44.5885  44.6763  44.9184  45.1444  45.2804  45.7281  46.1871  46.2566
    46.4195  46.8306  47.4018  47.7337  47.7419  47.8006  47.9451  48.5513
    48.9987  49.3280  49.4765  49.5635  50.2194  50.4822  50.4923  50.5522
    51.1050  51.6910  51.9929  52.0569  52.2362  52.2366  52.7259  53.0755
    53.1889  53.2442  53.8570  53.9629  54.1995  54.3163  54.3217  54.9001
    55.1194  55.2611  55.4075  55.6692  55.7658  56.0284  56.1852  56.4693
    56.4777  56.6320  57.0537  57.1330  57.2158  57.4619  57.6575  57.6605
    57.9780  58.1117  58.3527  58.5307  58.6379  59.0466  59.4698  59.5807
    59.6916  59.7050  60.1907  60.3786  60.9444  61.0420  61.4081  61.8586
    62.0444  62.1961  62.4876  62.5008  62.6985  62.7451  62.8793  63.3155
    63.4074  63.7385  63.8715  64.3401  64.4291  64.6355  64.7587  64.7649

     occupation numbers
     1.0000   1.0000   1.0000   1.0000   1.0000   1.0000   1.0000   1.0000
     1.0000   1.0000   1.0000   1.0000   1.0000   1.0000   1.0000   1.0000
     1.0000   1.0000   1.0000   1.0000   1.0000   1.0000   1.0000   1.0000
     1.0000   1.0000   1.0000   1.0000   1.0000   1.0000   1.0000   1.0000
     1.0000   1.0000   1.0000   1.0000   1.0000   1.0000   1.0000   1.0000
     1.0000   1.0000   1.0000   1.0000   1.0000   1.0000   1.0000   1.0000
     1.0000   1.0000   1.0000   1.0000   1.0000   1.0000   1.0000   1.0000
     1.0000   1.0000   1.0000   1.0000   1.0000   1.0000   1.0000   1.0000
     1.0000   1.0000   1.0000   1.0000   0.0000   0.0000   0.0000   0.0000
     0.0000   0.0000   0.0000   0.0000   0.0000   0.0000   0.0000   0.0000
     0.0000   0.0000   0.0000   0.0000   0.0000   0.0000   0.0000   0.0000
     0.0000   0.0000   0.0000   0.0000   0.0000   0.0000   0.0000   0.0000
     0.0000   0.0000   0.0000   0.0000   0.0000   0.0000   0.0000   0.0000
     0.0000   0.0000   0.0000   0.0000   0.0000   0.0000   0.0000   0.0000
     0.0000   0.0000   0.0000   0.0000   0.0000   0.0000   0.0000   0.0000
     0.0000   0.0000   0.0000   0.0000   0.0000   0.0000   0.0000   0.0000
     0.0000   0.0000   0.0000   0.0000   0.0000   0.0000   0.0000   0.0000
     0.0000   0.0000   0.0000   0.0000   0.0000   0.0000   0.0000   0.0000
     0.0000   0.0000   0.0000   0.0000   0.0000   0.0000   0.0000   0.0000
     0.0000   0.0000   0.0000   0.0000   0.0000   0.0000   0.0000   0.0000
     0.0000   0.0000   0.0000   0.0000   0.0000   0.0000   0.0000   0.0000
     0.0000   0.0000   0.0000   0.0000   0.0000   0.0000   0.0000   0.0000
     0.0000   0.0000   0.0000   0.0000   0.0000   0.0000   0.0000   0.0000
     0.0000   0.0000   0.0000   0.0000   0.0000   0.0000   0.0000   0.0000
     0.0000   0.0000   0.0000   0.0000   0.0000   0.0000   0.0000   0.0000
     0.0000   0.0000   0.0000   0.0000   0.0000   0.0000   0.0000   0.0000
     0.0000   0.0000   0.0000   0.0000   0.0000   0.0000   0.0000   0.0000
     0.0000   0.0000   0.0000   0.0000   0.0000   0.0000   0.0000   0.0000
     0.0000   0.0000   0.0000   0.0000   0.0000   0.0000   0.0000   0.0000
     0.0000   0.0000   0.0000   0.0000   0.0000   0.0000   0.0000   0.0000
     0.0000   0.0000   0.0000   0.0000   0.0000   0.0000   0.0000   0.0000
     0.0000   0.0000   0.0000   0.0000   0.0000   0.0000   0.0000   0.0000

     highest occupied, lowest unoccupied level (ev):     6.4605    9.0784

!    total energy              =   -2202.58505622 Ry
     estimated scf accuracy    <       0.00000047 Ry

     The total energy is the sum of the following terms:
     one-electron contribution =   -1816.67426844 Ry
     hartree contribution      =     967.04365134 Ry
     xc contribution           =    -241.61210805 Ry
     ewald contribution        =   -1035.22951707 Ry
     one-center paw contrib.   =     -76.11281401 Ry
      -> PAW hartree energy AE =       0.00000000 Ry
      -> PAW hartree energy PS =       0.00000000 Ry
      -> PAW xc energy AE      =       0.00000000 Ry
      -> PAW xc energy PS      =       0.00000000 Ry
      -> total E_H with PAW    =     967.04365134 Ry
      -> total E_XC with PAW   =    -241.61210805 Ry

     convergence has been achieved in   8 iterations

     Writing all to output data dir bands_nm/myprefix.save/

     General routines

     Parallel routines

     PAW routines

   This run was terminated on:  18:32:23  15Jul2023

   JOB DONE.