     Program PWSCF v.7.1 starts on 15Jul2023 at 18:32:16

     Reading input from espresso_18490.pwi
Warning: card &CELL ignored
Warning: card / ignored

     Current dimensions of program PWSCF are:
     Max number of different atomic species (ntypx) = 10
     Max number of k-points (npk) =  40000
     Max angular momentum in pseudopotentials (lmaxx) =  4
     file K.pbe-spn-kjpaw_psl.1.0.0.UPF: wavefunction(s)  3S renormalized
     file Lu.paw.z_25.atompaw.wentzcovitch.v1.2.upf: wavefunction(s)  6S 0P 5D 0D 0F renormalized
     Message from routine setup:
     using ibrav=0 with symmetry is DISCOURAGED, use correct ibrav instead

     K-points division:     npool     =       2
     R & G space division:  proc/nbgrp/npool/nimage =       4
     Subspace diagonalization in iterative solution of the eigenvalue problem:
     one sub-group per band group will be used

     Using Slab Decomposition

     bravais-lattice index     =            0
     lattice parameter (alat)  =      12.3972  a.u.
     unit-cell volume          =    2555.3886 (a.u.)^3
     number of atoms/cell      =           20
     number of atomic types    =            3
     number of electrons       =       188.00
     number of Kohn-Sham states=          256
     kinetic-energy cutoff     =      30.0000  Ry
     charge density cutoff     =     240.0000  Ry
     scf convergence threshold =      1.0E-06
     mixing beta               =       0.7000
     number of iterations used =            8  plain     mixing
     Exchange-correlation=  SLA  PW   PBX  PBC
                           (   1   4   3   4   0   0   0)

     celldm(1)=  12.397178  celldm(2)=   0.000000  celldm(3)=   0.000000
     celldm(4)=   0.000000  celldm(5)=   0.000000  celldm(6)=   0.000000

     crystal axes: (cart. coord. in units of alat)
               a(1) = (   1.000000   0.000000   0.000000 )
               a(2) = (   0.000000   0.967000   0.000000 )
               a(3) = (   0.000000   0.959291   1.386954 )

     reciprocal axes: (cart. coord. in units 2 pi/alat)
               b(1) = (  1.000000  0.000000  0.000000 )
               b(2) = (  0.000000  1.034126 -0.715257 )
               b(3) = (  0.000000  0.000000  0.721005 )

     PseudoPot. # 1 for K  read from file:
     /lustre07/scratch/pragov/crystal_structure_design/utils/SSSP/K.pbe-spn-kjpaw_psl.1.0.0.UPF
     MD5 check sum: 7d58810084cac21f60fbe77ea2b688fd
     Pseudo is Projector augmented-wave + core cor, Zval =  9.0
     Generated using "atomic" code by A. Dal Corso  v.5.1
     Shape of augmentation charge: PSQ
     Using radial grid of 1165 points,  6 beta functions with:
                l(1) =   0
                l(2) =   0
                l(3) =   1
                l(4) =   1
                l(5) =   2
                l(6) =   2
     Q(r) pseudized with 0 coefficients

     PseudoPot. # 2 for Lu read from file:
     /lustre07/scratch/pragov/crystal_structure_design/utils/SSSP/Lu.paw.z_25.atompaw.wentzcovitch.v1.2.upf
     MD5 check sum: a517b3205eadf2aa79773283867f4cbe
     Pseudo is Projector augmented-wave + core cor, Zval = 25.0
     Generated using ATOMPAW code
     Shape of augmentation charge: BESSEL
     Using radial grid of 1118 points,  8 beta functions with:
                l(1) =   0
                l(2) =   0
                l(3) =   1
                l(4) =   1
                l(5) =   2
                l(6) =   2
                l(7) =   3
                l(8) =   3
     Q(r) pseudized with 0 coefficients

     PseudoPot. # 3 for F  read from file:
     /lustre07/scratch/pragov/crystal_structure_design/utils/SSSP/f_pbe_v1.4.uspp.F.UPF
     MD5 check sum: 4c38b6a325caf53ec0e86aed9459de46
     Pseudo is Ultrasoft, Zval =  7.0
     Generated by new atomic code, or converted to UPF format
     Using radial grid of  799 points,  4 beta functions with:
                l(1) =   0
                l(2) =   0
                l(3) =   1
                l(4) =   1
     Q(r) pseudized with  8 coefficients,  rinner =    0.950   0.950   0.950

     atomic species   valence    mass     pseudopotential
        K              9.00    39.09830     K ( 1.00)
        Lu            25.00   174.96680     Lu( 1.00)
        F              7.00    18.99840     F ( 1.00)

      4 Sym. Ops., with inversion, found ( 2 have fractional translation)

                                    s                        frac. trans.

      isym =  1     identity

 cryst.   s( 1) = (     1          0          0      )
                  (     0          1          0      )
                  (     0          0          1      )

 cart.    s( 1) = (  1.0000000  0.0000000  0.0000000 )
                  (  0.0000000  1.0000000  0.0000000 )
                  (  0.0000000  0.0000000  1.0000000 )

      isym =  2     180 deg rotation - cart. axis [1,0,0]

 cryst.   s( 2) = (     1          0          0      )    f =(  0.5000000 )
                  (     0         -1          0      )       ( -0.0000000 )
                  (     0          0         -1      )       ( -0.5000000 )

 cart.    s( 2) = (  1.0000000  0.0000000  0.0000000 )    f =(  0.5000000 )
                  (  0.0000000 -1.0000000  0.0000000 )       ( -0.4796455 )
                  (  0.0000000  0.0000000 -1.0000000 )       ( -0.6934768 )

      isym =  3     inversion

 cryst.   s( 3) = (    -1          0          0      )
                  (     0         -1          0      )
                  (     0          0         -1      )

 cart.    s( 3) = ( -1.0000000  0.0000000  0.0000000 )
                  (  0.0000000 -1.0000000  0.0000000 )
                  (  0.0000000  0.0000000 -1.0000000 )

      isym =  4     inv. 180 deg rotation - cart. axis [1,0,0]

 cryst.   s( 4) = (    -1          0          0      )    f =(  0.5000000 )
                  (     0          1          0      )       (  0.0000000 )
                  (     0          0          1      )       (  0.5000000 )

 cart.    s( 4) = ( -1.0000000  0.0000000  0.0000000 )    f =(  0.5000000 )
                  (  0.0000000  1.0000000  0.0000000 )       (  0.4796455 )
                  (  0.0000000  0.0000000  1.0000000 )       (  0.6934768 )

   Cartesian axes

     site n.     atom                  positions (alat units)
         1           K   tau(   1) = (   0.5000000   0.4835001   0.0000000  )
         2           K   tau(   2) = (   0.0000000   0.9631455   0.6934768  )
         3           K   tau(   3) = (   0.0496440   1.4331133   1.0438684  )
         4           K   tau(   4) = (   0.9503560   0.4931777   0.3430852  )
         5           K   tau(   5) = (   0.5496440   0.9728232   1.0365619  )
         6           K   tau(   6) = (   0.4503560   0.9534679   0.3503916  )
         7           Lu  tau(   7) = (   0.5000000   0.4796455   0.6934768  )
         8           Lu  tau(   8) = (   0.0000000   0.0000000   0.0000000  )
         9           F   tau(   9) = (   0.7687680   1.2845015   0.7805345  )
        10           F   tau(  10) = (   0.2312320   0.6417895   0.6064191  )
        11           F   tau(  11) = (   0.2687680   1.1214350   1.2998959  )
        12           F   tau(  12) = (   0.7312320   0.8048561   0.0870577  )
        13           F   tau(  13) = (   0.4523130   1.5446132   0.9993416  )
        14           F   tau(  14) = (   0.5476870   0.3816778   0.3876119  )
        15           F   tau(  15) = (   0.9523130   0.8613233   1.0810887  )
        16           F   tau(  16) = (   0.0476870   1.0649678   0.3058649  )
        17           F   tau(  17) = (   0.3256760   1.1809922   0.7568231  )
        18           F   tau(  18) = (   0.6743240   0.7452989   0.6301305  )
        19           F   tau(  19) = (   0.8256760   1.2249443   1.3236072  )
        20           F   tau(  20) = (   0.1743240   0.7013467   0.0633463  )

   Crystallographic axes

     site n.     atom                  positions (cryst. coord.)
         1           K   tau(   1) = (  0.5000000  0.5000000  0.0000000  )
         2           K   tau(   2) = (  0.0000000  0.5000000  0.5000000  )
         3           K   tau(   3) = (  0.0496440  0.7353860  0.7526340  )
         4           K   tau(   4) = (  0.9503560  0.2646140  0.2473660  )
         5           K   tau(   5) = (  0.5496440  0.2646140  0.7473660  )
         6           K   tau(   6) = (  0.4503560  0.7353860  0.2526340  )
         7           Lu  tau(   7) = (  0.5000000  0.0000000  0.5000000  )
         8           Lu  tau(   8) = (  0.0000000  0.0000000  0.0000000  )
         9           F   tau(   9) = (  0.7687680  0.7700540  0.5627690  )
        10           F   tau(  10) = (  0.2312320  0.2299460  0.4372310  )
        11           F   tau(  11) = (  0.2687680  0.2299460  0.9372310  )
        12           F   tau(  12) = (  0.7312320  0.7700540  0.0627690  )
        13           F   tau(  13) = (  0.4523130  0.8825390  0.7205300  )
        14           F   tau(  14) = (  0.5476870  0.1174610  0.2794700  )
        15           F   tau(  15) = (  0.9523130  0.1174610  0.7794700  )
        16           F   tau(  16) = (  0.0476870  0.8825390  0.2205300  )
        17           F   tau(  17) = (  0.3256760  0.6799720  0.5456730  )
        18           F   tau(  18) = (  0.6743240  0.3200280  0.4543270  )
        19           F   tau(  19) = (  0.8256760  0.3200280  0.9543270  )
        20           F   tau(  20) = (  0.1743240  0.6799720  0.0456730  )

     number of k points=    10
                       cart. coord. in units 2pi/alat
        k(    1) = (   0.0000000   0.0000000   0.0000000), wk =   0.0740741
        k(    2) = (   0.0000000   0.0000000   0.2403349), wk =   0.1481481
        k(    3) = (   0.0000000   0.3447087  -0.2384189), wk =   0.1481481
        k(    4) = (   0.0000000   0.3447087   0.0019160), wk =   0.1481481
        k(    5) = (   0.0000000   0.3447087  -0.4787538), wk =   0.1481481
        k(    6) = (   0.3333333   0.0000000   0.0000000), wk =   0.1481481
        k(    7) = (   0.3333333   0.0000000   0.2403349), wk =   0.2962963
        k(    8) = (   0.3333333   0.3447087  -0.2384189), wk =   0.2962963
        k(    9) = (   0.3333333   0.3447087   0.0019160), wk =   0.2962963
        k(   10) = (   0.3333333   0.3447087  -0.4787538), wk =   0.2962963

                       cryst. coord.
        k(    1) = (   0.0000000   0.0000000   0.0000000), wk =   0.0740741
        k(    2) = (   0.0000000   0.0000000   0.3333333), wk =   0.1481481
        k(    3) = (   0.0000000   0.3333333   0.0000000), wk =   0.1481481
        k(    4) = (   0.0000000   0.3333333   0.3333333), wk =   0.1481481
        k(    5) = (   0.0000000   0.3333333  -0.3333333), wk =   0.1481481
        k(    6) = (   0.3333333   0.0000000   0.0000000), wk =   0.1481481
        k(    7) = (   0.3333333   0.0000000   0.3333333), wk =   0.2962963
        k(    8) = (   0.3333333   0.3333333   0.0000000), wk =   0.2962963
        k(    9) = (   0.3333333   0.3333333   0.3333333), wk =   0.2962963
        k(   10) = (   0.3333333   0.3333333  -0.3333333), wk =   0.2962963

     Check: negative core charge=   -0.000003

     Initial potential from superposition of free atoms

     starting charge     187.8795, renormalised to     188.0000
     Starting wfcs are  160 randomized atomic wfcs +   96 random wfcs
     Checking if some PAW data can be deallocated...

     Self-consistent Calculation

     iteration #  1     ecut=    30.00 Ry     beta= 0.70
     Davidson diagonalization with overlap

     ethr =  1.00E-02,  avg # of iterations =  7.0

     total energy              =   -3423.35918161 Ry
     estimated scf accuracy    <       2.60896779 Ry

[...]

     total energy              =   -3424.52340242 Ry
     estimated scf accuracy    <       0.00000107 Ry

     iteration #  9     ecut=    30.00 Ry     beta= 0.70
     Davidson diagonalization with overlap

     ethr =  5.67E-10,  avg # of iterations =  1.0

     End of self-consistent calculation

          k = 0.0000 0.0000 0.0000 (  7093 PWs)   bands (ev):

   -49.7081 -49.7081 -24.5719 -24.5678 -24.5613 -24.5588 -24.0473 -24.0459
   -21.0436 -21.0408 -21.0210 -21.0191 -20.9802 -20.9797 -17.8835 -17.8800
   -17.8006 -17.7961 -17.7379 -17.7290 -17.1402 -17.1294 -17.1052 -17.0928
   -17.0725 -17.0718  -8.1149  -8.1141  -8.0985  -8.0829  -8.0759  -8.0751
    -8.0722  -8.0696  -8.0613  -8.0521  -8.0237  -8.0165  -7.5725  -7.5684
    -7.5621  -7.5618  -7.5452  -7.5426  -0.2970  -0.2674  -0.1773  -0.0864
    -0.0777  -0.0423   0.0246   0.1735   0.2059   0.2158   0.3380   0.4040
     0.5618   0.5668   0.6702   0.6851   0.6873   0.7066   0.7446   0.7480
     0.8051   0.8127   0.8516   0.8751   0.8827   0.8926   0.9073   0.9415
     0.9461   0.9817   1.1898   1.2128   1.2480   1.2762   1.2817   1.2947
     1.9736   1.9742   2.1216   2.1285   2.1327   2.1389   2.1395   2.1477
     2.3721   2.4031   2.4044   2.4176   2.4253   2.4276   7.8368  10.1603
    10.1981  10.5260  10.6528  10.6746  10.7368  10.7533  10.8122  11.1393
    11.2103  11.3523  11.3729  11.6804  11.6837  11.8326  12.0480  12.0693
    12.1516  12.1701  12.2913  12.4297  12.4500  12.5253  13.1347  13.3417
    13.5432  13.6288  13.7428  13.8306  13.9257  14.1183  14.2231  14.2702
    14.3152  14.3834  14.4016  14.5273  14.6004  14.7227  14.7515  14.8029
    15.4388  15.4888  15.5484  15.6517  15.7049  15.8063  15.8145  15.9449
    15.9621  16.2852  16.5035  16.5878  16.9148  16.9154  17.1735  17.2439
    17.3195  17.4382  17.8219  17.9803  18.5758  18.5889  18.6440  18.8120
    19.1683  19.5973  19.8705  20.0333  20.1524  20.2492  20.4682  20.9068
    21.3673  21.4093  21.4833  21.6320  22.3130  22.3697  22.4743  22.6173
    23.0809  23.2116  23.4310  23.5960  23.7268  23.8783  23.8932  23.9168
    24.0896  24.1376  24.2358  24.2784  24.6137  24.6951  24.8993  24.9551
    25.1143  25.1224  25.1568  25.3498  25.4944  25.5858  25.8671  25.9612
    26.1367  26.4323  26.5085  26.5467  26.5945  26.9659  27.0471  27.1887
    27.2631  27.6914  27.7132  27.9753  28.2977  28.4132  28.4528  28.5121
    28.5841  28.8524  28.8969  29.0759  29.1825  29.1888  29.3016  29.3355
    29.5432  29.8744  29.8875  30.0650  30.2047  30.4750  30.5272  30.5953
    30.6837  30.8893  31.0444  31.0964  31.1313  31.2080  31.2516  31.5947
    31.7036  31.8411  32.1813  32.1961  32.3461  32.3821  32.6859  32.7910
    32.9450  33.2788  33.4137  33.6947  33.7650  33.7769  33.8771  33.9352

     occupation numbers
     1.0000   1.0000   1.0000   1.0000   1.0000   1.0000   1.0000   1.0000
     1.0000   1.0000   1.0000   1.0000   1.0000   1.0000   1.0000   1.0000
     1.0000   1.0000   1.0000   1.0000   1.0000   1.0000   1.0000   1.0000
     1.0000   1.0000   1.0000   1.0000   1.0000   1.0000   1.0000   1.0000
     1.0000   1.0000   1.0000   1.0000   1.0000   1.0000   1.0000   1.0000
     1.0000   1.0000   1.0000   1.0000   1.0000   1.0000   1.0000   1.0000
     1.0000   1.0000   1.0000   1.0000   1.0000   1.0000   1.0000   1.0000
     1.0000   1.0000   1.0000   1.0000   1.0000   1.0000   1.0000   1.0000
     1.0000   1.0000   1.0000   1.0000   1.0000   1.0000   1.0000   1.0000
     1.0000   1.0000   1.0000   1.0000   1.0000   1.0000   1.0000   1.0000
     1.0000   1.0000   1.0000   1.0000   1.0000   1.0000   1.0000   1.0000
     1.0000   1.0000   1.0000   1.0000   1.0000   1.0000   0.0000   0.0000
     0.0000   0.0000   0.0000   0.0000   0.0000   0.0000   0.0000   0.0000
     0.0000   0.0000   0.0000   0.0000   0.0000   0.0000   0.0000   0.0000
     0.0000   0.0000   0.0000   0.0000   0.0000   0.0000   0.0000   0.0000
     0.0000   0.0000   0.0000   0.0000   0.0000   0.0000   0.0000   0.0000
     0.0000   0.0000   0.0000   0.0000   0.0000   0.0000   0.0000   0.0000
     0.0000   0.0000   0.0000   0.0000   0.0000   0.0000   0.0000   0.0000
     0.0000   0.0000   0.0000   0.0000   0.0000   0.0000   0.0000   0.0000
     0.0000   0.0000   0.0000   0.0000   0.0000   0.0000   0.0000   0.0000
     0.0000   0.0000   0.0000   0.0000   0.0000   0.0000   0.0000   0.0000
     0.0000   0.0000   0.0000   0.0000   0.0000   0.0000   0.0000   0.0000
     0.0000   0.0000   0.0000   0.0000   0.0000   0.0000   0.0000   0.0000
     0.0000   0.0000   0.0000   0.0000   0.0000   0.0000   0.0000   0.0000
     0.0000   0.0000   0.0000   0.0000   0.0000   0.0000   0.0000   0.0000
     0.0000   0.0000   0.0000   0.0000   0.0000   0.0000   0.0000   0.0000
     0.0000   0.0000   0.0000   0.0000   0.0000   0.0000   0.0000   0.0000
     0.0000   0.0000   0.0000   0.0000   0.0000   0.0000   0.0000   0.0000
     0.0000   0.0000   0.0000   0.0000   0.0000   0.0000   0.0000   0.0000
     0.0000   0.0000   0.0000   0.0000   0.0000   0.0000   0.0000   0.0000
     0.0000   0.0000   0.0000   0.0000   0.0000   0.0000   0.0000   0.0000
     0.0000   0.0000   0.0000   0.0000   0.0000   0.0000   0.0000   0.0000

[...]

          k = 0.3333 0.3447-0.4788 (  7091 PWs)   bands (ev):

   -49.7081 -49.7081 -24.5668 -24.5653 -24.5641 -24.5627 -24.0472 -24.0471
   -21.0431 -21.0417 -21.0190 -21.0184 -20.9805 -20.9798 -17.8954 -17.8915
   -17.8013 -17.7942 -17.7381 -17.7283 -17.1266 -17.1262 -17.1038 -17.0934
   -17.0745 -17.0671  -8.1047  -8.0992  -8.0876  -8.0865  -8.0805  -8.0722
    -8.0660  -8.0640  -8.0519  -8.0424  -8.0339  -8.0235  -7.5743  -7.5711
    -7.5694  -7.5681  -7.5528  -7.5449  -0.2399  -0.2012  -0.0950  -0.0564
    -0.0291  -0.0005   0.1298   0.1775   0.2262   0.2664   0.2915   0.3171
     0.5698   0.6019   0.6160   0.6469   0.6662   0.6725   0.6826   0.7094
     0.7485   0.7618   0.7833   0.7905   0.8293   0.8549   0.8674   0.8857
     0.9031   0.9427   1.2314   1.2572   1.2692   1.2826   1.3266   1.3476
     1.9739   1.9739   2.1206   2.1259   2.1318   2.1333   2.1370   2.1390
     2.3638   2.3707   2.3850   2.3935   2.3971   2.4105   9.3097   9.9530
    10.4006  10.4097  10.6534  10.6665  10.6987  10.7648  10.7814  10.8356
    10.9660  11.1876  11.2382  11.5178  11.6473  11.7975  11.9472  11.9720
    12.1174  12.2346  12.3106  12.4591  12.5431  12.8603  12.9404  13.1995
    13.3218  13.3870  13.4997  13.7501  13.9204  14.0811  14.1643  14.2217
    14.2750  14.4429  14.4833  14.5592  14.6106  14.6530  14.7353  14.8413
    14.9963  15.0215  15.3470  15.4943  15.5513  15.6699  15.6985  15.9979
    16.4552  16.5007  16.8183  16.9531  17.0910  17.4640  17.5219  17.6469
    17.8164  17.9598  18.3261  18.4081  18.5585  18.8021  19.0836  19.1709
    19.2076  19.3722  19.6940  19.7247  20.1058  20.1602  20.6181  20.7547
    21.1235  21.2827  21.3449  21.5205  21.9589  22.1701  22.2487  22.4281
    22.6830  22.7670  22.8800  22.9960  23.2894  23.4043  23.4670  23.7620
    24.0357  24.0928  24.2547  24.4343  24.5458  24.6715  24.8347  25.1424
    25.2153  25.2858  25.4542  25.5877  25.7572  25.8420  25.9094  26.0791
    26.1197  26.2963  26.4448  26.4901  26.7877  26.9659  27.0787  27.2907
    27.4740  27.5436  27.7069  27.8295  28.1233  28.2063  28.3062  28.4250
    28.5353  28.6957  28.8066  28.9402  29.0261  29.1634  29.3608  29.5160
    29.7423  29.8459  29.9584  30.0917  30.2367  30.5065  30.6507  30.7523
    30.9055  30.9962  31.2888  31.4550  31.6214  31.7624  31.8026  31.9081
    32.0819  32.3166  32.4212  32.6471  32.6626  32.6845  32.8143  33.0201
    33.0779  33.2182  33.4471  33.5140  33.6909  33.7520  33.8753  33.8980

     occupation numbers
     1.0000   1.0000   1.0000   1.0000   1.0000   1.0000   1.0000   1.0000
     1.0000   1.0000   1.0000   1.0000   1.0000   1.0000   1.0000   1.0000
     1.0000   1.0000   1.0000   1.0000   1.0000   1.0000   1.0000   1.0000
     1.0000   1.0000   1.0000   1.0000   1.0000   1.0000   1.0000   1.0000
     1.0000   1.0000   1.0000   1.0000   1.0000   1.0000   1.0000   1.0000
     1.0000   1.0000   1.0000   1.0000   1.0000   1.0000   1.0000   1.0000
     1.0000   1.0000   1.0000   1.0000   1.0000   1.0000   1.0000   1.0000
     1.0000   1.0000   1.0000   1.0000   1.0000   1.0000   1.0000   1.0000
     1.0000   1.0000   1.0000   1.0000   1.0000   1.0000   1.0000   1.0000
     1.0000   1.0000   1.0000   1.0000   1.0000   1.0000   1.0000   1.0000
     1.0000   1.0000   1.0000   1.0000   1.0000   1.0000   1.0000   1.0000
     1.0000   1.0000   1.0000   1.0000   1.0000   1.0000   0.0000   0.0000
     0.0000   0.0000   0.0000   0.0000   0.0000   0.0000   0.0000   0.0000
     0.0000   0.0000   0.0000   0.0000   0.0000   0.0000   0.0000   0.0000
     0.0000   0.0000   0.0000   0.0000   0.0000   0.0000   0.0000   0.0000
     0.0000   0.0000   0.0000   0.0000   0.0000   0.0000   0.0000   0.0000
     0.0000   0.0000   0.0000   0.0000   0.0000   0.0000   0.0000   0.0000
     0.0000   0.0000   0.0000   0.0000   0.0000   0.0000   0.0000   0.0000
     0.0000   0.0000   0.0000   0.0000   0.0000   0.0000   0.0000   0.0000
     0.0000   0.0000   0.0000   0.0000   0.0000   0.0000   0.0000   0.0000
     0.0000   0.0000   0.0000   0.0000   0.0000   0.0000   0.0000   0.0000
     0.0000   0.0000   0.0000   0.0000   0.0000   0.0000   0.0000   0.0000
     0.0000   0.0000   0.0000   0.0000   0.0000   0.0000   0.0000   0.0000
     0.0000   0.0000   0.0000   0.0000   0.0000   0.0000   0.0000   0.0000
     0.0000   0.0000   0.0000   0.0000   0.0000   0.0000   0.0000   0.0000
     0.0000   0.0000   0.0000   0.0000   0.0000   0.0000   0.0000   0.0000
     0.0000   0.0000   0.0000   0.0000   0.0000   0.0000   0.0000   0.0000
     0.0000   0.0000   0.0000   0.0000   0.0000   0.0000   0.0000   0.0000
     0.0000   0.0000   0.0000   0.0000   0.0000   0.0000   0.0000   0.0000
     0.0000   0.0000   0.0000   0.0000   0.0000   0.0000   0.0000   0.0000
     0.0000   0.0000   0.0000   0.0000   0.0000   0.0000   0.0000   0.0000
     0.0000   0.0000   0.0000   0.0000   0.0000   0.0000   0.0000   0.0000

     highest occupied, lowest unoccupied level (ev):     2.4276    7.8368

!    total energy              =   -3424.52340256 Ry
     estimated scf accuracy    <       0.00000001 Ry

     The total energy is the sum of the following terms:
     one-electron contribution =   -1677.09022927 Ry
     hartree contribution      =     850.93006445 Ry
     xc contribution           =    -264.11805149 Ry
     ewald contribution        =   -1017.65796183 Ry
     one-center paw contrib.   =   -1316.58722443 Ry
      -> PAW hartree energy AE =     113.45724744 Ry
      -> PAW hartree energy PS =    -112.82553172 Ry
      -> PAW xc energy AE      =    -198.70477363 Ry
      -> PAW xc energy PS      =      31.81899874 Ry
      -> total E_H with PAW    =     851.56178017 Ry
      -> total E_XC with PAW   =    -431.00382637 Ry

     convergence has been achieved in   9 iterations

     Writing all to output data dir bands_nm/myprefix.save/

     General routines

     Parallel routines

     PAW routines

   This run was terminated on:  18:34: 0  15Jul2023

   JOB DONE.