     Program PWSCF v.7.0 starts on  4Jun2023 at 17:25:56

     K-points division:     npool     =       2
     R & G space division:  proc/nbgrp/npool/nimage =       4

     Reading input from espresso_7056.pwi
Warning: card &CELL ignored
Warning: card / ignored

     Current dimensions of program PWSCF are:
     Max number of different atomic species (ntypx) = 10
     Max number of k-points (npk) =  40000
     Max angular momentum in pseudopotentials (lmaxx) =  4
     Message from routine setup:
     using ibrav=0 with symmetry is DISCOURAGED, use correct ibrav instead

     Using Slab Decomposition

     bravais-lattice index     =            0
     lattice parameter (alat)  =      12.7317  a.u.
     unit-cell volume          =     678.3071 (a.u.)^3
     number of atoms/cell      =            3
     number of atomic types    =            2
     number of electrons       =        24.00
     number of Kohn-Sham states=           64
     kinetic-energy cutoff     =      30.0000  Ry
     charge density cutoff     =     240.0000  Ry
     scf convergence threshold =      1.0E-06
     mixing beta               =       0.7000
     number of iterations used =            8  plain     mixing
     Exchange-correlation= SLA  PW   PBE  PBE
                           (   1   4   3   4   0   0   0)

     celldm(1)=  12.731712  celldm(2)=   0.000000  celldm(3)=   0.000000
     celldm(4)=   0.000000  celldm(5)=   0.000000  celldm(6)=   0.000000

     crystal axes: (cart. coord. in units of alat)
               a(1) = (   1.000000   0.000000   0.000000 )
               a(2) = (   0.795838   0.605510   0.000000 )
               a(3) = (   0.795838   0.268336   0.542806 )

     reciprocal axes: (cart. coord. in units 2 pi/alat)
               b(1) = (  1.000000 -1.314326 -0.816418 )
               b(2) = (  0.000000  1.651500 -0.816418 )
               b(3) = (  0.000000  0.000000  1.842279 )

     PseudoPot. # 1 for Ce read from file:
     /home/pragov/projects/rrg-bengioy-ad/pragov/crystal_structure_design/SSSP/Ce.GGA-PBE-paw-v1.0.UPF
     MD5 check sum: f2b950f613061344c13339c8d844425d
     Pseudo is Projector augmented-wave + core cor, Zval = 12.0
     Generated using ATOMPAW code
     Shape of augmentation charge: BESSEL
     Using radial grid of 1102 points,  8 beta functions with:
                l(1) =   0
                l(2) =   0
                l(3) =   1
                l(4) =   1
                l(5) =   2
                l(6) =   2
                l(7) =   3
                l(8) =   3
     Q(r) pseudized with 0 coefficients

     PseudoPot. # 2 for Se read from file:
     /home/pragov/projects/rrg-bengioy-ad/pragov/crystal_structure_design/SSSP/Se_pbe_v1.uspp.F.UPF
     MD5 check sum: 1b3568f3a8ae88f9a2a0ad0698632c85
     Pseudo is Ultrasoft + core correction, Zval =  6.0
     Generated by new atomic code, or converted to UPF format
     Using radial grid of  877 points,  6 beta functions with:
                l(1) =   0
                l(2) =   0
                l(3) =   1
                l(4) =   1
                l(5) =   2
                l(6) =   2
     Q(r) pseudized with  8 coefficients,  rinner =    1.300   1.300   1.300
                                                       1.300   1.300

     atomic species   valence    mass     pseudopotential
        Ce            12.00   140.11600     Ce( 1.00)
        Se             6.00    78.97100     Se( 1.00)

      2 Sym. Ops., with inversion, found

                                    s                        frac. trans.

      isym =  1     identity

 cryst.   s( 1) = (     1          0          0      )
                  (     0          1          0      )
                  (     0          0          1      )

 cart.    s( 1) = (  1.0000000 -0.0000000 -0.0000000 )
                  (  0.0000000  1.0000000 -0.0000000 )
                  (  0.0000000  0.0000000  1.0000000 )

      isym =  2     inversion

 cryst.   s( 2) = (    -1          0          0      )
                  (     0         -1          0      )
                  (     0          0         -1      )

 cart.    s( 2) = ( -1.0000000  0.0000000  0.0000000 )
                  (  0.0000000 -1.0000000  0.0000000 )
                  (  0.0000000  0.0000000 -1.0000000 )

   Cartesian axes

     site n.     atom                  positions (alat units)
         1           Ce  tau(   1) = (   0.0000000   0.0000000   0.0000000  )
         2           Se  tau(   2) = (   1.9260139   0.6494020   0.4033884  )
         3           Se  tau(   3) = (   0.6656614   0.2244438   0.1394175  )

   Crystallographic axes

     site n.     atom                  positions (cryst. coord.)
         1           Ce  tau(   1) = (  0.0000000  0.0000000  0.0000000  )
         2           Se  tau(   2) = (  0.7431540  0.7431540  0.7431540  )
         3           Se  tau(   3) = (  0.2568460  0.2568460  0.2568460  )

     number of k points=    14
                       cart. coord. in units 2pi/alat
        k(    1) = (   0.0000000   0.0000000   0.0000000), wk =   0.0740741
        k(    2) = (   0.0000000   0.0000000   0.6140930), wk =   0.1481481
        k(    3) = (   0.0000000   0.5505001  -0.2721395), wk =   0.1481481
        k(    4) = (   0.0000000   0.5505001   0.3419535), wk =   0.1481481
        k(    5) = (   0.0000000   0.5505001  -0.8862324), wk =   0.1481481
        k(    6) = (   0.3333333  -0.4381088  -0.2721395), wk =   0.1481481
        k(    7) = (   0.3333333  -0.4381088   0.3419535), wk =   0.1481481
        k(    8) = (   0.3333333  -0.4381088  -0.8862324), wk =   0.1481481
        k(    9) = (   0.3333333   0.1123914  -0.5442789), wk =   0.1481481
        k(   10) = (   0.3333333   0.1123914   0.0698140), wk =   0.1481481
        k(   11) = (   0.3333333   0.1123914  -1.1583719), wk =   0.1481481
        k(   12) = (   0.3333333  -0.9886089   0.0000000), wk =   0.1481481
        k(   13) = (   0.3333333  -0.9886089   0.6140930), wk =   0.1481481
        k(   14) = (   0.3333333  -0.9886089  -0.6140930), wk =   0.1481481

                       cryst. coord.
        k(    1) = (   0.0000000   0.0000000   0.0000000), wk =   0.0740741
        k(    2) = (   0.0000000   0.0000000   0.3333333), wk =   0.1481481
        k(    3) = (   0.0000000   0.3333333   0.0000000), wk =   0.1481481
        k(    4) = (   0.0000000   0.3333333   0.3333333), wk =   0.1481481
        k(    5) = (   0.0000000   0.3333333  -0.3333333), wk =   0.1481481
        k(    6) = (   0.3333333  -0.0000000  -0.0000000), wk =   0.1481481
        k(    7) = (   0.3333333  -0.0000000   0.3333333), wk =   0.1481481
        k(    8) = (   0.3333333  -0.0000000  -0.3333333), wk =   0.1481481
        k(    9) = (   0.3333333   0.3333333  -0.0000000), wk =   0.1481481
        k(   10) = (   0.3333333   0.3333333   0.3333333), wk =   0.1481481
        k(   11) = (   0.3333333   0.3333333  -0.3333333), wk =   0.1481481
        k(   12) = (   0.3333333  -0.3333333   0.0000000), wk =   0.1481481
        k(   13) = (   0.3333333  -0.3333333   0.3333333), wk =   0.1481481
        k(   14) = (   0.3333333  -0.3333333  -0.3333333), wk =   0.1481481

     Initial potential from superposition of free atoms

     starting charge      23.9929, renormalised to      24.0000
     Starting wfcs are   40 randomized atomic wfcs +   24 random wfcs
     Checking if some PAW data can be deallocated...

     Self-consistent Calculation

     iteration #  1     ecut=    30.00 Ry     beta= 0.70
     Davidson diagonalization with overlap

     ethr =  1.00E-02,  avg # of iterations =  7.1

     total energy              =    -568.76927214 Ry
     estimated scf accuracy    <       0.52089331 Ry

[...]

     c_bands:  1 eigenvalues not converged
     ethr =  5.75E-07,  avg # of iterations =  8.3

[...]

     total energy              =    -569.58270744 Ry
     estimated scf accuracy    <       0.00000853 Ry

     iteration # 14     ecut=    30.00 Ry     beta= 0.70
     Davidson diagonalization with overlap

     ethr =  3.55E-08,  avg # of iterations =  4.8

     End of self-consistent calculation

          k = 0.0000 0.0000 0.0000 (  1863 PWs)   bands (ev):

   -29.0479 -12.0271 -11.6621 -11.6619  -6.8035  -5.7015   2.1364   2.7900
     2.7901   4.4300   4.4302   4.6371   5.6309   5.7373   5.7381   5.9371
     6.6421   6.6427   6.7990   7.9165   7.9167   9.2023  10.0035  11.0115
    11.4457  11.4457  14.4954  14.4955  16.0363  16.1986  17.4442  17.7404
    17.7405  19.8047  19.8047  21.0278  21.5430  21.8724  21.8724  21.9521
    21.9522  23.4662  23.4663  24.8974  26.5886  28.0087  28.0088  28.6271
    29.7189  30.6783  31.3514  31.3515  31.4555  31.4555  32.3340  32.3340
    32.4665  32.4665  32.5814  32.7134  34.7319  34.8484  34.8485  34.9558

     occupation numbers
     1.0000   1.0000   1.0000   1.0000   1.0000   1.0000   1.0000   1.0000
     1.0000   1.0000   1.0000   1.0000   0.0000   0.0000   0.0000   0.0000
     0.0000   0.0000   0.0000   0.0000   0.0000   0.0000   0.0000   0.0000
     0.0000   0.0000   0.0000   0.0000   0.0000   0.0000   0.0000   0.0000
     0.0000   0.0000   0.0000   0.0000   0.0000   0.0000   0.0000   0.0000
     0.0000   0.0000   0.0000   0.0000   0.0000   0.0000   0.0000   0.0000
     0.0000   0.0000   0.0000   0.0000   0.0000   0.0000   0.0000   0.0000
     0.0000   0.0000   0.0000   0.0000   0.0000   0.0000   0.0000   0.0000

[...]

          k = 0.3333-0.9886-0.6141 (  1874 PWs)   bands (ev):

   -29.0293 -12.0990 -11.8863 -11.7277  -6.3456  -5.8655   2.3347   2.9537
     3.2782   4.1148   4.1340   4.5070   5.6799   5.7168   5.7928   5.8140
     5.8172   6.1972   6.3982   7.6691   9.3110   9.3620  10.2956  11.6235
    12.3970  13.1412  14.9076  15.3079  15.3912  15.7289  16.3689  17.1034
    17.4764  17.8922  21.0018  21.3528  21.6002  22.2313  22.5197  23.3349
    23.4156  23.5333  24.3377  24.7029  25.2351  25.6602  26.0378  27.0998
    27.2474  27.8400  29.6863  29.8855  30.2859  30.4620  31.1765  31.5579
    32.6490  32.7404  32.8018  33.2926  33.7139  34.0932  34.4030  35.3525

     occupation numbers
     1.0000   1.0000   1.0000   1.0000   1.0000   1.0000   1.0000   1.0000
     1.0000   1.0000   1.0000   1.0000   0.0000   0.0000   0.0000   0.0000
     0.0000   0.0000   0.0000   0.0000   0.0000   0.0000   0.0000   0.0000
     0.0000   0.0000   0.0000   0.0000   0.0000   0.0000   0.0000   0.0000
     0.0000   0.0000   0.0000   0.0000   0.0000   0.0000   0.0000   0.0000
     0.0000   0.0000   0.0000   0.0000   0.0000   0.0000   0.0000   0.0000
     0.0000   0.0000   0.0000   0.0000   0.0000   0.0000   0.0000   0.0000
     0.0000   0.0000   0.0000   0.0000   0.0000   0.0000   0.0000   0.0000

     highest occupied, lowest unoccupied level (ev):     4.6891    5.6187

!    total energy              =    -569.58271011 Ry
     estimated scf accuracy    <       0.00000022 Ry

     The total energy is the sum of the following terms:
     one-electron contribution =     -35.01041621 Ry
     hartree contribution      =      28.30317877 Ry
     xc contribution           =     -69.70470287 Ry
     ewald contribution        =     -84.89339214 Ry
     one-center paw contrib.   =    -408.27737765 Ry
      -> PAW hartree energy AE =      43.31782604 Ry
      -> PAW hartree energy PS =     -43.07424792 Ry
      -> PAW xc energy AE      =    -417.01502741 Ry
      -> PAW xc energy PS      =       8.49407164 Ry
      -> total E_H with PAW    =      28.54675688 Ry
      -> total E_XC with PAW   =    -478.22565864 Ry

     convergence has been achieved in  14 iterations

     Writing all to output data dir calculations_bands/myprefix.save/

     General routines

     Parallel routines

     PAW routines

   This run was terminated on:  17:27:53   4Jun2023

   JOB DONE.