     Program PWSCF v.7.1 starts on 14Jul2023 at 21: 5:18

     Reading input from espresso_21972.pwi
Warning: card &CELL ignored
Warning: card / ignored

     Current dimensions of program PWSCF are:
     Max number of different atomic species (ntypx) = 10
     Max number of k-points (npk) =  40000
     Max angular momentum in pseudopotentials (lmaxx) =  4
     file Pb.pbe-dn-kjpaw_psl.0.2.2.UPF: wavefunction(s)  6S renormalized
     Message from routine setup:
     using ibrav=0 with symmetry is DISCOURAGED, use correct ibrav instead

     K-points division:     npool     =       2
     R & G space division:  proc/nbgrp/npool/nimage =       4
     Subspace diagonalization in iterative solution of the eigenvalue problem:
     a serial algorithm will be used

     Using Slab Decomposition

     bravais-lattice index     =            0
     lattice parameter (alat)  =      13.7549  a.u.
     unit-cell volume          =    1345.8477 (a.u.)^3
     number of atoms/cell      =            8
     number of atomic types    =            4
     number of electrons       =        86.00
     number of Kohn-Sham states=           64
     kinetic-energy cutoff     =      30.0000  Ry
     charge density cutoff     =     240.0000  Ry
     scf convergence threshold =      1.0E-06
     mixing beta               =       0.7000
     number of iterations used =            8  plain     mixing
     Exchange-correlation=  SLA  PW   PBX  PBC
                           (   1   4   3   4   0   0   0)

     celldm(1)=  13.754854  celldm(2)=   0.000000  celldm(3)=   0.000000
     celldm(4)=   0.000000  celldm(5)=   0.000000  celldm(6)=   0.000000

     crystal axes: (cart. coord. in units of alat)
               a(1) = (   1.000000   0.000000   0.000000 )
               a(2) = (   0.376651   0.926355   0.000000 )
               a(3) = (  -0.688326  -0.463178   0.558278 )

     reciprocal axes: (cart. coord. in units 2 pi/alat)
               b(1) = (  1.000000 -0.406595  0.895611 )
               b(2) = (  0.000000  1.079500  0.895611 )
               b(3) = (  0.000000  0.000000  1.791222 )

     PseudoPot. # 1 for Ag read from file:
     /lustre07/scratch/pragov/crystal_structure_design/utils/SSSP/Ag_ONCV_PBE-1.0.oncvpsp.upf
     MD5 check sum: 94f47bd0669c641108e45594df92fabc
     Pseudo is Norm-conserving, Zval = 19.0
     Generated using ONCVPSP code by D. R. Hamann
     Using radial grid of 1398 points,  6 beta functions with:
                l(1) =   0
                l(2) =   0
                l(3) =   1
                l(4) =   1
                l(5) =   2
                l(6) =   2

     PseudoPot. # 2 for Sb read from file:
     /lustre07/scratch/pragov/crystal_structure_design/utils/SSSP/sb_pbe_v1.4.uspp.F.UPF
     MD5 check sum: 9bc50dfb53373b713f5709b9110fe27f
     Pseudo is Ultrasoft + core correction, Zval = 15.0
     Generated by new atomic code, or converted to UPF format
     Using radial grid of  891 points,  6 beta functions with:
                l(1) =   0
                l(2) =   0
                l(3) =   1
                l(4) =   1
                l(5) =   2
                l(6) =   2
     Q(r) pseudized with  8 coefficients,  rinner =    1.350   1.350   1.350
                                                       1.350   1.350

     PseudoPot. # 3 for Pb read from file:
     /lustre07/scratch/pragov/crystal_structure_design/utils/SSSP/Pb.pbe-dn-kjpaw_psl.0.2.2.UPF
     MD5 check sum: 9d431e6316058b74ade52399a6cf67da
     Pseudo is Projector augmented-wave + core cor, Zval = 14.0
     Generated using "atomic" code by A. Dal Corso  v.5.0.99 svn rev. 10869
     Shape of augmentation charge: PSQ
     Using radial grid of 1281 points,  6 beta functions with:
                l(1) =   0
                l(2) =   0
                l(3) =   1
                l(4) =   1
                l(5) =   2
                l(6) =   2
     Q(r) pseudized with 0 coefficients

     PseudoPot. # 4 for S  read from file:
     /lustre07/scratch/pragov/crystal_structure_design/utils/SSSP/s_pbe_v1.4.uspp.F.UPF
     MD5 check sum: 88d86576ff6df21479756cfb9bdac1df
     Pseudo is Ultrasoft + core correction, Zval =  6.0
     Generated by new atomic code, or converted to UPF format
     Using radial grid of  907 points,  6 beta functions with:
                l(1) =   0
                l(2) =   0
                l(3) =   1
                l(4) =   1
                l(5) =   2
                l(6) =   2
     Q(r) pseudized with  8 coefficients,  rinner =    1.300   1.300   1.300
                                                       1.300   1.300

     atomic species   valence    mass     pseudopotential
        Ag            19.00   107.86820     Ag( 1.00)
        Sb            15.00   121.76000     Sb( 1.00)
        Pb            14.00   207.20000     Pb( 1.00)
        S              6.00    32.06000     S ( 1.00)

      4 Sym. Ops., with inversion, found

                                    s                        frac. trans.

      isym =  1     identity

 cryst.   s( 1) = (     1          0          0      )
                  (     0          1          0      )
                  (     0          0          1      )

 cart.    s( 1) = (  1.0000000  0.0000000  0.0000000 )
                  (  0.0000000  1.0000000  0.0000000 )
                  (  0.0000000  0.0000000  1.0000000 )

      isym =  2     180 deg rotation - cart. axis [0,0,1]

[...]

      isym =  3     inversion

[...]

      isym =  4     inv. 180 deg rotation - cart. axis [0,0,1]

 cryst.   s( 4) = (     1          0          0      )
                  (     0          1          0      )
                  (    -1         -1         -1      )

 cart.    s( 4) = (  1.0000000  0.0000000  0.0000000 )
                  (  0.0000000  1.0000000  0.0000000 )
                  (  0.0000000  0.0000000 -1.0000000 )

   Cartesian axes

     site n.     atom                  positions (alat units)
         1           Ag  tau(   1) = (   0.0000000   0.0000000   0.0000000  )
         2           Sb  tau(   2) = (   0.6883257   0.4631775   0.0000000  )
         3           Pb  tau(   3) = (   0.1883257   0.4631775   0.2791390  )
         4           Pb  tau(   4) = (   0.5000000   0.0000000   0.2791390  )
         5           S   tau(   5) = (  -0.1558372   0.2315888   0.2791390  )
         6           S   tau(   6) = (   0.3792303   0.2551858   0.0000000  )
         7           S   tau(   7) = (   0.1558372  -0.2315888   0.2791390  )
         8           S   tau(   8) = (   0.9974211   0.6711693   0.0000000  )

   Crystallographic axes

     site n.     atom                  positions (cryst. coord.)
         1           Ag  tau(   1) = (  0.0000000  0.0000000  0.0000000  )
         2           Sb  tau(   2) = (  0.5000000  0.5000000  0.0000000  )
         3           Pb  tau(   3) = (  0.2500000  0.7500000  0.5000000  )
         4           Pb  tau(   4) = (  0.7500000  0.2500000  0.5000000  )
         5           S   tau(   5) = ( -0.0000000  0.5000000  0.5000000  )
         6           S   tau(   6) = (  0.2754730  0.2754730  0.0000000  )
         7           S   tau(   7) = (  0.5000000  0.0000000  0.5000000  )
         8           S   tau(   8) = (  0.7245270  0.7245270  0.0000000  )

     number of k points=    10
                       cart. coord. in units 2pi/alat
        k(    1) = (   0.0000000   0.0000000   0.0000000), wk =   0.0740741
        k(    2) = (   0.0000000   0.0000000   0.5970741), wk =   0.1481481
        k(    3) = (   0.0000000   0.3598332   0.2985371), wk =   0.2962963
        k(    4) = (   0.0000000   0.3598332   0.8956112), wk =   0.1481481
        k(    5) = (   0.3333333  -0.1355317   0.2985371), wk =   0.2962963
        k(    6) = (   0.3333333  -0.1355317   0.8956112), wk =   0.1481481
        k(    7) = (   0.3333333   0.2243015   0.5970741), wk =   0.2962963
        k(    8) = (   0.3333333   0.2243015   0.0000000), wk =   0.1481481
        k(    9) = (   0.3333333  -0.4953649  -0.0000000), wk =   0.1481481
        k(   10) = (   0.3333333  -0.4953649   0.5970741), wk =   0.2962963

                       cryst. coord.
        k(    1) = (   0.0000000   0.0000000   0.0000000), wk =   0.0740741
        k(    2) = (   0.0000000   0.0000000   0.3333333), wk =   0.1481481
        k(    3) = (   0.0000000   0.3333333   0.0000000), wk =   0.2962963
        k(    4) = (   0.0000000   0.3333333   0.3333333), wk =   0.1481481
        k(    5) = (   0.3333333   0.0000000  -0.0000000), wk =   0.2962963
        k(    6) = (   0.3333333   0.0000000   0.3333333), wk =   0.1481481
        k(    7) = (   0.3333333   0.3333333  -0.0000000), wk =   0.2962963
        k(    8) = (   0.3333333   0.3333333  -0.3333333), wk =   0.1481481
        k(    9) = (   0.3333333  -0.3333333  -0.0000000), wk =   0.1481481
        k(   10) = (   0.3333333  -0.3333333   0.3333333), wk =   0.2962963

     Check: negative core charge=   -0.000002

     Initial potential from superposition of free atoms

     starting charge      84.9948, renormalised to      86.0000
     Starting wfcs are   53 randomized atomic wfcs +   11 random wfcs
     Checking if some PAW data can be deallocated...

     Self-consistent Calculation

     iteration #  1     ecut=    30.00 Ry     beta= 0.70
     Davidson diagonalization with overlap

     ethr =  1.00E-02,  avg # of iterations =  6.5

     Threshold (ethr) on eigenvalues was too large:
     Diagonalizing with lowered threshold

     Davidson diagonalization with overlap

[...]

     total energy              =   -2309.41691064 Ry
     estimated scf accuracy    <       0.62081449 Ry

[...]

     c_bands:  1 eigenvalues not converged
     c_bands:  1 eigenvalues not converged
     ethr =  2.06E-05,  avg # of iterations = 10.3

[...]

     total energy              =   -2309.68168221 Ry
     estimated scf accuracy    <       0.00000307 Ry

     iteration #  8     ecut=    30.00 Ry     beta= 0.70
     Davidson diagonalization with overlap

     ethr =  3.57E-09,  avg # of iterations =  5.3

     End of self-consistent calculation

          k = 0.0000 0.0000 0.0000 (  3691 PWs)   bands (ev):

   -83.5534 -46.5981 -46.5848 -46.5848 -21.3792 -21.3716 -21.3701 -21.3701
   -21.3696  -8.2233  -8.1613  -8.0938  -8.0627  -8.0627  -8.0564  -8.0433
    -8.0433  -8.0403  -7.9906  -5.2707  -3.6224  -3.5711  -3.4559  -0.0785
     0.8420   2.5058   3.3567   3.6300   3.6300   3.8471   3.8471   5.2126
     5.2363   5.3773   5.3773   5.4322   5.5981   5.5981   6.3047   6.5339
     6.5339   7.0773   7.4697   9.7759  10.8170  10.8174  12.4953  12.4953
    12.8942  13.8165  13.8165  14.1426  14.3644  14.3644  14.5727  14.5727
    15.4750  15.7216  15.7218  15.7218  17.5601  17.6998  17.7090  17.9273

     occupation numbers
     1.0000   1.0000   1.0000   1.0000   1.0000   1.0000   1.0000   1.0000
     1.0000   1.0000   1.0000   1.0000   1.0000   1.0000   1.0000   1.0000
     1.0000   1.0000   1.0000   1.0000   1.0000   1.0000   1.0000   1.0000
     1.0000   1.0000   1.0000   1.0000   1.0000   1.0000   1.0000   1.0000
     1.0000   1.0000   1.0000   1.0000   1.0000   1.0000   1.0000   1.0000
     1.0000   1.0000   1.0000   0.0000   0.0000   0.0000   0.0000   0.0000
     0.0000   0.0000   0.0000   0.0000   0.0000   0.0000   0.0000   0.0000
     0.0000   0.0000   0.0000   0.0000   0.0000   0.0000   0.0000   0.0000

[...]

          k = 0.3333-0.4954 0.5971 (  3740 PWs)   bands (ev):

   -83.5535 -46.6024 -46.5889 -46.5854 -21.3804 -21.3802 -21.3791 -21.3768
   -21.3720  -8.1653  -8.1195  -8.0884  -8.0694  -8.0674  -8.0572  -8.0567
    -8.0498  -8.0487  -8.0177  -4.5029  -4.3716  -3.8802  -3.4548  -0.1978
     0.8229   0.9995   3.3034   4.1985   4.2682   4.7762   4.9651   4.9714
     5.0759   5.3957   5.4304   5.5198   5.6122   6.0698   6.3140   6.6313
     6.6871   7.2498   7.8344   9.7220  10.7196  10.8078  11.2893  11.8792
    12.1834  12.5746  12.6392  13.1354  13.6470  13.8937  14.2651  14.7947
    15.5453  16.1030  16.1944  17.4682  17.8799  18.1029  18.3327  18.7675

     occupation numbers
     1.0000   1.0000   1.0000   1.0000   1.0000   1.0000   1.0000   1.0000
     1.0000   1.0000   1.0000   1.0000   1.0000   1.0000   1.0000   1.0000
     1.0000   1.0000   1.0000   1.0000   1.0000   1.0000   1.0000   1.0000
     1.0000   1.0000   1.0000   1.0000   1.0000   1.0000   1.0000   1.0000
     1.0000   1.0000   1.0000   1.0000   1.0000   1.0000   1.0000   1.0000
     1.0000   1.0000   1.0000   0.0000   0.0000   0.0000   0.0000   0.0000
     0.0000   0.0000   0.0000   0.0000   0.0000   0.0000   0.0000   0.0000
     0.0000   0.0000   0.0000   0.0000   0.0000   0.0000   0.0000   0.0000

     highest occupied, lowest unoccupied level (ev):     7.9658    9.3972

!    total energy              =   -2309.68168460 Ry
     estimated scf accuracy    <       0.00000044 Ry

     The total energy is the sum of the following terms:
     one-electron contribution =    -342.39484348 Ry
     hartree contribution      =     218.51291793 Ry
     xc contribution           =    -193.51599342 Ry
     ewald contribution        =    -535.31949386 Ry
     one-center paw contrib.   =   -1456.96427177 Ry
      -> PAW hartree energy AE =       0.00000000 Ry
      -> PAW hartree energy PS =       0.00000000 Ry
      -> PAW xc energy AE      =       0.00000000 Ry
      -> PAW xc energy PS      =       0.00000000 Ry
      -> total E_H with PAW    =     218.51291793 Ry
      -> total E_XC with PAW   =    -193.51599342 Ry

     convergence has been achieved in   8 iterations

     Writing all to output data dir bands_nm/myprefix.save/

     General routines

     Parallel routines

     PAW routines

   This run was terminated on:  21: 5:32  14Jul2023

   JOB DONE.