     Program PWSCF v.7.1 starts on 15Jul2023 at 19: 0:10

     Reading input from espresso_1257.pwi
Warning: card &CELL ignored
Warning: card / ignored

     Current dimensions of program PWSCF are:
     Max number of different atomic species (ntypx) = 10
     Max number of k-points (npk) =  40000
     Max angular momentum in pseudopotentials (lmaxx) =  4
     file La.paw.z_11.atompaw.wentzcovitch.v1.2.upf: wavefunction(s)  6S 0P 5D 0D 4F 0F renormalized
     file O.pbe-n-kjpaw_psl.0.1.UPF: wavefunction(s)  2P renormalized
     Message from routine setup:
     using ibrav=0 with symmetry is DISCOURAGED, use correct ibrav instead

     K-points division:     npool     =       2
     R & G space division:  proc/nbgrp/npool/nimage =       4
     Subspace diagonalization in iterative solution of the eigenvalue problem:
     one sub-group per band group will be used

     Using Slab Decomposition

     bravais-lattice index     =            0
     lattice parameter (alat)  =      14.3676  a.u.
     unit-cell volume          =    1770.2448 (a.u.)^3
     number of atoms/cell      =           18
     number of atomic types    =            3
     number of electrons       =       144.00
     number of Kohn-Sham states=          256
     kinetic-energy cutoff     =      30.0000  Ry
     charge density cutoff     =     240.0000  Ry
     scf convergence threshold =      1.0E-06
     mixing beta               =       0.7000
     number of iterations used =            8  plain     mixing
     Exchange-correlation= SLA  PW   PBX  PBC
                           (   1   4   3   4   0   0   0)

     celldm(1)=  14.367588  celldm(2)=   0.000000  celldm(3)=   0.000000
     celldm(4)=   0.000000  celldm(5)=   0.000000  celldm(6)=   0.000000

     crystal axes: (cart. coord. in units of alat)
               a(1) = (   1.000000   0.000000   0.000000 )
               a(2) = (   0.829620   0.558328   0.000000 )
               a(3) = (   0.319090   0.097374   1.069036 )

     reciprocal axes: (cart. coord. in units 2 pi/alat)
               b(1) = (  1.000000 -1.485901 -0.163140 )
               b(2) = (  0.000000  1.791061 -0.163140 )
               b(3) = (  0.000000  0.000000  0.935422 )

     PseudoPot. # 1 for La read from file:
     /lustre07/scratch/pragov/crystal_structure_design/utils/SSSP/La.paw.z_11.atompaw.wentzcovitch.v1.2.upf
     MD5 check sum: 754494e15ae71f30e5b5f678af019e01
     Pseudo is Projector augmented-wave + core cor, Zval = 11.0
     Generated using ATOMPAW code
     Shape of augmentation charge: BESSEL
     Using radial grid of 1101 points,  8 beta functions with:
                l(1) =   0
                l(2) =   0
                l(3) =   1
                l(4) =   1
                l(5) =   2
                l(6) =   2
                l(7) =   3
                l(8) =   3
     Q(r) pseudized with 0 coefficients

     PseudoPot. # 2 for Cr read from file:
     /lustre07/scratch/pragov/crystal_structure_design/utils/SSSP/cr_pbe_v1.5.uspp.F.UPF
     MD5 check sum: 0d52af634a40206e4dee301ad30da4bf
     Pseudo is Ultrasoft + core correction, Zval = 14.0
     Generated by new atomic code, or converted to UPF format
     Using radial grid of  857 points,  6 beta functions with:
                l(1) =   0
                l(2) =   0
                l(3) =   1
                l(4) =   1
                l(5) =   2
                l(6) =   2
     Q(r) pseudized with  8 coefficients,  rinner =    0.950   0.950   0.950
                                                       0.950   0.950

     PseudoPot. # 3 for O  read from file:
     /lustre07/scratch/pragov/crystal_structure_design/utils/SSSP/O.pbe-n-kjpaw_psl.0.1.UPF
     MD5 check sum: 0234752ac141de4415c5fc33072bef88
     Pseudo is Projector augmented-wave + core cor, Zval =  6.0
     Generated using "atomic" code by A. Dal Corso  v.5.0.99 svn rev. 10869
     Shape of augmentation charge: BESSEL
     Using radial grid of 1095 points,  4 beta functions with:
                l(1) =   0
                l(2) =   0
                l(3) =   1
                l(4) =   1
     Q(r) pseudized with 0 coefficients

     atomic species   valence    mass     pseudopotential
        La            11.00   138.90547     La( 1.00)
        Cr            14.00    51.99610     Cr( 1.00)
        O              6.00    15.99900     O ( 1.00)

      2 Sym. Ops., with inversion, found

                                    s                        frac. trans.

      isym =  1     identity

 cryst.   s( 1) = (     1          0          0      )
                  (     0          1          0      )
                  (     0          0          1      )

 cart.    s( 1) = (  1.0000000  0.0000000 -0.0000000 )
                  (  0.0000000  1.0000000 -0.0000000 )
                  (  0.0000000  0.0000000  1.0000000 )

      isym =  2     inversion

 cryst.   s( 2) = (    -1          0          0      )
                  (     0         -1          0      )
                  (     0          0         -1      )

 cart.    s( 2) = ( -1.0000000  0.0000000  0.0000000 )
                  (  0.0000000 -1.0000000  0.0000000 )
                  (  0.0000000  0.0000000 -1.0000000 )

   Cartesian axes

     site n.     atom                  positions (alat units)
         1           La  tau(   1) = (   1.5197605   0.4600006   0.9780886  )
         2           La  tau(   2) = (   0.7906002   0.2374895   0.6254650  )
         3           La  tau(   3) = (   1.3581102   0.4182124   0.4435707  )
         4           La  tau(   4) = (   0.6289499   0.1957013   0.0909471  )
         5           Cr  tau(   5) = (   1.2318978   0.0973450   0.8017768  )
         6           Cr  tau(   6) = (   0.9168126   0.5583569   0.2672589  )
         7           O   tau(   7) = (   1.4186345   0.4458606   0.1306843  )
         8           O   tau(   8) = (   0.9061972   0.4190925   0.0980284  )
         9           O   tau(   9) = (   1.2625853   0.5887084   0.7497672  )
        10           O   tau(  10) = (   0.8861251   0.0669935   0.3192686  )
        11           O   tau(  11) = (   0.5633009   0.1848465   0.4038336  )
        12           O   tau(  12) = (   1.0033747   0.4487472   0.4364894  )
        13           O   tau(  13) = (   1.5854095   0.4708554   0.6652022  )
        14           O   tau(  14) = (   1.2425132   0.2366095   0.9710073  )
        15           O   tau(  15) = (   0.7300759   0.2098413   0.9383515  )
        16           O   tau(  16) = (   1.1453357   0.2069547   0.6325463  )
        17           O   tau(  17) = (   1.2166136   0.1678456   0.2152493  )
        18           O   tau(  18) = (   0.9320968   0.4878563   0.8537865  )

   Crystallographic axes

     site n.     atom                  positions (cryst. coord.)
         1           La  tau(   1) = (  0.6766800  0.6643240  0.9149260  )
         2           La  tau(   2) = (  0.3356760  0.3233200  0.5850740  )
         3           La  tau(   3) = (  0.6643240  0.6766800  0.4149260  )
         4           La  tau(   4) = (  0.3233200  0.3356760  0.0850740  )
         5           Cr  tau(   5) = (  0.9564510  0.0435490  0.7500000  )
         6           Cr  tau(   6) = (  0.0435490  0.9564510  0.2500000  )
         7           O   tau(   7) = (  0.7348100  0.7772440  0.1222450  )
         8           O   tau(   8) = (  0.2674750  0.7346280  0.0916980  )
         9           O   tau(   9) = (  0.2655060  0.9320960  0.7013490  )
        10           O   tau(  10) = (  0.7344940  0.0679040  0.2986510  )
        11           O   tau(  11) = (  0.2227560  0.2651900  0.3777550  )
        12           O   tau(  12) = (  0.2653720  0.7325250  0.4083020  )
        13           O   tau(  13) = (  0.7772440  0.7348100  0.6222450  )
        14           O   tau(  14) = (  0.7325250  0.2653720  0.9083020  )
        15           O   tau(  15) = (  0.2651900  0.2227560  0.8777550  )
        16           O   tau(  16) = (  0.7346280  0.2674750  0.5916980  )
        17           O   tau(  17) = (  0.9320960  0.2655060  0.2013490  )
        18           O   tau(  18) = (  0.0679040  0.7344940  0.7986510  )

     number of k points=    14
                       cart. coord. in units 2pi/alat
        k(    1) = (   0.0000000   0.0000000   0.0000000), wk =   0.0740741
        k(    2) = (   0.0000000   0.0000000   0.3118075), wk =   0.1481481
        k(    3) = (   0.0000000   0.5970205  -0.0543800), wk =   0.1481481
        k(    4) = (   0.0000000   0.5970205   0.2574275), wk =   0.1481481
        k(    5) = (   0.0000000   0.5970205  -0.3661874), wk =   0.1481481
        k(    6) = (   0.3333333  -0.4953003  -0.0543800), wk =   0.1481481
        k(    7) = (   0.3333333  -0.4953003   0.2574275), wk =   0.1481481
        k(    8) = (   0.3333333  -0.4953003  -0.3661874), wk =   0.1481481
        k(    9) = (   0.3333333   0.1017202  -0.1087600), wk =   0.1481481
        k(   10) = (   0.3333333   0.1017202   0.2030475), wk =   0.1481481
        k(   11) = (   0.3333333   0.1017202  -0.4205674), wk =   0.1481481
        k(   12) = (   0.3333333  -1.0923208   0.0000000), wk =   0.1481481
        k(   13) = (   0.3333333  -1.0923208   0.3118075), wk =   0.1481481
        k(   14) = (   0.3333333  -1.0923208  -0.3118075), wk =   0.1481481

                       cryst. coord.
        k(    1) = (   0.0000000   0.0000000   0.0000000), wk =   0.0740741
        k(    2) = (   0.0000000   0.0000000   0.3333333), wk =   0.1481481
        k(    3) = (   0.0000000   0.3333333  -0.0000000), wk =   0.1481481
        k(    4) = (   0.0000000   0.3333333   0.3333333), wk =   0.1481481
        k(    5) = (   0.0000000   0.3333333  -0.3333333), wk =   0.1481481
        k(    6) = (   0.3333333  -0.0000000  -0.0000000), wk =   0.1481481
        k(    7) = (   0.3333333  -0.0000000   0.3333333), wk =   0.1481481
        k(    8) = (   0.3333333  -0.0000000  -0.3333333), wk =   0.1481481
        k(    9) = (   0.3333333   0.3333333   0.0000000), wk =   0.1481481
        k(   10) = (   0.3333333   0.3333333   0.3333333), wk =   0.1481481
        k(   11) = (   0.3333333   0.3333333  -0.3333333), wk =   0.1481481
        k(   12) = (   0.3333333  -0.3333333   0.0000000), wk =   0.1481481
        k(   13) = (   0.3333333  -0.3333333   0.3333333), wk =   0.1481481
        k(   14) = (   0.3333333  -0.3333333  -0.3333333), wk =   0.1481481

     Check: negative core charge=   -0.000014

     Initial potential from superposition of free atoms

     starting charge     141.9658, renormalised to     144.0000

     negative rho (up, down):  3.585E-03 0.000E+00
     Starting wfcs are  196 randomized atomic wfcs +   60 random wfcs
     Checking if some PAW data can be deallocated...

     Self-consistent Calculation

     iteration #  1     ecut=    30.00 Ry     beta= 0.70
     Davidson diagonalization with overlap

     ethr =  1.00E-02,  avg # of iterations =  6.0

     negative rho (up, down):  1.003E-02 0.000E+00

     total energy              =   -2682.26353112 Ry
     estimated scf accuracy    <       4.80783181 Ry

[...]

     total energy              =   -2685.14441324 Ry
     estimated scf accuracy    <       0.00000100 Ry

     iteration # 16     ecut=    30.00 Ry     beta= 0.70
     Davidson diagonalization with overlap

     ethr =  6.96E-10,  avg # of iterations =  1.0

     negative rho (up, down):  6.274E-03 0.000E+00

     End of self-consistent calculation

          k = 0.0000 0.0000 0.0000 (  4887 PWs)   bands (ev):

   -64.6906 -64.6904 -36.1254 -36.1252 -36.0822 -36.0793 -36.0524 -36.0489
   -21.9565 -21.8367 -21.8349 -21.7732  -9.8653  -9.6149  -9.4055  -9.2018
    -9.0824  -9.0226  -8.9071  -8.8431  -8.3783  -8.3713  -8.2365  -7.5273
    -5.8261  -5.8087  -5.6225  -5.5654  -5.4973  -5.3889  -5.3337  -5.3188
    -5.2964  -4.4336  -4.3958  -4.3372   3.2163   3.5128   3.5168   3.6612
     3.6618   3.6953   3.7147   4.0041   4.1226   4.3995   4.5840   5.0819
     5.1775   5.1823   5.5239   5.5563   5.6476   6.0715   6.0828   6.1774
     6.2246   6.4429   6.5310   6.6011   6.7035   6.7539   6.7964   7.0505
     7.0886   7.1506   7.1948   7.3567   7.3607   7.4909   7.7257   7.7301
     9.8903   9.9253  10.0344  10.0873  11.3279  11.6343  11.7070  11.7186
    11.7395  11.8575  12.6383  12.7326  12.8181  12.9662  12.9670  12.9837
    12.9837  13.0015  13.0361  13.0374  13.0863  13.0897  13.1007  13.1073
    13.1239  13.1301  13.1756  13.1880  13.1979  13.2572  13.2583  13.2735
    13.3151  13.3192  13.4121  13.4154  13.4219  13.4631  13.9830  14.0154
    14.2940  14.5715  14.7491  15.0792  15.1777  15.2590  15.3098  15.7746
    15.8316  15.9111  16.3087  16.4416  16.4484  16.6474  16.8488  16.9140
    17.1651  17.2549  17.6077  18.5587  18.6110  18.7694  18.9960  19.1382
    20.5373  21.2437  22.0663  22.2842  22.3955  22.6541  22.6544  22.9077
    23.2083  23.2982  23.7563  23.8902  24.0523  24.1307  24.7896  25.0096
    25.2975  25.3678  25.5678  25.8152  25.9710  26.1606  26.6429  27.1011
    27.2340  27.3852  27.6220  28.1152  28.2015  28.2913  28.3485  28.5296
    28.5785  29.0865  29.5204  29.7179  29.8444  29.8499  30.0067  30.2371
    30.3769  30.9286  31.1296  31.2089  31.6270  31.6904  31.9942  32.1404
    32.5595  32.8355  33.1789  33.1943  33.2308  33.4266  33.5480  33.9437
    34.1656  34.2388  34.3645  34.3762  34.8107  34.9231  34.9783  35.0695
    35.1805  35.5984  35.7892  35.8363  36.3465  36.3848  36.5103  36.6095
    37.0786  37.1150  37.2562  37.4486  37.5551  37.6309  37.8997  38.0484
    38.3715  38.4824  38.6324  38.9133  38.9245  38.9470  39.0603  39.2912
    39.4095  39.5011  39.5987  40.0791  40.0884  40.3800  40.6068  40.7731
    40.8585  41.0707  41.2669  41.3538  41.4951  41.4970  42.2172  42.3872
    42.4788  42.5442  42.6294  42.8679  43.0078  43.0580  43.2698  43.3486
    43.6855  43.7323  43.7637  43.9663  44.0360  44.1936  44.3187  44.4466

     occupation numbers
     1.0000   1.0000   1.0000   1.0000   1.0000   1.0000   1.0000   1.0000
     1.0000   1.0000   1.0000   1.0000   1.0000   1.0000   1.0000   1.0000
     1.0000   1.0000   1.0000   1.0000   1.0000   1.0000   1.0000   1.0000
     1.0000   1.0000   1.0000   1.0000   1.0000   1.0000   1.0000   1.0000
     1.0000   1.0000   1.0000   1.0000   1.0000   1.0000   1.0000   1.0000
     1.0000   1.0000   1.0000   1.0000   1.0000   1.0000   1.0000   1.0000
     1.0000   1.0000   1.0000   1.0000   1.0000   1.0000   1.0000   1.0000
     1.0000   1.0000   1.0000   1.0000   1.0000   1.0000   1.0000   1.0000
     1.0000   1.0000   1.0000   1.0000   1.0000   1.0000   1.0000   1.0000
     0.0000   0.0000   0.0000   0.0000   0.0000   0.0000   0.0000   0.0000
     0.0000   0.0000   0.0000   0.0000   0.0000   0.0000   0.0000   0.0000
     0.0000   0.0000   0.0000   0.0000   0.0000   0.0000   0.0000   0.0000
     0.0000   0.0000   0.0000   0.0000   0.0000   0.0000   0.0000   0.0000
     0.0000   0.0000   0.0000   0.0000   0.0000   0.0000   0.0000   0.0000
     0.0000   0.0000   0.0000   0.0000   0.0000   0.0000   0.0000   0.0000
     0.0000   0.0000   0.0000   0.0000   0.0000   0.0000   0.0000   0.0000
     0.0000   0.0000   0.0000   0.0000   0.0000   0.0000   0.0000   0.0000
     0.0000   0.0000   0.0000   0.0000   0.0000   0.0000   0.0000   0.0000
     0.0000   0.0000   0.0000   0.0000   0.0000   0.0000   0.0000   0.0000
     0.0000   0.0000   0.0000   0.0000   0.0000   0.0000   0.0000   0.0000
     0.0000   0.0000   0.0000   0.0000   0.0000   0.0000   0.0000   0.0000
     0.0000   0.0000   0.0000   0.0000   0.0000   0.0000   0.0000   0.0000
     0.0000   0.0000   0.0000   0.0000   0.0000   0.0000   0.0000   0.0000
     0.0000   0.0000   0.0000   0.0000   0.0000   0.0000   0.0000   0.0000
     0.0000   0.0000   0.0000   0.0000   0.0000   0.0000   0.0000   0.0000
     0.0000   0.0000   0.0000   0.0000   0.0000   0.0000   0.0000   0.0000
     0.0000   0.0000   0.0000   0.0000   0.0000   0.0000   0.0000   0.0000
     0.0000   0.0000   0.0000   0.0000   0.0000   0.0000   0.0000   0.0000
     0.0000   0.0000   0.0000   0.0000   0.0000   0.0000   0.0000   0.0000
     0.0000   0.0000   0.0000   0.0000   0.0000   0.0000   0.0000   0.0000
     0.0000   0.0000   0.0000   0.0000   0.0000   0.0000   0.0000   0.0000
     0.0000   0.0000   0.0000   0.0000   0.0000   0.0000   0.0000   0.0000

[...]

          k = 0.3333-1.0923-0.3118 (  4907 PWs)   bands (ev):

   -64.6907 -64.6906 -36.1259 -36.1256 -36.0826 -36.0806 -36.0521 -36.0517
   -21.8798 -21.8497 -21.8067 -21.8061  -9.6726  -9.5241  -9.2870  -9.2453
    -9.1650  -9.0838  -9.0814  -9.0052  -8.6939  -8.6548  -8.4445  -8.3471
    -5.7251  -5.6813  -5.5686  -5.5519  -5.4417  -5.4117  -5.2904  -5.2225
    -4.5116  -4.1606  -4.0662  -3.9042   3.2708   3.4074   3.5826   3.6182
     3.6497   3.7681   3.8311   3.8879   4.1465   4.3723   4.4429   4.7461
     5.0525   5.1197   5.2037   5.4171   5.7651   5.8917   6.1936   6.3076
     6.4061   6.5294   6.5633   6.5958   6.7936   6.8748   6.9032   6.9882
     7.0205   7.0696   7.1057   7.2064   7.4828   7.6362   7.7802   7.8622
     9.9208   9.9562  10.2302  10.2813  11.3783  11.4786  11.5626  11.6029
    11.8012  12.0086  12.8158  12.8356  12.9272  12.9411  12.9415  12.9584
    13.0063  13.0368  13.0700  13.0852  13.0981  13.1079  13.1515  13.1630
    13.1708  13.1872  13.1919  13.2083  13.2344  13.2436  13.2710  13.2852
    13.2942  13.3093  13.3120  13.3925  13.4425  13.4671  14.0744  14.2155
    14.4831  14.6526  14.8297  15.1092  15.1802  15.2188  15.6066  15.6328
    15.8560  15.9001  15.9486  15.9994  16.2899  16.4293  16.7077  16.7577
    16.9664  17.3211  17.5581  17.7949  18.1384  19.1681  19.8318  20.4365
    20.5872  21.2273  21.3714  21.7032  22.1803  22.3439  22.4587  22.7680
    22.9404  23.3989  23.4154  23.5287  23.9340  24.0255  24.3682  24.5654
    24.9293  25.0596  25.4415  25.9253  26.2588  26.4288  26.5030  26.8712
    27.2250  27.3378  27.5959  27.6982  27.8813  28.0486  28.3989  28.6060
    28.8249  28.9700  29.3239  29.5183  29.6053  29.9242  30.1670  30.4262
    30.5974  30.7778  30.8991  31.1550  31.2943  31.5520  31.6254  31.8819
    32.2355  32.3359  32.5969  32.9256  33.0675  33.3678  33.6312  33.8656
    34.1295  34.1760  34.3679  34.6148  34.8060  34.9251  35.0949  35.2991
    35.5455  35.7024  35.9796  36.0491  36.1257  36.4454  36.4878  36.8489
    36.9792  37.1571  37.2482  37.3700  37.4322  38.0035  38.0891  38.1566
    38.4575  38.5660  38.6662  38.9010  39.0968  39.3204  39.4046  39.5226
    39.5922  39.8401  40.0367  40.1106  40.1733  40.3856  40.4981  40.6556
    40.7284  40.9271  41.2523  41.5807  41.5832  41.7998  41.9175  42.1746
    42.4140  42.5147  42.6715  42.7786  42.8912  43.0821  43.1895  43.2585
    43.5980  43.7590  43.9310  44.0641  44.1509  44.2763  44.5757  44.9193

     occupation numbers
     1.0000   1.0000   1.0000   1.0000   1.0000   1.0000   1.0000   1.0000
     1.0000   1.0000   1.0000   1.0000   1.0000   1.0000   1.0000   1.0000
     1.0000   1.0000   1.0000   1.0000   1.0000   1.0000   1.0000   1.0000
     1.0000   1.0000   1.0000   1.0000   1.0000   1.0000   1.0000   1.0000
     1.0000   1.0000   1.0000   1.0000   1.0000   1.0000   1.0000   1.0000
     1.0000   1.0000   1.0000   1.0000   1.0000   1.0000   1.0000   1.0000
     1.0000   1.0000   1.0000   1.0000   1.0000   1.0000   1.0000   1.0000
     1.0000   1.0000   1.0000   1.0000   1.0000   1.0000   1.0000   1.0000
     1.0000   1.0000   1.0000   1.0000   1.0000   1.0000   1.0000   1.0000
     0.0000   0.0000   0.0000   0.0000   0.0000   0.0000   0.0000   0.0000
     0.0000   0.0000   0.0000   0.0000   0.0000   0.0000   0.0000   0.0000
     0.0000   0.0000   0.0000   0.0000   0.0000   0.0000   0.0000   0.0000
     0.0000   0.0000   0.0000   0.0000   0.0000   0.0000   0.0000   0.0000
     0.0000   0.0000   0.0000   0.0000   0.0000   0.0000   0.0000   0.0000
     0.0000   0.0000   0.0000   0.0000   0.0000   0.0000   0.0000   0.0000
     0.0000   0.0000   0.0000   0.0000   0.0000   0.0000   0.0000   0.0000
     0.0000   0.0000   0.0000   0.0000   0.0000   0.0000   0.0000   0.0000
     0.0000   0.0000   0.0000   0.0000   0.0000   0.0000   0.0000   0.0000
     0.0000   0.0000   0.0000   0.0000   0.0000   0.0000   0.0000   0.0000
     0.0000   0.0000   0.0000   0.0000   0.0000   0.0000   0.0000   0.0000
     0.0000   0.0000   0.0000   0.0000   0.0000   0.0000   0.0000   0.0000
     0.0000   0.0000   0.0000   0.0000   0.0000   0.0000   0.0000   0.0000
     0.0000   0.0000   0.0000   0.0000   0.0000   0.0000   0.0000   0.0000
     0.0000   0.0000   0.0000   0.0000   0.0000   0.0000   0.0000   0.0000
     0.0000   0.0000   0.0000   0.0000   0.0000   0.0000   0.0000   0.0000
     0.0000   0.0000   0.0000   0.0000   0.0000   0.0000   0.0000   0.0000
     0.0000   0.0000   0.0000   0.0000   0.0000   0.0000   0.0000   0.0000
     0.0000   0.0000   0.0000   0.0000   0.0000   0.0000   0.0000   0.0000
     0.0000   0.0000   0.0000   0.0000   0.0000   0.0000   0.0000   0.0000
     0.0000   0.0000   0.0000   0.0000   0.0000   0.0000   0.0000   0.0000
     0.0000   0.0000   0.0000   0.0000   0.0000   0.0000   0.0000   0.0000
     0.0000   0.0000   0.0000   0.0000   0.0000   0.0000   0.0000   0.0000

     highest occupied, lowest unoccupied level (ev):     7.8728    9.8749

!    total energy              =   -2685.14441319 Ry
     estimated scf accuracy    <       0.00000035 Ry

     The total energy is the sum of the following terms:
     one-electron contribution =    -396.57507617 Ry
     hartree contribution      =     281.45422503 Ry
     xc contribution           =    -186.38132744 Ry
     ewald contribution        =    -694.83858426 Ry
     one-center paw contrib.   =   -1688.80365035 Ry
      -> PAW hartree energy AE =     103.02302803 Ry
      -> PAW hartree energy PS =    -103.02961970 Ry
      -> PAW xc energy AE      =   -1215.92094558 Ry
      -> PAW xc energy PS      =      35.10013755 Ry
      -> total E_H with PAW    =     281.44763336 Ry
      -> total E_XC with PAW   =   -1367.20213547 Ry

     convergence has been achieved in  16 iterations

     Writing all to output data dir bands_nm/myprefix.save/

     General routines

     Parallel routines

     PAW routines

   This run was terminated on:  19: 2: 8  15Jul2023

   JOB DONE.