     Program PWSCF v.7.1 starts on 15Jul2023 at 20:38:13

     Reading input from espresso_1474.pwi
Warning: card &CELL ignored
Warning: card / ignored

     Current dimensions of program PWSCF are:
     Max number of different atomic species (ntypx) = 10
     Max number of k-points (npk) =  40000
     Max angular momentum in pseudopotentials (lmaxx) =  4
     file Yb.paw.z_24.atompaw.wentzcovitch.v1.2.upf: wavefunction(s)  6S 0P 5D 0D 4F 0F renormalized
     file C.pbe-n-kjpaw_psl.1.0.0.UPF: wavefunction(s)  2S 2P renormalized
     file O.pbe-n-kjpaw_psl.0.1.UPF: wavefunction(s)  2P renormalized
     Message from routine setup:
     using ibrav=0 with symmetry is DISCOURAGED, use correct ibrav instead

     K-points division:     npool     =       2
     R & G space division:  proc/nbgrp/npool/nimage =       4
     Subspace diagonalization in iterative solution of the eigenvalue problem:
     one sub-group per band group will be used

     Using Slab Decomposition

     bravais-lattice index     =            0
     lattice parameter (alat)  =       8.2599  a.u.
     unit-cell volume          =    1599.3189 (a.u.)^3
     number of atoms/cell      =           20
     number of atomic types    =            3
     number of electrons       =       184.00
     number of Kohn-Sham states=          256
     kinetic-energy cutoff     =      30.0000  Ry
     charge density cutoff     =     240.0000  Ry
     scf convergence threshold =      1.0E-06
     mixing beta               =       0.7000
     number of iterations used =            8  plain     mixing
     Exchange-correlation= SLA  PW   PBX  PBC
                           (   1   4   3   4   0   0   0)

     celldm(1)=   8.259944  celldm(2)=   0.000000  celldm(3)=   0.000000
     celldm(4)=   0.000000  celldm(5)=   0.000000  celldm(6)=   0.000000

     crystal axes: (cart. coord. in units of alat)
               a(1) = (   1.000000   0.000000   0.000000 )
               a(2) = (   0.000000   1.436480   0.000000 )
               a(3) = (   0.000000   0.000000   1.975624 )

     reciprocal axes: (cart. coord. in units 2 pi/alat)
               b(1) = (  1.000000  0.000000  0.000000 )
               b(2) = (  0.000000  0.696146  0.000000 )
               b(3) = (  0.000000  0.000000  0.506169 )

     PseudoPot. # 1 for Yb read from file:
     /lustre07/scratch/pragov/crystal_structure_design/utils/SSSP/Yb.paw.z_24.atompaw.wentzcovitch.v1.2.upf
     MD5 check sum: 2246be0c1287a90a9096a0c3416daab6
     Pseudo is Projector augmented-wave + core cor, Zval = 24.0
     Generated using ATOMPAW code
     Shape of augmentation charge: BESSEL
     Using radial grid of 1117 points,  8 beta functions with:
                l(1) =   0
                l(2) =   0
                l(3) =   1
                l(4) =   1
                l(5) =   2
                l(6) =   2
                l(7) =   3
                l(8) =   3
     Q(r) pseudized with 0 coefficients

     PseudoPot. # 2 for C  read from file:
     /lustre07/scratch/pragov/crystal_structure_design/utils/SSSP/C.pbe-n-kjpaw_psl.1.0.0.UPF
     MD5 check sum: 5d2aebdfa2cae82b50a7e79e9516da0f
     Pseudo is Projector augmented-wave + core cor, Zval =  4.0
     Generated using "atomic" code by A. Dal Corso  v.5.1
     Shape of augmentation charge: PSQ
     Using radial grid of 1073 points,  4 beta functions with:
                l(1) =   0
                l(2) =   0
                l(3) =   1
                l(4) =   1
     Q(r) pseudized with 0 coefficients

     PseudoPot. # 3 for O  read from file:
     /lustre07/scratch/pragov/crystal_structure_design/utils/SSSP/O.pbe-n-kjpaw_psl.0.1.UPF
     MD5 check sum: 0234752ac141de4415c5fc33072bef88
     Pseudo is Projector augmented-wave + core cor, Zval =  6.0
     Generated using "atomic" code by A. Dal Corso  v.5.0.99 svn rev. 10869
     Shape of augmentation charge: BESSEL
     Using radial grid of 1095 points,  4 beta functions with:
                l(1) =   0
                l(2) =   0
                l(3) =   1
                l(4) =   1
     Q(r) pseudized with 0 coefficients

     atomic species   valence    mass     pseudopotential
        Yb            24.00   173.05400     Yb( 1.00)
        C              4.00    12.01100     C ( 1.00)
        O              6.00    15.99900     O ( 1.00)

      8 Sym. Ops., with inversion, found ( 6 have fractional translation)

                                    s                        frac. trans.

      isym =  1     identity

 cryst.   s( 1) = (     1          0          0      )
                  (     0          1          0      )
                  (     0          0          1      )

 cart.    s( 1) = (  1.0000000  0.0000000  0.0000000 )
                  (  0.0000000  1.0000000  0.0000000 )
                  (  0.0000000  0.0000000  1.0000000 )

      isym =  2     180 deg rotation - cart. axis [0,0,1]

 cryst.   s( 2) = (    -1          0          0      )    f =(  0.0000000 )
                  (     0         -1          0      )       (  0.0000000 )
                  (     0          0          1      )       ( -0.5000000 )

 cart.    s( 2) = ( -1.0000000  0.0000000  0.0000000 )    f =(  0.0000000 )
                  (  0.0000000 -1.0000000  0.0000000 )       (  0.0000000 )
                  (  0.0000000  0.0000000  1.0000000 )       ( -0.9878118 )

[...]

      isym =  4     180 deg rotation - cart. axis [1,0,0]

[...]

      isym =  5     inversion

 cryst.   s( 5) = (    -1          0          0      )
                  (     0         -1          0      )
                  (     0          0         -1      )

 cart.    s( 5) = ( -1.0000000  0.0000000  0.0000000 )
                  (  0.0000000 -1.0000000  0.0000000 )
                  (  0.0000000  0.0000000 -1.0000000 )

      isym =  6     inv. 180 deg rotation - cart. axis [0,0,1]

[...]

      isym =  8     inv. 180 deg rotation - cart. axis [1,0,0]

 cryst.   s( 8) = (    -1          0          0      )    f =(  0.5000000 )
                  (     0          1          0      )       ( -0.5000000 )
                  (     0          0          1      )       (  0.0000000 )

 cart.    s( 8) = ( -1.0000000  0.0000000  0.0000000 )    f =(  0.5000000 )
                  (  0.0000000  1.0000000  0.0000000 )       ( -0.7182400 )
                  (  0.0000000  0.0000000  1.0000000 )       (  0.0000000 )

   Cartesian axes

     site n.     atom                  positions (alat units)
         1           Yb  tau(   1) = (   0.0000000   0.0000000   0.0000000  )
         2           Yb  tau(   2) = (   0.0000000   0.0000000   0.9878118  )
         3           Yb  tau(   3) = (   0.5000000   0.7182400   0.0000000  )
         4           Yb  tau(   4) = (   0.5000000   0.7182400   0.9878118  )
         5           C   tau(   5) = (   0.1113970   0.9271229   0.4939059  )
         6           C   tau(   6) = (   0.3886030   0.2088829   0.4939059  )
         7           C   tau(   7) = (   0.6113970   1.2275972   1.4817176  )
         8           C   tau(   8) = (   0.8886030   0.5093572   1.4817176  )
         9           O   tau(   9) = (   0.9757480   0.9503824   0.2298559  )
        10           O   tau(  10) = (   0.0242520   0.4860977   1.2176676  )
        11           O   tau(  11) = (   0.9757480   0.9503824   0.7579559  )
        12           O   tau(  12) = (   0.0242520   0.4860977   1.7457676  )
        13           O   tau(  13) = (   0.0964700   0.1605669   0.4939059  )
        14           O   tau(  14) = (   0.4035300   0.8788069   0.4939059  )
        15           O   tau(  15) = (   0.5242520   0.2321424   0.7579559  )
        16           O   tau(  16) = (   0.5242520   0.2321424   0.2298559  )
        17           O   tau(  17) = (   0.4757480   1.2043377   1.2176676  )
        18           O   tau(  18) = (   0.4757480   1.2043377   1.7457676  )
        19           O   tau(  19) = (   0.5964700   0.5576732   1.4817176  )
        20           O   tau(  20) = (   0.9035300   1.2759132   1.4817176  )

   Crystallographic axes

     site n.     atom                  positions (cryst. coord.)
         1           Yb  tau(   1) = (  0.0000000  0.0000000  0.0000000  )
         2           Yb  tau(   2) = (  0.0000000  0.0000000  0.5000000  )
         3           Yb  tau(   3) = (  0.5000000  0.5000000  0.0000000  )
         4           Yb  tau(   4) = (  0.5000000  0.5000000  0.5000000  )
         5           C   tau(   5) = (  0.1113970  0.6454130  0.2500000  )
         6           C   tau(   6) = (  0.3886030  0.1454130  0.2500000  )
         7           C   tau(   7) = (  0.6113970  0.8545870  0.7500000  )
         8           C   tau(   8) = (  0.8886030  0.3545870  0.7500000  )
         9           O   tau(   9) = (  0.9757480  0.6616050  0.1163460  )
        10           O   tau(  10) = (  0.0242520  0.3383950  0.6163460  )
        11           O   tau(  11) = (  0.9757480  0.6616050  0.3836540  )
        12           O   tau(  12) = (  0.0242520  0.3383950  0.8836540  )
        13           O   tau(  13) = (  0.0964700  0.1117780  0.2500000  )
        14           O   tau(  14) = (  0.4035300  0.6117780  0.2500000  )
        15           O   tau(  15) = (  0.5242520  0.1616050  0.3836540  )
        16           O   tau(  16) = (  0.5242520  0.1616050  0.1163460  )
        17           O   tau(  17) = (  0.4757480  0.8383950  0.6163460  )
        18           O   tau(  18) = (  0.4757480  0.8383950  0.8836540  )
        19           O   tau(  19) = (  0.5964700  0.3882220  0.7500000  )
        20           O   tau(  20) = (  0.9035300  0.8882220  0.7500000  )

     number of k points=     8
                       cart. coord. in units 2pi/alat
        k(    1) = (   0.0000000   0.0000000   0.0000000), wk =   0.0740741
        k(    2) = (   0.0000000   0.0000000   0.1687231), wk =   0.1481481
        k(    3) = (   0.0000000   0.2320487   0.0000000), wk =   0.1481481
        k(    4) = (   0.0000000   0.2320487   0.1687231), wk =   0.2962963
        k(    5) = (   0.3333333   0.0000000   0.0000000), wk =   0.1481481
        k(    6) = (   0.3333333   0.0000000   0.1687231), wk =   0.2962963
        k(    7) = (   0.3333333   0.2320487   0.0000000), wk =   0.2962963
        k(    8) = (   0.3333333   0.2320487   0.1687231), wk =   0.5925926

                       cryst. coord.
        k(    1) = (   0.0000000   0.0000000   0.0000000), wk =   0.0740741
        k(    2) = (   0.0000000   0.0000000   0.3333333), wk =   0.1481481
        k(    3) = (   0.0000000   0.3333333   0.0000000), wk =   0.1481481
        k(    4) = (   0.0000000   0.3333333   0.3333333), wk =   0.2962963
        k(    5) = (   0.3333333   0.0000000   0.0000000), wk =   0.1481481
        k(    6) = (   0.3333333   0.0000000   0.3333333), wk =   0.2962963
        k(    7) = (   0.3333333   0.3333333   0.0000000), wk =   0.2962963
        k(    8) = (   0.3333333   0.3333333   0.3333333), wk =   0.5925926

     Check: negative core charge=   -0.000019

     Initial potential from superposition of free atoms

     starting charge     183.9838, renormalised to     184.0000
     Starting wfcs are  192 randomized atomic wfcs +   64 random wfcs
     Checking if some PAW data can be deallocated...

     Self-consistent Calculation

     iteration #  1     ecut=    30.00 Ry     beta= 0.70
     Davidson diagonalization with overlap

     ethr =  1.00E-02,  avg # of iterations =  9.0

     total energy              =   -4616.35383835 Ry
     estimated scf accuracy    <       3.63736418 Ry

[...]

     c_bands:  1 eigenvalues not converged
     ethr =  3.14E-05,  avg # of iterations = 13.6

[...]

     total energy              =   -4618.69118133 Ry
     estimated scf accuracy    <       0.00000431 Ry

     iteration # 20     ecut=    30.00 Ry     beta= 0.70
     Davidson diagonalization with overlap

     ethr =  2.34E-09,  avg # of iterations =  1.0

     End of self-consistent calculation

          k = 0.0000 0.0000 0.0000 (  4427 PWs)   bands (ev):

   -39.4715 -39.4702 -39.4625 -39.4613 -14.1769 -13.9988 -13.7236 -13.5315
   -12.6132 -12.4865 -12.3564 -12.1502 -12.0278 -11.9987 -11.9743 -11.9068
   -11.8957 -11.8739 -11.4919 -11.4530 -10.7768 -10.6666 -10.2966 -10.2453
   -10.1134 -10.0096  -9.7635  -9.6675  -0.0018   0.1957   0.7007   0.8688
     1.7267   1.7428   1.7501   1.9267   2.0393   2.0582   2.3397   2.4565
     2.4605   2.5685   3.0065   3.4249   5.1680   5.2830   5.7582   5.9069
     6.2299   6.2579   6.3579   6.6093   6.6142   6.7030   6.7380   6.8191
     6.9128   6.9708   7.0228   7.0449   7.1589   7.2858   7.6028   7.8791
    12.4806  12.5292  12.5300  12.5306  12.5419  12.5654  12.5657  12.5850
    12.5871  12.6124  12.6271  12.6342  12.6432  12.6484  12.6518  12.6604
    12.6636  12.6687  12.6864  12.6974  12.7402  12.7424  12.7430  12.7474
    12.7879  12.8037  12.8306  12.8472  13.0054  13.1528  13.4167  14.2644
    14.3388  14.9035  15.2962  15.3410  15.5986  15.7103  16.1966  16.3076
    16.5769  16.6870  16.9604  17.3556  17.4180  17.4911  17.9583  18.0408
    18.0817  18.4336  18.6880  18.9588  19.0240  19.0374  19.3423  19.7164
    19.7991  19.9113  20.3249  20.4032  21.0190  21.3680  21.5784  21.5903
    21.5918  21.5961  22.1955  22.8700  23.1497  23.2252  23.2791  23.9677
    24.0779  24.3756  24.4571  24.6984  24.7704  24.8600  25.4123  25.4549
    25.4608  25.7263  25.8299  26.1052  26.2829  26.5033  26.6253  26.8376
    27.7396  28.0415  28.7329  28.7516  28.9806  29.1094  29.1810  29.5484
    29.5646  29.6756  29.9887  30.5230  30.6171  30.6268  30.7188  30.9118
    31.0836  31.1410  31.8702  32.0018  32.1233  32.3663  32.6268  33.2075
    33.3126  33.5428  33.7485  33.9235  34.0370  34.6433  34.7341  35.0302
    35.0661  35.3533  35.4998  35.6041  35.7587  35.9235  36.2428  36.4672
    36.8850  36.9073  37.3197  38.0128  38.2335  38.3722  38.4176  38.7496
    38.8891  39.2516  39.2909  39.7260  39.7329  39.8917  39.9124  39.9226
    40.0636  40.2272  40.5153  40.6080  40.6568  40.8830  41.0310  41.4636
    41.5618  41.7043  41.9710  42.0933  42.3383  42.3994  42.6849  42.7367
    43.0651  43.4040  43.4247  43.7207  43.9173  43.9183  44.0602  44.1106
    44.1915  44.5761  44.6116  44.8509  44.9937  45.5233  45.6129  45.7128
    46.0340  46.1753  46.1774  46.4024  46.5628  46.6956  46.7184  47.0501
    47.1444  47.2892  47.4413  47.4427  47.8349  47.9100  47.9408  48.0719

     occupation numbers
     1.0000   1.0000   1.0000   1.0000   1.0000   1.0000   1.0000   1.0000
     1.0000   1.0000   1.0000   1.0000   1.0000   1.0000   1.0000   1.0000
     1.0000   1.0000   1.0000   1.0000   1.0000   1.0000   1.0000   1.0000
     1.0000   1.0000   1.0000   1.0000   1.0000   1.0000   1.0000   1.0000
     1.0000   1.0000   1.0000   1.0000   1.0000   1.0000   1.0000   1.0000
     1.0000   1.0000   1.0000   1.0000   1.0000   1.0000   1.0000   1.0000
     1.0000   1.0000   1.0000   1.0000   1.0000   1.0000   1.0000   1.0000
     1.0000   1.0000   1.0000   1.0000   1.0000   1.0000   1.0000   1.0000
     1.0000   1.0000   1.0000   1.0000   1.0000   1.0000   1.0000   1.0000
     1.0000   1.0000   1.0000   1.0000   1.0000   1.0000   1.0000   1.0000
     1.0000   1.0000   1.0000   1.0000   1.0000   1.0000   1.0000   1.0000
     1.0000   1.0000   1.0000   1.0000   0.0000   0.0000   0.0000   0.0000
     0.0000   0.0000   0.0000   0.0000   0.0000   0.0000   0.0000   0.0000
     0.0000   0.0000   0.0000   0.0000   0.0000   0.0000   0.0000   0.0000
     0.0000   0.0000   0.0000   0.0000   0.0000   0.0000   0.0000   0.0000
     0.0000   0.0000   0.0000   0.0000   0.0000   0.0000   0.0000   0.0000
     0.0000   0.0000   0.0000   0.0000   0.0000   0.0000   0.0000   0.0000
     0.0000   0.0000   0.0000   0.0000   0.0000   0.0000   0.0000   0.0000
     0.0000   0.0000   0.0000   0.0000   0.0000   0.0000   0.0000   0.0000
     0.0000   0.0000   0.0000   0.0000   0.0000   0.0000   0.0000   0.0000
     0.0000   0.0000   0.0000   0.0000   0.0000   0.0000   0.0000   0.0000
     0.0000   0.0000   0.0000   0.0000   0.0000   0.0000   0.0000   0.0000
     0.0000   0.0000   0.0000   0.0000   0.0000   0.0000   0.0000   0.0000
     0.0000   0.0000   0.0000   0.0000   0.0000   0.0000   0.0000   0.0000
     0.0000   0.0000   0.0000   0.0000   0.0000   0.0000   0.0000   0.0000
     0.0000   0.0000   0.0000   0.0000   0.0000   0.0000   0.0000   0.0000
     0.0000   0.0000   0.0000   0.0000   0.0000   0.0000   0.0000   0.0000
     0.0000   0.0000   0.0000   0.0000   0.0000   0.0000   0.0000   0.0000
     0.0000   0.0000   0.0000   0.0000   0.0000   0.0000   0.0000   0.0000
     0.0000   0.0000   0.0000   0.0000   0.0000   0.0000   0.0000   0.0000
     0.0000   0.0000   0.0000   0.0000   0.0000   0.0000   0.0000   0.0000
     0.0000   0.0000   0.0000   0.0000   0.0000   0.0000   0.0000   0.0000

[...]

          k = 0.3333 0.2320 0.1687 (  4443 PWs)   bands (ev):

   -39.4673 -39.4666 -39.4650 -39.4644 -13.9425 -13.8945 -13.7431 -13.7008
   -12.5298 -12.4382 -12.3703 -12.3401 -12.1260 -12.0582 -11.9782 -11.9461
   -11.8906 -11.8559 -11.7083 -11.6886 -10.5119 -10.4118 -10.2933 -10.2123
   -10.1487 -10.0430  -9.8490  -9.8277   0.4844   0.5966   0.6141   0.6647
     1.9144   1.9380   2.0060   2.0707   2.2541   2.3272   2.4217   2.5363
     2.6129   2.7282   2.9699   3.0451   5.4280   5.4435   5.6433   5.7719
     6.0172   6.0546   6.0809   6.1841   6.2880   6.3677   6.4431   6.5034
     6.6713   6.7470   6.8175   6.8579   7.6945   7.7427   7.8487   7.8739
    12.4979  12.5147  12.5381  12.5452  12.5510  12.5570  12.5791  12.5875
    12.5972  12.6057  12.6134  12.6161  12.6334  12.6356  12.6413  12.6490
    12.6495  12.6559  12.6655  12.6696  12.7200  12.7217  12.7242  12.7257
    12.7965  12.7986  12.8457  12.8475  13.6724  13.7883  13.9541  13.9630
    14.7940  14.8821  14.9602  15.1243  15.4750  15.9124  16.2140  16.4639
    16.6498  16.7245  16.9025  17.0341  17.0833  17.2244  17.3425  17.5780
    18.2651  18.4441  18.6005  18.9757  19.1632  19.4504  19.5578  19.7178
    19.9258  20.0082  20.1758  20.3685  20.4990  20.7119  21.0227  21.3331
    21.7563  21.9978  22.3920  22.7763  22.9713  23.2362  23.5921  23.6863
    23.8826  24.0914  24.1707  24.4102  24.9114  24.9469  25.0879  25.3250
    25.7031  25.8808  25.9917  26.1523  26.3835  26.4901  26.7090  27.1578
    27.3553  27.6480  27.7267  28.1098  28.3843  28.5240  28.7593  29.1263
    29.4215  29.4991  29.8468  30.1736  30.3082  30.8880  31.0617  31.4392
    31.8461  32.0197  32.1992  32.4257  32.7492  32.9869  33.3059  33.4205
    33.4534  33.8186  33.8964  34.0349  34.4181  34.8082  34.9342  35.1334
    35.2055  35.5535  35.6966  35.9114  36.0615  36.2790  36.3924  36.6590
    36.8874  37.1880  37.4134  37.5062  37.6662  37.8791  38.0378  38.3457
    38.4432  38.5242  38.8781  39.1090  39.2048  39.3478  39.7313  39.7495
    40.1240  40.3897  40.4869  40.5312  40.6127  41.0195  41.0984  41.2989
    41.4237  41.7479  41.8694  41.9255  42.1523  42.6681  42.6904  42.7839
    43.0495  43.2256  43.2590  43.4109  43.6720  43.7640  43.9283  44.3543
    44.6225  44.8366  44.9549  45.1413  45.3572  45.4695  45.6339  45.6989
    45.9258  46.2574  46.3682  46.6814  46.8621  47.0364  47.2494  47.5431
    47.6540  47.7796  47.9014  48.0163  48.1792  48.5187  48.6404  48.9953

     occupation numbers
     1.0000   1.0000   1.0000   1.0000   1.0000   1.0000   1.0000   1.0000
     1.0000   1.0000   1.0000   1.0000   1.0000   1.0000   1.0000   1.0000
     1.0000   1.0000   1.0000   1.0000   1.0000   1.0000   1.0000   1.0000
     1.0000   1.0000   1.0000   1.0000   1.0000   1.0000   1.0000   1.0000
     1.0000   1.0000   1.0000   1.0000   1.0000   1.0000   1.0000   1.0000
     1.0000   1.0000   1.0000   1.0000   1.0000   1.0000   1.0000   1.0000
     1.0000   1.0000   1.0000   1.0000   1.0000   1.0000   1.0000   1.0000
     1.0000   1.0000   1.0000   1.0000   1.0000   1.0000   1.0000   1.0000
     1.0000   1.0000   1.0000   1.0000   1.0000   1.0000   1.0000   1.0000
     1.0000   1.0000   1.0000   1.0000   1.0000   1.0000   1.0000   1.0000
     1.0000   1.0000   1.0000   1.0000   1.0000   1.0000   1.0000   1.0000
     1.0000   1.0000   1.0000   1.0000   0.0000   0.0000   0.0000   0.0000
     0.0000   0.0000   0.0000   0.0000   0.0000   0.0000   0.0000   0.0000
     0.0000   0.0000   0.0000   0.0000   0.0000   0.0000   0.0000   0.0000
     0.0000   0.0000   0.0000   0.0000   0.0000   0.0000   0.0000   0.0000
     0.0000   0.0000   0.0000   0.0000   0.0000   0.0000   0.0000   0.0000
     0.0000   0.0000   0.0000   0.0000   0.0000   0.0000   0.0000   0.0000
     0.0000   0.0000   0.0000   0.0000   0.0000   0.0000   0.0000   0.0000
     0.0000   0.0000   0.0000   0.0000   0.0000   0.0000   0.0000   0.0000
     0.0000   0.0000   0.0000   0.0000   0.0000   0.0000   0.0000   0.0000
     0.0000   0.0000   0.0000   0.0000   0.0000   0.0000   0.0000   0.0000
     0.0000   0.0000   0.0000   0.0000   0.0000   0.0000   0.0000   0.0000
     0.0000   0.0000   0.0000   0.0000   0.0000   0.0000   0.0000   0.0000
     0.0000   0.0000   0.0000   0.0000   0.0000   0.0000   0.0000   0.0000
     0.0000   0.0000   0.0000   0.0000   0.0000   0.0000   0.0000   0.0000
     0.0000   0.0000   0.0000   0.0000   0.0000   0.0000   0.0000   0.0000
     0.0000   0.0000   0.0000   0.0000   0.0000   0.0000   0.0000   0.0000
     0.0000   0.0000   0.0000   0.0000   0.0000   0.0000   0.0000   0.0000
     0.0000   0.0000   0.0000   0.0000   0.0000   0.0000   0.0000   0.0000
     0.0000   0.0000   0.0000   0.0000   0.0000   0.0000   0.0000   0.0000
     0.0000   0.0000   0.0000   0.0000   0.0000   0.0000   0.0000   0.0000
     0.0000   0.0000   0.0000   0.0000   0.0000   0.0000   0.0000   0.0000

     highest occupied, lowest unoccupied level (ev):    12.8866   13.0054

!    total energy              =   -4618.69118194 Ry
     total all-electron energy =     -6155.910282 Ry
     estimated scf accuracy    <       0.00000002 Ry

     The total energy is the sum of the following terms:
     one-electron contribution =   -1673.88918075 Ry
     hartree contribution      =     818.89573958 Ry
     xc contribution           =    -262.59379531 Ry
     ewald contribution        =   -1418.52155644 Ry
     one-center paw contrib.   =   -2082.58238901 Ry
      -> PAW hartree energy AE =    1358.29754925 Ry
      -> PAW hartree energy PS =   -1173.50076979 Ry
      -> PAW xc energy AE      =   -1755.19059597 Ry
      -> PAW xc energy PS      =     112.60104266 Ry
      -> total E_H with PAW    =    1003.69251903 Ry
      -> total E_XC with PAW   =   -1905.18334862 Ry

     convergence has been achieved in  20 iterations

     Writing all to output data dir bands_nm/myprefix.save/

     General routines

     Parallel routines

     PAW routines

   This run was terminated on:  20:40:22  15Jul2023

   JOB DONE.