     Program PWSCF v.7.0 starts on  5Jun2023 at  3:42:27

     K-points division:     npool     =       2
     R & G space division:  proc/nbgrp/npool/nimage =       4

     Reading input from espresso_10355.pwi
Warning: card &CELL ignored
Warning: card / ignored

     Current dimensions of program PWSCF are:
     Max number of different atomic species (ntypx) = 10
     Max number of k-points (npk) =  40000
     Max angular momentum in pseudopotentials (lmaxx) =  4
     file Cd.pbe-dn-rrkjus_psl.0.3.1.UPF: wavefunction(s)  4D renormalized
     Message from routine setup:
     using ibrav=0 with symmetry is DISCOURAGED, use correct ibrav instead

     Using Slab Decomposition

     bravais-lattice index     =            0
     lattice parameter (alat)  =       8.2231  a.u.
     unit-cell volume          =    3243.0714 (a.u.)^3
     number of atoms/cell      =           12
     number of atomic types    =            2
     number of electrons       =       104.00
     number of Kohn-Sham states=           64
     kinetic-energy cutoff     =      30.0000  Ry
     charge density cutoff     =     240.0000  Ry
     scf convergence threshold =      1.0E-06
     mixing beta               =       0.7000
     number of iterations used =            8  plain     mixing
     Exchange-correlation= SLA  PW   PBX  PBC
                           (   1   4   3   4   0   0   0)

     celldm(1)=   8.223125  celldm(2)=   0.000000  celldm(3)=   0.000000
     celldm(4)=   0.000000  celldm(5)=   0.000000  celldm(6)=   0.000000

     crystal axes: (cart. coord. in units of alat)
               a(1) = (   1.000000   0.000000   0.000000 )
               a(2) = (  -0.500000   0.866025   0.000000 )
               a(3) = (   0.000000   0.000000   6.734654 )

     reciprocal axes: (cart. coord. in units 2 pi/alat)
               b(1) = (  1.000000  0.577350  0.000000 )
               b(2) = (  0.000000  1.154701  0.000000 )
               b(3) = (  0.000000  0.000000  0.148486 )

     PseudoPot. # 1 for Cd read from file:
     /home/pragov/projects/rrg-bengioy-ad/pragov/crystal_structure_design/SSSP/Cd.pbe-dn-rrkjus_psl.0.3.1.UPF
     MD5 check sum: 558e9f355611b531a870a69ef6ace9e2
     Pseudo is Ultrasoft + core correction, Zval = 12.0
     Generated using "atomic" code by A. Dal Corso  v.5.0.99 svn rev. 10869
     Using radial grid of 1239 points,  6 beta functions with:
                l(1) =   0
                l(2) =   0
                l(3) =   1
                l(4) =   1
                l(5) =   2
                l(6) =   2
     Q(r) pseudized with 0 coefficients

     PseudoPot. # 2 for I  read from file:
     /home/pragov/projects/rrg-bengioy-ad/pragov/crystal_structure_design/SSSP/I.pbe-n-kjpaw_psl.0.2.UPF
     MD5 check sum: d4ef18d9c8f18dc85e5843bca1e50dc0
     Pseudo is Projector augmented-wave + core cor, Zval =  7.0
     Generated using "atomic" code by A. Dal Corso  v.5.0.99 svn rev. 10869
     Shape of augmentation charge: PSQ
     Using radial grid of 1247 points,  4 beta functions with:
                l(1) =   0
                l(2) =   0
                l(3) =   1
                l(4) =   1
     Q(r) pseudized with 0 coefficients

     atomic species   valence    mass     pseudopotential
        Cd            12.00   112.41400     Cd( 1.00)
        I              7.00   126.90447     I ( 1.00)

      6 Sym. Ops. (no inversion) found

                                    s                        frac. trans.

      isym =  1     identity

 cryst.   s( 1) = (     1          0          0      )
                  (     0          1          0      )
                  (     0          0          1      )

 cart.    s( 1) = (  1.0000000  0.0000000  0.0000000 )
                  (  0.0000000  1.0000000  0.0000000 )
                  (  0.0000000  0.0000000  1.0000000 )

      isym =  2     120 deg rotation - cryst. axis [0,0,1]

[...]

      isym =  3     120 deg rotation - cryst. axis [0,0,-1]

[...]

      isym =  4     inv. 180 deg rotation - cart. axis [1,0,0]

[...]

      isym =  5     inv. 180 deg rotation - cryst. axis [0,1,0]

[...]

      isym =  6     inv. 180 deg rotation - cryst. axis [1,1,0]

 cryst.   s( 6) = (     0         -1          0      )
                  (    -1          0          0      )
                  (     0          0          1      )

 cart.    s( 6) = (  0.5000000 -0.8660254  0.0000000 )
                  ( -0.8660254 -0.5000000  0.0000000 )
                  (  0.0000000  0.0000000  1.0000000 )

   Cartesian axes

     site n.     atom                  positions (alat units)
         1           Cd  tau(   1) = (   0.0000000   0.0000000   3.7884314  )
         2           Cd  tau(   2) = (   0.5000005   0.2886748   2.1042494  )
         3           Cd  tau(   3) = (   0.5000005   0.2886748   5.4716302  )
         4           Cd  tau(   4) = (   0.5000005   0.2886748   0.4212391  )
         5           I   tau(   5) = (  -0.0000005   0.5773505   2.5000989  )
         6           I   tau(   6) = (  -0.0000005   0.5773505   0.8170550  )
         7           I   tau(   7) = (  -0.0000005   0.5773505   5.8674595  )
         8           I   tau(   8) = (   0.0000000   0.0000000   0.0254637  )
         9           I   tau(   9) = (   0.5000005   0.2886748   3.3925213  )
        10           I   tau(  10) = (   0.0000000   0.0000000   5.0759222  )
        11           I   tau(  11) = (  -0.0000005   0.5773505   4.1843011  )
        12           I   tau(  12) = (   0.0000000   0.0000000   1.7085548  )

   Crystallographic axes

     site n.     atom                  positions (cryst. coord.)
         1           Cd  tau(   1) = (  0.0000000  0.0000000  0.5625280  )
         2           Cd  tau(   2) = (  0.6666670  0.3333330  0.3124510  )
         3           Cd  tau(   3) = (  0.6666670  0.3333330  0.8124590  )
         4           Cd  tau(   4) = (  0.6666670  0.3333330  0.0625480  )
         5           I   tau(   5) = (  0.3333330  0.6666670  0.3712290  )
         6           I   tau(   6) = (  0.3333330  0.6666670  0.1213210  )
         7           I   tau(   7) = (  0.3333330  0.6666670  0.8712340  )
         8           I   tau(   8) = (  0.0000000  0.0000000  0.0037810  )
         9           I   tau(   9) = (  0.6666670  0.3333330  0.5037410  )
        10           I   tau(  10) = (  0.0000000  0.0000000  0.7537020  )
        11           I   tau(  11) = (  0.3333330  0.6666670  0.6213090  )
        12           I   tau(  12) = (  0.0000000  0.0000000  0.2536960  )

     number of k points=     7
                       cart. coord. in units 2pi/alat
        k(    1) = (   0.0000000   0.0000000   0.0000000), wk =   0.0740741
        k(    2) = (   0.0000000   0.0000000   0.0494952), wk =   0.1481481
        k(    3) = (   0.0000000   0.3849002   0.0000000), wk =   0.4444444
        k(    4) = (   0.0000000   0.3849002   0.0494952), wk =   0.4444444
        k(    5) = (   0.3333333   0.5773503   0.0000000), wk =   0.1481481
        k(    6) = (   0.3333333   0.5773503   0.0494952), wk =   0.2962963
        k(    7) = (   0.0000000  -0.3849002   0.0494952), wk =   0.4444444

                       cryst. coord.
        k(    1) = (   0.0000000   0.0000000   0.0000000), wk =   0.0740741
        k(    2) = (   0.0000000   0.0000000   0.3333333), wk =   0.1481481
        k(    3) = (   0.0000000   0.3333333   0.0000000), wk =   0.4444444
        k(    4) = (   0.0000000   0.3333333   0.3333333), wk =   0.4444444
        k(    5) = (   0.3333333   0.3333333   0.0000000), wk =   0.1481481
        k(    6) = (   0.3333333   0.3333333   0.3333333), wk =   0.2962963
        k(    7) = (   0.0000000  -0.3333333   0.3333333), wk =   0.4444444

     Check: negative core charge=   -0.000001

     Initial potential from superposition of free atoms

     starting charge     103.9799, renormalised to     104.0000
     Starting wfcs are   68 randomized atomic wfcs
     Checking if some PAW data can be deallocated...

     Self-consistent Calculation

     iteration #  1     ecut=    30.00 Ry     beta= 0.70
     Davidson diagonalization with overlap

     ethr =  1.00E-02,  avg # of iterations =  3.3

     Threshold (ethr) on eigenvalues was too large:
     Diagonalizing with lowered threshold

     Davidson diagonalization with overlap

[...]

     total energy              =   -3520.57014403 Ry
     estimated scf accuracy    <       0.17082486 Ry

[...]

     c_bands:  1 eigenvalues not converged
     ethr =  1.28E-06,  avg # of iterations = 10.0

[...]

     c_bands:  2 eigenvalues not converged
     ethr =  2.06E-07,  avg # of iterations = 12.4

[...]

     total energy              =   -3520.62860465 Ry
     estimated scf accuracy    <       0.00000156 Ry

     iteration #  8     ecut=    30.00 Ry     beta= 0.70
     Davidson diagonalization with overlap

     ethr =  1.50E-09,  avg # of iterations =  4.3

     End of self-consistent calculation

          k = 0.0000 0.0000 0.0000 (  8971 PWs)   bands (ev):

    -8.9992  -8.9659  -8.9653  -8.9244  -8.5599  -8.5089  -8.5088  -8.4652
    -4.5917  -4.5917  -4.5879  -4.5879  -4.5851  -4.5851  -4.5836  -4.5836
    -4.4870  -4.4851  -4.4804  -4.4745  -4.4232  -4.4232  -4.4199  -4.4199
    -4.4165  -4.4165  -4.4159  -4.4159  -0.5357  -0.3566  -0.3555  -0.1200
     1.6073   2.0621   2.0638   2.4234   2.4234   2.4483   2.4483   2.4487
     2.4487   2.4810   2.4810   2.5300   2.6666   2.6666   2.7028   2.7028
     2.7030   2.7030   2.7319   2.7319   5.1066   5.5430   5.5442   5.9365
     7.2165   7.2211   7.2278   7.2328   8.8860   8.8860   8.9351   8.9352

     occupation numbers
     1.0000   1.0000   1.0000   1.0000   1.0000   1.0000   1.0000   1.0000
     1.0000   1.0000   1.0000   1.0000   1.0000   1.0000   1.0000   1.0000
     1.0000   1.0000   1.0000   1.0000   1.0000   1.0000   1.0000   1.0000
     1.0000   1.0000   1.0000   1.0000   1.0000   1.0000   1.0000   1.0000
     1.0000   1.0000   1.0000   1.0000   1.0000   1.0000   1.0000   1.0000
     1.0000   1.0000   1.0000   1.0000   1.0000   1.0000   1.0000   1.0000
     1.0000   1.0000   1.0000   1.0000   0.0000   0.0000   0.0000   0.0000
     0.0000   0.0000   0.0000   0.0000   0.0000   0.0000   0.0000   0.0000

[...]

          k = 0.0000-0.3849 0.0495 (  8999 PWs)   bands (ev):

    -8.6414  -8.6291  -8.6131  -8.5954  -8.4656  -8.4466  -8.4304  -8.4167
    -4.5620  -4.5616  -4.5579  -4.5562  -4.4878  -4.4870  -4.4837  -4.4808
    -4.4254  -4.4233  -4.4202  -4.4179  -4.3933  -4.3919  -4.3880  -4.3871
    -4.3713  -4.3697  -4.3654  -4.3609  -0.6111  -0.5842  -0.5518  -0.5233
     0.4294   0.5144   0.5414   0.6426   1.2670   1.3036   1.5287   1.5937
     1.6512   1.6582   1.7140   1.7223   2.2003   2.2240   2.4646   2.5164
     2.5547   2.5667   2.6508   2.6615   5.3955   5.4607   5.5884   5.6405
     7.7397   7.8370   8.0280   8.1143   8.9850   9.1055   9.1389   9.4875

     occupation numbers
     1.0000   1.0000   1.0000   1.0000   1.0000   1.0000   1.0000   1.0000
     1.0000   1.0000   1.0000   1.0000   1.0000   1.0000   1.0000   1.0000
     1.0000   1.0000   1.0000   1.0000   1.0000   1.0000   1.0000   1.0000
     1.0000   1.0000   1.0000   1.0000   1.0000   1.0000   1.0000   1.0000
     1.0000   1.0000   1.0000   1.0000   1.0000   1.0000   1.0000   1.0000
     1.0000   1.0000   1.0000   1.0000   1.0000   1.0000   1.0000   1.0000
     1.0000   1.0000   1.0000   1.0000   0.0000   0.0000   0.0000   0.0000
     0.0000   0.0000   0.0000   0.0000   0.0000   0.0000   0.0000   0.0000

     highest occupied, lowest unoccupied level (ev):     2.7319    5.1066

!    total energy              =   -3520.62860591 Ry
     estimated scf accuracy    <       0.00000035 Ry

     The total energy is the sum of the following terms:
     one-electron contribution =    -327.00678854 Ry
     hartree contribution      =     231.98454003 Ry
     xc contribution           =    -505.37526523 Ry
     ewald contribution        =    -356.02806970 Ry
     one-center paw contrib.   =   -2564.20302247 Ry
      -> PAW hartree energy AE =       0.00000000 Ry
      -> PAW hartree energy PS =       0.00000000 Ry
      -> PAW xc energy AE      =       0.00000000 Ry
      -> PAW xc energy PS      =       0.00000000 Ry
      -> total E_H with PAW    =     231.98454003 Ry
      -> total E_XC with PAW   =    -505.37526523 Ry

     convergence has been achieved in   8 iterations

     Writing all to output data dir calculations_bands/myprefix.save/

     General routines

     Parallel routines

     PAW routines

   This run was terminated on:   3:43:34   5Jun2023

   JOB DONE.