     Program PWSCF v.7.1 starts on 14Jul2023 at 12: 7:54

     Reading input from espresso_17907.pwi
Warning: card &CELL ignored
Warning: card / ignored

     Current dimensions of program PWSCF are:
     Max number of different atomic species (ntypx) = 10
     Max number of k-points (npk) =  40000
     Max angular momentum in pseudopotentials (lmaxx) =  4
     file O.pbe-n-kjpaw_psl.0.1.UPF: wavefunction(s)  2P renormalized

     K-points division:     npool     =       2
     R & G space division:  proc/nbgrp/npool/nimage =       4
     Subspace diagonalization in iterative solution of the eigenvalue problem:
     a serial algorithm will be used

     Using Slab Decomposition

     bravais-lattice index     =            0
     lattice parameter (alat)  =       5.7808  a.u.
     unit-cell volume          =    1002.9365 (a.u.)^3
     number of atoms/cell      =           16
     number of atomic types    =            4
     number of electrons       =       124.00
     number of Kohn-Sham states=           64
     kinetic-energy cutoff     =      30.0000  Ry
     charge density cutoff     =     240.0000  Ry
     scf convergence threshold =      1.0E-06
     mixing beta               =       0.7000
     number of iterations used =            8  plain     mixing
     Exchange-correlation= SLA  PW   PBX  PBC
                           (   1   4   3   4   0   0   0)

     celldm(1)=   5.780835  celldm(2)=   0.000000  celldm(3)=   0.000000
     celldm(4)=   0.000000  celldm(5)=   0.000000  celldm(6)=   0.000000

     crystal axes: (cart. coord. in units of alat)
               a(1) = (   1.000000   0.000000   0.000000 )
               a(2) = (  -0.215059   1.964582   0.000000 )
               a(3) = (   0.060813   0.028600   2.642600 )

     reciprocal axes: (cart. coord. in units 2 pi/alat)
               b(1) = (  1.000000  0.109468 -0.024197 )
               b(2) = (  0.000000  0.509014 -0.005509 )
               b(3) = (  0.000000  0.000000  0.378415 )

     PseudoPot. # 1 for Li read from file:
     /lustre07/scratch/pragov/crystal_structure_design/utils/SSSP/li_pbe_v1.4.uspp.F.UPF
     MD5 check sum: e912e257baa3777c20ea3d68f190483c
     Pseudo is Ultrasoft, Zval =  3.0
     Generated by new atomic code, or converted to UPF format
     Using radial grid of  751 points,  5 beta functions with:
                l(1) =   0
                l(2) =   0
                l(3) =   0
                l(4) =   1
                l(5) =   1
     Q(r) pseudized with 10 coefficients,  rinner =    1.150   1.150   1.150

     PseudoPot. # 2 for Mn read from file:
     /lustre07/scratch/pragov/crystal_structure_design/utils/SSSP/mn_pbe_v1.5.uspp.F.UPF
     MD5 check sum: 82ef2b46521d7a7d9e736dc3972e4928
     Pseudo is Ultrasoft + core correction, Zval = 15.0
     Generated by new atomic code, or converted to UPF format
     Using radial grid of  859 points,  6 beta functions with:
                l(1) =   0
                l(2) =   0
                l(3) =   1
                l(4) =   1
                l(5) =   2
                l(6) =   2
     Q(r) pseudized with  8 coefficients,  rinner =    0.950   0.950   0.950
                                                       0.950   0.950

     PseudoPot. # 3 for Co read from file:
     /lustre07/scratch/pragov/crystal_structure_design/utils/SSSP/Co_pbe_v1.2.uspp.F.UPF
     MD5 check sum: 5f91765df6ddd3222702df6e7b74a16d
     Pseudo is Ultrasoft + core correction, Zval = 17.0
     Generated by new atomic code, or converted to UPF format
     Using radial grid of  863 points,  6 beta functions with:
                l(1) =   0
                l(2) =   0
                l(3) =   1
                l(4) =   1
                l(5) =   2
                l(6) =   2
     Q(r) pseudized with  8 coefficients,  rinner =    1.200   1.200   1.200
                                                       1.200   1.200

     PseudoPot. # 4 for O  read from file:
     /lustre07/scratch/pragov/crystal_structure_design/utils/SSSP/O.pbe-n-kjpaw_psl.0.1.UPF
     MD5 check sum: 0234752ac141de4415c5fc33072bef88
     Pseudo is Projector augmented-wave + core cor, Zval =  6.0
     Generated using "atomic" code by A. Dal Corso  v.5.0.99 svn rev. 10869
     Shape of augmentation charge: BESSEL
     Using radial grid of 1095 points,  4 beta functions with:
                l(1) =   0
                l(2) =   0
                l(3) =   1
                l(4) =   1
     Q(r) pseudized with 0 coefficients

     atomic species   valence    mass     pseudopotential
        Li             3.00     6.94000     Li( 1.00)
        Mn            15.00    54.93804     Mn( 1.00)
        Co            17.00    58.93319     Co( 1.00)
        O              6.00    15.99900     O ( 1.00)

     No symmetry found

                                    s                        frac. trans.

      isym =  1     identity

 cryst.   s( 1) = (     1          0          0      )
                  (     0          1          0      )
                  (     0          0          1      )

 cart.    s( 1) = (  1.0000000 -0.0000000 -0.0000000 )
                  (  0.0000000  1.0000000  0.0000000 )
                  (  0.0000000  0.0000000  1.0000000 )

   Cartesian axes

     site n.     atom                  positions (alat units)
         1           Li  tau(   1) = (   0.8918024   0.9856792   0.0068206  )
         2           Li  tau(   2) = (   0.4622140   0.4941157   0.6538347  )
         3           Li  tau(   3) = (   0.3836122   1.4971044   1.9888524  )
         4           Li  tau(   4) = (  -0.1840730   1.9770540   1.3143129  )
         5           Mn  tau(   5) = (  -0.0779050   1.0026944   1.3145402  )
         6           Mn  tau(   6) = (   0.4939403   0.5056554   1.9878535  )
         7           Co  tau(   7) = (   0.3522716   1.4859124   0.6566412  )
         8           Co  tau(   8) = (  -0.2134989   1.9594503   0.0048650  )
         9           O   tau(   9) = (   0.4855763   0.4914017   2.6247730  )
        10           O   tau(  10) = (  -0.0713411   1.0188679   0.6814684  )
        11           O   tau(  11) = (   0.7806559   1.9434398   0.6248613  )
        12           O   tau(  12) = (   0.3588663   1.5017241   0.0368008  )
        13           O   tau(  13) = (   0.9117573   0.9911292   1.9573553  )
        14           O   tau(  14) = (   0.5024976   0.5181298   1.3446341  )
        15           O   tau(  15) = (   0.3444884   1.4792870   1.2815685  )
        16           O   tau(  16) = (   0.0692913   0.0297917   2.0190151  )

   Crystallographic axes

     site n.     atom                  positions (cryst. coord.)
         1           Li  tau(   1) = (  0.9995380  0.5016870  0.0025810  )
         2           Li  tau(   2) = (  0.5004830  0.2479100  0.2474210  )
         3           Li  tau(   3) = (  0.4993730  0.7510910  0.7526120  )
         4           Li  tau(   4) = (  0.0005490  0.9991080  0.4973560  )
         5           Mn  tau(   5) = (  0.0000500  0.5031440  0.4974420  )
         6           Mn  tau(   6) = (  0.5011930  0.2464350  0.7522340  )
         7           Co  tau(   7) = (  0.4990430  0.7527330  0.2484830  )
         8           Co  tau(   8) = (  0.0008810  0.9973610  0.0018410  )
         9           O   tau(   9) = (  0.4758570  0.2356710  0.9932540  )
        10           O   tau(  10) = (  0.0237030  0.5148640  0.2578780  )
        11           O   tau(  11) = (  0.9782810  0.9857960  0.2364570  )
        12           O   tau(  12) = (  0.5223670  0.7641960  0.0139260  )
        13           O   tau(  13) = (  0.9728920  0.4937160  0.7406930  )
        14           O   tau(  14) = (  0.5266800  0.2563280  0.5088300  )
        15           O   tau(  15) = (  0.4754130  0.7459180  0.4849650  )
        16           O   tau(  16) = (  0.0236980  0.0040420  0.7640260  )

     number of k points=    14
                       cart. coord. in units 2pi/alat
        k(    1) = (   0.0000000   0.0000000   0.0000000), wk =   0.0740741
        k(    2) = (   0.0000000   0.0000000   0.1261384), wk =   0.1481481
        k(    3) = (   0.0000000   0.1696714  -0.0018363), wk =   0.1481481
        k(    4) = (   0.0000000   0.1696714   0.1243021), wk =   0.1481481
        k(    5) = (   0.0000000   0.1696714  -0.1279747), wk =   0.1481481
        k(    6) = (   0.3333333   0.0364894  -0.0080657), wk =   0.1481481
        k(    7) = (   0.3333333   0.0364894   0.1180727), wk =   0.1481481
        k(    8) = (   0.3333333   0.0364894  -0.1342041), wk =   0.1481481
        k(    9) = (   0.3333333   0.2061608  -0.0099020), wk =   0.1481481
        k(   10) = (   0.3333333   0.2061608   0.1162364), wk =   0.1481481
        k(   11) = (   0.3333333   0.2061608  -0.1360404), wk =   0.1481481
        k(   12) = (   0.3333333  -0.1331819  -0.0062295), wk =   0.1481481
        k(   13) = (   0.3333333  -0.1331819   0.1199089), wk =   0.1481481
        k(   14) = (   0.3333333  -0.1331819  -0.1323679), wk =   0.1481481

                       cryst. coord.
        k(    1) = (   0.0000000   0.0000000   0.0000000), wk =   0.0740741
        k(    2) = (   0.0000000   0.0000000   0.3333333), wk =   0.1481481
        k(    3) = (   0.0000000   0.3333333   0.0000000), wk =   0.1481481
        k(    4) = (   0.0000000   0.3333333   0.3333333), wk =   0.1481481
        k(    5) = (   0.0000000   0.3333333  -0.3333333), wk =   0.1481481
        k(    6) = (   0.3333333   0.0000000  -0.0000000), wk =   0.1481481
        k(    7) = (   0.3333333   0.0000000   0.3333333), wk =   0.1481481
        k(    8) = (   0.3333333   0.0000000  -0.3333333), wk =   0.1481481
        k(    9) = (   0.3333333   0.3333333  -0.0000000), wk =   0.1481481
        k(   10) = (   0.3333333   0.3333333   0.3333333), wk =   0.1481481
        k(   11) = (   0.3333333   0.3333333  -0.3333333), wk =   0.1481481
        k(   12) = (   0.3333333  -0.3333333  -0.0000000), wk =   0.1481481
        k(   13) = (   0.3333333  -0.3333333   0.3333333), wk =   0.1481481
        k(   14) = (   0.3333333  -0.3333333  -0.3333333), wk =   0.1481481

     Check: negative core charge=   -0.000027

     Initial potential from superposition of free atoms

     starting charge     119.1968, renormalised to     124.0000
     Starting wfcs are  104 randomized atomic wfcs
     Checking if some PAW data can be deallocated...

     Self-consistent Calculation

     iteration #  1     ecut=    30.00 Ry     beta= 0.70
     Davidson diagonalization with overlap

     ethr =  1.00E-02,  avg # of iterations =  2.9

     total energy              =   -1378.15509792 Ry
     estimated scf accuracy    <      43.43650023 Ry

[...]

     total energy              =   -1410.49791822 Ry
     estimated scf accuracy    <       0.00000150 Ry

     iteration # 40     ecut=    30.00 Ry     beta= 0.70
     Davidson diagonalization with overlap

     ethr =  1.21E-09,  avg # of iterations =  2.5

     End of self-consistent calculation

          k = 0.0000 0.0000 0.0000 (  2763 PWs)   bands (ev):

   -86.0084 -86.0047 -70.4788 -70.4708 -49.3733 -49.3704 -49.3043 -49.2810
   -49.0950 -49.0895 -39.3295 -39.3205 -39.2517 -39.1999 -39.0374 -39.0250
   -35.8265 -35.8137 -35.7624 -35.7480 -10.4528  -9.8112  -9.8030  -9.3631
    -9.3282  -9.2016  -9.1771  -9.0261   2.4710   2.6125   3.4439   3.4639
     3.4744   4.0087   4.0396   4.3137   4.4481   4.4617   4.6022   4.7851
     4.9107   4.9189   5.1348   5.2195   5.7697   5.8005   5.9263   6.2252
     6.2426   6.8077   6.8346   6.9723   7.9128   8.0791   8.2110   8.4063
     8.4818   8.6770   8.9130   8.9222   9.1315   9.2552   9.3725   9.5099

     occupation numbers
     1.0000   1.0000   1.0000   1.0000   1.0000   1.0000   1.0000   1.0000
     1.0000   1.0000   1.0000   1.0000   1.0000   1.0000   1.0000   1.0000
     1.0000   1.0000   1.0000   1.0000   1.0000   1.0000   1.0000   1.0000
     1.0000   1.0000   1.0000   1.0000   1.0000   1.0000   1.0000   1.0000
     1.0000   1.0000   1.0000   1.0000   1.0000   1.0000   1.0000   1.0000
     1.0000   1.0000   1.0000   1.0000   1.0000   1.0000   1.0000   1.0000
     1.0000   1.0000   1.0000   1.0000   1.0000   1.0000   1.0000   1.0000
     1.0000   1.0000   1.0000   1.0000   1.0000   1.0000   0.0000   0.0000

[...]

          k = 0.3333-0.1332-0.1324 (  2799 PWs)   bands (ev):

   -86.0077 -86.0047 -70.4761 -70.4692 -49.3770 -49.3708 -49.3111 -49.2865
   -49.1063 -49.0981 -39.3359 -39.3304 -39.2541 -39.2091 -39.0648 -39.0439
   -35.8192 -35.8100 -35.7559 -35.7457  -9.8392  -9.7055  -9.3957  -9.2941
    -9.2029  -9.1830  -9.1069  -9.0116   2.9020   3.0787   3.1668   3.4685
     3.4791   3.5428   3.5499   3.6172   3.9918   4.0624   4.2194   4.2674
     4.4901   4.6678   4.8761   4.9654   5.4455   5.5049   5.5612   5.7044
     5.7560   5.9573   6.0599   6.5157   8.1337   8.3861   8.4725   8.5527
     8.6808   8.7873   8.9470   9.0109   9.2280   9.2939   9.3500   9.4504

     occupation numbers
     1.0000   1.0000   1.0000   1.0000   1.0000   1.0000   1.0000   1.0000
     1.0000   1.0000   1.0000   1.0000   1.0000   1.0000   1.0000   1.0000
     1.0000   1.0000   1.0000   1.0000   1.0000   1.0000   1.0000   1.0000
     1.0000   1.0000   1.0000   1.0000   1.0000   1.0000   1.0000   1.0000
     1.0000   1.0000   1.0000   1.0000   1.0000   1.0000   1.0000   1.0000
     1.0000   1.0000   1.0000   1.0000   1.0000   1.0000   1.0000   1.0000
     1.0000   1.0000   1.0000   1.0000   1.0000   1.0000   1.0000   1.0000
     1.0000   1.0000   1.0000   1.0000   1.0000   1.0000   0.0000   0.0000

     highest occupied, lowest unoccupied level (ev):     9.3446    9.2816

!    total energy              =   -1410.49791754 Ry
     estimated scf accuracy    <       0.00000079 Ry

     The total energy is the sum of the following terms:
     one-electron contribution =    -887.58147879 Ry
     hartree contribution      =     497.48995777 Ry
     xc contribution           =    -190.93324607 Ry
     ewald contribution        =    -753.27008788 Ry
     one-center paw contrib.   =     -76.20306257 Ry
      -> PAW hartree energy AE =       0.00000000 Ry
      -> PAW hartree energy PS =       0.00000000 Ry
      -> PAW xc energy AE      =       0.00000000 Ry
      -> PAW xc energy PS      =       0.00000000 Ry
      -> total E_H with PAW    =     497.48995777 Ry
      -> total E_XC with PAW   =    -190.93324607 Ry

     convergence has been achieved in  40 iterations

     Writing all to output data dir bands_nm/myprefix.save/

     General routines

     Parallel routines

     PAW routines

   This run was terminated on:  12: 8:42  14Jul2023

   JOB DONE.