     Program PWSCF v.7.1 starts on 15Jul2023 at 17:27: 0

     Reading input from espresso_6997.pwi
Warning: card &CELL ignored
Warning: card / ignored

     Current dimensions of program PWSCF are:
     Max number of different atomic species (ntypx) = 10
     Max number of k-points (npk) =  40000
     Max angular momentum in pseudopotentials (lmaxx) =  4
     Message from routine setup:
     using ibrav=0 with symmetry is DISCOURAGED, use correct ibrav instead

     K-points division:     npool     =       2
     R & G space division:  proc/nbgrp/npool/nimage =       4
     Subspace diagonalization in iterative solution of the eigenvalue problem:
     one sub-group per band group will be used

     Using Slab Decomposition

     bravais-lattice index     =            0
     lattice parameter (alat)  =      11.0429  a.u.
     unit-cell volume          =    1346.6390 (a.u.)^3
     number of atoms/cell      =           12
     number of atomic types    =            3
     number of electrons       =       152.00
     number of Kohn-Sham states=          256
     kinetic-energy cutoff     =      30.0000  Ry
     charge density cutoff     =     240.0000  Ry
     scf convergence threshold =      1.0E-06
     mixing beta               =       0.7000
     number of iterations used =            8  plain     mixing
     Exchange-correlation=  SLA  PW   PBX  PBC
                           (   1   4   3   4   0   0   0)

     celldm(1)=  11.042915  celldm(2)=   0.000000  celldm(3)=   0.000000
     celldm(4)=   0.000000  celldm(5)=   0.000000  celldm(6)=   0.000000

     crystal axes: (cart. coord. in units of alat)
               a(1) = (   1.000000   0.000000   0.000000 )
               a(2) = (   0.000000   1.000000   0.000000 )
               a(3) = (   0.000000   0.000000   1.000000 )

     reciprocal axes: (cart. coord. in units 2 pi/alat)
               b(1) = (  1.000000  0.000000  0.000000 )
               b(2) = (  0.000000  1.000000  0.000000 )
               b(3) = (  0.000000  0.000000  1.000000 )

     PseudoPot. # 1 for Co read from file:
     /lustre07/scratch/pragov/crystal_structure_design/utils/SSSP/Co_pbe_v1.2.uspp.F.UPF
     MD5 check sum: 5f91765df6ddd3222702df6e7b74a16d
     Pseudo is Ultrasoft + core correction, Zval = 17.0
     Generated by new atomic code, or converted to UPF format
     Using radial grid of  863 points,  6 beta functions with:
                l(1) =   0
                l(2) =   0
                l(3) =   1
                l(4) =   1
                l(5) =   2
                l(6) =   2
     Q(r) pseudized with  8 coefficients,  rinner =    1.200   1.200   1.200
                                                       1.200   1.200

     PseudoPot. # 2 for Sb read from file:
     /lustre07/scratch/pragov/crystal_structure_design/utils/SSSP/sb_pbe_v1.4.uspp.F.UPF
     MD5 check sum: 9bc50dfb53373b713f5709b9110fe27f
     Pseudo is Ultrasoft + core correction, Zval = 15.0
     Generated by new atomic code, or converted to UPF format
     Using radial grid of  891 points,  6 beta functions with:
                l(1) =   0
                l(2) =   0
                l(3) =   1
                l(4) =   1
                l(5) =   2
                l(6) =   2
     Q(r) pseudized with  8 coefficients,  rinner =    1.350   1.350   1.350
                                                       1.350   1.350

     PseudoPot. # 3 for S  read from file:
     /lustre07/scratch/pragov/crystal_structure_design/utils/SSSP/s_pbe_v1.4.uspp.F.UPF
     MD5 check sum: 88d86576ff6df21479756cfb9bdac1df
     Pseudo is Ultrasoft + core correction, Zval =  6.0
     Generated by new atomic code, or converted to UPF format
     Using radial grid of  907 points,  6 beta functions with:
                l(1) =   0
                l(2) =   0
                l(3) =   1
                l(4) =   1
                l(5) =   2
                l(6) =   2
     Q(r) pseudized with  8 coefficients,  rinner =    1.300   1.300   1.300
                                                       1.300   1.300

     atomic species   valence    mass     pseudopotential
        Co            17.00    58.93319     Co( 1.00)
        Sb            15.00   121.76000     Sb( 1.00)
        S              6.00    32.06000     S ( 1.00)

     12 Sym. Ops. (no inversion) found ( 9 have fractional translation)

                                    s                        frac. trans.

      isym =  1     identity

 cryst.   s( 1) = (     1          0          0      )
                  (     0          1          0      )
                  (     0          0          1      )

 cart.    s( 1) = (  1.0000000  0.0000000  0.0000000 )
                  (  0.0000000  1.0000000  0.0000000 )
                  (  0.0000000  0.0000000  1.0000000 )

      isym =  2     180 deg rotation - cart. axis [0,0,1]

 cryst.   s( 2) = (    -1          0          0      )    f =(  0.5000000 )
                  (     0         -1          0      )       (  0.0000000 )
                  (     0          0          1      )       (  0.5000000 )

 cart.    s( 2) = ( -1.0000000  0.0000000  0.0000000 )    f =(  0.5000000 )
                  (  0.0000000 -1.0000000  0.0000000 )       (  0.0000000 )
                  (  0.0000000  0.0000000  1.0000000 )       (  0.5000000 )

[...]

 cryst.   s( 8) = (     0          0          1      )    f =(  0.5000000 )
                  (    -1          0          0      )       (  0.0000000 )
                  (     0         -1          0      )       (  0.5000000 )

 cart.    s( 8) = (  0.0000000 -1.0000000  0.0000000 )    f =(  0.5000000 )
                  (  0.0000000  0.0000000 -1.0000000 )       (  0.0000000 )
                  (  1.0000000  0.0000000  0.0000000 )       (  0.5000000 )

[...]

 cryst.   s( 9) = (     0          1          0      )
                  (     0          0          1      )
                  (     1          0          0      )

 cart.    s( 9) = (  0.0000000  0.0000000  1.0000000 )
                  (  1.0000000  0.0000000  0.0000000 )
                  (  0.0000000  1.0000000  0.0000000 )

[...]

 cryst.   s(10) = (     0         -1          0      )    f =(  0.5000000 )
                  (     0          0         -1      )       (  0.5000000 )
                  (     1          0          0      )       ( -0.0000000 )

 cart.    s(10) = (  0.0000000  0.0000000  1.0000000 )    f =(  0.5000000 )
                  ( -1.0000000  0.0000000  0.0000000 )       (  0.5000000 )
                  (  0.0000000 -1.0000000  0.0000000 )       ( -0.0000000 )

[...]

      isym = 12     120 deg rotation - cart. axis [-1,-1,1]

 cryst.   s(12) = (     0          1          0      )    f =( -0.0000000 )
                  (     0          0         -1      )       ( -0.5000000 )
                  (    -1          0          0      )       (  0.5000000 )

 cart.    s(12) = (  0.0000000  0.0000000 -1.0000000 )    f =( -0.0000000 )
                  (  1.0000000  0.0000000  0.0000000 )       ( -0.5000000 )
                  (  0.0000000 -1.0000000  0.0000000 )       (  0.5000000 )

   Cartesian axes

     site n.     atom                  positions (alat units)
         1           Co  tau(   1) = (   0.4804780   0.9804780   0.5195220  )
         2           Co  tau(   2) = (   0.9804780   0.5195220   0.4804780  )
         3           Co  tau(   3) = (   0.5195220   0.4804780   0.9804780  )
         4           Co  tau(   4) = (   0.0195220   0.0195220   0.0195220  )
         5           Sb  tau(   5) = (   0.1278160   0.6278160   0.8721840  )
         6           Sb  tau(   6) = (   0.6278160   0.8721840   0.1278160  )
         7           Sb  tau(   7) = (   0.8721840   0.1278160   0.6278160  )
         8           Sb  tau(   8) = (   0.3721840   0.3721840   0.3721840  )
         9           S   tau(   9) = (   0.8774900   0.3774900   0.1225100  )
        10           S   tau(  10) = (   0.3774900   0.1225100   0.8774900  )
        11           S   tau(  11) = (   0.1225100   0.8774900   0.3774900  )
        12           S   tau(  12) = (   0.6225100   0.6225100   0.6225100  )

   Crystallographic axes

     site n.     atom                  positions (cryst. coord.)
         1           Co  tau(   1) = (  0.4804780  0.9804780  0.5195220  )
         2           Co  tau(   2) = (  0.9804780  0.5195220  0.4804780  )
         3           Co  tau(   3) = (  0.5195220  0.4804780  0.9804780  )
         4           Co  tau(   4) = (  0.0195220  0.0195220  0.0195220  )
         5           Sb  tau(   5) = (  0.1278160  0.6278160  0.8721840  )
         6           Sb  tau(   6) = (  0.6278160  0.8721840  0.1278160  )
         7           Sb  tau(   7) = (  0.8721840  0.1278160  0.6278160  )
         8           Sb  tau(   8) = (  0.3721840  0.3721840  0.3721840  )
         9           S   tau(   9) = (  0.8774900  0.3774900  0.1225100  )
        10           S   tau(  10) = (  0.3774900  0.1225100  0.8774900  )
        11           S   tau(  11) = (  0.1225100  0.8774900  0.3774900  )
        12           S   tau(  12) = (  0.6225100  0.6225100  0.6225100  )

     number of k points=     4
                       cart. coord. in units 2pi/alat
        k(    1) = (   0.0000000   0.0000000   0.0000000), wk =   0.0740741
        k(    2) = (   0.0000000   0.0000000   0.3333333), wk =   0.4444444
        k(    3) = (   0.0000000   0.3333333   0.3333333), wk =   0.8888889
        k(    4) = (   0.3333333   0.3333333   0.3333333), wk =   0.5925926

                       cryst. coord.
        k(    1) = (   0.0000000   0.0000000   0.0000000), wk =   0.0740741
        k(    2) = (   0.0000000   0.0000000   0.3333333), wk =   0.4444444
        k(    3) = (   0.0000000   0.3333333   0.3333333), wk =   0.8888889
        k(    4) = (   0.3333333   0.3333333   0.3333333), wk =   0.5925926

     Check: negative core charge=   -0.000012

     Initial potential from superposition of free atoms

     starting charge     143.9998, renormalised to     152.0000
     Starting wfcs are  104 randomized atomic wfcs +  152 random wfcs

     Self-consistent Calculation

     iteration #  1     ecut=    30.00 Ry     beta= 0.70
     Davidson diagonalization with overlap

     ethr =  1.00E-02,  avg # of iterations =  7.2

     total energy              =   -1960.48659122 Ry
     estimated scf accuracy    <      94.44489082 Ry

[...]

     total energy              =   -2030.16183011 Ry
     estimated scf accuracy    <       0.00020123 Ry

     iteration # 12     ecut=    30.00 Ry     beta= 0.70
     Davidson diagonalization with overlap

     ethr =  1.32E-07,  avg # of iterations =  1.0

     End of self-consistent calculation

          k = 0.0000 0.0000 0.0000 (  3743 PWs)   bands (ev):

   -81.4035 -81.4035 -81.4035 -81.4033 -44.7151 -44.7151 -44.7141 -44.7141
   -44.7141 -44.7132 -44.7132 -44.7132 -44.5882 -44.5851 -44.5851 -44.5851
   -15.8250 -15.8054 -15.8054 -15.8054 -15.7648 -15.7648 -15.7648 -15.7515
   -15.7515 -15.7445 -15.7445 -15.7445 -15.6398 -15.6398 -15.6398 -15.6297
   -15.6297 -15.6297 -15.6159 -15.6159  -1.7580  -0.1069  -0.1069  -0.1069
     3.8616   3.8616   3.8616   4.5789   7.4538   7.4538   7.4538   8.4141
     8.4141   8.4141   8.7517   8.7517   9.0918   9.0918   9.0918  10.1736
    10.2031  10.2031  10.2031  10.8478  10.8478  11.8716  11.8716  11.8716
    12.0308  12.0308  12.0308  12.1258  12.1258  12.3998  12.4238  12.4238
    12.4238  12.6542  12.6542  12.6542  13.7542  13.7542  13.7542  14.4796
    15.7458  15.7458  15.7458  16.9317  16.9317  17.3857  17.3857  17.3857
    19.9817  19.9817  19.9817  20.6521  20.6521  20.6521  20.9763  22.1435
    22.5130  22.5130  22.5130  22.7403  22.7403  23.0502  23.0502  23.0502
    23.8108  23.8108  23.8108  24.6666  24.6666  24.6666  24.9967  24.9967
    25.6490  26.3564  26.3564  26.3564  26.4379  26.4379  26.6536  26.6536
    26.6536  28.7349  28.7349  28.7349  28.9323  28.9323  28.9323  28.9411
    29.1819  29.1819  29.5798  29.5798  29.5798  30.1361  31.0748  31.0748
    31.0748  32.5239  32.5239  33.0835  33.0835  33.0835  33.8187  33.8187
    33.8187  34.3310  35.6855  35.6855  35.6855  36.3219  36.3219  36.3219
    37.0830  37.6890  37.6890  37.6890  38.4193  38.4193  38.9637  38.9637
    38.9637  39.5164  39.5164  39.5164  39.8517  39.8517  40.5668  40.5668
    40.5668  41.1950  41.1950  41.1950  41.8774  41.8774  41.8774  42.0357
    42.0357  42.0357  42.6575  42.6575  43.1197  43.1287  43.1287  43.1287
    44.0453  44.0453  44.3592  44.3592  44.3592  44.5041  44.5041  44.5041
    44.7869  45.1573  45.1573  45.1573  45.3465  45.4187  45.4187  45.4187
    45.9574  45.9574  45.9574  46.7776  46.7776  46.7776  46.8436  46.8436
    46.8436  47.2565  48.1776  48.1776  48.1776  48.3735  48.7555  48.7555
    48.7555  48.9165  48.9165  49.4116  49.4116  49.4116  49.9323  49.9323
    50.1565  50.2335  50.2335  50.2335  51.4075  51.4075  51.4075  52.0869
    52.0869  52.0869  52.7496  52.7496  52.7496  53.9863  54.0843  54.0843
    54.0843  54.8674  54.8674  55.2235  55.2235  55.2235  55.3667  55.6092
    55.6092  55.6093  56.1236  56.1236  56.1236  56.3797  56.3797  57.2103

     occupation numbers
     1.0000   1.0000   1.0000   1.0000   1.0000   1.0000   1.0000   1.0000
     1.0000   1.0000   1.0000   1.0000   1.0000   1.0000   1.0000   1.0000
     1.0000   1.0000   1.0000   1.0000   1.0000   1.0000   1.0000   1.0000
     1.0000   1.0000   1.0000   1.0000   1.0000   1.0000   1.0000   1.0000
     1.0000   1.0000   1.0000   1.0000   1.0000   1.0000   1.0000   1.0000
     1.0000   1.0000   1.0000   1.0000   1.0000   1.0000   1.0000   1.0000
     1.0000   1.0000   1.0000   1.0000   1.0000   1.0000   1.0000   1.0000
     1.0000   1.0000   1.0000   1.0000   1.0000   1.0000   1.0000   1.0000
     1.0000   1.0000   1.0000   1.0000   1.0000   1.0000   1.0000   1.0000
     1.0000   1.0000   1.0000   1.0000   0.0000   0.0000   0.0000   0.0000
     0.0000   0.0000   0.0000   0.0000   0.0000   0.0000   0.0000   0.0000
     0.0000   0.0000   0.0000   0.0000   0.0000   0.0000   0.0000   0.0000
     0.0000   0.0000   0.0000   0.0000   0.0000   0.0000   0.0000   0.0000
     0.0000   0.0000   0.0000   0.0000   0.0000   0.0000   0.0000   0.0000
     0.0000   0.0000   0.0000   0.0000   0.0000   0.0000   0.0000   0.0000
     0.0000   0.0000   0.0000   0.0000   0.0000   0.0000   0.0000   0.0000
     0.0000   0.0000   0.0000   0.0000   0.0000   0.0000   0.0000   0.0000
     0.0000   0.0000   0.0000   0.0000   0.0000   0.0000   0.0000   0.0000
     0.0000   0.0000   0.0000   0.0000   0.0000   0.0000   0.0000   0.0000
     0.0000   0.0000   0.0000   0.0000   0.0000   0.0000   0.0000   0.0000
     0.0000   0.0000   0.0000   0.0000   0.0000   0.0000   0.0000   0.0000
     0.0000   0.0000   0.0000   0.0000   0.0000   0.0000   0.0000   0.0000
     0.0000   0.0000   0.0000   0.0000   0.0000   0.0000   0.0000   0.0000
     0.0000   0.0000   0.0000   0.0000   0.0000   0.0000   0.0000   0.0000
     0.0000   0.0000   0.0000   0.0000   0.0000   0.0000   0.0000   0.0000
     0.0000   0.0000   0.0000   0.0000   0.0000   0.0000   0.0000   0.0000
     0.0000   0.0000   0.0000   0.0000   0.0000   0.0000   0.0000   0.0000
     0.0000   0.0000   0.0000   0.0000   0.0000   0.0000   0.0000   0.0000
     0.0000   0.0000   0.0000   0.0000   0.0000   0.0000   0.0000   0.0000
     0.0000   0.0000   0.0000   0.0000   0.0000   0.0000   0.0000   0.0000
     0.0000   0.0000   0.0000   0.0000   0.0000   0.0000   0.0000   0.0000
     0.0000   0.0000   0.0000   0.0000   0.0000   0.0000   0.0000   0.0000

[...]

          k = 0.3333 0.3333 0.3333 (  3734 PWs)   bands (ev):

   -81.4035 -81.4035 -81.4033 -81.4028 -44.7158 -44.7151 -44.7146 -44.7145
   -44.7123 -44.7108 -44.7105 -44.7094 -44.5859 -44.5851 -44.5844 -44.5836
   -15.8148 -15.8102 -15.8100 -15.8099 -15.7621 -15.7586 -15.7571 -15.7555
   -15.7441 -15.7423 -15.7404 -15.7384 -15.6384 -15.6378 -15.6332 -15.6276
   -15.6263 -15.6250 -15.6210 -15.6206  -0.9043  -0.5433  -0.3160  -0.1608
     3.0047   3.2700   3.9849   4.0118   7.2805   7.3248   7.9231   8.0300
     8.3370   8.9805   9.2162   9.2517   9.3558   9.6557   9.7376  10.1743
    10.7056  10.9898  10.9933  11.2035  11.4807  11.5457  11.7051  11.8623
    11.9857  12.0417  12.0719  12.0764  12.0793  12.2682  12.3336  12.3829
    12.4538  12.6872  12.6894  12.8073  13.9659  14.2397  14.5871  14.8460
    15.0381  15.6330  15.7365  15.8920  16.1816  16.2036  16.6921  16.8104
    18.7841  19.0367  19.4299  19.7981  19.9107  20.2754  20.8695  21.0227
    21.0388  21.3681  21.6521  21.7025  22.2271  22.6499  22.7039  23.0402
    23.0443  23.7144  24.0276  24.7017  25.1958  25.2676  25.8444  26.1104
    26.5791  26.6685  26.7928  27.0683  27.3528  27.3991  28.0648  28.1958
    28.3279  28.4126  28.8800  29.1562  29.2937  29.5608  29.8820  29.9486
    29.9841  30.6356  31.2599  31.3372  31.7337  31.7454  31.8770  32.2005
    32.4018  32.6300  32.8927  33.0827  33.6095  33.8821  34.0052  34.1191
    34.2304  34.7908  34.8090  35.0106  35.1124  35.3399  35.7191  35.8448
    36.0928  36.4488  36.5836  36.5862  36.9242  36.9975  37.3198  37.7584
    37.8716  38.1424  38.2357  38.2564  38.4397  38.8178  39.0652  39.4583
    39.9200  39.9520  40.3474  40.3681  40.6889  40.8787  40.9304  41.1433
    41.3744  41.6721  41.7317  41.9066  41.9367  42.7312  42.7639  43.1649
    43.3369  43.5156  43.6205  44.0861  44.4968  44.5352  44.6781  45.0520
    45.1141  45.1587  45.2925  45.3544  45.3685  45.3719  45.4976  45.6143
    45.9046  46.0337  46.6526  47.0098  47.0344  47.2451  47.3627  47.6251
    47.7386  47.9766  48.1557  48.6476  48.8416  49.0398  49.1414  49.3767
    49.4706  49.5572  49.9921  50.1761  50.2689  50.5476  50.9066  51.1163
    51.2623  51.3284  51.4534  51.7605  51.8504  51.8504  52.2600  52.4271
    52.8814  52.9048  53.0345  53.1418  53.3027  53.6991  53.9420  54.0773
    54.1486  54.3969  54.4307  54.9449  55.0623  55.1893  55.2959  55.6821
    55.7187  55.7712  56.0307  56.2524  56.6596  56.6719  56.7275  57.2537

     occupation numbers
     1.0000   1.0000   1.0000   1.0000   1.0000   1.0000   1.0000   1.0000
     1.0000   1.0000   1.0000   1.0000   1.0000   1.0000   1.0000   1.0000
     1.0000   1.0000   1.0000   1.0000   1.0000   1.0000   1.0000   1.0000
     1.0000   1.0000   1.0000   1.0000   1.0000   1.0000   1.0000   1.0000
     1.0000   1.0000   1.0000   1.0000   1.0000   1.0000   1.0000   1.0000
     1.0000   1.0000   1.0000   1.0000   1.0000   1.0000   1.0000   1.0000
     1.0000   1.0000   1.0000   1.0000   1.0000   1.0000   1.0000   1.0000
     1.0000   1.0000   1.0000   1.0000   1.0000   1.0000   1.0000   1.0000
     1.0000   1.0000   1.0000   1.0000   1.0000   1.0000   1.0000   1.0000
     1.0000   1.0000   1.0000   1.0000   0.0000   0.0000   0.0000   0.0000
     0.0000   0.0000   0.0000   0.0000   0.0000   0.0000   0.0000   0.0000
     0.0000   0.0000   0.0000   0.0000   0.0000   0.0000   0.0000   0.0000
     0.0000   0.0000   0.0000   0.0000   0.0000   0.0000   0.0000   0.0000
     0.0000   0.0000   0.0000   0.0000   0.0000   0.0000   0.0000   0.0000
     0.0000   0.0000   0.0000   0.0000   0.0000   0.0000   0.0000   0.0000
     0.0000   0.0000   0.0000   0.0000   0.0000   0.0000   0.0000   0.0000
     0.0000   0.0000   0.0000   0.0000   0.0000   0.0000   0.0000   0.0000
     0.0000   0.0000   0.0000   0.0000   0.0000   0.0000   0.0000   0.0000
     0.0000   0.0000   0.0000   0.0000   0.0000   0.0000   0.0000   0.0000
     0.0000   0.0000   0.0000   0.0000   0.0000   0.0000   0.0000   0.0000
     0.0000   0.0000   0.0000   0.0000   0.0000   0.0000   0.0000   0.0000
     0.0000   0.0000   0.0000   0.0000   0.0000   0.0000   0.0000   0.0000
     0.0000   0.0000   0.0000   0.0000   0.0000   0.0000   0.0000   0.0000
     0.0000   0.0000   0.0000   0.0000   0.0000   0.0000   0.0000   0.0000
     0.0000   0.0000   0.0000   0.0000   0.0000   0.0000   0.0000   0.0000
     0.0000   0.0000   0.0000   0.0000   0.0000   0.0000   0.0000   0.0000
     0.0000   0.0000   0.0000   0.0000   0.0000   0.0000   0.0000   0.0000
     0.0000   0.0000   0.0000   0.0000   0.0000   0.0000   0.0000   0.0000
     0.0000   0.0000   0.0000   0.0000   0.0000   0.0000   0.0000   0.0000
     0.0000   0.0000   0.0000   0.0000   0.0000   0.0000   0.0000   0.0000
     0.0000   0.0000   0.0000   0.0000   0.0000   0.0000   0.0000   0.0000
     0.0000   0.0000   0.0000   0.0000   0.0000   0.0000   0.0000   0.0000

     highest occupied, lowest unoccupied level (ev):    13.1678   13.7542

!    total energy              =   -2030.16184592 Ry
     estimated scf accuracy    <       0.00000018 Ry

     The total energy is the sum of the following terms:
     one-electron contribution =   -1138.96910583 Ry
     hartree contribution      =     660.33500550 Ry
     xc contribution           =    -341.18816696 Ry
     ewald contribution        =   -1210.33957862 Ry

     convergence has been achieved in  12 iterations

     Writing all to output data dir bands_nm/myprefix.save/

     General routines

     Parallel routines

   This run was terminated on:  17:27:21  15Jul2023

   JOB DONE.