     Program PWSCF v.7.1 starts on 13Jul2023 at  5:22:47

     Reading input from espresso_2945.pwi
Warning: card &CELL ignored
Warning: card / ignored

     Current dimensions of program PWSCF are:
     Max number of different atomic species (ntypx) = 10
     Max number of k-points (npk) =  40000
     Max angular momentum in pseudopotentials (lmaxx) =  4

     K-points division:     npool     =       2
     R & G space division:  proc/nbgrp/npool/nimage =       8
     Subspace diagonalization in iterative solution of the eigenvalue problem:
     a serial algorithm will be used

     Using Slab Decomposition

     bravais-lattice index     =            0
     lattice parameter (alat)  =      14.5984  a.u.
     unit-cell volume          =    2779.0838 (a.u.)^3
     number of atoms/cell      =           13
     number of atomic types    =            3
     number of electrons       =        74.00
     number of Kohn-Sham states=           64
     kinetic-energy cutoff     =      30.0000  Ry
     charge density cutoff     =     240.0000  Ry
     scf convergence threshold =      1.0E-06
     mixing beta               =       0.7000
     number of iterations used =            8  plain     mixing
     Exchange-correlation= SLA  PW   PBX  PBC
                           (   1   4   3   4   0   0   0)

     celldm(1)=  14.598392  celldm(2)=   0.000000  celldm(3)=   0.000000
     celldm(4)=   0.000000  celldm(5)=   0.000000  celldm(6)=   0.000000

     crystal axes: (cart. coord. in units of alat)
               a(1) = (   1.000000   0.000000   0.000000 )
               a(2) = (   0.863775   0.503878   0.000000 )
               a(3) = (   0.622233   0.168223   1.772808 )

     reciprocal axes: (cart. coord. in units 2 pi/alat)
               b(1) = (  1.000000 -1.714256 -0.188321 )
               b(2) = (  0.000000  1.984609 -0.188321 )
               b(3) = (  0.000000  0.000000  0.564077 )

     PseudoPot. # 1 for Te read from file:
     /lustre07/scratch/pragov/crystal_structure_design/utils/SSSP/Te_pbe_v1.uspp.F.UPF
     MD5 check sum: c319670d6894cc26e93307826a071b75
     Pseudo is Ultrasoft + core correction, Zval =  6.0
     Generated by new atomic code, or converted to UPF format
     Using radial grid of  891 points,  5 beta functions with:
                l(1) =   0
                l(2) =   0
                l(3) =   1
                l(4) =   1
                l(5) =   2
     Q(r) pseudized with  6 coefficients,  rinner =    1.800   1.800   1.800
                                                       1.800   1.800

     PseudoPot. # 2 for As read from file:
     /lustre07/scratch/pragov/crystal_structure_design/utils/SSSP/As.pbe-n-rrkjus_psl.0.2.UPF
     MD5 check sum: 767315de957beeeb34f87d97bf945c8f
     Pseudo is Ultrasoft + core correction, Zval =  5.0
     Generated using "atomic" code by A. Dal Corso  v.5.0.99 svn rev. 10869
     Using radial grid of 1209 points,  4 beta functions with:
                l(1) =   0
                l(2) =   0
                l(3) =   1
                l(4) =   1
     Q(r) pseudized with 0 coefficients

     PseudoPot. # 3 for I  read from file:
     /lustre07/scratch/pragov/crystal_structure_design/utils/SSSP/I.pbe-n-kjpaw_psl.0.2.UPF
     MD5 check sum: d4ef18d9c8f18dc85e5843bca1e50dc0
     Pseudo is Projector augmented-wave + core cor, Zval =  7.0
     Generated using "atomic" code by A. Dal Corso  v.5.0.99 svn rev. 10869
     Shape of augmentation charge: PSQ
     Using radial grid of 1247 points,  4 beta functions with:
                l(1) =   0
                l(2) =   0
                l(3) =   1
                l(4) =   1
     Q(r) pseudized with 0 coefficients

     atomic species   valence    mass     pseudopotential
        Te             6.00   127.60000     Te( 1.00)
        As             5.00    74.92159     As( 1.00)
        I              7.00   126.90447     I ( 1.00)

     No symmetry found

                                    s                        frac. trans.

      isym =  1     identity

 cryst.   s( 1) = (     1          0          0      )
                  (     0          1          0      )
                  (     0          0          1      )

 cart.    s( 1) = (  1.0000000  0.0000000  0.0000000 )
                  (  0.0000000  1.0000000  0.0000000 )
                  (  0.0000000  0.0000000  1.0000000 )

   Cartesian axes

     site n.     atom                  positions (alat units)
         1           Te  tau(   1) = (   1.3450636   0.3636422   0.5709770  )
         2           Te  tau(   2) = (   2.0674904   0.5589526   0.9803839  )
         3           Te  tau(   3) = (   0.9218121   0.2492148   1.3981743  )
         4           Te  tau(   4) = (   2.3033308   0.6227128   1.4666136  )
         5           Te  tau(   5) = (   1.5739228   0.4255151   1.0547496  )
         6           Te  tau(   6) = (   0.8566326   0.2315933   0.6621383  )
         7           Te  tau(   7) = (   0.1327475   0.0358887   0.1913019  )
         8           As  tau(   8) = (   0.9266673   0.2505275   0.0014767  )
         9           As  tau(   9) = (   1.6639880   0.4498644   0.4603910  )
        10           As  tau(  10) = (   0.5170139   0.1397764   0.8219835  )
        11           As  tau(  11) = (   1.2627050   0.3413763   1.2022082  )
        12           As  tau(  12) = (   1.9911942   0.5383257   1.5894496  )
        13           I   tau(  13) = (   0.6121577   0.1654988   0.1347086  )

   Crystallographic axes

     site n.     atom                  positions (cryst. coord.)
         1           Te  tau(   1) = (  0.6141610  0.6141610  0.3220750  )
         2           Te  tau(   2) = (  0.9246760  0.9246760  0.5530120  )
         3           Te  tau(   3) = (  0.2312890  0.2312890  0.7886780  )
         4           Te  tau(   4) = (  0.9596480  0.9596480  0.8272830  )
         5           Te  tau(   5) = (  0.6458500  0.6458500  0.5949600  )
         6           Te  tau(   6) = (  0.3349280  0.3349280  0.3734970  )
         7           Te  tau(   7) = (  0.0351990  0.0351990  0.1079090  )
         8           As  tau(   8) = (  0.4969210  0.4969210  0.0008330  )
         9           As  tau(   9) = (  0.8061040  0.8061040  0.2596960  )
        10           As  tau(  10) = (  0.1226050  0.1226050  0.4636620  )
        11           As  tau(  11) = (  0.4510980  0.4510980  0.6781380  )
        12           As  tau(  12) = (  0.7690400  0.7690400  0.8965720  )
        13           I   tau(  13) = (  0.3030820  0.3030820  0.0759860  )

     number of k points=    14
                       cart. coord. in units 2pi/alat
        k(    1) = (   0.0000000   0.0000000   0.0000000), wk =   0.0740741
        k(    2) = (   0.0000000   0.0000000   0.1880257), wk =   0.1481481
        k(    3) = (   0.0000000   0.6615364  -0.0627735), wk =   0.1481481
        k(    4) = (   0.0000000   0.6615364   0.1252521), wk =   0.1481481
        k(    5) = (   0.0000000   0.6615364  -0.2507992), wk =   0.1481481
        k(    6) = (   0.3333333  -0.5714187  -0.0627735), wk =   0.1481481
        k(    7) = (   0.3333333  -0.5714187   0.1252521), wk =   0.1481481
        k(    8) = (   0.3333333  -0.5714187  -0.2507992), wk =   0.1481481
        k(    9) = (   0.3333333   0.0901177  -0.1255471), wk =   0.1481481
        k(   10) = (   0.3333333   0.0901177   0.0624786), wk =   0.1481481
        k(   11) = (   0.3333333   0.0901177  -0.3135727), wk =   0.1481481
        k(   12) = (   0.3333333  -1.2329551   0.0000000), wk =   0.1481481
        k(   13) = (   0.3333333  -1.2329551   0.1880257), wk =   0.1481481
        k(   14) = (   0.3333333  -1.2329551  -0.1880257), wk =   0.1481481

                       cryst. coord.
        k(    1) = (   0.0000000   0.0000000   0.0000000), wk =   0.0740741
        k(    2) = (   0.0000000   0.0000000   0.3333333), wk =   0.1481481
        k(    3) = (   0.0000000   0.3333333   0.0000000), wk =   0.1481481
        k(    4) = (   0.0000000   0.3333333   0.3333333), wk =   0.1481481
        k(    5) = (   0.0000000   0.3333333  -0.3333333), wk =   0.1481481
        k(    6) = (   0.3333333   0.0000000  -0.0000000), wk =   0.1481481
        k(    7) = (   0.3333333   0.0000000   0.3333333), wk =   0.1481481
        k(    8) = (   0.3333333   0.0000000  -0.3333333), wk =   0.1481481
        k(    9) = (   0.3333333   0.3333333  -0.0000000), wk =   0.1481481
        k(   10) = (   0.3333333   0.3333333   0.3333333), wk =   0.1481481
        k(   11) = (   0.3333333   0.3333333  -0.3333333), wk =   0.1481481
        k(   12) = (   0.3333333  -0.3333333  -0.0000000), wk =   0.1481481
        k(   13) = (   0.3333333  -0.3333333   0.3333333), wk =   0.1481481
        k(   14) = (   0.3333333  -0.3333333  -0.3333333), wk =   0.1481481

     Initial potential from superposition of free atoms

     starting charge      73.9972, renormalised to      74.0000
     Starting wfcs are   52 randomized atomic wfcs +   12 random wfcs
     Checking if some PAW data can be deallocated...

     Self-consistent Calculation

     iteration #  1     ecut=    30.00 Ry     beta= 0.70
     Davidson diagonalization with overlap

     ethr =  1.00E-02,  avg # of iterations =  7.3

     Threshold (ethr) on eigenvalues was too large:
     Diagonalizing with lowered threshold

     Davidson diagonalization with overlap

[...]

     total energy              =    -655.36970181 Ry
     estimated scf accuracy    <       0.10423195 Ry

[...]

     total energy              =    -655.40289505 Ry
     estimated scf accuracy    <       0.00000165 Ry

     iteration # 12     ecut=    30.00 Ry     beta= 0.70
     Davidson diagonalization with overlap

     ethr =  2.23E-09,  avg # of iterations =  2.0

     End of self-consistent calculation

          k = 0.0000 0.0000 0.0000 (  7727 PWs)   bands (ev):

    -8.5789  -8.0608  -7.8041  -7.1303  -6.9662  -6.1606  -5.6363  -5.5286
    -4.7024  -3.9945  -3.4785  -3.1415  -2.9265   0.2052   0.2958   1.3450
     1.7435   2.0381   2.2252   2.2836   2.3307   2.5402   2.8894   2.9270
     3.0667   3.4136   3.5174   3.6822   3.8855   3.9664   4.3545   4.5811
     4.7928   4.8642   4.9978   5.1152   5.1358   5.6973   5.8554   6.4268
     6.6547   6.9154   7.0473   7.1304   7.2095   7.3476   7.5176   7.5721
     7.6984   7.9704   8.0542   8.4862   9.6750   9.8394  10.7092  11.3469
    11.5374  11.6833  11.8096  11.9546  12.1946  12.4696  12.6459  12.6682

     occupation numbers
     1.0000   1.0000   1.0000   1.0000   1.0000   1.0000   1.0000   1.0000
     1.0000   1.0000   1.0000   1.0000   1.0000   1.0000   1.0000   1.0000
     1.0000   1.0000   1.0000   1.0000   1.0000   1.0000   1.0000   1.0000
     1.0000   1.0000   1.0000   1.0000   1.0000   1.0000   1.0000   1.0000
     1.0000   1.0000   1.0000   1.0000   1.0000   0.0000   0.0000   0.0000
     0.0000   0.0000   0.0000   0.0000   0.0000   0.0000   0.0000   0.0000
     0.0000   0.0000   0.0000   0.0000   0.0000   0.0000   0.0000   0.0000
     0.0000   0.0000   0.0000   0.0000   0.0000   0.0000   0.0000   0.0000

[...]

          k = 0.3333-1.2330-0.1880 (  7696 PWs)   bands (ev):

    -8.0720  -7.2526  -6.9880  -6.5662  -6.4238  -5.6570  -5.5341  -5.4608
    -5.2810  -4.6294  -4.1344  -3.7474  -3.3261   0.3032   0.4485   0.6691
     0.8863   1.0563   1.3633   1.4761   1.7745   1.9096   2.0321   2.1337
     2.3472   2.4386   2.6018   2.9296   3.0520   3.4014   3.6403   3.7518
     4.0175   4.2197   4.3723   4.4705   4.6686   6.1111   6.4970   6.8936
     7.0848   7.2171   7.3397   7.5145   7.6913   7.9459   8.1631   8.3117
     8.4523   8.9140   9.0569   9.2090   9.6374   9.8925  10.6058  10.9070
    11.9197  12.0689  12.1752  12.4176  12.6211  12.7784  13.0696  13.2807

     occupation numbers
     1.0000   1.0000   1.0000   1.0000   1.0000   1.0000   1.0000   1.0000
     1.0000   1.0000   1.0000   1.0000   1.0000   1.0000   1.0000   1.0000
     1.0000   1.0000   1.0000   1.0000   1.0000   1.0000   1.0000   1.0000
     1.0000   1.0000   1.0000   1.0000   1.0000   1.0000   1.0000   1.0000
     1.0000   1.0000   1.0000   1.0000   1.0000   0.0000   0.0000   0.0000
     0.0000   0.0000   0.0000   0.0000   0.0000   0.0000   0.0000   0.0000
     0.0000   0.0000   0.0000   0.0000   0.0000   0.0000   0.0000   0.0000
     0.0000   0.0000   0.0000   0.0000   0.0000   0.0000   0.0000   0.0000

     highest occupied, lowest unoccupied level (ev):     5.1587    5.6973

!    total energy              =    -655.40289516 Ry
     estimated scf accuracy    <       0.00000035 Ry

     The total energy is the sum of the following terms:
     one-electron contribution =      25.86830557 Ry
     hartree contribution      =      20.23684782 Ry
     xc contribution           =    -188.11465017 Ry
     ewald contribution        =    -192.86937552 Ry
     one-center paw contrib.   =    -320.52402285 Ry
      -> PAW hartree energy AE =       0.00000000 Ry
      -> PAW hartree energy PS =       0.00000000 Ry
      -> PAW xc energy AE      =       0.00000000 Ry
      -> PAW xc energy PS      =       0.00000000 Ry
      -> total E_H with PAW    =      20.23684782 Ry
      -> total E_XC with PAW   =    -188.11465017 Ry

     convergence has been achieved in  12 iterations

     Writing all to output data dir bands_nm/myprefix.save/

     General routines

     Parallel routines

     PAW routines

   This run was terminated on:   5:23:20  13Jul2023

   JOB DONE.