     Program PWSCF v.7.1 starts on 15Jul2023 at 18:54:44

     Reading input from espresso_11711.pwi
Warning: card &CELL ignored
Warning: card / ignored

     Current dimensions of program PWSCF are:
     Max number of different atomic species (ntypx) = 10
     Max number of k-points (npk) =  40000
     Max angular momentum in pseudopotentials (lmaxx) =  4
     file O.pbe-n-kjpaw_psl.0.1.UPF: wavefunction(s)  2P renormalized
     Message from routine setup:
     using ibrav=0 with symmetry is DISCOURAGED, use correct ibrav instead

     K-points division:     npool     =       2
     R & G space division:  proc/nbgrp/npool/nimage =       4
     Subspace diagonalization in iterative solution of the eigenvalue problem:
     one sub-group per band group will be used

     Using Slab Decomposition

     bravais-lattice index     =            0
     lattice parameter (alat)  =      16.7249  a.u.
     unit-cell volume          =    1691.4082 (a.u.)^3
     number of atoms/cell      =           18
     number of atomic types    =            3
     number of electrons       =       144.00
     number of Kohn-Sham states=          256
     kinetic-energy cutoff     =      30.0000  Ry
     charge density cutoff     =     240.0000  Ry
     scf convergence threshold =      1.0E-06
     mixing beta               =       0.7000
     number of iterations used =            8  plain     mixing
     Exchange-correlation= SLA  PW   PBX  PBC
                           (   1   4   3   4   0   0   0)

     celldm(1)=  16.724939  celldm(2)=   0.000000  celldm(3)=   0.000000
     celldm(4)=   0.000000  celldm(5)=   0.000000  celldm(6)=   0.000000

     crystal axes: (cart. coord. in units of alat)
               a(1) = (   1.000000   0.000000   0.000000 )
               a(2) = (  -0.810097   0.586296   0.000000 )
               a(3) = (   0.000000   0.000000   0.616649 )

     reciprocal axes: (cart. coord. in units 2 pi/alat)
               b(1) = (  1.000000  1.381721  0.000000 )
               b(2) = (  0.000000  1.705624  0.000000 )
               b(3) = (  0.000000  0.000000  1.621668 )

     PseudoPot. # 1 for Bi read from file:
     /lustre07/scratch/pragov/crystal_structure_design/utils/SSSP/Bi_pbe_v1.uspp.F.UPF
     MD5 check sum: cceb9f28ec65b6d7ff33140f5b0b1758
     Pseudo is Ultrasoft + core correction, Zval = 15.0
     Generated by new atomic code, or converted to UPF format
     Using radial grid of  899 points,  6 beta functions with:
                l(1) =   0
                l(2) =   0
                l(3) =   1
                l(4) =   1
                l(5) =   2
                l(6) =   2
     Q(r) pseudized with  6 coefficients,  rinner =    1.000   1.000   1.000
                                                       1.000   1.000

     PseudoPot. # 2 for Te read from file:
     /lustre07/scratch/pragov/crystal_structure_design/utils/SSSP/Te_pbe_v1.uspp.F.UPF
     MD5 check sum: c319670d6894cc26e93307826a071b75
     Pseudo is Ultrasoft + core correction, Zval =  6.0
     Generated by new atomic code, or converted to UPF format
     Using radial grid of  891 points,  5 beta functions with:
                l(1) =   0
                l(2) =   0
                l(3) =   1
                l(4) =   1
                l(5) =   2
     Q(r) pseudized with  6 coefficients,  rinner =    1.800   1.800   1.800
                                                       1.800   1.800

     PseudoPot. # 3 for O  read from file:
     /lustre07/scratch/pragov/crystal_structure_design/utils/SSSP/O.pbe-n-kjpaw_psl.0.1.UPF
     MD5 check sum: 0234752ac141de4415c5fc33072bef88
     Pseudo is Projector augmented-wave + core cor, Zval =  6.0
     Generated using "atomic" code by A. Dal Corso  v.5.0.99 svn rev. 10869
     Shape of augmentation charge: BESSEL
     Using radial grid of 1095 points,  4 beta functions with:
                l(1) =   0
                l(2) =   0
                l(3) =   1
                l(4) =   1
     Q(r) pseudized with 0 coefficients

     atomic species   valence    mass     pseudopotential
        Bi            15.00   208.98040     Bi( 1.00)
        Te             6.00   127.60000     Te( 1.00)
        O              6.00    15.99900     O ( 1.00)

      4 Sym. Ops., with inversion, found ( 2 have fractional translation)

                                    s                        frac. trans.

      isym =  1     identity

 cryst.   s( 1) = (     1          0          0      )
                  (     0          1          0      )
                  (     0          0          1      )

 cart.    s( 1) = (  1.0000000 -0.0000000  0.0000000 )
                  (  0.0000000  1.0000000  0.0000000 )
                  (  0.0000000  0.0000000  1.0000000 )

      isym =  2     180 deg rotation - cart. axis [0,0,1]

 cryst.   s( 2) = (    -1          0          0      )    f =(  0.5000000 )
                  (     0         -1          0      )       (  0.5000000 )
                  (     0          0          1      )       ( -0.5000000 )

 cart.    s( 2) = ( -1.0000000  0.0000000  0.0000000 )    f =(  0.0949515 )
                  (  0.0000000 -1.0000000  0.0000000 )       (  0.2931479 )
                  (  0.0000000  0.0000000  1.0000000 )       ( -0.3083245 )

      isym =  3     inversion

 cryst.   s( 3) = (    -1          0          0      )
                  (     0         -1          0      )
                  (     0          0         -1      )

 cart.    s( 3) = ( -1.0000000  0.0000000  0.0000000 )
                  (  0.0000000 -1.0000000  0.0000000 )
                  (  0.0000000  0.0000000 -1.0000000 )

      isym =  4     inv. 180 deg rotation - cart. axis [0,0,1]

 cryst.   s( 4) = (     1          0          0      )    f =(  0.5000000 )
                  (     0          1          0      )       (  0.5000000 )
                  (     0          0         -1      )       (  0.5000000 )

 cart.    s( 4) = (  1.0000000 -0.0000000  0.0000000 )    f =(  0.0949515 )
                  (  0.0000000  1.0000000  0.0000000 )       (  0.2931479 )
                  (  0.0000000  0.0000000 -1.0000000 )       (  0.3083245 )

   Cartesian axes

     site n.     atom                  positions (alat units)
         1           Bi  tau(   1) = (  -0.2185519   0.3946925   0.0068399  )
         2           Bi  tau(   2) = (  -0.4965937   0.4847511   0.3151644  )
         3           Bi  tau(   3) = (   0.4084548   0.1916032   0.6098091  )
         4           Bi  tau(   4) = (   0.6864966   0.1015447   0.3014846  )
         5           Te  tau(   5) = (   0.0949515   0.2931479   0.3083245  )
         6           Te  tau(   6) = (   0.0000000   0.0000000   0.0000000  )
         7           O   tau(   7) = (  -0.1026767   0.3571602   0.2561979  )
         8           O   tau(   8) = (  -0.6124689   0.5222834   0.5645224  )
         9           O   tau(   9) = (   0.2925797   0.2291355   0.3604511  )
        10           O   tau(  10) = (   0.8023718   0.0640124   0.0521266  )
        11           O   tau(  11) = (   0.2006309   0.4208695   0.1541622  )
        12           O   tau(  12) = (   0.0842235   0.4585742   0.4624867  )
        13           O   tau(  13) = (   0.4992796   0.0002333   0.4624867  )
        14           O   tau(  14) = (  -0.4043281   0.2929145   0.1541622  )
        15           O   tau(  15) = (  -0.3093767   0.5860624   0.1541622  )
        16           O   tau(  16) = (   0.5942310   0.2933812   0.4624867  )
        17           O   tau(  17) = (   0.1056794   0.1277216   0.1541622  )
        18           O   tau(  18) = (  -0.0107279   0.1654263   0.4624867  )

   Crystallographic axes

     site n.     atom                  positions (cryst. coord.)
         1           Bi  tau(   1) = (  0.3268030  0.6731970  0.0110920  )
         2           Bi  tau(   2) = (  0.1731970  0.8268030  0.5110920  )
         3           Bi  tau(   3) = (  0.6731970  0.3268030  0.9889080  )
         4           Bi  tau(   4) = (  0.8268030  0.1731970  0.4889080  )
         5           Te  tau(   5) = (  0.5000000  0.5000000  0.5000000  )
         6           Te  tau(   6) = (  0.0000000  0.0000000  0.0000000  )
         7           O   tau(   7) = (  0.3908190  0.6091810  0.4154680  )
         8           O   tau(   8) = (  0.1091810  0.8908190  0.9154680  )
         9           O   tau(   9) = (  0.6091810  0.3908190  0.5845320  )
        10           O   tau(  10) = (  0.8908190  0.1091810  0.0845320  )
        11           O   tau(  11) = (  0.7821550  0.7178450  0.2500000  )
        12           O   tau(  12) = (  0.7178450  0.7821550  0.7500000  )
        13           O   tau(  13) = (  0.4996020  0.0003980  0.7500000  )
        14           O   tau(  14) = (  0.0003980  0.4996020  0.2500000  )
        15           O   tau(  15) = (  0.5003980  0.9996020  0.2500000  )
        16           O   tau(  16) = (  0.9996020  0.5003980  0.7500000  )
        17           O   tau(  17) = (  0.2821550  0.2178450  0.2500000  )
        18           O   tau(  18) = (  0.2178450  0.2821550  0.7500000  )

     number of k points=    10
                       cart. coord. in units 2pi/alat
        k(    1) = (   0.0000000   0.0000000   0.0000000), wk =   0.0740741
        k(    2) = (   0.0000000   0.0000000   0.5405561), wk =   0.1481481
        k(    3) = (   0.0000000   0.5685413   0.0000000), wk =   0.1481481
        k(    4) = (   0.0000000   0.5685413   0.5405561), wk =   0.2962963
        k(    5) = (   0.3333333   0.4605736   0.0000000), wk =   0.1481481
        k(    6) = (   0.3333333   0.4605736   0.5405561), wk =   0.2962963
        k(    7) = (   0.3333333   1.0291149   0.0000000), wk =   0.1481481
        k(    8) = (   0.3333333   1.0291149   0.5405561), wk =   0.2962963
        k(    9) = (   0.3333333  -0.1079676   0.0000000), wk =   0.1481481
        k(   10) = (   0.3333333  -0.1079676   0.5405561), wk =   0.2962963

                       cryst. coord.
        k(    1) = (   0.0000000   0.0000000   0.0000000), wk =   0.0740741
        k(    2) = (   0.0000000   0.0000000   0.3333333), wk =   0.1481481
        k(    3) = (   0.0000000   0.3333333   0.0000000), wk =   0.1481481
        k(    4) = (   0.0000000   0.3333333   0.3333333), wk =   0.2962963
        k(    5) = (   0.3333333   0.0000000   0.0000000), wk =   0.1481481
        k(    6) = (   0.3333333   0.0000000   0.3333333), wk =   0.2962963
        k(    7) = (   0.3333333   0.3333333   0.0000000), wk =   0.1481481
        k(    8) = (   0.3333333   0.3333333   0.3333333), wk =   0.2962963
        k(    9) = (   0.3333333  -0.3333333   0.0000000), wk =   0.1481481
        k(   10) = (   0.3333333  -0.3333333   0.3333333), wk =   0.2962963

     Check: negative core charge=   -0.000009

     Initial potential from superposition of free atoms

     starting charge     139.9994, renormalised to     144.0000

     negative rho (up, down):  1.684E-01 0.000E+00
     Starting wfcs are   92 randomized atomic wfcs +  164 random wfcs
     Checking if some PAW data can be deallocated...

     Self-consistent Calculation

     iteration #  1     ecut=    30.00 Ry     beta= 0.70
     Davidson diagonalization with overlap

     ethr =  1.00E-02,  avg # of iterations =  9.6

     negative rho (up, down):  1.535E-01 0.000E+00

     total energy              =   -1289.66849082 Ry
     estimated scf accuracy    <       6.09894530 Ry

[...]

     total energy              =   -1292.91861359 Ry
     estimated scf accuracy    <       0.00000642 Ry

     iteration # 12     ecut=    30.00 Ry     beta= 0.70
     Davidson diagonalization with overlap

     ethr =  4.46E-09,  avg # of iterations =  1.0

     negative rho (up, down):  1.588E-01 0.000E+00

     End of self-consistent calculation

          k = 0.0000 0.0000 0.0000 (  4695 PWs)   bands (ev):

   -13.0637 -13.0620 -13.0440 -12.8663 -12.8652 -12.8639 -12.8632 -12.8545
   -12.8393 -12.8278 -12.8056 -12.8024 -12.8007 -12.8001 -12.7927 -12.7880
   -12.7827 -12.7786 -12.7784 -12.7766 -11.3829  -9.5921  -9.3482  -9.2629
    -8.9838  -8.7541  -8.5190  -8.1043  -7.8118  -7.7891  -7.7725  -7.0345
    -2.8861  -0.8232  -0.8046  -0.7522   0.5900   1.1957   1.7490   2.7576
     3.6049   4.3010   4.3111   4.5324   4.5860   4.6264   4.7631   5.2729
     5.4972   5.7019   6.1475   6.2628   6.3092   6.4558   6.7187   6.9905
     7.1973   7.2379   7.4254   7.5904   7.6025   7.7386   7.8221   7.9278
     7.9411   7.9610   8.1723   8.3549   8.3851   8.4351   8.5340   8.6673
    10.5131  12.0615  12.4944  12.9159  12.9665  13.6307  13.9793  14.0966
    14.4553  14.5527  15.1794  15.3887  15.4977  15.7622  15.7828  16.5137
    16.5759  18.0060  18.2323  18.5199  19.8931  19.9832  20.0855  20.1570
    20.2644  20.3526  20.5133  20.8020  21.4481  21.9569  22.3669  22.4991
    22.9841  23.1064  23.1469  23.2295  23.6939  23.7719  24.0179  24.7493
    24.9580  24.9636  25.4752  25.6654  25.9899  26.3236  26.3595  26.5446
    26.6588  26.7616  26.9074  27.0007  27.8008  27.9957  28.0440  28.1329
    28.6209  28.6753  29.0966  29.2206  29.4929  29.5160  29.8483  29.9213
    30.0510  30.1388  30.2225  30.8572  30.9588  30.9952  31.1691  31.3082
    31.4265  31.4774  31.7809  32.0678  32.3082  32.7540  32.7771  33.0457
    33.2876  33.4019  33.9552  34.0114  34.0991  34.3549  34.4155  34.6460
    34.7911  34.7920  35.0137  35.1899  35.4205  35.4529  35.8943  35.9586
    35.9903  36.0093  36.0208  36.0424  36.3248  36.4468  36.4559  36.8086
    36.8725  37.1008  37.1758  37.5593  37.8370  37.8799  38.0095  38.1034
    38.2428  38.5190  38.5809  38.8223  39.1838  39.2922  39.6782  39.7034
    40.0300  40.1649  40.2470  40.7233  41.0187  41.0383  41.1285  41.1918
    41.2057  41.2167  41.4914  41.5664  41.6113  41.7073  41.7705  42.2861
    42.4862  43.2030  43.2050  43.3079  43.4897  43.8880  44.1483  44.2006
    44.2646  44.9682  45.0086  45.0921  45.1613  45.9379  46.1023  46.1229
    46.2941  46.4192  46.7238  46.9173  47.0432  47.1412  47.2032  47.2676
    47.6548  47.8360  47.9163  48.1307  48.2030  48.3524  48.5308  48.6307
    48.6770  48.8506  49.0277  49.0378  49.0801  49.5381  49.6467  49.6620
    50.1736  50.3280  50.4227  50.4745  50.6449  50.7104  50.7755  51.0243

     occupation numbers
     1.0000   1.0000   1.0000   1.0000   1.0000   1.0000   1.0000   1.0000
     1.0000   1.0000   1.0000   1.0000   1.0000   1.0000   1.0000   1.0000
     1.0000   1.0000   1.0000   1.0000   1.0000   1.0000   1.0000   1.0000
     1.0000   1.0000   1.0000   1.0000   1.0000   1.0000   1.0000   1.0000
     1.0000   1.0000   1.0000   1.0000   1.0000   1.0000   1.0000   1.0000
     1.0000   1.0000   1.0000   1.0000   1.0000   1.0000   1.0000   1.0000
     1.0000   1.0000   1.0000   1.0000   1.0000   1.0000   1.0000   1.0000
     1.0000   1.0000   1.0000   1.0000   1.0000   1.0000   1.0000   1.0000
     1.0000   1.0000   1.0000   1.0000   1.0000   1.0000   1.0000   1.0000
     0.0000   0.0000   0.0000   0.0000   0.0000   0.0000   0.0000   0.0000
     0.0000   0.0000   0.0000   0.0000   0.0000   0.0000   0.0000   0.0000
     0.0000   0.0000   0.0000   0.0000   0.0000   0.0000   0.0000   0.0000
     0.0000   0.0000   0.0000   0.0000   0.0000   0.0000   0.0000   0.0000
     0.0000   0.0000   0.0000   0.0000   0.0000   0.0000   0.0000   0.0000
     0.0000   0.0000   0.0000   0.0000   0.0000   0.0000   0.0000   0.0000
     0.0000   0.0000   0.0000   0.0000   0.0000   0.0000   0.0000   0.0000
     0.0000   0.0000   0.0000   0.0000   0.0000   0.0000   0.0000   0.0000
     0.0000   0.0000   0.0000   0.0000   0.0000   0.0000   0.0000   0.0000
     0.0000   0.0000   0.0000   0.0000   0.0000   0.0000   0.0000   0.0000
     0.0000   0.0000   0.0000   0.0000   0.0000   0.0000   0.0000   0.0000
     0.0000   0.0000   0.0000   0.0000   0.0000   0.0000   0.0000   0.0000
     0.0000   0.0000   0.0000   0.0000   0.0000   0.0000   0.0000   0.0000
     0.0000   0.0000   0.0000   0.0000   0.0000   0.0000   0.0000   0.0000
     0.0000   0.0000   0.0000   0.0000   0.0000   0.0000   0.0000   0.0000
     0.0000   0.0000   0.0000   0.0000   0.0000   0.0000   0.0000   0.0000
     0.0000   0.0000   0.0000   0.0000   0.0000   0.0000   0.0000   0.0000
     0.0000   0.0000   0.0000   0.0000   0.0000   0.0000   0.0000   0.0000
     0.0000   0.0000   0.0000   0.0000   0.0000   0.0000   0.0000   0.0000
     0.0000   0.0000   0.0000   0.0000   0.0000   0.0000   0.0000   0.0000
     0.0000   0.0000   0.0000   0.0000   0.0000   0.0000   0.0000   0.0000
     0.0000   0.0000   0.0000   0.0000   0.0000   0.0000   0.0000   0.0000
     0.0000   0.0000   0.0000   0.0000   0.0000   0.0000   0.0000   0.0000

[...]

          k = 0.3333-0.1080 0.5406 (  4679 PWs)   bands (ev):

   -13.0526 -13.0498 -12.9923 -12.8789 -12.8594 -12.8558 -12.8472 -12.8434
   -12.8432 -12.8253 -12.8225 -12.8150 -12.8143 -12.8069 -12.8041 -12.7978
   -12.7962 -12.7958 -12.7928 -12.7870 -11.0761 -10.2786  -9.3750  -8.8018
    -8.7864  -8.5923  -8.3452  -8.2933  -8.2398  -7.8800  -7.6328  -7.2436
    -2.3680  -1.3335  -0.8226  -0.3840   0.0771   1.1885   2.4168   3.2316
     3.4877   3.9608   3.9971   4.2922   4.7684   4.8979   4.9494   5.3312
     5.4434   5.8384   6.0486   6.1996   6.3744   6.5509   6.8231   6.9417
     7.0368   7.0664   7.3031   7.5201   7.6169   7.7149   7.7473   7.9717
     7.9871   8.0457   8.0987   8.2133   8.2890   8.3513   8.4257   8.7625
    10.6617  11.7584  12.8191  13.0860  13.3936  13.6572  14.1616  14.4103
    14.7524  14.7823  14.8607  15.1112  15.1887  15.4638  15.6542  15.9645
    16.9171  17.0894  18.4608  18.8298  19.2121  19.5497  20.2512  20.6868
    20.7534  21.0034  21.1111  21.3915  21.9229  21.9982  22.2902  22.4308
    22.7439  23.0147  23.0246  23.3977  23.5750  23.9006  24.0970  24.2470
    24.3805  24.4107  24.9809  25.0314  25.2383  25.6927  26.1628  26.5713
    27.0617  27.2002  27.2218  27.3957  27.6102  27.8437  28.0015  28.1608
    28.2690  28.4623  28.7121  28.7332  28.8911  29.2489  29.6568  30.0350
    30.0370  30.6313  30.6437  30.7470  30.7615  31.4822  31.5718  31.6631
    31.7682  32.0255  32.1893  32.2777  32.4449  32.9409  33.2405  33.2918
    33.3794  33.6250  33.7676  33.9838  34.2233  34.3036  34.7694  34.8465
    34.9493  35.0694  35.1097  35.2674  35.4643  35.5779  35.6962  36.0009
    36.0272  36.0342  36.0368  36.1606  36.3409  36.3855  36.5601  36.6432
    37.1367  37.2497  37.4942  37.8951  37.9834  38.1115  38.1247  38.5463
    38.6815  38.7814  38.8200  39.1448  39.1896  39.3880  39.7126  39.9496
    40.0614  40.1681  40.1698  40.4911  40.6356  40.6930  40.8007  41.1914
    41.2581  41.6526  41.6984  41.8401  42.1788  42.2370  42.4404  42.6237
    42.6663  42.8835  43.2675  43.3800  43.4188  43.6361  43.6398  44.1927
    44.3151  44.4092  44.4337  44.5491  44.8745  45.0524  45.2086  45.2608
    45.6049  45.6555  46.1723  46.3628  46.4637  46.6351  46.7823  47.0189
    47.0734  47.4582  47.4748  47.5830  47.8588  47.9384  47.9435  48.2074
    48.4463  48.5571  48.8050  48.8358  48.9783  49.1579  49.2756  49.2959
    49.5020  49.7147  49.9734  50.1291  50.2343  50.4504  50.5863  50.6445

     occupation numbers
     1.0000   1.0000   1.0000   1.0000   1.0000   1.0000   1.0000   1.0000
     1.0000   1.0000   1.0000   1.0000   1.0000   1.0000   1.0000   1.0000
     1.0000   1.0000   1.0000   1.0000   1.0000   1.0000   1.0000   1.0000
     1.0000   1.0000   1.0000   1.0000   1.0000   1.0000   1.0000   1.0000
     1.0000   1.0000   1.0000   1.0000   1.0000   1.0000   1.0000   1.0000
     1.0000   1.0000   1.0000   1.0000   1.0000   1.0000   1.0000   1.0000
     1.0000   1.0000   1.0000   1.0000   1.0000   1.0000   1.0000   1.0000
     1.0000   1.0000   1.0000   1.0000   1.0000   1.0000   1.0000   1.0000
     1.0000   1.0000   1.0000   1.0000   1.0000   1.0000   1.0000   1.0000
     0.0000   0.0000   0.0000   0.0000   0.0000   0.0000   0.0000   0.0000
     0.0000   0.0000   0.0000   0.0000   0.0000   0.0000   0.0000   0.0000
     0.0000   0.0000   0.0000   0.0000   0.0000   0.0000   0.0000   0.0000
     0.0000   0.0000   0.0000   0.0000   0.0000   0.0000   0.0000   0.0000
     0.0000   0.0000   0.0000   0.0000   0.0000   0.0000   0.0000   0.0000
     0.0000   0.0000   0.0000   0.0000   0.0000   0.0000   0.0000   0.0000
     0.0000   0.0000   0.0000   0.0000   0.0000   0.0000   0.0000   0.0000
     0.0000   0.0000   0.0000   0.0000   0.0000   0.0000   0.0000   0.0000
     0.0000   0.0000   0.0000   0.0000   0.0000   0.0000   0.0000   0.0000
     0.0000   0.0000   0.0000   0.0000   0.0000   0.0000   0.0000   0.0000
     0.0000   0.0000   0.0000   0.0000   0.0000   0.0000   0.0000   0.0000
     0.0000   0.0000   0.0000   0.0000   0.0000   0.0000   0.0000   0.0000
     0.0000   0.0000   0.0000   0.0000   0.0000   0.0000   0.0000   0.0000
     0.0000   0.0000   0.0000   0.0000   0.0000   0.0000   0.0000   0.0000
     0.0000   0.0000   0.0000   0.0000   0.0000   0.0000   0.0000   0.0000
     0.0000   0.0000   0.0000   0.0000   0.0000   0.0000   0.0000   0.0000
     0.0000   0.0000   0.0000   0.0000   0.0000   0.0000   0.0000   0.0000
     0.0000   0.0000   0.0000   0.0000   0.0000   0.0000   0.0000   0.0000
     0.0000   0.0000   0.0000   0.0000   0.0000   0.0000   0.0000   0.0000
     0.0000   0.0000   0.0000   0.0000   0.0000   0.0000   0.0000   0.0000
     0.0000   0.0000   0.0000   0.0000   0.0000   0.0000   0.0000   0.0000
     0.0000   0.0000   0.0000   0.0000   0.0000   0.0000   0.0000   0.0000
     0.0000   0.0000   0.0000   0.0000   0.0000   0.0000   0.0000   0.0000

     highest occupied, lowest unoccupied level (ev):     8.8604   10.1632

!    total energy              =   -1292.91861445 Ry
     estimated scf accuracy    <       0.00000007 Ry

     The total energy is the sum of the following terms:
     one-electron contribution =    -285.90443969 Ry
     hartree contribution      =     246.57640711 Ry
     xc contribution           =    -377.01916916 Ry
     ewald contribution        =    -762.20851162 Ry
     one-center paw contrib.   =    -114.36290109 Ry
      -> PAW hartree energy AE =       0.00000000 Ry
      -> PAW hartree energy PS =       0.00000000 Ry
      -> PAW xc energy AE      =       0.00000000 Ry
      -> PAW xc energy PS      =       0.00000000 Ry
      -> total E_H with PAW    =     246.57640711 Ry
      -> total E_XC with PAW   =    -377.01916916 Ry

     convergence has been achieved in  12 iterations

     Writing all to output data dir bands_nm/myprefix.save/

     General routines

     Parallel routines

     PAW routines

   This run was terminated on:  18:55:45  15Jul2023

   JOB DONE.