     Program PWSCF v.7.1 starts on 14Jul2023 at 21: 6: 5

     Reading input from espresso_21981.pwi
Warning: card &CELL ignored
Warning: card / ignored

     Current dimensions of program PWSCF are:
     Max number of different atomic species (ntypx) = 10
     Max number of k-points (npk) =  40000
     Max angular momentum in pseudopotentials (lmaxx) =  4
     file Pb.pbe-dn-kjpaw_psl.0.2.2.UPF: wavefunction(s)  6S renormalized

     K-points division:     npool     =       2
     R & G space division:  proc/nbgrp/npool/nimage =       4
     Subspace diagonalization in iterative solution of the eigenvalue problem:
     a serial algorithm will be used

     Using Slab Decomposition

     bravais-lattice index     =            0
     lattice parameter (alat)  =      13.4786  a.u.
     unit-cell volume          =    2282.9884 (a.u.)^3
     number of atoms/cell      =           13
     number of atomic types    =            4
     number of electrons       =        94.00
     number of Kohn-Sham states=           64
     kinetic-energy cutoff     =      30.0000  Ry
     charge density cutoff     =     240.0000  Ry
     scf convergence threshold =      1.0E-06
     mixing beta               =       0.7000
     number of iterations used =            8  plain     mixing
     Exchange-correlation= SLA  PW   PBE  PBE
                           (   1   4   3   4   0   0   0)

     celldm(1)=  13.478564  celldm(2)=   0.000000  celldm(3)=   0.000000
     celldm(4)=   0.000000  celldm(5)=   0.000000  celldm(6)=   0.000000

     crystal axes: (cart. coord. in units of alat)
               a(1) = (   1.000000   0.000000   0.000000 )
               a(2) = (  -0.498293   0.867009   0.000000 )
               a(3) = (   0.168041   0.290395   1.075349 )

     reciprocal axes: (cart. coord. in units 2 pi/alat)
               b(1) = (  1.000000  0.574726 -0.311470 )
               b(2) = (  0.000000  1.153391 -0.311470 )
               b(3) = (  0.000000  0.000000  0.929931 )

     PseudoPot. # 1 for Na read from file:
     /lustre07/scratch/pragov/crystal_structure_design/utils/SSSP/na_pbe_v1.5.uspp.F.UPF
     MD5 check sum: 44600605ef58000f06b90626533354dc
     Pseudo is Ultrasoft, Zval =  9.0
     Generated by new atomic code, or converted to UPF format
     Using radial grid of  819 points,  5 beta functions with:
                l(1) =   0
                l(2) =   0
                l(3) =   1
                l(4) =   1
                l(5) =   2
     Q(r) pseudized with  8 coefficients,  rinner =    1.250   1.250   1.250
                                                       1.250   1.250

     PseudoPot. # 2 for Si read from file:
     /lustre07/scratch/pragov/crystal_structure_design/utils/SSSP/Si.pbe-n-rrkjus_psl.1.0.0.UPF
     MD5 check sum: 0b0bb1205258b0d07b9f9672cf965d36
     Pseudo is Ultrasoft + core correction, Zval =  4.0
     Generated using "atomic" code by A. Dal Corso  v.5.1
     Using radial grid of 1141 points,  6 beta functions with:
                l(1) =   0
                l(2) =   0
                l(3) =   1
                l(4) =   1
                l(5) =   2
                l(6) =   2
     Q(r) pseudized with 0 coefficients

     PseudoPot. # 3 for Pb read from file:
     /lustre07/scratch/pragov/crystal_structure_design/utils/SSSP/Pb.pbe-dn-kjpaw_psl.0.2.2.UPF
     MD5 check sum: 9d431e6316058b74ade52399a6cf67da
     Pseudo is Projector augmented-wave + core cor, Zval = 14.0
     Generated using "atomic" code by A. Dal Corso  v.5.0.99 svn rev. 10869
     Shape of augmentation charge: PSQ
     Using radial grid of 1281 points,  6 beta functions with:
                l(1) =   0
                l(2) =   0
                l(3) =   1
                l(4) =   1
                l(5) =   2
                l(6) =   2
     Q(r) pseudized with 0 coefficients

     PseudoPot. # 4 for Se read from file:
     /lustre07/scratch/pragov/crystal_structure_design/utils/SSSP/Se_pbe_v1.uspp.F.UPF
     MD5 check sum: 1b3568f3a8ae88f9a2a0ad0698632c85
     Pseudo is Ultrasoft + core correction, Zval =  6.0
     Generated by new atomic code, or converted to UPF format
     Using radial grid of  877 points,  6 beta functions with:
                l(1) =   0
                l(2) =   0
                l(3) =   1
                l(4) =   1
                l(5) =   2
                l(6) =   2
     Q(r) pseudized with  8 coefficients,  rinner =    1.300   1.300   1.300
                                                       1.300   1.300

     atomic species   valence    mass     pseudopotential
        Na             9.00    22.98977     Na( 1.00)
        Si             4.00    28.08500     Si( 1.00)
        Pb            14.00   207.20000     Pb( 1.00)
        Se             6.00    78.97100     Se( 1.00)

     No symmetry found

                                    s                        frac. trans.

      isym =  1     identity

 cryst.   s( 1) = (     1          0          0      )
                  (     0          1          0      )
                  (     0          0          1      )

 cart.    s( 1) = (  1.0000000  0.0000000 -0.0000000 )
                  (  0.0000000  1.0000000  0.0000000 )
                  (  0.0000000  0.0000000  1.0000000 )

   Cartesian axes

     site n.     atom                  positions (alat units)
         1           Na  tau(   1) = (   0.2506334   0.4336319   0.0000000  )
         2           Na  tau(   2) = (   0.7378767   0.1516815   0.0000000  )
         3           Na  tau(   3) = (  -0.2359132   0.7151792   0.0000000  )
         4           Na  tau(   4) = (   0.5819127   0.4357493   0.5376744  )
         5           Si  tau(   5) = (   0.0832717   0.1438928   0.3726868  )
         6           Si  tau(   6) = (   0.5864857   1.0135055   0.7026619  )
         7           Pb  tau(   7) = (   0.0880889   0.7215076   0.5376744  )
         8           Se  tau(   8) = (   0.4317717   0.7456128   0.2728289  )
         9           Se  tau(   9) = (   0.2384441   0.4115202   0.8025198  )
        10           Se  tau(  10) = (  -0.0699689   0.4107563   0.2728213  )
        11           Se  tau(  11) = (   0.3908477   0.1446428   0.2724589  )
        12           Se  tau(  12) = (   0.7390983   0.7464606   0.8028898  )
        13           Se  tau(  13) = (   0.2787540   1.0133902   0.8025274  )

   Crystallographic axes

     site n.     atom                  positions (cryst. coord.)
         1           Na  tau(   1) = (  0.4998530  0.5001470  0.0000000  )
         2           Na  tau(   2) = (  0.8250520  0.1749480  0.0000000  )
         3           Na  tau(   3) = (  0.1751190  0.8248810  0.0000000  )
         4           Na  tau(   4) = (  0.6648800  0.3351200  0.5000000  )
         5           Si  tau(   5) = (  0.0498900  0.0498840  0.3465730  )
         6           Si  tau(   6) = (  0.9501160  0.9501100  0.6534270  )
         7           Pb  tau(   7) = (  0.3352890  0.6647110  0.5000000  )
         8           Se  tau(   8) = (  0.7753170  0.7750050  0.2537120  )
         9           Se  tau(   9) = (  0.2249950  0.2246830  0.7462880  )
        10           Se  tau(  10) = (  0.0811280  0.3887870  0.2537050  )
        11           Se  tau(  11) = (  0.3891150  0.0819670  0.2533680  )
        12           Se  tau(  12) = (  0.9180330  0.6108850  0.7466320  )
        13           Se  tau(  13) = (  0.6112130  0.9188720  0.7462950  )

     number of k points=    14
                       cart. coord. in units 2pi/alat
        k(    1) = (   0.0000000   0.0000000   0.0000000), wk =   0.0740741
        k(    2) = (   0.0000000   0.0000000   0.3099770), wk =   0.1481481
        k(    3) = (   0.0000000   0.3844636  -0.1038232), wk =   0.1481481
        k(    4) = (   0.0000000   0.3844636   0.2061538), wk =   0.1481481
        k(    5) = (   0.0000000   0.3844636  -0.4138002), wk =   0.1481481
        k(    6) = (   0.3333333   0.1915754  -0.1038232), wk =   0.1481481
        k(    7) = (   0.3333333   0.1915754   0.2061538), wk =   0.1481481
        k(    8) = (   0.3333333   0.1915754  -0.4138002), wk =   0.1481481
        k(    9) = (   0.3333333   0.5760389  -0.2076464), wk =   0.1481481
        k(   10) = (   0.3333333   0.5760389   0.1023306), wk =   0.1481481
        k(   11) = (   0.3333333   0.5760389  -0.5176234), wk =   0.1481481
        k(   12) = (   0.3333333  -0.1928882   0.0000000), wk =   0.1481481
        k(   13) = (   0.3333333  -0.1928882   0.3099770), wk =   0.1481481
        k(   14) = (   0.3333333  -0.1928882  -0.3099770), wk =   0.1481481

                       cryst. coord.
        k(    1) = (   0.0000000   0.0000000   0.0000000), wk =   0.0740741
        k(    2) = (   0.0000000   0.0000000   0.3333333), wk =   0.1481481
        k(    3) = (   0.0000000   0.3333333   0.0000000), wk =   0.1481481
        k(    4) = (   0.0000000   0.3333333   0.3333333), wk =   0.1481481
        k(    5) = (   0.0000000   0.3333333  -0.3333333), wk =   0.1481481
        k(    6) = (   0.3333333  -0.0000000  -0.0000000), wk =   0.1481481
        k(    7) = (   0.3333333  -0.0000000   0.3333333), wk =   0.1481481
        k(    8) = (   0.3333333  -0.0000000  -0.3333333), wk =   0.1481481
        k(    9) = (   0.3333333   0.3333333  -0.0000000), wk =   0.1481481
        k(   10) = (   0.3333333   0.3333333   0.3333333), wk =   0.1481481
        k(   11) = (   0.3333333   0.3333333  -0.3333333), wk =   0.1481481
        k(   12) = (   0.3333333  -0.3333333  -0.0000000), wk =   0.1481481
        k(   13) = (   0.3333333  -0.3333333   0.3333333), wk =   0.1481481
        k(   14) = (   0.3333333  -0.3333333  -0.3333333), wk =   0.1481481

     Initial potential from superposition of free atoms

     starting charge      93.9709, renormalised to      94.0000
     Starting wfcs are   61 randomized atomic wfcs +    3 random wfcs
     Checking if some PAW data can be deallocated...

     Self-consistent Calculation

     iteration #  1     ecut=    30.00 Ry     beta= 0.70
     Davidson diagonalization with overlap

     ethr =  1.00E-02,  avg # of iterations =  6.1

     Threshold (ethr) on eigenvalues was too large:
     Diagonalizing with lowered threshold

     Davidson diagonalization with overlap

[...]

     total energy              =   -1537.04490238 Ry
     estimated scf accuracy    <       0.40307626 Ry

[...]

     total energy              =   -1537.17518067 Ry
     estimated scf accuracy    <       0.00000102 Ry

     iteration #  9     ecut=    30.00 Ry     beta= 0.70
     Davidson diagonalization with overlap

     ethr =  1.08E-09,  avg # of iterations =  5.2

     End of self-consistent calculation

          k = 0.0000 0.0000 0.0000 (  6333 PWs)   bands (ev):

   -47.3587 -47.3500 -47.3069 -47.0803 -19.2708 -19.2700 -19.2647 -19.2646
   -19.2574 -19.2426 -19.2332 -19.2095 -19.2027 -18.9895 -18.9881 -18.9808
   -12.1256 -12.1229 -12.1031 -12.0996 -12.0923  -8.9811  -8.4689  -7.7160
    -7.7013  -7.6436  -7.6343  -3.9587  -2.9861  -1.8955   0.3290   0.4312
     0.6233   0.7699   0.7809   1.9974   2.2570   2.3501   2.4747   2.6455
     2.6859   2.9985   3.2261   3.2771   3.3775   3.4383   3.4451   6.4525
     7.1413   7.3316   7.3899   7.5516   7.5929   8.3203   8.6297   8.8259
     9.5167   9.5841   9.7476  10.0238  10.1643  10.6623  10.7113  10.9402

     occupation numbers
     1.0000   1.0000   1.0000   1.0000   1.0000   1.0000   1.0000   1.0000
     1.0000   1.0000   1.0000   1.0000   1.0000   1.0000   1.0000   1.0000
     1.0000   1.0000   1.0000   1.0000   1.0000   1.0000   1.0000   1.0000
     1.0000   1.0000   1.0000   1.0000   1.0000   1.0000   1.0000   1.0000
     1.0000   1.0000   1.0000   1.0000   1.0000   1.0000   1.0000   1.0000
     1.0000   1.0000   1.0000   1.0000   1.0000   1.0000   1.0000   0.0000
     0.0000   0.0000   0.0000   0.0000   0.0000   0.0000   0.0000   0.0000
     0.0000   0.0000   0.0000   0.0000   0.0000   0.0000   0.0000   0.0000

[...]

          k = 0.3333-0.1929-0.3100 (  6334 PWs)   bands (ev):

   -47.3587 -47.3500 -47.3068 -47.0803 -19.2705 -19.2697 -19.2646 -19.2636
   -19.2581 -19.2433 -19.2337 -19.2088 -19.2028 -18.9889 -18.9882 -18.9813
   -12.1259 -12.1234 -12.1032 -12.0996 -12.0922  -8.8088  -8.4507  -7.8978
    -7.7571  -7.7242  -7.6571  -3.6802  -3.0323  -1.8134   0.3028   0.5190
     0.6402   1.0708   1.0991   1.7130   1.9131   2.1420   2.3467   2.4952
     2.6313   2.7762   2.9816   3.1870   3.3386   3.5485   3.9410   6.7964
     7.1456   7.2691   7.4644   7.5892   7.7988   8.0947   8.5608   8.9414
     9.2597   9.4006   9.6400  10.0790  10.2732  10.3751  10.6442  10.7403

     occupation numbers
     1.0000   1.0000   1.0000   1.0000   1.0000   1.0000   1.0000   1.0000
     1.0000   1.0000   1.0000   1.0000   1.0000   1.0000   1.0000   1.0000
     1.0000   1.0000   1.0000   1.0000   1.0000   1.0000   1.0000   1.0000
     1.0000   1.0000   1.0000   1.0000   1.0000   1.0000   1.0000   1.0000
     1.0000   1.0000   1.0000   1.0000   1.0000   1.0000   1.0000   1.0000
     1.0000   1.0000   1.0000   1.0000   1.0000   1.0000   1.0000   0.0000
     0.0000   0.0000   0.0000   0.0000   0.0000   0.0000   0.0000   0.0000
     0.0000   0.0000   0.0000   0.0000   0.0000   0.0000   0.0000   0.0000

     highest occupied, lowest unoccupied level (ev):     3.9860    6.1809

!    total energy              =   -1537.17518140 Ry
     estimated scf accuracy    <       0.00000018 Ry

     The total energy is the sum of the following terms:
     one-electron contribution =    -370.20009836 Ry
     hartree contribution      =     221.54391451 Ry
     xc contribution           =    -292.58122000 Ry
     ewald contribution        =    -367.46020037 Ry
     one-center paw contrib.   =    -728.47757716 Ry
      -> PAW hartree energy AE =       0.00000000 Ry
      -> PAW hartree energy PS =       0.00000000 Ry
      -> PAW xc energy AE      =       0.00000000 Ry
      -> PAW xc energy PS      =       0.00000000 Ry
      -> total E_H with PAW    =     221.54391451 Ry
      -> total E_XC with PAW   =    -292.58122000 Ry

     convergence has been achieved in   9 iterations

     Writing all to output data dir bands_nm/myprefix.save/

     General routines

     Parallel routines

     PAW routines

   This run was terminated on:  21: 6:25  14Jul2023

   JOB DONE.