     Program PWSCF v.7.1 starts on 14Jul2023 at 13:42:32

     Reading input from espresso_18518.pwi
Warning: card &CELL ignored
Warning: card / ignored

     Current dimensions of program PWSCF are:
     Max number of different atomic species (ntypx) = 10
     Max number of k-points (npk) =  40000
     Max angular momentum in pseudopotentials (lmaxx) =  4
     file Ga.pbe-dn-kjpaw_psl.1.0.0.UPF: wavefunction(s)  4S renormalized
     Message from routine setup:
     using ibrav=0 with symmetry is DISCOURAGED, use correct ibrav instead

     K-points division:     npool     =       2
     R & G space division:  proc/nbgrp/npool/nimage =       4
     Subspace diagonalization in iterative solution of the eigenvalue problem:
     a serial algorithm will be used

     Using Slab Decomposition

     bravais-lattice index     =            0
     lattice parameter (alat)  =      10.5033  a.u.
     unit-cell volume          =    1003.6070 (a.u.)^3
     number of atoms/cell      =           16
     number of atomic types    =            4
     number of electrons       =        84.00
     number of Kohn-Sham states=           64
     kinetic-energy cutoff     =      30.0000  Ry
     charge density cutoff     =     240.0000  Ry
     scf convergence threshold =      1.0E-06
     mixing beta               =       0.7000
     number of iterations used =            8  plain     mixing
     Exchange-correlation=  SLA  PW   PBX  PBC
                           (   1   4   3   4   0   0   0)

     celldm(1)=  10.503331  celldm(2)=   0.000000  celldm(3)=   0.000000
     celldm(4)=   0.000000  celldm(5)=   0.000000  celldm(6)=   0.000000

     crystal axes: (cart. coord. in units of alat)
               a(1) = (   1.000000   0.000000   0.000000 )
               a(2) = (  -0.506810   0.862058   0.000000 )
               a(3) = (   0.000000   0.000000   1.004722 )

     reciprocal axes: (cart. coord. in units 2 pi/alat)
               b(1) = (  1.000000  0.587907  0.000000 )
               b(2) = (  0.000000  1.160015  0.000000 )
               b(3) = (  0.000000  0.000000  0.995300 )

     PseudoPot. # 1 for Ga read from file:
     /lustre07/scratch/pragov/crystal_structure_design/utils/SSSP/Ga.pbe-dn-kjpaw_psl.1.0.0.UPF
     MD5 check sum: a27b4342b1af7e5f338de752e9ed7044
     Pseudo is Projector augmented-wave + core cor, Zval = 13.0
     Generated using "atomic" code by A. Dal Corso  v.5.1
     Shape of augmentation charge: PSQ
     Using radial grid of 1205 points,  6 beta functions with:
                l(1) =   0
                l(2) =   0
                l(3) =   1
                l(4) =   1
                l(5) =   2
                l(6) =   2
     Q(r) pseudized with 0 coefficients

     PseudoPot. # 2 for H  read from file:
     /lustre07/scratch/pragov/crystal_structure_design/utils/SSSP/H.pbe-rrkjus_psl.1.0.0.UPF
     MD5 check sum: f52b6d4d1c606e5624b1dc7b2218f220
     Pseudo is Ultrasoft, Zval =  1.0
     Generated using "atomic" code by A. Dal Corso  v.5.1
     Using radial grid of  929 points,  2 beta functions with:
                l(1) =   0
                l(2) =   0
     Q(r) pseudized with 0 coefficients

     PseudoPot. # 3 for N  read from file:
     /lustre07/scratch/pragov/crystal_structure_design/utils/SSSP/N.pbe-n-radius_5.UPF
     MD5 check sum: 16739722b17309cd8fe442a2ace49922
     Pseudo is Ultrasoft + core correction, Zval =  5.0
     Generated using "atomic" code by A. Dal Corso  v.5.1
     Using radial grid of 1085 points,  4 beta functions with:
                l(1) =   0
                l(2) =   0
                l(3) =   1
                l(4) =   1
     Q(r) pseudized with 0 coefficients

     PseudoPot. # 4 for F  read from file:
     /lustre07/scratch/pragov/crystal_structure_design/utils/SSSP/f_pbe_v1.4.uspp.F.UPF
     MD5 check sum: 4c38b6a325caf53ec0e86aed9459de46
     Pseudo is Ultrasoft, Zval =  7.0
     Generated by new atomic code, or converted to UPF format
     Using radial grid of  799 points,  4 beta functions with:
                l(1) =   0
                l(2) =   0
                l(3) =   1
                l(4) =   1
     Q(r) pseudized with  8 coefficients,  rinner =    0.950   0.950   0.950

     atomic species   valence    mass     pseudopotential
        Ga            13.00    69.72300     Ga( 1.00)
        H              1.00     1.00800     H ( 1.00)
        N              5.00    14.00700     N ( 1.00)
        F              7.00    18.99840     F ( 1.00)

      2 Sym. Ops. (no inversion) found ( 1 have fractional translation)

                                    s                        frac. trans.

      isym =  1     identity

 cryst.   s( 1) = (     1          0          0      )
                  (     0          1          0      )
                  (     0          0          1      )

 cart.    s( 1) = (  1.0000000  0.0000000  0.0000000 )
                  (  0.0000000  1.0000000  0.0000000 )
                  (  0.0000000  0.0000000  1.0000000 )

      isym =  2     inv. 180 deg rotation - cart. axis [0,0,1]

 cryst.   s( 2) = (     1          0          0      )    f =(  0.5000000 )
                  (     0          1          0      )       (  0.5000000 )
                  (     0          0         -1      )       (  0.0000000 )

 cart.    s( 2) = (  1.0000000  0.0000000  0.0000000 )    f =(  0.2465951 )
                  (  0.0000000  1.0000000  0.0000000 )       (  0.4310290 )
                  (  0.0000000  0.0000000 -1.0000000 )       (  0.0000000 )

   Cartesian axes

     site n.     atom                  positions (alat units)
         1           Ga  tau(   1) = (   0.5337733   0.5527860   0.2513032  )
         2           Ga  tau(   2) = (   0.2871782   0.1217571   0.7534192  )
         3           H   tau(   3) = (   0.1780275   0.7563110   0.0348026  )
         4           H   tau(   4) = (  -0.0685676   0.3252820   0.9699198  )
         5           H   tau(   5) = (   0.7436685   0.0344384   0.2897639  )
         6           H   tau(   6) = (   0.8404008   0.2035189   0.7149584  )
         7           H   tau(   7) = (  -0.0097364   0.4654673   0.7149584  )
         8           H   tau(   8) = (   0.0869959   0.6345479   0.2897639  )
         9           N   tau(   9) = (   0.2257949   0.7289829   0.2130524  )
        10           N   tau(  10) = (  -0.0208002   0.2979539   0.7916700  )
        11           F   tau(  11) = (  -0.3536923   0.7744582   0.5023612  )
        12           F   tau(  12) = (   0.3997126   0.3434292   0.5023612  )
        13           F   tau(  13) = (  -0.3190010   0.7546110   0.0000000  )
        14           F   tau(  14) = (   0.4344039   0.3235821   0.0000000  )
        15           F   tau(  15) = (  -0.1744767   0.3858735   0.2754165  )
        16           F   tau(  16) = (   0.0721184   0.8169024   0.7293059  )

   Crystallographic axes

     site n.     atom                  positions (cryst. coord.)
         1           Ga  tau(   1) = (  0.8587600  0.6412400  0.2501220  )
         2           Ga  tau(   2) = (  0.3587600  0.1412400  0.7498780  )
         3           H   tau(   3) = (  0.6226680  0.8773320  0.0346390  )
         4           H   tau(   4) = (  0.1226680  0.3773320  0.9653610  )
         5           H   tau(   5) = (  0.7639150  0.0399490  0.2884020  )
         6           H   tau(   6) = (  0.9600510  0.2360850  0.7115980  )
         7           H   tau(   7) = (  0.2639150  0.5399490  0.7115980  )
         8           H   tau(   8) = (  0.4600510  0.7360850  0.2884020  )
         9           N   tau(   9) = (  0.6543690  0.8456310  0.2120510  )
        10           N   tau(  10) = (  0.1543690  0.3456310  0.7879490  )
        11           F   tau(  11) = (  0.1016170  0.8983830  0.5000000  )
        12           F   tau(  12) = (  0.6016170  0.3983830  0.5000000  )
        13           F   tau(  13) = (  0.1246400  0.8753600  0.0000000  )
        14           F   tau(  14) = (  0.6246400  0.3753600  0.0000000  )
        15           F   tau(  15) = (  0.0523810  0.4476190  0.2741220  )
        16           F   tau(  16) = (  0.5523810  0.9476190  0.7258780  )

     number of k points=    10
                       cart. coord. in units 2pi/alat
        k(    1) = (   0.0000000   0.0000000   0.0000000), wk =   0.0740741
        k(    2) = (   0.0000000   0.0000000   0.3317666), wk =   0.1481481
        k(    3) = (   0.0000000   0.3866716   0.0000000), wk =   0.1481481
        k(    4) = (   0.0000000   0.3866716   0.3317666), wk =   0.2962963
        k(    5) = (   0.3333333   0.1959690   0.0000000), wk =   0.1481481
        k(    6) = (   0.3333333   0.1959690   0.3317666), wk =   0.2962963
        k(    7) = (   0.3333333   0.5826406   0.0000000), wk =   0.1481481
        k(    8) = (   0.3333333   0.5826406   0.3317666), wk =   0.2962963
        k(    9) = (   0.3333333  -0.1907027   0.0000000), wk =   0.1481481
        k(   10) = (   0.3333333  -0.1907027   0.3317666), wk =   0.2962963

                       cryst. coord.
        k(    1) = (   0.0000000   0.0000000   0.0000000), wk =   0.0740741
        k(    2) = (   0.0000000   0.0000000   0.3333333), wk =   0.1481481
        k(    3) = (   0.0000000   0.3333333   0.0000000), wk =   0.1481481
        k(    4) = (   0.0000000   0.3333333   0.3333333), wk =   0.2962963
        k(    5) = (   0.3333333   0.0000000   0.0000000), wk =   0.1481481
        k(    6) = (   0.3333333   0.0000000   0.3333333), wk =   0.2962963
        k(    7) = (   0.3333333   0.3333333   0.0000000), wk =   0.1481481
        k(    8) = (   0.3333333   0.3333333   0.3333333), wk =   0.2962963
        k(    9) = (   0.3333333  -0.3333333   0.0000000), wk =   0.1481481
        k(   10) = (   0.3333333  -0.3333333   0.3333333), wk =   0.2962963

     Check: negative core charge=   -0.000003

     Initial potential from superposition of free atoms

     starting charge      83.9940, renormalised to      84.0000
     Starting wfcs are   56 randomized atomic wfcs +    8 random wfcs
     Checking if some PAW data can be deallocated...

     Self-consistent Calculation

     iteration #  1     ecut=    30.00 Ry     beta= 0.70
     Davidson diagonalization with overlap

     ethr =  1.00E-02,  avg # of iterations =  5.6

     total energy              =    -894.65418474 Ry
     estimated scf accuracy    <       1.87819635 Ry

[...]

     total energy              =    -895.41637677 Ry
     estimated scf accuracy    <       0.00000476 Ry

     iteration #  8     ecut=    30.00 Ry     beta= 0.70
     Davidson diagonalization with overlap

     ethr =  5.66E-09,  avg # of iterations =  2.0

     End of self-consistent calculation

          k = 0.0000 0.0000 0.0000 (  2745 PWs)   bands (ev):

   -20.0743 -19.5276 -19.4973 -19.3174 -19.2343 -19.1302 -13.9552 -13.8931
   -11.4741 -11.1772 -11.1556 -11.1349 -11.1264 -11.1137 -11.1026 -11.0961
   -10.9301 -10.7571  -5.5648  -4.3645  -3.9945  -3.8498  -3.6646  -3.0825
    -3.0392  -2.4472  -1.7228  -1.3414  -1.1475  -0.6253  -0.4371  -0.2015
    -0.0545   0.0284   0.1288   0.2012   0.2088   0.2960   0.4897   0.5505
     0.6274   0.8437   5.9265   9.8319  10.2720  10.5248  11.3443  11.5154
    12.1032  13.1588  13.4833  13.9748  14.4193  14.4222  14.5683  14.6049
    15.4519  15.7069  15.7915  16.1792  16.7003  16.7101  17.4186  18.0706

     occupation numbers
     1.0000   1.0000   1.0000   1.0000   1.0000   1.0000   1.0000   1.0000
     1.0000   1.0000   1.0000   1.0000   1.0000   1.0000   1.0000   1.0000
     1.0000   1.0000   1.0000   1.0000   1.0000   1.0000   1.0000   1.0000
     1.0000   1.0000   1.0000   1.0000   1.0000   1.0000   1.0000   1.0000
     1.0000   1.0000   1.0000   1.0000   1.0000   1.0000   1.0000   1.0000
     1.0000   1.0000   0.0000   0.0000   0.0000   0.0000   0.0000   0.0000
     0.0000   0.0000   0.0000   0.0000   0.0000   0.0000   0.0000   0.0000
     0.0000   0.0000   0.0000   0.0000   0.0000   0.0000   0.0000   0.0000

[...]

          k = 0.3333-0.1907 0.3318 (  2785 PWs)   bands (ev):

   -19.9354 -19.6866 -19.4545 -19.3613 -19.1914 -19.1593 -14.0126 -13.9204
   -11.3225 -11.1610 -11.1340 -11.1217 -11.1198 -11.1081 -11.1032 -11.0759
   -10.9665 -10.9394  -5.1672  -4.2349  -4.1967  -4.0809  -3.8122  -3.5086
    -2.1921  -1.9069  -1.6075  -1.0659  -0.9909  -0.8517  -0.5555  -0.4661
    -0.4506  -0.2919  -0.1078   0.1195   0.1699   0.2779   0.4149   0.4602
     0.5110   0.7987   7.3604   8.8056  10.0535  11.1687  11.6983  11.9274
    12.2129  12.3206  12.8721  13.4919  13.6593  14.2939  14.9624  15.1936
    15.2375  15.4795  16.0350  16.5152  16.8634  17.1463  17.4382  17.9923

     occupation numbers
     1.0000   1.0000   1.0000   1.0000   1.0000   1.0000   1.0000   1.0000
     1.0000   1.0000   1.0000   1.0000   1.0000   1.0000   1.0000   1.0000
     1.0000   1.0000   1.0000   1.0000   1.0000   1.0000   1.0000   1.0000
     1.0000   1.0000   1.0000   1.0000   1.0000   1.0000   1.0000   1.0000
     1.0000   1.0000   1.0000   1.0000   1.0000   1.0000   1.0000   1.0000
     1.0000   1.0000   0.0000   0.0000   0.0000   0.0000   0.0000   0.0000
     0.0000   0.0000   0.0000   0.0000   0.0000   0.0000   0.0000   0.0000
     0.0000   0.0000   0.0000   0.0000   0.0000   0.0000   0.0000   0.0000

     highest occupied, lowest unoccupied level (ev):     0.8587    5.9265

!    total energy              =    -895.41637772 Ry
     estimated scf accuracy    <       0.00000020 Ry

     The total energy is the sum of the following terms:
     one-electron contribution =    -462.16470667 Ry
     hartree contribution      =     286.73802157 Ry
     xc contribution           =    -148.09903042 Ry
     ewald contribution        =    -349.79546664 Ry
     one-center paw contrib.   =    -222.09519557 Ry
      -> PAW hartree energy AE =     274.54513867 Ry
      -> PAW hartree energy PS =    -270.40225130 Ry
      -> PAW xc energy AE      =    -301.24296487 Ry
      -> PAW xc energy PS      =      75.00488193 Ry
      -> total E_H with PAW    =     290.88090894 Ry
      -> total E_XC with PAW   =    -374.33711335 Ry

     convergence has been achieved in   8 iterations

     Writing all to output data dir bands_nm/myprefix.save/

     General routines

     Parallel routines

     PAW routines

   This run was terminated on:  13:43:45  14Jul2023

   JOB DONE.