     Program PWSCF v.7.1 starts on 14Jul2023 at 12: 4:22

     Reading input from espresso_17923.pwi
Warning: card &CELL ignored
Warning: card / ignored

     Current dimensions of program PWSCF are:
     Max number of different atomic species (ntypx) = 10
     Max number of k-points (npk) =  40000
     Max angular momentum in pseudopotentials (lmaxx) =  4
     file Mg.pbe-n-kjpaw_psl.0.3.0.UPF: wavefunction(s)  3S renormalized
     file Fe.pbe-spn-kjpaw_psl.0.2.1.UPF: wavefunction(s)  3D renormalized
     Message from routine setup:
     using ibrav=0 with symmetry is DISCOURAGED, use correct ibrav instead

     K-points division:     npool     =       2
     R & G space division:  proc/nbgrp/npool/nimage =       4
     Subspace diagonalization in iterative solution of the eigenvalue problem:
     a serial algorithm will be used

     Using Slab Decomposition

     bravais-lattice index     =            0
     lattice parameter (alat)  =      11.9381  a.u.
     unit-cell volume          =    1112.6902 (a.u.)^3
     number of atoms/cell      =           14
     number of atomic types    =            3
     number of electrons       =        74.00
     number of Kohn-Sham states=           64
     kinetic-energy cutoff     =      30.0000  Ry
     charge density cutoff     =     240.0000  Ry
     scf convergence threshold =      1.0E-06
     mixing beta               =       0.7000
     number of iterations used =            8  plain     mixing
     Exchange-correlation= PBE
                           (   1   4   3   4   0   0   0)

     celldm(1)=  11.938105  celldm(2)=   0.000000  celldm(3)=   0.000000
     celldm(4)=   0.000000  celldm(5)=   0.000000  celldm(6)=   0.000000

     crystal axes: (cart. coord. in units of alat)
               a(1) = (   1.000000   0.000000   0.000000 )
               a(2) = (  -0.186794   0.952734   0.000000 )
               a(3) = (   0.000000   0.000000   0.686431 )

     reciprocal axes: (cart. coord. in units 2 pi/alat)
               b(1) = (  1.000000  0.196061  0.000000 )
               b(2) = (  0.000000  1.049611  0.000000 )
               b(3) = (  0.000000  0.000000  1.456812 )

     PseudoPot. # 1 for Mg read from file:
     /lustre07/scratch/pragov/crystal_structure_design/utils/SSSP/Mg.pbe-n-kjpaw_psl.0.3.0.UPF
     MD5 check sum: 24ecedc7f3e3cbe212e682f4413594e4
     Pseudo is Projector augmented-wave + core cor, Zval =  2.0
     Generated using "atomic" code by A. Dal Corso  v.5.0.99 svn rev. 10869
     Shape of augmentation charge: PSQ
     Using radial grid of 1129 points,  4 beta functions with:
                l(1) =   0
                l(2) =   0
                l(3) =   1
                l(4) =   1
     Q(r) pseudized with 0 coefficients

     PseudoPot. # 2 for Fe read from file:
     /lustre07/scratch/pragov/crystal_structure_design/utils/SSSP/Fe.pbe-spn-kjpaw_psl.0.2.1.UPF
     MD5 check sum: e86618425769142926afa95317d90200
     Pseudo is Projector augmented-wave + core cor, Zval = 16.0
     Generated using "atomic" code by A. Dal Corso  v.5.0.99 svn rev. 10869
     Shape of augmentation charge: PSQ
     Using radial grid of 1191 points,  6 beta functions with:
                l(1) =   0
                l(2) =   0
                l(3) =   1
                l(4) =   1
                l(5) =   2
                l(6) =   2
     Q(r) pseudized with 0 coefficients

     PseudoPot. # 3 for N  read from file:
     /lustre07/scratch/pragov/crystal_structure_design/utils/SSSP/N.pbe-n-radius_5.UPF
     MD5 check sum: 16739722b17309cd8fe442a2ace49922
     Pseudo is Ultrasoft + core correction, Zval =  5.0
     Generated using "atomic" code by A. Dal Corso  v.5.1
     Using radial grid of 1085 points,  4 beta functions with:
                l(1) =   0
                l(2) =   0
                l(3) =   1
                l(4) =   1
     Q(r) pseudized with 0 coefficients

     atomic species   valence    mass     pseudopotential
        Mg             2.00    24.30500     Mg( 1.00)
        Fe            16.00    55.84500     Fe( 1.00)
        N              5.00    14.00700     N ( 1.00)

      4 Sym. Ops., with inversion, found ( 2 have fractional translation)

                                    s                        frac. trans.

      isym =  1     identity

 cryst.   s( 1) = (     1          0          0      )
                  (     0          1          0      )
                  (     0          0          1      )

 cart.    s( 1) = (  1.0000000  0.0000000  0.0000000 )
                  (  0.0000000  1.0000000  0.0000000 )
                  (  0.0000000  0.0000000  1.0000000 )

      isym =  2     180 deg rotation - cart. axis [0,0,1]

 cryst.   s( 2) = (    -1          0          0      )    f =(  0.0000000 )
                  (     0         -1          0      )       (  0.0000000 )
                  (     0          0          1      )       ( -0.5000000 )

 cart.    s( 2) = ( -1.0000000 -0.0000000  0.0000000 )    f =(  0.0000000 )
                  (  0.0000000 -1.0000000  0.0000000 )       (  0.0000000 )
                  (  0.0000000  0.0000000  1.0000000 )       ( -0.3432153 )

      isym =  3     inversion

 cryst.   s( 3) = (    -1          0          0      )
                  (     0         -1          0      )
                  (     0          0         -1      )

 cart.    s( 3) = ( -1.0000000 -0.0000000  0.0000000 )
                  (  0.0000000 -1.0000000  0.0000000 )
                  (  0.0000000  0.0000000 -1.0000000 )

      isym =  4     inv. 180 deg rotation - cart. axis [0,0,1]

 cryst.   s( 4) = (     1          0          0      )    f =(  0.0000000 )
                  (     0          1          0      )       (  0.0000000 )
                  (     0          0         -1      )       (  0.5000000 )

 cart.    s( 4) = (  1.0000000  0.0000000  0.0000000 )    f =(  0.0000000 )
                  (  0.0000000  1.0000000  0.0000000 )       (  0.0000000 )
                  (  0.0000000  0.0000000 -1.0000000 )       (  0.3432153 )

   Cartesian axes

     site n.     atom                  positions (alat units)
         1           Mg  tau(   1) = (   0.7537747   0.5760513   0.1716076  )
         2           Mg  tau(   2) = (   0.8673502   0.0901800   0.1716076  )
         3           Mg  tau(   3) = (   0.3357373   0.1798608   0.1716076  )
         4           Mg  tau(   4) = (   0.0594312   0.3766823   0.5148229  )
         5           Mg  tau(   5) = (  -0.0541442   0.8625535   0.5148229  )
         6           Mg  tau(   6) = (   0.4774687   0.7728727   0.5148229  )
         7           Fe  tau(   7) = (   0.6256989   0.2876865   0.5148229  )
         8           Fe  tau(   8) = (   0.1875071   0.6650471   0.1716076  )
         9           N   tau(   9) = (   0.7422657   0.5523749   0.5148229  )
        10           N   tau(  10) = (   0.8501446   0.1061069   0.5148229  )
        11           N   tau(  11) = (   0.3630125   0.1842053   0.5148229  )
        12           N   tau(  12) = (   0.0709402   0.4003586   0.1716076  )
        13           N   tau(  13) = (  -0.0369386   0.8466267   0.1716076  )
        14           N   tau(  14) = (   0.4501935   0.7685282   0.1716076  )

   Crystallographic axes

     site n.     atom                  positions (cryst. coord.)
         1           Mg  tau(   1) = (  0.8667160  0.6046300  0.2500000  )
         2           Mg  tau(   2) = (  0.8850310  0.0946540  0.2500000  )
         3           Mg  tau(   3) = (  0.3710010  0.1887840  0.2500000  )
         4           Mg  tau(   4) = (  0.1332840  0.3953700  0.7500000  )
         5           Mg  tau(   5) = (  0.1149690  0.9053460  0.7500000  )
         6           Mg  tau(   6) = (  0.6289990  0.8112160  0.7500000  )
         7           Fe  tau(   7) = (  0.6821030  0.3019590  0.7500000  )
         8           Fe  tau(   8) = (  0.3178970  0.6980410  0.2500000  )
         9           N   tau(   9) = (  0.8505650  0.5797790  0.7500000  )
        10           N   tau(  10) = (  0.8709480  0.1113710  0.7500000  )
        11           N   tau(  11) = (  0.3991280  0.1933440  0.7500000  )
        12           N   tau(  12) = (  0.1494350  0.4202210  0.2500000  )
        13           N   tau(  13) = (  0.1290520  0.8886290  0.2500000  )
        14           N   tau(  14) = (  0.6008720  0.8066560  0.2500000  )

     number of k points=    10
                       cart. coord. in units 2pi/alat
        k(    1) = (   0.0000000   0.0000000   0.0000000), wk =   0.0740741
        k(    2) = (   0.0000000   0.0000000   0.4856039), wk =   0.1481481
        k(    3) = (   0.0000000   0.3498705   0.0000000), wk =   0.1481481
        k(    4) = (   0.0000000   0.3498705   0.4856039), wk =   0.2962963
        k(    5) = (   0.3333333   0.0653537   0.0000000), wk =   0.1481481
        k(    6) = (   0.3333333   0.0653537   0.4856039), wk =   0.2962963
        k(    7) = (   0.3333333   0.4152242   0.0000000), wk =   0.1481481
        k(    8) = (   0.3333333   0.4152242   0.4856039), wk =   0.2962963
        k(    9) = (   0.3333333  -0.2845168   0.0000000), wk =   0.1481481
        k(   10) = (   0.3333333  -0.2845168   0.4856039), wk =   0.2962963

                       cryst. coord.
        k(    1) = (   0.0000000   0.0000000   0.0000000), wk =   0.0740741
        k(    2) = (   0.0000000   0.0000000   0.3333333), wk =   0.1481481
        k(    3) = (   0.0000000   0.3333333   0.0000000), wk =   0.1481481
        k(    4) = (   0.0000000   0.3333333   0.3333333), wk =   0.2962963
        k(    5) = (   0.3333333   0.0000000   0.0000000), wk =   0.1481481
        k(    6) = (   0.3333333   0.0000000   0.3333333), wk =   0.2962963
        k(    7) = (   0.3333333   0.3333333   0.0000000), wk =   0.1481481
        k(    8) = (   0.3333333   0.3333333   0.3333333), wk =   0.2962963
        k(    9) = (   0.3333333  -0.3333333   0.0000000), wk =   0.1481481
        k(   10) = (   0.3333333  -0.3333333   0.3333333), wk =   0.2962963

     Check: negative core charge=   -0.000063

     Initial potential from superposition of free atoms

     starting charge      73.9935, renormalised to      74.0000
     Starting wfcs are   74 randomized atomic wfcs
     Checking if some PAW data can be deallocated...

     Self-consistent Calculation

     iteration #  1     ecut=    30.00 Ry     beta= 0.70
     Davidson diagonalization with overlap

     ethr =  1.00E-02,  avg # of iterations =  6.1

     total energy              =    -978.75734759 Ry
     estimated scf accuracy    <       4.22742261 Ry

[...]

     negative rho (up, down):  3.270E-04 0.000E+00

[...]

     total energy              =    -981.00187597 Ry
     estimated scf accuracy    <       0.00000121 Ry

     iteration # 13     ecut=    30.00 Ry     beta= 0.70
     Davidson diagonalization with overlap

     ethr =  1.63E-09,  avg # of iterations =  1.8

     End of self-consistent calculation

          k = 0.0000 0.0000 0.0000 (  3093 PWs)   bands (ev):

   -79.8757 -79.8757 -46.2110 -46.2014 -45.7402 -45.7379 -44.4509 -44.4492
    -7.5576  -6.1802  -6.0965  -6.0108  -5.9023  -5.8374   2.0246   2.5524
     2.7578   2.9577   2.9782   3.0913   3.7857   3.8531   3.8777   3.9854
     4.0073   4.3281   4.3502   5.0373   5.4474   5.4618   5.5887   5.9694
     6.1566   6.1915   7.3188   7.4589   7.6653   8.0490   8.4750   8.6283
     9.1464   9.5247   9.9920  11.3154  13.1424  13.4759  13.6235  13.8259
    14.0524  14.7702  15.1125  15.1745  15.4839  15.6733  15.6926  15.7459
    16.8042  17.0020  17.5790  17.8030  17.8832  18.8632  18.9832  19.2874

     occupation numbers
     1.0000   1.0000   1.0000   1.0000   1.0000   1.0000   1.0000   1.0000
     1.0000   1.0000   1.0000   1.0000   1.0000   1.0000   1.0000   1.0000
     1.0000   1.0000   1.0000   1.0000   1.0000   1.0000   1.0000   1.0000
     1.0000   1.0000   1.0000   1.0000   1.0000   1.0000   1.0000   1.0000
     1.0000   1.0000   1.0000   1.0000   1.0000   0.0000   0.0000   0.0000
     0.0000   0.0000   0.0000   0.0000   0.0000   0.0000   0.0000   0.0000
     0.0000   0.0000   0.0000   0.0000   0.0000   0.0000   0.0000   0.0000
     0.0000   0.0000   0.0000   0.0000   0.0000   0.0000   0.0000   0.0000

[...]

          k = 0.3333-0.2845 0.4856 (  3094 PWs)   bands (ev):

   -79.8771 -79.8759 -46.2120 -46.2034 -45.7429 -45.7361 -44.4579 -44.4515
    -6.8895  -6.4136  -6.2495  -6.1405  -5.9297  -5.7086   2.0561   2.1305
     2.2833   2.4721   2.6964   2.9330   3.6808   3.8867   3.9417   4.0995
     4.2110   4.3845   4.5694   5.0797   5.2239   5.4525   5.8857   5.9388
     6.7145   6.8121   7.2494   7.5314   7.7827   7.9054   8.1536   8.3989
     8.7689   8.9371  10.0322  10.2193  12.4604  12.9369  13.3122  14.0537
    14.8517  15.0902  15.4145  15.6478  15.7977  16.1824  16.6055  16.9901
    17.6301  17.9156  18.0602  18.1739  18.3498  18.5575  19.1679  19.9177

     occupation numbers
     1.0000   1.0000   1.0000   1.0000   1.0000   1.0000   1.0000   1.0000
     1.0000   1.0000   1.0000   1.0000   1.0000   1.0000   1.0000   1.0000
     1.0000   1.0000   1.0000   1.0000   1.0000   1.0000   1.0000   1.0000
     1.0000   1.0000   1.0000   1.0000   1.0000   1.0000   1.0000   1.0000
     1.0000   1.0000   1.0000   1.0000   1.0000   0.0000   0.0000   0.0000
     0.0000   0.0000   0.0000   0.0000   0.0000   0.0000   0.0000   0.0000
     0.0000   0.0000   0.0000   0.0000   0.0000   0.0000   0.0000   0.0000
     0.0000   0.0000   0.0000   0.0000   0.0000   0.0000   0.0000   0.0000

     highest occupied, lowest unoccupied level (ev):     7.8367    7.8037

!    total energy              =    -981.00187605 Ry
     estimated scf accuracy    <       0.00000040 Ry

     The total energy is the sum of the following terms:
     one-electron contribution =    -487.23001158 Ry
     hartree contribution      =     278.04317244 Ry
     xc contribution           =    -112.00955049 Ry
     ewald contribution        =    -319.88221664 Ry
     one-center paw contrib.   =    -339.92326978 Ry
      -> PAW hartree energy AE =       1.95189465 Ry
      -> PAW hartree energy PS =      -1.94847168 Ry
      -> PAW xc energy AE      =     -65.39917094 Ry
      -> PAW xc energy PS      =       2.80576389 Ry
      -> total E_H with PAW    =     278.04659541 Ry
      -> total E_XC with PAW   =    -174.60295754 Ry

     convergence has been achieved in  13 iterations

     Writing all to output data dir bands_nm/myprefix.save/

     General routines

     Parallel routines

     PAW routines

   This run was terminated on:  12: 4:51  14Jul2023

   JOB DONE.