     Program PWSCF v.7.1 starts on 16Jul2023 at 20:42:46

     Reading input from espresso_26328.pwi
Warning: card &CELL ignored
Warning: card / ignored

     Current dimensions of program PWSCF are:
     Max number of different atomic species (ntypx) = 10
     Max number of k-points (npk) =  40000
     Max angular momentum in pseudopotentials (lmaxx) =  4

     K-points division:     npool     =       2
     R & G space division:  proc/nbgrp/npool/nimage =       4
     Subspace diagonalization in iterative solution of the eigenvalue problem:
     one sub-group per band group will be used

     Using Slab Decomposition

     bravais-lattice index     =            0
     lattice parameter (alat)  =      13.3322  a.u.
     unit-cell volume          =    2183.6792 (a.u.)^3
     number of atoms/cell      =           14
     number of atomic types    =            4
     number of electrons       =       170.00
     number of Kohn-Sham states=          256
     kinetic-energy cutoff     =      30.0000  Ry
     charge density cutoff     =     240.0000  Ry
     scf convergence threshold =      1.0E-06
     mixing beta               =       0.7000
     number of iterations used =            8  plain     mixing
     Exchange-correlation=  SLA  PW   PBX  PBC
                           (   1   4   3   4   0   0   0)

     celldm(1)=  13.332167  celldm(2)=   0.000000  celldm(3)=   0.000000
     celldm(4)=   0.000000  celldm(5)=   0.000000  celldm(6)=   0.000000

     crystal axes: (cart. coord. in units of alat)
               a(1) = (   1.000000   0.000000   0.000000 )
               a(2) = (  -0.210033   0.977694   0.000000 )
               a(3) = (  -0.210033  -0.259945   0.942505 )

     reciprocal axes: (cart. coord. in units 2 pi/alat)
               b(1) = (  1.000000  0.214825  0.282094 )
               b(2) = (  0.000000  1.022815  0.282094 )
               b(3) = (  0.000000  0.000000  1.061003 )

     PseudoPot. # 1 for Ag read from file:
     /lustre07/scratch/pragov/crystal_structure_design/utils/SSSP/Ag_ONCV_PBE-1.0.oncvpsp.upf
     MD5 check sum: 94f47bd0669c641108e45594df92fabc
     Pseudo is Norm-conserving, Zval = 19.0
     Generated using ONCVPSP code by D. R. Hamann
     Using radial grid of 1398 points,  6 beta functions with:
                l(1) =   0
                l(2) =   0
                l(3) =   1
                l(4) =   1
                l(5) =   2
                l(6) =   2

     PseudoPot. # 2 for Sb read from file:
     /lustre07/scratch/pragov/crystal_structure_design/utils/SSSP/sb_pbe_v1.4.uspp.F.UPF
     MD5 check sum: 9bc50dfb53373b713f5709b9110fe27f
     Pseudo is Ultrasoft + core correction, Zval = 15.0
     Generated by new atomic code, or converted to UPF format
     Using radial grid of  891 points,  6 beta functions with:
                l(1) =   0
                l(2) =   0
                l(3) =   1
                l(4) =   1
                l(5) =   2
                l(6) =   2
     Q(r) pseudized with  8 coefficients,  rinner =    1.350   1.350   1.350
                                                       1.350   1.350

     PseudoPot. # 3 for As read from file:
     /lustre07/scratch/pragov/crystal_structure_design/utils/SSSP/As.pbe-n-rrkjus_psl.0.2.UPF
     MD5 check sum: 767315de957beeeb34f87d97bf945c8f
     Pseudo is Ultrasoft + core correction, Zval =  5.0
     Generated using "atomic" code by A. Dal Corso  v.5.0.99 svn rev. 10869
     Using radial grid of 1209 points,  4 beta functions with:
                l(1) =   0
                l(2) =   0
                l(3) =   1
                l(4) =   1
     Q(r) pseudized with 0 coefficients

     PseudoPot. # 4 for S  read from file:
     /lustre07/scratch/pragov/crystal_structure_design/utils/SSSP/s_pbe_v1.4.uspp.F.UPF
     MD5 check sum: 88d86576ff6df21479756cfb9bdac1df
     Pseudo is Ultrasoft + core correction, Zval =  6.0
     Generated by new atomic code, or converted to UPF format
     Using radial grid of  907 points,  6 beta functions with:
                l(1) =   0
                l(2) =   0
                l(3) =   1
                l(4) =   1
                l(5) =   2
                l(6) =   2
     Q(r) pseudized with  8 coefficients,  rinner =    1.300   1.300   1.300
                                                       1.300   1.300

     atomic species   valence    mass     pseudopotential
        Ag            19.00   107.86820     Ag( 1.00)
        Sb            15.00   121.76000     Sb( 1.00)
        As             5.00    74.92159     As( 1.00)
        S              6.00    32.06000     S ( 1.00)

     No symmetry found

                                    s                        frac. trans.

      isym =  1     identity

 cryst.   s( 1) = (     1          0          0      )
                  (     0          1          0      )
                  (     0          0          1      )

 cart.    s( 1) = (  1.0000000  0.0000000  0.0000000 )
                  (  0.0000000  1.0000000  0.0000000 )
                  (  0.0000000  0.0000000  1.0000000 )

   Cartesian axes

     site n.     atom                  positions (alat units)
         1           Ag  tau(   1) = (   0.7235890   0.6549649   0.4049509  )
         2           Ag  tau(   2) = (   0.0594359   0.7528657   0.7390575  )
         3           Ag  tau(   3) = (   0.4883780   0.1657075   0.9222654  )
         4           Ag  tau(   4) = (   0.7747852   0.1469415   0.4481412  )
         5           Ag  tau(   5) = (   0.2214480   0.8400341   0.2608024  )
         6           Ag  tau(   6) = (  -0.0190665   0.2224044   0.8791401  )
         7           Sb  tau(   7) = (   0.3036878   0.3758560   0.4935511  )
         8           As  tau(   8) = (   0.0030226   0.0037409   0.0049123  )
         9           S   tau(   9) = (  -0.2274784   0.5552713   0.7368436  )
        10           S   tau(  10) = (   0.5979164  -0.1042211   0.7311942  )
        11           S   tau(  11) = (   0.5906634   0.7384467   0.0939366  )
        12           S   tau(  12) = (   0.0947070   0.1021473   0.5755989  )
        13           S   tau(  13) = (   0.4960603   0.2034337   0.2515083  )
        14           S   tau(  14) = (   0.0799772   0.5245588   0.2629814  )

   Crystallographic axes

     site n.     atom                  positions (cryst. coord.)
         1           Ag  tau(   1) = (  0.9785260  0.7841420  0.4296540  )
         2           Ag  tau(   2) = (  0.4296540  0.9785260  0.7841420  )
         3           Ag  tau(   3) = (  0.7841420  0.4296540  0.9785260  )
         4           Ag  tau(   4) = (  0.9327700  0.2767120  0.4754790  )
         5           Ag  tau(   5) = (  0.4754790  0.9327700  0.2767120  )
         6           Ag  tau(   6) = (  0.2767120  0.4754790  0.9327700  )
         7           Sb  tau(   7) = (  0.5236590  0.5236590  0.5236590  )
         8           As  tau(   8) = (  0.0052120  0.0052120  0.0052120  )
         9           S   tau(   9) = (  0.0996670  0.7757990  0.7817930  )
        10           S   tau(  10) = (  0.7817930  0.0996670  0.7757990  )
        11           S   tau(  11) = (  0.7757990  0.7817930  0.0996670  )
        12           S   tau(  12) = (  0.2790240  0.2668510  0.6107120  )
        13           S   tau(  13) = (  0.6107120  0.2790240  0.2668510  )
        14           S   tau(  14) = (  0.2668510  0.6107120  0.2790240  )

     number of k points=    14
                       cart. coord. in units 2pi/alat
        k(    1) = (   0.0000000   0.0000000   0.0000000), wk =   0.0740741
        k(    2) = (   0.0000000   0.0000000   0.3536676), wk =   0.1481481
        k(    3) = (   0.0000000   0.3409382   0.0940315), wk =   0.1481481
        k(    4) = (   0.0000000   0.3409382   0.4476990), wk =   0.1481481
        k(    5) = (   0.0000000   0.3409382  -0.2596361), wk =   0.1481481
        k(    6) = (   0.3333333   0.0716082   0.0940315), wk =   0.1481481
        k(    7) = (   0.3333333   0.0716082   0.4476990), wk =   0.1481481
        k(    8) = (   0.3333333   0.0716082  -0.2596361), wk =   0.1481481
        k(    9) = (   0.3333333   0.4125464   0.1880630), wk =   0.1481481
        k(   10) = (   0.3333333   0.4125464   0.5417305), wk =   0.1481481
        k(   11) = (   0.3333333   0.4125464  -0.1656046), wk =   0.1481481
        k(   12) = (   0.3333333  -0.2693300  -0.0000000), wk =   0.1481481
        k(   13) = (   0.3333333  -0.2693300   0.3536676), wk =   0.1481481
        k(   14) = (   0.3333333  -0.2693300  -0.3536676), wk =   0.1481481

                       cryst. coord.
        k(    1) = (   0.0000000   0.0000000   0.0000000), wk =   0.0740741
        k(    2) = (   0.0000000   0.0000000   0.3333333), wk =   0.1481481
        k(    3) = (   0.0000000   0.3333333   0.0000000), wk =   0.1481481
        k(    4) = (   0.0000000   0.3333333   0.3333333), wk =   0.1481481
        k(    5) = (   0.0000000   0.3333333  -0.3333333), wk =   0.1481481
        k(    6) = (   0.3333333   0.0000000   0.0000000), wk =   0.1481481
        k(    7) = (   0.3333333   0.0000000   0.3333333), wk =   0.1481481
        k(    8) = (   0.3333333   0.0000000  -0.3333333), wk =   0.1481481
        k(    9) = (   0.3333333   0.3333333   0.0000000), wk =   0.1481481
        k(   10) = (   0.3333333   0.3333333   0.3333333), wk =   0.1481481
        k(   11) = (   0.3333333   0.3333333  -0.3333333), wk =   0.1481481
        k(   12) = (   0.3333333  -0.3333333  -0.0000000), wk =   0.1481481
        k(   13) = (   0.3333333  -0.3333333   0.3333333), wk =   0.1481481
        k(   14) = (   0.3333333  -0.3333333  -0.3333333), wk =   0.1481481

     Check: negative core charge=   -0.000002

     Initial potential from superposition of free atoms

     starting charge     168.9978, renormalised to     170.0000
     Starting wfcs are   97 randomized atomic wfcs +  159 random wfcs

     Self-consistent Calculation

     iteration #  1     ecut=    30.00 Ry     beta= 0.70
     Davidson diagonalization with overlap

     ethr =  1.00E-02,  avg # of iterations =  7.4

     Threshold (ethr) on eigenvalues was too large:
     Diagonalizing with lowered threshold

     Davidson diagonalization with overlap

[...]

     total energy              =   -2070.05409650 Ry
     estimated scf accuracy    <       0.77446020 Ry

[...]

     total energy              =   -2070.35445876 Ry
     estimated scf accuracy    <       0.00000218 Ry

     iteration #  9     ecut=    30.00 Ry     beta= 0.70
     Davidson diagonalization with overlap

     ethr =  1.28E-09,  avg # of iterations =  2.0

     End of self-consistent calculation

          k = 0.0000 0.0000 0.0000 (  6077 PWs)   bands (ev):

   -83.9499 -83.9496 -83.9496 -83.9077 -83.9074 -83.9074 -47.1007 -47.1007
   -47.0980 -47.0708 -47.0708 -47.0677 -46.9587 -46.9587 -46.9573 -46.9158
   -46.9158 -46.9150 -46.9107 -46.9107 -46.9093 -46.8703 -46.8703 -46.8698
   -21.0956 -21.0956 -21.0338 -21.0338 -20.9998  -5.9364  -5.1456  -4.2377
    -4.2377  -4.0656  -4.0656  -1.3466  -0.3955   2.9303   2.9303   3.2539
     3.3110   3.3110   3.4620   3.4620   3.5485   3.7971   3.8798   3.8798
     3.9895   4.5465   4.5465   4.5931   4.6943   4.6943   4.7030   4.7974
     4.7974   4.8885   4.8885   4.9210   4.9676   4.9676   5.0193   5.1204
     5.1559   5.1559   5.2044   5.4196   5.4196   5.5130   5.6490   5.6490
     5.8671   5.8671   5.9190   6.3112   6.3112   6.6086   6.6699   6.9447
     6.9447   7.0142   7.3889   7.3889   8.5229  10.2495  10.2495  10.5278
    10.7055  10.7055  10.8176  11.2264  12.5896  12.5896  12.9373  13.1024
    13.1024  13.4124  13.4124  14.1075  14.1625  14.1625  14.4074  14.4074
    14.6790  15.9012  16.0682  16.0682  16.2617  17.1015  17.1015  17.4746
    17.6920  17.7632  17.7632  18.2338  18.3806  18.3806  18.7127  18.9270
    19.3722  19.3722  19.6460  19.6460  19.9801  20.0290  20.0290  20.2289
    20.6643  20.6643  21.0013  21.0013  21.1657  21.4180  21.4622  21.4622
    22.0899  22.0899  22.4614  22.5368  22.5368  22.7712  23.0332  23.0332
    23.2629  24.1149  24.3311  24.3311  24.6666  24.8598  24.8598  25.1536
    25.1536  25.1735  25.7982  25.9265  26.4600  26.4600  26.7082  26.7082
    26.7469  27.0258  27.4277  27.4277  27.4746  27.9326  27.9326  28.2432
    28.4260  28.4260  29.0725  29.0725  29.3340  29.3340  29.3880  29.5854
    29.8658  29.8658  30.0023  30.1326  30.4606  30.4606  30.9555  31.1473
    31.3223  31.3237  31.3237  31.5198  31.7216  31.7216  32.0501  32.0501
    32.2012  32.2012  32.4395  32.5419  32.5419  32.7915  32.9235  32.9235
    33.0420  33.1274  33.1274  33.6647  33.9733  33.9733  34.1867  34.2558
    34.2558  34.3571  34.6818  34.6818  34.8181  34.8181  34.8254  34.9761
    35.1067  35.1067  35.5167  35.7702  35.7702  36.0090  36.0090  36.4893
    36.7951  36.7951  36.9671  36.9671  36.9919  37.2199  37.4687  37.4687
    37.7997  37.7997  37.9066  38.0976  38.0976  38.1395  38.4363  38.4363
    38.6104  39.0246  39.1005  39.1740  39.1740  39.5941  39.5941  39.6548
    39.8582  40.0942  40.0942  40.2258  40.2285  40.2285  40.6591  40.9394

     occupation numbers
     1.0000   1.0000   1.0000   1.0000   1.0000   1.0000   1.0000   1.0000
     1.0000   1.0000   1.0000   1.0000   1.0000   1.0000   1.0000   1.0000
     1.0000   1.0000   1.0000   1.0000   1.0000   1.0000   1.0000   1.0000
     1.0000   1.0000   1.0000   1.0000   1.0000   1.0000   1.0000   1.0000
     1.0000   1.0000   1.0000   1.0000   1.0000   1.0000   1.0000   1.0000
     1.0000   1.0000   1.0000   1.0000   1.0000   1.0000   1.0000   1.0000
     1.0000   1.0000   1.0000   1.0000   1.0000   1.0000   1.0000   1.0000
     1.0000   1.0000   1.0000   1.0000   1.0000   1.0000   1.0000   1.0000
     1.0000   1.0000   1.0000   1.0000   1.0000   1.0000   1.0000   1.0000
     1.0000   1.0000   1.0000   1.0000   1.0000   1.0000   1.0000   1.0000
     1.0000   1.0000   1.0000   1.0000   1.0000   0.0000   0.0000   0.0000
     0.0000   0.0000   0.0000   0.0000   0.0000   0.0000   0.0000   0.0000
     0.0000   0.0000   0.0000   0.0000   0.0000   0.0000   0.0000   0.0000
     0.0000   0.0000   0.0000   0.0000   0.0000   0.0000   0.0000   0.0000
     0.0000   0.0000   0.0000   0.0000   0.0000   0.0000   0.0000   0.0000
     0.0000   0.0000   0.0000   0.0000   0.0000   0.0000   0.0000   0.0000
     0.0000   0.0000   0.0000   0.0000   0.0000   0.0000   0.0000   0.0000
     0.0000   0.0000   0.0000   0.0000   0.0000   0.0000   0.0000   0.0000
     0.0000   0.0000   0.0000   0.0000   0.0000   0.0000   0.0000   0.0000
     0.0000   0.0000   0.0000   0.0000   0.0000   0.0000   0.0000   0.0000
     0.0000   0.0000   0.0000   0.0000   0.0000   0.0000   0.0000   0.0000
     0.0000   0.0000   0.0000   0.0000   0.0000   0.0000   0.0000   0.0000
     0.0000   0.0000   0.0000   0.0000   0.0000   0.0000   0.0000   0.0000
     0.0000   0.0000   0.0000   0.0000   0.0000   0.0000   0.0000   0.0000
     0.0000   0.0000   0.0000   0.0000   0.0000   0.0000   0.0000   0.0000
     0.0000   0.0000   0.0000   0.0000   0.0000   0.0000   0.0000   0.0000
     0.0000   0.0000   0.0000   0.0000   0.0000   0.0000   0.0000   0.0000
     0.0000   0.0000   0.0000   0.0000   0.0000   0.0000   0.0000   0.0000
     0.0000   0.0000   0.0000   0.0000   0.0000   0.0000   0.0000   0.0000
     0.0000   0.0000   0.0000   0.0000   0.0000   0.0000   0.0000   0.0000
     0.0000   0.0000   0.0000   0.0000   0.0000   0.0000   0.0000   0.0000
     0.0000   0.0000   0.0000   0.0000   0.0000   0.0000   0.0000   0.0000

[...]

          k = 0.3333-0.2693-0.3537 (  6053 PWs)   bands (ev):

   -83.9498 -83.9497 -83.9495 -83.9076 -83.9075 -83.9073 -47.1005 -47.0986
   -47.0972 -47.0703 -47.0689 -47.0671 -46.9578 -46.9566 -46.9563 -46.9155
   -46.9151 -46.9142 -46.9095 -46.9086 -46.9082 -46.8702 -46.8698 -46.8690
   -21.0958 -21.0954 -21.0299 -21.0287 -20.9995  -5.8064  -5.0320  -4.3699
    -4.3135  -4.2388  -4.1665  -1.1299  -0.2452   2.8429   2.9252   3.0970
     3.1893   3.2844   3.4165   3.7172   3.7496   3.7912   3.9353   4.1963
     4.2523   4.3367   4.3995   4.5670   4.6039   4.6618   4.7075   4.7696
     4.7818   4.8433   4.8874   4.9753   4.9868   5.0139   5.0324   5.0604
     5.1300   5.1507   5.2137   5.2647   5.3023   5.4075   5.5076   5.5921
     5.7499   6.1280   6.1554   6.4174   6.4958   6.6721   6.7709   6.8808
     7.0351   7.2418   7.4769   7.6004   7.7509  10.2819  10.3461  10.5658
    10.7812  10.9266  11.1871  11.5519  11.7567  11.9753  12.1560  12.3589
    12.6371  13.3794  13.4982  14.1550  14.4554  14.6878  15.1072  15.2584
    15.3700  15.5998  15.7306  15.8395  16.0891  16.3975  16.6668  16.8120
    16.9874  17.4944  17.8179  18.3486  18.5091  18.7806  18.8337  19.0720
    19.3331  19.4447  19.7567  20.0376  20.1832  20.3787  20.4954  20.7896
    20.8404  21.0523  21.2025  21.4160  21.6980  21.8439  21.9121  22.0508
    22.1529  22.5557  22.6458  22.8032  23.0338  23.3436  23.5093  23.6135
    23.6841  23.9436  24.0001  24.4054  24.5344  24.6707  24.8837  25.0139
    25.2238  25.3615  25.4980  25.6750  25.8090  25.9928  26.0987  26.3276
    26.6092  26.7609  26.9731  27.0572  27.2096  27.2500  27.4159  27.4894
    27.9686  28.1051  28.2401  28.4311  28.5633  28.7287  28.9018  29.1592
    29.1994  29.2938  29.7503  29.9418  30.0657  30.1855  30.3177  30.5843
    30.5962  30.8452  31.0051  31.2128  31.4762  31.5894  31.7088  31.8225
    32.1154  32.1776  32.2676  32.6807  32.8393  32.9360  33.1111  33.1654
    33.3301  33.4693  33.5978  33.9061  34.0250  34.1045  34.1736  34.4516
    34.6698  34.7816  34.8450  35.0614  35.1599  35.2224  35.4500  35.6621
    35.7964  35.8629  36.0674  36.1112  36.3046  36.4413  36.5547  36.7093
    36.7937  36.9041  37.1163  37.2506  37.3365  37.7250  37.9153  37.9822
    38.0283  38.1433  38.2877  38.4473  38.6820  38.8329  38.9567  39.0481
    39.1984  39.2819  39.3695  39.4504  39.6832  39.8417  39.9145  39.9813
    40.0478  40.2477  40.3750  40.5200  40.6792  40.7362  40.8991  41.0458

     occupation numbers
     1.0000   1.0000   1.0000   1.0000   1.0000   1.0000   1.0000   1.0000
     1.0000   1.0000   1.0000   1.0000   1.0000   1.0000   1.0000   1.0000
     1.0000   1.0000   1.0000   1.0000   1.0000   1.0000   1.0000   1.0000
     1.0000   1.0000   1.0000   1.0000   1.0000   1.0000   1.0000   1.0000
     1.0000   1.0000   1.0000   1.0000   1.0000   1.0000   1.0000   1.0000
     1.0000   1.0000   1.0000   1.0000   1.0000   1.0000   1.0000   1.0000
     1.0000   1.0000   1.0000   1.0000   1.0000   1.0000   1.0000   1.0000
     1.0000   1.0000   1.0000   1.0000   1.0000   1.0000   1.0000   1.0000
     1.0000   1.0000   1.0000   1.0000   1.0000   1.0000   1.0000   1.0000
     1.0000   1.0000   1.0000   1.0000   1.0000   1.0000   1.0000   1.0000
     1.0000   1.0000   1.0000   1.0000   1.0000   0.0000   0.0000   0.0000
     0.0000   0.0000   0.0000   0.0000   0.0000   0.0000   0.0000   0.0000
     0.0000   0.0000   0.0000   0.0000   0.0000   0.0000   0.0000   0.0000
     0.0000   0.0000   0.0000   0.0000   0.0000   0.0000   0.0000   0.0000
     0.0000   0.0000   0.0000   0.0000   0.0000   0.0000   0.0000   0.0000
     0.0000   0.0000   0.0000   0.0000   0.0000   0.0000   0.0000   0.0000
     0.0000   0.0000   0.0000   0.0000   0.0000   0.0000   0.0000   0.0000
     0.0000   0.0000   0.0000   0.0000   0.0000   0.0000   0.0000   0.0000
     0.0000   0.0000   0.0000   0.0000   0.0000   0.0000   0.0000   0.0000
     0.0000   0.0000   0.0000   0.0000   0.0000   0.0000   0.0000   0.0000
     0.0000   0.0000   0.0000   0.0000   0.0000   0.0000   0.0000   0.0000
     0.0000   0.0000   0.0000   0.0000   0.0000   0.0000   0.0000   0.0000
     0.0000   0.0000   0.0000   0.0000   0.0000   0.0000   0.0000   0.0000
     0.0000   0.0000   0.0000   0.0000   0.0000   0.0000   0.0000   0.0000
     0.0000   0.0000   0.0000   0.0000   0.0000   0.0000   0.0000   0.0000
     0.0000   0.0000   0.0000   0.0000   0.0000   0.0000   0.0000   0.0000
     0.0000   0.0000   0.0000   0.0000   0.0000   0.0000   0.0000   0.0000
     0.0000   0.0000   0.0000   0.0000   0.0000   0.0000   0.0000   0.0000
     0.0000   0.0000   0.0000   0.0000   0.0000   0.0000   0.0000   0.0000
     0.0000   0.0000   0.0000   0.0000   0.0000   0.0000   0.0000   0.0000
     0.0000   0.0000   0.0000   0.0000   0.0000   0.0000   0.0000   0.0000
     0.0000   0.0000   0.0000   0.0000   0.0000   0.0000   0.0000   0.0000

     highest occupied, lowest unoccupied level (ev):     8.5229    9.8822

!    total energy              =   -2070.35445923 Ry
     estimated scf accuracy    <       0.00000035 Ry

     The total energy is the sum of the following terms:
     one-electron contribution =   -1244.03950190 Ry
     hartree contribution      =     671.88103916 Ry
     xc contribution           =    -265.87377577 Ry
     ewald contribution        =   -1232.32222073 Ry

     convergence has been achieved in   9 iterations

     Writing all to output data dir bands_nm/myprefix.save/

     General routines

     Parallel routines

   This run was terminated on:  20:45:37  16Jul2023

   JOB DONE.