     Program PWSCF v.7.1 starts on 14Jul2023 at 13:29:22

     Reading input from espresso_18453.pwi
Warning: card &CELL ignored
Warning: card / ignored

     Current dimensions of program PWSCF are:
     Max number of different atomic species (ntypx) = 10
     Max number of k-points (npk) =  40000
     Max angular momentum in pseudopotentials (lmaxx) =  4
     file Cu.paw.z_11.ld1.psl.v1.0.0-low.upf: wavefunction(s)  4S 3D renormalized
     file O.pbe-n-kjpaw_psl.0.1.UPF: wavefunction(s)  2P renormalized
     Message from routine setup:
     using ibrav=0 with symmetry is DISCOURAGED, use correct ibrav instead

     K-points division:     npool     =       2
     R & G space division:  proc/nbgrp/npool/nimage =       4
     Subspace diagonalization in iterative solution of the eigenvalue problem:
     a serial algorithm will be used

     Using Slab Decomposition

     bravais-lattice index     =            0
     lattice parameter (alat)  =      10.2202  a.u.
     unit-cell volume          =    1332.6834 (a.u.)^3
     number of atoms/cell      =           16
     number of atomic types    =            5
     number of electrons       =       114.00
     number of Kohn-Sham states=           64
     kinetic-energy cutoff     =      30.0000  Ry
     charge density cutoff     =     240.0000  Ry
     scf convergence threshold =      1.0E-06
     mixing beta               =       0.7000
     number of iterations used =            8  plain     mixing
     Exchange-correlation= SLA  PW   PBX  PBC
                           (   1   4   3   4   0   0   0)

     celldm(1)=  10.220188  celldm(2)=   0.000000  celldm(3)=   0.000000
     celldm(4)=   0.000000  celldm(5)=   0.000000  celldm(6)=   0.000000

     crystal axes: (cart. coord. in units of alat)
               a(1) = (   1.000000   0.000000   0.000000 )
               a(2) = (   0.343862   0.939020   0.000000 )
               a(3) = (   0.612493   0.427978   1.329460 )

     reciprocal axes: (cart. coord. in units 2 pi/alat)
               b(1) = (  1.000000 -0.366192 -0.342824 )
               b(2) = (  0.000000  1.064940 -0.342824 )
               b(3) = (  0.000000  0.000000  0.752185 )

     PseudoPot. # 1 for Cu read from file:
     /lustre07/scratch/pragov/crystal_structure_design/utils/SSSP/Cu.paw.z_11.ld1.psl.v1.0.0-low.upf
     MD5 check sum: 619f40885d92a09a85a8b37550532d0c
     Pseudo is Projector augmented-wave + core cor, Zval = 11.0
     Generated using &quot;atomic&quot; code by A. Dal Corso  v.6.3MaX
     Shape of augmentation charge: PSQ
     Using radial grid of 1199 points,  6 beta functions with:
                l(1) =   0
                l(2) =   0
                l(3) =   1
                l(4) =   1
                l(5) =   2
                l(6) =   2
     Q(r) pseudized with 0 coefficients

     PseudoPot. # 2 for Ag read from file:
     /lustre07/scratch/pragov/crystal_structure_design/utils/SSSP/Ag_ONCV_PBE-1.0.oncvpsp.upf
     MD5 check sum: 94f47bd0669c641108e45594df92fabc
     Pseudo is Norm-conserving, Zval = 19.0
     Generated using ONCVPSP code by D. R. Hamann
     Using radial grid of 1398 points,  6 beta functions with:
                l(1) =   0
                l(2) =   0
                l(3) =   1
                l(4) =   1
                l(5) =   2
                l(6) =   2

     PseudoPot. # 3 for H  read from file:
     /lustre07/scratch/pragov/crystal_structure_design/utils/SSSP/H.pbe-rrkjus_psl.1.0.0.UPF
     MD5 check sum: f52b6d4d1c606e5624b1dc7b2218f220
     Pseudo is Ultrasoft, Zval =  1.0
     Generated using "atomic" code by A. Dal Corso  v.5.1
     Using radial grid of  929 points,  2 beta functions with:
                l(1) =   0
                l(2) =   0
     Q(r) pseudized with 0 coefficients

     PseudoPot. # 4 for Se read from file:
     /lustre07/scratch/pragov/crystal_structure_design/utils/SSSP/Se_pbe_v1.uspp.F.UPF
     MD5 check sum: 1b3568f3a8ae88f9a2a0ad0698632c85
     Pseudo is Ultrasoft + core correction, Zval =  6.0
     Generated by new atomic code, or converted to UPF format
     Using radial grid of  877 points,  6 beta functions with:
                l(1) =   0
                l(2) =   0
                l(3) =   1
                l(4) =   1
                l(5) =   2
                l(6) =   2
     Q(r) pseudized with  8 coefficients,  rinner =    1.300   1.300   1.300
                                                       1.300   1.300

     PseudoPot. # 5 for O  read from file:
     /lustre07/scratch/pragov/crystal_structure_design/utils/SSSP/O.pbe-n-kjpaw_psl.0.1.UPF
     MD5 check sum: 0234752ac141de4415c5fc33072bef88
     Pseudo is Projector augmented-wave + core cor, Zval =  6.0
     Generated using "atomic" code by A. Dal Corso  v.5.0.99 svn rev. 10869
     Shape of augmentation charge: BESSEL
     Using radial grid of 1095 points,  4 beta functions with:
                l(1) =   0
                l(2) =   0
                l(3) =   1
                l(4) =   1
     Q(r) pseudized with 0 coefficients

     atomic species   valence    mass     pseudopotential
        Cu            11.00    63.54600     Cu( 1.00)
        Ag            19.00   107.86820     Ag( 1.00)
        H              1.00     1.00800     H ( 1.00)
        Se             6.00    78.97100     Se( 1.00)
        O              6.00    15.99900     O ( 1.00)

      2 Sym. Ops., with inversion, found

                                    s                        frac. trans.

      isym =  1     identity

 cryst.   s( 1) = (     1          0          0      )
                  (     0          1          0      )
                  (     0          0          1      )

 cart.    s( 1) = (  1.0000000 -0.0000000  0.0000000 )
                  (  0.0000000  1.0000000  0.0000000 )
                  (  0.0000000  0.0000000  1.0000000 )

      isym =  2     inversion

 cryst.   s( 2) = (    -1          0          0      )
                  (     0         -1          0      )
                  (     0          0         -1      )

 cart.    s( 2) = ( -1.0000000  0.0000000 -0.0000000 )
                  (  0.0000000 -1.0000000  0.0000000 )
                  (  0.0000000  0.0000000 -1.0000000 )

   Cartesian axes

     site n.     atom                  positions (alat units)
         1           Cu  tau(   1) = (   0.8062463   0.2139889   0.6647301  )
         2           Cu  tau(   2) = (   0.4781772   0.6834991   0.6647301  )
         3           Ag  tau(   3) = (   0.0000000   0.0000000   0.0000000  )
         4           H   tau(   4) = (   0.3062463   0.2139889   0.6647301  )
         5           Se  tau(   5) = (   0.9056582   0.6328266   0.2735258  )
         6           Se  tau(   6) = (   1.0506962   0.7341716   1.0559344  )
         7           O   tau(   7) = (   1.4700816   1.0272161   0.7250291  )
         8           O   tau(   8) = (   0.4862728   0.3397820   0.6044311  )
         9           O   tau(   9) = (   0.9159714   0.3220629   0.3431137  )
        10           O   tau(  10) = (   1.0403830   1.0449353   0.9863464  )
        11           O   tau(  11) = (   1.3389633   0.6176275   0.9863464  )
        12           O   tau(  12) = (   0.6173911   0.7493706   0.3431137  )
        13           O   tau(  13) = (   1.1166127   0.7802305   0.4407001  )
        14           O   tau(  14) = (   0.8397417   0.5867676   0.8887601  )
        15           O   tau(  15) = (   0.3919159   0.2738503   0.0261186  )
        16           O   tau(  16) = (   1.5644385   1.0931478   1.3033416  )

   Crystallographic axes

     site n.     atom                  positions (cryst. coord.)
         1           Cu  tau(   1) = (  0.5000000 -0.0000000  0.5000000  )
         2           Cu  tau(   2) = (  0.0000000  0.5000000  0.5000000  )
         3           Ag  tau(   3) = (  0.0000000  0.0000000  0.0000000  )
         4           H   tau(   4) = ( -0.0000000 -0.0000000  0.5000000  )
         5           Se  tau(   5) = (  0.5801510  0.5801510  0.2057420  )
         6           Se  tau(   6) = (  0.4198490  0.4198490  0.7942580  )
         7           O   tau(   7) = (  0.8453660  0.8453660  0.5453560  )
         8           O   tau(   8) = (  0.1546340  0.1546340  0.4546440  )
         9           O   tau(   9) = (  0.6804070  0.2253500  0.2580850  )
        10           O   tau(  10) = (  0.3195930  0.7746500  0.7419150  )
        11           O   tau(  11) = (  0.7746500  0.3195930  0.7419150  )
        12           O   tau(  12) = (  0.2253500  0.6804070  0.2580850  )
        13           O   tau(  13) = (  0.6798160  0.6798160  0.3314880  )
        14           O   tau(  14) = (  0.3201840  0.3201840  0.6685120  )
        15           O   tau(  15) = (  0.2826800  0.2826800  0.0196460  )
        16           O   tau(  16) = (  0.7173200  0.7173200  0.9803540  )

     number of k points=    14
                       cart. coord. in units 2pi/alat
        k(    1) = (   0.0000000   0.0000000   0.0000000), wk =   0.0740741
        k(    2) = (   0.0000000   0.0000000   0.2507283), wk =   0.1481481
        k(    3) = (   0.0000000   0.3549799  -0.1142746), wk =   0.1481481
        k(    4) = (   0.0000000   0.3549799   0.1364537), wk =   0.1481481
        k(    5) = (   0.0000000   0.3549799  -0.3650029), wk =   0.1481481
        k(    6) = (   0.3333333  -0.1220640  -0.1142746), wk =   0.1481481
        k(    7) = (   0.3333333  -0.1220640   0.1364537), wk =   0.1481481
        k(    8) = (   0.3333333  -0.1220640  -0.3650029), wk =   0.1481481
        k(    9) = (   0.3333333   0.2329159  -0.2285492), wk =   0.1481481
        k(   10) = (   0.3333333   0.2329159   0.0221791), wk =   0.1481481
        k(   11) = (   0.3333333   0.2329159  -0.4792775), wk =   0.1481481
        k(   12) = (   0.3333333  -0.4770439  -0.0000000), wk =   0.1481481
        k(   13) = (   0.3333333  -0.4770439   0.2507283), wk =   0.1481481
        k(   14) = (   0.3333333  -0.4770439  -0.2507283), wk =   0.1481481

                       cryst. coord.
        k(    1) = (   0.0000000   0.0000000   0.0000000), wk =   0.0740741
        k(    2) = (   0.0000000   0.0000000   0.3333333), wk =   0.1481481
        k(    3) = (   0.0000000   0.3333333   0.0000000), wk =   0.1481481
        k(    4) = (   0.0000000   0.3333333   0.3333333), wk =   0.1481481
        k(    5) = (   0.0000000   0.3333333  -0.3333333), wk =   0.1481481
        k(    6) = (   0.3333333  -0.0000000   0.0000000), wk =   0.1481481
        k(    7) = (   0.3333333  -0.0000000   0.3333333), wk =   0.1481481
        k(    8) = (   0.3333333  -0.0000000  -0.3333333), wk =   0.1481481
        k(    9) = (   0.3333333   0.3333333  -0.0000000), wk =   0.1481481
        k(   10) = (   0.3333333   0.3333333   0.3333333), wk =   0.1481481
        k(   11) = (   0.3333333   0.3333333  -0.3333333), wk =   0.1481481
        k(   12) = (   0.3333333  -0.3333333   0.0000000), wk =   0.1481481
        k(   13) = (   0.3333333  -0.3333333   0.3333333), wk =   0.1481481
        k(   14) = (   0.3333333  -0.3333333  -0.3333333), wk =   0.1481481

     Check: negative core charge=   -0.000010

     Initial potential from superposition of free atoms

     starting charge     113.9991, renormalised to     114.0000
     Starting wfcs are   77 randomized atomic wfcs
     Checking if some PAW data can be deallocated...

     Self-consistent Calculation

     iteration #  1     ecut=    30.00 Ry     beta= 0.70
     Davidson diagonalization with overlap

     ethr =  1.00E-02,  avg # of iterations =  2.0

     total energy              =   -1213.46758617 Ry
     estimated scf accuracy    <       5.54269343 Ry

[...]

     total energy              =   -1216.77648042 Ry
     estimated scf accuracy    <       0.00000214 Ry

     iteration # 13     ecut=    30.00 Ry     beta= 0.70
     Davidson diagonalization with overlap

     ethr =  1.88E-09,  avg # of iterations =  2.4

     End of self-consistent calculation

          k = 0.0000 0.0000 0.0000 (  3673 PWs)   bands (ev):

   -85.3744 -48.4253 -48.4166 -48.4136 -16.7234 -16.5339 -13.6840 -13.6010
   -13.5758 -13.4214 -13.3854 -13.2402 -13.0799 -11.9706  -5.7712  -5.5691
    -2.1618  -2.1140  -1.3919  -1.0243  -0.9892  -0.8888  -0.7507  -0.2184
     0.2556   0.7712   0.7937   1.0921   1.4989   1.5302   1.9390   2.1116
     2.1660   2.2181   2.2396   2.4388   2.5784   2.7946   2.8969   2.9220
     2.9408   3.2242   3.3421   3.4461   3.5872   3.6687   3.7042   3.7186
     3.8193   3.8623   3.9689   3.9770   4.0003   4.3901   4.4257   4.6275
     4.7302   5.2466   6.0380   7.1308   8.1043  10.3046  10.9500  11.4379

     occupation numbers
     1.0000   1.0000   1.0000   1.0000   1.0000   1.0000   1.0000   1.0000
     1.0000   1.0000   1.0000   1.0000   1.0000   1.0000   1.0000   1.0000
     1.0000   1.0000   1.0000   1.0000   1.0000   1.0000   1.0000   1.0000
     1.0000   1.0000   1.0000   1.0000   1.0000   1.0000   1.0000   1.0000
     1.0000   1.0000   1.0000   1.0000   1.0000   1.0000   1.0000   1.0000
     1.0000   1.0000   1.0000   1.0000   1.0000   1.0000   1.0000   1.0000
     1.0000   1.0000   1.0000   1.0000   1.0000   1.0000   1.0000   1.0000
     1.0000   0.0000   0.0000   0.0000   0.0000   0.0000   0.0000   0.0000

[...]

          k = 0.3333-0.4770-0.2507 (  3693 PWs)   bands (ev):

   -85.3744 -48.4260 -48.4173 -48.4145 -16.5959 -16.5488 -13.7813 -13.7609
   -13.5262 -13.5037 -13.3171 -13.2516 -13.0291 -12.1393  -5.3295  -5.2659
    -2.0123  -1.8295  -1.6017  -1.1225  -0.9914  -0.7930  -0.6007   0.0374
     0.4294   0.7290   0.7703   0.9996   1.3295   1.4553   1.5061   1.7276
     1.8268   1.9284   2.2090   2.3508   2.3713   2.6587   2.7449   2.7954
     2.8834   3.0361   3.1133   3.3046   3.3901   3.4157   3.6333   3.6868
     3.8603   3.8767   4.0304   4.1722   4.3110   4.3446   4.5624   4.6165
     4.6988   5.5952   5.6143   8.6674   8.8466  10.0564  11.1978  11.5030

     occupation numbers
     1.0000   1.0000   1.0000   1.0000   1.0000   1.0000   1.0000   1.0000
     1.0000   1.0000   1.0000   1.0000   1.0000   1.0000   1.0000   1.0000
     1.0000   1.0000   1.0000   1.0000   1.0000   1.0000   1.0000   1.0000
     1.0000   1.0000   1.0000   1.0000   1.0000   1.0000   1.0000   1.0000
     1.0000   1.0000   1.0000   1.0000   1.0000   1.0000   1.0000   1.0000
     1.0000   1.0000   1.0000   1.0000   1.0000   1.0000   1.0000   1.0000
     1.0000   1.0000   1.0000   1.0000   1.0000   1.0000   1.0000   1.0000
     1.0000   0.0000   0.0000   0.0000   0.0000   0.0000   0.0000   0.0000

     highest occupied, lowest unoccupied level (ev):     4.8230    5.2466

!    total energy              =   -1216.77648043 Ry
     estimated scf accuracy    <       0.00000086 Ry

     The total energy is the sum of the following terms:
     one-electron contribution =    -431.55833659 Ry
     hartree contribution      =     290.49785114 Ry
     xc contribution           =    -249.90698568 Ry
     ewald contribution        =    -550.72834213 Ry
     one-center paw contrib.   =    -275.08066716 Ry
      -> PAW hartree energy AE =     192.05923319 Ry
      -> PAW hartree energy PS =    -190.67357793 Ry
      -> PAW xc energy AE      =    -269.41529813 Ry
      -> PAW xc energy PS      =      88.31811826 Ry
      -> total E_H with PAW    =     291.88350640 Ry
      -> total E_XC with PAW   =    -431.00416555 Ry

     convergence has been achieved in  13 iterations

     Writing all to output data dir bands_nm/myprefix.save/

     General routines

     Parallel routines

     PAW routines

   This run was terminated on:  13:30:35  14Jul2023

   JOB DONE.