     Program PWSCF v.7.0 starts on  6Jun2023 at 13:57: 2

     K-points division:     npool     =       2
     R & G space division:  proc/nbgrp/npool/nimage =       4

     Reading input from espresso_16875.pwi
Warning: card &CELL ignored
Warning: card / ignored

     Current dimensions of program PWSCF are:
     Max number of different atomic species (ntypx) = 10
     Max number of k-points (npk) =  40000
     Max angular momentum in pseudopotentials (lmaxx) =  4
     file Ba.pbe-spn-kjpaw_psl.1.0.0.UPF: wavefunction(s)  5S 6S renormalized
     file O.pbe-n-kjpaw_psl.0.1.UPF: wavefunction(s)  2P renormalized
     Message from routine setup:
     using ibrav=0 with symmetry is DISCOURAGED, use correct ibrav instead

     Using Slab Decomposition

     bravais-lattice index     =            0
     lattice parameter (alat)  =      17.1063  a.u.
     unit-cell volume          =    3097.9099 (a.u.)^3
     number of atoms/cell      =           14
     number of atomic types    =            3
     number of electrons       =       112.00
     number of Kohn-Sham states=           64
     kinetic-energy cutoff     =      30.0000  Ry
     charge density cutoff     =     240.0000  Ry
     scf convergence threshold =      1.0E-06
     mixing beta               =       0.7000
     number of iterations used =            8  plain     mixing
     Exchange-correlation= SLA  PW   PBX  PBC
                           (   1   4   3   4   0   0   0)

     celldm(1)=  17.106308  celldm(2)=   0.000000  celldm(3)=   0.000000
     celldm(4)=   0.000000  celldm(5)=   0.000000  celldm(6)=   0.000000

     crystal axes: (cart. coord. in units of alat)
               a(1) = (   1.000000   0.000000   0.000000 )
               a(2) = (  -0.678632   0.734478   0.000000 )
               a(3) = (   0.000000   0.000000   0.842599 )

     reciprocal axes: (cart. coord. in units 2 pi/alat)
               b(1) = (  1.000000  0.923965  0.000000 )
               b(2) = (  0.000000  1.361511  0.000000 )
               b(3) = (  0.000000  0.000000  1.186804 )

     PseudoPot. # 1 for Ba read from file:
     /home/pragov/projects/rrg-bengioy-ad/pragov/crystal_structure_design/SSSP/Ba.pbe-spn-kjpaw_psl.1.0.0.UPF
     MD5 check sum: c432291d3e53af55f19d5e8866385beb
     Pseudo is Projector augmented-wave + core cor, Zval = 10.0
     Generated using "atomic" code by A. Dal Corso  v.5.1
     Shape of augmentation charge: PSQ
     Using radial grid of 1251 points,  7 beta functions with:
                l(1) =   0
                l(2) =   0
                l(3) =   0
                l(4) =   1
                l(5) =   1
                l(6) =   2
                l(7) =   2
     Q(r) pseudized with 0 coefficients

     PseudoPot. # 2 for P  read from file:
     /home/pragov/projects/rrg-bengioy-ad/pragov/crystal_structure_design/SSSP/P.pbe-n-rrkjus_psl.1.0.0.UPF
     MD5 check sum: 8b930f418f0a4573dca56cd030ffe088
     Pseudo is Ultrasoft + core correction, Zval =  5.0
     Generated using "atomic" code by A. Dal Corso  v.5.1
     Using radial grid of 1147 points,  6 beta functions with:
                l(1) =   0
                l(2) =   0
                l(3) =   1
                l(4) =   1
                l(5) =   2
                l(6) =   2
     Q(r) pseudized with 0 coefficients

     PseudoPot. # 3 for O  read from file:
     /home/pragov/projects/rrg-bengioy-ad/pragov/crystal_structure_design/SSSP/O.pbe-n-kjpaw_psl.0.1.UPF
     MD5 check sum: 0234752ac141de4415c5fc33072bef88
     Pseudo is Projector augmented-wave + core cor, Zval =  6.0
     Generated using "atomic" code by A. Dal Corso  v.5.0.99 svn rev. 10869
     Shape of augmentation charge: BESSEL
     Using radial grid of 1095 points,  4 beta functions with:
                l(1) =   0
                l(2) =   0
                l(3) =   1
                l(4) =   1
     Q(r) pseudized with 0 coefficients

     atomic species   valence    mass     pseudopotential
        Ba            10.00   137.32700     Ba( 1.00)
        P              5.00    30.97376     P ( 1.00)
        O              6.00    15.99900     O ( 1.00)

      4 Sym. Ops., with inversion, found ( 2 have fractional translation)

                                    s                        frac. trans.

      isym =  1     identity

 cryst.   s( 1) = (     1          0          0      )
                  (     0          1          0      )
                  (     0          0          1      )

 cart.    s( 1) = (  1.0000000  0.0000000  0.0000000 )
                  (  0.0000000  1.0000000  0.0000000 )
                  (  0.0000000  0.0000000  1.0000000 )

      isym =  2     180 deg rotation - cart. axis [0,0,1]

 cryst.   s( 2) = (    -1          0          0      )    f =(  0.5000000 )
                  (     0         -1          0      )       (  0.5000000 )
                  (     0          0          1      )       (  0.5000000 )

 cart.    s( 2) = ( -1.0000000 -0.0000000  0.0000000 )    f =(  0.1606839 )
                  (  0.0000000 -1.0000000  0.0000000 )       (  0.3672392 )
                  (  0.0000000  0.0000000  1.0000000 )       (  0.4212995 )

      isym =  3     inversion

 cryst.   s( 3) = (    -1          0          0      )
                  (     0         -1          0      )
                  (     0          0         -1      )

 cart.    s( 3) = ( -1.0000000 -0.0000000  0.0000000 )
                  (  0.0000000 -1.0000000  0.0000000 )
                  (  0.0000000  0.0000000 -1.0000000 )

      isym =  4     inv. 180 deg rotation - cart. axis [0,0,1]

 cryst.   s( 4) = (     1          0          0      )    f =(  0.5000000 )
                  (     0          1          0      )       (  0.5000000 )
                  (     0          0         -1      )       ( -0.5000000 )

 cart.    s( 4) = (  1.0000000  0.0000000  0.0000000 )    f =(  0.1606839 )
                  (  0.0000000  1.0000000  0.0000000 )       (  0.3672392 )
                  (  0.0000000  0.0000000 -1.0000000 )       ( -0.4212995 )

   Cartesian axes

     site n.     atom                  positions (alat units)
         1           Ba  tau(   1) = (   0.4587872   0.2368054   0.3624911  )
         2           Ba  tau(   2) = (  -0.1374193   0.4976730   0.4801078  )
         3           Ba  tau(   3) = (  -0.3805289   0.6040445   0.0588084  )
         4           Ba  tau(   4) = (   0.7018968   0.1304338   0.7837906  )
         5           Ba  tau(   5) = (   0.2071561   0.5656783   0.2106497  )
         6           Ba  tau(   6) = (   0.2748956   0.5360392   0.6319492  )
         7           Ba  tau(   7) = (   0.1142117   0.1688000   0.6319492  )
         8           Ba  tau(   8) = (   0.0464722   0.1984391   0.2106497  )
         9           P   tau(   9) = (  -0.4530895   0.6357931   0.4005918  )
        10           P   tau(  10) = (   0.7744573   0.0986852   0.4420072  )
        11           P   tau(  11) = (  -0.0648588   0.4659244   0.8218912  )
        12           P   tau(  12) = (   0.3862266   0.2685539   0.0207077  )
        13           O   tau(  13) = (   0.1606839   0.3672392   0.4212995  )
        14           O   tau(  14) = (   0.0000000   0.0000000   0.0000000  )

   Crystallographic axes

     site n.     atom                  positions (cryst. coord.)
         1           Ba  tau(   1) = (  0.6775870  0.3224130  0.4302060  )
         2           Ba  tau(   2) = (  0.3224130  0.6775870  0.5697940  )
         3           Ba  tau(   3) = (  0.1775870  0.8224130  0.0697940  )
         4           Ba  tau(   4) = (  0.8224130  0.1775870  0.9302060  )
         5           Ba  tau(   5) = (  0.7298230  0.7701770  0.2500000  )
         6           Ba  tau(   6) = (  0.7701770  0.7298230  0.7500000  )
         7           Ba  tau(   7) = (  0.2701770  0.2298230  0.7500000  )
         8           Ba  tau(   8) = (  0.2298230  0.2701770  0.2500000  )
         9           P   tau(   9) = (  0.1343610  0.8656390  0.4754240  )
        10           P   tau(  10) = (  0.8656390  0.1343610  0.5245760  )
        11           P   tau(  11) = (  0.3656390  0.6343610  0.9754240  )
        12           P   tau(  12) = (  0.6343610  0.3656390  0.0245760  )
        13           O   tau(  13) = (  0.5000000  0.5000000  0.5000000  )
        14           O   tau(  14) = (  0.0000000  0.0000000  0.0000000  )

     number of k points=    10
                       cart. coord. in units 2pi/alat
        k(    1) = (   0.0000000   0.0000000   0.0000000), wk =   0.0740741
        k(    2) = (   0.0000000   0.0000000   0.3956014), wk =   0.1481481
        k(    3) = (   0.0000000   0.4538369   0.0000000), wk =   0.1481481
        k(    4) = (   0.0000000   0.4538369   0.3956014), wk =   0.2962963
        k(    5) = (   0.3333333   0.3079883   0.0000000), wk =   0.1481481
        k(    6) = (   0.3333333   0.3079883   0.3956014), wk =   0.2962963
        k(    7) = (   0.3333333   0.7618251   0.0000000), wk =   0.1481481
        k(    8) = (   0.3333333   0.7618251   0.3956014), wk =   0.2962963
        k(    9) = (   0.3333333  -0.1458486   0.0000000), wk =   0.1481481
        k(   10) = (   0.3333333  -0.1458486   0.3956014), wk =   0.2962963

                       cryst. coord.
        k(    1) = (   0.0000000   0.0000000   0.0000000), wk =   0.0740741
        k(    2) = (   0.0000000   0.0000000   0.3333333), wk =   0.1481481
        k(    3) = (   0.0000000   0.3333333   0.0000000), wk =   0.1481481
        k(    4) = (   0.0000000   0.3333333   0.3333333), wk =   0.2962963
        k(    5) = (   0.3333333   0.0000000   0.0000000), wk =   0.1481481
        k(    6) = (   0.3333333   0.0000000   0.3333333), wk =   0.2962963
        k(    7) = (   0.3333333   0.3333333   0.0000000), wk =   0.1481481
        k(    8) = (   0.3333333   0.3333333   0.3333333), wk =   0.2962963
        k(    9) = (   0.3333333  -0.3333333   0.0000000), wk =   0.1481481
        k(   10) = (   0.3333333  -0.3333333   0.3333333), wk =   0.2962963

     Check: negative core charge=   -0.000002

     Initial potential from superposition of free atoms

     starting charge     111.8633, renormalised to     112.0000
     Starting wfcs are   64 randomized atomic wfcs
     Checking if some PAW data can be deallocated...

     Self-consistent Calculation

     iteration #  1     ecut=    30.00 Ry     beta= 0.70
     Davidson diagonalization with overlap

     ethr =  1.00E-02,  avg # of iterations =  8.4

     negative rho (up, down):  7.867E-02 0.000E+00

     total energy              =   -3628.50960128 Ry
     estimated scf accuracy    <       3.01615821 Ry

[...]

     negative rho (up, down):  9.784E-04 0.000E+00

[...]

     total energy              =   -3630.02452527 Ry
     estimated scf accuracy    <       0.00000186 Ry

     iteration # 17     ecut=    30.00 Ry     beta= 0.70
     Davidson diagonalization with overlap

     ethr =  1.66E-09,  avg # of iterations =  2.0

     End of self-consistent calculation

          k = 0.0000 0.0000 0.0000 (  8589 PWs)   bands (ev):

   -20.4097 -20.3769 -20.3756 -20.3741 -20.0398 -19.9515 -19.8737 -19.7959
   -10.1592  -9.5680  -6.0344  -5.9836  -5.9200  -5.8654  -5.8057  -5.7509
    -5.7116  -5.6923  -5.6802  -5.6262  -5.6082  -5.5815  -5.5074  -5.4553
    -5.3568  -5.1318  -5.1239  -5.1102  -5.0981  -4.8773  -4.6487  -4.6482
    -4.5910  -4.5115  -0.9199  -0.7261  -0.4222  -0.3956   4.0559   4.2339
     4.4317   4.8229   5.5747   5.7807   5.8110   6.1737   6.1849   6.2363
     6.4655   6.6184   6.8183   6.8335   6.8361   6.9511   7.0041   7.0902
     8.4933   8.5853   8.6004   8.6599   9.0998   9.4204   9.4515   9.5859

     occupation numbers
     1.0000   1.0000   1.0000   1.0000   1.0000   1.0000   1.0000   1.0000
     1.0000   1.0000   1.0000   1.0000   1.0000   1.0000   1.0000   1.0000
     1.0000   1.0000   1.0000   1.0000   1.0000   1.0000   1.0000   1.0000
     1.0000   1.0000   1.0000   1.0000   1.0000   1.0000   1.0000   1.0000
     1.0000   1.0000   1.0000   1.0000   1.0000   1.0000   1.0000   1.0000
     1.0000   1.0000   1.0000   1.0000   1.0000   1.0000   1.0000   1.0000
     1.0000   1.0000   1.0000   1.0000   1.0000   1.0000   1.0000   1.0000
     0.0000   0.0000   0.0000   0.0000   0.0000   0.0000   0.0000   0.0000

[...]

          k = 0.3333-0.1458 0.3956 (  8583 PWs)   bands (ev):

   -20.3976 -20.3863 -20.3761 -20.3759 -20.0183 -19.9743 -19.8545 -19.8156
   -10.0257  -9.7324  -5.9565  -5.9242  -5.8629  -5.8224  -5.7965  -5.7464
    -5.7345  -5.7103  -5.6245  -5.6059  -5.5962  -5.5507  -5.4930  -5.4650
    -5.2931  -5.1716  -5.1521  -5.1164  -5.0681  -4.9288  -4.8610  -4.7620
    -4.6182  -4.5514  -0.6804  -0.6100  -0.5324  -0.5030   4.4430   4.5356
     4.6232   4.7345   5.2940   5.3827   5.8477   5.8704   6.0229   6.1969
     6.3702   6.4925   6.5830   6.6586   6.7051   6.7725   6.8706   7.0796
     8.8482   8.9740   9.0552   9.0934   9.4056   9.5093   9.5263   9.7219

     occupation numbers
     1.0000   1.0000   1.0000   1.0000   1.0000   1.0000   1.0000   1.0000
     1.0000   1.0000   1.0000   1.0000   1.0000   1.0000   1.0000   1.0000
     1.0000   1.0000   1.0000   1.0000   1.0000   1.0000   1.0000   1.0000
     1.0000   1.0000   1.0000   1.0000   1.0000   1.0000   1.0000   1.0000
     1.0000   1.0000   1.0000   1.0000   1.0000   1.0000   1.0000   1.0000
     1.0000   1.0000   1.0000   1.0000   1.0000   1.0000   1.0000   1.0000
     1.0000   1.0000   1.0000   1.0000   1.0000   1.0000   1.0000   1.0000
     0.0000   0.0000   0.0000   0.0000   0.0000   0.0000   0.0000   0.0000

     highest occupied, lowest unoccupied level (ev):     7.1241    8.2333

!    total energy              =   -3630.02452525 Ry
     estimated scf accuracy    <       0.00000036 Ry

     The total energy is the sum of the following terms:
     one-electron contribution =    -104.07541089 Ry
     hartree contribution      =     105.06008696 Ry
     xc contribution           =    -194.66993580 Ry
     ewald contribution        =    -417.63675723 Ry
     one-center paw contrib.   =   -3018.70250829 Ry
      -> PAW hartree energy AE =      57.38770641 Ry
      -> PAW hartree energy PS =     -57.17146531 Ry
      -> PAW xc energy AE      =    -788.44341594 Ry
      -> PAW xc energy PS      =      38.31934660 Ry
      -> total E_H with PAW    =     105.27632805 Ry
      -> total E_XC with PAW   =    -944.79400514 Ry

     convergence has been achieved in  17 iterations

     Writing all to output data dir calculations_bands/myprefix.save/

     General routines

     Parallel routines

     PAW routines

   This run was terminated on:  13:57:39   6Jun2023

   JOB DONE.