     Program PWSCF v.7.1 starts on 16Jul2023 at 13: 2:16

     Reading input from espresso_26405.pwi
Warning: card &CELL ignored
Warning: card / ignored

     Current dimensions of program PWSCF are:
     Max number of different atomic species (ntypx) = 10
     Max number of k-points (npk) =  40000
     Max angular momentum in pseudopotentials (lmaxx) =  4
     Message from routine setup:
     using ibrav=0 with symmetry is DISCOURAGED, use correct ibrav instead

     K-points division:     npool     =       2
     R & G space division:  proc/nbgrp/npool/nimage =       4
     Subspace diagonalization in iterative solution of the eigenvalue problem:
     a serial algorithm will be used

     Using Slab Decomposition

     bravais-lattice index     =            0
     lattice parameter (alat)  =       6.7041  a.u.
     unit-cell volume          =     857.2836 (a.u.)^3
     number of atoms/cell      =            8
     number of atomic types    =            3
     number of electrons       =        56.00
     number of Kohn-Sham states=           64
     kinetic-energy cutoff     =      30.0000  Ry
     charge density cutoff     =     240.0000  Ry
     scf convergence threshold =      1.0E-06
     mixing beta               =       0.7000
     number of iterations used =            8  plain     mixing
     Exchange-correlation=  SLA  PW   PBX  PBC
                           (   1   4   3   4   0   0   0)

     celldm(1)=   6.704091  celldm(2)=   0.000000  celldm(3)=   0.000000
     celldm(4)=   0.000000  celldm(5)=   0.000000  celldm(6)=   0.000000

     crystal axes: (cart. coord. in units of alat)
               a(1) = (   1.000000   0.000000   0.000000 )
               a(2) = (  -0.500000   0.866025   0.000000 )
               a(3) = (   0.500000   0.288675   3.285293 )

     reciprocal axes: (cart. coord. in units 2 pi/alat)
               b(1) = (  1.000000  0.577350 -0.202925 )
               b(2) = (  0.000000  1.154701 -0.101462 )
               b(3) = (  0.000000  0.000000  0.304387 )

     PseudoPot. # 1 for Be read from file:
     /lustre07/scratch/pragov/crystal_structure_design/utils/SSSP/be_pbe_v1.4.uspp.F.UPF
     MD5 check sum: 5ecff1440924c7c98ad504bef30f5264
     Pseudo is Ultrasoft, Zval =  4.0
     Generated by new atomic code, or converted to UPF format
     Using radial grid of  769 points,  6 beta functions with:
                l(1) =   0
                l(2) =   0
                l(3) =   0
                l(4) =   1
                l(5) =   1
                l(6) =   2
     Q(r) pseudized with 10 coefficients,  rinner =    1.000   1.000   1.000
                                                       1.000   1.000

     PseudoPot. # 2 for Zn read from file:
     /lustre07/scratch/pragov/crystal_structure_design/utils/SSSP/Zn_pbe_v1.uspp.F.UPF
     MD5 check sum: df62231357ef9e81f77b2b3087fa5675
     Pseudo is Ultrasoft, Zval = 20.0
     Generated by new atomic code, or converted to UPF format
     Using radial grid of  943 points,  6 beta functions with:
                l(1) =   0
                l(2) =   0
                l(3) =   1
                l(4) =   1
                l(5) =   2
                l(6) =   2
     Q(r) pseudized with  8 coefficients,  rinner =    1.100   1.100   1.100
                                                       1.100   1.100

     PseudoPot. # 3 for S  read from file:
     /lustre07/scratch/pragov/crystal_structure_design/utils/SSSP/s_pbe_v1.4.uspp.F.UPF
     MD5 check sum: 88d86576ff6df21479756cfb9bdac1df
     Pseudo is Ultrasoft + core correction, Zval =  6.0
     Generated by new atomic code, or converted to UPF format
     Using radial grid of  907 points,  6 beta functions with:
                l(1) =   0
                l(2) =   0
                l(3) =   1
                l(4) =   1
                l(5) =   2
                l(6) =   2
     Q(r) pseudized with  8 coefficients,  rinner =    1.300   1.300   1.300
                                                       1.300   1.300

     atomic species   valence    mass     pseudopotential
        Be             4.00     9.01218     Be( 1.00)
        Zn            20.00    65.38000     Zn( 1.00)
        S              6.00    32.06000     S ( 1.00)

      6 Sym. Ops. (no inversion) found

                                    s                        frac. trans.

      isym =  1     identity

 cryst.   s( 1) = (     1          0          0      )
                  (     0          1          0      )
                  (     0          0          1      )

 cart.    s( 1) = (  1.0000000  0.0000000 -0.0000000 )
                  (  0.0000000  1.0000000  0.0000000 )
                  (  0.0000000  0.0000000  1.0000000 )

      isym =  2     120 deg rotation - cryst. axis [0,0,1]

[...]

      isym =  3     120 deg rotation - cryst. axis [0,0,-1]

[...]

      isym =  4     inv. 180 deg rotation - cart. axis [1,0,0]

[...]

      isym =  5     inv. 180 deg rotation - cryst. axis [0,1,0]

[...]

      isym =  6     inv. 180 deg rotation - cryst. axis [1,1,0]

 cryst.   s( 6) = (     0         -1          0      )
                  (    -1          0          0      )
                  (    -1         -1          1      )

 cart.    s( 6) = (  0.5000000 -0.8660254  0.0000000 )
                  ( -0.8660254 -0.5000000  0.0000000 )
                  (  0.0000000  0.0000000  1.0000000 )

   Cartesian axes

     site n.     atom                  positions (alat units)
         1           Be  tau(   1) = (   0.5000005   0.2886748   0.8565252  )
         2           Be  tau(   2) = (   1.0000000   0.5773503   1.6444995  )
         3           Be  tau(   3) = (   0.5000005   0.8660251   2.4299539  )
         4           Zn  tau(   4) = (   0.5000005   0.8660251   0.0115182  )
         5           S   tau(   5) = (   0.5000000   0.8660254   0.6680512  )
         6           S   tau(   6) = (   0.5000005   0.2886748   1.4521357  )
         7           S   tau(   7) = (   1.0000000   0.5773503   2.2383162  )
         8           S   tau(   8) = (   0.4999995   0.8660257   3.0188493  )

   Crystallographic axes

     site n.     atom                  positions (cryst. coord.)
         1           Be  tau(   1) = (  0.4928570  0.2464280  0.2607150  )
         2           Be  tau(   2) = (  0.9996240  0.4998120  0.5005640  )
         3           Be  tau(   3) = (  0.5069030  0.7534510  0.7396460  )
         4           Zn  tau(   4) = (  0.9976630  0.9988310  0.0035060  )
         5           S   tau(   5) = (  0.8644360  0.9322180  0.2033460  )
         6           S   tau(   6) = (  0.3719930  0.1859960  0.4420110  )
         7           S   tau(   7) = (  0.8791240  0.4395620  0.6813140  )
         8           S   tau(   8) = (  0.3874010  0.6937010  0.9188980  )

     number of k points=     6
                       cart. coord. in units 2pi/alat
        k(    1) = (   0.0000000   0.0000000   0.0000000), wk =   0.0740741
        k(    2) = (   0.0000000   0.0000000   0.1014623), wk =   0.1481481
        k(    3) = (   0.0000000   0.3849002  -0.0338208), wk =   0.4444444
        k(    4) = (   0.0000000   0.3849002   0.0676415), wk =   0.4444444
        k(    5) = (   0.0000000   0.3849002  -0.1352830), wk =   0.4444444
        k(    6) = (   0.3333333   0.5773503  -0.1014623), wk =   0.4444444

                       cryst. coord.
        k(    1) = (   0.0000000   0.0000000   0.0000000), wk =   0.0740741
        k(    2) = (   0.0000000   0.0000000   0.3333333), wk =   0.1481481
        k(    3) = (   0.0000000   0.3333333   0.0000000), wk =   0.4444444
        k(    4) = (   0.0000000   0.3333333   0.3333333), wk =   0.4444444
        k(    5) = (   0.0000000   0.3333333  -0.3333333), wk =   0.4444444
        k(    6) = (   0.3333333   0.3333333   0.0000000), wk =   0.4444444

     Initial potential from superposition of free atoms

     starting charge      55.9992, renormalised to      56.0000
     Starting wfcs are   44 randomized atomic wfcs +   20 random wfcs

     Self-consistent Calculation

     iteration #  1     ecut=    30.00 Ry     beta= 0.70
     Davidson diagonalization with overlap

     ethr =  1.00E-02,  avg # of iterations =  6.2

     Threshold (ethr) on eigenvalues was too large:
     Diagonalizing with lowered threshold

     Davidson diagonalization with overlap

[...]

     total energy              =    -643.02101189 Ry
     estimated scf accuracy    <       0.33196465 Ry

[...]

     total energy              =    -643.14265245 Ry
     estimated scf accuracy    <       0.00000406 Ry

     iteration #  9     ecut=    30.00 Ry     beta= 0.70
     Davidson diagonalization with overlap

     ethr =  7.24E-09,  avg # of iterations =  2.0

     End of self-consistent calculation

          k = 0.0000 0.0000 0.0000 (  2391 PWs)   bands (ev):

  -119.1019 -93.6176 -93.4993 -93.4643 -73.2115 -73.2115 -73.2074  -7.6562
    -7.1414  -6.9873  -6.2274  -0.4331  -0.4072  -0.4072   0.0193   0.0193
     0.1741   2.4337   2.7246   4.5458   4.5458   4.9017   4.9018   5.2594
     5.2594   5.6660   6.2763   6.2763   9.9315  10.5806  10.7183  10.8041
    11.3028  11.3028  11.7112  11.9016  11.9016  12.0415  12.0415  13.5887
    13.7853  13.7854  14.7394  16.3544  17.1318  17.1318  17.3445  17.3445
    18.1207  18.1207  19.1476  19.3362  19.5803  20.0497  20.0498  20.0958
    20.9638  21.5519  21.5520  22.1685  22.3364  22.4563  22.4563  23.4465

     occupation numbers
     1.0000   1.0000   1.0000   1.0000   1.0000   1.0000   1.0000   1.0000
     1.0000   1.0000   1.0000   1.0000   1.0000   1.0000   1.0000   1.0000
     1.0000   1.0000   1.0000   1.0000   1.0000   1.0000   1.0000   1.0000
     1.0000   1.0000   1.0000   1.0000   0.0000   0.0000   0.0000   0.0000
     0.0000   0.0000   0.0000   0.0000   0.0000   0.0000   0.0000   0.0000
     0.0000   0.0000   0.0000   0.0000   0.0000   0.0000   0.0000   0.0000
     0.0000   0.0000   0.0000   0.0000   0.0000   0.0000   0.0000   0.0000
     0.0000   0.0000   0.0000   0.0000   0.0000   0.0000   0.0000   0.0000

[...]

          k = 0.3333 0.5774-0.1015 (  2380 PWs)   bands (ev):

  -119.0994 -93.6136 -93.4952 -93.4604 -73.2044 -73.2040 -73.2003  -6.0453
    -5.9246  -5.9058  -5.8402  -0.4179  -0.1221  -0.0980  -0.0049   0.2169
     1.0391   1.1510   1.2406   1.3354   1.9733   2.1497   2.2965   2.8524
     3.5376   3.7432   3.9538   4.0867  10.2970  10.6978  10.8992  11.6841
    12.3434  13.2596  13.6333  14.1976  14.3124  14.4019  14.5808  15.0869
    15.3273  15.4508  15.5162  15.9097  16.1049  16.5758  16.6464  17.5490
    18.2174  18.4647  19.2970  20.3611  21.0852  22.1196  22.3851  22.9677
    23.5613  23.8043  24.4065  24.6406  24.7968  25.3021  25.6099  25.6596

     occupation numbers
     1.0000   1.0000   1.0000   1.0000   1.0000   1.0000   1.0000   1.0000
     1.0000   1.0000   1.0000   1.0000   1.0000   1.0000   1.0000   1.0000
     1.0000   1.0000   1.0000   1.0000   1.0000   1.0000   1.0000   1.0000
     1.0000   1.0000   1.0000   1.0000   0.0000   0.0000   0.0000   0.0000
     0.0000   0.0000   0.0000   0.0000   0.0000   0.0000   0.0000   0.0000
     0.0000   0.0000   0.0000   0.0000   0.0000   0.0000   0.0000   0.0000
     0.0000   0.0000   0.0000   0.0000   0.0000   0.0000   0.0000   0.0000
     0.0000   0.0000   0.0000   0.0000   0.0000   0.0000   0.0000   0.0000

     highest occupied, lowest unoccupied level (ev):     6.2763    9.4678

!    total energy              =    -643.14265348 Ry
     estimated scf accuracy    <       0.00000017 Ry

     The total energy is the sum of the following terms:
     one-electron contribution =    -667.69112122 Ry
     hartree contribution      =     338.96756564 Ry
     xc contribution           =     -91.32756930 Ry
     ewald contribution        =    -223.09152860 Ry

     convergence has been achieved in   9 iterations

     Writing all to output data dir bands_nm/myprefix.save/

     General routines

     Parallel routines

   This run was terminated on:  13: 2:20  16Jul2023

   JOB DONE.