     Program PWSCF v.7.1 starts on 16Jul2023 at 23:48:36

     Reading input from espresso_26940.pwi
Warning: card &CELL ignored
Warning: card / ignored

     Current dimensions of program PWSCF are:
     Max number of different atomic species (ntypx) = 10
     Max number of k-points (npk) =  40000
     Max angular momentum in pseudopotentials (lmaxx) =  4
     file K.pbe-spn-kjpaw_psl.1.0.0.UPF: wavefunction(s)  3S renormalized
     file Ce.paw.z_12.atompaw.wentzcovitch.v1.2.upf: wavefunction(s)  6S 0P 5D 0D 4F 0F renormalized
     file O.pbe-n-kjpaw_psl.0.1.UPF: wavefunction(s)  2P renormalized
     Message from routine setup:
     the system is metallic, specify occupations

     K-points division:     npool     =       2
     R & G space division:  proc/nbgrp/npool/nimage =       4
     Subspace diagonalization in iterative solution of the eigenvalue problem:
     a serial algorithm will be used

     Using Slab Decomposition

     bravais-lattice index     =            0
     lattice parameter (alat)  =      13.6724  a.u.
     unit-cell volume          =    1231.6591 (a.u.)^3
     number of atoms/cell      =           12
     number of atomic types    =            4
     number of electrons       =        97.00 (up:  49.00, down:  48.00)
     number of Kohn-Sham states=           64
     kinetic-energy cutoff     =      30.0000  Ry
     charge density cutoff     =     240.0000  Ry
     scf convergence threshold =      1.0E-06
     mixing beta               =       0.7000
     number of iterations used =            8  plain     mixing
     Exchange-correlation= SLA  PW   PBX  PBC
                           (   1   4   3   4   0   0   0)

     celldm(1)=  13.672427  celldm(2)=   0.000000  celldm(3)=   0.000000
     celldm(4)=   0.000000  celldm(5)=   0.000000  celldm(6)=   0.000000

     crystal axes: (cart. coord. in units of alat)
               a(1) = (   1.000000   0.000000   0.000000 )
               a(2) = (   0.430122   0.902771   0.000000 )
               a(3) = (  -0.715061  -0.451386   0.533797 )

     reciprocal axes: (cart. coord. in units 2 pi/alat)
               b(1) = (  1.000000 -0.476446  0.936686 )
               b(2) = (  0.000000  1.107701  0.936686 )
               b(3) = (  0.000000  0.000000  1.873371 )

     PseudoPot. # 1 for K  read from file:
     /lustre03/project/6004852/pragov/crystal_structure_design/crystal-design/crystal_design/utils/SSSP/K.pbe-spn-kjpaw_psl.1.0.0.UPF
     MD5 check sum: 7d58810084cac21f60fbe77ea2b688fd
     Pseudo is Projector augmented-wave + core cor, Zval =  9.0
     Generated using "atomic" code by A. Dal Corso  v.5.1
     Shape of augmentation charge: PSQ
     Using radial grid of 1165 points,  6 beta functions with:
                l(1) =   0
                l(2) =   0
                l(3) =   1
                l(4) =   1
                l(5) =   2
                l(6) =   2
     Q(r) pseudized with 0 coefficients

     PseudoPot. # 2 for Ce read from file:
     /lustre03/project/6004852/pragov/crystal_structure_design/crystal-design/crystal_design/utils/SSSP/Ce.paw.z_12.atompaw.wentzcovitch.v1.2.upf
     MD5 check sum: 2241420ff980c77e0c917a2dc8a7e08e
     Pseudo is Projector augmented-wave + core cor, Zval = 12.0
     Generated using ATOMPAW code
     Shape of augmentation charge: BESSEL
     Using radial grid of 1102 points,  8 beta functions with:
                l(1) =   0
                l(2) =   0
                l(3) =   1
                l(4) =   1
                l(5) =   2
                l(6) =   2
                l(7) =   3
                l(8) =   3
     Q(r) pseudized with 0 coefficients

     PseudoPot. # 3 for Mo read from file:
     /lustre03/project/6004852/pragov/crystal_structure_design/crystal-design/crystal_design/utils/SSSP/Mo_ONCV_PBE-1.0.oncvpsp.upf
     MD5 check sum: 1b5d28e075c9ccadda658a603575cd1f
     Pseudo is Norm-conserving, Zval = 14.0
     Generated using ONCVPSP code by D. R. Hamann
     Using radial grid of 1526 points,  6 beta functions with:
                l(1) =   0
                l(2) =   0
                l(3) =   1
                l(4) =   1
                l(5) =   2
                l(6) =   2

     PseudoPot. # 4 for O  read from file:
     /lustre03/project/6004852/pragov/crystal_structure_design/crystal-design/crystal_design/utils/SSSP/O.pbe-n-kjpaw_psl.0.1.UPF
     MD5 check sum: 0234752ac141de4415c5fc33072bef88
     Pseudo is Projector augmented-wave + core cor, Zval =  6.0
     Generated using "atomic" code by A. Dal Corso  v.5.0.99 svn rev. 10869
     Shape of augmentation charge: BESSEL
     Using radial grid of 1095 points,  4 beta functions with:
                l(1) =   0
                l(2) =   0
                l(3) =   1
                l(4) =   1
     Q(r) pseudized with 0 coefficients

     atomic species   valence    mass     pseudopotential
        K              9.00    39.09830     K ( 1.00)
        Ce            12.00   140.11600     Ce( 1.00)
        Mo            14.00    95.95000     Mo( 1.00)
        O              6.00    15.99900     O ( 1.00)

     Starting magnetic structure
     atomic species   magnetization
        K            0.000
        Ce           0.000
        Mo           0.000
        O            0.000

     No symmetry found

                                    s                        frac. trans.

      isym =  1     identity

 cryst.   s( 1) = (     1          0          0      )
                  (     0          1          0      )
                  (     0          0          1      )

 cart.    s( 1) = (  1.0000000  0.0000000  0.0000000 )
                  (  0.0000000  1.0000000  0.0000000 )
                  (  0.0000000  0.0000000  1.0000000 )

   Cartesian axes

     site n.     atom                  positions (alat units)
         1           K   tau(   1) = (   0.5000000   0.0000000   0.2668985  )
         2           Ce  tau(   2) = (   0.7150608   0.4513855   0.0000000  )
         3           Mo  tau(   3) = (   0.2150608   0.4513855   0.2668985  )
         4           Mo  tau(   4) = (   0.0000000   0.0000000   0.0000000  )
         5           O   tau(   5) = (  -0.1945682  -0.2105375   0.3309536  )
         6           O   tau(   6) = (   0.4413071   0.3662926   0.2028434  )
         7           O   tau(   7) = (   0.7954675   0.5592901   0.3234767  )
         8           O   tau(   8) = (   0.1319992   0.0261777   0.2103203  )
         9           O   tau(   9) = (  -0.2788736   0.2064944   0.4854724  )
        10           O   tau(  10) = (   0.7815284   0.1108088   0.0483246  )
        11           O   tau(  11) = (   0.1258835   0.3193426   0.4596238  )
        12           O   tau(  12) = (   1.0574992   0.4276733   0.0741732  )

   Crystallographic axes

     site n.     atom                  positions (cryst. coord.)
         1           K   tau(   1) = (  0.7500000  0.2500000  0.5000000  )
         2           Ce  tau(   2) = (  0.5000000  0.5000000  0.0000000  )
         3           Mo  tau(   3) = (  0.2500000  0.7500000  0.5000000  )
         4           Mo  tau(   4) = (  0.0000000  0.0000000  0.0000000  )
         5           O   tau(   5) = (  0.2157410  0.0767870  0.6199990  )
         6           O   tau(   6) = (  0.4567890  0.5957430  0.3800010  )
         7           O   tau(   7) = (  0.8319920  0.9225220  0.6059920  )
         8           O   tau(   8) = (  0.3165310  0.2260010  0.3940080  )
         9           O   tau(   9) = (  0.0774780  0.6834690  0.9094700  )
        10           O   tau(  10) = (  0.7739990  0.1680080  0.0905300  )
        11           O   tau(  11) = (  0.4042570  0.7842590  0.8610460  )
        12           O   tau(  12) = (  0.9232130  0.5432110  0.1389540  )

     number of k points=    14
                       cart. coord. in units 2pi/alat
        k(    1) = (   0.0000000   0.0000000   0.0000000), wk =   0.0370370
        k(    2) = (   0.0000000   0.0000000   0.6244571), wk =   0.0740741
        k(    3) = (   0.0000000   0.3692335   0.3122286), wk =   0.0740741
        k(    4) = (   0.0000000   0.3692335   0.9366857), wk =   0.0740741
        k(    5) = (   0.3333333  -0.1588153   0.3122286), wk =   0.0740741
        k(    6) = (   0.3333333  -0.1588153   0.9366857), wk =   0.0740741
        k(    7) = (   0.3333333   0.2104182   0.6244571), wk =   0.0740741
        k(    8) = (   0.3333333   0.2104182  -0.0000000), wk =   0.0740741
        k(    9) = (   0.3333333  -0.5280488  -0.0000000), wk =   0.0740741
        k(   10) = (   0.3333333  -0.5280488   0.6244571), wk =   0.0740741
        k(   11) = (   0.0000000  -0.3692335   0.3122286), wk =   0.0740741
        k(   12) = (  -0.3333333   0.1588153   0.3122286), wk =   0.0740741
        k(   13) = (  -0.3333333  -0.2104182   0.6244571), wk =   0.0740741
        k(   14) = (  -0.3333333   0.5280488   0.6244571), wk =   0.0740741

                       cryst. coord.
        k(    1) = (   0.0000000   0.0000000   0.0000000), wk =   0.0370370
        k(    2) = (   0.0000000   0.0000000   0.3333333), wk =   0.0740741
        k(    3) = (   0.0000000   0.3333333   0.0000000), wk =   0.0740741
        k(    4) = (   0.0000000   0.3333333   0.3333333), wk =   0.0740741
        k(    5) = (   0.3333333   0.0000000   0.0000000), wk =   0.0740741
        k(    6) = (   0.3333333   0.0000000   0.3333333), wk =   0.0740741
        k(    7) = (   0.3333333   0.3333333   0.0000000), wk =   0.0740741
        k(    8) = (   0.3333333   0.3333333  -0.3333333), wk =   0.0740741
        k(    9) = (   0.3333333  -0.3333333   0.0000000), wk =   0.0740741
        k(   10) = (   0.3333333  -0.3333333   0.3333333), wk =   0.0740741
        k(   11) = (   0.0000000  -0.3333333   0.3333333), wk =   0.0740741
        k(   12) = (  -0.3333333   0.0000000   0.3333333), wk =   0.0740741
        k(   13) = (  -0.3333333  -0.3333333   0.6666667), wk =   0.0740741
        k(   14) = (  -0.3333333   0.3333333   0.3333333), wk =   0.0740741

     Check: negative core charge=   -0.000014
     Generating pointlists ...
     new r_m :   0.1540 (alat units)  2.1050 (a.u.) for type    1
     new r_m :   0.1445 (alat units)  1.9759 (a.u.) for type    2
     new r_m :   0.1030 (alat units)  1.4082 (a.u.) for type    3
     new r_m :   0.1030 (alat units)  1.4082 (a.u.) for type    4

     Initial potential from superposition of free atoms

     starting charge      96.9722, renormalised to      97.0000
     Starting wfcs are   92 randomized atomic wfcs
     Checking if some PAW data can be deallocated...

     Self-consistent Calculation

     iteration #  1     ecut=    30.00 Ry     beta= 0.70
     Davidson diagonalization with overlap

     ethr =  1.00E-02,  avg # of iterations =  3.1

     total energy              =   -1184.31064864 Ry
     estimated scf accuracy    <      10.15633425 Ry

     total magnetization       =     1.00 Bohr mag/cell
     absolute magnetization    =     1.86 Bohr mag/cell

[...]

     negative rho (up, down):  0.000E+00 1.543E-04

[...]

     total energy              =   -1203.12321442 Ry
     estimated scf accuracy    <       0.00000130 Ry

[...]

     iteration # 59     ecut=    30.00 Ry     beta= 0.70
     Davidson diagonalization with overlap

     ethr =  1.33E-09,  avg # of iterations =  3.0

     negative rho (up, down):  0.000E+00 2.765E-03

     Magnetic moment per site  (integrated on atomic sphere of radius R)
     atom   1 (R=0.154)  charge=  7.5083  magn=  0.0001
     atom   2 (R=0.145)  charge=  7.8348  magn=  0.9202
     atom   3 (R=0.103)  charge=  8.1097  magn=  0.0123
     atom   4 (R=0.103)  charge=  8.1142  magn=  0.0049
     atom   5 (R=0.103)  charge=  4.9914  magn= -0.0024
     atom   6 (R=0.103)  charge=  4.9914  magn= -0.0024
     atom   7 (R=0.103)  charge=  4.9946  magn= -0.0025
     atom   8 (R=0.103)  charge=  4.9944  magn= -0.0023
     atom   9 (R=0.103)  charge=  4.9944  magn= -0.0025
     atom  10 (R=0.103)  charge=  4.9946  magn= -0.0023
     atom  11 (R=0.103)  charge=  4.9914  magn= -0.0026
     atom  12 (R=0.103)  charge=  4.9914  magn= -0.0023

     End of self-consistent calculation

 ------ SPIN UP ------------

          k = 0.0000 0.0000 0.0000 (  3389 PWs)   bands (ev):

   -54.9266 -54.8290 -29.2051 -29.2051 -29.1675 -29.0891 -29.0891 -29.0771
   -26.1056 -20.3854 -10.7809 -10.7475 -10.6073 -10.6071 -10.2039 -10.1728
    -9.9911  -9.9910  -8.2578  -8.2574  -8.1846  -3.9367  -3.9367  -3.9339
     1.9969   2.1431   2.1432   2.2367   2.3900   2.6561   2.9127   2.9128
     2.9233   3.0414   3.3725   3.6218   4.3453   4.4948   4.4948   4.8365
     4.9988   4.9989   5.1920   5.2520   5.2521   5.6836   5.9478   5.9479
     8.8539   9.1437   9.2414   9.2597   9.2605   9.5125   9.5376   9.5410
     9.6360  10.1184  10.2724  10.9530  10.9532  11.4651  11.8656  11.9312

     occupation numbers
     1.0000   1.0000   1.0000   1.0000   1.0000   1.0000   1.0000   1.0000
     1.0000   1.0000   1.0000   1.0000   1.0000   1.0000   1.0000   1.0000
     1.0000   1.0000   1.0000   1.0000   1.0000   1.0000   1.0000   1.0000
     1.0000   1.0000   1.0000   1.0000   1.0000   1.0000   1.0000   1.0000
     1.0000   1.0000   1.0000   1.0000   1.0000   1.0000   1.0000   1.0000
     1.0000   1.0000   1.0000   1.0000   1.0000   1.0000   1.0000   1.0000
     1.0000   0.0000   0.0000   0.0000   0.0000   0.0000   0.0000   0.0000
     0.0000   0.0000   0.0000   0.0000   0.0000   0.0000   0.0000   0.0000

[...]

          k =-0.3333 0.1588 0.3122 (  3405 PWs)   bands (ev):

[...]

 ------ SPIN DOWN ----------

[...]

          k = 0.0000-0.3692 0.3122 (  3405 PWs)   bands (ev):

[...]

          k =-0.3333 0.5280 0.6245 (  3433 PWs)   bands (ev):

   -54.9209 -54.8144 -29.1981 -29.1975 -29.1607 -29.0693 -29.0691 -29.0623
   -25.6719 -20.3850 -10.9639 -10.8196 -10.6636 -10.2958 -10.1027 -10.0290
    -9.9878  -9.9578  -8.0609  -8.0285  -7.9531  -3.9402  -3.9357  -3.9181
     1.8354   2.1277   2.2210   2.3098   2.4855   2.5152   2.7532   2.8499
     2.9510   3.1776   3.5819   3.9552   4.0995   4.3603   4.5168   4.6161
     4.8365   4.9164   5.2681   5.4454   5.5001   5.6128   5.7402   5.8475
     9.2675   9.5848   9.6855   9.7916   9.8023   9.8680   9.9021   9.9750
    10.0105  10.2136  10.6378  11.1317  11.1951  11.7043  11.8042  11.8748

     occupation numbers
     1.0000   1.0000   1.0000   1.0000   1.0000   1.0000   1.0000   1.0000
     1.0000   1.0000   1.0000   1.0000   1.0000   1.0000   1.0000   1.0000
     1.0000   1.0000   1.0000   1.0000   1.0000   1.0000   1.0000   1.0000
     1.0000   1.0000   1.0000   1.0000   1.0000   1.0000   1.0000   1.0000
     1.0000   1.0000   1.0000   1.0000   1.0000   1.0000   1.0000   1.0000
     1.0000   1.0000   1.0000   1.0000   1.0000   1.0000   1.0000   1.0000
     0.0000   0.0000   0.0000   0.0000   0.0000   0.0000   0.0000   0.0000
     0.0000   0.0000   0.0000   0.0000   0.0000   0.0000   0.0000   0.0000

     highest occupied, lowest unoccupied level (ev):     8.8539    9.0049

!    total energy              =   -1203.12321977 Ry
     estimated scf accuracy    <       0.00000064 Ry

     The total energy is the sum of the following terms:
     one-electron contribution =    -263.28449209 Ry
     hartree contribution      =     178.62103204 Ry
     xc contribution           =    -115.27686327 Ry
     ewald contribution        =    -466.61512798 Ry
     one-center paw contrib.   =    -536.56776847 Ry
      -> PAW hartree energy AE =      82.26617195 Ry
      -> PAW hartree energy PS =     -81.74919182 Ry
      -> PAW xc energy AE      =    -483.61048099 Ry
      -> PAW xc energy PS      =      22.76398448 Ry
      -> total E_H with PAW    =     179.13801217 Ry
      -> total E_XC with PAW   =    -576.12335978 Ry

     total magnetization       =     1.00 Bohr mag/cell
     absolute magnetization    =     1.08 Bohr mag/cell

     convergence has been achieved in  59 iterations

     Writing all to output data dir bands_nm_v2/myprefix.save/

     General routines

     Parallel routines

     PAW routines

   This run was terminated on:  23:52: 3  16Jul2023

   JOB DONE.