     Program PWSCF v.7.1 starts on 15Jul2023 at 20:58:11

     Reading input from espresso_4099.pwi
Warning: card &CELL ignored
Warning: card / ignored

     Current dimensions of program PWSCF are:
     Max number of different atomic species (ntypx) = 10
     Max number of k-points (npk) =  40000
     Max angular momentum in pseudopotentials (lmaxx) =  4
     file Pr.paw.z_13.atompaw.wentzcovitch.v1.2.upf: wavefunction(s)  6S 0P 5D 0D 4F 0F renormalized
     file O.pbe-n-kjpaw_psl.0.1.UPF: wavefunction(s)  2P renormalized
     Message from routine setup:
     using ibrav=0 with symmetry is DISCOURAGED, use correct ibrav instead

     K-points division:     npool     =       2
     R & G space division:  proc/nbgrp/npool/nimage =       4
     Subspace diagonalization in iterative solution of the eigenvalue problem:
     one sub-group per band group will be used

     Using Slab Decomposition

     bravais-lattice index     =            0
     lattice parameter (alat)  =      10.9699  a.u.
     unit-cell volume          =    1704.3333 (a.u.)^3
     number of atoms/cell      =           20
     number of atomic types    =            4
     number of electrons       =       192.00
     number of Kohn-Sham states=          256
     kinetic-energy cutoff     =      30.0000  Ry
     charge density cutoff     =     240.0000  Ry
     scf convergence threshold =      1.0E-06
     mixing beta               =       0.7000
     number of iterations used =            8  plain     mixing
     Exchange-correlation= SLA  PW   PBX  PBC
                           (   1   4   3   4   0   0   0)

     celldm(1)=  10.969888  celldm(2)=   0.000000  celldm(3)=   0.000000
     celldm(4)=   0.000000  celldm(5)=   0.000000  celldm(6)=   0.000000

     crystal axes: (cart. coord. in units of alat)
               a(1) = (   1.000000   0.000000   0.000000 )
               a(2) = (   0.000000   0.950214   0.000000 )
               a(3) = (   0.000000   0.951708   1.358709 )

     reciprocal axes: (cart. coord. in units 2 pi/alat)
               b(1) = (  1.000000  0.000000  0.000000 )
               b(2) = (  0.000000  1.052395 -0.737150 )
               b(3) = (  0.000000  0.000000  0.735993 )

     PseudoPot. # 1 for Pr read from file:
     /lustre07/scratch/pragov/crystal_structure_design/utils/SSSP/Pr.paw.z_13.atompaw.wentzcovitch.v1.2.upf
     MD5 check sum: e0f8e046fa815e336ba020f7e7bc75cb
     Pseudo is Projector augmented-wave + core cor, Zval = 13.0
     Generated using ATOMPAW code
     Shape of augmentation charge: BESSEL
     Using radial grid of 1103 points,  8 beta functions with:
                l(1) =   0
                l(2) =   0
                l(3) =   1
                l(4) =   1
                l(5) =   2
                l(6) =   2
                l(7) =   3
                l(8) =   3
     Q(r) pseudized with 0 coefficients

     PseudoPot. # 2 for Ni read from file:
     /lustre07/scratch/pragov/crystal_structure_design/utils/SSSP/ni_pbe_v1.4.uspp.F.UPF
     MD5 check sum: 1ee80287db30b12d2bc1f57a5b5d6409
     Pseudo is Ultrasoft + core correction, Zval = 18.0
     Generated by new atomic code, or converted to UPF format
     Using radial grid of  865 points,  6 beta functions with:
                l(1) =   0
                l(2) =   0
                l(3) =   1
                l(4) =   1
                l(5) =   2
                l(6) =   2
     Q(r) pseudized with 10 coefficients,  rinner =    0.980   0.980   0.980
                                                       0.980   0.980

     PseudoPot. # 3 for Pt read from file:
     /lustre07/scratch/pragov/crystal_structure_design/utils/SSSP/pt_pbe_v1.4.uspp.F.UPF
     MD5 check sum: f09d6de1a584b5a045c4fc126da2d0c4
     Pseudo is Ultrasoft + core correction, Zval = 16.0
     Generated by new atomic code, or converted to UPF format
     Using radial grid of  985 points,  6 beta functions with:
                l(1) =   0
                l(2) =   0
                l(3) =   1
                l(4) =   1
                l(5) =   2
                l(6) =   2
     Q(r) pseudized with  8 coefficients,  rinner =    1.300   1.300   1.300
                                                       1.300   1.300

     PseudoPot. # 4 for O  read from file:
     /lustre07/scratch/pragov/crystal_structure_design/utils/SSSP/O.pbe-n-kjpaw_psl.0.1.UPF
     MD5 check sum: 0234752ac141de4415c5fc33072bef88
     Pseudo is Projector augmented-wave + core cor, Zval =  6.0
     Generated using "atomic" code by A. Dal Corso  v.5.0.99 svn rev. 10869
     Shape of augmentation charge: BESSEL
     Using radial grid of 1095 points,  4 beta functions with:
                l(1) =   0
                l(2) =   0
                l(3) =   1
                l(4) =   1
     Q(r) pseudized with 0 coefficients

     atomic species   valence    mass     pseudopotential
        Pr            13.00   140.90766     Pr( 1.00)
        Ni            18.00    58.69340     Ni( 1.00)
        Pt            16.00   195.08400     Pt( 1.00)
        O              6.00    15.99900     O ( 1.00)

      4 Sym. Ops., with inversion, found ( 2 have fractional translation)

                                    s                        frac. trans.

      isym =  1     identity

 cryst.   s( 1) = (     1          0          0      )
                  (     0          1          0      )
                  (     0          0          1      )

 cart.    s( 1) = (  1.0000000  0.0000000  0.0000000 )
                  (  0.0000000  1.0000000  0.0000000 )
                  (  0.0000000  0.0000000  1.0000000 )

      isym =  2     180 deg rotation - cart. axis [1,0,0]

 cryst.   s( 2) = (     1          0          0      )    f =( -0.5000000 )
                  (     0         -1          0      )       ( -0.0000000 )
                  (     0          0         -1      )       ( -0.5000000 )

 cart.    s( 2) = (  1.0000000  0.0000000  0.0000000 )    f =( -0.5000000 )
                  (  0.0000000 -1.0000000 -0.0000000 )       ( -0.4758542 )
                  (  0.0000000  0.0000000 -1.0000000 )       ( -0.6793546 )

      isym =  3     inversion

 cryst.   s( 3) = (    -1          0          0      )
                  (     0         -1          0      )
                  (     0          0         -1      )

 cart.    s( 3) = ( -1.0000000  0.0000000  0.0000000 )
                  (  0.0000000 -1.0000000 -0.0000000 )
                  (  0.0000000  0.0000000 -1.0000000 )

      isym =  4     inv. 180 deg rotation - cart. axis [1,0,0]

 cryst.   s( 4) = (    -1          0          0      )    f =(  0.5000000 )
                  (     0          1          0      )       ( -0.0000000 )
                  (     0          0          1      )       ( -0.5000000 )

 cart.    s( 4) = ( -1.0000000  0.0000000  0.0000000 )    f =(  0.5000000 )
                  (  0.0000000  1.0000000  0.0000000 )       ( -0.4758542 )
                  (  0.0000000  0.0000000  1.0000000 )       ( -0.6793546 )

   Cartesian axes

     site n.     atom                  positions (alat units)
         1           Pr  tau(   1) = (   0.4352110   0.9344969   1.0181881  )
         2           Pr  tau(   2) = (   0.5647890   0.9674253   0.3405210  )
         3           Pr  tau(   3) = (   0.9352110   1.4432794   1.0198756  )
         4           Pr  tau(   4) = (   0.0647890   0.4586428   0.3388335  )
         5           Ni  tau(   5) = (   0.0000000   0.9509611   0.6793546  )
         6           Ni  tau(   6) = (   0.5000000   0.4751070   0.0000000  )
         7           Pt  tau(   7) = (   0.0000000   0.0000000   0.0000000  )
         8           Pt  tau(   8) = (   0.5000000   0.4758542   0.6793546  )
         9           O   tau(   9) = (   0.0304660   1.0456047   1.0200509  )
        10           O   tau(  10) = (   0.9695340   0.8563176   0.3386583  )
        11           O   tau(  11) = (   0.5304660   1.3321717   1.0180128  )
        12           O   tau(  12) = (   0.4695340   0.5697505   0.3406963  )
        13           O   tau(  13) = (   0.7048100   1.7174001   1.2877859  )
        14           O   tau(  14) = (   0.2951900   0.1845221   0.0709233  )
        15           O   tau(  15) = (   0.2048100   0.6603763   0.7502778  )
        16           O   tau(  16) = (   0.7951900   1.2415459   0.6084313  )
        17           O   tau(  17) = (   0.1993820   1.6160985   1.2901908  )
        18           O   tau(  18) = (   0.8006180   0.2858237   0.0685183  )
        19           O   tau(  19) = (   0.6993820   0.7616778   0.7478729  )
        20           O   tau(  20) = (   0.3006180   1.1402444   0.6108362  )

   Crystallographic axes

     site n.     atom                  positions (cryst. coord.)
         1           Pr  tau(   1) = (  0.4352110  0.2329020  0.7493790  )
         2           Pr  tau(   2) = (  0.5647890  0.7670980  0.2506210  )
         3           Pr  tau(   3) = (  0.9352110  0.7670980  0.7506210  )
         4           Pr  tau(   4) = (  0.0647890  0.2329020  0.2493790  )
         5           Ni  tau(   5) = (  0.0000000  0.5000000  0.5000000  )
         6           Ni  tau(   6) = (  0.5000000  0.5000000  0.0000000  )
         7           Pt  tau(   7) = (  0.0000000  0.0000000  0.0000000  )
         8           Pt  tau(   8) = (  0.5000000 -0.0000000  0.5000000  )
         9           O   tau(   9) = (  0.0304660  0.3484580  0.7507500  )
        10           O   tau(  10) = (  0.9695340  0.6515420  0.2492500  )
        11           O   tau(  11) = (  0.5304660  0.6515420  0.7492500  )
        12           O   tau(  12) = (  0.4695340  0.3484580  0.2507500  )
        13           O   tau(  13) = (  0.7048100  0.8580910  0.9478010  )
        14           O   tau(  14) = (  0.2951900  0.1419090  0.0521990  )
        15           O   tau(  15) = (  0.2048100  0.1419090  0.5521990  )
        16           O   tau(  16) = (  0.7951900  0.8580910  0.4478010  )
        17           O   tau(  17) = (  0.1993820  0.7497090  0.9495710  )
        18           O   tau(  18) = (  0.8006180  0.2502910  0.0504290  )
        19           O   tau(  19) = (  0.6993820  0.2502910  0.5504290  )
        20           O   tau(  20) = (  0.3006180  0.7497090  0.4495710  )

     number of k points=    10
                       cart. coord. in units 2pi/alat
        k(    1) = (   0.0000000   0.0000000   0.0000000), wk =   0.0740741
        k(    2) = (   0.0000000   0.0000000   0.2453309), wk =   0.1481481
        k(    3) = (   0.0000000   0.3507982  -0.2457167), wk =   0.1481481
        k(    4) = (   0.0000000   0.3507982  -0.0003858), wk =   0.1481481
        k(    5) = (   0.0000000   0.3507982  -0.4910476), wk =   0.1481481
        k(    6) = (   0.3333333   0.0000000   0.0000000), wk =   0.1481481
        k(    7) = (   0.3333333   0.0000000   0.2453309), wk =   0.2962963
        k(    8) = (   0.3333333   0.3507982  -0.2457167), wk =   0.2962963
        k(    9) = (   0.3333333   0.3507982  -0.0003858), wk =   0.2962963
        k(   10) = (   0.3333333   0.3507982  -0.4910476), wk =   0.2962963

                       cryst. coord.
        k(    1) = (   0.0000000   0.0000000   0.0000000), wk =   0.0740741
        k(    2) = (   0.0000000   0.0000000   0.3333333), wk =   0.1481481
        k(    3) = (   0.0000000   0.3333333   0.0000000), wk =   0.1481481
        k(    4) = (   0.0000000   0.3333333   0.3333333), wk =   0.1481481
        k(    5) = (   0.0000000   0.3333333  -0.3333333), wk =   0.1481481
        k(    6) = (   0.3333333   0.0000000   0.0000000), wk =   0.1481481
        k(    7) = (   0.3333333   0.0000000   0.3333333), wk =   0.2962963
        k(    8) = (   0.3333333   0.3333333   0.0000000), wk =   0.2962963
        k(    9) = (   0.3333333   0.3333333   0.3333333), wk =   0.2962963
        k(   10) = (   0.3333333   0.3333333  -0.3333333), wk =   0.2962963

     Check: negative core charge=   -0.000012

     Initial potential from superposition of free atoms

     starting charge     186.9703, renormalised to     192.0000

     negative rho (up, down):  3.720E-01 0.000E+00
     Starting wfcs are  226 randomized atomic wfcs +   30 random wfcs
     Checking if some PAW data can be deallocated...

     Self-consistent Calculation

     iteration #  1     ecut=    30.00 Ry     beta= 0.70
     Davidson diagonalization with overlap

     ethr =  1.00E-02,  avg # of iterations =  6.1

     negative rho (up, down):  2.982E-01 0.000E+00

     total energy              =   -3606.65435048 Ry
     estimated scf accuracy    <      46.35056694 Ry

[...]

     total energy              =   -3641.21730531 Ry
     estimated scf accuracy    <       0.00000133 Ry

     iteration # 64     ecut=    30.00 Ry     beta= 0.70
     Davidson diagonalization with overlap

     ethr =  5.87E-10,  avg # of iterations =  1.0

     negative rho (up, down):  3.480E-01 0.000E+00

     End of self-consistent calculation

          k = 0.0000 0.0000 0.0000 (  4721 PWs)   bands (ev):

   -89.8236 -89.8231 -50.2782 -50.2780 -50.1250 -50.1248 -50.1070 -50.1046
   -40.7467 -40.7467 -40.6544 -40.6544 -40.6264 -40.6264 -22.4311 -22.4040
   -22.3695 -22.3492  -6.8773  -6.5473  -6.5365  -6.5306  -6.3328  -6.0806
    -5.6177  -5.5793  -5.5295  -5.5114  -5.2334  -5.1471  -4.3818  -4.3788
    -4.3424  -4.2162  -4.0494  -4.0372  -3.7565  -3.3653  -3.2523  -2.9856
    -2.9054  -2.7816   5.7119   5.7567   6.4661   6.5550   6.6055   6.6548
     6.8552   7.4314   7.4862   7.5695   7.6569   7.7001   7.7141   8.1148
     8.1541   8.3231   8.3575   8.8231   9.0019   9.0584   9.2483   9.2505
     9.4379   9.4920   9.7346   9.8297   9.8682   9.9116   9.9621  10.0345
    10.2075  10.3874  10.5409  10.6774  10.7180  10.8373  10.8493  10.9714
    11.1599  11.2194  11.5530  11.7685  12.2129  12.2647  12.3918  12.4641
    12.6352  12.6644  13.1180  13.1487  13.1944  13.3045  13.4527  13.4707
    13.4789  13.4846  13.5202  13.5578  13.5650  13.5688  13.5856  13.5862
    13.5972  13.6069  13.6326  13.6414  13.6447  13.6655  13.6775  13.7006
    13.7135  13.7225  13.7396  13.7538  13.7772  13.7869  13.8468  13.8558
    13.8910  13.9357  14.6003  15.8309  15.8542  15.8829  16.5052  16.8092
    16.9146  17.0718  17.2562  17.3431  17.4061  18.2785  18.5291  18.6166
    18.8348  18.9424  18.9867  19.0471  19.2772  19.2774  19.6057  19.7946
    19.8482  19.9409  20.0642  20.5959  21.3495  22.4280  22.4633  22.5215
    22.7929  23.6788  23.7351  24.3075  24.5748  24.8070  24.9107  25.2800
    25.4665  25.6135  25.6805  26.3009  26.3597  26.4140  26.7543  26.9954
    27.4530  27.6484  27.9378  28.1330  28.3941  28.6747  28.9860  29.6272
    29.7127  29.7802  30.0804  30.3033  30.3865  30.6445  30.8634  31.4604
    31.8995  32.2909  32.3502  32.3851  32.6645  33.0711  33.2059  33.3323
    33.5236  33.7193  33.8943  33.9882  34.2325  35.0386  35.2855  35.3737
    35.6827  35.7454  35.7874  35.9927  36.2056  36.5131  36.8061  36.9124
    36.9489  37.1485  37.1559  37.4366  37.7194  37.7841  38.2024  38.5051
    38.9247  38.9344  39.3893  39.5268  39.5849  39.7814  40.0102  40.0499
    40.2892  40.3612  40.4141  40.4270  40.4423  40.6664  40.7560  40.8385
    41.1815  41.5062  41.7293  41.8811  42.1186  42.5338  42.6544  42.7825
    42.8519  42.8650  42.9451  43.0415  43.2356  43.4042  43.5009  43.7885
    44.1153  44.1309  44.1526  44.3945  44.4317  44.6410  44.7613  45.0102

     occupation numbers
     1.0000   1.0000   1.0000   1.0000   1.0000   1.0000   1.0000   1.0000
     1.0000   1.0000   1.0000   1.0000   1.0000   1.0000   1.0000   1.0000
     1.0000   1.0000   1.0000   1.0000   1.0000   1.0000   1.0000   1.0000
     1.0000   1.0000   1.0000   1.0000   1.0000   1.0000   1.0000   1.0000
     1.0000   1.0000   1.0000   1.0000   1.0000   1.0000   1.0000   1.0000
     1.0000   1.0000   1.0000   1.0000   1.0000   1.0000   1.0000   1.0000
     1.0000   1.0000   1.0000   1.0000   1.0000   1.0000   1.0000   1.0000
     1.0000   1.0000   1.0000   1.0000   1.0000   1.0000   1.0000   1.0000
     1.0000   1.0000   1.0000   1.0000   1.0000   1.0000   1.0000   1.0000
     1.0000   1.0000   1.0000   1.0000   1.0000   1.0000   1.0000   1.0000
     1.0000   1.0000   1.0000   1.0000   1.0000   1.0000   1.0000   1.0000
     1.0000   1.0000   1.0000   1.0000   1.0000   1.0000   1.0000   1.0000
     0.0000   0.0000   0.0000   0.0000   0.0000   0.0000   0.0000   0.0000
     0.0000   0.0000   0.0000   0.0000   0.0000   0.0000   0.0000   0.0000
     0.0000   0.0000   0.0000   0.0000   0.0000   0.0000   0.0000   0.0000
     0.0000   0.0000   0.0000   0.0000   0.0000   0.0000   0.0000   0.0000
     0.0000   0.0000   0.0000   0.0000   0.0000   0.0000   0.0000   0.0000
     0.0000   0.0000   0.0000   0.0000   0.0000   0.0000   0.0000   0.0000
     0.0000   0.0000   0.0000   0.0000   0.0000   0.0000   0.0000   0.0000
     0.0000   0.0000   0.0000   0.0000   0.0000   0.0000   0.0000   0.0000
     0.0000   0.0000   0.0000   0.0000   0.0000   0.0000   0.0000   0.0000
     0.0000   0.0000   0.0000   0.0000   0.0000   0.0000   0.0000   0.0000
     0.0000   0.0000   0.0000   0.0000   0.0000   0.0000   0.0000   0.0000
     0.0000   0.0000   0.0000   0.0000   0.0000   0.0000   0.0000   0.0000
     0.0000   0.0000   0.0000   0.0000   0.0000   0.0000   0.0000   0.0000
     0.0000   0.0000   0.0000   0.0000   0.0000   0.0000   0.0000   0.0000
     0.0000   0.0000   0.0000   0.0000   0.0000   0.0000   0.0000   0.0000
     0.0000   0.0000   0.0000   0.0000   0.0000   0.0000   0.0000   0.0000
     0.0000   0.0000   0.0000   0.0000   0.0000   0.0000   0.0000   0.0000
     0.0000   0.0000   0.0000   0.0000   0.0000   0.0000   0.0000   0.0000
     0.0000   0.0000   0.0000   0.0000   0.0000   0.0000   0.0000   0.0000
     0.0000   0.0000   0.0000   0.0000   0.0000   0.0000   0.0000   0.0000

[...]

          k = 0.3333 0.3508-0.4910 (  4731 PWs)   bands (ev):

   -89.8241 -89.8236 -50.2811 -50.2788 -50.1282 -50.1262 -50.1064 -50.1044
   -40.7467 -40.7467 -40.6545 -40.6544 -40.6264 -40.6264 -22.4015 -22.3915
   -22.3837 -22.3745  -6.9059  -6.8368  -6.6303  -6.5410  -6.1906  -6.0028
    -5.8247  -5.7375  -5.6158  -5.4805  -5.3188  -5.2784  -4.2982  -4.2609
    -4.0987  -4.0141  -3.8553  -3.6865  -3.4484  -3.3353  -3.2248  -3.1420
    -2.9779  -2.9074   6.0273   6.0498   6.4711   6.5269   6.5546   6.6273
     6.9835   7.1073   7.2595   7.4550   7.5549   7.6490   7.7903   7.9321
     8.1331   8.2236   8.4882   8.5829   8.6952   8.9228   9.0583   9.1925
     9.2516   9.3084   9.4212   9.5743   9.5924   9.8046   9.9329   9.9614
    10.0270  10.1744  10.1910  10.3814  10.4385  10.5098  11.3776  11.4641
    11.6621  11.7662  11.8466  11.9080  12.3413  12.4551  12.5033  12.5363
    12.5581  12.5857  13.1753  13.2473  13.3396  13.4278  13.4897  13.5012
    13.5054  13.5163  13.5335  13.5487  13.5583  13.5651  13.5751  13.5913
    13.6019  13.6203  13.6296  13.6382  13.6419  13.6592  13.6711  13.6798
    13.7057  13.7194  13.7416  13.7469  13.7575  13.7991  13.8219  13.8399
    13.8553  13.8964  14.6608  14.8804  15.2241  15.5163  17.2482  17.3748
    17.6015  17.7087  17.7338  17.9555  18.0290  18.1021  18.4951  18.6302
    18.6801  18.7706  19.0520  19.1561  19.2746  19.3918  19.5580  19.7627
    19.9783  20.0308  20.3159  20.6540  21.3051  22.0023  22.2136  22.5230
    22.7561  23.0443  23.5916  24.0783  24.6346  24.8881  25.1807  25.7209
    25.7982  25.9911  26.3500  26.4270  26.4914  26.7190  26.8702  27.3058
    27.4241  27.7524  27.7913  27.9739  28.2284  28.5483  28.7971  28.9448
    29.2446  29.3630  29.5564  29.7071  30.0027  30.4550  30.6675  30.9770
    31.1534  31.4502  31.5375  32.1577  32.5261  32.7086  33.1936  33.6232
    34.0690  34.1402  34.4924  34.7045  34.7846  35.0154  35.3198  35.4902
    35.6811  35.9372  36.1301  36.2875  36.5046  36.7130  36.8324  36.9724
    37.0272  37.3550  37.4490  37.5926  37.6403  37.9962  38.1994  38.3208
    38.4867  38.6255  38.6884  38.8995  39.2081  39.2702  39.7255  39.7431
    39.9488  40.2068  40.4178  40.5218  40.6013  40.6585  40.8279  41.0034
    41.1211  41.3415  41.6537  41.7135  41.9005  42.1020  42.4025  42.6568
    42.8692  42.9867  43.0796  43.1630  43.2368  43.3233  43.5577  43.6615
    44.2505  44.4645  44.5831  44.7770  44.9444  45.0801  45.1261  45.2582

     occupation numbers
     1.0000   1.0000   1.0000   1.0000   1.0000   1.0000   1.0000   1.0000
     1.0000   1.0000   1.0000   1.0000   1.0000   1.0000   1.0000   1.0000
     1.0000   1.0000   1.0000   1.0000   1.0000   1.0000   1.0000   1.0000
     1.0000   1.0000   1.0000   1.0000   1.0000   1.0000   1.0000   1.0000
     1.0000   1.0000   1.0000   1.0000   1.0000   1.0000   1.0000   1.0000
     1.0000   1.0000   1.0000   1.0000   1.0000   1.0000   1.0000   1.0000
     1.0000   1.0000   1.0000   1.0000   1.0000   1.0000   1.0000   1.0000
     1.0000   1.0000   1.0000   1.0000   1.0000   1.0000   1.0000   1.0000
     1.0000   1.0000   1.0000   1.0000   1.0000   1.0000   1.0000   1.0000
     1.0000   1.0000   1.0000   1.0000   1.0000   1.0000   1.0000   1.0000
     1.0000   1.0000   1.0000   1.0000   1.0000   1.0000   1.0000   1.0000
     1.0000   1.0000   1.0000   1.0000   1.0000   1.0000   1.0000   1.0000
     0.0000   0.0000   0.0000   0.0000   0.0000   0.0000   0.0000   0.0000
     0.0000   0.0000   0.0000   0.0000   0.0000   0.0000   0.0000   0.0000
     0.0000   0.0000   0.0000   0.0000   0.0000   0.0000   0.0000   0.0000
     0.0000   0.0000   0.0000   0.0000   0.0000   0.0000   0.0000   0.0000
     0.0000   0.0000   0.0000   0.0000   0.0000   0.0000   0.0000   0.0000
     0.0000   0.0000   0.0000   0.0000   0.0000   0.0000   0.0000   0.0000
     0.0000   0.0000   0.0000   0.0000   0.0000   0.0000   0.0000   0.0000
     0.0000   0.0000   0.0000   0.0000   0.0000   0.0000   0.0000   0.0000
     0.0000   0.0000   0.0000   0.0000   0.0000   0.0000   0.0000   0.0000
     0.0000   0.0000   0.0000   0.0000   0.0000   0.0000   0.0000   0.0000
     0.0000   0.0000   0.0000   0.0000   0.0000   0.0000   0.0000   0.0000
     0.0000   0.0000   0.0000   0.0000   0.0000   0.0000   0.0000   0.0000
     0.0000   0.0000   0.0000   0.0000   0.0000   0.0000   0.0000   0.0000
     0.0000   0.0000   0.0000   0.0000   0.0000   0.0000   0.0000   0.0000
     0.0000   0.0000   0.0000   0.0000   0.0000   0.0000   0.0000   0.0000
     0.0000   0.0000   0.0000   0.0000   0.0000   0.0000   0.0000   0.0000
     0.0000   0.0000   0.0000   0.0000   0.0000   0.0000   0.0000   0.0000
     0.0000   0.0000   0.0000   0.0000   0.0000   0.0000   0.0000   0.0000
     0.0000   0.0000   0.0000   0.0000   0.0000   0.0000   0.0000   0.0000
     0.0000   0.0000   0.0000   0.0000   0.0000   0.0000   0.0000   0.0000

     highest occupied, lowest unoccupied level (ev):    13.5049   13.4789

!    total energy              =   -3641.21730499 Ry
     estimated scf accuracy    <       0.00000079 Ry

     The total energy is the sum of the following terms:
     one-electron contribution =    -742.75074022 Ry
     hartree contribution      =     514.70565229 Ry
     xc contribution           =    -321.60845628 Ry
     ewald contribution        =   -1298.97427100 Ry
     one-center paw contrib.   =   -1792.58948977 Ry
      -> PAW hartree energy AE =     185.14373726 Ry
      -> PAW hartree energy PS =    -185.54045465 Ry
      -> PAW xc energy AE      =   -1289.79836022 Ry
      -> PAW xc energy PS      =      31.50825682 Ry
      -> total E_H with PAW    =     514.30893490 Ry
      -> total E_XC with PAW   =   -1579.89855969 Ry

     convergence has been achieved in  64 iterations

     Writing all to output data dir bands_nm/myprefix.save/

     General routines

     Parallel routines

     PAW routines

   This run was terminated on:  21: 2:47  15Jul2023

   JOB DONE.