     Program PWSCF v.7.1 starts on 16Jul2023 at 15:17:41

     Reading input from espresso_26590.pwi
Warning: card &CELL ignored
Warning: card / ignored

     Current dimensions of program PWSCF are:
     Max number of different atomic species (ntypx) = 10
     Max number of k-points (npk) =  40000
     Max angular momentum in pseudopotentials (lmaxx) =  4
     file Al.pbe-n-kjpaw_psl.1.0.0.UPF: wavefunction(s)  3S 3P renormalized

     K-points division:     npool     =       2
     R & G space division:  proc/nbgrp/npool/nimage =       4
     Subspace diagonalization in iterative solution of the eigenvalue problem:
     a serial algorithm will be used

     Using Slab Decomposition

     bravais-lattice index     =            0
     lattice parameter (alat)  =      14.0888  a.u.
     unit-cell volume          =    1595.8343 (a.u.)^3
     number of atoms/cell      =            7
     number of atomic types    =            3
     number of electrons       =        50.00
     number of Kohn-Sham states=           64
     kinetic-energy cutoff     =      30.0000  Ry
     charge density cutoff     =     240.0000  Ry
     scf convergence threshold =      1.0E-06
     mixing beta               =       0.7000
     number of iterations used =            8  plain     mixing
     Exchange-correlation= SLA  PW   PBE  PBE
                           (   1   4   3   4   0   0   0)

     celldm(1)=  14.088798  celldm(2)=   0.000000  celldm(3)=   0.000000
     celldm(4)=   0.000000  celldm(5)=   0.000000  celldm(6)=   0.000000

     crystal axes: (cart. coord. in units of alat)
               a(1) = (   1.000000   0.000000   0.000000 )
               a(2) = (   0.289260   0.957251   0.000000 )
               a(3) = (  -0.644630  -0.478625   0.596129 )

     reciprocal axes: (cart. coord. in units 2 pi/alat)
               b(1) = (  1.000000 -0.302178  0.838744 )
               b(2) = (  0.000000  1.044659  0.838744 )
               b(3) = (  0.000000  0.000000  1.677489 )

     PseudoPot. # 1 for Al read from file:
     /lustre07/scratch/pragov/crystal_structure_design/utils/SSSP/Al.pbe-n-kjpaw_psl.1.0.0.UPF
     MD5 check sum: cfc449ca30b5f3223ec38ddd88ac046d
     Pseudo is Projector augmented-wave + core cor, Zval =  3.0
     Generated using "atomic" code by A. Dal Corso  v.5.1
     Shape of augmentation charge: PSQ
     Using radial grid of 1135 points,  6 beta functions with:
                l(1) =   0
                l(2) =   0
                l(3) =   1
                l(4) =   1
                l(5) =   2
                l(6) =   2
     Q(r) pseudized with 0 coefficients

     PseudoPot. # 2 for Hg read from file:
     /lustre07/scratch/pragov/crystal_structure_design/utils/SSSP/Hg_ONCV_PBE-1.0.oncvpsp.upf
     MD5 check sum: dd5a8773074bfcf4280086d4d95875c4
     Pseudo is Norm-conserving, Zval = 20.0
     Generated using ONCVPSP code by D. R. Hamann
     Using radial grid of 1262 points,  8 beta functions with:
                l(1) =   0
                l(2) =   0
                l(3) =   1
                l(4) =   1
                l(5) =   2
                l(6) =   2
                l(7) =   3
                l(8) =   3

     PseudoPot. # 3 for Te read from file:
     /lustre07/scratch/pragov/crystal_structure_design/utils/SSSP/Te_pbe_v1.uspp.F.UPF
     MD5 check sum: c319670d6894cc26e93307826a071b75
     Pseudo is Ultrasoft + core correction, Zval =  6.0
     Generated by new atomic code, or converted to UPF format
     Using radial grid of  891 points,  5 beta functions with:
                l(1) =   0
                l(2) =   0
                l(3) =   1
                l(4) =   1
                l(5) =   2
     Q(r) pseudized with  6 coefficients,  rinner =    1.800   1.800   1.800
                                                       1.800   1.800

     atomic species   valence    mass     pseudopotential
        Al             3.00    26.98154     Al( 1.00)
        Hg            20.00   200.59200     Hg( 1.00)
        Te             6.00   127.60000     Te( 1.00)

     No symmetry found

                                    s                        frac. trans.

      isym =  1     identity

 cryst.   s( 1) = (     1          0          0      )
                  (     0          1          0      )
                  (     0          0          1      )

 cart.    s( 1) = (  1.0000000  0.0000000  0.0000000 )
                  (  0.0000000  1.0000000  0.0000000 )
                  (  0.0000000  0.0000000  1.0000000 )

   Cartesian axes

     site n.     atom                  positions (alat units)
         1           Al  tau(   1) = (   0.1446300   0.4786253   0.2980646  )
         2           Al  tau(   2) = (   0.6446300   0.4786253   0.0000000  )
         3           Hg  tau(   3) = (   0.0000000   0.0000000   0.0000000  )
         4           Te  tau(   4) = (   0.3446749  -0.0918271   0.5858185  )
         5           Te  tau(   5) = (   0.6564291   0.8351274   0.0103107  )
         6           Te  tau(   6) = (  -0.1843835  -0.1240592   0.3169315  )
         7           Te  tau(   7) = (   0.4725395   0.3380095   0.2791977  )

   Crystallographic axes

     site n.     atom                  positions (cryst. coord.)
         1           Al  tau(   1) = (  0.2500000  0.7500000  0.5000000  )
         2           Al  tau(   2) = (  0.5000000  0.5000000  0.0000000  )
         3           Hg  tau(   3) = (  0.0000000  0.0000000  0.0000000  )
         4           Te  tau(   4) = (  0.8637750  0.3954240  0.9827040  )
         5           Te  tau(   5) = (  0.4127200  0.8810710  0.0172960  )
         6           Te  tau(   6) = (  0.1189290  0.1362250  0.5316490  )
         7           Te  tau(   7) = (  0.6045760  0.5872800  0.4683510  )

     number of k points=    14
                       cart. coord. in units 2pi/alat
        k(    1) = (   0.0000000   0.0000000   0.0000000), wk =   0.0740741
        k(    2) = (   0.0000000   0.0000000   0.5591629), wk =   0.1481481
        k(    3) = (   0.0000000   0.3482195   0.2795815), wk =   0.1481481
        k(    4) = (   0.0000000   0.3482195   0.8387444), wk =   0.1481481
        k(    5) = (   0.3333333  -0.1007260   0.2795815), wk =   0.1481481
        k(    6) = (   0.3333333  -0.1007260   0.8387444), wk =   0.1481481
        k(    7) = (   0.3333333   0.2474935   0.5591629), wk =   0.1481481
        k(    8) = (   0.3333333   0.2474935  -0.0000000), wk =   0.1481481
        k(    9) = (   0.3333333  -0.4489455  -0.0000000), wk =   0.1481481
        k(   10) = (   0.3333333  -0.4489455   0.5591629), wk =   0.1481481
        k(   11) = (   0.0000000  -0.3482195   0.2795815), wk =   0.1481481
        k(   12) = (  -0.3333333   0.1007260   0.2795815), wk =   0.1481481
        k(   13) = (  -0.3333333  -0.2474935   0.5591629), wk =   0.1481481
        k(   14) = (  -0.3333333   0.4489455   0.5591629), wk =   0.1481481

                       cryst. coord.
        k(    1) = (   0.0000000   0.0000000   0.0000000), wk =   0.0740741
        k(    2) = (   0.0000000   0.0000000   0.3333333), wk =   0.1481481
        k(    3) = (   0.0000000   0.3333333   0.0000000), wk =   0.1481481
        k(    4) = (   0.0000000   0.3333333   0.3333333), wk =   0.1481481
        k(    5) = (   0.3333333   0.0000000  -0.0000000), wk =   0.1481481
        k(    6) = (   0.3333333   0.0000000   0.3333333), wk =   0.1481481
        k(    7) = (   0.3333333   0.3333333   0.0000000), wk =   0.1481481
        k(    8) = (   0.3333333   0.3333333  -0.3333333), wk =   0.1481481
        k(    9) = (   0.3333333  -0.3333333  -0.0000000), wk =   0.1481481
        k(   10) = (   0.3333333  -0.3333333   0.3333333), wk =   0.1481481
        k(   11) = (   0.0000000  -0.3333333   0.3333333), wk =   0.1481481
        k(   12) = (  -0.3333333  -0.0000000   0.3333333), wk =   0.1481481
        k(   13) = (  -0.3333333  -0.3333333   0.6666667), wk =   0.1481481
        k(   14) = (  -0.3333333   0.3333333   0.3333333), wk =   0.1481481

     Initial potential from superposition of free atoms

     starting charge      49.9945, renormalised to      50.0000
     Starting wfcs are   34 randomized atomic wfcs +   30 random wfcs
     Checking if some PAW data can be deallocated...

     Self-consistent Calculation

     iteration #  1     ecut=    30.00 Ry     beta= 0.70
     Davidson diagonalization with overlap

     ethr =  1.00E-02,  avg # of iterations =  7.6

     Threshold (ethr) on eigenvalues was too large:
     Diagonalizing with lowered threshold

     Davidson diagonalization with overlap

[...]

     total energy              =    -495.03192115 Ry
     estimated scf accuracy    <       0.21514449 Ry

[...]

     total energy              =    -495.11927996 Ry
     estimated scf accuracy    <       0.00000127 Ry

     iteration #  8     ecut=    30.00 Ry     beta= 0.70
     Davidson diagonalization with overlap

     ethr =  2.54E-09,  avg # of iterations =  2.0

     End of self-consistent calculation

          k = 0.0000 0.0000 0.0000 (  4403 PWs)   bands (ev):

  -111.0543 -58.9059 -58.8955 -58.8955  -6.9273  -5.7413  -5.7412  -5.6755
    -1.7892  -1.7440  -1.7036  -1.7036  -1.6759  -0.9118  -0.3344   1.2908
     1.3978   1.6480   1.6480   2.3746   2.9571   2.9571   4.2795   4.4306
     4.4306   5.5085   6.8397   6.9667   8.4907   8.4907   8.5588   8.7560
     9.4131   9.4131  10.4984  10.8423  10.9732  10.9732  11.3775  12.7834
    13.1103  13.1411  14.0511  14.0511  14.2452  14.9606  14.9857  14.9857
    15.4961  15.4961  15.6829  16.0297  16.1818  16.8959  17.0694  17.0804
    17.0804  17.1008  17.4452  17.4452  18.0082  18.0902  19.2841  19.2841

     occupation numbers
     1.0000   1.0000   1.0000   1.0000   1.0000   1.0000   1.0000   1.0000
     1.0000   1.0000   1.0000   1.0000   1.0000   1.0000   1.0000   1.0000
     1.0000   1.0000   1.0000   1.0000   1.0000   1.0000   1.0000   1.0000
     1.0000   0.0000   0.0000   0.0000   0.0000   0.0000   0.0000   0.0000
     0.0000   0.0000   0.0000   0.0000   0.0000   0.0000   0.0000   0.0000
     0.0000   0.0000   0.0000   0.0000   0.0000   0.0000   0.0000   0.0000
     0.0000   0.0000   0.0000   0.0000   0.0000   0.0000   0.0000   0.0000
     0.0000   0.0000   0.0000   0.0000   0.0000   0.0000   0.0000   0.0000

[...]

          k = 0.0000-0.3482 0.2796 (  4435 PWs)   bands (ev):

[...]

          k =-0.3333 0.1007 0.2796 (  4435 PWs)   bands (ev):

[...]

          k =-0.3333 0.4489 0.5592 (  4422 PWs)   bands (ev):

  -111.0543 -58.9080 -58.9016 -58.8975  -6.3493  -6.2294  -5.9839  -5.7251
    -1.9132  -1.8462  -1.7457  -1.7021  -1.6780  -0.4644   0.2257   0.3986
     1.7450   2.0451   2.1848   2.5077   2.8948   3.0884   3.2163   3.8925
     4.1010   6.5127   7.0098   7.4273   7.5143   8.1766   8.7887   8.9175
     9.4389   9.9865  10.1978  10.4380  10.8290  11.3166  11.7500  12.2161
    12.2799  12.7880  12.9320  13.5424  14.5728  14.7912  14.9043  15.1540
    15.5510  15.8282  16.1242  16.4627  16.8857  16.9176  17.0713  17.3470
    17.5399  17.7821  18.3226  18.5334  18.6845  18.8886  19.0253  19.2079

     occupation numbers
     1.0000   1.0000   1.0000   1.0000   1.0000   1.0000   1.0000   1.0000
     1.0000   1.0000   1.0000   1.0000   1.0000   1.0000   1.0000   1.0000
     1.0000   1.0000   1.0000   1.0000   1.0000   1.0000   1.0000   1.0000
     1.0000   0.0000   0.0000   0.0000   0.0000   0.0000   0.0000   0.0000
     0.0000   0.0000   0.0000   0.0000   0.0000   0.0000   0.0000   0.0000
     0.0000   0.0000   0.0000   0.0000   0.0000   0.0000   0.0000   0.0000
     0.0000   0.0000   0.0000   0.0000   0.0000   0.0000   0.0000   0.0000
     0.0000   0.0000   0.0000   0.0000   0.0000   0.0000   0.0000   0.0000

     highest occupied, lowest unoccupied level (ev):     4.4306    5.5085

!    total energy              =    -495.11928033 Ry
     estimated scf accuracy    <       0.00000005 Ry

     The total energy is the sum of the following terms:
     one-electron contribution =    -285.77133109 Ry
     hartree contribution      =     152.14712770 Ry
     xc contribution           =     -90.20884743 Ry
     ewald contribution        =    -201.94649903 Ry
     one-center paw contrib.   =     -69.33973049 Ry
      -> PAW hartree energy AE =       1.20767653 Ry
      -> PAW hartree energy PS =      -1.20339390 Ry
      -> PAW xc energy AE      =     -36.48790678 Ry
      -> PAW xc energy PS      =       1.81423393 Ry
      -> total E_H with PAW    =     152.15141034 Ry
      -> total E_XC with PAW   =    -124.88252027 Ry

     convergence has been achieved in   8 iterations

     Writing all to output data dir bands_nm/myprefix.save/

     General routines

     Parallel routines

     PAW routines

   This run was terminated on:  15:17:52  16Jul2023

   JOB DONE.