     Program PWSCF v.7.0 starts on 23Jun2023 at  8:20:46

     K-points division:     npool     =       2
     R & G space division:  proc/nbgrp/npool/nimage =       4

     Reading input from espresso_2622.pwi
Warning: card &CELL ignored
Warning: card / ignored

     Current dimensions of program PWSCF are:
     Max number of different atomic species (ntypx) = 10
     Max number of k-points (npk) =  40000
     Max angular momentum in pseudopotentials (lmaxx) =  4
     Message from routine setup:
     using ibrav=0 with symmetry is DISCOURAGED, use correct ibrav instead

     Using Slab Decomposition

     bravais-lattice index     =            0
     lattice parameter (alat)  =      18.2655  a.u.
     unit-cell volume          =    2544.1608 (a.u.)^3
     number of atoms/cell      =           16
     number of atomic types    =            4
     number of electrons       =       168.00
     number of Kohn-Sham states=           90
     kinetic-energy cutoff     =      30.0000  Ry
     charge density cutoff     =     240.0000  Ry
     scf convergence threshold =      1.0E-06
     mixing beta               =       0.7000
     number of iterations used =            8  plain     mixing
     Exchange-correlation=  SLA  PW   PBX  PBC
                           (   1   4   3   4   0   0   0)

     celldm(1)=  18.265544  celldm(2)=   0.000000  celldm(3)=   0.000000
     celldm(4)=   0.000000  celldm(5)=   0.000000  celldm(6)=   0.000000

     crystal axes: (cart. coord. in units of alat)
               a(1) = (   1.000000   0.000000   0.000000 )
               a(2) = (  -0.842446   0.538782   0.000000 )
               a(3) = (   0.000000   0.000000   0.774879 )

     reciprocal axes: (cart. coord. in units 2 pi/alat)
               b(1) = (  1.000000  1.563613  0.000000 )
               b(2) = (  0.000000  1.856040  0.000000 )
               b(3) = (  0.000000  0.000000  1.290524 )

     PseudoPot. # 1 for Rb read from file:
     /home/pragov/projects/rrg-bengioy-ad/pragov/crystal_structure_design/SSSP/Rb_ONCV_PBE-1.0.oncvpsp.upf
     MD5 check sum: 55a5172d6bfbce6759a58e35d43f6aa9
     Pseudo is Norm-conserving, Zval =  9.0
     Generated using ONCVPSP code by D. R. Hamann
     Using radial grid of 2308 points,  6 beta functions with:
                l(1) =   0
                l(2) =   0
                l(3) =   1
                l(4) =   1
                l(5) =   2
                l(6) =   2

     PseudoPot. # 2 for V  read from file:
     /home/pragov/projects/rrg-bengioy-ad/pragov/crystal_structure_design/SSSP/v_pbe_v1.4.uspp.F.UPF
     MD5 check sum: 22b79981416ebb76fdaf5b1b8640f6fb
     Pseudo is Ultrasoft + core correction, Zval = 13.0
     Generated by new atomic code, or converted to UPF format
     Using radial grid of  853 points,  6 beta functions with:
                l(1) =   0
                l(2) =   0
                l(3) =   1
                l(4) =   1
                l(5) =   2
                l(6) =   2
     Q(r) pseudized with  8 coefficients,  rinner =    1.100   1.100   1.100
                                                       1.100   1.100

     PseudoPot. # 3 for Cu read from file:
     /home/pragov/projects/rrg-bengioy-ad/pragov/crystal_structure_design/SSSP/Cu_pbe_v1.2.uspp.F.UPF
     MD5 check sum: 6e991ff952a84172a2a52a1c1e996048
     Pseudo is Ultrasoft + core correction, Zval = 19.0
     Generated by new atomic code, or converted to UPF format
     Using radial grid of  867 points,  6 beta functions with:
                l(1) =   0
                l(2) =   0
                l(3) =   1
                l(4) =   1
                l(5) =   2
                l(6) =   2
     Q(r) pseudized with  8 coefficients,  rinner =    1.150   1.150   1.150
                                                       1.150   1.150

     PseudoPot. # 4 for S  read from file:
     /home/pragov/projects/rrg-bengioy-ad/pragov/crystal_structure_design/SSSP/s_pbe_v1.4.uspp.F.UPF
     MD5 check sum: 88d86576ff6df21479756cfb9bdac1df
     Pseudo is Ultrasoft + core correction, Zval =  6.0
     Generated by new atomic code, or converted to UPF format
     Using radial grid of  907 points,  6 beta functions with:
                l(1) =   0
                l(2) =   0
                l(3) =   1
                l(4) =   1
                l(5) =   2
                l(6) =   2
     Q(r) pseudized with  8 coefficients,  rinner =    1.300   1.300   1.300
                                                       1.300   1.300

     atomic species   valence    mass     pseudopotential
        Rb             9.00    85.46780     Rb( 1.00)
        V             13.00    50.94150     V ( 1.00)
        Cu            19.00    63.54600     Cu( 1.00)
        S              6.00    32.06000     S ( 1.00)

      2 Sym. Ops. (no inversion) found ( 1 have fractional translation)

                                    s                        frac. trans.

      isym =  1     identity

 cryst.   s( 1) = (     1          0          0      )
                  (     0          1          0      )
                  (     0          0          1      )

 cart.    s( 1) = (  1.0000000  0.0000000  0.0000000 )
                  (  0.0000000  1.0000000  0.0000000 )
                  (  0.0000000  0.0000000  1.0000000 )

      isym =  2     inv. 180 deg rotation - cart. axis [0,0,1]

 cryst.   s( 2) = (     1          0          0      )    f =(  0.0000000 )
                  (     0          1          0      )       (  0.0000000 )
                  (     0          0         -1      )       ( -0.5000000 )

 cart.    s( 2) = (  1.0000000  0.0000000  0.0000000 )    f =(  0.0000000 )
                  (  0.0000000  1.0000000  0.0000000 )       (  0.0000000 )
                  (  0.0000000  0.0000000 -1.0000000 )       ( -0.3874396 )

   Cartesian axes

     site n.     atom                  positions (alat units)
         1           Rb  tau(   1) = (  -0.2803468   0.2916322   0.5811594  )
         2           Rb  tau(   2) = (   0.3933029   0.0946386   0.1937198  )
         3           V   tau(   3) = (   0.2904719   0.2679328   0.5811594  )
         4           V   tau(   4) = (  -0.1003495   0.3822197   0.1937198  )
         5           Cu  tau(   5) = (   0.0974975   0.3334077   0.3874396  )
         6           Cu  tau(   6) = (   0.8244840   0.1114464   0.1937198  )
         7           Cu  tau(   7) = (  -0.6345376   0.5381043   0.5811594  )
         8           Cu  tau(   8) = (   0.0974975   0.3334077   0.0000000  )
         9           S   tau(   9) = (  -0.0629811   0.5081841   0.0080913  )
        10           S   tau(  10) = (   0.0711689   0.1957065   0.5811594  )
        11           S   tau(  11) = (   0.0454871   0.2032165   0.1937198  )
        12           S   tau(  12) = (   0.3268583   0.3941844   0.3955309  )
        13           S   tau(  13) = (   0.4271072   0.0899921   0.5811594  )
        14           S   tau(  14) = (   0.3268583   0.3941844   0.7667880  )
        15           S   tau(  15) = (  -0.3113284   0.3059309   0.1937198  )
        16           S   tau(  16) = (  -0.0629811   0.5081841   0.3793483  )

   Crystallographic axes

     site n.     atom                  positions (cryst. coord.)
         1           Rb  tau(   1) = (  0.1756530  0.5412810  0.7500000  )
         2           Rb  tau(   2) = (  0.5412810  0.1756530  0.2500000  )
         3           V   tau(   3) = (  0.7094150  0.4972940  0.7500000  )
         4           V   tau(   4) = (  0.4972940  0.7094150  0.2500000  )
         5           Cu  tau(   5) = (  0.6188180  0.6188180  0.5000000  )
         6           Cu  tau(   6) = (  0.9987430  0.2068490  0.2500000  )
         7           Cu  tau(   7) = (  0.2068490  0.9987430  0.7500000  )
         8           Cu  tau(   8) = (  0.6188180  0.6188180  0.0000000  )
         9           S   tau(   9) = (  0.7316220  0.9432100  0.0104420  )
        10           S   tau(  10) = (  0.3771780  0.3632390  0.7500000  )
        11           S   tau(  11) = (  0.3632390  0.3771780  0.2500000  )
        12           S   tau(  12) = (  0.9432100  0.7316220  0.5104420  )
        13           S   tau(  13) = (  0.5678200  0.1670290  0.7500000  )
        14           S   tau(  14) = (  0.9432100  0.7316220  0.9895580  )
        15           S   tau(  15) = (  0.1670290  0.5678200  0.2500000  )
        16           S   tau(  16) = (  0.7316220  0.9432100  0.4895580  )

     number of k points=    10
                       cart. coord. in units 2pi/alat
        k(    1) = (   0.0000000   0.0000000   0.0000000), wk =   0.0740741
        k(    2) = (   0.0000000   0.0000000   0.4301745), wk =   0.1481481
        k(    3) = (   0.0000000   0.6186800   0.0000000), wk =   0.1481481
        k(    4) = (   0.0000000   0.6186800   0.4301745), wk =   0.2962963
        k(    5) = (   0.3333333   0.5212042   0.0000000), wk =   0.1481481
        k(    6) = (   0.3333333   0.5212042   0.4301745), wk =   0.2962963
        k(    7) = (   0.3333333   1.1398842   0.0000000), wk =   0.1481481
        k(    8) = (   0.3333333   1.1398842   0.4301745), wk =   0.2962963
        k(    9) = (   0.3333333  -0.0974758   0.0000000), wk =   0.1481481
        k(   10) = (   0.3333333  -0.0974758   0.4301745), wk =   0.2962963

                       cryst. coord.
        k(    1) = (   0.0000000   0.0000000   0.0000000), wk =   0.0740741
        k(    2) = (   0.0000000   0.0000000   0.3333333), wk =   0.1481481
        k(    3) = (   0.0000000   0.3333333   0.0000000), wk =   0.1481481
        k(    4) = (   0.0000000   0.3333333   0.3333333), wk =   0.2962963
        k(    5) = (   0.3333333  -0.0000000   0.0000000), wk =   0.1481481
        k(    6) = (   0.3333333  -0.0000000   0.3333333), wk =   0.2962963
        k(    7) = (   0.3333333   0.3333333   0.0000000), wk =   0.1481481
        k(    8) = (   0.3333333   0.3333333   0.3333333), wk =   0.2962963
        k(    9) = (   0.3333333  -0.3333333   0.0000000), wk =   0.1481481
        k(   10) = (   0.3333333  -0.3333333   0.3333333), wk =   0.2962963

     Check: negative core charge=   -0.000002

     Initial potential from superposition of free atoms

     starting charge     163.9477, renormalised to     168.0000

     negative rho (up, down):  1.190E-03 0.000E+00
     Starting wfcs are  114 randomized atomic wfcs

     Self-consistent Calculation

     iteration #  1     ecut=    30.00 Ry     beta= 0.70
     Davidson diagonalization with overlap

     ethr =  1.00E-02,  avg # of iterations =  2.3

     negative rho (up, down):  6.706E-03 0.000E+00

     total energy              =   -2192.83001836 Ry
     estimated scf accuracy    <       5.84576850 Ry

[...]

     total energy              =   -2196.61014856 Ry
     estimated scf accuracy    <       0.00000316 Ry

     iteration # 19     ecut=    30.00 Ry     beta= 0.70
     Davidson diagonalization with overlap

     ethr =  1.88E-09,  avg # of iterations =  2.0

     negative rho (up, down):  2.667E-03 0.000E+00

     End of self-consistent calculation

          k = 0.0000 0.0000 0.0000 (  7043 PWs)   bands (ev):

  -106.4540-106.4531-106.4306-106.4301 -63.8869 -63.8860 -63.8613 -63.8596
   -63.8025 -63.7995 -63.7977 -63.7964 -63.7922 -63.7898 -63.7653 -63.7653
   -58.8520 -58.8518 -32.7754 -32.7752 -32.7137 -32.7127 -32.6789 -32.6787
   -20.7071 -20.7053  -7.6367  -7.1499  -6.7500  -6.6932  -6.6028  -6.4416
    -6.2027  -6.1665  -4.8064  -4.7988  -4.7883  -4.7709  -4.7674  -4.7628
     0.2826   0.4490   0.8639   1.0145   1.6326   1.6368   1.7381   1.7638
     1.7697   1.9563   2.0062   2.0774   2.1628   2.2830   2.3298   2.6917
     2.7562   2.7692   2.7730   2.9056   2.9172   3.1596   3.3945   3.4563
     3.4609   3.5072   3.6413   3.6417   3.7796   3.7956   3.9005   3.9813
     4.0835   4.1034   4.1851   4.2231   4.4948   4.5715   4.6946   4.7481
     5.0439   5.0600   5.0797   5.6186   6.8704   6.9260   7.0258   7.3006
     7.3706   7.5083

     occupation numbers
     1.0000   1.0000   1.0000   1.0000   1.0000   1.0000   1.0000   1.0000
     1.0000   1.0000   1.0000   1.0000   1.0000   1.0000   1.0000   1.0000
     1.0000   1.0000   1.0000   1.0000   1.0000   1.0000   1.0000   1.0000
     1.0000   1.0000   1.0000   1.0000   1.0000   1.0000   1.0000   1.0000
     1.0000   1.0000   1.0000   1.0000   1.0000   1.0000   1.0000   1.0000
     1.0000   1.0000   1.0000   1.0000   1.0000   1.0000   1.0000   1.0000
     1.0000   1.0000   1.0000   1.0000   1.0000   1.0000   1.0000   1.0000
     1.0000   1.0000   1.0000   1.0000   1.0000   1.0000   1.0000   1.0000
     1.0000   1.0000   1.0000   1.0000   1.0000   1.0000   1.0000   1.0000
     1.0000   1.0000   1.0000   1.0000   1.0000   1.0000   1.0000   1.0000
     1.0000   1.0000   1.0000   1.0000   0.0000   0.0000   0.0000   0.0000
     0.0000   0.0000

[...]

          k = 0.3333-0.0975 0.4302 (  7033 PWs)   bands (ev):

  -106.4537-106.4533-106.4305-106.4301 -63.8865 -63.8859 -63.8613 -63.8597
   -63.8010 -63.7999 -63.7975 -63.7968 -63.7923 -63.7900 -63.7653 -63.7647
   -58.8519 -58.8518 -32.7755 -32.7751 -32.7134 -32.7125 -32.6791 -32.6786
   -20.7066 -20.7057  -7.5342  -7.3004  -6.7427  -6.6777  -6.5562  -6.5141
    -6.1776  -6.1681  -4.8016  -4.7939  -4.7847  -4.7836  -4.7576  -4.7427
     0.3929   0.5098   0.9599   1.2351   1.3812   1.5288   1.6041   1.7719
     1.8844   1.9035   2.0032   2.0333   2.1256   2.1650   2.5678   2.7014
     2.7488   2.7970   2.8323   2.8400   3.0311   3.0836   3.3611   3.3696
     3.4093   3.4810   3.5831   3.5962   3.7402   3.8245   3.9440   3.9865
     4.0236   4.1062   4.1675   4.2915   4.3179   4.5418   4.7005   4.8650
     4.8725   5.1694   5.2507   5.3803   6.8990   6.9501   7.0223   7.0399
     7.4033   7.4654

     occupation numbers
     1.0000   1.0000   1.0000   1.0000   1.0000   1.0000   1.0000   1.0000
     1.0000   1.0000   1.0000   1.0000   1.0000   1.0000   1.0000   1.0000
     1.0000   1.0000   1.0000   1.0000   1.0000   1.0000   1.0000   1.0000
     1.0000   1.0000   1.0000   1.0000   1.0000   1.0000   1.0000   1.0000
     1.0000   1.0000   1.0000   1.0000   1.0000   1.0000   1.0000   1.0000
     1.0000   1.0000   1.0000   1.0000   1.0000   1.0000   1.0000   1.0000
     1.0000   1.0000   1.0000   1.0000   1.0000   1.0000   1.0000   1.0000
     1.0000   1.0000   1.0000   1.0000   1.0000   1.0000   1.0000   1.0000
     1.0000   1.0000   1.0000   1.0000   1.0000   1.0000   1.0000   1.0000
     1.0000   1.0000   1.0000   1.0000   1.0000   1.0000   1.0000   1.0000
     1.0000   1.0000   1.0000   1.0000   0.0000   0.0000   0.0000   0.0000
     0.0000   0.0000

     highest occupied, lowest unoccupied level (ev):     5.6783    6.8704

!    total energy              =   -2196.61014877 Ry
     estimated scf accuracy    <       0.00000019 Ry

     The total energy is the sum of the following terms:
     one-electron contribution =   -2403.72600868 Ry
     hartree contribution      =    1249.98754863 Ry
     xc contribution           =    -277.00252960 Ry
     ewald contribution        =    -765.86915912 Ry

     convergence has been achieved in  19 iterations

     Writing all to output data dir calculations_bands/myprefix.save/

     General routines

     Parallel routines

   This run was terminated on:   8:21:31  23Jun2023

   JOB DONE.