     Program PWSCF v.7.1 starts on 15Jul2023 at 18:30:46

     Reading input from espresso_8262.pwi
Warning: card &CELL ignored
Warning: card / ignored

     Current dimensions of program PWSCF are:
     Max number of different atomic species (ntypx) = 10
     Max number of k-points (npk) =  40000
     Max angular momentum in pseudopotentials (lmaxx) =  4
     file Ce.paw.z_12.atompaw.wentzcovitch.v1.2.upf: wavefunction(s)  6S 0P 5D 0D 4F 0F renormalized
     Message from routine setup:
     using ibrav=0 with symmetry is DISCOURAGED, use correct ibrav instead

     K-points division:     npool     =       2
     R & G space division:  proc/nbgrp/npool/nimage =       4
     Subspace diagonalization in iterative solution of the eigenvalue problem:
     one sub-group per band group will be used

     Using Slab Decomposition

     bravais-lattice index     =            0
     lattice parameter (alat)  =       7.5989  a.u.
     unit-cell volume          =    1560.2221 (a.u.)^3
     number of atoms/cell      =           18
     number of atomic types    =            3
     number of electrons       =       176.00
     number of Kohn-Sham states=          256
     kinetic-energy cutoff     =      30.0000  Ry
     charge density cutoff     =     240.0000  Ry
     scf convergence threshold =      1.0E-06
     mixing beta               =       0.7000
     number of iterations used =            8  plain     mixing
     Exchange-correlation= SLA  PW   PBE  PBE
                           (   1   4   3   4   0   0   0)

     celldm(1)=   7.598925  celldm(2)=   0.000000  celldm(3)=   0.000000
     celldm(4)=   0.000000  celldm(5)=   0.000000  celldm(6)=   0.000000

     crystal axes: (cart. coord. in units of alat)
               a(1) = (   1.000000   0.000000   0.000000 )
               a(2) = (   0.000000   1.885667   0.000000 )
               a(3) = (   0.000000   0.000000   1.885667 )

     reciprocal axes: (cart. coord. in units 2 pi/alat)
               b(1) = (  1.000000  0.000000  0.000000 )
               b(2) = (  0.000000  0.530316  0.000000 )
               b(3) = (  0.000000  0.000000  0.530316 )

     PseudoPot. # 1 for Ce read from file:
     /lustre07/scratch/pragov/crystal_structure_design/utils/SSSP/Ce.paw.z_12.atompaw.wentzcovitch.v1.2.upf
     MD5 check sum: 2241420ff980c77e0c917a2dc8a7e08e
     Pseudo is Projector augmented-wave + core cor, Zval = 12.0
     Generated using ATOMPAW code
     Shape of augmentation charge: BESSEL
     Using radial grid of 1102 points,  8 beta functions with:
                l(1) =   0
                l(2) =   0
                l(3) =   1
                l(4) =   1
                l(5) =   2
                l(6) =   2
                l(7) =   3
                l(8) =   3
     Q(r) pseudized with 0 coefficients

     PseudoPot. # 2 for B  read from file:
     /lustre07/scratch/pragov/crystal_structure_design/utils/SSSP/b_pbe_v1.4.uspp.F.UPF
     MD5 check sum: cc6de2960df11db49a60e589f9ebb39b
     Pseudo is Ultrasoft + core correction, Zval =  3.0
     Generated by new atomic code, or converted to UPF format
     Using radial grid of  781 points,  4 beta functions with:
                l(1) =   0
                l(2) =   0
                l(3) =   1
                l(4) =   1
     Q(r) pseudized with  8 coefficients,  rinner =    1.100   1.100   1.100

     PseudoPot. # 3 for Os read from file:
     /lustre07/scratch/pragov/crystal_structure_design/utils/SSSP/Os_pbe_v1.2.uspp.F.UPF
     MD5 check sum: a3fb40a04f0c37c25c34bbc47164c9a8
     Pseudo is Ultrasoft + core correction, Zval = 16.0
     Generated by new atomic code, or converted to UPF format
     Using radial grid of  983 points,  8 beta functions with:
                l(1) =   0
                l(2) =   0
                l(3) =   1
                l(4) =   1
                l(5) =   2
                l(6) =   2
                l(7) =   3
                l(8) =   3
     Q(r) pseudized with  8 coefficients,  rinner =    1.150   1.150   1.150
                                                       1.150   1.150   1.150
                                                       1.150

     atomic species   valence    mass     pseudopotential
        Ce            12.00   140.11600     Ce( 1.00)
        B              3.00    10.81000     B ( 1.00)
        Os            16.00   190.23000     Os( 1.00)

      8 Sym. Ops., with inversion, found ( 6 have fractional translation)

                                    s                        frac. trans.

      isym =  1     identity

 cryst.   s( 1) = (     1          0          0      )
                  (     0          1          0      )
                  (     0          0          1      )

 cart.    s( 1) = (  1.0000000  0.0000000  0.0000000 )
                  (  0.0000000  1.0000000  0.0000000 )
                  (  0.0000000  0.0000000  1.0000000 )

      isym =  2     180 deg rotation - cart. axis [1,0,0]

 cryst.   s( 2) = (     1          0          0      )    f =(  0.0000000 )
                  (     0         -1          0      )       ( -0.5000000 )
                  (     0          0         -1      )       ( -0.5000000 )

 cart.    s( 2) = (  1.0000000  0.0000000  0.0000000 )    f =(  0.0000000 )
                  (  0.0000000 -1.0000000  0.0000000 )       ( -0.9428334 )
                  (  0.0000000  0.0000000 -1.0000000 )       ( -0.9428334 )

[...]

      isym =  4      90 deg rotation - cart. axis [1,0,0]

[...]

      isym =  5     inversion

 cryst.   s( 5) = (    -1          0          0      )
                  (     0         -1          0      )
                  (     0          0         -1      )

 cart.    s( 5) = ( -1.0000000  0.0000000  0.0000000 )
                  (  0.0000000 -1.0000000  0.0000000 )
                  (  0.0000000  0.0000000 -1.0000000 )

      isym =  6     inv. 180 deg rotation - cart. axis [1,0,0]

[...]

      isym =  8     inv.  90 deg rotation - cart. axis [1,0,0]

 cryst.   s( 8) = (    -1          0          0      )    f =(  0.5000000 )
                  (     0          0         -1      )       (  0.0000000 )
                  (     0          1          0      )       ( -0.5000000 )

 cart.    s( 8) = ( -1.0000000  0.0000000  0.0000000 )    f =(  0.5000000 )
                  (  0.0000000  0.0000000  1.0000000 )       (  0.0000000 )
                  (  0.0000000 -1.0000000  0.0000000 )       ( -0.9428334 )

   Cartesian axes

     site n.     atom                  positions (alat units)
         1           Ce  tau(   1) = (   0.2500000   0.4714167   0.4714167  )
         2           Ce  tau(   2) = (   0.7500000   1.4142501   1.4142501  )
         3           B   tau(   3) = (   0.3623430   1.7211499   0.0576976  )
         4           B   tau(   4) = (   0.3623430   1.1073503   0.8851358  )
         5           B   tau(   5) = (   0.8623430   1.0005311   0.1645169  )
         6           B   tau(   6) = (   0.8623430   1.8279692   0.7783165  )
         7           B   tau(   7) = (   0.6376570   0.1645169   1.8279692  )
         8           B   tau(   8) = (   0.6376570   0.7783165   1.0005311  )
         9           B   tau(   9) = (   0.1376570   0.8851358   1.7211499  )
        10           B   tau(  10) = (   0.1376570   0.0576976   1.1073503  )
        11           Os  tau(  11) = (   0.1384610   0.7443481   1.2094158  )
        12           Os  tau(  12) = (   0.1384610   0.1984853   1.6190845  )
        13           Os  tau(  13) = (   0.6384610   0.2665824   1.1413187  )
        14           Os  tau(  14) = (   0.6384610   0.6762510   1.6871815  )
        15           Os  tau(  15) = (   0.8615390   1.1413187   0.6762510  )
        16           Os  tau(  16) = (   0.8615390   1.6871815   0.2665824  )
        17           Os  tau(  17) = (   0.3615390   1.6190845   0.7443481  )
        18           Os  tau(  18) = (   0.3615390   1.2094158   0.1984853  )

   Crystallographic axes

     site n.     atom                  positions (cryst. coord.)
         1           Ce  tau(   1) = (  0.2500000  0.2500000  0.2500000  )
         2           Ce  tau(   2) = (  0.7500000  0.7500000  0.7500000  )
         3           B   tau(   3) = (  0.3623430  0.9127540  0.0305980  )
         4           B   tau(   4) = (  0.3623430  0.5872460  0.4694020  )
         5           B   tau(   5) = (  0.8623430  0.5305980  0.0872460  )
         6           B   tau(   6) = (  0.8623430  0.9694020  0.4127540  )
         7           B   tau(   7) = (  0.6376570  0.0872460  0.9694020  )
         8           B   tau(   8) = (  0.6376570  0.4127540  0.5305980  )
         9           B   tau(   9) = (  0.1376570  0.4694020  0.9127540  )
        10           B   tau(  10) = (  0.1376570  0.0305980  0.5872460  )
        11           Os  tau(  11) = (  0.1384610  0.3947400  0.6413730  )
        12           Os  tau(  12) = (  0.1384610  0.1052600  0.8586270  )
        13           Os  tau(  13) = (  0.6384610  0.1413730  0.6052600  )
        14           Os  tau(  14) = (  0.6384610  0.3586270  0.8947400  )
        15           Os  tau(  15) = (  0.8615390  0.6052600  0.3586270  )
        16           Os  tau(  16) = (  0.8615390  0.8947400  0.1413730  )
        17           Os  tau(  17) = (  0.3615390  0.8586270  0.3947400  )
        18           Os  tau(  18) = (  0.3615390  0.6413730  0.1052600  )

     number of k points=     6
                       cart. coord. in units 2pi/alat
        k(    1) = (   0.0000000   0.0000000   0.0000000), wk =   0.0740741
        k(    2) = (   0.0000000   0.0000000   0.1767721), wk =   0.2962963
        k(    3) = (   0.0000000   0.1767721   0.1767721), wk =   0.2962963
        k(    4) = (   0.3333333   0.0000000   0.0000000), wk =   0.1481481
        k(    5) = (   0.3333333   0.0000000   0.1767721), wk =   0.5925926
        k(    6) = (   0.3333333   0.1767721   0.1767721), wk =   0.5925926

                       cryst. coord.
        k(    1) = (   0.0000000   0.0000000   0.0000000), wk =   0.0740741
        k(    2) = (   0.0000000   0.0000000   0.3333333), wk =   0.2962963
        k(    3) = (   0.0000000   0.3333333   0.3333333), wk =   0.2962963
        k(    4) = (   0.3333333   0.0000000   0.0000000), wk =   0.1481481
        k(    5) = (   0.3333333   0.0000000   0.3333333), wk =   0.5925926
        k(    6) = (   0.3333333   0.3333333   0.3333333), wk =   0.5925926

     Check: negative core charge=   -0.000001

     Initial potential from superposition of free atoms

     starting charge     171.9835, renormalised to     176.0000

     negative rho (up, down):  1.018E+00 0.000E+00
     Starting wfcs are  200 randomized atomic wfcs +   56 random wfcs
     Checking if some PAW data can be deallocated...

     Self-consistent Calculation

     iteration #  1     ecut=    30.00 Ry     beta= 0.70
     Davidson diagonalization with overlap

     ethr =  1.00E-02,  avg # of iterations =  6.5

     negative rho (up, down):  1.038E+00 0.000E+00

     total energy              =   -2601.47753197 Ry
     estimated scf accuracy    <       4.86962603 Ry

[...]

     total energy              =   -2604.31280784 Ry
     estimated scf accuracy    <       0.00002422 Ry

     iteration # 18     ecut=    30.00 Ry     beta= 0.70
     Davidson diagonalization with overlap

     ethr =  1.38E-08,  avg # of iterations =  1.0

     negative rho (up, down):  9.975E-01 0.000E+00

     End of self-consistent calculation

          k = 0.0000 0.0000 0.0000 (  4309 PWs)   bands (ev):

   -67.7217 -67.7149 -67.6859 -67.6859 -67.6791 -67.6791 -67.6778 -67.6710
   -27.4052 -27.3831 -27.3824 -27.2944 -27.2485 -27.1722 -27.1722 -27.1705
   -27.1705 -27.1509 -27.1413 -27.1413 -27.0657 -27.0657 -27.0002 -26.9954
   -26.9798 -26.9729 -26.8769 -26.8769 -26.8464 -26.8321 -26.8295 -26.8295
   -15.8575 -15.8533   1.2032   1.2032   1.2671   1.2671   1.4378   1.4455
     6.6573   8.3470   8.3470   8.6596   9.1919  10.5766  10.5766  10.6364
    12.3009  12.5530  12.5641  13.1226  13.2117  13.2545  13.2939  13.2939
    13.6055  13.7807  13.7901  13.7901  13.9794  13.9794  14.1370  14.1370
    14.3458  15.0617  15.2143  15.2143  15.8376  15.8600  15.8600  15.9119
    15.9615  16.0040  16.0040  16.6775  16.8192  16.8501  17.1693  17.1693
    17.1749  17.6727  17.7312  17.9217  18.2146  18.2447  18.2447  18.5070
    18.9217  19.0334  19.0386  19.0386  19.1119  19.1119  19.1174  19.1305
    19.1305  19.1653  19.1895  19.1996  19.3236  19.3236  19.7124  19.8224
    19.8700  20.2208  20.2208  21.1372  21.2694  21.5753  21.5753  21.9617
    21.9617  22.3516  22.3516  22.6692  23.3736  23.4192  23.6542  23.6542
    23.7192  24.3270  24.3988  24.3988  24.5569  24.5569  24.7245  24.7399
    24.9387  25.3310  25.3310  25.6263  26.5410  26.6470  26.7596  27.1001
    27.1001  27.1545  27.7084  27.7084  28.7261  28.9801  29.0133  29.1848
    29.1870  29.7414  29.7414  29.9555  29.9555  30.5598  30.5598  31.1788
    31.4480  31.5226  31.8615  32.8095  32.8095  32.8752  32.8752  33.1641
    33.1962  33.8045  33.8735  34.1412  34.2517  34.5448  34.5448  35.5498
    35.5498  35.6103  36.0170  36.0170  36.2290  36.2290  36.5242  37.3290
    37.6767  38.5231  38.5231  38.5644  38.5644  38.7242  39.3835  39.5545
    39.5545  39.9160  40.6360  40.7906  40.8009  40.8910  40.8910  40.9737
    41.3131  41.3486  41.3486  41.4986  41.7223  42.2591  42.8983  42.9003
    43.0728  43.1427  43.1427  43.6053  43.7344  43.7344  43.9416  44.0949
    44.0949  44.2030  44.7416  44.7416  45.2576  45.2576  45.2808  45.3200
    45.8789  46.0310  46.2109  46.2793  46.3597  46.4425  46.9395  47.0324
    47.2310  47.2310  47.2831  47.6930  47.6930  47.9934  47.9945  48.7814
    48.8555  49.0210  49.0210  49.2027  49.2027  49.4111  49.4366  50.1922
    50.1922  50.4930  50.8794  51.1366  51.1366  51.8066  51.8626  51.8626
    52.1579  52.1746  52.5823  52.5823  52.7521  52.7836  53.0255  53.5384

     occupation numbers
     1.0000   1.0000   1.0000   1.0000   1.0000   1.0000   1.0000   1.0000
     1.0000   1.0000   1.0000   1.0000   1.0000   1.0000   1.0000   1.0000
     1.0000   1.0000   1.0000   1.0000   1.0000   1.0000   1.0000   1.0000
     1.0000   1.0000   1.0000   1.0000   1.0000   1.0000   1.0000   1.0000
     1.0000   1.0000   1.0000   1.0000   1.0000   1.0000   1.0000   1.0000
     1.0000   1.0000   1.0000   1.0000   1.0000   1.0000   1.0000   1.0000
     1.0000   1.0000   1.0000   1.0000   1.0000   1.0000   1.0000   1.0000
     1.0000   1.0000   1.0000   1.0000   1.0000   1.0000   1.0000   1.0000
     1.0000   1.0000   1.0000   1.0000   1.0000   1.0000   1.0000   1.0000
     1.0000   1.0000   1.0000   1.0000   1.0000   1.0000   1.0000   1.0000
     1.0000   1.0000   1.0000   1.0000   1.0000   1.0000   1.0000   1.0000
     0.0000   0.0000   0.0000   0.0000   0.0000   0.0000   0.0000   0.0000
     0.0000   0.0000   0.0000   0.0000   0.0000   0.0000   0.0000   0.0000
     0.0000   0.0000   0.0000   0.0000   0.0000   0.0000   0.0000   0.0000
     0.0000   0.0000   0.0000   0.0000   0.0000   0.0000   0.0000   0.0000
     0.0000   0.0000   0.0000   0.0000   0.0000   0.0000   0.0000   0.0000
     0.0000   0.0000   0.0000   0.0000   0.0000   0.0000   0.0000   0.0000
     0.0000   0.0000   0.0000   0.0000   0.0000   0.0000   0.0000   0.0000
     0.0000   0.0000   0.0000   0.0000   0.0000   0.0000   0.0000   0.0000
     0.0000   0.0000   0.0000   0.0000   0.0000   0.0000   0.0000   0.0000
     0.0000   0.0000   0.0000   0.0000   0.0000   0.0000   0.0000   0.0000
     0.0000   0.0000   0.0000   0.0000   0.0000   0.0000   0.0000   0.0000
     0.0000   0.0000   0.0000   0.0000   0.0000   0.0000   0.0000   0.0000
     0.0000   0.0000   0.0000   0.0000   0.0000   0.0000   0.0000   0.0000
     0.0000   0.0000   0.0000   0.0000   0.0000   0.0000   0.0000   0.0000
     0.0000   0.0000   0.0000   0.0000   0.0000   0.0000   0.0000   0.0000
     0.0000   0.0000   0.0000   0.0000   0.0000   0.0000   0.0000   0.0000
     0.0000   0.0000   0.0000   0.0000   0.0000   0.0000   0.0000   0.0000
     0.0000   0.0000   0.0000   0.0000   0.0000   0.0000   0.0000   0.0000
     0.0000   0.0000   0.0000   0.0000   0.0000   0.0000   0.0000   0.0000
     0.0000   0.0000   0.0000   0.0000   0.0000   0.0000   0.0000   0.0000
     0.0000   0.0000   0.0000   0.0000   0.0000   0.0000   0.0000   0.0000

[...]

          k = 0.3333 0.1768 0.1768 (  4324 PWs)   bands (ev):

   -67.7086 -67.7069 -67.6874 -67.6858 -67.6850 -67.6825 -67.6798 -67.6791
   -27.4179 -27.4026 -27.3738 -27.3508 -27.2826 -27.2616 -27.2565 -27.2479
   -27.1443 -27.1250 -27.0723 -27.0616 -27.0299 -27.0096 -27.0031 -26.9622
   -26.9546 -26.9489 -26.8853 -26.8829 -26.8746 -26.8559 -26.8285 -26.8051
   -15.8403 -15.8385   1.1661   1.1670   1.2529   1.2618   1.2970   1.3033
     8.2115   8.5451   8.6027   8.7885  10.4717  10.5811  10.9444  11.4072
    11.7012  12.0080  12.4053  12.5630  12.8069  12.9503  13.1441  13.1995
    13.4858  13.6763  13.8715  13.9855  14.1183  14.2066  14.3891  14.5364
    14.8124  15.0690  15.1486  15.2826  15.4509  15.5598  15.6615  15.8592
    15.9355  16.2175  16.3021  16.5166  16.5923  16.8092  16.8213  16.9465
    17.0727  17.2071  17.3710  17.5341  17.6372  18.0963  18.1890  18.2965
    18.8336  18.9072  18.9540  19.0233  19.0405  19.0553  19.0803  19.1007
    19.1203  19.1844  19.1996  19.2859  19.3140  19.3464  19.5490  19.7443
    19.9535  20.0805  20.5153  20.6332  20.6954  20.8874  20.9628  21.3316
    21.4240  21.9545  22.1531  22.2018  22.3785  22.8473  23.1184  23.4481
    23.5904  23.7448  24.0031  24.4271  24.6830  24.7298  24.8204  25.0245
    25.0963  25.3834  25.7112  26.1873  26.4603  26.6433  27.1215  27.1493
    27.3307  27.4823  28.1895  28.5383  28.6692  29.2191  29.3764  29.7913
    29.9728  30.1151  30.4420  30.7147  30.8316  31.0726  31.4432  31.6236
    31.7126  32.0074  32.1142  32.5463  32.8497  33.1710  33.2872  33.6401
    34.0108  34.1375  34.2882  34.3702  34.7335  34.9535  35.4613  35.6935
    35.7501  35.8143  36.0377  36.1740  36.6334  36.6913  36.7755  36.9771
    37.5297  37.5878  37.9489  38.1807  38.3949  38.6905  38.8143  39.0171
    39.2618  39.4664  39.9045  40.0836  40.1167  40.2613  40.4486  40.8063
    41.0378  41.2754  41.4929  41.5814  41.7510  41.9212  42.2271  42.5116
    42.6161  42.8088  42.9178  43.2072  43.5000  43.5981  43.8395  43.9084
    44.0323  44.3466  44.5439  44.7001  44.9777  44.9980  45.1382  45.2009
    45.6366  45.6964  45.8864  46.1733  46.4074  46.5296  46.8251  46.9542
    47.0972  47.3566  47.5570  47.8128  47.8361  48.0083  48.3151  48.4789
    48.7861  49.0383  49.2865  49.4600  49.6814  49.7992  50.0725  50.2301
    50.2800  50.5490  50.6096  50.6275  50.8859  51.2595  51.5219  51.6325
    51.7227  52.1469  52.2843  52.3275  52.3868  52.6805  52.7979  53.0868

     occupation numbers
     1.0000   1.0000   1.0000   1.0000   1.0000   1.0000   1.0000   1.0000
     1.0000   1.0000   1.0000   1.0000   1.0000   1.0000   1.0000   1.0000
     1.0000   1.0000   1.0000   1.0000   1.0000   1.0000   1.0000   1.0000
     1.0000   1.0000   1.0000   1.0000   1.0000   1.0000   1.0000   1.0000
     1.0000   1.0000   1.0000   1.0000   1.0000   1.0000   1.0000   1.0000
     1.0000   1.0000   1.0000   1.0000   1.0000   1.0000   1.0000   1.0000
     1.0000   1.0000   1.0000   1.0000   1.0000   1.0000   1.0000   1.0000
     1.0000   1.0000   1.0000   1.0000   1.0000   1.0000   1.0000   1.0000
     1.0000   1.0000   1.0000   1.0000   1.0000   1.0000   1.0000   1.0000
     1.0000   1.0000   1.0000   1.0000   1.0000   1.0000   1.0000   1.0000
     1.0000   1.0000   1.0000   1.0000   1.0000   1.0000   1.0000   1.0000
     0.0000   0.0000   0.0000   0.0000   0.0000   0.0000   0.0000   0.0000
     0.0000   0.0000   0.0000   0.0000   0.0000   0.0000   0.0000   0.0000
     0.0000   0.0000   0.0000   0.0000   0.0000   0.0000   0.0000   0.0000
     0.0000   0.0000   0.0000   0.0000   0.0000   0.0000   0.0000   0.0000
     0.0000   0.0000   0.0000   0.0000   0.0000   0.0000   0.0000   0.0000
     0.0000   0.0000   0.0000   0.0000   0.0000   0.0000   0.0000   0.0000
     0.0000   0.0000   0.0000   0.0000   0.0000   0.0000   0.0000   0.0000
     0.0000   0.0000   0.0000   0.0000   0.0000   0.0000   0.0000   0.0000
     0.0000   0.0000   0.0000   0.0000   0.0000   0.0000   0.0000   0.0000
     0.0000   0.0000   0.0000   0.0000   0.0000   0.0000   0.0000   0.0000
     0.0000   0.0000   0.0000   0.0000   0.0000   0.0000   0.0000   0.0000
     0.0000   0.0000   0.0000   0.0000   0.0000   0.0000   0.0000   0.0000
     0.0000   0.0000   0.0000   0.0000   0.0000   0.0000   0.0000   0.0000
     0.0000   0.0000   0.0000   0.0000   0.0000   0.0000   0.0000   0.0000
     0.0000   0.0000   0.0000   0.0000   0.0000   0.0000   0.0000   0.0000
     0.0000   0.0000   0.0000   0.0000   0.0000   0.0000   0.0000   0.0000
     0.0000   0.0000   0.0000   0.0000   0.0000   0.0000   0.0000   0.0000
     0.0000   0.0000   0.0000   0.0000   0.0000   0.0000   0.0000   0.0000
     0.0000   0.0000   0.0000   0.0000   0.0000   0.0000   0.0000   0.0000
     0.0000   0.0000   0.0000   0.0000   0.0000   0.0000   0.0000   0.0000
     0.0000   0.0000   0.0000   0.0000   0.0000   0.0000   0.0000   0.0000

     highest occupied, lowest unoccupied level (ev):    18.5070   18.8336

!    total energy              =   -2604.31280896 Ry
     estimated scf accuracy    <       0.00000007 Ry

     The total energy is the sum of the following terms:
     one-electron contribution =    -474.26382818 Ry
     hartree contribution      =     338.28354103 Ry
     xc contribution           =    -351.29342368 Ry
     ewald contribution        =   -1307.35347314 Ry
     one-center paw contrib.   =    -809.68562499 Ry
      -> PAW hartree energy AE =      88.33358410 Ry
      -> PAW hartree energy PS =     -87.83036218 Ry
      -> PAW xc energy AE      =    -834.30747627 Ry
      -> PAW xc energy PS      =      24.11862936 Ry
      -> total E_H with PAW    =     338.78676295 Ry
      -> total E_XC with PAW   =   -1161.48227059 Ry

     convergence has been achieved in  18 iterations

     Writing all to output data dir bands_nm/myprefix.save/

     General routines

     Parallel routines

     PAW routines

   This run was terminated on:  18:31:38  15Jul2023

   JOB DONE.