     Program PWSCF v.7.1 starts on 17Jul2023 at  1:34: 1

     Reading input from espresso_18684.pwi
Warning: card &CELL ignored
Warning: card / ignored

     Current dimensions of program PWSCF are:
     Max number of different atomic species (ntypx) = 10
     Max number of k-points (npk) =  40000
     Max angular momentum in pseudopotentials (lmaxx) =  4
     file O.pbe-n-kjpaw_psl.0.1.UPF: wavefunction(s)  2P renormalized
     Message from routine setup:
     using ibrav=0 with symmetry is DISCOURAGED, use correct ibrav instead

     K-points division:     npool     =       2
     R & G space division:  proc/nbgrp/npool/nimage =       4
     Subspace diagonalization in iterative solution of the eigenvalue problem:
     one sub-group per band group will be used

     Using Slab Decomposition

     bravais-lattice index     =            0
     lattice parameter (alat)  =       7.3032  a.u.
     unit-cell volume          =    1693.9061 (a.u.)^3
     number of atoms/cell      =           19
     number of atomic types    =            3
     number of electrons       =       168.00
     number of Kohn-Sham states=          256
     kinetic-energy cutoff     =      30.0000  Ry
     charge density cutoff     =     240.0000  Ry
     scf convergence threshold =      1.0E-06
     mixing beta               =       0.7000
     number of iterations used =            8  plain     mixing
     Exchange-correlation= SLA  PW   PBX  PBC
                           (   1   4   3   4   0   0   0)

     celldm(1)=   7.303214  celldm(2)=   0.000000  celldm(3)=   0.000000
     celldm(4)=   0.000000  celldm(5)=   0.000000  celldm(6)=   0.000000

     crystal axes: (cart. coord. in units of alat)
               a(1) = (   1.000000   0.000000   0.000000 )
               a(2) = (   0.020359   0.999793   0.000000 )
               a(3) = (   0.442252   0.433339   4.349480 )

     reciprocal axes: (cart. coord. in units 2 pi/alat)
               b(1) = (  1.000000 -0.020363 -0.099651 )
               b(2) = (  0.000000  1.000207 -0.099651 )
               b(3) = (  0.000000  0.000000  0.229913 )

     PseudoPot. # 1 for Ti read from file:
     /lustre07/scratch/pragov/crystal_structure_design/utils/SSSP/ti_pbe_v1.4.uspp.F.UPF
     MD5 check sum: 88a00a6731bd790ddea75d31a80cb452
     Pseudo is Ultrasoft + core correction, Zval = 12.0
     Generated by new atomic code, or converted to UPF format
     Using radial grid of  851 points,  6 beta functions with:
                l(1) =   0
                l(2) =   0
                l(3) =   1
                l(4) =   1
                l(5) =   2
                l(6) =   2
     Q(r) pseudized with  6 coefficients,  rinner =    1.000   1.000   1.000
                                                       1.000   1.000

     PseudoPot. # 2 for Bi read from file:
     /lustre07/scratch/pragov/crystal_structure_design/utils/SSSP/Bi_pbe_v1.uspp.F.UPF
     MD5 check sum: cceb9f28ec65b6d7ff33140f5b0b1758
     Pseudo is Ultrasoft + core correction, Zval = 15.0
     Generated by new atomic code, or converted to UPF format
     Using radial grid of  899 points,  6 beta functions with:
                l(1) =   0
                l(2) =   0
                l(3) =   1
                l(4) =   1
                l(5) =   2
                l(6) =   2
     Q(r) pseudized with  6 coefficients,  rinner =    1.000   1.000   1.000
                                                       1.000   1.000

     PseudoPot. # 3 for O  read from file:
     /lustre07/scratch/pragov/crystal_structure_design/utils/SSSP/O.pbe-n-kjpaw_psl.0.1.UPF
     MD5 check sum: 0234752ac141de4415c5fc33072bef88
     Pseudo is Projector augmented-wave + core cor, Zval =  6.0
     Generated using "atomic" code by A. Dal Corso  v.5.0.99 svn rev. 10869
     Shape of augmentation charge: BESSEL
     Using radial grid of 1095 points,  4 beta functions with:
                l(1) =   0
                l(2) =   0
                l(3) =   1
                l(4) =   1
     Q(r) pseudized with 0 coefficients

     atomic species   valence    mass     pseudopotential
        Ti            12.00    47.86700     Ti( 1.00)
        Bi            15.00   208.98040     Bi( 1.00)
        O              6.00    15.99900     O ( 1.00)

      2 Sym. Ops., with inversion, found

                                    s                        frac. trans.

      isym =  1     identity

 cryst.   s( 1) = (     1          0          0      )
                  (     0          1          0      )
                  (     0          0          1      )

 cart.    s( 1) = (  1.0000000  0.0000000  0.0000000 )
                  (  0.0000000  1.0000000  0.0000000 )
                  (  0.0000000  0.0000000  1.0000000 )

      isym =  2     inversion

 cryst.   s( 2) = (    -1          0          0      )
                  (     0         -1          0      )
                  (     0          0         -1      )

 cart.    s( 2) = ( -1.0000000  0.0000000 -0.0000000 )
                  (  0.0000000 -1.0000000  0.0000000 )
                  (  0.0000000  0.0000000 -1.0000000 )

   Cartesian axes

     site n.     atom                  positions (alat units)
         1           Ti  tau(   1) = (   0.4858216   0.4760296   1.1179685  )
         2           Ti  tau(   2) = (   0.9767895   0.9571018   3.2315110  )
         3           Ti  tau(   3) = (   0.5101793   0.4998964   0.0000000  )
         4           Bi  tau(   4) = (   0.9365427   0.9176661   0.5761364  )
         5           Bi  tau(   5) = (   0.4817298   0.4720203   2.5075010  )
         6           Bi  tau(   6) = (   0.9808813   0.9611111   1.8419785  )
         7           Bi  tau(   7) = (   0.5260684   0.5154652   3.7733431  )
         8           O   tau(   8) = (   0.5268717   0.5162523   0.5153133  )
         9           O   tau(   9) = (   0.9357394   0.9168791   3.8341662  )
        10           O   tau(  10) = (   0.9306883   0.4392039   3.3376992  )
        11           O   tau(  11) = (   0.4861337   0.9667808   2.1747398  )
        12           O   tau(  12) = (   0.5319228   0.9939275   1.0117803  )
        13           O   tau(  13) = (   0.9764775   0.4663506   2.1747398  )
        14           O   tau(  14) = (   0.4580604   0.9215539   3.3376992  )
        15           O   tau(  15) = (   0.0101793   0.4998964   0.0000000  )
        16           O   tau(  16) = (   0.9724556   0.9528552   2.7694528  )
        17           O   tau(  17) = (   0.4901555   0.4802761   1.5800267  )
        18           O   tau(  18) = (   1.0045507   0.5115775   1.0117803  )
        19           O   tau(  19) = (   0.5000000   0.0000000   0.0000000  )

   Crystallographic axes

     site n.     atom                  positions (cryst. coord.)
         1           Ti  tau(   1) = (  0.3647220  0.3647220  0.2570350  )
         2           Ti  tau(   2) = (  0.6352780  0.6352780  0.7429650  )
         3           Ti  tau(   3) = (  0.5000000  0.5000000  0.0000000  )
         4           Bi  tau(   4) = (  0.8604440  0.8604440  0.1324610  )
         5           Bi  tau(   5) = (  0.2222440  0.2222440  0.5765060  )
         6           Bi  tau(   6) = (  0.7777560  0.7777560  0.4234940  )
         7           Bi  tau(   7) = (  0.1395560  0.1395560  0.8675390  )
         8           O   tau(   8) = (  0.4650080  0.4650080  0.1184770  )
         9           O   tau(   9) = (  0.5349920  0.5349920  0.8815230  )
        10           O   tau(  10) = (  0.5891410  0.1066910  0.7673790  )
        11           O   tau(  11) = (  0.2497330  0.7502670  0.5000000  )
        12           O   tau(  12) = (  0.4108590  0.8933090  0.2326210  )
        13           O   tau(  13) = (  0.7502670  0.2497330  0.5000000  )
        14           O   tau(  14) = (  0.1066910  0.5891410  0.7673790  )
        15           O   tau(  15) = (  0.0000000  0.5000000  0.0000000  )
        16           O   tau(  16) = (  0.6770750  0.6770750  0.6367320  )
        17           O   tau(  17) = (  0.3229250  0.3229250  0.3632680  )
        18           O   tau(  18) = (  0.8933090  0.4108590  0.2326210  )
        19           O   tau(  19) = (  0.5000000  0.0000000  0.0000000  )

     number of k points=    14
                       cart. coord. in units 2pi/alat
        k(    1) = (   0.0000000   0.0000000   0.0000000), wk =   0.0740741
        k(    2) = (   0.0000000   0.0000000   0.0766375), wk =   0.1481481
        k(    3) = (   0.0000000   0.3334024  -0.0332169), wk =   0.1481481
        k(    4) = (   0.0000000   0.3334024   0.0434206), wk =   0.1481481
        k(    5) = (   0.0000000   0.3334024  -0.1098544), wk =   0.1481481
        k(    6) = (   0.3333333  -0.0067876  -0.0332169), wk =   0.1481481
        k(    7) = (   0.3333333  -0.0067876   0.0434206), wk =   0.1481481
        k(    8) = (   0.3333333  -0.0067876  -0.1098544), wk =   0.1481481
        k(    9) = (   0.3333333   0.3266148  -0.0664338), wk =   0.1481481
        k(   10) = (   0.3333333   0.3266148   0.0102038), wk =   0.1481481
        k(   11) = (   0.3333333   0.3266148  -0.1430713), wk =   0.1481481
        k(   12) = (   0.3333333  -0.3401901   0.0000000), wk =   0.1481481
        k(   13) = (   0.3333333  -0.3401901   0.0766375), wk =   0.1481481
        k(   14) = (   0.3333333  -0.3401901  -0.0766375), wk =   0.1481481

                       cryst. coord.
        k(    1) = (   0.0000000   0.0000000   0.0000000), wk =   0.0740741
        k(    2) = (   0.0000000   0.0000000   0.3333333), wk =   0.1481481
        k(    3) = (   0.0000000   0.3333333   0.0000000), wk =   0.1481481
        k(    4) = (   0.0000000   0.3333333   0.3333333), wk =   0.1481481
        k(    5) = (   0.0000000   0.3333333  -0.3333333), wk =   0.1481481
        k(    6) = (   0.3333333   0.0000000   0.0000000), wk =   0.1481481
        k(    7) = (   0.3333333   0.0000000   0.3333333), wk =   0.1481481
        k(    8) = (   0.3333333   0.0000000  -0.3333333), wk =   0.1481481
        k(    9) = (   0.3333333   0.3333333   0.0000000), wk =   0.1481481
        k(   10) = (   0.3333333   0.3333333   0.3333333), wk =   0.1481481
        k(   11) = (   0.3333333   0.3333333  -0.3333333), wk =   0.1481481
        k(   12) = (   0.3333333  -0.3333333  -0.0000000), wk =   0.1481481
        k(   13) = (   0.3333333  -0.3333333   0.3333333), wk =   0.1481481
        k(   14) = (   0.3333333  -0.3333333  -0.3333333), wk =   0.1481481

     Check: negative core charge=   -0.000014

     Initial potential from superposition of free atoms

     starting charge     160.9997, renormalised to     168.0000

     negative rho (up, down):  1.828E-01 0.000E+00
     Starting wfcs are  114 randomized atomic wfcs +  142 random wfcs
     Checking if some PAW data can be deallocated...

     Self-consistent Calculation

     iteration #  1     ecut=    30.00 Ry     beta= 0.70
     Davidson diagonalization with overlap

     ethr =  1.00E-02,  avg # of iterations =  6.4

     negative rho (up, down):  1.649E-01 0.000E+00

     total energy              =   -1597.38860194 Ry
     estimated scf accuracy    <       4.22652409 Ry

[...]

     c_bands:  2 eigenvalues not converged
     ethr =  7.27E-06,  avg # of iterations = 12.1

[...]

     total energy              =   -1599.24973881 Ry
     estimated scf accuracy    <       0.00000209 Ry

     iteration # 17     ecut=    30.00 Ry     beta= 0.70
     Davidson diagonalization with overlap

     ethr =  1.24E-09,  avg # of iterations =  1.0

     negative rho (up, down):  1.706E-01 0.000E+00

     End of self-consistent calculation

          k = 0.0000 0.0000 0.0000 (  4711 PWs)   bands (ev):

   -46.4830 -46.4829 -46.3585 -22.8256 -22.8253 -22.7537 -22.7537 -22.7485
   -22.7485 -22.6858 -22.6015 -22.6005 -12.9037 -12.7161 -12.7115 -12.7097
   -12.7081 -12.6783 -12.6476 -12.6447 -12.6422 -12.6187 -12.2749 -12.2746
   -12.2742 -12.2707 -12.2682 -12.2672 -12.2486 -12.2462 -12.1777 -12.1777
    -9.3951  -8.3536  -8.2296  -7.3970  -6.8531  -6.7714  -6.7706  -6.6297
    -6.5374  -6.5234  -6.4075  -6.4026  -0.3614   0.9841   1.1877   2.0186
     4.8043   4.8203   5.5160   5.7763   5.9536   5.9971   6.0044   6.0321
     7.2498   7.3261   7.4133   7.4514   7.5121   7.5639   7.5640   7.6339
     7.6495   7.6689   7.8350   7.9425   7.9498   7.9732   8.0757   8.2316
     8.2773   8.4569   8.5738   8.6177   8.6489   8.8874   8.9584   9.0431
     9.0433   9.2981   9.5791   9.7503  11.8839  12.2009  12.2450  12.3290
    12.3332  12.7687  12.8920  13.4070  13.5465  13.6070  13.8233  13.8334
    14.4361  14.5414  14.5747  14.6069  14.9469  14.9959  15.1942  15.2911
    15.7391  15.8229  15.9945  16.3986  16.4891  16.5745  16.8388  19.1963
    19.2898  19.8175  19.8764  20.4460  20.5981  21.3603  21.7897  21.9476
    22.5647  22.6758  23.3399  23.4204  23.8005  23.9338  23.9340  24.2983
    24.3302  24.7257  24.7919  24.8289  24.9115  25.0602  25.1163  25.5943
    26.2813  26.6436  26.6811  26.7812  27.0298  27.1072  27.3798  27.5897
    27.7868  28.0772  28.2824  28.4258  28.5211  28.8163  29.7425  29.7929
    29.9796  30.0469  30.4008  30.5650  30.6314  30.7113  30.7220  30.9761
    31.1712  31.4522  31.6041  31.7082  32.0076  32.4320  32.4379  32.5280
    32.5785  32.8245  33.0005  33.1043  33.6168  33.6603  33.8014  33.9244
    34.0459  34.1974  34.4050  34.9283  35.0156  35.2276  35.4281  35.6242
    35.6776  35.9579  36.1057  36.1493  36.2152  36.5952  36.6079  36.7162
    36.8835  37.1449  37.6126  38.0293  38.3282  38.3314  38.8297  38.9721
    39.2377  39.3998  39.5683  39.7982  40.1269  40.1882  40.4718  40.9447
    41.4363  41.5654  41.5872  41.9472  42.1486  42.3029  42.4645  42.5279
    42.6089  42.6112  42.6145  42.7456  42.8741  43.2019  43.2251  43.4850
    43.5748  43.7777  44.0053  44.1291  44.2289  44.2324  44.4070  44.4939
    44.6972  44.8740  44.9265  45.2532  45.3043  45.7709  46.0179  46.2900
    46.5481  46.5822  46.7932  46.9739  47.0694  47.1235  47.3914  47.4951
    48.2043  48.2917  48.3119  48.3288  48.5119  48.5175  48.5445  48.8674

     occupation numbers
     1.0000   1.0000   1.0000   1.0000   1.0000   1.0000   1.0000   1.0000
     1.0000   1.0000   1.0000   1.0000   1.0000   1.0000   1.0000   1.0000
     1.0000   1.0000   1.0000   1.0000   1.0000   1.0000   1.0000   1.0000
     1.0000   1.0000   1.0000   1.0000   1.0000   1.0000   1.0000   1.0000
     1.0000   1.0000   1.0000   1.0000   1.0000   1.0000   1.0000   1.0000
     1.0000   1.0000   1.0000   1.0000   1.0000   1.0000   1.0000   1.0000
     1.0000   1.0000   1.0000   1.0000   1.0000   1.0000   1.0000   1.0000
     1.0000   1.0000   1.0000   1.0000   1.0000   1.0000   1.0000   1.0000
     1.0000   1.0000   1.0000   1.0000   1.0000   1.0000   1.0000   1.0000
     1.0000   1.0000   1.0000   1.0000   1.0000   1.0000   1.0000   1.0000
     1.0000   1.0000   1.0000   1.0000   0.0000   0.0000   0.0000   0.0000
     0.0000   0.0000   0.0000   0.0000   0.0000   0.0000   0.0000   0.0000
     0.0000   0.0000   0.0000   0.0000   0.0000   0.0000   0.0000   0.0000
     0.0000   0.0000   0.0000   0.0000   0.0000   0.0000   0.0000   0.0000
     0.0000   0.0000   0.0000   0.0000   0.0000   0.0000   0.0000   0.0000
     0.0000   0.0000   0.0000   0.0000   0.0000   0.0000   0.0000   0.0000
     0.0000   0.0000   0.0000   0.0000   0.0000   0.0000   0.0000   0.0000
     0.0000   0.0000   0.0000   0.0000   0.0000   0.0000   0.0000   0.0000
     0.0000   0.0000   0.0000   0.0000   0.0000   0.0000   0.0000   0.0000
     0.0000   0.0000   0.0000   0.0000   0.0000   0.0000   0.0000   0.0000
     0.0000   0.0000   0.0000   0.0000   0.0000   0.0000   0.0000   0.0000
     0.0000   0.0000   0.0000   0.0000   0.0000   0.0000   0.0000   0.0000
     0.0000   0.0000   0.0000   0.0000   0.0000   0.0000   0.0000   0.0000
     0.0000   0.0000   0.0000   0.0000   0.0000   0.0000   0.0000   0.0000
     0.0000   0.0000   0.0000   0.0000   0.0000   0.0000   0.0000   0.0000
     0.0000   0.0000   0.0000   0.0000   0.0000   0.0000   0.0000   0.0000
     0.0000   0.0000   0.0000   0.0000   0.0000   0.0000   0.0000   0.0000
     0.0000   0.0000   0.0000   0.0000   0.0000   0.0000   0.0000   0.0000
     0.0000   0.0000   0.0000   0.0000   0.0000   0.0000   0.0000   0.0000
     0.0000   0.0000   0.0000   0.0000   0.0000   0.0000   0.0000   0.0000
     0.0000   0.0000   0.0000   0.0000   0.0000   0.0000   0.0000   0.0000
     0.0000   0.0000   0.0000   0.0000   0.0000   0.0000   0.0000   0.0000

[...]

          k = 0.3333-0.3402-0.0766 (  4686 PWs)   bands (ev):

   -46.4804 -46.4804 -46.3559 -22.8250 -22.8247 -22.8023 -22.8023 -22.7969
   -22.7969 -22.7074 -22.6577 -22.6341 -12.8945 -12.8474 -12.6929 -12.6775
   -12.6624 -12.6582 -12.6540 -12.6499 -12.6475 -12.6413 -12.3189 -12.3120
   -12.3032 -12.2986 -12.2318 -12.2277 -12.2143 -12.2130 -12.1940 -12.1919
    -8.1462  -7.4796  -7.4496  -7.3385  -6.7435  -6.7392  -6.6799  -6.4684
    -6.3694  -6.3159  -6.2058  -6.1153  -0.5817   0.2359   0.4062   0.4966
     4.4580   4.9018   4.9435   5.2176   5.3665   5.4155   5.6135   5.7126
     5.9380   6.0216   6.2794   6.3191   6.4130   6.5413   6.6472   6.7203
     6.8474   7.2289   7.4120   7.5346   7.6523   7.7278   7.8769   8.0669
     8.2674   8.3422   8.3841   8.7036   8.8056   8.8332   8.8715   9.1986
     9.2081   9.4211   9.4297   9.9491  12.5721  12.9425  13.0274  13.2330
    13.3372  13.4064  13.4886  13.6686  13.7089  14.0743  14.2608  14.4686
    14.5730  14.7401  14.9721  15.1994  15.2642  15.3625  15.5709  15.7460
    15.8202  15.8619  16.0859  16.7974  16.8540  16.9964  17.8164  20.3199
    20.3682  21.2219  21.2480  21.3353  21.7531  21.9989  22.3190  22.5497
    22.9894  23.1096  23.3832  23.9299  24.0905  24.3822  24.5180  24.6085
    24.8793  25.1796  25.2670  25.4421  25.6163  25.6876  25.8533  26.0033
    26.1835  26.6075  26.9782  27.1027  27.3843  27.6681  27.7783  28.0055
    28.1285  28.4647  28.6531  28.9265  29.0827  29.2787  29.5207  29.7294
    29.9377  30.1926  30.5372  30.6097  30.7299  31.0918  31.4085  31.5253
    31.6296  31.8423  31.9739  32.0975  32.2749  32.5381  32.6112  32.7264
    32.7855  33.0978  33.2317  33.5040  33.6396  33.8857  33.9674  34.1073
    34.2608  34.4233  34.5917  34.9801  35.1629  35.3917  35.4306  35.8138
    36.0222  36.1252  36.1363  36.2200  36.5952  36.6139  36.6879  36.7361
    36.9737  37.0765  37.2513  37.4048  37.5089  37.5706  37.7063  37.7557
    38.1033  38.3691  38.5834  38.5918  38.8691  38.9701  39.0673  39.0914
    39.6342  39.7471  39.8319  40.0191  40.0869  40.4266  40.6641  40.9194
    40.9614  41.2521  41.3049  41.5883  41.8478  42.0777  42.1770  42.2465
    42.4877  42.5659  42.9660  43.0276  43.1719  43.4381  43.4772  43.8498
    43.9164  44.0284  44.3763  44.5985  44.9536  44.9791  45.1532  45.3664
    45.4169  45.5895  45.6637  45.8952  46.1354  46.1741  46.2495  46.2913
    46.4037  46.6294  46.8499  46.9434  47.2686  47.3842  47.4641  47.5567

     occupation numbers
     1.0000   1.0000   1.0000   1.0000   1.0000   1.0000   1.0000   1.0000
     1.0000   1.0000   1.0000   1.0000   1.0000   1.0000   1.0000   1.0000
     1.0000   1.0000   1.0000   1.0000   1.0000   1.0000   1.0000   1.0000
     1.0000   1.0000   1.0000   1.0000   1.0000   1.0000   1.0000   1.0000
     1.0000   1.0000   1.0000   1.0000   1.0000   1.0000   1.0000   1.0000
     1.0000   1.0000   1.0000   1.0000   1.0000   1.0000   1.0000   1.0000
     1.0000   1.0000   1.0000   1.0000   1.0000   1.0000   1.0000   1.0000
     1.0000   1.0000   1.0000   1.0000   1.0000   1.0000   1.0000   1.0000
     1.0000   1.0000   1.0000   1.0000   1.0000   1.0000   1.0000   1.0000
     1.0000   1.0000   1.0000   1.0000   1.0000   1.0000   1.0000   1.0000
     1.0000   1.0000   1.0000   1.0000   0.0000   0.0000   0.0000   0.0000
     0.0000   0.0000   0.0000   0.0000   0.0000   0.0000   0.0000   0.0000
     0.0000   0.0000   0.0000   0.0000   0.0000   0.0000   0.0000   0.0000
     0.0000   0.0000   0.0000   0.0000   0.0000   0.0000   0.0000   0.0000
     0.0000   0.0000   0.0000   0.0000   0.0000   0.0000   0.0000   0.0000
     0.0000   0.0000   0.0000   0.0000   0.0000   0.0000   0.0000   0.0000
     0.0000   0.0000   0.0000   0.0000   0.0000   0.0000   0.0000   0.0000
     0.0000   0.0000   0.0000   0.0000   0.0000   0.0000   0.0000   0.0000
     0.0000   0.0000   0.0000   0.0000   0.0000   0.0000   0.0000   0.0000
     0.0000   0.0000   0.0000   0.0000   0.0000   0.0000   0.0000   0.0000
     0.0000   0.0000   0.0000   0.0000   0.0000   0.0000   0.0000   0.0000
     0.0000   0.0000   0.0000   0.0000   0.0000   0.0000   0.0000   0.0000
     0.0000   0.0000   0.0000   0.0000   0.0000   0.0000   0.0000   0.0000
     0.0000   0.0000   0.0000   0.0000   0.0000   0.0000   0.0000   0.0000
     0.0000   0.0000   0.0000   0.0000   0.0000   0.0000   0.0000   0.0000
     0.0000   0.0000   0.0000   0.0000   0.0000   0.0000   0.0000   0.0000
     0.0000   0.0000   0.0000   0.0000   0.0000   0.0000   0.0000   0.0000
     0.0000   0.0000   0.0000   0.0000   0.0000   0.0000   0.0000   0.0000
     0.0000   0.0000   0.0000   0.0000   0.0000   0.0000   0.0000   0.0000
     0.0000   0.0000   0.0000   0.0000   0.0000   0.0000   0.0000   0.0000
     0.0000   0.0000   0.0000   0.0000   0.0000   0.0000   0.0000   0.0000
     0.0000   0.0000   0.0000   0.0000   0.0000   0.0000   0.0000   0.0000

     highest occupied, lowest unoccupied level (ev):    10.0287   11.8839

!    total energy              =   -1599.24973900 Ry
     estimated scf accuracy    <       0.00000040 Ry

     The total energy is the sum of the following terms:
     one-electron contribution =    -437.72726962 Ry
     hartree contribution      =     326.87288544 Ry
     xc contribution           =    -401.87666354 Ry
     ewald contribution        =    -972.19404771 Ry
     one-center paw contrib.   =    -114.32464356 Ry
      -> PAW hartree energy AE =       0.00000000 Ry
      -> PAW hartree energy PS =       0.00000000 Ry
      -> PAW xc energy AE      =       0.00000000 Ry
      -> PAW xc energy PS      =       0.00000000 Ry
      -> total E_H with PAW    =     326.87288544 Ry
      -> total E_XC with PAW   =    -401.87666354 Ry

     convergence has been achieved in  17 iterations

     Writing all to output data dir bands_nm/myprefix.save/

     General routines

     Parallel routines

     PAW routines

   This run was terminated on:   1:36:33  17Jul2023

   JOB DONE.