     Program PWSCF v.7.1 starts on 15Jul2023 at 18:41:32

     Reading input from espresso_6799.pwi
Warning: card &CELL ignored
Warning: card / ignored

     Current dimensions of program PWSCF are:
     Max number of different atomic species (ntypx) = 10
     Max number of k-points (npk) =  40000
     Max angular momentum in pseudopotentials (lmaxx) =  4
     file K.pbe-spn-kjpaw_psl.1.0.0.UPF: wavefunction(s)  3S renormalized
     Message from routine setup:
     using ibrav=0 with symmetry is DISCOURAGED, use correct ibrav instead

     K-points division:     npool     =       2
     R & G space division:  proc/nbgrp/npool/nimage =       4
     Subspace diagonalization in iterative solution of the eigenvalue problem:
     one sub-group per band group will be used

     Using Slab Decomposition

     bravais-lattice index     =            0
     lattice parameter (alat)  =      14.4252  a.u.
     unit-cell volume          =    3347.6569 (a.u.)^3
     number of atoms/cell      =           14
     number of atomic types    =            3
     number of electrons       =       132.00
     number of Kohn-Sham states=          256
     kinetic-energy cutoff     =      30.0000  Ry
     charge density cutoff     =     240.0000  Ry
     scf convergence threshold =      1.0E-06
     mixing beta               =       0.7000
     number of iterations used =            8  plain     mixing
     Exchange-correlation=  SLA  PW   PBX  PBC
                           (   1   4   3   4   0   0   0)

     celldm(1)=  14.425185  celldm(2)=   0.000000  celldm(3)=   0.000000
     celldm(4)=   0.000000  celldm(5)=   0.000000  celldm(6)=   0.000000

     crystal axes: (cart. coord. in units of alat)
               a(1) = (   1.000000   0.000000   0.000000 )
               a(2) = (   0.000000   0.964673   0.000000 )
               a(3) = (   0.000000   0.395161   1.156103 )

     reciprocal axes: (cart. coord. in units 2 pi/alat)
               b(1) = (  1.000000  0.000000  0.000000 )
               b(2) = (  0.000000  1.036621 -0.354322 )
               b(3) = (  0.000000  0.000000  0.864975 )

     PseudoPot. # 1 for K  read from file:
     /lustre07/scratch/pragov/crystal_structure_design/utils/SSSP/K.pbe-spn-kjpaw_psl.1.0.0.UPF
     MD5 check sum: 7d58810084cac21f60fbe77ea2b688fd
     Pseudo is Projector augmented-wave + core cor, Zval =  9.0
     Generated using "atomic" code by A. Dal Corso  v.5.1
     Shape of augmentation charge: PSQ
     Using radial grid of 1165 points,  6 beta functions with:
                l(1) =   0
                l(2) =   0
                l(3) =   1
                l(4) =   1
                l(5) =   2
                l(6) =   2
     Q(r) pseudized with 0 coefficients

     PseudoPot. # 2 for Zn read from file:
     /lustre07/scratch/pragov/crystal_structure_design/utils/SSSP/Zn_pbe_v1.uspp.F.UPF
     MD5 check sum: df62231357ef9e81f77b2b3087fa5675
     Pseudo is Ultrasoft, Zval = 20.0
     Generated by new atomic code, or converted to UPF format
     Using radial grid of  943 points,  6 beta functions with:
                l(1) =   0
                l(2) =   0
                l(3) =   1
                l(4) =   1
                l(5) =   2
                l(6) =   2
     Q(r) pseudized with  8 coefficients,  rinner =    1.100   1.100   1.100
                                                       1.100   1.100

     PseudoPot. # 3 for Br read from file:
     /lustre07/scratch/pragov/crystal_structure_design/utils/SSSP/br_pbe_v1.4.uspp.F.UPF
     MD5 check sum: d3ffb7b29f6225aa16fe06858fb2a80b
     Pseudo is Ultrasoft + core correction, Zval =  7.0
     Generated by new atomic code, or converted to UPF format
     Using radial grid of  879 points,  6 beta functions with:
                l(1) =   0
                l(2) =   0
                l(3) =   1
                l(4) =   1
                l(5) =   2
                l(6) =   2
     Q(r) pseudized with  8 coefficients,  rinner =    1.100   1.100   1.100
                                                       1.100   1.100

     atomic species   valence    mass     pseudopotential
        K              9.00    39.09830     K ( 1.00)
        Zn            20.00    65.38000     Zn( 1.00)
        Br             7.00    79.90400     Br( 1.00)

      4 Sym. Ops., with inversion, found ( 2 have fractional translation)

                                    s                        frac. trans.

      isym =  1     identity

 cryst.   s( 1) = (     1          0          0      )
                  (     0          1          0      )
                  (     0          0          1      )

 cart.    s( 1) = (  1.0000000  0.0000000  0.0000000 )
                  (  0.0000000  1.0000000 -0.0000000 )
                  (  0.0000000  0.0000000  1.0000000 )

      isym =  2     180 deg rotation - cart. axis [1,0,0]

 cryst.   s( 2) = (     1          0          0      )    f =( -0.5000000 )
                  (     0         -1          0      )       ( -0.0000000 )
                  (     0          0         -1      )       (  0.0000000 )

 cart.    s( 2) = (  1.0000000  0.0000000  0.0000000 )    f =( -0.5000000 )
                  (  0.0000000 -1.0000000  0.0000000 )       (  0.0000000 )
                  (  0.0000000  0.0000000 -1.0000000 )       (  0.0000000 )

      isym =  3     inversion

 cryst.   s( 3) = (    -1          0          0      )
                  (     0         -1          0      )
                  (     0          0         -1      )

 cart.    s( 3) = ( -1.0000000  0.0000000  0.0000000 )
                  (  0.0000000 -1.0000000  0.0000000 )
                  (  0.0000000  0.0000000 -1.0000000 )

      isym =  4     inv. 180 deg rotation - cart. axis [1,0,0]

 cryst.   s( 4) = (    -1          0          0      )    f =( -0.5000000 )
                  (     0          1          0      )       (  0.0000000 )
                  (     0          0          1      )       (  0.0000000 )

 cart.    s( 4) = ( -1.0000000  0.0000000  0.0000000 )    f =( -0.5000000 )
                  (  0.0000000  1.0000000 -0.0000000 )       (  0.0000000 )
                  (  0.0000000  0.0000000  1.0000000 )       (  0.0000000 )

   Cartesian axes

     site n.     atom                  positions (alat units)
         1           K   tau(   1) = (   0.7500000   0.4404608   0.6637016  )
         2           K   tau(   2) = (   0.2500000   0.9193734   0.4924018  )
         3           K   tau(   3) = (   0.7500000   0.3015846   0.0516165  )
         4           K   tau(   4) = (   0.2500000   1.0582496   1.1044868  )
         5           Zn  tau(   5) = (   0.7500000   0.7741413   0.2383087  )
         6           Zn  tau(   6) = (   0.2500000   0.5856929   0.9177946  )
         7           Br  tau(   7) = (   0.7500000   1.2311282   1.0811960  )
         8           Br  tau(   8) = (   0.2500000   0.1287060   0.0749074  )
         9           Br  tau(   9) = (   0.7500000   1.0358980   0.4194251  )
        10           Br  tau(  10) = (   0.2500000   0.3239362   0.7366783  )
        11           Br  tau(  11) = (   0.0007900   0.5873746   0.3079848  )
        12           Br  tau(  12) = (   0.5007900   0.7724597   0.8481186  )
        13           Br  tau(  13) = (   0.9992100   0.7724597   0.8481186  )
        14           Br  tau(  14) = (   0.4992100   0.5873746   0.3079848  )

   Crystallographic axes

     site n.     atom                  positions (cryst. coord.)
         1           K   tau(   1) = (  0.7500000  0.2214270  0.5740850  )
         2           K   tau(   2) = (  0.2500000  0.7785730  0.4259150  )
         3           K   tau(   3) = (  0.7500000  0.2943400  0.0446470  )
         4           K   tau(   4) = (  0.2500000  0.7056600  0.9553530  )
         5           Zn  tau(   5) = (  0.7500000  0.7180530  0.2061310  )
         6           Zn  tau(   6) = (  0.2500000  0.2819470  0.7938690  )
         7           Br  tau(   7) = (  0.7500000  0.8931220  0.9352070  )
         8           Br  tau(   8) = (  0.2500000  0.1068780  0.0647930  )
         9           Br  tau(   9) = (  0.7500000  0.9252220  0.3627920  )
        10           Br  tau(  10) = (  0.2500000  0.0747780  0.6372080  )
        11           Br  tau(  11) = (  0.0007900  0.4997590  0.2663990  )
        12           Br  tau(  12) = (  0.5007900  0.5002410  0.7336010  )
        13           Br  tau(  13) = (  0.9992100  0.5002410  0.7336010  )
        14           Br  tau(  14) = (  0.4992100  0.4997590  0.2663990  )

     number of k points=    10
                       cart. coord. in units 2pi/alat
        k(    1) = (   0.0000000   0.0000000   0.0000000), wk =   0.0740741
        k(    2) = (   0.0000000   0.0000000   0.2883248), wk =   0.1481481
        k(    3) = (   0.0000000   0.3455402  -0.1181072), wk =   0.1481481
        k(    4) = (   0.0000000   0.3455402   0.1702177), wk =   0.1481481
        k(    5) = (   0.0000000   0.3455402  -0.4064320), wk =   0.1481481
        k(    6) = (   0.3333333   0.0000000   0.0000000), wk =   0.1481481
        k(    7) = (   0.3333333   0.0000000   0.2883248), wk =   0.2962963
        k(    8) = (   0.3333333   0.3455402  -0.1181072), wk =   0.2962963
        k(    9) = (   0.3333333   0.3455402   0.1702177), wk =   0.2962963
        k(   10) = (   0.3333333   0.3455402  -0.4064320), wk =   0.2962963

                       cryst. coord.
        k(    1) = (   0.0000000   0.0000000   0.0000000), wk =   0.0740741
        k(    2) = (   0.0000000   0.0000000   0.3333333), wk =   0.1481481
        k(    3) = (   0.0000000   0.3333333  -0.0000000), wk =   0.1481481
        k(    4) = (   0.0000000   0.3333333   0.3333333), wk =   0.1481481
        k(    5) = (   0.0000000   0.3333333  -0.3333333), wk =   0.1481481
        k(    6) = (   0.3333333   0.0000000   0.0000000), wk =   0.1481481
        k(    7) = (   0.3333333   0.0000000   0.3333333), wk =   0.2962963
        k(    8) = (   0.3333333   0.3333333  -0.0000000), wk =   0.2962963
        k(    9) = (   0.3333333   0.3333333   0.3333333), wk =   0.2962963
        k(   10) = (   0.3333333   0.3333333  -0.3333333), wk =   0.2962963

     Check: negative core charge=   -0.000002

     Initial potential from superposition of free atoms

     starting charge     131.9242, renormalised to     132.0000
     Starting wfcs are   90 randomized atomic wfcs +  166 random wfcs
     Checking if some PAW data can be deallocated...

     Self-consistent Calculation

     iteration #  1     ecut=    30.00 Ry     beta= 0.70
     Davidson diagonalization with overlap

     ethr =  1.00E-02,  avg # of iterations =  8.2

     Threshold (ethr) on eigenvalues was too large:
     Diagonalizing with lowered threshold

     Davidson diagonalization with overlap

[...]

     total energy              =   -1751.08522713 Ry
     estimated scf accuracy    <       0.42648462 Ry

[...]

     total energy              =   -1751.26708587 Ry
     estimated scf accuracy    <       0.00000543 Ry

     iteration #  7     ecut=    30.00 Ry     beta= 0.70
     Davidson diagonalization with overlap

     ethr =  4.12E-09,  avg # of iterations =  2.0

     End of self-consistent calculation

          k = 0.0000 0.0000 0.0000 (  9311 PWs)   bands (ev):

  -122.9023-122.9018 -77.0197 -77.0190 -77.0175 -77.0171 -77.0169 -77.0130
   -27.2172 -27.2169 -26.9755 -26.9743 -11.8925 -11.8738 -11.6374 -11.6207
   -11.5975 -11.5362 -11.5314 -11.5124 -10.6951 -10.6883 -10.6851 -10.6699
   -10.6676 -10.6525 -10.4605 -10.4584 -10.4565 -10.4426 -10.4175 -10.3924
    -3.9261  -3.9213  -3.9197  -3.9103  -3.9058  -3.9039  -3.8339  -3.8263
    -3.8230  -3.8189  -2.3208  -2.3138  -0.7546  -0.6841  -0.5089  -0.3234
    -0.2112  -0.1109  -0.0248   0.2085   0.3949   0.4609   0.4673   0.6053
     0.6377   0.6547   0.7857   0.8600   0.9038   0.9983   1.0067   1.0972
     1.1551   1.3065   4.9541   6.0852   6.9784   7.3627   7.5392   7.6717
     7.7895   8.0268   8.0896   8.2926   8.4733   8.6819   8.9378   8.9928
     9.0145   9.1771   9.4629   9.4669   9.6863   9.7059   9.7978   9.9204
     9.9506  10.0291  10.1690  10.2728  10.4293  10.5718  10.5935  10.7730
    10.8599  10.8869  10.9038  11.0255  11.0516  11.1877  11.4007  11.5793
    11.7237  11.7631  11.8321  11.9525  12.1262  12.2251  12.6124  12.6499
    12.7118  12.9009  12.9058  13.0037  13.0768  13.8524  13.9807  14.1767
    14.4782  14.5723  14.5880  14.6450  14.7897  14.8693  14.8910  14.9665
    15.2815  15.5255  15.5322  15.6651  15.7959  15.8038  15.9289  16.0631
    16.2679  16.2887  16.5413  16.5940  16.6652  16.8175  16.9985  17.0891
    17.2544  17.3759  17.6961  17.7595  17.8050  18.1898  18.1974  18.2242
    18.2389  18.2746  18.5454  18.5637  18.7983  18.9926  19.2351  19.3739
    19.6132  19.6723  19.7235  19.7856  19.9595  20.0817  20.2589  20.3908
    20.4067  20.4223  20.6177  20.8617  20.9665  21.0117  21.1394  21.3847
    21.4647  21.5195  21.6306  21.6336  21.7924  21.9884  22.0192  22.0855
    22.3054  22.6034  22.6078  23.1516  23.2948  23.3246  23.4094  23.4572
    23.7688  23.8741  24.0017  24.0913  24.2355  24.2468  24.4102  24.4703
    24.4774  24.5779  24.6807  24.7003  24.7854  24.8462  24.9729  25.2563
    25.2679  25.3719  25.3997  25.6722  25.6912  25.7260  25.8938  25.9109
    26.1030  26.2609  26.3036  26.4802  26.4892  26.4942  26.5697  26.6356
    26.6537  26.7502  26.9305  27.0635  27.1441  27.1591  27.3868  27.5295
    27.6526  27.6985  27.6986  27.8457  27.9677  28.0691  28.2028  28.2399
    28.2733  28.3516  28.4147  28.5848  28.7509  29.0090  29.0663  29.1348
    29.1918  29.2643  29.5441  29.5726  29.8343  30.0280  30.1333  30.2269

     occupation numbers
     1.0000   1.0000   1.0000   1.0000   1.0000   1.0000   1.0000   1.0000
     1.0000   1.0000   1.0000   1.0000   1.0000   1.0000   1.0000   1.0000
     1.0000   1.0000   1.0000   1.0000   1.0000   1.0000   1.0000   1.0000
     1.0000   1.0000   1.0000   1.0000   1.0000   1.0000   1.0000   1.0000
     1.0000   1.0000   1.0000   1.0000   1.0000   1.0000   1.0000   1.0000
     1.0000   1.0000   1.0000   1.0000   1.0000   1.0000   1.0000   1.0000
     1.0000   1.0000   1.0000   1.0000   1.0000   1.0000   1.0000   1.0000
     1.0000   1.0000   1.0000   1.0000   1.0000   1.0000   1.0000   1.0000
     1.0000   1.0000   0.0000   0.0000   0.0000   0.0000   0.0000   0.0000
     0.0000   0.0000   0.0000   0.0000   0.0000   0.0000   0.0000   0.0000
     0.0000   0.0000   0.0000   0.0000   0.0000   0.0000   0.0000   0.0000
     0.0000   0.0000   0.0000   0.0000   0.0000   0.0000   0.0000   0.0000
     0.0000   0.0000   0.0000   0.0000   0.0000   0.0000   0.0000   0.0000
     0.0000   0.0000   0.0000   0.0000   0.0000   0.0000   0.0000   0.0000
     0.0000   0.0000   0.0000   0.0000   0.0000   0.0000   0.0000   0.0000
     0.0000   0.0000   0.0000   0.0000   0.0000   0.0000   0.0000   0.0000
     0.0000   0.0000   0.0000   0.0000   0.0000   0.0000   0.0000   0.0000
     0.0000   0.0000   0.0000   0.0000   0.0000   0.0000   0.0000   0.0000
     0.0000   0.0000   0.0000   0.0000   0.0000   0.0000   0.0000   0.0000
     0.0000   0.0000   0.0000   0.0000   0.0000   0.0000   0.0000   0.0000
     0.0000   0.0000   0.0000   0.0000   0.0000   0.0000   0.0000   0.0000
     0.0000   0.0000   0.0000   0.0000   0.0000   0.0000   0.0000   0.0000
     0.0000   0.0000   0.0000   0.0000   0.0000   0.0000   0.0000   0.0000
     0.0000   0.0000   0.0000   0.0000   0.0000   0.0000   0.0000   0.0000
     0.0000   0.0000   0.0000   0.0000   0.0000   0.0000   0.0000   0.0000
     0.0000   0.0000   0.0000   0.0000   0.0000   0.0000   0.0000   0.0000
     0.0000   0.0000   0.0000   0.0000   0.0000   0.0000   0.0000   0.0000
     0.0000   0.0000   0.0000   0.0000   0.0000   0.0000   0.0000   0.0000
     0.0000   0.0000   0.0000   0.0000   0.0000   0.0000   0.0000   0.0000
     0.0000   0.0000   0.0000   0.0000   0.0000   0.0000   0.0000   0.0000
     0.0000   0.0000   0.0000   0.0000   0.0000   0.0000   0.0000   0.0000
     0.0000   0.0000   0.0000   0.0000   0.0000   0.0000   0.0000   0.0000

[...]

          k = 0.3333 0.3455-0.4064 (  9290 PWs)   bands (ev):

  -122.9020-122.9016 -77.0192 -77.0176 -77.0172 -77.0156 -77.0141 -77.0138
   -27.2171 -27.2170 -26.9752 -26.9746 -11.8577 -11.8275 -11.6949 -11.6419
   -11.6046 -11.5994 -11.5086 -11.4962 -10.6932 -10.6891 -10.6787 -10.6676
   -10.6623 -10.6518 -10.4605 -10.4533 -10.4449 -10.4349 -10.4192 -10.4020
    -3.9322  -3.9288  -3.9231  -3.9180  -3.9115  -3.9037  -3.8289  -3.8278
    -3.8208  -3.8192  -2.2105  -2.1604  -0.5613  -0.5171  -0.4764  -0.3805
    -0.3190  -0.1996   0.1480   0.2482   0.2697   0.3612   0.4689   0.5862
     0.6457   0.6636   0.7345   0.7928   0.8196   0.8554   0.8713   0.9291
     0.9856   1.0716   6.1659   6.2585   7.1864   7.4979   7.6212   7.7874
     7.8991   8.0439   8.2403   8.3501   8.4844   8.6718   8.7946   9.0054
     9.0915   9.2055   9.3341   9.3864   9.5003   9.5856   9.7357   9.8508
     9.9125   9.9714  10.0273  10.1255  10.2257  10.3586  10.4028  10.4542
    10.5876  10.7177  10.7828  10.7918  10.8594  11.3430  11.4121  11.5574
    11.6116  11.9434  11.9845  12.1704  12.2173  12.3923  12.5020  12.6287
    12.8245  12.9483  13.0778  13.2342  13.5975  13.6936  13.7611  13.8842
    14.0589  14.1861  14.3303  14.5881  14.6677  14.7329  14.8947  14.9256
    15.1751  15.3044  15.5199  15.7046  15.7907  15.8790  16.1014  16.2475
    16.3645  16.4883  16.5853  16.7273  16.9326  17.0402  17.2497  17.3912
    17.5205  17.7068  17.8629  17.9800  17.9988  18.2856  18.3079  18.4421
    18.5870  18.6213  18.6700  18.9108  19.0443  19.0516  19.3147  19.3676
    19.4011  19.4984  19.6534  19.7802  19.8718  19.9282  20.1441  20.2568
    20.3664  20.5736  20.7796  20.8015  20.9347  21.0044  21.0692  21.3026
    21.3712  21.4815  21.6178  21.7037  21.8696  21.9122  22.1852  22.2472
    22.3237  22.5104  22.6828  22.8184  22.9480  22.9901  23.1542  23.1838
    23.2415  23.3163  23.4710  23.5156  23.7074  23.8361  23.9470  24.0158
    24.1216  24.2203  24.3595  24.4065  24.4380  24.7327  24.7856  24.8283
    25.0926  25.2126  25.3239  25.4696  25.6457  25.7010  25.7923  25.8598
    25.9984  26.0678  26.1097  26.3519  26.4759  26.5714  26.6240  26.6378
    26.8172  27.0485  27.1359  27.3379  27.4019  27.5421  27.7239  27.8029
    27.8567  27.9863  28.1555  28.2589  28.3549  28.4010  28.5348  28.6291
    28.7558  28.7916  28.8738  29.0132  29.0797  29.3140  29.4397  29.6218
    29.7051  29.7423  29.9143  29.9644  30.0544  30.1916  30.2420  30.3988

     occupation numbers
     1.0000   1.0000   1.0000   1.0000   1.0000   1.0000   1.0000   1.0000
     1.0000   1.0000   1.0000   1.0000   1.0000   1.0000   1.0000   1.0000
     1.0000   1.0000   1.0000   1.0000   1.0000   1.0000   1.0000   1.0000
     1.0000   1.0000   1.0000   1.0000   1.0000   1.0000   1.0000   1.0000
     1.0000   1.0000   1.0000   1.0000   1.0000   1.0000   1.0000   1.0000
     1.0000   1.0000   1.0000   1.0000   1.0000   1.0000   1.0000   1.0000
     1.0000   1.0000   1.0000   1.0000   1.0000   1.0000   1.0000   1.0000
     1.0000   1.0000   1.0000   1.0000   1.0000   1.0000   1.0000   1.0000
     1.0000   1.0000   0.0000   0.0000   0.0000   0.0000   0.0000   0.0000
     0.0000   0.0000   0.0000   0.0000   0.0000   0.0000   0.0000   0.0000
     0.0000   0.0000   0.0000   0.0000   0.0000   0.0000   0.0000   0.0000
     0.0000   0.0000   0.0000   0.0000   0.0000   0.0000   0.0000   0.0000
     0.0000   0.0000   0.0000   0.0000   0.0000   0.0000   0.0000   0.0000
     0.0000   0.0000   0.0000   0.0000   0.0000   0.0000   0.0000   0.0000
     0.0000   0.0000   0.0000   0.0000   0.0000   0.0000   0.0000   0.0000
     0.0000   0.0000   0.0000   0.0000   0.0000   0.0000   0.0000   0.0000
     0.0000   0.0000   0.0000   0.0000   0.0000   0.0000   0.0000   0.0000
     0.0000   0.0000   0.0000   0.0000   0.0000   0.0000   0.0000   0.0000
     0.0000   0.0000   0.0000   0.0000   0.0000   0.0000   0.0000   0.0000
     0.0000   0.0000   0.0000   0.0000   0.0000   0.0000   0.0000   0.0000
     0.0000   0.0000   0.0000   0.0000   0.0000   0.0000   0.0000   0.0000
     0.0000   0.0000   0.0000   0.0000   0.0000   0.0000   0.0000   0.0000
     0.0000   0.0000   0.0000   0.0000   0.0000   0.0000   0.0000   0.0000
     0.0000   0.0000   0.0000   0.0000   0.0000   0.0000   0.0000   0.0000
     0.0000   0.0000   0.0000   0.0000   0.0000   0.0000   0.0000   0.0000
     0.0000   0.0000   0.0000   0.0000   0.0000   0.0000   0.0000   0.0000
     0.0000   0.0000   0.0000   0.0000   0.0000   0.0000   0.0000   0.0000
     0.0000   0.0000   0.0000   0.0000   0.0000   0.0000   0.0000   0.0000
     0.0000   0.0000   0.0000   0.0000   0.0000   0.0000   0.0000   0.0000
     0.0000   0.0000   0.0000   0.0000   0.0000   0.0000   0.0000   0.0000
     0.0000   0.0000   0.0000   0.0000   0.0000   0.0000   0.0000   0.0000
     0.0000   0.0000   0.0000   0.0000   0.0000   0.0000   0.0000   0.0000

     highest occupied, lowest unoccupied level (ev):     1.3065    4.9541

!    total energy              =   -1751.26708737 Ry
     estimated scf accuracy    <       0.00000049 Ry

     The total energy is the sum of the following terms:
     one-electron contribution =   -1328.42717315 Ry
     hartree contribution      =     697.54455999 Ry
     xc contribution           =    -338.76033111 Ry
     ewald contribution        =    -559.95779725 Ry
     one-center paw contrib.   =    -221.66634585 Ry
      -> PAW hartree energy AE =      75.19056710 Ry
      -> PAW hartree energy PS =     -74.77075331 Ry
      -> PAW xc energy AE      =    -132.40807354 Ry
      -> PAW xc energy PS      =      21.15537102 Ry
      -> total E_H with PAW    =     697.96437379 Ry
      -> total E_XC with PAW   =    -450.01303364 Ry

     convergence has been achieved in   7 iterations

     Writing all to output data dir bands_nm/myprefix.save/

     General routines

     Parallel routines

     PAW routines

   This run was terminated on:  18:42:40  15Jul2023

   JOB DONE.