     Program PWSCF v.7.1 starts on 15Jul2023 at 18:58:23

     Reading input from espresso_13796.pwi
Warning: card &CELL ignored
Warning: card / ignored

     Current dimensions of program PWSCF are:
     Max number of different atomic species (ntypx) = 10
     Max number of k-points (npk) =  40000
     Max angular momentum in pseudopotentials (lmaxx) =  4
     file La.paw.z_11.atompaw.wentzcovitch.v1.2.upf: wavefunction(s)  6S 0P 5D 0D 4F 0F renormalized
     file O.pbe-n-kjpaw_psl.0.1.UPF: wavefunction(s)  2P renormalized
     Message from routine setup:
     using ibrav=0 with symmetry is DISCOURAGED, use correct ibrav instead

     K-points division:     npool     =       2
     R & G space division:  proc/nbgrp/npool/nimage =       4
     Subspace diagonalization in iterative solution of the eigenvalue problem:
     one sub-group per band group will be used

     Using Slab Decomposition

     bravais-lattice index     =            0
     lattice parameter (alat)  =      10.9509  a.u.
     unit-cell volume          =    1716.1132 (a.u.)^3
     number of atoms/cell      =           20
     number of atomic types    =            4
     number of electrons       =       154.00
     number of Kohn-Sham states=          256
     kinetic-energy cutoff     =      30.0000  Ry
     charge density cutoff     =     240.0000  Ry
     scf convergence threshold =      1.0E-06
     mixing beta               =       0.7000
     number of iterations used =            8  plain     mixing
     Exchange-correlation= SLA  PW   PBX  PBC
                           (   1   4   3   4   0   0   0)

     celldm(1)=  10.950878  celldm(2)=   0.000000  celldm(3)=   0.000000
     celldm(4)=   0.000000  celldm(5)=   0.000000  celldm(6)=   0.000000

     crystal axes: (cart. coord. in units of alat)
               a(1) = (   1.000000   0.000000   0.000000 )
               a(2) = (   0.000000   0.960612   0.000000 )
               a(3) = (   0.000000   0.956435   1.360351 )

     reciprocal axes: (cart. coord. in units 2 pi/alat)
               b(1) = (  1.000000  0.000000  0.000000 )
               b(2) = (  0.000000  1.041003 -0.731908 )
               b(3) = (  0.000000  0.000000  0.735104 )

     PseudoPot. # 1 for Li read from file:
     /lustre07/scratch/pragov/crystal_structure_design/utils/SSSP/li_pbe_v1.4.uspp.F.UPF
     MD5 check sum: e912e257baa3777c20ea3d68f190483c
     Pseudo is Ultrasoft, Zval =  3.0
     Generated by new atomic code, or converted to UPF format
     Using radial grid of  751 points,  5 beta functions with:
                l(1) =   0
                l(2) =   0
                l(3) =   0
                l(4) =   1
                l(5) =   1
     Q(r) pseudized with 10 coefficients,  rinner =    1.150   1.150   1.150

     PseudoPot. # 2 for La read from file:
     /lustre07/scratch/pragov/crystal_structure_design/utils/SSSP/La.paw.z_11.atompaw.wentzcovitch.v1.2.upf
     MD5 check sum: 754494e15ae71f30e5b5f678af019e01
     Pseudo is Projector augmented-wave + core cor, Zval = 11.0
     Generated using ATOMPAW code
     Shape of augmentation charge: BESSEL
     Using radial grid of 1101 points,  8 beta functions with:
                l(1) =   0
                l(2) =   0
                l(3) =   1
                l(4) =   1
                l(5) =   2
                l(6) =   2
                l(7) =   3
                l(8) =   3
     Q(r) pseudized with 0 coefficients

     PseudoPot. # 3 for Ru read from file:
     /lustre07/scratch/pragov/crystal_structure_design/utils/SSSP/Ru_ONCV_PBE-1.0.oncvpsp.upf
     MD5 check sum: be037bb81c227cfb9b1461a9f099f4bd
     Pseudo is Norm-conserving, Zval = 16.0
     Generated using ONCVPSP code by D. R. Hamann
     Using radial grid of 1458 points,  6 beta functions with:
                l(1) =   0
                l(2) =   0
                l(3) =   1
                l(4) =   1
                l(5) =   2
                l(6) =   2

     PseudoPot. # 4 for O  read from file:
     /lustre07/scratch/pragov/crystal_structure_design/utils/SSSP/O.pbe-n-kjpaw_psl.0.1.UPF
     MD5 check sum: 0234752ac141de4415c5fc33072bef88
     Pseudo is Projector augmented-wave + core cor, Zval =  6.0
     Generated using "atomic" code by A. Dal Corso  v.5.0.99 svn rev. 10869
     Shape of augmentation charge: BESSEL
     Using radial grid of 1095 points,  4 beta functions with:
                l(1) =   0
                l(2) =   0
                l(3) =   1
                l(4) =   1
     Q(r) pseudized with 0 coefficients

     atomic species   valence    mass     pseudopotential
        Li             3.00     6.94000     Li( 1.00)
        La            11.00   138.90547     La( 1.00)
        Ru            16.00   101.07000     Ru( 1.00)
        O              6.00    15.99900     O ( 1.00)

      4 Sym. Ops., with inversion, found ( 2 have fractional translation)

                                    s                        frac. trans.

      isym =  1     identity

 cryst.   s( 1) = (     1          0          0      )
                  (     0          1          0      )
                  (     0          0          1      )

 cart.    s( 1) = (  1.0000000  0.0000000  0.0000000 )
                  (  0.0000000  1.0000000 -0.0000000 )
                  (  0.0000000  0.0000000  1.0000000 )

      isym =  2     180 deg rotation - cart. axis [1,0,0]

 cryst.   s( 2) = (     1          0          0      )    f =( -0.5000000 )
                  (     0         -1          0      )       ( -0.0000000 )
                  (     0          0         -1      )       (  0.5000000 )

 cart.    s( 2) = (  1.0000000  0.0000000  0.0000000 )    f =( -0.5000000 )
                  (  0.0000000 -1.0000000  0.0000000 )       (  0.4782175 )
                  (  0.0000000  0.0000000 -1.0000000 )       (  0.6801755 )

      isym =  3     inversion

 cryst.   s( 3) = (    -1          0          0      )
                  (     0         -1          0      )
                  (     0          0         -1      )

 cart.    s( 3) = ( -1.0000000  0.0000000  0.0000000 )
                  (  0.0000000 -1.0000000  0.0000000 )
                  (  0.0000000  0.0000000 -1.0000000 )

      isym =  4     inv. 180 deg rotation - cart. axis [1,0,0]

 cryst.   s( 4) = (    -1          0          0      )    f =(  0.5000000 )
                  (     0          1          0      )       (  0.0000000 )
                  (     0          0          1      )       ( -0.5000000 )

 cart.    s( 4) = ( -1.0000000  0.0000000  0.0000000 )    f =(  0.5000000 )
                  (  0.0000000  1.0000000 -0.0000000 )       ( -0.4782175 )
                  (  0.0000000  0.0000000  1.0000000 )       ( -0.6801755 )

   Cartesian axes

     site n.     atom                  positions (alat units)
         1           Li  tau(   1) = (   0.0000000   0.4803061   0.0000000  )
         2           Li  tau(   2) = (   0.5000000   0.9585237   0.6801755  )
         3           La  tau(   3) = (   0.5595390   1.4265590   1.0220725  )
         4           La  tau(   4) = (   0.0595390   0.9687058   1.0184540  )
         5           La  tau(   5) = (   0.4404610   0.4904883   0.3382785  )
         6           La  tau(   6) = (   0.9404610   0.9483415   0.3418970  )
         7           Ru  tau(   7) = (   0.5000000   0.0000000   0.0000000  )
         8           Ru  tau(   8) = (   0.0000000   0.4782175   0.6801755  )
         9           O   tau(   9) = (   0.0271810   0.3933678   0.3503775  )
        10           O   tau(  10) = (   0.5271810   1.0454620   0.3297981  )
        11           O   tau(  11) = (   0.9728190   1.5236795   1.0099736  )
        12           O   tau(  12) = (   0.4728190   0.8715853   1.0305530  )
        13           O   tau(  13) = (   0.2850770   1.2588989   0.7470000  )
        14           O   tau(  14) = (   0.7850770   1.1363660   1.2935265  )
        15           O   tau(  15) = (   0.6898320   0.6825894   0.0608635  )
        16           O   tau(  16) = (   0.1898320   0.7562404   0.6193120  )
        17           O   tau(  17) = (   0.3101680   1.2344579   1.2994876  )
        18           O   tau(  18) = (   0.8101680   1.1608069   0.7410390  )
        19           O   tau(  19) = (   0.2149230   0.7806813   0.0668245  )
        20           O   tau(  20) = (   0.7149230   0.6581485   0.6133510  )

   Crystallographic axes

     site n.     atom                  positions (cryst. coord.)
         1           Li  tau(   1) = (  0.0000000  0.5000000  0.0000000  )
         2           Li  tau(   2) = (  0.5000000  0.5000000  0.5000000  )
         3           La  tau(   3) = (  0.5595390  0.7369890  0.7513300  )
         4           La  tau(   4) = (  0.0595390  0.2630110  0.7486700  )
         5           La  tau(   5) = (  0.4404610  0.2630110  0.2486700  )
         6           La  tau(   6) = (  0.9404610  0.7369890  0.2513300  )
         7           Ru  tau(   7) = (  0.5000000  0.0000000  0.0000000  )
         8           Ru  tau(   8) = (  0.0000000  0.0000000  0.5000000  )
         9           O   tau(   9) = (  0.0271810  0.1530530  0.2575640  )
        10           O   tau(  10) = (  0.5271810  0.8469470  0.2424360  )
        11           O   tau(  11) = (  0.9728190  0.8469470  0.7424360  )
        12           O   tau(  12) = (  0.4728190  0.1530530  0.7575640  )
        13           O   tau(  13) = (  0.2850770  0.7637820  0.5491230  )
        14           O   tau(  14) = (  0.7850770  0.2362180  0.9508770  )
        15           O   tau(  15) = (  0.6898320  0.6660310  0.0447410  )
        16           O   tau(  16) = (  0.1898320  0.3339690  0.4552590  )
        17           O   tau(  17) = (  0.3101680  0.3339690  0.9552590  )
        18           O   tau(  18) = (  0.8101680  0.6660310  0.5447410  )
        19           O   tau(  19) = (  0.2149230  0.7637820  0.0491230  )
        20           O   tau(  20) = (  0.7149230  0.2362180  0.4508770  )

     number of k points=    10
                       cart. coord. in units 2pi/alat
        k(    1) = (   0.0000000   0.0000000   0.0000000), wk =   0.0740741
        k(    2) = (   0.0000000   0.0000000   0.2450348), wk =   0.1481481
        k(    3) = (   0.0000000   0.3470009  -0.2439693), wk =   0.1481481
        k(    4) = (   0.0000000   0.3470009   0.0010655), wk =   0.1481481
        k(    5) = (   0.0000000   0.3470009  -0.4890040), wk =   0.1481481
        k(    6) = (   0.3333333   0.0000000   0.0000000), wk =   0.1481481
        k(    7) = (   0.3333333   0.0000000   0.2450348), wk =   0.2962963
        k(    8) = (   0.3333333   0.3470009  -0.2439693), wk =   0.2962963
        k(    9) = (   0.3333333   0.3470009   0.0010655), wk =   0.2962963
        k(   10) = (   0.3333333   0.3470009  -0.4890040), wk =   0.2962963

                       cryst. coord.
        k(    1) = (   0.0000000   0.0000000   0.0000000), wk =   0.0740741
        k(    2) = (   0.0000000   0.0000000   0.3333333), wk =   0.1481481
        k(    3) = (   0.0000000   0.3333333  -0.0000000), wk =   0.1481481
        k(    4) = (   0.0000000   0.3333333   0.3333333), wk =   0.1481481
        k(    5) = (   0.0000000   0.3333333  -0.3333333), wk =   0.1481481
        k(    6) = (   0.3333333   0.0000000   0.0000000), wk =   0.1481481
        k(    7) = (   0.3333333   0.0000000   0.3333333), wk =   0.2962963
        k(    8) = (   0.3333333   0.3333333  -0.0000000), wk =   0.2962963
        k(    9) = (   0.3333333   0.3333333   0.3333333), wk =   0.2962963
        k(   10) = (   0.3333333   0.3333333  -0.3333333), wk =   0.2962963

     Check: negative core charge=   -0.000013

     Initial potential from superposition of free atoms

     starting charge     153.0633, renormalised to     154.0000

     negative rho (up, down):  9.958E-05 0.000E+00
     Starting wfcs are  206 randomized atomic wfcs +   50 random wfcs
     Checking if some PAW data can be deallocated...

     Self-consistent Calculation

     iteration #  1     ecut=    30.00 Ry     beta= 0.70
     Davidson diagonalization with overlap

     ethr =  1.00E-02,  avg # of iterations =  6.2

     negative rho (up, down):  1.383E-03 0.000E+00

     total energy              =   -2736.16260584 Ry
     estimated scf accuracy    <       6.28441099 Ry

[...]

     total energy              =   -2739.97363639 Ry
     estimated scf accuracy    <       0.00000150 Ry

     iteration # 13     ecut=    30.00 Ry     beta= 0.70
     Davidson diagonalization with overlap

     ethr =  9.72E-10,  avg # of iterations =  1.0

     negative rho (up, down):  8.003E-04 0.000E+00

     End of self-consistent calculation

          k = 0.0000 0.0000 0.0000 (  4753 PWs)   bands (ev):

   -63.0453 -63.0453 -33.1092 -33.1091 -33.0526 -33.0525 -32.9901 -32.9901
   -32.9697 -32.9695 -20.1573 -20.1020 -20.0502 -20.0102  -7.8769  -7.3852
    -7.3683  -7.3385  -7.2723  -7.1835  -6.8185  -6.7920  -6.6909  -6.5955
    -6.4817  -6.4183  -3.9583  -3.9293  -3.9099  -3.8467  -3.6714  -3.6420
    -3.5470  -3.3084  -3.2168  -2.8992  -2.8269  -2.6838   5.1023   5.3456
     5.6060   5.8403   5.8575   5.9221   6.0783   6.2445   6.3909   6.4027
     6.5339   6.5879   6.6022   6.9877   6.9947   7.3724   7.3745   7.7054
     7.8838   7.9195   8.1682   8.2575   8.4392   8.5858   8.6198   8.6309
     8.7348   8.7698   8.8613   8.9371   8.9806   9.2039   9.3781   9.3967
     9.4324   9.5123  10.6167  10.9302  11.0577  11.1253  11.1378  11.3225
    14.1211  14.4194  14.4894  14.5723  14.6907  14.7701  14.7712  14.7935
    14.8182  14.8186  14.8202  14.8924  14.9134  14.9248  14.9331  14.9603
    14.9856  15.0057  15.0134  15.0342  15.0545  15.0732  15.0818  15.1135
    15.1368  15.1843  15.1859  15.1876  15.1881  15.1954  15.2351  15.2621
    15.5965  15.6317  15.7868  16.0461  16.2065  16.2304  16.5211  17.0809
    17.3287  17.4889  17.4925  17.6825  17.7868  17.9344  18.1427  18.2574
    18.6300  18.7251  18.7406  18.8102  18.8787  20.5843  20.6725  21.4400
    21.7242  22.2679  23.0790  23.2773  23.5038  23.8835  23.9329  23.9951
    24.1946  24.4483  24.4703  24.8068  24.9695  25.2518  25.5269  25.5274
    25.8262  25.8442  26.1514  26.4179  26.7353  26.8370  27.2197  27.4715
    28.1321  28.4171  28.5138  28.7636  29.2205  29.3470  29.5088  29.6474
    30.0177  30.1426  30.2231  30.7389  30.8027  31.0183  31.1760  31.8855
    31.9473  31.9584  32.0248  32.6068  32.6207  32.9354  33.1855  33.8727
    34.0135  34.0181  34.0922  34.4412  34.4836  34.9653  35.0486  35.2481
    35.3389  35.7835  35.8469  35.9691  36.1047  36.1484  36.2210  36.7073
    36.7882  37.1211  37.1425  37.3533  37.8569  37.8839  38.3141  38.6634
    38.6798  38.7116  38.8802  38.9581  39.0794  39.1792  39.3428  39.6092
    39.8120  40.1082  40.2251  40.2376  40.5416  40.8286  41.0693  41.2092
    41.4171  41.5157  41.9352  42.0110  42.0178  42.3609  42.3668  42.5146
    42.6553  42.8056  43.2510  43.2690  43.3266  43.4307  43.6261  43.6731
    43.8482  44.0070  44.0412  44.3925  44.4749  44.5690  44.6080  44.8571
    45.0475  45.1381  45.2126  45.3508  45.3684  46.0167  46.0542  46.2912

     occupation numbers
     1.0000   1.0000   1.0000   1.0000   1.0000   1.0000   1.0000   1.0000
     1.0000   1.0000   1.0000   1.0000   1.0000   1.0000   1.0000   1.0000
     1.0000   1.0000   1.0000   1.0000   1.0000   1.0000   1.0000   1.0000
     1.0000   1.0000   1.0000   1.0000   1.0000   1.0000   1.0000   1.0000
     1.0000   1.0000   1.0000   1.0000   1.0000   1.0000   1.0000   1.0000
     1.0000   1.0000   1.0000   1.0000   1.0000   1.0000   1.0000   1.0000
     1.0000   1.0000   1.0000   1.0000   1.0000   1.0000   1.0000   1.0000
     1.0000   1.0000   1.0000   1.0000   1.0000   1.0000   1.0000   1.0000
     1.0000   1.0000   1.0000   1.0000   1.0000   1.0000   1.0000   1.0000
     1.0000   1.0000   1.0000   1.0000   1.0000   0.0000   0.0000   0.0000
     0.0000   0.0000   0.0000   0.0000   0.0000   0.0000   0.0000   0.0000
     0.0000   0.0000   0.0000   0.0000   0.0000   0.0000   0.0000   0.0000
     0.0000   0.0000   0.0000   0.0000   0.0000   0.0000   0.0000   0.0000
     0.0000   0.0000   0.0000   0.0000   0.0000   0.0000   0.0000   0.0000
     0.0000   0.0000   0.0000   0.0000   0.0000   0.0000   0.0000   0.0000
     0.0000   0.0000   0.0000   0.0000   0.0000   0.0000   0.0000   0.0000
     0.0000   0.0000   0.0000   0.0000   0.0000   0.0000   0.0000   0.0000
     0.0000   0.0000   0.0000   0.0000   0.0000   0.0000   0.0000   0.0000
     0.0000   0.0000   0.0000   0.0000   0.0000   0.0000   0.0000   0.0000
     0.0000   0.0000   0.0000   0.0000   0.0000   0.0000   0.0000   0.0000
     0.0000   0.0000   0.0000   0.0000   0.0000   0.0000   0.0000   0.0000
     0.0000   0.0000   0.0000   0.0000   0.0000   0.0000   0.0000   0.0000
     0.0000   0.0000   0.0000   0.0000   0.0000   0.0000   0.0000   0.0000
     0.0000   0.0000   0.0000   0.0000   0.0000   0.0000   0.0000   0.0000
     0.0000   0.0000   0.0000   0.0000   0.0000   0.0000   0.0000   0.0000
     0.0000   0.0000   0.0000   0.0000   0.0000   0.0000   0.0000   0.0000
     0.0000   0.0000   0.0000   0.0000   0.0000   0.0000   0.0000   0.0000
     0.0000   0.0000   0.0000   0.0000   0.0000   0.0000   0.0000   0.0000
     0.0000   0.0000   0.0000   0.0000   0.0000   0.0000   0.0000   0.0000
     0.0000   0.0000   0.0000   0.0000   0.0000   0.0000   0.0000   0.0000
     0.0000   0.0000   0.0000   0.0000   0.0000   0.0000   0.0000   0.0000
     0.0000   0.0000   0.0000   0.0000   0.0000   0.0000   0.0000   0.0000

[...]

          k = 0.3333 0.3470-0.4890 (  4766 PWs)   bands (ev):

   -63.0453 -63.0453 -33.1094 -33.1093 -33.0527 -33.0526 -32.9901 -32.9900
   -32.9699 -32.9698 -20.1027 -20.0837 -20.0721 -20.0551  -7.8594  -7.7807
    -7.4654  -7.4136  -7.1472  -6.9911  -6.8361  -6.7477  -6.6926  -6.6522
    -6.6001  -6.5714  -3.8520  -3.7993  -3.7260  -3.7060  -3.5556  -3.4520
    -3.3089  -3.2176  -3.0364  -2.9948  -2.8786  -2.7806   5.2447   5.3127
     5.5515   5.5822   5.7139   5.7696   5.8956   6.0034   6.0759   6.2177
     6.3604   6.4299   6.9388   7.1086   7.2540   7.2886   7.4752   7.5867
     7.7785   7.9621   8.1252   8.2346   8.2649   8.3452   8.4655   8.5920
     8.6487   8.7236   8.8295   8.9252   9.0539   9.1373   9.1931   9.2321
     9.3490   9.4770  10.8893  10.9349  11.1079  11.1376  11.1821  11.2889
    14.0954  14.1531  14.3515  14.4481  14.7284  14.7637  14.7899  14.8127
    14.8263  14.8463  14.8674  14.8775  14.9028  14.9177  14.9315  14.9467
    14.9690  14.9755  15.0016  15.0103  15.0142  15.0259  15.0472  15.0552
    15.0853  15.0902  15.0928  15.1164  15.1693  15.1729  15.2130  15.2322
    16.1269  16.1943  16.3582  16.5603  16.6834  16.8224  16.8720  16.9506
    17.3610  17.4625  17.4765  17.7873  17.9970  18.2015  18.4059  18.4412
    18.5645  18.6006  18.8480  19.0172  19.4313  20.1705  21.1351  21.3245
    21.8470  22.1235  22.4446  22.7763  23.3465  23.7314  23.8461  24.0974
    24.6537  24.7561  24.9059  25.0323  25.2081  25.2566  25.4135  25.6686
    25.8123  25.8826  25.9847  26.2626  26.8231  26.9388  27.2739  27.3899
    27.6416  27.8488  28.0552  28.3029  28.5216  28.6916  28.7868  28.9549
    29.3555  29.7601  29.8466  30.4929  30.9055  31.0012  31.2173  31.7043
    32.2672  32.4977  32.6592  33.1003  33.1822  33.3903  33.5347  33.6931
    33.7884  34.2984  34.4737  34.6098  34.9108  34.9695  35.1707  35.2566
    35.4969  35.5741  35.9673  36.2134  36.2385  36.3913  36.5942  36.6160
    36.7853  36.9751  37.2148  37.3360  37.3825  37.6793  37.8062  38.0918
    38.2248  38.4926  38.5874  38.7977  38.8962  39.2506  39.2984  39.4630
    39.5128  39.8405  40.0672  40.2439  40.5531  40.7620  40.9935  41.0738
    41.2002  41.3572  41.6725  41.8136  42.0037  42.2678  42.5006  42.7271
    42.8395  42.8814  42.9572  43.2967  43.4128  43.6400  43.7085  44.0235
    44.1790  44.3520  44.4477  44.5283  44.8442  44.9008  45.0291  45.2216
    45.2778  45.4340  45.4973  45.6560  45.8081  45.8536  45.9775  46.2054

     occupation numbers
     1.0000   1.0000   1.0000   1.0000   1.0000   1.0000   1.0000   1.0000
     1.0000   1.0000   1.0000   1.0000   1.0000   1.0000   1.0000   1.0000
     1.0000   1.0000   1.0000   1.0000   1.0000   1.0000   1.0000   1.0000
     1.0000   1.0000   1.0000   1.0000   1.0000   1.0000   1.0000   1.0000
     1.0000   1.0000   1.0000   1.0000   1.0000   1.0000   1.0000   1.0000
     1.0000   1.0000   1.0000   1.0000   1.0000   1.0000   1.0000   1.0000
     1.0000   1.0000   1.0000   1.0000   1.0000   1.0000   1.0000   1.0000
     1.0000   1.0000   1.0000   1.0000   1.0000   1.0000   1.0000   1.0000
     1.0000   1.0000   1.0000   1.0000   1.0000   1.0000   1.0000   1.0000
     1.0000   1.0000   1.0000   1.0000   1.0000   0.0000   0.0000   0.0000
     0.0000   0.0000   0.0000   0.0000   0.0000   0.0000   0.0000   0.0000
     0.0000   0.0000   0.0000   0.0000   0.0000   0.0000   0.0000   0.0000
     0.0000   0.0000   0.0000   0.0000   0.0000   0.0000   0.0000   0.0000
     0.0000   0.0000   0.0000   0.0000   0.0000   0.0000   0.0000   0.0000
     0.0000   0.0000   0.0000   0.0000   0.0000   0.0000   0.0000   0.0000
     0.0000   0.0000   0.0000   0.0000   0.0000   0.0000   0.0000   0.0000
     0.0000   0.0000   0.0000   0.0000   0.0000   0.0000   0.0000   0.0000
     0.0000   0.0000   0.0000   0.0000   0.0000   0.0000   0.0000   0.0000
     0.0000   0.0000   0.0000   0.0000   0.0000   0.0000   0.0000   0.0000
     0.0000   0.0000   0.0000   0.0000   0.0000   0.0000   0.0000   0.0000
     0.0000   0.0000   0.0000   0.0000   0.0000   0.0000   0.0000   0.0000
     0.0000   0.0000   0.0000   0.0000   0.0000   0.0000   0.0000   0.0000
     0.0000   0.0000   0.0000   0.0000   0.0000   0.0000   0.0000   0.0000
     0.0000   0.0000   0.0000   0.0000   0.0000   0.0000   0.0000   0.0000
     0.0000   0.0000   0.0000   0.0000   0.0000   0.0000   0.0000   0.0000
     0.0000   0.0000   0.0000   0.0000   0.0000   0.0000   0.0000   0.0000
     0.0000   0.0000   0.0000   0.0000   0.0000   0.0000   0.0000   0.0000
     0.0000   0.0000   0.0000   0.0000   0.0000   0.0000   0.0000   0.0000
     0.0000   0.0000   0.0000   0.0000   0.0000   0.0000   0.0000   0.0000
     0.0000   0.0000   0.0000   0.0000   0.0000   0.0000   0.0000   0.0000
     0.0000   0.0000   0.0000   0.0000   0.0000   0.0000   0.0000   0.0000
     0.0000   0.0000   0.0000   0.0000   0.0000   0.0000   0.0000   0.0000

     highest occupied, lowest unoccupied level (ev):    11.1162   11.0627

!    total energy              =   -2739.97363655 Ry
     estimated scf accuracy    <       0.00000019 Ry

     The total energy is the sum of the following terms:
     one-electron contribution =    -311.11196837 Ry
     hartree contribution      =     250.44087278 Ry
     xc contribution           =    -188.51633802 Ry
     ewald contribution        =    -802.00870053 Ry
     one-center paw contrib.   =   -1688.77750241 Ry
      -> PAW hartree energy AE =      34.52473919 Ry
      -> PAW hartree energy PS =     -34.52720271 Ry
      -> PAW xc energy AE      =    -405.33811657 Ry
      -> PAW xc energy PS      =      11.72546272 Ry
      -> total E_H with PAW    =     250.43840925 Ry
      -> total E_XC with PAW   =    -582.12899187 Ry

     convergence has been achieved in  13 iterations

     Writing all to output data dir bands_nm/myprefix.save/

     General routines

     Parallel routines

     PAW routines

   This run was terminated on:  18:59:35  15Jul2023

   JOB DONE.