     Program PWSCF v.7.1 starts on 17Jul2023 at  0: 0:29

     Reading input from espresso_16898.pwi
Warning: card &CELL ignored
Warning: card / ignored

     Current dimensions of program PWSCF are:
     Max number of different atomic species (ntypx) = 10
     Max number of k-points (npk) =  40000
     Max angular momentum in pseudopotentials (lmaxx) =  4
     file Ga.pbe-dn-kjpaw_psl.1.0.0.UPF: wavefunction(s)  4S renormalized
     Message from routine setup:
     the system is metallic, specify occupations
     Message from routine setup:
     using ibrav=0 with symmetry is DISCOURAGED, use correct ibrav instead

     K-points division:     npool     =       2
     R & G space division:  proc/nbgrp/npool/nimage =       4
     Subspace diagonalization in iterative solution of the eigenvalue problem:
     a serial algorithm will be used

     Using Slab Decomposition

     bravais-lattice index     =            0
     lattice parameter (alat)  =       7.0101  a.u.
     unit-cell volume          =    1058.3191 (a.u.)^3
     number of atoms/cell      =            7
     number of atomic types    =            3
     number of electrons       =        65.00 (up:  35.00, down:  30.00)
     number of Kohn-Sham states=           64
     kinetic-energy cutoff     =      30.0000  Ry
     charge density cutoff     =     240.0000  Ry
     scf convergence threshold =      1.0E-06
     mixing beta               =       0.7000
     number of iterations used =            8  plain     mixing
     Exchange-correlation=  SLA  PW   PBX  PBC
                           (   1   4   3   4   0   0   0)

     celldm(1)=   7.010066  celldm(2)=   0.000000  celldm(3)=   0.000000
     celldm(4)=   0.000000  celldm(5)=   0.000000  celldm(6)=   0.000000

     crystal axes: (cart. coord. in units of alat)
               a(1) = (   1.000000   0.000000   0.000000 )
               a(2) = (   0.000000   1.681339   0.000000 )
               a(3) = (   0.000000   0.010592   1.827238 )

     reciprocal axes: (cart. coord. in units 2 pi/alat)
               b(1) = (  1.000000  0.000000  0.000000 )
               b(2) = (  0.000000  0.594764 -0.003448 )
               b(3) = (  0.000000  0.000000  0.547274 )

     PseudoPot. # 1 for Mn read from file:
     /lustre03/project/6004852/pragov/crystal_structure_design/crystal-design/crystal_design/utils/SSSP/mn_pbe_v1.5.uspp.F.UPF
     MD5 check sum: 82ef2b46521d7a7d9e736dc3972e4928
     Pseudo is Ultrasoft + core correction, Zval = 15.0
     Generated by new atomic code, or converted to UPF format
     Using radial grid of  859 points,  6 beta functions with:
                l(1) =   0
                l(2) =   0
                l(3) =   1
                l(4) =   1
                l(5) =   2
                l(6) =   2
     Q(r) pseudized with  8 coefficients,  rinner =    0.950   0.950   0.950
                                                       0.950   0.950

     PseudoPot. # 2 for Ga read from file:
     /lustre03/project/6004852/pragov/crystal_structure_design/crystal-design/crystal_design/utils/SSSP/Ga.pbe-dn-kjpaw_psl.1.0.0.UPF
     MD5 check sum: a27b4342b1af7e5f338de752e9ed7044
     Pseudo is Projector augmented-wave + core cor, Zval = 13.0
     Generated using "atomic" code by A. Dal Corso  v.5.1
     Shape of augmentation charge: PSQ
     Using radial grid of 1205 points,  6 beta functions with:
                l(1) =   0
                l(2) =   0
                l(3) =   1
                l(4) =   1
                l(5) =   2
                l(6) =   2
     Q(r) pseudized with 0 coefficients

     PseudoPot. # 3 for S  read from file:
     /lustre03/project/6004852/pragov/crystal_structure_design/crystal-design/crystal_design/utils/SSSP/s_pbe_v1.4.uspp.F.UPF
     MD5 check sum: 88d86576ff6df21479756cfb9bdac1df
     Pseudo is Ultrasoft + core correction, Zval =  6.0
     Generated by new atomic code, or converted to UPF format
     Using radial grid of  907 points,  6 beta functions with:
                l(1) =   0
                l(2) =   0
                l(3) =   1
                l(4) =   1
                l(5) =   2
                l(6) =   2
     Q(r) pseudized with  8 coefficients,  rinner =    1.300   1.300   1.300
                                                       1.300   1.300

     atomic species   valence    mass     pseudopotential
        Mn            15.00    54.93804     Mn( 1.00)
        Ga            13.00    69.72300     Ga( 1.00)
        S              6.00    32.06000     S ( 1.00)

     Starting magnetic structure
     atomic species   magnetization
        Mn           0.000
        Ga           0.000
        S            0.000

      2 Sym. Ops. (no inversion) found

                                    s                        frac. trans.

      isym =  1     identity

 cryst.   s( 1) = (     1          0          0      )
                  (     0          1          0      )
                  (     0          0          1      )

 cart.    s( 1) = (  1.0000000  0.0000000  0.0000000 )
                  (  0.0000000  1.0000000  0.0000000 )
                  (  0.0000000  0.0000000  1.0000000 )

      isym =  2     inv. 180 deg rotation - cart. axis [1,0,0]

 cryst.   s( 2) = (    -1          0          0      )
                  (     0          1          0      )
                  (     0          0          1      )

 cart.    s( 2) = ( -1.0000000  0.0000000  0.0000000 )
                  (  0.0000000  1.0000000  0.0000000 )
                  (  0.0000000  0.0000000  1.0000000 )

   Cartesian axes

     site n.     atom                  positions (alat units)
         1           Mn  tau(   1) = (   0.0000000   0.6207604   0.6349470  )
         2           Ga  tau(   2) = (   0.5000000   1.5174759   0.2718894  )
         3           Ga  tau(   3) = (   0.5000000   0.6045971   1.5189339  )
         4           S   tau(   4) = (   0.0000000   1.6571477   0.6280163  )
         5           S   tau(   5) = (   0.0000000   0.8609896   1.2341296  )
         6           S   tau(   6) = (   0.5000000   0.8640859   0.2797264  )
         7           S   tau(   7) = (   0.5000000   1.6864472   1.5243717  )

   Crystallographic axes

     site n.     atom                  positions (cryst. coord.)
         1           Mn  tau(   1) = (  0.0000000  0.3670170  0.3474900  )
         2           Ga  tau(   2) = (  0.5000000  0.9016030  0.1487980  )
         3           Ga  tau(   3) = (  0.5000000  0.3543560  0.8312730  )
         4           S   tau(   4) = (  0.0000000  0.9834470  0.3436970  )
         5           S   tau(   5) = (  0.0000000  0.5078310  0.6754070  )
         6           S   tau(   6) = (  0.5000000  0.5129630  0.1530870  )
         7           S   tau(   7) = (  0.5000000  0.9977830  0.8342490  )

     number of k points=    10
                       cart. coord. in units 2pi/alat
        k(    1) = (   0.0000000   0.0000000   0.0000000), wk =   0.0370370
        k(    2) = (   0.0000000   0.0000000   0.1824247), wk =   0.0740741
        k(    3) = (   0.0000000   0.1982547  -0.0011492), wk =   0.0740741
        k(    4) = (   0.0000000   0.1982547   0.1812755), wk =   0.0740741
        k(    5) = (   0.0000000   0.1982547  -0.1835739), wk =   0.0740741
        k(    6) = (   0.3333333   0.0000000   0.0000000), wk =   0.0740741
        k(    7) = (   0.3333333   0.0000000   0.1824247), wk =   0.1481481
        k(    8) = (   0.3333333   0.1982547  -0.0011492), wk =   0.1481481
        k(    9) = (   0.3333333   0.1982547   0.1812755), wk =   0.1481481
        k(   10) = (   0.3333333   0.1982547  -0.1835739), wk =   0.1481481

                       cryst. coord.
        k(    1) = (   0.0000000   0.0000000   0.0000000), wk =   0.0370370
        k(    2) = (   0.0000000   0.0000000   0.3333333), wk =   0.0740741
        k(    3) = (   0.0000000   0.3333333   0.0000000), wk =   0.0740741
        k(    4) = (   0.0000000   0.3333333   0.3333333), wk =   0.0740741
        k(    5) = (   0.0000000   0.3333333  -0.3333333), wk =   0.0740741
        k(    6) = (   0.3333333   0.0000000   0.0000000), wk =   0.0740741
        k(    7) = (   0.3333333   0.0000000   0.3333333), wk =   0.1481481
        k(    8) = (   0.3333333   0.3333333   0.0000000), wk =   0.1481481
        k(    9) = (   0.3333333   0.3333333   0.3333333), wk =   0.1481481
        k(   10) = (   0.3333333   0.3333333  -0.3333333), wk =   0.1481481

     Check: negative core charge=   -0.000007
     Generating pointlists ...
     new r_m :   0.2661 (alat units)  1.8651 (a.u.) for type    1
     new r_m :   0.2459 (alat units)  1.7239 (a.u.) for type    2
     new r_m :   0.2459 (alat units)  1.7239 (a.u.) for type    3

     Initial potential from superposition of free atoms

     starting charge      64.4939, renormalised to      65.0000
     Starting wfcs are   47 randomized atomic wfcs +   17 random wfcs
     Checking if some PAW data can be deallocated...

     Self-consistent Calculation

     iteration #  1     ecut=    30.00 Ry     beta= 0.70
     Davidson diagonalization with overlap

     ethr =  1.00E-02,  avg # of iterations =  8.0

     total energy              =    -863.08583149 Ry
     estimated scf accuracy    <       1.03099085 Ry

     total magnetization       =     5.00 Bohr mag/cell
     absolute magnetization    =     5.03 Bohr mag/cell

[...]

     negative rho (up, down):  0.000E+00 5.091E-04

[...]

     total energy              =    -863.61951474 Ry
     estimated scf accuracy    <       0.00001010 Ry

[...]

     iteration # 13     ecut=    30.00 Ry     beta= 0.70
     Davidson diagonalization with overlap

     ethr =  1.55E-08,  avg # of iterations =  4.0

     negative rho (up, down):  0.000E+00 5.814E-04

     Magnetic moment per site  (integrated on atomic sphere of radius R)
     atom   1 (R=0.266)  charge= 12.8993  magn=  4.0575
     atom   2 (R=0.246)  charge= 10.5386  magn=  0.0151
     atom   3 (R=0.246)  charge= 10.5380  magn=  0.0158
     atom   4 (R=0.246)  charge=  3.5530  magn=  0.0346
     atom   5 (R=0.246)  charge=  3.5520  magn=  0.0412
     atom   6 (R=0.246)  charge=  3.5692  magn=  0.0702
     atom   7 (R=0.246)  charge=  3.5531  magn=  0.0162

     End of self-consistent calculation

 ------ SPIN UP ------------

          k = 0.0000 0.0000 0.0000 (  2941 PWs)   bands (ev):

   -75.7583 -44.5413 -44.4355 -44.4242  -9.5231  -9.4780  -9.4123  -9.3220
    -9.3208  -9.2844  -9.2825  -9.2390  -9.2321  -9.2043  -8.1858  -7.0872
    -6.6997  -5.9277  -0.9091  -0.1234   1.1433   1.6187   1.9947   2.1419
     2.4591   2.8141   3.0380   3.0486   3.9007   4.0121   4.4387   5.3485
     5.5761   5.6116   5.9459   7.0617   7.7796   9.3087   9.9073  10.8144
    11.4559  11.5251  11.6904  12.2546  12.7517  13.4694  13.9721  14.0449
    14.5471  15.0175  15.7524  15.7598  16.4559  17.0399  17.4121  17.7690
    17.7783  18.3549  18.7737  18.9583  19.0376  19.4789  19.6693  19.7822

     occupation numbers
     1.0000   1.0000   1.0000   1.0000   1.0000   1.0000   1.0000   1.0000
     1.0000   1.0000   1.0000   1.0000   1.0000   1.0000   1.0000   1.0000
     1.0000   1.0000   1.0000   1.0000   1.0000   1.0000   1.0000   1.0000
     1.0000   1.0000   1.0000   1.0000   1.0000   1.0000   1.0000   1.0000
     1.0000   1.0000   1.0000   0.0000   0.0000   0.0000   0.0000   0.0000
     0.0000   0.0000   0.0000   0.0000   0.0000   0.0000   0.0000   0.0000
     0.0000   0.0000   0.0000   0.0000   0.0000   0.0000   0.0000   0.0000
     0.0000   0.0000   0.0000   0.0000   0.0000   0.0000   0.0000   0.0000

[...]

 ------ SPIN DOWN ----------

[...]

          k = 0.3333 0.1983-0.1836 (  2938 PWs)   bands (ev):

   -70.9815 -39.8518 -39.7783 -39.7631  -9.4885  -9.4610  -9.4203  -9.3836
    -9.3028  -9.2907  -9.2597  -9.2461  -9.2130  -9.2063  -7.2151  -6.5820
    -6.4491  -5.9126  -0.9672  -0.4324   1.2467   1.8467   2.1304   2.5036
     2.8020   3.0570   3.3647   3.5695   4.1728   4.8964   6.7976   6.8546
     7.5887   7.7477   8.0136   8.6113   9.0922  10.1187  10.4949  10.8357
    11.2706  11.9811  12.4650  13.1153  13.2611  13.7648  13.9467  14.8218
    15.1425  15.6304  16.1770  16.4180  16.8284  17.3890  17.9374  18.1319
    18.4340  18.7633  19.1845  19.5338  19.8967  20.3406  20.7094  21.2307

     occupation numbers
     1.0000   1.0000   1.0000   1.0000   1.0000   1.0000   1.0000   1.0000
     1.0000   1.0000   1.0000   1.0000   1.0000   1.0000   1.0000   1.0000
     1.0000   1.0000   1.0000   1.0000   1.0000   1.0000   1.0000   1.0000
     1.0000   1.0000   1.0000   1.0000   1.0000   1.0000   0.0000   0.0000
     0.0000   0.0000   0.0000   0.0000   0.0000   0.0000   0.0000   0.0000
     0.0000   0.0000   0.0000   0.0000   0.0000   0.0000   0.0000   0.0000
     0.0000   0.0000   0.0000   0.0000   0.0000   0.0000   0.0000   0.0000
     0.0000   0.0000   0.0000   0.0000   0.0000   0.0000   0.0000   0.0000

     highest occupied, lowest unoccupied level (ev):     5.9459    6.6257

!    total energy              =    -863.61951979 Ry
     estimated scf accuracy    <       0.00000019 Ry

     The total energy is the sum of the following terms:
     one-electron contribution =    -444.25901709 Ry
     hartree contribution      =     259.68808993 Ry
     xc contribution           =    -136.73578138 Ry
     ewald contribution        =    -320.40756687 Ry
     one-center paw contrib.   =    -221.90524439 Ry
      -> PAW hartree energy AE =       0.00000000 Ry
      -> PAW hartree energy PS =       0.00000000 Ry
      -> PAW xc energy AE      =       0.00000000 Ry
      -> PAW xc energy PS      =       0.00000000 Ry
      -> total E_H with PAW    =     259.68808993 Ry
      -> total E_XC with PAW   =    -136.73578138 Ry

     total magnetization       =     5.00 Bohr mag/cell
     absolute magnetization    =     5.03 Bohr mag/cell

     convergence has been achieved in  13 iterations

     Writing all to output data dir bands_nm_v2/myprefix.save/

     General routines

     Parallel routines

     PAW routines

   This run was terminated on:   0: 0:54  17Jul2023

   JOB DONE.