     Program PWSCF v.7.1 starts on 15Jul2023 at 19: 1: 9

     Reading input from espresso_22523.pwi
Warning: card &CELL ignored
Warning: card / ignored

     Current dimensions of program PWSCF are:
     Max number of different atomic species (ntypx) = 10
     Max number of k-points (npk) =  40000
     Max angular momentum in pseudopotentials (lmaxx) =  4
     file Sm.paw.z_16.atompaw.wentzcovitch.v1.2.upf: wavefunction(s)  6S 0P 5D 0D 4F 0F renormalized
     file O.pbe-n-kjpaw_psl.0.1.UPF: wavefunction(s)  2P renormalized
     Message from routine setup:
     using ibrav=0 with symmetry is DISCOURAGED, use correct ibrav instead

     K-points division:     npool     =       2
     R & G space division:  proc/nbgrp/npool/nimage =       4
     Subspace diagonalization in iterative solution of the eigenvalue problem:
     one sub-group per band group will be used

     Using Slab Decomposition

     bravais-lattice index     =            0
     lattice parameter (alat)  =      10.9278  a.u.
     unit-cell volume          =    1684.7719 (a.u.)^3
     number of atoms/cell      =           20
     number of atomic types    =            4
     number of electrons       =       190.00
     number of Kohn-Sham states=          256
     kinetic-energy cutoff     =      30.0000  Ry
     charge density cutoff     =     240.0000  Ry
     scf convergence threshold =      1.0E-06
     mixing beta               =       0.7000
     number of iterations used =            8  plain     mixing
     Exchange-correlation= SLA  PW   PBX  PBC
                           (   1   4   3   4   0   0   0)

     celldm(1)=  10.927757  celldm(2)=   0.000000  celldm(3)=   0.000000
     celldm(4)=   0.000000  celldm(5)=   0.000000  celldm(6)=   0.000000

     crystal axes: (cart. coord. in units of alat)
               a(1) = (   1.000000   0.000000   0.000000 )
               a(2) = (   0.000000   0.945755   0.000000 )
               a(3) = (   0.000000   0.938727   1.365115 )

     reciprocal axes: (cart. coord. in units 2 pi/alat)
               b(1) = (  1.000000  0.000000  0.000000 )
               b(2) = (  0.000000  1.057356 -0.727095 )
               b(3) = (  0.000000  0.000000  0.732539 )

     PseudoPot. # 1 for Sm read from file:
     /lustre07/scratch/pragov/crystal_structure_design/utils/SSSP/Sm.paw.z_16.atompaw.wentzcovitch.v1.2.upf
     MD5 check sum: d38221e44bcfc3c784cbdb498a69732f
     Pseudo is Projector augmented-wave + core cor, Zval = 16.0
     Generated using ATOMPAW code
     Shape of augmentation charge: BESSEL
     Using radial grid of 1107 points,  8 beta functions with:
                l(1) =   0
                l(2) =   0
                l(3) =   1
                l(4) =   1
                l(5) =   2
                l(6) =   2
                l(7) =   3
                l(8) =   3
     Q(r) pseudized with 0 coefficients

     PseudoPot. # 2 for Ti read from file:
     /lustre07/scratch/pragov/crystal_structure_design/utils/SSSP/ti_pbe_v1.4.uspp.F.UPF
     MD5 check sum: 88a00a6731bd790ddea75d31a80cb452
     Pseudo is Ultrasoft + core correction, Zval = 12.0
     Generated by new atomic code, or converted to UPF format
     Using radial grid of  851 points,  6 beta functions with:
                l(1) =   0
                l(2) =   0
                l(3) =   1
                l(4) =   1
                l(5) =   2
                l(6) =   2
     Q(r) pseudized with  6 coefficients,  rinner =    1.000   1.000   1.000
                                                       1.000   1.000

     PseudoPot. # 3 for Mn read from file:
     /lustre07/scratch/pragov/crystal_structure_design/utils/SSSP/mn_pbe_v1.5.uspp.F.UPF
     MD5 check sum: 82ef2b46521d7a7d9e736dc3972e4928
     Pseudo is Ultrasoft + core correction, Zval = 15.0
     Generated by new atomic code, or converted to UPF format
     Using radial grid of  859 points,  6 beta functions with:
                l(1) =   0
                l(2) =   0
                l(3) =   1
                l(4) =   1
                l(5) =   2
                l(6) =   2
     Q(r) pseudized with  8 coefficients,  rinner =    0.950   0.950   0.950
                                                       0.950   0.950

     PseudoPot. # 4 for O  read from file:
     /lustre07/scratch/pragov/crystal_structure_design/utils/SSSP/O.pbe-n-kjpaw_psl.0.1.UPF
     MD5 check sum: 0234752ac141de4415c5fc33072bef88
     Pseudo is Projector augmented-wave + core cor, Zval =  6.0
     Generated using "atomic" code by A. Dal Corso  v.5.0.99 svn rev. 10869
     Shape of augmentation charge: BESSEL
     Using radial grid of 1095 points,  4 beta functions with:
                l(1) =   0
                l(2) =   0
                l(3) =   1
                l(4) =   1
     Q(r) pseudized with 0 coefficients

     atomic species   valence    mass     pseudopotential
        Sm            16.00   150.36000     Sm( 1.00)
        Ti            12.00    47.86700     Ti( 1.00)
        Mn            15.00    54.93804     Mn( 1.00)
        O              6.00    15.99900     O ( 1.00)

      4 Sym. Ops., with inversion, found ( 2 have fractional translation)

                                    s                        frac. trans.

      isym =  1     identity

 cryst.   s( 1) = (     1          0          0      )
                  (     0          1          0      )
                  (     0          0          1      )

 cart.    s( 1) = (  1.0000000  0.0000000  0.0000000 )
                  (  0.0000000  1.0000000  0.0000000 )
                  (  0.0000000  0.0000000  1.0000000 )

      isym =  2     180 deg rotation - cart. axis [1,0,0]

 cryst.   s( 2) = (     1          0          0      )    f =( -0.5000000 )
                  (     0         -1          0      )       (  0.0000000 )
                  (     0          0         -1      )       (  0.5000000 )

 cart.    s( 2) = (  1.0000000  0.0000000  0.0000000 )    f =( -0.5000000 )
                  (  0.0000000 -1.0000000  0.0000000 )       (  0.4693636 )
                  (  0.0000000  0.0000000 -1.0000000 )       (  0.6825575 )

      isym =  3     inversion

 cryst.   s( 3) = (    -1          0          0      )
                  (     0         -1          0      )
                  (     0          0         -1      )

 cart.    s( 3) = ( -1.0000000  0.0000000  0.0000000 )
                  (  0.0000000 -1.0000000  0.0000000 )
                  (  0.0000000  0.0000000 -1.0000000 )

      isym =  4     inv. 180 deg rotation - cart. axis [1,0,0]

 cryst.   s( 4) = (    -1          0          0      )    f =(  0.5000000 )
                  (     0          1          0      )       ( -0.0000000 )
                  (     0          0          1      )       ( -0.5000000 )

 cart.    s( 4) = ( -1.0000000  0.0000000  0.0000000 )    f =(  0.5000000 )
                  (  0.0000000  1.0000000  0.0000000 )       ( -0.4693636 )
                  (  0.0000000  0.0000000  1.0000000 )       ( -0.6825575 )

   Cartesian axes

     site n.     atom                  positions (alat units)
         1           Sm  tau(   1) = (   0.9352060   0.9268589   0.3441073  )
         2           Sm  tau(   2) = (   0.4352060   0.4882600   0.3384502  )
         3           Sm  tau(   3) = (   0.0647940   0.9576236   1.0210078  )
         4           Sm  tau(   4) = (   0.5647940   1.3962226   1.0266648  )
         5           Ti  tau(   5) = (   0.0000000   0.4693636   0.6825575  )
         6           Ti  tau(   6) = (   0.5000000   0.0000000   0.0000000  )
         7           Mn  tau(   7) = (   0.5000000   0.9422413   0.6825575  )
         8           Mn  tau(   8) = (   0.0000000   0.4728776   0.0000000  )
         9           O   tau(   9) = (   0.5436000   1.0510679   0.3240606  )
        10           O   tau(  10) = (   0.0436000   0.3640510   0.3584970  )
        11           O   tau(  11) = (   0.4564000   0.8334146   1.0410545  )
        12           O   tau(  12) = (   0.9564000   1.5204316   1.0066181  )
        13           O   tau(  13) = (   0.8158340   1.1378531   0.7563488  )
        14           O   tau(  14) = (   0.3158340   1.2159931   1.2913237  )
        15           O   tau(  15) = (   0.1841660   0.7466295   0.6087662  )
        16           O   tau(  16) = (   0.6841660   0.6684894   0.0737913  )
        17           O   tau(  17) = (   0.2108550   0.7744915   0.0862971  )
        18           O   tau(  18) = (   0.7108550   0.6406274   0.5962604  )
        19           O   tau(  19) = (   0.7891450   1.1099910   1.2788179  )
        20           O   tau(  20) = (   0.2891450   1.2438552   0.7688546  )

   Crystallographic axes

     site n.     atom                  positions (cryst. coord.)
         1           Sm  tau(   1) = (  0.9352060  0.7298210  0.2520720  )
         2           Sm  tau(   2) = (  0.4352060  0.2701790  0.2479280  )
         3           Sm  tau(   3) = (  0.0647940  0.2701790  0.7479280  )
         4           Sm  tau(   4) = (  0.5647940  0.7298210  0.7520720  )
         5           Ti  tau(   5) = (  0.0000000 -0.0000000  0.5000000  )
         6           Ti  tau(   6) = (  0.5000000  0.0000000  0.0000000  )
         7           Mn  tau(   7) = (  0.5000000  0.5000000  0.5000000  )
         8           Mn  tau(   8) = (  0.0000000  0.5000000  0.0000000  )
         9           O   tau(   9) = (  0.5436000  0.8757300  0.2373870  )
        10           O   tau(  10) = (  0.0436000  0.1242700  0.2626130  )
        11           O   tau(  11) = (  0.4564000  0.1242700  0.7626130  )
        12           O   tau(  12) = (  0.9564000  0.8757300  0.7373870  )
        13           O   tau(  13) = (  0.8158340  0.6531780  0.5540550  )
        14           O   tau(  14) = (  0.3158340  0.3468220  0.9459450  )
        15           O   tau(  15) = (  0.1841660  0.3468220  0.4459450  )
        16           O   tau(  16) = (  0.6841660  0.6531780  0.0540550  )
        17           O   tau(  17) = (  0.2108550  0.7561670  0.0632160  )
        18           O   tau(  18) = (  0.7108550  0.2438330  0.4367840  )
        19           O   tau(  19) = (  0.7891450  0.2438330  0.9367840  )
        20           O   tau(  20) = (  0.2891450  0.7561670  0.5632160  )

     number of k points=    10
                       cart. coord. in units 2pi/alat
        k(    1) = (   0.0000000   0.0000000   0.0000000), wk =   0.0740741
        k(    2) = (   0.0000000   0.0000000   0.2441797), wk =   0.1481481
        k(    3) = (   0.0000000   0.3524520  -0.2423651), wk =   0.1481481
        k(    4) = (   0.0000000   0.3524520   0.0018145), wk =   0.1481481
        k(    5) = (   0.0000000   0.3524520  -0.4865448), wk =   0.1481481
        k(    6) = (   0.3333333   0.0000000   0.0000000), wk =   0.1481481
        k(    7) = (   0.3333333   0.0000000   0.2441797), wk =   0.2962963
        k(    8) = (   0.3333333   0.3524520  -0.2423651), wk =   0.2962963
        k(    9) = (   0.3333333   0.3524520   0.0018145), wk =   0.2962963
        k(   10) = (   0.3333333   0.3524520  -0.4865448), wk =   0.2962963

                       cryst. coord.
        k(    1) = (   0.0000000   0.0000000   0.0000000), wk =   0.0740741
        k(    2) = (   0.0000000   0.0000000   0.3333333), wk =   0.1481481
        k(    3) = (   0.0000000   0.3333333   0.0000000), wk =   0.1481481
        k(    4) = (   0.0000000   0.3333333   0.3333333), wk =   0.1481481
        k(    5) = (   0.0000000   0.3333333  -0.3333333), wk =   0.1481481
        k(    6) = (   0.3333333   0.0000000   0.0000000), wk =   0.1481481
        k(    7) = (   0.3333333   0.0000000   0.3333333), wk =   0.2962963
        k(    8) = (   0.3333333   0.3333333   0.0000000), wk =   0.2962963
        k(    9) = (   0.3333333   0.3333333   0.3333333), wk =   0.2962963
        k(   10) = (   0.3333333   0.3333333  -0.3333333), wk =   0.2962963

     Check: negative core charge=   -0.000018

     Initial potential from superposition of free atoms

     starting charge     186.9774, renormalised to     190.0000

     negative rho (up, down):  2.913E-03 0.000E+00
     Starting wfcs are  222 randomized atomic wfcs +   34 random wfcs
     Checking if some PAW data can be deallocated...

     Self-consistent Calculation

     iteration #  1     ecut=    30.00 Ry     beta= 0.70
     Davidson diagonalization with overlap

     ethr =  1.00E-02,  avg # of iterations =  6.7

     total energy              =   -3527.77639782 Ry
     estimated scf accuracy    <      60.39520710 Ry

[...]

     negative rho (up, down):  2.078E-04 0.000E+00

[...]

     total energy              =   -3578.18450062 Ry
     estimated scf accuracy    <       0.00000315 Ry

     iteration # 75     ecut=    30.00 Ry     beta= 0.70
     Davidson diagonalization with overlap

     ethr =  1.66E-09,  avg # of iterations =  1.0

     negative rho (up, down):  2.729E-03 0.000E+00

     End of self-consistent calculation

          k = 0.0000 0.0000 0.0000 (  4665 PWs)   bands (ev):

   -66.7160 -66.7160 -45.4722 -45.4722 -35.5624 -35.5607 -35.3900 -35.3897
   -35.3783 -35.3768 -26.7463 -26.7344 -26.7111 -26.7004 -21.7902 -21.7895
   -21.7705 -21.7674 -21.7262 -21.7261  -7.9110  -7.7856  -7.7821  -7.7341
    -7.6279  -6.9402  -6.8780  -6.7478  -6.6119  -6.5787  -6.3992  -6.3811
    -6.2885  -5.7732  -5.7395  -5.6163  -5.2934  -5.2553  -4.9680  -4.5162
    -4.5011  -4.4209  -4.1396  -4.0367   6.2573   6.4018   6.5224   6.9154
     7.1914   7.2521   7.3422   7.4401   7.4678   7.6122   7.7650   7.7783
     7.8489   8.0281   8.0414   8.0438   8.1059   8.2221   8.4938   8.6707
     8.7277   8.7862   8.8105   8.8929   9.1686   9.2355   9.2870   9.3086
     9.4081   9.4351   9.5689   9.7713   9.8889  10.0094  10.0585  10.2090
    11.8882  12.0847  12.2125  12.2485  12.2795  12.3592  12.4793  12.5112
    12.5288  12.5340  12.5797  12.5851  12.5871  12.6136  12.6223  12.6285
    12.6392  12.6580  12.7446  12.7609  12.8241  12.8242  12.8392  12.8776
    12.8810  12.8896  12.8928  12.9053  12.9173  12.9383  12.9750  12.9802
    13.0026  13.0077  13.1698  13.1905  13.2641  13.6994  14.1996  14.3425
    14.4012  14.4891  14.5935  14.6728  16.1478  16.2981  16.7212  16.9535
    16.9751  17.0761  17.1212  17.1419  17.2160  17.2689  17.2823  18.2699
    18.3145  18.3704  18.6273  18.6396  18.8533  18.8703  19.1157  19.2451
    19.6292  19.6461  19.7002  19.7436  20.0378  20.2013  20.2214  21.9166
    22.2031  22.6083  22.7449  23.3625  23.5803  24.0201  24.4182  24.4975
    24.6379  24.7664  24.8471  25.5790  26.1724  26.2872  26.4158  26.4606
    26.7356  26.7743  26.9706  27.5214  27.5453  27.7375  28.5007  28.5842
    28.5866  29.4903  29.6191  29.7762  29.8787  29.9286  29.9744  30.4103
    30.5347  31.5411  31.6174  31.8824  32.0116  32.2360  32.4079  32.4572
    32.5065  32.8864  33.1119  33.1255  33.3463  33.4719  33.5620  34.4301
    34.5520  35.1990  35.2134  35.4621  35.5451  35.6305  35.7734  36.3159
    36.3448  36.6737  36.8373  36.9422  37.0042  37.1544  37.2704  37.3680
    37.5597  37.6019  38.3063  38.7041  38.8522  39.1280  39.2500  39.3954
    39.5866  39.7765  39.8783  39.9062  40.1547  40.3665  40.6478  40.6595
    40.8462  40.8536  41.3398  41.6298  41.6589  41.7486  42.2375  42.3022
    42.4228  42.8768  43.1401  43.2476  43.3476  43.4113  43.4888  43.7193
    43.8393  44.0690  44.3846  44.4675  44.5263  44.5711  44.8650  45.0647

     occupation numbers
     1.0000   1.0000   1.0000   1.0000   1.0000   1.0000   1.0000   1.0000
     1.0000   1.0000   1.0000   1.0000   1.0000   1.0000   1.0000   1.0000
     1.0000   1.0000   1.0000   1.0000   1.0000   1.0000   1.0000   1.0000
     1.0000   1.0000   1.0000   1.0000   1.0000   1.0000   1.0000   1.0000
     1.0000   1.0000   1.0000   1.0000   1.0000   1.0000   1.0000   1.0000
     1.0000   1.0000   1.0000   1.0000   1.0000   1.0000   1.0000   1.0000
     1.0000   1.0000   1.0000   1.0000   1.0000   1.0000   1.0000   1.0000
     1.0000   1.0000   1.0000   1.0000   1.0000   1.0000   1.0000   1.0000
     1.0000   1.0000   1.0000   1.0000   1.0000   1.0000   1.0000   1.0000
     1.0000   1.0000   1.0000   1.0000   1.0000   1.0000   1.0000   1.0000
     1.0000   1.0000   1.0000   1.0000   1.0000   1.0000   1.0000   1.0000
     1.0000   1.0000   1.0000   1.0000   1.0000   1.0000   1.0000   0.0000
     0.0000   0.0000   0.0000   0.0000   0.0000   0.0000   0.0000   0.0000
     0.0000   0.0000   0.0000   0.0000   0.0000   0.0000   0.0000   0.0000
     0.0000   0.0000   0.0000   0.0000   0.0000   0.0000   0.0000   0.0000
     0.0000   0.0000   0.0000   0.0000   0.0000   0.0000   0.0000   0.0000
     0.0000   0.0000   0.0000   0.0000   0.0000   0.0000   0.0000   0.0000
     0.0000   0.0000   0.0000   0.0000   0.0000   0.0000   0.0000   0.0000
     0.0000   0.0000   0.0000   0.0000   0.0000   0.0000   0.0000   0.0000
     0.0000   0.0000   0.0000   0.0000   0.0000   0.0000   0.0000   0.0000
     0.0000   0.0000   0.0000   0.0000   0.0000   0.0000   0.0000   0.0000
     0.0000   0.0000   0.0000   0.0000   0.0000   0.0000   0.0000   0.0000
     0.0000   0.0000   0.0000   0.0000   0.0000   0.0000   0.0000   0.0000
     0.0000   0.0000   0.0000   0.0000   0.0000   0.0000   0.0000   0.0000
     0.0000   0.0000   0.0000   0.0000   0.0000   0.0000   0.0000   0.0000
     0.0000   0.0000   0.0000   0.0000   0.0000   0.0000   0.0000   0.0000
     0.0000   0.0000   0.0000   0.0000   0.0000   0.0000   0.0000   0.0000
     0.0000   0.0000   0.0000   0.0000   0.0000   0.0000   0.0000   0.0000
     0.0000   0.0000   0.0000   0.0000   0.0000   0.0000   0.0000   0.0000
     0.0000   0.0000   0.0000   0.0000   0.0000   0.0000   0.0000   0.0000
     0.0000   0.0000   0.0000   0.0000   0.0000   0.0000   0.0000   0.0000
     0.0000   0.0000   0.0000   0.0000   0.0000   0.0000   0.0000   0.0000

[...]

          k = 0.3333 0.3525-0.4865 (  4682 PWs)   bands (ev):

   -66.7162 -66.7161 -45.4722 -45.4722 -35.5631 -35.5613 -35.3916 -35.3904
   -35.3798 -35.3782 -26.7305 -26.7262 -26.7197 -26.7154 -21.7892 -21.7890
   -21.7702 -21.7694 -21.7260 -21.7258  -8.0265  -7.8837  -7.8276  -7.6787
    -7.3522  -7.2264  -7.0021  -6.9556  -6.8288  -6.7130  -6.4990  -6.4555
    -5.7856  -5.6732  -5.4054  -5.2521  -5.1437  -5.0706  -4.8378  -4.7480
    -4.4859  -4.4330  -4.2063  -4.1993   6.4848   6.5214   6.8356   6.8926
     7.0925   7.1862   7.2828   7.3098   7.4293   7.5395   7.6331   7.6775
     7.8253   7.8495   7.9419   8.0291   8.1028   8.1528   8.3019   8.4999
     8.6530   8.6965   8.8425   8.9277   8.9822   9.1593   9.2200   9.2483
     9.4183   9.4413   9.5671   9.6365   9.6908   9.7526   9.8172   9.8915
    12.1210  12.1773  12.2569  12.2910  12.4415  12.4723  12.5421  12.5576
    12.5643  12.5840  12.5918  12.6053  12.6093  12.6185  12.6294  12.6354
    12.6805  12.6872  12.7469  12.7701  12.8057  12.8090  12.8363  12.8447
    12.8577  12.8755  12.8855  12.8923  12.9211  12.9383  12.9591  12.9725
    12.9946  13.0096  13.3614  13.5305  13.6636  13.7886  14.1841  14.2779
    14.3070  14.3533  14.4203  14.4801  16.2409  16.2696  16.6050  16.8121
    17.2220  17.3120  17.4021  17.5156  17.6649  17.8012  17.8230  17.9688
    18.2477  18.3649  18.4352  18.4774  18.7859  18.9231  19.0817  19.1931
    19.3721  19.5214  19.7893  19.9793  20.0799  20.4531  21.1129  21.6128
    21.8056  22.2088  22.8404  22.9510  23.5059  23.7708  24.2521  24.6540
    24.9648  25.4765  25.7469  25.8772  25.9931  26.4173  26.5460  26.6424
    26.8325  26.9697  27.2957  27.5210  27.5800  27.8015  28.1351  28.3690
    28.5050  28.8643  29.0388  29.2862  29.4324  29.5345  29.5656  29.9658
    30.2782  30.4776  30.9625  31.2856  31.6509  31.8466  32.0257  32.4498
    33.1442  33.4716  33.4990  33.7375  33.9093  34.1970  34.2762  34.4731
    34.8293  35.1690  35.3121  35.4459  35.6799  35.7616  35.9222  36.1907
    36.2735  36.4514  36.7196  36.9494  37.1327  37.2852  37.4315  37.7519
    37.8147  38.0399  38.2576  38.3484  38.4789  38.6152  38.8412  39.0164
    39.4498  39.5185  39.8014  39.8746  40.2430  40.4127  40.5205  40.6120
    40.9421  41.1167  41.3850  41.6235  41.6970  41.8192  42.0255  42.2982
    42.5453  42.6438  42.8993  43.0907  43.0921  43.2944  43.5717  43.6588
    43.8480  44.0463  44.1215  44.3651  44.4776  44.6071  44.6754  44.9784

     occupation numbers
     1.0000   1.0000   1.0000   1.0000   1.0000   1.0000   1.0000   1.0000
     1.0000   1.0000   1.0000   1.0000   1.0000   1.0000   1.0000   1.0000
     1.0000   1.0000   1.0000   1.0000   1.0000   1.0000   1.0000   1.0000
     1.0000   1.0000   1.0000   1.0000   1.0000   1.0000   1.0000   1.0000
     1.0000   1.0000   1.0000   1.0000   1.0000   1.0000   1.0000   1.0000
     1.0000   1.0000   1.0000   1.0000   1.0000   1.0000   1.0000   1.0000
     1.0000   1.0000   1.0000   1.0000   1.0000   1.0000   1.0000   1.0000
     1.0000   1.0000   1.0000   1.0000   1.0000   1.0000   1.0000   1.0000
     1.0000   1.0000   1.0000   1.0000   1.0000   1.0000   1.0000   1.0000
     1.0000   1.0000   1.0000   1.0000   1.0000   1.0000   1.0000   1.0000
     1.0000   1.0000   1.0000   1.0000   1.0000   1.0000   1.0000   1.0000
     1.0000   1.0000   1.0000   1.0000   1.0000   1.0000   1.0000   0.0000
     0.0000   0.0000   0.0000   0.0000   0.0000   0.0000   0.0000   0.0000
     0.0000   0.0000   0.0000   0.0000   0.0000   0.0000   0.0000   0.0000
     0.0000   0.0000   0.0000   0.0000   0.0000   0.0000   0.0000   0.0000
     0.0000   0.0000   0.0000   0.0000   0.0000   0.0000   0.0000   0.0000
     0.0000   0.0000   0.0000   0.0000   0.0000   0.0000   0.0000   0.0000
     0.0000   0.0000   0.0000   0.0000   0.0000   0.0000   0.0000   0.0000
     0.0000   0.0000   0.0000   0.0000   0.0000   0.0000   0.0000   0.0000
     0.0000   0.0000   0.0000   0.0000   0.0000   0.0000   0.0000   0.0000
     0.0000   0.0000   0.0000   0.0000   0.0000   0.0000   0.0000   0.0000
     0.0000   0.0000   0.0000   0.0000   0.0000   0.0000   0.0000   0.0000
     0.0000   0.0000   0.0000   0.0000   0.0000   0.0000   0.0000   0.0000
     0.0000   0.0000   0.0000   0.0000   0.0000   0.0000   0.0000   0.0000
     0.0000   0.0000   0.0000   0.0000   0.0000   0.0000   0.0000   0.0000
     0.0000   0.0000   0.0000   0.0000   0.0000   0.0000   0.0000   0.0000
     0.0000   0.0000   0.0000   0.0000   0.0000   0.0000   0.0000   0.0000
     0.0000   0.0000   0.0000   0.0000   0.0000   0.0000   0.0000   0.0000
     0.0000   0.0000   0.0000   0.0000   0.0000   0.0000   0.0000   0.0000
     0.0000   0.0000   0.0000   0.0000   0.0000   0.0000   0.0000   0.0000
     0.0000   0.0000   0.0000   0.0000   0.0000   0.0000   0.0000   0.0000
     0.0000   0.0000   0.0000   0.0000   0.0000   0.0000   0.0000   0.0000

     highest occupied, lowest unoccupied level (ev):    12.6334   12.6240

!    total energy              =   -3578.18450105 Ry
     estimated scf accuracy    <       0.00000099 Ry

     The total energy is the sum of the following terms:
     one-electron contribution =    -531.96316332 Ry
     hartree contribution      =     403.33640947 Ry
     xc contribution           =    -250.16848410 Ry
     ewald contribution        =   -1287.14505131 Ry
     one-center paw contrib.   =   -1912.24421180 Ry
      -> PAW hartree energy AE =     380.67109072 Ry
      -> PAW hartree energy PS =    -371.28752263 Ry
      -> PAW xc energy AE      =   -1408.21141071 Ry
      -> PAW xc energy PS      =      50.35702555 Ry
      -> total E_H with PAW    =     412.71997756 Ry
      -> total E_XC with PAW   =   -1608.02286925 Ry

     convergence has been achieved in  75 iterations

     Writing all to output data dir bands_nm/myprefix.save/

     General routines

     Parallel routines

     PAW routines

   This run was terminated on:  19: 6:18  15Jul2023

   JOB DONE.