     Program PWSCF v.7.0 starts on  7Jun2023 at  9:12:52

     K-points division:     npool     =       2
     R & G space division:  proc/nbgrp/npool/nimage =       4

     Reading input from espresso_8261.pwi
Warning: card &CELL ignored
Warning: card / ignored

     Current dimensions of program PWSCF are:
     Max number of different atomic species (ntypx) = 10
     Max number of k-points (npk) =  40000
     Max angular momentum in pseudopotentials (lmaxx) =  4
     file O.pbe-n-kjpaw_psl.0.1.UPF: wavefunction(s)  2P renormalized
     Message from routine setup:
     using ibrav=0 with symmetry is DISCOURAGED, use correct ibrav instead

     Using Slab Decomposition

     bravais-lattice index     =            0
     lattice parameter (alat)  =      10.1812  a.u.
     unit-cell volume          =    1038.8185 (a.u.)^3
     number of atoms/cell      =           12
     number of atomic types    =            3
     number of electrons       =        96.00
     number of Kohn-Sham states=           64
     kinetic-energy cutoff     =      30.0000  Ry
     charge density cutoff     =     240.0000  Ry
     scf convergence threshold =      1.0E-06
     mixing beta               =       0.7000
     number of iterations used =            8  plain     mixing
     Exchange-correlation= SLA  PW   PBX  PBC
                           (   1   4   3   4   0   0   0)

     celldm(1)=  10.181185  celldm(2)=   0.000000  celldm(3)=   0.000000
     celldm(4)=   0.000000  celldm(5)=   0.000000  celldm(6)=   0.000000

     crystal axes: (cart. coord. in units of alat)
               a(1) = (   1.000000   0.000000   0.000000 )
               a(2) = (   0.000000   1.000000   0.000000 )
               a(3) = (   0.000000   0.000000   0.984339 )

     reciprocal axes: (cart. coord. in units 2 pi/alat)
               b(1) = (  1.000000  0.000000  0.000000 )
               b(2) = (  0.000000  1.000000  0.000000 )
               b(3) = (  0.000000  0.000000  1.015910 )

     PseudoPot. # 1 for Ce read from file:
     /home/pragov/projects/rrg-bengioy-ad/pragov/crystal_structure_design/SSSP/Ce.GGA-PBE-paw-v1.0.UPF
     MD5 check sum: f2b950f613061344c13339c8d844425d
     Pseudo is Projector augmented-wave + core cor, Zval = 12.0
     Generated using ATOMPAW code
     Shape of augmentation charge: BESSEL
     Using radial grid of 1102 points,  8 beta functions with:
                l(1) =   0
                l(2) =   0
                l(3) =   1
                l(4) =   1
                l(5) =   2
                l(6) =   2
                l(7) =   3
                l(8) =   3
     Q(r) pseudized with 0 coefficients

     PseudoPot. # 2 for Zr read from file:
     /home/pragov/projects/rrg-bengioy-ad/pragov/crystal_structure_design/SSSP/Zr_pbe_v1.uspp.F.UPF
     MD5 check sum: 5db81b1e868ab7776c4564c113de050b
     Pseudo is Ultrasoft + core correction, Zval = 12.0
     Generated by new atomic code, or converted to UPF format
     Using radial grid of  887 points,  6 beta functions with:
                l(1) =   0
                l(2) =   0
                l(3) =   1
                l(4) =   1
                l(5) =   2
                l(6) =   2
     Q(r) pseudized with  6 coefficients,  rinner =    1.200   1.200   1.200
                                                       1.200   1.200

     PseudoPot. # 3 for O  read from file:
     /home/pragov/projects/rrg-bengioy-ad/pragov/crystal_structure_design/SSSP/O.pbe-n-kjpaw_psl.0.1.UPF
     MD5 check sum: 0234752ac141de4415c5fc33072bef88
     Pseudo is Projector augmented-wave + core cor, Zval =  6.0
     Generated using "atomic" code by A. Dal Corso  v.5.0.99 svn rev. 10869
     Shape of augmentation charge: BESSEL
     Using radial grid of 1095 points,  4 beta functions with:
                l(1) =   0
                l(2) =   0
                l(3) =   1
                l(4) =   1
     Q(r) pseudized with 0 coefficients

     atomic species   valence    mass     pseudopotential
        Ce            12.00   140.11600     Ce( 1.00)
        Zr            12.00    91.22400     Zr( 1.00)
        O              6.00    15.99900     O ( 1.00)

     16 Sym. Ops., with inversion, found ( 8 have fractional translation)

                                    s                        frac. trans.

      isym =  1     identity

 cryst.   s( 1) = (     1          0          0      )
                  (     0          1          0      )
                  (     0          0          1      )

 cart.    s( 1) = (  1.0000000  0.0000000  0.0000000 )
                  (  0.0000000  1.0000000  0.0000000 )
                  (  0.0000000  0.0000000  1.0000000 )

      isym =  2     180 deg rotation - cart. axis [0,0,1]

[...]

      isym =  8      90 deg rotation - cart. axis [0,0,1]

 cryst.   s( 8) = (     0          1          0      )
                  (    -1          0          0      )
                  (     0          0          1      )

 cart.    s( 8) = (  0.0000000 -1.0000000  0.0000000 )
                  (  1.0000000  0.0000000  0.0000000 )
                  (  0.0000000  0.0000000  1.0000000 )

      isym =  9     inversion

 cryst.   s( 9) = (    -1          0          0      )    f =(  0.5000000 )
                  (     0         -1          0      )       (  0.5000000 )
                  (     0          0         -1      )       (  0.0000000 )

 cart.    s( 9) = ( -1.0000000  0.0000000  0.0000000 )    f =(  0.5000000 )
                  (  0.0000000 -1.0000000  0.0000000 )       (  0.5000000 )
                  (  0.0000000  0.0000000 -1.0000000 )       (  0.0000000 )

      isym = 10     inv. 180 deg rotation - cart. axis [0,0,1]

 cryst.   s(10) = (     1          0          0      )    f =( -0.5000000 )
                  (     0          1          0      )       ( -0.5000000 )
                  (     0          0         -1      )       (  0.0000000 )

 cart.    s(10) = (  1.0000000  0.0000000  0.0000000 )    f =( -0.5000000 )
                  (  0.0000000  1.0000000  0.0000000 )       ( -0.5000000 )
                  (  0.0000000  0.0000000 -1.0000000 )       (  0.0000000 )

[...]

      isym = 16     inv.  90 deg rotation - cart. axis [0,0,1]

 cryst.   s(16) = (     0         -1          0      )    f =( -0.5000000 )
                  (     1          0          0      )       (  0.5000000 )
                  (     0          0         -1      )       (  0.0000000 )

 cart.    s(16) = (  0.0000000  1.0000000  0.0000000 )    f =( -0.5000000 )
                  ( -1.0000000  0.0000000  0.0000000 )       (  0.5000000 )
                  (  0.0000000  0.0000000 -1.0000000 )       (  0.0000000 )

   Cartesian axes

     site n.     atom                  positions (alat units)
         1           Ce  tau(   1) = (   0.0000000   0.0000000   0.0000000  )
         2           Ce  tau(   2) = (   0.5000000   0.5000000   0.0000000  )
         3           Zr  tau(   3) = (   0.5000000   0.0000000   0.4921695  )
         4           Zr  tau(   4) = (   0.0000000   0.5000000   0.4921695  )
         5           O   tau(   5) = (   0.7137020   0.7862980   0.7331682  )
         6           O   tau(   6) = (   0.7862980   0.2862980   0.7331682  )
         7           O   tau(   7) = (   0.2862980   0.2137020   0.7331682  )
         8           O   tau(   8) = (   0.2137020   0.7137020   0.7331682  )
         9           O   tau(   9) = (   0.7137020   0.2137020   0.2511708  )
        10           O   tau(  10) = (   0.7862980   0.7137020   0.2511708  )
        11           O   tau(  11) = (   0.2862980   0.7862980   0.2511708  )
        12           O   tau(  12) = (   0.2137020   0.2862980   0.2511708  )

   Crystallographic axes

     site n.     atom                  positions (cryst. coord.)
         1           Ce  tau(   1) = (  0.0000000  0.0000000  0.0000000  )
         2           Ce  tau(   2) = (  0.5000000  0.5000000  0.0000000  )
         3           Zr  tau(   3) = (  0.5000000  0.0000000  0.5000000  )
         4           Zr  tau(   4) = (  0.0000000  0.5000000  0.5000000  )
         5           O   tau(   5) = (  0.7137020  0.7862980  0.7448330  )
         6           O   tau(   6) = (  0.7862980  0.2862980  0.7448330  )
         7           O   tau(   7) = (  0.2862980  0.2137020  0.7448330  )
         8           O   tau(   8) = (  0.2137020  0.7137020  0.7448330  )
         9           O   tau(   9) = (  0.7137020  0.2137020  0.2551670  )
        10           O   tau(  10) = (  0.7862980  0.7137020  0.2551670  )
        11           O   tau(  11) = (  0.2862980  0.7862980  0.2551670  )
        12           O   tau(  12) = (  0.2137020  0.2862980  0.2551670  )

     number of k points=     6
                       cart. coord. in units 2pi/alat
        k(    1) = (   0.0000000   0.0000000   0.0000000), wk =   0.0740741
        k(    2) = (   0.0000000   0.0000000   0.3386367), wk =   0.1481481
        k(    3) = (   0.0000000   0.3333333   0.0000000), wk =   0.2962963
        k(    4) = (   0.0000000   0.3333333   0.3386367), wk =   0.5925926
        k(    5) = (   0.3333333   0.3333333   0.0000000), wk =   0.2962963
        k(    6) = (   0.3333333   0.3333333   0.3386367), wk =   0.5925926

                       cryst. coord.
        k(    1) = (   0.0000000   0.0000000   0.0000000), wk =   0.0740741
        k(    2) = (   0.0000000   0.0000000   0.3333333), wk =   0.1481481
        k(    3) = (   0.0000000   0.3333333   0.0000000), wk =   0.2962963
        k(    4) = (   0.0000000   0.3333333   0.3333333), wk =   0.5925926
        k(    5) = (   0.3333333   0.3333333   0.0000000), wk =   0.2962963
        k(    6) = (   0.3333333   0.3333333   0.3333333), wk =   0.5925926

     Check: negative core charge=   -0.000013

     Initial potential from superposition of free atoms

     starting charge      95.9817, renormalised to      96.0000

     negative rho (up, down):  1.200E-01 0.000E+00
     Starting wfcs are  122 randomized atomic wfcs
     Checking if some PAW data can be deallocated...

     Self-consistent Calculation

     iteration #  1     ecut=    30.00 Ry     beta= 0.70
     Davidson diagonalization with overlap

     ethr =  1.00E-02,  avg # of iterations =  2.0

     negative rho (up, down):  1.244E-01 0.000E+00

     total energy              =   -1494.25308279 Ry
     estimated scf accuracy    <       5.00331653 Ry

[...]

     c_bands:  1 eigenvalues not converged
     ethr =  2.74E-06,  avg # of iterations =  5.2

[...]

     total energy              =   -1497.06228439 Ry
     estimated scf accuracy    <       0.00005810 Ry

     iteration # 20     ecut=    30.00 Ry     beta= 0.70
     Davidson diagonalization with overlap

     ethr =  4.61E-08,  avg # of iterations =  1.0

     negative rho (up, down):  1.274E-01 0.000E+00

     End of self-consistent calculation

          k = 0.0000 0.0000 0.0000 (  2897 PWs)   bands (ev):

   -37.2351 -37.2214 -22.0659 -21.9235 -15.4758 -15.4758 -15.4521 -15.3355
   -15.2689 -15.2689  -7.4697  -7.4697  -7.3184  -6.5334  -5.9031  -5.9031
    -5.7767  -5.2368  -4.8758  -4.5396  -4.5396  -2.6874  -2.6874  -2.3555
     5.9544   6.0814   6.3704   6.4718   6.4870   6.4870   7.8275   8.3824
     8.3824   8.5699   8.5699   9.1469   9.3783   9.3783   9.4170   9.4494
     9.4773   9.5077   9.5077   9.6408   9.7724   9.9457   9.9457  10.0528
    12.3541  12.3541  12.4012  12.4566  12.4858  12.4858  12.5214  12.5214
    12.6081  12.7245  12.7245  12.7615  12.8965  12.9334  15.1622  15.2569

     occupation numbers
     1.0000   1.0000   1.0000   1.0000   1.0000   1.0000   1.0000   1.0000
     1.0000   1.0000   1.0000   1.0000   1.0000   1.0000   1.0000   1.0000
     1.0000   1.0000   1.0000   1.0000   1.0000   1.0000   1.0000   1.0000
     1.0000   1.0000   1.0000   1.0000   1.0000   1.0000   1.0000   1.0000
     1.0000   1.0000   1.0000   1.0000   1.0000   1.0000   1.0000   1.0000
     1.0000   1.0000   1.0000   1.0000   1.0000   1.0000   1.0000   1.0000
     0.0000   0.0000   0.0000   0.0000   0.0000   0.0000   0.0000   0.0000
     0.0000   0.0000   0.0000   0.0000   0.0000   0.0000   0.0000   0.0000

[...]

          k = 0.3333 0.3333 0.3386 (  2896 PWs)   bands (ev):

   -37.2299 -37.2265 -22.0128 -21.9767 -15.4807 -15.4322 -15.4067 -15.3812
   -15.3133 -15.2615  -7.5870  -7.3793  -7.0756  -6.6654  -6.4871  -5.9651
    -5.8266  -5.6937  -4.5822  -3.8353  -3.5498  -3.1590  -2.9157  -2.6155
     6.9155   6.9551   7.0414   7.1479   7.3503   7.3994   7.4841   7.6462
     7.7914   7.8726   8.2286   8.3581   8.7044   8.7401   8.9482   9.0615
     9.1174   9.3771   9.6405   9.6549   9.7205   9.7243   9.9768  10.1669
    12.3497  12.3519  12.4064  12.4069  12.4479  12.4858  12.4936  12.5268
    12.5508  12.5990  12.6824  12.7598  12.9093  12.9453  15.0890  15.2004

     occupation numbers
     1.0000   1.0000   1.0000   1.0000   1.0000   1.0000   1.0000   1.0000
     1.0000   1.0000   1.0000   1.0000   1.0000   1.0000   1.0000   1.0000
     1.0000   1.0000   1.0000   1.0000   1.0000   1.0000   1.0000   1.0000
     1.0000   1.0000   1.0000   1.0000   1.0000   1.0000   1.0000   1.0000
     1.0000   1.0000   1.0000   1.0000   1.0000   1.0000   1.0000   1.0000
     1.0000   1.0000   1.0000   1.0000   1.0000   1.0000   1.0000   1.0000
     0.0000   0.0000   0.0000   0.0000   0.0000   0.0000   0.0000   0.0000
     0.0000   0.0000   0.0000   0.0000   0.0000   0.0000   0.0000   0.0000

     highest occupied, lowest unoccupied level (ev):    10.3624   12.2676

!    total energy              =   -1497.06228945 Ry
     estimated scf accuracy    <       0.00000055 Ry

     The total energy is the sum of the following terms:
     one-electron contribution =     -86.24830690 Ry
     hartree contribution      =     108.68729536 Ry
     xc contribution           =    -116.03078813 Ry
     ewald contribution        =    -510.98088740 Ry
     one-center paw contrib.   =    -892.48960238 Ry
      -> PAW hartree energy AE =      85.43496206 Ry
      -> PAW hartree energy PS =     -85.06294028 Ry
      -> PAW xc energy AE      =    -833.56509406 Ry
      -> PAW xc energy PS      =      16.89613597 Ry
      -> total E_H with PAW    =     109.05931714 Ry
      -> total E_XC with PAW   =    -932.69974622 Ry

     convergence has been achieved in  20 iterations

     Writing all to output data dir calculations_bands/myprefix.save/

     General routines

     Parallel routines

     PAW routines

   This run was terminated on:   9:13:19   7Jun2023

   JOB DONE.