     Program PWSCF v.7.1 starts on 17Jul2023 at  0:43:10

     Reading input from espresso_26097.pwi
Warning: card &CELL ignored
Warning: card / ignored

     Current dimensions of program PWSCF are:
     Max number of different atomic species (ntypx) = 10
     Max number of k-points (npk) =  40000
     Max angular momentum in pseudopotentials (lmaxx) =  4
     file O.pbe-n-kjpaw_psl.0.1.UPF: wavefunction(s)  2P renormalized

     K-points division:     npool     =       2
     R & G space division:  proc/nbgrp/npool/nimage =       4
     Subspace diagonalization in iterative solution of the eigenvalue problem:
     one sub-group per band group will be used

     Using Slab Decomposition

     bravais-lattice index     =            0
     lattice parameter (alat)  =      12.5899  a.u.
     unit-cell volume          =    3440.8456 (a.u.)^3
     number of atoms/cell      =           19
     number of atomic types    =            5
     number of electrons       =       272.00
     number of Kohn-Sham states=          256
     kinetic-energy cutoff     =      30.0000  Ry
     charge density cutoff     =     240.0000  Ry
     scf convergence threshold =      1.0E-06
     mixing beta               =       0.7000
     number of iterations used =            8  plain     mixing
     Exchange-correlation= SLA  PW   PBX  PBC
                           (   1   4   3   4   0   0   0)

     celldm(1)=  12.589875  celldm(2)=   0.000000  celldm(3)=   0.000000
     celldm(4)=   0.000000  celldm(5)=   0.000000  celldm(6)=   0.000000

     crystal axes: (cart. coord. in units of alat)
               a(1) = (   1.000000   0.000000   0.000000 )
               a(2) = (  -0.046588   1.082465   0.000000 )
               a(3) = (  -0.090845  -0.281705   1.592894 )

     reciprocal axes: (cart. coord. in units 2 pi/alat)
               b(1) = (  1.000000  0.043039  0.064643 )
               b(2) = (  0.000000  0.923817  0.163378 )
               b(3) = (  0.000000  0.000000  0.627788 )

     PseudoPot. # 1 for Hg read from file:
     /lustre07/scratch/pragov/crystal_structure_design/utils/SSSP/Hg_ONCV_PBE-1.0.oncvpsp.upf
     MD5 check sum: dd5a8773074bfcf4280086d4d95875c4
     Pseudo is Norm-conserving, Zval = 20.0
     Generated using ONCVPSP code by D. R. Hamann
     Using radial grid of 1262 points,  8 beta functions with:
                l(1) =   0
                l(2) =   0
                l(3) =   1
                l(4) =   1
                l(5) =   2
                l(6) =   2
                l(7) =   3
                l(8) =   3

     PseudoPot. # 2 for I  read from file:
     /lustre07/scratch/pragov/crystal_structure_design/utils/SSSP/I.pbe-n-kjpaw_psl.0.2.UPF
     MD5 check sum: d4ef18d9c8f18dc85e5843bca1e50dc0
     Pseudo is Projector augmented-wave + core cor, Zval =  7.0
     Generated using "atomic" code by A. Dal Corso  v.5.0.99 svn rev. 10869
     Shape of augmentation charge: PSQ
     Using radial grid of 1247 points,  4 beta functions with:
                l(1) =   0
                l(2) =   0
                l(3) =   1
                l(4) =   1
     Q(r) pseudized with 0 coefficients

     PseudoPot. # 3 for Br read from file:
     /lustre07/scratch/pragov/crystal_structure_design/utils/SSSP/br_pbe_v1.4.uspp.F.UPF
     MD5 check sum: d3ffb7b29f6225aa16fe06858fb2a80b
     Pseudo is Ultrasoft + core correction, Zval =  7.0
     Generated by new atomic code, or converted to UPF format
     Using radial grid of  879 points,  6 beta functions with:
                l(1) =   0
                l(2) =   0
                l(3) =   1
                l(4) =   1
                l(5) =   2
                l(6) =   2
     Q(r) pseudized with  8 coefficients,  rinner =    1.100   1.100   1.100
                                                       1.100   1.100

     PseudoPot. # 4 for Cl read from file:
     /lustre07/scratch/pragov/crystal_structure_design/utils/SSSP/cl_pbe_v1.4.uspp.F.UPF
     MD5 check sum: fc6f6913ecf08c9257cb748ef0700058
     Pseudo is Ultrasoft + core correction, Zval =  7.0
     Generated by new atomic code, or converted to UPF format
     Using radial grid of  909 points,  6 beta functions with:
                l(1) =   0
                l(2) =   0
                l(3) =   1
                l(4) =   1
                l(5) =   2
                l(6) =   2
     Q(r) pseudized with  8 coefficients,  rinner =    1.300   1.300   1.300
                                                       1.300   1.300

     PseudoPot. # 5 for O  read from file:
     /lustre07/scratch/pragov/crystal_structure_design/utils/SSSP/O.pbe-n-kjpaw_psl.0.1.UPF
     MD5 check sum: 0234752ac141de4415c5fc33072bef88
     Pseudo is Projector augmented-wave + core cor, Zval =  6.0
     Generated using "atomic" code by A. Dal Corso  v.5.0.99 svn rev. 10869
     Shape of augmentation charge: BESSEL
     Using radial grid of 1095 points,  4 beta functions with:
                l(1) =   0
                l(2) =   0
                l(3) =   1
                l(4) =   1
     Q(r) pseudized with 0 coefficients

     atomic species   valence    mass     pseudopotential
        Hg            20.00   200.59200     Hg( 1.00)
        I              7.00   126.90447     I ( 1.00)
        Br             7.00    79.90400     Br( 1.00)
        Cl             7.00    35.45000     Cl( 1.00)
        O              6.00    15.99900     O ( 1.00)

     No symmetry found

                                    s                        frac. trans.

      isym =  1     identity

 cryst.   s( 1) = (     1          0          0      )
                  (     0          1          0      )
                  (     0          0          1      )

 cart.    s( 1) = (  1.0000000 -0.0000000 -0.0000000 )
                  (  0.0000000  1.0000000 -0.0000000 )
                  (  0.0000000  0.0000000  1.0000000 )

   Cartesian axes

     site n.     atom                  positions (alat units)
         1           Hg  tau(   1) = (  -0.0126250  -0.0424084   1.0421129  )
         2           Hg  tau(   2) = (   0.8758427   0.8449796   0.5486183  )
         3           Hg  tau(   3) = (   0.7585424   0.1789727   1.2758669  )
         4           Hg  tau(   4) = (   0.1087011   0.6288559   0.3156973  )
         5           Hg  tau(   5) = (   0.6394665   0.4647872   0.1918466  )
         6           Hg  tau(   6) = (   0.2219568   0.3383914   1.4022440  )
         7           Hg  tau(   7) = (   0.4073647   0.9411146   0.7944210  )
         8           Hg  tau(   8) = (   0.7361894   0.6475787   1.5697846  )
         9           Hg  tau(   9) = (   0.1229895   0.1543328   0.0284045  )
        10           Hg  tau(  10) = (   0.6804064   0.2312761   0.5067634  )
        11           Hg  tau(  11) = (   0.1802919   0.5671643   1.0833195  )
        12           I   tau(  12) = (   0.6777970   0.5446008   0.9453302  )
        13           I   tau(  13) = (   0.1851536   0.2555987   0.6481248  )
        14           Br  tau(  14) = (   0.4097669  -0.1151496   1.3406261  )
        15           Cl  tau(  15) = (   0.4554325   0.9056871   0.2546098  )
        16           O   tau(  16) = (   0.6009154   0.3564091   1.5031507  )
        17           O   tau(  17) = (   0.2613928   0.4466548   0.0915277  )
        18           O   tau(  18) = (   0.1292255   0.8226641   0.8749131  )
        19           O   tau(  19) = (   0.7322779  -0.0230570   0.7151347  )

   Crystallographic axes

     site n.     atom                  positions (cryst. coord.)
         1           Hg  tau(   1) = (  0.0529150  0.1310810  0.6542260  )
         2           Hg  tau(   2) = (  0.9476740  0.8702390  0.3444160  )
         3           Hg  tau(   3) = (  0.8487210  0.3737870  0.8009740  )
         4           Hg  tau(   4) = (  0.1561740  0.6325260  0.1981910  )
         5           Hg  tau(   5) = (  0.6718720  0.4607220  0.1204390  )
         6           Hg  tau(   6) = (  0.3271660  0.5417080  0.8803120  )
         7           Hg  tau(   7) = (  0.4992230  0.9992090  0.4987280  )
         8           Hg  tau(   8) = (  0.8655360  0.8547130  0.9854920  )
         9           Hg  tau(   9) = (  0.1314680  0.1472160  0.0178320  )
        10           Hg  tau(  10) = (  0.7231190  0.2964510  0.3181400  )
        11           Hg  tau(  11) = (  0.2747310  0.7009470  0.6800950  )
        12           I   tau(  12) = (  0.7623450  0.6575580  0.5934670  )
        13           I   tau(  13) = (  0.2380510  0.3420160  0.4068850  )
        14           Br  tau(  14) = (  0.4914730  0.1126520  0.8416290  )
        15           Cl  tau(  15) = (  0.5108710  0.8782870  0.1598410  )
        16           O   tau(  16) = (  0.7134230  0.5748390  0.9436600  )
        17           O   tau(  17) = (  0.2865330  0.4275810  0.0574600  )
        18           O   tau(  18) = (  0.2211890  0.9029330  0.5492600  )
        19           O   tau(  19) = (  0.7775140  0.0955370  0.4489530  )

     number of k points=    14
                       cart. coord. in units 2pi/alat
        k(    1) = (   0.0000000   0.0000000   0.0000000), wk =   0.0740741
        k(    2) = (   0.0000000   0.0000000   0.2092627), wk =   0.1481481
        k(    3) = (   0.0000000   0.3079391   0.0544594), wk =   0.1481481
        k(    4) = (   0.0000000   0.3079391   0.2637221), wk =   0.1481481
        k(    5) = (   0.0000000   0.3079391  -0.1548033), wk =   0.1481481
        k(    6) = (   0.3333333   0.0143463   0.0215477), wk =   0.1481481
        k(    7) = (   0.3333333   0.0143463   0.2308103), wk =   0.1481481
        k(    8) = (   0.3333333   0.0143463  -0.1877150), wk =   0.1481481
        k(    9) = (   0.3333333   0.3222854   0.0760071), wk =   0.1481481
        k(   10) = (   0.3333333   0.3222854   0.2852698), wk =   0.1481481
        k(   11) = (   0.3333333   0.3222854  -0.1332556), wk =   0.1481481
        k(   12) = (   0.3333333  -0.2935928  -0.0329118), wk =   0.1481481
        k(   13) = (   0.3333333  -0.2935928   0.1763509), wk =   0.1481481
        k(   14) = (   0.3333333  -0.2935928  -0.2421745), wk =   0.1481481

                       cryst. coord.
        k(    1) = (   0.0000000   0.0000000   0.0000000), wk =   0.0740741
        k(    2) = (   0.0000000   0.0000000   0.3333333), wk =   0.1481481
        k(    3) = (   0.0000000   0.3333333   0.0000000), wk =   0.1481481
        k(    4) = (   0.0000000   0.3333333   0.3333333), wk =   0.1481481
        k(    5) = (   0.0000000   0.3333333  -0.3333333), wk =   0.1481481
        k(    6) = (   0.3333333   0.0000000   0.0000000), wk =   0.1481481
        k(    7) = (   0.3333333   0.0000000   0.3333333), wk =   0.1481481
        k(    8) = (   0.3333333   0.0000000  -0.3333333), wk =   0.1481481
        k(    9) = (   0.3333333   0.3333333  -0.0000000), wk =   0.1481481
        k(   10) = (   0.3333333   0.3333333   0.3333333), wk =   0.1481481
        k(   11) = (   0.3333333   0.3333333  -0.3333333), wk =   0.1481481
        k(   12) = (   0.3333333  -0.3333333   0.0000000), wk =   0.1481481
        k(   13) = (   0.3333333  -0.3333333   0.3333333), wk =   0.1481481
        k(   14) = (   0.3333333  -0.3333333  -0.3333333), wk =   0.1481481

     Check: negative core charge=   -0.000005

     Initial potential from superposition of free atoms

     starting charge     271.9990, renormalised to     272.0000

     negative rho (up, down):  1.535E-02 0.000E+00
     Starting wfcs are  142 randomized atomic wfcs +  114 random wfcs
     Checking if some PAW data can be deallocated...

     Self-consistent Calculation

     iteration #  1     ecut=    30.00 Ry     beta= 0.70
     Davidson diagonalization with overlap

     ethr =  1.00E-02,  avg # of iterations =  8.5

     negative rho (up, down):  1.592E-02 0.000E+00

     total energy              =   -4411.77364395 Ry
     estimated scf accuracy    <       2.91627745 Ry

[...]

     total energy              =   -4413.38809879 Ry
     estimated scf accuracy    <       0.00000156 Ry

     iteration # 12     ecut=    30.00 Ry     beta= 0.70
     Davidson diagonalization with overlap

     ethr =  5.74E-10,  avg # of iterations =  4.0

     negative rho (up, down):  1.513E-02 0.000E+00

     End of self-consistent calculation

          k = 0.0000 0.0000 0.0000 (  9523 PWs)   bands (ev):

  -107.9600-107.9091-107.8975-107.8560-107.8237-107.6961-107.6931-107.6738
  -107.6634-107.6601-107.6538 -55.9689 -55.8851 -55.8092 -55.7895 -55.7860
   -55.7548 -55.7281 -55.7165 -55.7134 -55.6998 -55.6862 -55.6829 -55.6646
   -55.6566 -55.6512 -55.6458 -55.6241 -55.6207 -55.6063 -55.5481 -55.5382
   -55.5226 -55.5191 -55.4986 -55.4812 -55.4788 -55.4760 -55.4723 -55.4698
   -55.4678 -55.4580 -55.4541 -55.4462 -10.6908 -10.3693 -10.3538 -10.2622
    -6.2618  -6.1780  -4.1009  -3.9250  -0.3184  -0.1631  -0.0291   0.0144
     0.1740   0.6457   0.7581   0.8019   0.8251   0.8616   0.9232   0.9417
     1.0241   1.0801   1.0986   1.1661   1.2101   1.2952   1.4389   1.4675
     1.5004   1.5120   1.5316   1.5577   1.5724   1.5923   1.6105   1.6191
     1.6825   1.7011   1.7291   1.7360   1.7643   1.7689   1.7905   1.8291
     1.8387   1.8905   1.8947   1.9066   1.9281   1.9578   1.9826   1.9858
     2.0215   2.0463   2.1049   2.1150   2.1284   2.1747   2.2105   2.2334
     2.3007   2.3513   2.4098   2.9220   2.9623   3.5632   3.6237   3.7272
     4.0013   4.0228   4.0702   4.1155   4.4474   4.7147   4.7377   5.1835
     5.3067   5.3526   5.6449   5.6691   5.8277   5.9526   5.9733   5.9922
     6.0595   6.1457   6.2403   6.2645   6.4619   6.4840   6.6151   6.7951
     8.4466   9.3876   9.5468   9.9418  10.2391  10.2893  10.5701  10.6313
    11.0751  11.1442  11.3698  12.1120  12.3320  12.4959  12.7305  13.0644
    13.2812  13.4322  13.5231  13.6596  13.8363  13.9223  14.3675  14.5523
    14.7399  14.8245  14.9900  15.3103  15.5690  15.7789  15.9641  16.3371
    16.3910  16.5306  16.9195  17.1973  17.6372  17.6918  17.7236  17.7880
    18.1947  18.4582  18.5367  18.6068  18.8409  18.9396  19.0168  19.0743
    19.4728  19.7525  19.8154  19.8428  19.9631  20.0564  20.1435  20.1789
    20.3768  20.7322  20.7559  20.8286  20.8765  21.1562  21.3119  21.3475
    21.3793  21.5094  21.5626  21.6510  21.8131  21.9212  22.2265  22.2633
    22.3498  22.4084  22.5388  22.6464  22.7698  22.8205  23.0731  23.1631
    23.2406  23.2994  23.4794  23.6604  23.8745  24.0328  24.1742  24.2470
    24.3169  24.4554  24.4852  24.5953  24.9147  24.9956  25.1214  25.2457
    25.5255  25.5738  25.7466  25.9042  26.0854  26.1773  26.3994  26.4252
    26.5056  26.7705  26.8893  27.0102  27.0329  27.1628  27.2368  27.4078
    27.5517  27.6181  27.7781  27.8637  27.9625  28.1389  28.2183  28.3296

     occupation numbers
     1.0000   1.0000   1.0000   1.0000   1.0000   1.0000   1.0000   1.0000
     1.0000   1.0000   1.0000   1.0000   1.0000   1.0000   1.0000   1.0000
     1.0000   1.0000   1.0000   1.0000   1.0000   1.0000   1.0000   1.0000
     1.0000   1.0000   1.0000   1.0000   1.0000   1.0000   1.0000   1.0000
     1.0000   1.0000   1.0000   1.0000   1.0000   1.0000   1.0000   1.0000
     1.0000   1.0000   1.0000   1.0000   1.0000   1.0000   1.0000   1.0000
     1.0000   1.0000   1.0000   1.0000   1.0000   1.0000   1.0000   1.0000
     1.0000   1.0000   1.0000   1.0000   1.0000   1.0000   1.0000   1.0000
     1.0000   1.0000   1.0000   1.0000   1.0000   1.0000   1.0000   1.0000
     1.0000   1.0000   1.0000   1.0000   1.0000   1.0000   1.0000   1.0000
     1.0000   1.0000   1.0000   1.0000   1.0000   1.0000   1.0000   1.0000
     1.0000   1.0000   1.0000   1.0000   1.0000   1.0000   1.0000   1.0000
     1.0000   1.0000   1.0000   1.0000   1.0000   1.0000   1.0000   1.0000
     1.0000   1.0000   1.0000   1.0000   1.0000   1.0000   1.0000   1.0000
     1.0000   1.0000   1.0000   1.0000   1.0000   1.0000   1.0000   1.0000
     1.0000   1.0000   1.0000   1.0000   1.0000   1.0000   1.0000   1.0000
     1.0000   1.0000   1.0000   1.0000   1.0000   1.0000   1.0000   1.0000
     0.0000   0.0000   0.0000   0.0000   0.0000   0.0000   0.0000   0.0000
     0.0000   0.0000   0.0000   0.0000   0.0000   0.0000   0.0000   0.0000
     0.0000   0.0000   0.0000   0.0000   0.0000   0.0000   0.0000   0.0000
     0.0000   0.0000   0.0000   0.0000   0.0000   0.0000   0.0000   0.0000
     0.0000   0.0000   0.0000   0.0000   0.0000   0.0000   0.0000   0.0000
     0.0000   0.0000   0.0000   0.0000   0.0000   0.0000   0.0000   0.0000
     0.0000   0.0000   0.0000   0.0000   0.0000   0.0000   0.0000   0.0000
     0.0000   0.0000   0.0000   0.0000   0.0000   0.0000   0.0000   0.0000
     0.0000   0.0000   0.0000   0.0000   0.0000   0.0000   0.0000   0.0000
     0.0000   0.0000   0.0000   0.0000   0.0000   0.0000   0.0000   0.0000
     0.0000   0.0000   0.0000   0.0000   0.0000   0.0000   0.0000   0.0000
     0.0000   0.0000   0.0000   0.0000   0.0000   0.0000   0.0000   0.0000
     0.0000   0.0000   0.0000   0.0000   0.0000   0.0000   0.0000   0.0000
     0.0000   0.0000   0.0000   0.0000   0.0000   0.0000   0.0000   0.0000
     0.0000   0.0000   0.0000   0.0000   0.0000   0.0000   0.0000   0.0000

[...]

          k = 0.3333-0.2936-0.2422 (  9547 PWs)   bands (ev):

  -107.9600-107.9092-107.8975-107.8560-107.8237-107.6961-107.6931-107.6738
  -107.6634-107.6601-107.6538 -55.9704 -55.8863 -55.8104 -55.7908 -55.7873
   -55.7546 -55.7281 -55.7170 -55.7129 -55.7017 -55.6865 -55.6827 -55.6635
   -55.6556 -55.6513 -55.6471 -55.6252 -55.6210 -55.6078 -55.5487 -55.5383
   -55.5239 -55.5202 -55.5004 -55.4828 -55.4800 -55.4764 -55.4728 -55.4708
   -55.4678 -55.4587 -55.4550 -55.4474 -10.6587 -10.4040 -10.3441 -10.2706
    -6.2613  -6.1750  -4.0396  -3.9716  -0.2835  -0.2057  -0.1580   0.1447
     0.2648   0.4679   0.7240   0.8018   0.8304   0.8647   0.9344   0.9496
     1.0448   1.0752   1.1492   1.1800   1.2379   1.2856   1.4114   1.4515
     1.4718   1.4961   1.5221   1.5505   1.5657   1.5937   1.6127   1.6375
     1.6595   1.6712   1.7101   1.7355   1.7610   1.7785   1.7955   1.8260
     1.8334   1.8797   1.8894   1.9186   1.9314   1.9412   1.9826   2.0049
     2.0389   2.0580   2.0911   2.0997   2.1537   2.1725   2.2104   2.2219
     2.2303   2.3322   2.4358   2.7570   3.0322   3.3090   3.6181   3.6714
     3.8109   3.8521   4.0946   4.1812   4.4421   4.6071   4.8650   5.1973
     5.3048   5.5050   5.5626   5.6974   5.7549   5.8665   5.9798   6.0778
     6.1467   6.1921   6.3933   6.5547   6.6770   6.8203   6.9406   7.0056
     8.7881   9.1253   9.1744   9.8276  10.1794  10.5002  10.5797  10.7897
    11.0531  11.2141  11.3994  11.6917  12.2735  12.6555  12.9564  13.1376
    13.1832  13.3526  13.4856  13.6145  13.9035  14.1729  14.3070  14.4368
    14.5496  14.6905  14.9658  15.0926  15.3939  15.4784  15.6073  15.6963
    16.0513  16.5320  16.6287  16.7761  17.0735  17.3997  17.5687  17.6535
    17.9476  18.1226  18.3646  18.4671  18.6449  18.7486  18.8834  19.1490
    19.3869  19.4971  19.5335  19.6955  20.0508  20.1277  20.2990  20.4553
    20.6789  20.7149  20.8412  21.0159  21.1853  21.2792  21.3321  21.4945
    21.6165  21.8676  21.9975  22.0652  22.1598  22.4295  22.4545  22.5773
    22.7172  22.8420  22.9147  23.1622  23.1927  23.2802  23.3938  23.5229
    23.6724  23.7900  23.9510  24.0164  24.2207  24.4043  24.4579  24.5347
    24.7130  24.8009  24.9501  24.9828  25.0599  25.2103  25.3152  25.4447
    25.5411  25.6436  25.7637  25.9168  26.0035  26.0638  26.2691  26.3906
    26.4771  26.5893  26.7036  26.8389  26.9493  27.0533  27.2365  27.2641
    27.3707  27.5254  27.5774  27.6923  27.8261  27.9131  28.0194  28.0723

     occupation numbers
     1.0000   1.0000   1.0000   1.0000   1.0000   1.0000   1.0000   1.0000
     1.0000   1.0000   1.0000   1.0000   1.0000   1.0000   1.0000   1.0000
     1.0000   1.0000   1.0000   1.0000   1.0000   1.0000   1.0000   1.0000
     1.0000   1.0000   1.0000   1.0000   1.0000   1.0000   1.0000   1.0000
     1.0000   1.0000   1.0000   1.0000   1.0000   1.0000   1.0000   1.0000
     1.0000   1.0000   1.0000   1.0000   1.0000   1.0000   1.0000   1.0000
     1.0000   1.0000   1.0000   1.0000   1.0000   1.0000   1.0000   1.0000
     1.0000   1.0000   1.0000   1.0000   1.0000   1.0000   1.0000   1.0000
     1.0000   1.0000   1.0000   1.0000   1.0000   1.0000   1.0000   1.0000
     1.0000   1.0000   1.0000   1.0000   1.0000   1.0000   1.0000   1.0000
     1.0000   1.0000   1.0000   1.0000   1.0000   1.0000   1.0000   1.0000
     1.0000   1.0000   1.0000   1.0000   1.0000   1.0000   1.0000   1.0000
     1.0000   1.0000   1.0000   1.0000   1.0000   1.0000   1.0000   1.0000
     1.0000   1.0000   1.0000   1.0000   1.0000   1.0000   1.0000   1.0000
     1.0000   1.0000   1.0000   1.0000   1.0000   1.0000   1.0000   1.0000
     1.0000   1.0000   1.0000   1.0000   1.0000   1.0000   1.0000   1.0000
     1.0000   1.0000   1.0000   1.0000   1.0000   1.0000   1.0000   1.0000
     0.0000   0.0000   0.0000   0.0000   0.0000   0.0000   0.0000   0.0000
     0.0000   0.0000   0.0000   0.0000   0.0000   0.0000   0.0000   0.0000
     0.0000   0.0000   0.0000   0.0000   0.0000   0.0000   0.0000   0.0000
     0.0000   0.0000   0.0000   0.0000   0.0000   0.0000   0.0000   0.0000
     0.0000   0.0000   0.0000   0.0000   0.0000   0.0000   0.0000   0.0000
     0.0000   0.0000   0.0000   0.0000   0.0000   0.0000   0.0000   0.0000
     0.0000   0.0000   0.0000   0.0000   0.0000   0.0000   0.0000   0.0000
     0.0000   0.0000   0.0000   0.0000   0.0000   0.0000   0.0000   0.0000
     0.0000   0.0000   0.0000   0.0000   0.0000   0.0000   0.0000   0.0000
     0.0000   0.0000   0.0000   0.0000   0.0000   0.0000   0.0000   0.0000
     0.0000   0.0000   0.0000   0.0000   0.0000   0.0000   0.0000   0.0000
     0.0000   0.0000   0.0000   0.0000   0.0000   0.0000   0.0000   0.0000
     0.0000   0.0000   0.0000   0.0000   0.0000   0.0000   0.0000   0.0000
     0.0000   0.0000   0.0000   0.0000   0.0000   0.0000   0.0000   0.0000
     0.0000   0.0000   0.0000   0.0000   0.0000   0.0000   0.0000   0.0000

     highest occupied, lowest unoccupied level (ev):     7.0566    8.3358

!    total energy              =   -4413.38809882 Ry
     estimated scf accuracy    <       0.00000067 Ry

     The total energy is the sum of the following terms:
     one-electron contribution =   -2542.83645169 Ry
     hartree contribution      =    1292.54617297 Ry
     xc contribution           =    -449.60536117 Ry
     ewald contribution        =   -2034.28604928 Ry
     one-center paw contrib.   =    -679.20640966 Ry
      -> PAW hartree energy AE =       0.00000000 Ry
      -> PAW hartree energy PS =       0.00000000 Ry
      -> PAW xc energy AE      =       0.00000000 Ry
      -> PAW xc energy PS      =       0.00000000 Ry
      -> total E_H with PAW    =    1292.54617297 Ry
      -> total E_XC with PAW   =    -449.60536117 Ry

     convergence has been achieved in  12 iterations

     Writing all to output data dir bands_nm/myprefix.save/

     General routines

     Parallel routines

     PAW routines

   This run was terminated on:   0:45:43  17Jul2023

   JOB DONE.