     Program PWSCF v.7.1 starts on 15Jul2023 at 17:32:49

     Reading input from espresso_6410.pwi
Warning: card &CELL ignored
Warning: card / ignored

     Current dimensions of program PWSCF are:
     Max number of different atomic species (ntypx) = 10
     Max number of k-points (npk) =  40000
     Max angular momentum in pseudopotentials (lmaxx) =  4
     Message from routine setup:
     using ibrav=0 with symmetry is DISCOURAGED, use correct ibrav instead

     K-points division:     npool     =       2
     R & G space division:  proc/nbgrp/npool/nimage =       4
     Subspace diagonalization in iterative solution of the eigenvalue problem:
     one sub-group per band group will be used

     Using Slab Decomposition

     bravais-lattice index     =            0
     lattice parameter (alat)  =      14.8758  a.u.
     unit-cell volume          =    1726.2409 (a.u.)^3
     number of atoms/cell      =           20
     number of atomic types    =            3
     number of electrons       =       156.00
     number of Kohn-Sham states=          256
     kinetic-energy cutoff     =      30.0000  Ry
     charge density cutoff     =     240.0000  Ry
     scf convergence threshold =      1.0E-06
     mixing beta               =       0.7000
     number of iterations used =            8  plain     mixing
     Exchange-correlation=  SLA  PW   PBX  PBC
                           (   1   4   3   4   0   0   0)

     celldm(1)=  14.875754  celldm(2)=   0.000000  celldm(3)=   0.000000
     celldm(4)=   0.000000  celldm(5)=   0.000000  celldm(6)=   0.000000

     crystal axes: (cart. coord. in units of alat)
               a(1) = (   1.000000   0.000000   0.000000 )
               a(2) = (   0.567658   0.823264   0.000000 )
               a(3) = (   0.165280   0.086798   0.636979 )

     reciprocal axes: (cart. coord. in units 2 pi/alat)
               b(1) = (  1.000000 -0.689522 -0.165518 )
               b(2) = (  0.000000  1.214677 -0.165518 )
               b(3) = (  0.000000  0.000000  1.569910 )

     PseudoPot. # 1 for Li read from file:
     /lustre07/scratch/pragov/crystal_structure_design/utils/SSSP/li_pbe_v1.4.uspp.F.UPF
     MD5 check sum: e912e257baa3777c20ea3d68f190483c
     Pseudo is Ultrasoft, Zval =  3.0
     Generated by new atomic code, or converted to UPF format
     Using radial grid of  751 points,  5 beta functions with:
                l(1) =   0
                l(2) =   0
                l(3) =   0
                l(4) =   1
                l(5) =   1
     Q(r) pseudized with 10 coefficients,  rinner =    1.150   1.150   1.150

     PseudoPot. # 2 for V  read from file:
     /lustre07/scratch/pragov/crystal_structure_design/utils/SSSP/v_pbe_v1.4.uspp.F.UPF
     MD5 check sum: 22b79981416ebb76fdaf5b1b8640f6fb
     Pseudo is Ultrasoft + core correction, Zval = 13.0
     Generated by new atomic code, or converted to UPF format
     Using radial grid of  853 points,  6 beta functions with:
                l(1) =   0
                l(2) =   0
                l(3) =   1
                l(4) =   1
                l(5) =   2
                l(6) =   2
     Q(r) pseudized with  8 coefficients,  rinner =    1.100   1.100   1.100
                                                       1.100   1.100

     PseudoPot. # 3 for F  read from file:
     /lustre07/scratch/pragov/crystal_structure_design/utils/SSSP/f_pbe_v1.4.uspp.F.UPF
     MD5 check sum: 4c38b6a325caf53ec0e86aed9459de46
     Pseudo is Ultrasoft, Zval =  7.0
     Generated by new atomic code, or converted to UPF format
     Using radial grid of  799 points,  4 beta functions with:
                l(1) =   0
                l(2) =   0
                l(3) =   1
                l(4) =   1
     Q(r) pseudized with  8 coefficients,  rinner =    0.950   0.950   0.950

     atomic species   valence    mass     pseudopotential
        Li             3.00     6.94000     Li( 1.00)
        V             13.00    50.94150     V ( 1.00)
        F              7.00    18.99840     F ( 1.00)

      2 Sym. Ops., with inversion, found

                                    s                        frac. trans.

      isym =  1     identity

 cryst.   s( 1) = (     1          0          0      )
                  (     0          1          0      )
                  (     0          0          1      )

 cart.    s( 1) = (  1.0000000  0.0000000  0.0000000 )
                  (  0.0000000  1.0000000  0.0000000 )
                  (  0.0000000  0.0000000  1.0000000 )

      isym =  2     inversion

 cryst.   s( 2) = (    -1          0          0      )
                  (     0         -1          0      )
                  (     0          0         -1      )

 cart.    s( 2) = ( -1.0000000 -0.0000000  0.0000000 )
                  (  0.0000000 -1.0000000  0.0000000 )
                  (  0.0000000  0.0000000 -1.0000000 )

   Cartesian axes

     site n.     atom                  positions (alat units)
         1           Li  tau(   1) = (   0.8338770   0.4167123   0.1592448  )
         2           Li  tau(   2) = (   0.8990619   0.4933497   0.4777344  )
         3           V   tau(   3) = (   0.7817188   0.0756238   0.4724418  )
         4           V   tau(   4) = (   0.4233675   0.5572336   0.1539521  )
         5           V   tau(   5) = (   0.9512201   0.8344382   0.1645375  )
         6           V   tau(   6) = (   1.3095715   0.3528284   0.4830271  )
         7           F   tau(   7) = (   0.8630576   0.2765692   0.3532502  )
         8           F   tau(   8) = (   0.6349712   0.5101286   0.0347606  )
         9           F   tau(   9) = (   1.4748152   0.7414600   0.3126033  )
        10           F   tau(  10) = (   1.5302490   0.8366653   0.6310929  )
        11           F   tau(  11) = (   0.5259113   0.1557339   0.0053130  )
        12           F   tau(  12) = (   0.5093884   0.3879592   0.3238027  )
        13           F   tau(  13) = (   0.5826402   0.0433990   0.3184896  )
        14           F   tau(  14) = (   0.2838292   0.4116321   0.0000000  )
        15           F   tau(  15) = (   1.2235505   0.5221028   0.3131766  )
        16           F   tau(  16) = (   1.2070276   0.7543281   0.6316662  )
        17           F   tau(  17) = (   0.2581237   0.1686020   0.3243759  )
        18           F   tau(  18) = (   0.2026899   0.0733967   0.0058863  )
        19           F   tau(  19) = (   0.8698813   0.6334929   0.2837290  )
        20           F   tau(  20) = (   1.0979677   0.3999334   0.6022186  )

   Crystallographic axes

     site n.     atom                  positions (cryst. coord.)
         1           Li  tau(   1) = (  0.5201870  0.4798130  0.2500000  )
         2           Li  tau(   2) = (  0.4798130  0.5201870  0.7500000  )
         3           V   tau(   3) = (  0.6513770  0.0136610  0.7416910  )
         4           V   tau(   4) = (  0.0136610  0.6513770  0.2416910  )
         5           V   tau(   5) = (  0.3486230  0.9863390  0.2583090  )
         6           V   tau(   6) = (  0.9863390  0.3486230  0.7583090  )
         7           F   tau(   7) = (  0.6138880  0.2774730  0.5545710  )
         8           F   tau(   8) = (  0.2774730  0.6138880  0.0545710  )
         9           F   tau(   9) = (  0.9118210  0.8488930  0.4907590  )
        10           F   tau(  10) = (  0.8488930  0.9118210  0.9907590  )
        11           F   tau(  11) = (  0.4176500  0.1882870  0.0083410  )
        12           F   tau(  12) = (  0.1882870  0.4176500  0.5083410  )
        13           F   tau(  13) = (  0.5000000  0.0000000  0.5000000  )
        14           F   tau(  14) = ( -0.0000000  0.5000000  0.0000000  )
        15           F   tau(  15) = (  0.8117130  0.5823500  0.4916590  )
        16           F   tau(  16) = (  0.5823500  0.8117130  0.9916590  )
        17           F   tau(  17) = (  0.0881790  0.1511070  0.5092410  )
        18           F   tau(  18) = (  0.1511070  0.0881790  0.0092410  )
        19           F   tau(  19) = (  0.3861120  0.7225270  0.4454290  )
        20           F   tau(  20) = (  0.7225270  0.3861120  0.9454290  )

     number of k points=    14
                       cart. coord. in units 2pi/alat
        k(    1) = (   0.0000000   0.0000000   0.0000000), wk =   0.0740741
        k(    2) = (   0.0000000   0.0000000   0.5233033), wk =   0.1481481
        k(    3) = (   0.0000000   0.4048923  -0.0551726), wk =   0.1481481
        k(    4) = (   0.0000000   0.4048923   0.4681307), wk =   0.1481481
        k(    5) = (   0.0000000   0.4048923  -0.5784759), wk =   0.1481481
        k(    6) = (   0.3333333  -0.2298406  -0.0551726), wk =   0.1481481
        k(    7) = (   0.3333333  -0.2298406   0.4681307), wk =   0.1481481
        k(    8) = (   0.3333333  -0.2298406  -0.5784759), wk =   0.1481481
        k(    9) = (   0.3333333   0.1750518  -0.1103452), wk =   0.1481481
        k(   10) = (   0.3333333   0.1750518   0.4129581), wk =   0.1481481
        k(   11) = (   0.3333333   0.1750518  -0.6336485), wk =   0.1481481
        k(   12) = (   0.3333333  -0.6347329  -0.0000000), wk =   0.1481481
        k(   13) = (   0.3333333  -0.6347329   0.5233033), wk =   0.1481481
        k(   14) = (   0.3333333  -0.6347329  -0.5233033), wk =   0.1481481

                       cryst. coord.
        k(    1) = (   0.0000000   0.0000000   0.0000000), wk =   0.0740741
        k(    2) = (   0.0000000   0.0000000   0.3333333), wk =   0.1481481
        k(    3) = (   0.0000000   0.3333333   0.0000000), wk =   0.1481481
        k(    4) = (   0.0000000   0.3333333   0.3333333), wk =   0.1481481
        k(    5) = (   0.0000000   0.3333333  -0.3333333), wk =   0.1481481
        k(    6) = (   0.3333333   0.0000000   0.0000000), wk =   0.1481481
        k(    7) = (   0.3333333   0.0000000   0.3333333), wk =   0.1481481
        k(    8) = (   0.3333333   0.0000000  -0.3333333), wk =   0.1481481
        k(    9) = (   0.3333333   0.3333333   0.0000000), wk =   0.1481481
        k(   10) = (   0.3333333   0.3333333   0.3333333), wk =   0.1481481
        k(   11) = (   0.3333333   0.3333333  -0.3333333), wk =   0.1481481
        k(   12) = (   0.3333333  -0.3333333   0.0000000), wk =   0.1481481
        k(   13) = (   0.3333333  -0.3333333   0.3333333), wk =   0.1481481
        k(   14) = (   0.3333333  -0.3333333  -0.3333333), wk =   0.1481481

     Check: negative core charge=   -0.000004

     Initial potential from superposition of free atoms

     starting charge     155.0936, renormalised to     156.0000

     negative rho (up, down):  5.239E-03 0.000E+00
     Starting wfcs are  106 randomized atomic wfcs +  150 random wfcs

     Self-consistent Calculation

     iteration #  1     ecut=    30.00 Ry     beta= 0.70
     Davidson diagonalization with overlap

     ethr =  1.00E-02,  avg # of iterations =  6.0

     negative rho (up, down):  6.907E-03 0.000E+00

     total energy              =   -1289.76146994 Ry
     estimated scf accuracy    <       2.88176383 Ry

[...]

     c_bands:  1 eigenvalues not converged
     ethr =  6.59E-06,  avg # of iterations =  9.6

[...]

     c_bands:  1 eigenvalues not converged
     ethr =  5.69E-07,  avg # of iterations =  4.9

[...]

     total energy              =   -1291.28631818 Ry
     estimated scf accuracy    <       0.00001891 Ry

     iteration # 18     ecut=    30.00 Ry     beta= 0.70
     Davidson diagonalization with overlap

     ethr =  1.21E-08,  avg # of iterations =  1.0

     negative rho (up, down):  6.055E-03 0.000E+00

     End of self-consistent calculation

          k = 0.0000 0.0000 0.0000 (  4771 PWs)   bands (ev):

   -60.3587 -60.3574 -60.3538 -60.3527 -40.1485 -40.1107 -34.3166 -34.3093
   -34.3041 -34.3019 -34.2044 -34.1872 -34.1565 -34.1482 -34.1387 -34.1196
   -34.1062 -34.0912 -19.6318 -19.2620 -19.2035 -19.0601 -19.0490 -19.0486
   -18.9947 -18.9525 -18.9345 -18.8422 -18.7861 -18.7660 -18.7346 -18.6724
    -2.6497  -2.2418  -2.2326  -1.9531  -1.9226  -1.8471  -1.7808  -1.7506
    -1.7505  -1.6074  -1.5967  -1.5399  -1.4994  -1.4339  -1.2999  -1.2579
    -1.0857  -1.0048  -0.8898  -0.8508  -0.6653  -0.4897  -0.4728  -0.4281
    -0.3263  -0.2407   0.0715   0.1768   0.2234   0.2292   0.2563   0.2662
     0.3286   0.3313   0.3414   0.4162   0.4520   0.5586   0.6308   0.6468
     0.7116   0.8109   5.2046   5.3301   5.3952   5.4168   5.4755   5.6347
     5.6641   5.7347   5.7629   5.8080   5.8812   5.9996   6.4199   6.8676
     6.9563   6.9662   7.4452   7.4920   7.6470   8.1585   8.8973  12.0622
    12.1974  12.9250  13.2466  13.2823  13.3176  13.7117  14.7365  15.1504
    15.4833  15.9240  16.0020  16.0651  16.7655  16.8726  17.0461  17.3884
    17.4580  17.8433  18.0162  18.1214  18.2864  18.5699  18.7715  19.0979
    19.3399  19.4189  19.5229  19.7485  20.2769  20.3262  20.6351  20.8341
    20.9872  21.4007  22.1464  22.2614  22.5796  22.7695  22.8167  22.8960
    23.1313  24.4158  24.4238  24.4549  24.5867  24.7432  25.0210  25.4240
    25.4691  25.5760  26.0287  26.1232  26.4996  26.6636  27.0080  27.1394
    27.3340  27.4077  27.5008  27.8460  27.8625  28.2112  28.5410  28.8071
    29.2088  29.3042  29.9054  29.9291  29.9607  30.2207  30.7951  30.9142
    30.9717  30.9998  31.1974  31.3842  31.8865  31.9444  32.0904  32.1613
    32.1718  32.6163  32.6278  32.7275  32.7933  32.9536  33.1520  33.3221
    33.8856  34.0216  34.1089  34.1563  34.4070  34.8045  34.8388  34.8401
    35.2281  35.5961  35.8390  35.8787  35.9399  36.2146  36.5690  36.7525
    36.9569  37.1079  37.1290  37.4290  37.6643  37.8583  38.2146  38.2402
    38.3081  38.5860  38.7441  38.9584  39.0630  39.1601  39.4394  39.4997
    39.6913  39.7657  39.9974  40.1899  40.2568  40.3865  40.4045  40.7039
    40.9023  41.0655  41.0851  41.3081  41.5191  41.5269  42.0212  42.1864
    42.3446  42.3586  42.9438  43.1571  43.1670  43.2240  43.5481  43.5561
    43.6505  43.8975  44.1250  44.2639  44.2695  44.3011  44.6790  44.7386
    44.8026  44.9623  45.2984  45.3981  45.7299  45.7600  45.9069  46.0129

     occupation numbers
     1.0000   1.0000   1.0000   1.0000   1.0000   1.0000   1.0000   1.0000
     1.0000   1.0000   1.0000   1.0000   1.0000   1.0000   1.0000   1.0000
     1.0000   1.0000   1.0000   1.0000   1.0000   1.0000   1.0000   1.0000
     1.0000   1.0000   1.0000   1.0000   1.0000   1.0000   1.0000   1.0000
     1.0000   1.0000   1.0000   1.0000   1.0000   1.0000   1.0000   1.0000
     1.0000   1.0000   1.0000   1.0000   1.0000   1.0000   1.0000   1.0000
     1.0000   1.0000   1.0000   1.0000   1.0000   1.0000   1.0000   1.0000
     1.0000   1.0000   1.0000   1.0000   1.0000   1.0000   1.0000   1.0000
     1.0000   1.0000   1.0000   1.0000   1.0000   1.0000   1.0000   1.0000
     1.0000   1.0000   1.0000   1.0000   1.0000   1.0000   0.0000   0.0000
     0.0000   0.0000   0.0000   0.0000   0.0000   0.0000   0.0000   0.0000
     0.0000   0.0000   0.0000   0.0000   0.0000   0.0000   0.0000   0.0000
     0.0000   0.0000   0.0000   0.0000   0.0000   0.0000   0.0000   0.0000
     0.0000   0.0000   0.0000   0.0000   0.0000   0.0000   0.0000   0.0000
     0.0000   0.0000   0.0000   0.0000   0.0000   0.0000   0.0000   0.0000
     0.0000   0.0000   0.0000   0.0000   0.0000   0.0000   0.0000   0.0000
     0.0000   0.0000   0.0000   0.0000   0.0000   0.0000   0.0000   0.0000
     0.0000   0.0000   0.0000   0.0000   0.0000   0.0000   0.0000   0.0000
     0.0000   0.0000   0.0000   0.0000   0.0000   0.0000   0.0000   0.0000
     0.0000   0.0000   0.0000   0.0000   0.0000   0.0000   0.0000   0.0000
     0.0000   0.0000   0.0000   0.0000   0.0000   0.0000   0.0000   0.0000
     0.0000   0.0000   0.0000   0.0000   0.0000   0.0000   0.0000   0.0000
     0.0000   0.0000   0.0000   0.0000   0.0000   0.0000   0.0000   0.0000
     0.0000   0.0000   0.0000   0.0000   0.0000   0.0000   0.0000   0.0000
     0.0000   0.0000   0.0000   0.0000   0.0000   0.0000   0.0000   0.0000
     0.0000   0.0000   0.0000   0.0000   0.0000   0.0000   0.0000   0.0000
     0.0000   0.0000   0.0000   0.0000   0.0000   0.0000   0.0000   0.0000
     0.0000   0.0000   0.0000   0.0000   0.0000   0.0000   0.0000   0.0000
     0.0000   0.0000   0.0000   0.0000   0.0000   0.0000   0.0000   0.0000
     0.0000   0.0000   0.0000   0.0000   0.0000   0.0000   0.0000   0.0000
     0.0000   0.0000   0.0000   0.0000   0.0000   0.0000   0.0000   0.0000
     0.0000   0.0000   0.0000   0.0000   0.0000   0.0000   0.0000   0.0000

[...]

          k = 0.3333-0.6347-0.5233 (  4793 PWs)   bands (ev):

   -60.3581 -60.3577 -60.3537 -60.3534 -40.1394 -40.1202 -34.3136 -34.3101
   -34.3058 -34.3047 -34.1965 -34.1934 -34.1640 -34.1601 -34.1242 -34.1167
   -34.1001 -34.0989 -19.4382 -19.3529 -19.2179 -19.1757 -19.0510 -19.0217
   -19.0097 -18.9955 -18.8777 -18.8541 -18.7916 -18.7647 -18.7283 -18.6698
    -2.4784  -2.4269  -2.0791  -2.0667  -1.9115  -1.8755  -1.8368  -1.7707
    -1.7518  -1.6134  -1.5200  -1.4163  -1.3437  -1.3161  -1.2569  -1.1646
    -1.0045  -0.9616  -0.8416  -0.7351  -0.6245  -0.5543  -0.4379  -0.3767
    -0.2863  -0.2278  -0.0527  -0.0354   0.0260   0.0787   0.1453   0.1955
     0.2620   0.3126   0.3935   0.4105   0.4434   0.5082   0.5482   0.5609
     0.6522   0.7248   5.2871   5.3214   5.4415   5.4731   5.5000   5.5365
     5.6222   5.6962   5.7458   5.8222   5.9518   5.9695   6.6351   6.7589
     6.8569   7.0969   7.3586   7.5373   7.6386   7.8262  10.7969  11.3732
    11.6721  12.3821  13.2418  13.3505  13.6283  13.9876  14.3647  14.5926
    15.1218  15.8090  15.8223  16.3247  16.5851  16.8910  17.1285  17.1695
    17.5612  17.5991  17.6645  17.9008  18.3358  18.7717  18.9743  19.1752
    19.3337  19.8119  20.2151  20.4188  20.6236  20.7713  20.9217  21.2816
    21.7782  22.0349  22.1099  22.2892  22.5643  22.6792  22.8804  23.0463
    23.1978  23.4716  24.0479  24.1741  24.4183  24.5529  24.8339  25.0064
    25.4267  25.7473  25.8555  25.9057  26.1183  26.3490  26.6876  26.8530
    26.9484  27.1813  27.4711  27.7028  28.0132  28.2669  28.4573  28.7194
    28.8090  29.1051  29.1856  29.4416  29.6292  29.6539  29.8523  30.1530
    30.7200  30.8178  31.1958  31.4074  31.6616  32.0029  32.2634  32.4378
    32.7686  32.9083  33.0662  33.2836  33.5445  33.7518  33.8552  33.9399
    34.3441  34.4190  34.6491  34.8254  35.0675  35.1465  35.3050  35.5142
    35.7140  35.8042  35.9492  36.1979  36.4815  36.7020  36.7275  36.9019
    37.1202  37.2638  37.3624  37.5060  37.8162  38.0614  38.0954  38.2797
    38.3565  38.4386  38.5712  38.7123  38.7649  39.0438  39.2702  39.3525
    39.5225  39.6643  39.6949  39.9440  40.1968  40.5345  40.5994  40.6792
    40.8238  40.9256  41.1623  41.3219  41.4789  41.6239  41.6650  41.8929
    41.9978  42.0932  42.4725  42.5348  42.6851  42.9657  43.2049  43.4668
    43.6678  43.7207  43.8698  44.1051  44.2948  44.3902  44.6172  44.7658
    44.8345  44.8872  45.0618  45.2186  45.4447  45.5376  45.6278  45.8898

     occupation numbers
     1.0000   1.0000   1.0000   1.0000   1.0000   1.0000   1.0000   1.0000
     1.0000   1.0000   1.0000   1.0000   1.0000   1.0000   1.0000   1.0000
     1.0000   1.0000   1.0000   1.0000   1.0000   1.0000   1.0000   1.0000
     1.0000   1.0000   1.0000   1.0000   1.0000   1.0000   1.0000   1.0000
     1.0000   1.0000   1.0000   1.0000   1.0000   1.0000   1.0000   1.0000
     1.0000   1.0000   1.0000   1.0000   1.0000   1.0000   1.0000   1.0000
     1.0000   1.0000   1.0000   1.0000   1.0000   1.0000   1.0000   1.0000
     1.0000   1.0000   1.0000   1.0000   1.0000   1.0000   1.0000   1.0000
     1.0000   1.0000   1.0000   1.0000   1.0000   1.0000   1.0000   1.0000
     1.0000   1.0000   1.0000   1.0000   1.0000   1.0000   0.0000   0.0000
     0.0000   0.0000   0.0000   0.0000   0.0000   0.0000   0.0000   0.0000
     0.0000   0.0000   0.0000   0.0000   0.0000   0.0000   0.0000   0.0000
     0.0000   0.0000   0.0000   0.0000   0.0000   0.0000   0.0000   0.0000
     0.0000   0.0000   0.0000   0.0000   0.0000   0.0000   0.0000   0.0000
     0.0000   0.0000   0.0000   0.0000   0.0000   0.0000   0.0000   0.0000
     0.0000   0.0000   0.0000   0.0000   0.0000   0.0000   0.0000   0.0000
     0.0000   0.0000   0.0000   0.0000   0.0000   0.0000   0.0000   0.0000
     0.0000   0.0000   0.0000   0.0000   0.0000   0.0000   0.0000   0.0000
     0.0000   0.0000   0.0000   0.0000   0.0000   0.0000   0.0000   0.0000
     0.0000   0.0000   0.0000   0.0000   0.0000   0.0000   0.0000   0.0000
     0.0000   0.0000   0.0000   0.0000   0.0000   0.0000   0.0000   0.0000
     0.0000   0.0000   0.0000   0.0000   0.0000   0.0000   0.0000   0.0000
     0.0000   0.0000   0.0000   0.0000   0.0000   0.0000   0.0000   0.0000
     0.0000   0.0000   0.0000   0.0000   0.0000   0.0000   0.0000   0.0000
     0.0000   0.0000   0.0000   0.0000   0.0000   0.0000   0.0000   0.0000
     0.0000   0.0000   0.0000   0.0000   0.0000   0.0000   0.0000   0.0000
     0.0000   0.0000   0.0000   0.0000   0.0000   0.0000   0.0000   0.0000
     0.0000   0.0000   0.0000   0.0000   0.0000   0.0000   0.0000   0.0000
     0.0000   0.0000   0.0000   0.0000   0.0000   0.0000   0.0000   0.0000
     0.0000   0.0000   0.0000   0.0000   0.0000   0.0000   0.0000   0.0000
     0.0000   0.0000   0.0000   0.0000   0.0000   0.0000   0.0000   0.0000
     0.0000   0.0000   0.0000   0.0000   0.0000   0.0000   0.0000   0.0000

     highest occupied, lowest unoccupied level (ev):     5.4832    5.4755

!    total energy              =   -1291.28631777 Ry
     estimated scf accuracy    <       0.00000069 Ry

     The total energy is the sum of the following terms:
     one-electron contribution =    -831.76975650 Ry
     hartree contribution      =     476.91323848 Ry
     xc contribution           =    -215.77184875 Ry
     ewald contribution        =    -720.65795101 Ry

     convergence has been achieved in  18 iterations

     Writing all to output data dir bands_nm/myprefix.save/

     General routines

     Parallel routines

   This run was terminated on:  17:34:38  15Jul2023

   JOB DONE.