     Program PWSCF v.7.1 starts on 15Jul2023 at 18: 1:13

     Reading input from espresso_10782.pwi
Warning: card &CELL ignored
Warning: card / ignored

     Current dimensions of program PWSCF are:
     Max number of different atomic species (ntypx) = 10
     Max number of k-points (npk) =  40000
     Max angular momentum in pseudopotentials (lmaxx) =  4
     file Ba.pbe-spn-kjpaw_psl.1.0.0.UPF: wavefunction(s)  5S 6S renormalized
     file Pr.paw.z_13.atompaw.wentzcovitch.v1.2.upf: wavefunction(s)  6S 0P 5D 0D 4F 0F renormalized
     file O.pbe-n-kjpaw_psl.0.1.UPF: wavefunction(s)  2P renormalized
     Message from routine setup:
     using ibrav=0 with symmetry is DISCOURAGED, use correct ibrav instead

     K-points division:     npool     =       2
     R & G space division:  proc/nbgrp/npool/nimage =       4
     Subspace diagonalization in iterative solution of the eigenvalue problem:
     one sub-group per band group will be used

     Using Slab Decomposition

     bravais-lattice index     =            0
     lattice parameter (alat)  =      11.5034  a.u.
     unit-cell volume          =    2148.4753 (a.u.)^3
     number of atoms/cell      =           20
     number of atomic types    =            5
     number of electrons       =       166.00
     number of Kohn-Sham states=          256
     kinetic-energy cutoff     =      30.0000  Ry
     charge density cutoff     =     240.0000  Ry
     scf convergence threshold =      1.0E-06
     mixing beta               =       0.7000
     number of iterations used =            8  plain     mixing
     Exchange-correlation= SLA  PW   PBX  PBC
                           (   1   4   3   4   0   0   0)

     celldm(1)=  11.503360  celldm(2)=   0.000000  celldm(3)=   0.000000
     celldm(4)=   0.000000  celldm(5)=   0.000000  celldm(6)=   0.000000

     crystal axes: (cart. coord. in units of alat)
               a(1) = (   1.000000   0.000000   0.000000 )
               a(2) = (  -0.002787   1.002546   0.000000 )
               a(3) = (  -0.019610  -0.004425   1.407835 )

     reciprocal axes: (cart. coord. in units 2 pi/alat)
               b(1) = (  1.000000  0.002780  0.013938 )
               b(2) = (  0.000000  0.997461  0.003135 )
               b(3) = (  0.000000  0.000000  0.710310 )

     PseudoPot. # 1 for Ba read from file:
     /lustre07/scratch/pragov/crystal_structure_design/utils/SSSP/Ba.pbe-spn-kjpaw_psl.1.0.0.UPF
     MD5 check sum: c432291d3e53af55f19d5e8866385beb
     Pseudo is Projector augmented-wave + core cor, Zval = 10.0
     Generated using "atomic" code by A. Dal Corso  v.5.1
     Shape of augmentation charge: PSQ
     Using radial grid of 1251 points,  7 beta functions with:
                l(1) =   0
                l(2) =   0
                l(3) =   0
                l(4) =   1
                l(5) =   1
                l(6) =   2
                l(7) =   2
     Q(r) pseudized with 0 coefficients

     PseudoPot. # 2 for Sr read from file:
     /lustre07/scratch/pragov/crystal_structure_design/utils/SSSP/Sr_pbe_v1.uspp.F.UPF
     MD5 check sum: 6b418c05fbe9db5448babca5e47b7a5b
     Pseudo is Ultrasoft + core correction, Zval = 10.0
     Generated by new atomic code, or converted to UPF format
     Using radial grid of  883 points,  6 beta functions with:
                l(1) =   0
                l(2) =   0
                l(3) =   1
                l(4) =   1
                l(5) =   2
                l(6) =   2
     Q(r) pseudized with  6 coefficients,  rinner =    1.400   1.400   1.400
                                                       1.400   1.400

     PseudoPot. # 3 for Pr read from file:
     /lustre07/scratch/pragov/crystal_structure_design/utils/SSSP/Pr.paw.z_13.atompaw.wentzcovitch.v1.2.upf
     MD5 check sum: e0f8e046fa815e336ba020f7e7bc75cb
     Pseudo is Projector augmented-wave + core cor, Zval = 13.0
     Generated using ATOMPAW code
     Shape of augmentation charge: BESSEL
     Using radial grid of 1103 points,  8 beta functions with:
                l(1) =   0
                l(2) =   0
                l(3) =   1
                l(4) =   1
                l(5) =   2
                l(6) =   2
                l(7) =   3
                l(8) =   3
     Q(r) pseudized with 0 coefficients

     PseudoPot. # 4 for W  read from file:
     /lustre07/scratch/pragov/crystal_structure_design/utils/SSSP/W_pbe_v1.2.uspp.F.UPF
     MD5 check sum: 9c083fa34c2a2ea0f02f1f893e16e1c8
     Pseudo is Ultrasoft + core correction, Zval = 14.0
     Generated by new atomic code, or converted to UPF format
     Using radial grid of  923 points,  8 beta functions with:
                l(1) =   0
                l(2) =   0
                l(3) =   0
                l(4) =   1
                l(5) =   1
                l(6) =   2
                l(7) =   2
                l(8) =   3
     Q(r) pseudized with  6 coefficients,  rinner =    1.350   1.350   1.350
                                                       1.350   1.350   1.350
                                                       1.350

     PseudoPot. # 5 for O  read from file:
     /lustre07/scratch/pragov/crystal_structure_design/utils/SSSP/O.pbe-n-kjpaw_psl.0.1.UPF
     MD5 check sum: 0234752ac141de4415c5fc33072bef88
     Pseudo is Projector augmented-wave + core cor, Zval =  6.0
     Generated using "atomic" code by A. Dal Corso  v.5.0.99 svn rev. 10869
     Shape of augmentation charge: BESSEL
     Using radial grid of 1095 points,  4 beta functions with:
                l(1) =   0
                l(2) =   0
                l(3) =   1
                l(4) =   1
     Q(r) pseudized with 0 coefficients

     atomic species   valence    mass     pseudopotential
        Ba            10.00   137.32700     Ba( 1.00)
        Sr            10.00    87.62000     Sr( 1.00)
        Pr            13.00   140.90766     Pr( 1.00)
        W             14.00   183.84000     W ( 1.00)
        O              6.00    15.99900     O ( 1.00)

      2 Sym. Ops., with inversion, found

                                    s                        frac. trans.

      isym =  1     identity

 cryst.   s( 1) = (     1          0          0      )
                  (     0          1          0      )
                  (     0          0          1      )

 cart.    s( 1) = (  1.0000000  0.0000000 -0.0000000 )
                  (  0.0000000  1.0000000  0.0000000 )
                  (  0.0000000  0.0000000  1.0000000 )

      isym =  2     inversion

 cryst.   s( 2) = (    -1          0          0      )
                  (     0         -1          0      )
                  (     0          0         -1      )

 cart.    s( 2) = ( -1.0000000  0.0000000  0.0000000 )
                  (  0.0000000 -1.0000000  0.0000000 )
                  (  0.0000000  0.0000000 -1.0000000 )

   Cartesian axes

     site n.     atom                  positions (alat units)
         1           Ba  tau(   1) = (   0.5011009   0.5283427   0.3502395  )
         2           Ba  tau(   2) = (   0.4765023   0.4697780   1.0575960  )
         3           Sr  tau(   3) = (   0.9872525   0.0345497   0.3568453  )
         4           Sr  tau(   4) = (  -0.0096494   0.9635709   1.0509902  )
         5           Pr  tau(   5) = (  -0.0013933   0.5012730   0.0000000  )
         6           Pr  tau(   6) = (   0.4901949  -0.0022127   0.7039177  )
         7           W   tau(   7) = (   0.5000000   0.0000000   0.0000000  )
         8           W   tau(   8) = (  -0.0111984   0.4990603   0.7039177  )
         9           O   tau(   9) = (   0.2159087   0.1894974   1.3451226  )
        10           O   tau(  10) = (   0.2515478   0.6940676   0.7437151  )
        11           O   tau(  11) = (   0.7616945   0.8086232   0.0627129  )
        12           O   tau(  12) = (   0.7260554   0.3040530   0.6641204  )
        13           O   tau(  13) = (   0.2791199   0.7353446   1.3453321  )
        14           O   tau(  14) = (   0.1781784   0.2245217   0.7687280  )
        15           O   tau(  15) = (   0.6984833   0.2627760   0.0625034  )
        16           O   tau(  16) = (   0.7994248   0.7735989   0.6391075  )
        17           O   tau(  17) = (   0.4053269   1.0000760   0.3190657  )
        18           O   tau(  18) = (   0.0629389   0.4699628   0.3831510  )
        19           O   tau(  19) = (   0.5722763  -0.0019554   1.0887698  )
        20           O   tau(  20) = (   0.9146642   0.5281578   1.0246845  )

   Crystallographic axes

     site n.     atom                  positions (cryst. coord.)
         1           Ba  tau(   1) = (  0.5074511  0.5280991  0.2487787  )
         2           Ba  tau(   2) = (  0.4925489  0.4719009  0.7512213  )
         3           Sr  tau(   3) = (  0.9923223  0.0355808  0.2534709  )
         4           Sr  tau(   4) = (  0.0076777  0.9644192  0.7465291  )
         5           Pr  tau(   5) = ( -0.0000000  0.5000000  0.0000000  )
         6           Pr  tau(   6) = (  0.5000000  0.0000000  0.5000000  )
         7           W   tau(   7) = (  0.5000000  0.0000000  0.0000000  )
         8           W   tau(   8) = (  0.0000000  0.5000000  0.5000000  )
         9           O   tau(   9) = (  0.2351837  0.1932337  0.9554544  )
        10           O   tau(  10) = (  0.2638430  0.6946369  0.5282685  )
        11           O   tau(  11) = (  0.7648163  0.8067663  0.0445456  )
        12           O   tau(  12) = (  0.7361570  0.3053631  0.4717315  )
        13           O   tau(  13) = (  0.2999151  0.7376953  0.9556032  )
        14           O   tau(  14) = (  0.1895170  0.2263618  0.5460354  )
        15           O   tau(  15) = (  0.7000849  0.2623047  0.0443968  )
        16           O   tau(  16) = (  0.8104830  0.7736382  0.4539646  )
        17           O   tau(  17) = (  0.4125539  0.9985367  0.2266356  )
        18           O   tau(  18) = (  0.0695856  0.4699707  0.2721561  )
        19           O   tau(  19) = (  0.5874461  0.0014633  0.7733644  )
        20           O   tau(  20) = (  0.9304144  0.5300293  0.7278439  )

     number of k points=    14
                       cart. coord. in units 2pi/alat
        k(    1) = (   0.0000000   0.0000000   0.0000000), wk =   0.0740741
        k(    2) = (   0.0000000   0.0000000   0.2367701), wk =   0.1481481
        k(    3) = (   0.0000000   0.3324868   0.0010451), wk =   0.1481481
        k(    4) = (   0.0000000   0.3324868   0.2378152), wk =   0.1481481
        k(    5) = (   0.0000000   0.3324868  -0.2357250), wk =   0.1481481
        k(    6) = (   0.3333333   0.0009265   0.0046460), wk =   0.1481481
        k(    7) = (   0.3333333   0.0009265   0.2414161), wk =   0.1481481
        k(    8) = (   0.3333333   0.0009265  -0.2321241), wk =   0.1481481
        k(    9) = (   0.3333333   0.3334134   0.0056911), wk =   0.1481481
        k(   10) = (   0.3333333   0.3334134   0.2424612), wk =   0.1481481
        k(   11) = (   0.3333333   0.3334134  -0.2310790), wk =   0.1481481
        k(   12) = (   0.3333333  -0.3315603   0.0036009), wk =   0.1481481
        k(   13) = (   0.3333333  -0.3315603   0.2403710), wk =   0.1481481
        k(   14) = (   0.3333333  -0.3315603  -0.2331692), wk =   0.1481481

                       cryst. coord.
        k(    1) = (   0.0000000   0.0000000   0.0000000), wk =   0.0740741
        k(    2) = (   0.0000000   0.0000000   0.3333333), wk =   0.1481481
        k(    3) = (   0.0000000   0.3333333  -0.0000000), wk =   0.1481481
        k(    4) = (   0.0000000   0.3333333   0.3333333), wk =   0.1481481
        k(    5) = (   0.0000000   0.3333333  -0.3333333), wk =   0.1481481
        k(    6) = (   0.3333333  -0.0000000  -0.0000000), wk =   0.1481481
        k(    7) = (   0.3333333  -0.0000000   0.3333333), wk =   0.1481481
        k(    8) = (   0.3333333  -0.0000000  -0.3333333), wk =   0.1481481
        k(    9) = (   0.3333333   0.3333333  -0.0000000), wk =   0.1481481
        k(   10) = (   0.3333333   0.3333333   0.3333333), wk =   0.1481481
        k(   11) = (   0.3333333   0.3333333  -0.3333333), wk =   0.1481481
        k(   12) = (   0.3333333  -0.3333333  -0.0000000), wk =   0.1481481
        k(   13) = (   0.3333333  -0.3333333   0.3333333), wk =   0.1481481
        k(   14) = (   0.3333333  -0.3333333  -0.3333333), wk =   0.1481481

     Check: negative core charge=   -0.000009

     Initial potential from superposition of free atoms

     starting charge     165.6832, renormalised to     166.0000

     negative rho (up, down):  2.572E-01 0.000E+00
     Starting wfcs are  174 randomized atomic wfcs +   82 random wfcs
     Checking if some PAW data can be deallocated...

     Self-consistent Calculation

     iteration #  1     ecut=    30.00 Ry     beta= 0.70
     Davidson diagonalization with overlap

     ethr =  1.00E-02,  avg # of iterations =  6.1

     negative rho (up, down):  3.331E-01 0.000E+00

     total energy              =   -2835.35103856 Ry
     estimated scf accuracy    <      16.77057463 Ry

[...]

     total energy              =   -2849.02175178 Ry
     estimated scf accuracy    <       0.00000673 Ry

     iteration # 60     ecut=    30.00 Ry     beta= 0.70
     Davidson diagonalization with overlap

     ethr =  7.60E-10,  avg # of iterations =  1.0

     negative rho (up, down):  2.610E-01 0.000E+00

     End of self-consistent calculation

          k = 0.0000 0.0000 0.0000 (  5935 PWs)   bands (ev):

   -64.5504 -64.5088 -28.7710 -28.7402 -28.7287 -28.6906 -28.6615 -28.6400
   -24.2568 -24.2432 -24.0790 -24.0735 -16.2830 -16.2504  -8.2813  -8.2759
    -8.1487  -8.0991  -8.0683  -8.0357  -7.9849  -7.8663  -7.6583  -7.5901
    -7.4870  -7.4497  -6.1602  -6.1242  -6.0363  -6.0354  -5.9074  -5.8934
    -5.3139  -5.2670  -5.2282  -5.1846  -5.1647  -5.0842  -1.6217  -1.6033
    -1.5735  -1.4957  -1.3944  -1.3581   4.8303   4.8446   4.9869   4.9968
     5.1093   5.1348   5.2376   5.7257   5.7747   5.8663   5.9810   6.1615
     6.6970   6.8050   7.0000   7.1851   7.1916   7.3016   7.5444   7.6680
     7.6718   7.7806   7.8007   7.8632   7.9244   8.0345   8.1056   8.1465
     8.1856   8.2430   8.2789   8.2902   8.3356   8.3561   8.4215   8.5413
    11.6178  11.7508  11.8849  11.8876  11.8994  11.9077  11.9338  11.9377
    11.9521  11.9571  12.0269  12.0436  12.1523  12.1766  12.1873  12.1960
    12.2559  12.2653  12.5765  12.7071  13.6138  14.1889  14.3681  14.5188
    14.6816  14.7733  14.9102  14.9810  15.1289  15.1706  15.2184  15.3139
    15.4070  15.4408  16.0019  16.1808  16.3413  16.4954  16.5239  16.6641
    16.8163  17.2191  17.2763  17.5168  17.5558  17.7049  17.7332  17.8883
    18.0484  18.1558  18.1848  18.3116  18.5040  19.0511  19.4491  19.7903
    20.0123  20.0791  20.2905  20.4525  20.6806  21.4919  21.5959  21.6948
    22.0257  22.0664  22.2092  22.4023  22.5066  22.6593  22.9444  23.1708
    23.2006  23.7125  23.9104  24.3292  24.6024  24.9372  24.9929  25.3076
    25.3271  25.5306  25.5493  25.7318  26.0319  26.4547  26.5348  26.6975
    26.7677  26.9839  27.5074  27.6730  27.6916  27.8645  28.0617  28.3371
    28.3537  28.6460  28.7018  28.9057  29.2598  29.3941  29.6835  29.7326
    30.0694  30.2372  30.3592  30.4655  30.6162  30.7340  30.7814  31.0163
    31.0873  31.4709  31.4890  31.6705  31.7864  32.0336  32.3558  32.3747
    32.5811  32.6864  32.7675  32.8773  33.1265  33.1490  33.2899  33.4893
    33.5176  33.7414  34.0943  34.2433  34.2913  34.4575  34.5644  34.6290
    35.2099  35.3684  35.7242  36.0067  36.0391  36.1010  36.2523  36.3422
    36.4458  36.4476  36.6766  36.8562  36.9662  37.0040  37.1470  37.2570
    37.3267  37.6079  37.6355  37.6671  37.7498  38.0720  38.1520  38.1915
    38.3924  38.4317  38.5070  38.7343  38.8750  38.9831  39.1972  39.2991
    39.3038  39.4326  39.6352  39.8574  39.8593  40.2969  40.3593  40.5456

     occupation numbers
     1.0000   1.0000   1.0000   1.0000   1.0000   1.0000   1.0000   1.0000
     1.0000   1.0000   1.0000   1.0000   1.0000   1.0000   1.0000   1.0000
     1.0000   1.0000   1.0000   1.0000   1.0000   1.0000   1.0000   1.0000
     1.0000   1.0000   1.0000   1.0000   1.0000   1.0000   1.0000   1.0000
     1.0000   1.0000   1.0000   1.0000   1.0000   1.0000   1.0000   1.0000
     1.0000   1.0000   1.0000   1.0000   1.0000   1.0000   1.0000   1.0000
     1.0000   1.0000   1.0000   1.0000   1.0000   1.0000   1.0000   1.0000
     1.0000   1.0000   1.0000   1.0000   1.0000   1.0000   1.0000   1.0000
     1.0000   1.0000   1.0000   1.0000   1.0000   1.0000   1.0000   1.0000
     1.0000   1.0000   1.0000   1.0000   1.0000   1.0000   1.0000   1.0000
     1.0000   1.0000   1.0000   0.0000   0.0000   0.0000   0.0000   0.0000
     0.0000   0.0000   0.0000   0.0000   0.0000   0.0000   0.0000   0.0000
     0.0000   0.0000   0.0000   0.0000   0.0000   0.0000   0.0000   0.0000
     0.0000   0.0000   0.0000   0.0000   0.0000   0.0000   0.0000   0.0000
     0.0000   0.0000   0.0000   0.0000   0.0000   0.0000   0.0000   0.0000
     0.0000   0.0000   0.0000   0.0000   0.0000   0.0000   0.0000   0.0000
     0.0000   0.0000   0.0000   0.0000   0.0000   0.0000   0.0000   0.0000
     0.0000   0.0000   0.0000   0.0000   0.0000   0.0000   0.0000   0.0000
     0.0000   0.0000   0.0000   0.0000   0.0000   0.0000   0.0000   0.0000
     0.0000   0.0000   0.0000   0.0000   0.0000   0.0000   0.0000   0.0000
     0.0000   0.0000   0.0000   0.0000   0.0000   0.0000   0.0000   0.0000
     0.0000   0.0000   0.0000   0.0000   0.0000   0.0000   0.0000   0.0000
     0.0000   0.0000   0.0000   0.0000   0.0000   0.0000   0.0000   0.0000
     0.0000   0.0000   0.0000   0.0000   0.0000   0.0000   0.0000   0.0000
     0.0000   0.0000   0.0000   0.0000   0.0000   0.0000   0.0000   0.0000
     0.0000   0.0000   0.0000   0.0000   0.0000   0.0000   0.0000   0.0000
     0.0000   0.0000   0.0000   0.0000   0.0000   0.0000   0.0000   0.0000
     0.0000   0.0000   0.0000   0.0000   0.0000   0.0000   0.0000   0.0000
     0.0000   0.0000   0.0000   0.0000   0.0000   0.0000   0.0000   0.0000
     0.0000   0.0000   0.0000   0.0000   0.0000   0.0000   0.0000   0.0000
     0.0000   0.0000   0.0000   0.0000   0.0000   0.0000   0.0000   0.0000
     0.0000   0.0000   0.0000   0.0000   0.0000   0.0000   0.0000   0.0000

[...]

          k = 0.3333-0.3316-0.2332 (  5976 PWs)   bands (ev):

   -64.5504 -64.5089 -28.7711 -28.7402 -28.7287 -28.6906 -28.6616 -28.6401
   -24.2499 -24.2425 -24.0804 -24.0792 -16.2752 -16.2567  -8.5858  -8.4838
    -8.2779  -8.2114  -8.2003  -8.1349  -7.7564  -7.6196  -7.4731  -7.4036
    -7.2854  -7.2247  -6.1023  -6.0605  -6.0215  -5.9694  -5.8864  -5.7976
    -5.4578  -5.4170  -5.3445  -5.3025  -5.2385  -5.2118  -1.5334  -1.4909
    -1.4662  -1.4583  -1.4041  -1.3688   4.8364   4.9677   5.2885   5.3772
     5.4991   5.5183   5.5538   5.6326   5.6924   5.8733   5.9038   6.0105
     6.5587   6.6459   6.6979   6.7586   6.7956   6.9395   7.3318   7.3662
     7.4314   7.5028   7.5522   7.6892   7.7214   7.8142   7.9065   7.9564
     7.9774   8.0618   8.1607   8.2257   8.2797   8.4011   8.4722   8.5320
    11.7182  11.7243  11.8191  11.8453  11.9161  11.9330  11.9441  11.9949
    12.0452  12.0697  12.0710  12.0946  12.1243  12.1656  12.3397  12.5188
    12.5976  12.6284  12.7379  12.7488  14.3274  14.4545  14.5754  14.6958
    14.8333  14.9705  15.0716  15.2483  15.3924  15.4717  15.6612  15.7321
    15.8481  15.9796  16.1689  16.1997  16.3957  16.6492  16.7256  16.8588
    16.9054  17.0549  17.1790  17.1945  17.3412  17.5071  17.6140  17.6613
    17.7689  17.8665  18.0969  18.4412  18.5361  18.8220  19.1614  19.2559
    19.5105  19.6056  20.1851  20.4345  20.5388  20.8850  21.4422  21.9629
    22.2362  22.4606  22.6496  22.7825  22.9289  23.0468  23.1273  23.4223
    23.5139  23.6384  23.7672  23.9491  24.0905  24.3883  24.6504  24.6894
    24.9327  25.1283  25.2276  25.7823  26.1157  26.2553  26.4147  26.5536
    26.8641  26.9327  27.1072  27.2692  27.7136  27.8728  28.0335  28.4102
    28.4959  28.6270  28.8141  29.0492  29.2008  29.4143  29.7905  29.9089
    30.0631  30.2555  30.3236  30.4545  30.6465  30.8191  30.9594  31.0589
    31.1282  31.3845  31.4995  31.8137  31.9455  32.0010  32.2049  32.2771
    32.4516  32.5144  32.6359  32.7896  32.9670  33.0737  33.1937  33.4825
    33.6521  33.7954  33.8971  34.1083  34.2728  34.4006  34.5836  34.7959
    34.8773  35.1741  35.2769  35.3514  35.6609  35.7480  35.8618  36.1586
    36.2169  36.3049  36.5184  36.5989  36.8239  36.8947  36.9371  37.1026
    37.3338  37.3902  37.4907  37.8172  38.0265  38.1672  38.2742  38.4390
    38.5400  38.7079  38.8352  39.0083  39.1242  39.3465  39.4974  39.6220
    39.6680  39.8821  39.9944  40.0710  40.3913  40.4348  40.7658  40.9692

     occupation numbers
     1.0000   1.0000   1.0000   1.0000   1.0000   1.0000   1.0000   1.0000
     1.0000   1.0000   1.0000   1.0000   1.0000   1.0000   1.0000   1.0000
     1.0000   1.0000   1.0000   1.0000   1.0000   1.0000   1.0000   1.0000
     1.0000   1.0000   1.0000   1.0000   1.0000   1.0000   1.0000   1.0000
     1.0000   1.0000   1.0000   1.0000   1.0000   1.0000   1.0000   1.0000
     1.0000   1.0000   1.0000   1.0000   1.0000   1.0000   1.0000   1.0000
     1.0000   1.0000   1.0000   1.0000   1.0000   1.0000   1.0000   1.0000
     1.0000   1.0000   1.0000   1.0000   1.0000   1.0000   1.0000   1.0000
     1.0000   1.0000   1.0000   1.0000   1.0000   1.0000   1.0000   1.0000
     1.0000   1.0000   1.0000   1.0000   1.0000   1.0000   1.0000   1.0000
     1.0000   1.0000   1.0000   0.0000   0.0000   0.0000   0.0000   0.0000
     0.0000   0.0000   0.0000   0.0000   0.0000   0.0000   0.0000   0.0000
     0.0000   0.0000   0.0000   0.0000   0.0000   0.0000   0.0000   0.0000
     0.0000   0.0000   0.0000   0.0000   0.0000   0.0000   0.0000   0.0000
     0.0000   0.0000   0.0000   0.0000   0.0000   0.0000   0.0000   0.0000
     0.0000   0.0000   0.0000   0.0000   0.0000   0.0000   0.0000   0.0000
     0.0000   0.0000   0.0000   0.0000   0.0000   0.0000   0.0000   0.0000
     0.0000   0.0000   0.0000   0.0000   0.0000   0.0000   0.0000   0.0000
     0.0000   0.0000   0.0000   0.0000   0.0000   0.0000   0.0000   0.0000
     0.0000   0.0000   0.0000   0.0000   0.0000   0.0000   0.0000   0.0000
     0.0000   0.0000   0.0000   0.0000   0.0000   0.0000   0.0000   0.0000
     0.0000   0.0000   0.0000   0.0000   0.0000   0.0000   0.0000   0.0000
     0.0000   0.0000   0.0000   0.0000   0.0000   0.0000   0.0000   0.0000
     0.0000   0.0000   0.0000   0.0000   0.0000   0.0000   0.0000   0.0000
     0.0000   0.0000   0.0000   0.0000   0.0000   0.0000   0.0000   0.0000
     0.0000   0.0000   0.0000   0.0000   0.0000   0.0000   0.0000   0.0000
     0.0000   0.0000   0.0000   0.0000   0.0000   0.0000   0.0000   0.0000
     0.0000   0.0000   0.0000   0.0000   0.0000   0.0000   0.0000   0.0000
     0.0000   0.0000   0.0000   0.0000   0.0000   0.0000   0.0000   0.0000
     0.0000   0.0000   0.0000   0.0000   0.0000   0.0000   0.0000   0.0000
     0.0000   0.0000   0.0000   0.0000   0.0000   0.0000   0.0000   0.0000
     0.0000   0.0000   0.0000   0.0000   0.0000   0.0000   0.0000   0.0000

     highest occupied, lowest unoccupied level (ev):    11.8849   11.7872

!    total energy              =   -2849.02175148 Ry
     estimated scf accuracy    <       0.00000050 Ry

     The total energy is the sum of the following terms:
     one-electron contribution =    -277.11149177 Ry
     hartree contribution      =     240.98873051 Ry
     xc contribution           =    -272.81331518 Ry
     ewald contribution        =    -836.68166338 Ry
     one-center paw contrib.   =   -1703.40401165 Ry
      -> PAW hartree energy AE =      57.63606684 Ry
      -> PAW hartree energy PS =     -57.41339138 Ry
      -> PAW xc energy AE      =    -788.49086899 Ry
      -> PAW xc energy PS      =      38.35407996 Ry
      -> total E_H with PAW    =     241.21140596 Ry
      -> total E_XC with PAW   =   -1022.95010421 Ry

     convergence has been achieved in  60 iterations

     Writing all to output data dir bands_nm/myprefix.save/

     General routines

     Parallel routines

     PAW routines

   This run was terminated on:  18: 7:36  15Jul2023

   JOB DONE.