     Program PWSCF v.7.1 starts on 13Jul2023 at  2:33: 6

     Reading input from espresso_12692.pwi
Warning: card &CELL ignored
Warning: card / ignored

     Current dimensions of program PWSCF are:
     Max number of different atomic species (ntypx) = 10
     Max number of k-points (npk) =  40000
     Max angular momentum in pseudopotentials (lmaxx) =  4
     file Mg.pbe-n-kjpaw_psl.0.3.0.UPF: wavefunction(s)  3S renormalized
     Message from routine setup:
     using ibrav=0 with symmetry is DISCOURAGED, use correct ibrav instead

     K-points division:     npool     =       2
     R & G space division:  proc/nbgrp/npool/nimage =       8
     Subspace diagonalization in iterative solution of the eigenvalue problem:
     a serial algorithm will be used

     Using Slab Decomposition

     bravais-lattice index     =            0
     lattice parameter (alat)  =      12.3484  a.u.
     unit-cell volume          =    2063.9096 (a.u.)^3
     number of atoms/cell      =           14
     number of atomic types    =            3
     number of electrons       =        96.00
     number of Kohn-Sham states=           64
     kinetic-energy cutoff     =      30.0000  Ry
     charge density cutoff     =     240.0000  Ry
     scf convergence threshold =      1.0E-06
     mixing beta               =       0.7000
     number of iterations used =            8  plain     mixing
     Exchange-correlation=  SLA  PW   PBX  PBC
                           (   1   4   3   4   0   0   0)

     celldm(1)=  12.348353  celldm(2)=   0.000000  celldm(3)=   0.000000
     celldm(4)=   0.000000  celldm(5)=   0.000000  celldm(6)=   0.000000

     crystal axes: (cart. coord. in units of alat)
               a(1) = (   1.000000   0.000000   0.000000 )
               a(2) = (  -0.831571   0.555418   0.000000 )
               a(3) = (   0.000000   0.000000   1.973530 )

     reciprocal axes: (cart. coord. in units 2 pi/alat)
               b(1) = (  1.000000  1.497199  0.000000 )
               b(2) = (  0.000000  1.800446  0.000000 )
               b(3) = (  0.000000  0.000000  0.506706 )

     PseudoPot. # 1 for Y  read from file:
     /lustre07/scratch/pragov/crystal_structure_design/utils/SSSP/Y_pbe_v1.uspp.F.UPF
     MD5 check sum: 2cf71db95cafeb975fc457bd7f14888e
     Pseudo is Ultrasoft + core correction, Zval = 11.0
     Generated by new atomic code, or converted to UPF format
     Using radial grid of  885 points,  6 beta functions with:
                l(1) =   0
                l(2) =   0
                l(3) =   1
                l(4) =   1
                l(5) =   2
                l(6) =   2
     Q(r) pseudized with  6 coefficients,  rinner =    1.200   1.200   1.200
                                                       1.200   1.200

     PseudoPot. # 2 for Mg read from file:
     /lustre07/scratch/pragov/crystal_structure_design/utils/SSSP/Mg.pbe-n-kjpaw_psl.0.3.0.UPF
     MD5 check sum: 24ecedc7f3e3cbe212e682f4413594e4
     Pseudo is Projector augmented-wave + core cor, Zval =  2.0
     Generated using "atomic" code by A. Dal Corso  v.5.0.99 svn rev. 10869
     Shape of augmentation charge: PSQ
     Using radial grid of 1129 points,  4 beta functions with:
                l(1) =   0
                l(2) =   0
                l(3) =   1
                l(4) =   1
     Q(r) pseudized with 0 coefficients

     PseudoPot. # 3 for S  read from file:
     /lustre07/scratch/pragov/crystal_structure_design/utils/SSSP/s_pbe_v1.4.uspp.F.UPF
     MD5 check sum: 88d86576ff6df21479756cfb9bdac1df
     Pseudo is Ultrasoft + core correction, Zval =  6.0
     Generated by new atomic code, or converted to UPF format
     Using radial grid of  907 points,  6 beta functions with:
                l(1) =   0
                l(2) =   0
                l(3) =   1
                l(4) =   1
                l(5) =   2
                l(6) =   2
     Q(r) pseudized with  8 coefficients,  rinner =    1.300   1.300   1.300
                                                       1.300   1.300

     atomic species   valence    mass     pseudopotential
        Y             11.00    88.90584     Y ( 1.00)
        Mg             2.00    24.30500     Mg( 1.00)
        S              6.00    32.06000     S ( 1.00)

      2 Sym. Ops. (no inversion) found ( 1 have fractional translation)

                                    s                        frac. trans.

      isym =  1     identity

 cryst.   s( 1) = (     1          0          0      )
                  (     0          1          0      )
                  (     0          0          1      )

 cart.    s( 1) = (  1.0000000  0.0000000  0.0000000 )
                  (  0.0000000  1.0000000  0.0000000 )
                  (  0.0000000  0.0000000  1.0000000 )

      isym =  2     180 deg rotation - cart. axis [0,0,1]

 cryst.   s( 2) = (    -1          0          0      )    f =(  0.0000000 )
                  (     0         -1          0      )       ( -0.0000000 )
                  (     0          0          1      )       (  0.5000000 )

 cart.    s( 2) = ( -1.0000000  0.0000000  0.0000000 )    f =(  0.0000000 )
                  (  0.0000000 -1.0000000  0.0000000 )       ( -0.0000000 )
                  (  0.0000000  0.0000000  1.0000000 )       (  0.9867648 )

   Cartesian axes

     site n.     atom                  positions (alat units)
         1           Y   tau(   1) = (  -0.1323250   0.3433738   1.5478412  )
         2           Y   tau(   2) = (   0.3007537   0.2120441   0.5610764  )
         3           Y   tau(   3) = (  -0.5797907   0.4790663   1.1492612  )
         4           Y   tau(   4) = (   0.7482194   0.0763516   0.1624965  )
         5           Mg  tau(   5) = (  -0.6006194   0.4853825   1.8674602  )
         6           Mg  tau(   6) = (   0.7690480   0.0700354   0.8806954  )
         7           S   tau(   7) = (   0.6143407   0.1169499   1.2523920  )
         8           S   tau(   8) = (  -0.4459120   0.4384680   0.2656272  )
         9           S   tau(   9) = (   0.0638601   0.2838813   1.9665689  )
        10           S   tau(  10) = (   0.1045686   0.2715366   0.9798041  )
        11           S   tau(  11) = (   0.5642051   0.1321534   1.7674003  )
        12           S   tau(  12) = (  -0.3957764   0.4232646   0.7806355  )
        13           S   tau(  13) = (  -0.7640010   0.5349274   1.5166298  )
        14           S   tau(  14) = (   0.9324297   0.0204905   0.5298650  )

   Crystallographic axes

     site n.     atom                  positions (cryst. coord.)
         1           Y   tau(   1) = (  0.3817740  0.6182260  0.7843010  )
         2           Y   tau(   2) = (  0.6182260  0.3817740  0.2843010  )
         3           Y   tau(   3) = (  0.1374670  0.8625330  0.5823380  )
         4           Y   tau(   4) = (  0.8625330  0.1374670  0.0823380  )
         5           Mg  tau(   5) = (  0.1260950  0.8739050  0.9462540  )
         6           Mg  tau(   6) = (  0.8739050  0.1260950  0.4462540  )
         7           S   tau(   7) = (  0.7894380  0.2105620  0.6345950  )
         8           S   tau(   8) = (  0.2105620  0.7894380  0.1345950  )
         9           S   tau(   9) = (  0.4888870  0.5111130  0.9964730  )
        10           S   tau(  10) = (  0.5111130  0.4888870  0.4964730  )
        11           S   tau(  11) = (  0.7620650  0.2379350  0.8955530  )
        12           S   tau(  12) = (  0.2379350  0.7620650  0.3955530  )
        13           S   tau(  13) = (  0.0368920  0.9631080  0.7684860  )
        14           S   tau(  14) = (  0.9631080  0.0368920  0.2684860  )

     number of k points=    10
                       cart. coord. in units 2pi/alat
        k(    1) = (   0.0000000   0.0000000   0.0000000), wk =   0.0740741
        k(    2) = (   0.0000000   0.0000000   0.1689021), wk =   0.1481481
        k(    3) = (   0.0000000   0.6001487   0.0000000), wk =   0.1481481
        k(    4) = (   0.0000000   0.6001487   0.1689021), wk =   0.2962963
        k(    5) = (   0.3333333   0.4990665   0.0000000), wk =   0.1481481
        k(    6) = (   0.3333333   0.4990665   0.1689021), wk =   0.2962963
        k(    7) = (   0.3333333   1.0992151   0.0000000), wk =   0.1481481
        k(    8) = (   0.3333333   1.0992151   0.1689021), wk =   0.2962963
        k(    9) = (   0.3333333  -0.1010822   0.0000000), wk =   0.1481481
        k(   10) = (   0.3333333  -0.1010822   0.1689021), wk =   0.2962963

                       cryst. coord.
        k(    1) = (   0.0000000   0.0000000   0.0000000), wk =   0.0740741
        k(    2) = (   0.0000000   0.0000000   0.3333333), wk =   0.1481481
        k(    3) = (   0.0000000   0.3333333   0.0000000), wk =   0.1481481
        k(    4) = (   0.0000000   0.3333333   0.3333333), wk =   0.2962963
        k(    5) = (   0.3333333   0.0000000   0.0000000), wk =   0.1481481
        k(    6) = (   0.3333333   0.0000000   0.3333333), wk =   0.2962963
        k(    7) = (   0.3333333   0.3333333   0.0000000), wk =   0.1481481
        k(    8) = (   0.3333333   0.3333333   0.3333333), wk =   0.2962963
        k(    9) = (   0.3333333  -0.3333333   0.0000000), wk =   0.1481481
        k(   10) = (   0.3333333  -0.3333333   0.3333333), wk =   0.2962963

     Check: negative core charge=   -0.000003

     Initial potential from superposition of free atoms

     starting charge      95.9800, renormalised to      96.0000

     negative rho (up, down):  1.748E-01 0.000E+00
     Starting wfcs are   92 randomized atomic wfcs
     Checking if some PAW data can be deallocated...

     Self-consistent Calculation

     iteration #  1     ecut=    30.00 Ry     beta= 0.70
     Davidson diagonalization with overlap

     ethr =  1.00E-02,  avg # of iterations =  2.7

     Threshold (ethr) on eigenvalues was too large:
     Diagonalizing with lowered threshold

     Davidson diagonalization with overlap

[...]

     negative rho (up, down):  1.773E-01 0.000E+00

     total energy              =    -611.65011720 Ry
     estimated scf accuracy    <       0.87313539 Ry

[...]

     total energy              =    -611.96120661 Ry
     estimated scf accuracy    <       0.00000692 Ry

     iteration #  8     ecut=    30.00 Ry     beta= 0.70
     Davidson diagonalization with overlap

     ethr =  7.21E-09,  avg # of iterations =  4.9

     negative rho (up, down):  1.786E-01 0.000E+00

     End of self-consistent calculation

          k = 0.0000 0.0000 0.0000 (  5725 PWs)   bands (ev):

   -35.0684 -35.0684 -34.7968 -34.7968 -15.1078 -15.1010 -15.0783 -15.0723
   -14.9180 -14.9179 -14.8863 -14.8769 -14.8120 -14.8065 -14.7360 -14.7358
    -5.3407  -4.9624  -4.7086  -4.2548  -4.1667  -4.1600  -3.9317  -3.8989
     2.7280   2.8452   3.2677   3.7345   4.1644   4.2542   4.3774   4.6122
     4.9354   5.0424   5.0971   5.2527   5.3630   5.3815   5.4225   5.4611
     5.7907   6.0855   6.3154   6.4109   6.4548   6.7434   6.8046   7.0454
     9.2101   9.2454   9.7225   9.9573  10.2515  10.6026  10.7959  10.9280
    11.0461  11.0871  11.0945  11.2000  11.3122  11.4235  11.5014  11.9610

     occupation numbers
     1.0000   1.0000   1.0000   1.0000   1.0000   1.0000   1.0000   1.0000
     1.0000   1.0000   1.0000   1.0000   1.0000   1.0000   1.0000   1.0000
     1.0000   1.0000   1.0000   1.0000   1.0000   1.0000   1.0000   1.0000
     1.0000   1.0000   1.0000   1.0000   1.0000   1.0000   1.0000   1.0000
     1.0000   1.0000   1.0000   1.0000   1.0000   1.0000   1.0000   1.0000
     1.0000   1.0000   1.0000   1.0000   1.0000   1.0000   1.0000   1.0000
     0.0000   0.0000   0.0000   0.0000   0.0000   0.0000   0.0000   0.0000
     0.0000   0.0000   0.0000   0.0000   0.0000   0.0000   0.0000   0.0000

[...]

          k = 0.3333-0.1011 0.1689 (  5736 PWs)   bands (ev):

   -35.0684 -35.0684 -34.7968 -34.7968 -15.1066 -15.1050 -15.0774 -15.0744
   -14.9182 -14.9180 -14.8848 -14.8796 -14.8095 -14.8068 -14.7360 -14.7358
    -5.0436  -4.9108  -4.5217  -4.4826  -4.3551  -4.2392  -4.0327  -3.9662
     2.9347   3.1249   3.5078   3.6925   3.8669   3.9331   4.7484   4.9910
     5.0921   5.1316   5.1502   5.3345   5.4339   5.4465   5.5652   5.7775
     5.7864   5.8824   5.8862   6.1688   6.4089   6.4225   6.4915   6.6640
     8.6743   8.8821   9.5607   9.7598  10.5051  10.6390  10.6839  10.8178
    10.9740  11.0762  11.1784  11.2146  11.2706  11.3634  12.0989  12.2471

     occupation numbers
     1.0000   1.0000   1.0000   1.0000   1.0000   1.0000   1.0000   1.0000
     1.0000   1.0000   1.0000   1.0000   1.0000   1.0000   1.0000   1.0000
     1.0000   1.0000   1.0000   1.0000   1.0000   1.0000   1.0000   1.0000
     1.0000   1.0000   1.0000   1.0000   1.0000   1.0000   1.0000   1.0000
     1.0000   1.0000   1.0000   1.0000   1.0000   1.0000   1.0000   1.0000
     1.0000   1.0000   1.0000   1.0000   1.0000   1.0000   1.0000   1.0000
     0.0000   0.0000   0.0000   0.0000   0.0000   0.0000   0.0000   0.0000
     0.0000   0.0000   0.0000   0.0000   0.0000   0.0000   0.0000   0.0000

     highest occupied, lowest unoccupied level (ev):     7.0454    8.5802

!    total energy              =    -611.96120910 Ry
     estimated scf accuracy    <       0.00000093 Ry

     The total energy is the sum of the following terms:
     one-electron contribution =     -98.66382568 Ry
     hartree contribution      =      86.72669355 Ry
     xc contribution           =    -159.33325375 Ry
     ewald contribution        =    -378.15368939 Ry
     one-center paw contrib.   =     -62.53713383 Ry
      -> PAW hartree energy AE =       0.00000000 Ry
      -> PAW hartree energy PS =       0.00000000 Ry
      -> PAW xc energy AE      =       0.00000000 Ry
      -> PAW xc energy PS      =       0.00000000 Ry
      -> total E_H with PAW    =      86.72669355 Ry
      -> total E_XC with PAW   =    -159.33325375 Ry

     convergence has been achieved in   8 iterations

     Writing all to output data dir bands_nm/myprefix.save/

     General routines

     Parallel routines

     PAW routines

   This run was terminated on:   2:33:14  13Jul2023

   JOB DONE.