     Program PWSCF v.7.1 starts on 15Jul2023 at 18:51:37

     Reading input from espresso_20021.pwi
Warning: card &CELL ignored
Warning: card / ignored

     Current dimensions of program PWSCF are:
     Max number of different atomic species (ntypx) = 10
     Max number of k-points (npk) =  40000
     Max angular momentum in pseudopotentials (lmaxx) =  4
     Message from routine setup:
     using ibrav=0 with symmetry is DISCOURAGED, use correct ibrav instead

     K-points division:     npool     =       2
     R & G space division:  proc/nbgrp/npool/nimage =       4
     Subspace diagonalization in iterative solution of the eigenvalue problem:
     one sub-group per band group will be used

     Using Slab Decomposition

     bravais-lattice index     =            0
     lattice parameter (alat)  =       9.6452  a.u.
     unit-cell volume          =    1976.3879 (a.u.)^3
     number of atoms/cell      =           20
     number of atomic types    =            2
     number of electrons       =       164.00
     number of Kohn-Sham states=          256
     kinetic-energy cutoff     =      30.0000  Ry
     charge density cutoff     =     240.0000  Ry
     scf convergence threshold =      1.0E-06
     mixing beta               =       0.7000
     number of iterations used =            8  plain     mixing
     Exchange-correlation=  SLA  PW   PBX  PBC
                           (   1   4   3   4   0   0   0)

     celldm(1)=   9.645221  celldm(2)=   0.000000  celldm(3)=   0.000000
     celldm(4)=   0.000000  celldm(5)=   0.000000  celldm(6)=   0.000000

     crystal axes: (cart. coord. in units of alat)
               a(1) = (   1.000000   0.000000   0.000000 )
               a(2) = (   0.000000   1.160342   0.000000 )
               a(3) = (   0.000000   0.072860   1.898233 )

     reciprocal axes: (cart. coord. in units 2 pi/alat)
               b(1) = (  1.000000  0.000000  0.000000 )
               b(2) = (  0.000000  0.861815 -0.033079 )
               b(3) = (  0.000000  0.000000  0.526806 )

     PseudoPot. # 1 for V  read from file:
     /lustre07/scratch/pragov/crystal_structure_design/utils/SSSP/v_pbe_v1.4.uspp.F.UPF
     MD5 check sum: 22b79981416ebb76fdaf5b1b8640f6fb
     Pseudo is Ultrasoft + core correction, Zval = 13.0
     Generated by new atomic code, or converted to UPF format
     Using radial grid of  853 points,  6 beta functions with:
                l(1) =   0
                l(2) =   0
                l(3) =   1
                l(4) =   1
                l(5) =   2
                l(6) =   2
     Q(r) pseudized with  8 coefficients,  rinner =    1.100   1.100   1.100
                                                       1.100   1.100

     PseudoPot. # 2 for F  read from file:
     /lustre07/scratch/pragov/crystal_structure_design/utils/SSSP/f_pbe_v1.4.uspp.F.UPF
     MD5 check sum: 4c38b6a325caf53ec0e86aed9459de46
     Pseudo is Ultrasoft, Zval =  7.0
     Generated by new atomic code, or converted to UPF format
     Using radial grid of  799 points,  4 beta functions with:
                l(1) =   0
                l(2) =   0
                l(3) =   1
                l(4) =   1
     Q(r) pseudized with  8 coefficients,  rinner =    0.950   0.950   0.950

     atomic species   valence    mass     pseudopotential
        V             13.00    50.94150     V ( 1.00)
        F              7.00    18.99840     F ( 1.00)

      4 Sym. Ops., with inversion, found ( 2 have fractional translation)

                                    s                        frac. trans.

      isym =  1     identity

 cryst.   s( 1) = (     1          0          0      )
                  (     0          1          0      )
                  (     0          0          1      )

 cart.    s( 1) = (  1.0000000  0.0000000  0.0000000 )
                  (  0.0000000  1.0000000  0.0000000 )
                  (  0.0000000  0.0000000  1.0000000 )

      isym =  2     180 deg rotation - cart. axis [1,0,0]

 cryst.   s( 2) = (     1          0          0      )    f =(  0.5000000 )
                  (     0         -1          0      )       ( -0.0000000 )
                  (     0          0         -1      )       ( -0.5000000 )

 cart.    s( 2) = (  1.0000000  0.0000000  0.0000000 )    f =(  0.5000000 )
                  (  0.0000000 -1.0000000  0.0000000 )       ( -0.0364301 )
                  (  0.0000000  0.0000000 -1.0000000 )       ( -0.9491164 )

      isym =  3     inversion

 cryst.   s( 3) = (    -1          0          0      )
                  (     0         -1          0      )
                  (     0          0         -1      )

 cart.    s( 3) = ( -1.0000000  0.0000000  0.0000000 )
                  (  0.0000000 -1.0000000  0.0000000 )
                  (  0.0000000  0.0000000 -1.0000000 )

      isym =  4     inv. 180 deg rotation - cart. axis [1,0,0]

 cryst.   s( 4) = (    -1          0          0      )    f =( -0.5000000 )
                  (     0          1          0      )       ( -0.0000000 )
                  (     0          0          1      )       (  0.5000000 )

 cart.    s( 4) = ( -1.0000000  0.0000000  0.0000000 )    f =( -0.5000000 )
                  (  0.0000000  1.0000000  0.0000000 )       (  0.0364301 )
                  (  0.0000000  0.0000000  1.0000000 )       (  0.9491164 )

   Cartesian axes

     site n.     atom                  positions (alat units)
         1           V   tau(   1) = (   0.0212130   0.7906347   1.2043053  )
         2           V   tau(   2) = (   0.4787870   0.7542046   0.2551889  )
         3           V   tau(   3) = (   0.5212130   0.4789982   1.6430439  )
         4           V   tau(   4) = (   0.9787870   0.4425680   0.6939275  )
         5           F   tau(   5) = (   0.8549370   1.0704616   1.3086872  )
         6           F   tau(   6) = (   0.6450630   1.0340314   0.3595708  )
         7           F   tau(   7) = (   0.3182820   0.9258249   1.0839555  )
         8           F   tau(   8) = (   0.1817180   0.8893948   0.1348391  )
         9           F   tau(   9) = (   0.6165970   0.8287567   1.7927746  )
        10           F   tau(  10) = (   0.8834030   0.7923266   0.8436582  )
        11           F   tau(  11) = (   0.2002100   0.6843605   1.5172005  )
        12           F   tau(  12) = (   0.2997900   0.6479303   0.5680841  )
        13           F   tau(  13) = (   0.7002100   0.5852724   1.3301487  )
        14           F   tau(  14) = (   0.7997900   0.5488423   0.3810323  )
        15           F   tau(  15) = (   0.1165970   0.4408762   1.0545746  )
        16           F   tau(  16) = (   0.3834030   0.4044460   0.1054582  )
        17           F   tau(  17) = (   0.8182820   0.3438079   1.7633937  )
        18           F   tau(  18) = (   0.6817180   0.3073778   0.8142773  )
        19           F   tau(  19) = (   0.3549370   0.1991713   1.5386619  )
        20           F   tau(  20) = (   0.1450630   0.1627412   0.5895455  )

   Crystallographic axes

     site n.     atom                  positions (cryst. coord.)
         1           V   tau(   1) = (  0.0212130  0.6415430  0.6344350  )
         2           V   tau(   2) = (  0.4787870  0.6415430  0.1344350  )
         3           V   tau(   3) = (  0.5212130  0.3584570  0.8655650  )
         4           V   tau(   4) = (  0.9787870  0.3584570  0.3655650  )
         5           F   tau(   5) = (  0.8549370  0.8792490  0.6894240  )
         6           F   tau(   6) = (  0.6450630  0.8792490  0.1894240  )
         7           F   tau(   7) = (  0.3182820  0.7620330  0.5710340  )
         8           F   tau(   8) = (  0.1817180  0.7620330  0.0710340  )
         9           F   tau(   9) = (  0.6165970  0.6549310  0.9444440  )
        10           F   tau(  10) = (  0.8834030  0.6549310  0.4444440  )
        11           F   tau(  11) = (  0.2002100  0.5396040  0.7992700  )
        12           F   tau(  12) = (  0.2997900  0.5396040  0.2992700  )
        13           F   tau(  13) = (  0.7002100  0.4603960  0.7007300  )
        14           F   tau(  14) = (  0.7997900  0.4603960  0.2007300  )
        15           F   tau(  15) = (  0.1165970  0.3450690  0.5555560  )
        16           F   tau(  16) = (  0.3834030  0.3450690  0.0555560  )
        17           F   tau(  17) = (  0.8182820  0.2379670  0.9289660  )
        18           F   tau(  18) = (  0.6817180  0.2379670  0.4289660  )
        19           F   tau(  19) = (  0.3549370  0.1207510  0.8105760  )
        20           F   tau(  20) = (  0.1450630  0.1207510  0.3105760  )

     number of k points=    10
                       cart. coord. in units 2pi/alat
        k(    1) = (   0.0000000   0.0000000   0.0000000), wk =   0.0740741
        k(    2) = (   0.0000000   0.0000000   0.1756019), wk =   0.1481481
        k(    3) = (   0.0000000   0.2872715  -0.0110264), wk =   0.1481481
        k(    4) = (   0.0000000   0.2872715   0.1645755), wk =   0.1481481
        k(    5) = (   0.0000000   0.2872715  -0.1866283), wk =   0.1481481
        k(    6) = (   0.3333333   0.0000000   0.0000000), wk =   0.1481481
        k(    7) = (   0.3333333   0.0000000   0.1756019), wk =   0.2962963
        k(    8) = (   0.3333333   0.2872715  -0.0110264), wk =   0.2962963
        k(    9) = (   0.3333333   0.2872715   0.1645755), wk =   0.2962963
        k(   10) = (   0.3333333   0.2872715  -0.1866283), wk =   0.2962963

                       cryst. coord.
        k(    1) = (   0.0000000   0.0000000   0.0000000), wk =   0.0740741
        k(    2) = (   0.0000000   0.0000000   0.3333333), wk =   0.1481481
        k(    3) = (   0.0000000   0.3333333   0.0000000), wk =   0.1481481
        k(    4) = (   0.0000000   0.3333333   0.3333333), wk =   0.1481481
        k(    5) = (   0.0000000   0.3333333  -0.3333333), wk =   0.1481481
        k(    6) = (   0.3333333   0.0000000   0.0000000), wk =   0.1481481
        k(    7) = (   0.3333333   0.0000000   0.3333333), wk =   0.2962963
        k(    8) = (   0.3333333   0.3333333   0.0000000), wk =   0.2962963
        k(    9) = (   0.3333333   0.3333333   0.3333333), wk =   0.2962963
        k(   10) = (   0.3333333   0.3333333  -0.3333333), wk =   0.2962963

     Check: negative core charge=   -0.000004

     Initial potential from superposition of free atoms

     starting charge     163.9951, renormalised to     164.0000

     negative rho (up, down):  4.584E-03 0.000E+00
     Starting wfcs are  104 randomized atomic wfcs +  152 random wfcs

     Self-consistent Calculation

     iteration #  1     ecut=    30.00 Ry     beta= 0.70
     Davidson diagonalization with overlap

     ethr =  1.00E-02,  avg # of iterations =  6.2

     negative rho (up, down):  1.180E-02 0.000E+00

     total energy              =   -1356.53275563 Ry
     estimated scf accuracy    <       4.73195890 Ry

[...]

     total energy              =   -1359.33197118 Ry
     estimated scf accuracy    <       0.00000142 Ry

     iteration # 13     ecut=    30.00 Ry     beta= 0.70
     Davidson diagonalization with overlap

     ethr =  8.65E-10,  avg # of iterations =  1.0

     negative rho (up, down):  8.980E-03 0.000E+00

     End of self-consistent calculation

          k = 0.0000 0.0000 0.0000 (  5463 PWs)   bands (ev):

   -63.6311 -63.6301 -63.6266 -63.6255 -37.7284 -37.7254 -37.7065 -37.7014
   -37.4063 -37.3976 -37.3973 -37.3959 -37.3126 -37.2992 -37.2796 -37.2714
   -21.6016 -21.3144 -21.2983 -21.0911 -21.0666 -21.0051 -20.9626 -20.8948
   -20.6617 -20.6603 -20.6498 -20.6339 -20.2734 -20.2587 -20.2416 -20.2269
    -4.4679  -4.4352  -4.3605  -4.3387  -3.9691  -3.8452  -3.8044  -3.8029
    -3.7601  -3.7477  -3.4665  -3.4124  -3.3046  -3.2485  -3.0583  -2.9107
    -2.8643  -2.8637  -2.7585  -2.7067  -2.5908  -2.5745  -2.5047  -2.4488
    -2.2338  -2.0703  -2.0665  -2.0550  -2.0533  -1.9905  -1.7831  -1.7777
    -1.7029  -1.6846  -1.6308  -1.5529  -1.5121  -1.4955  -1.4129  -1.2558
    -1.1373  -1.1258  -1.1120  -1.1080  -1.0206  -0.9105  -0.8731  -0.8676
     2.8202   2.9539   2.9642   3.0171   3.0186   3.1188   3.2431   3.2684
     3.3230   3.3757   3.4373   3.4464   4.5263   4.6634   4.6963   5.2333
     5.4332   5.6966   5.7155   5.7933   8.1559  10.1975  10.2781  12.7165
    12.8614  13.4277  13.5856  13.7439  14.0357  14.2457  14.4981  14.5248
    14.7443  15.0433  15.2722  15.4311  15.4648  16.2311  16.3680  16.5378
    16.7286  16.7616  17.4083  17.4426  17.5186  17.6538  17.7794  17.9980
    18.3374  18.4124  18.4932  18.5947  18.8493  19.0962  19.1058  19.6881
    19.7420  19.8371  20.4481  20.4830  21.0402  21.0862  22.0640  22.1532
    22.3190  22.5827  22.6228  23.1898  23.5860  24.2740  24.2942  24.4581
    24.5652  24.6154  24.8057  25.0040  25.3023  25.5107  25.5349  25.5679
    25.8709  25.8728  25.9728  26.0625  26.3880  27.0274  27.0649  27.0652
    27.2821  27.3070  27.5145  27.5263  27.6407  27.8530  27.9692  28.2028
    28.2407  28.2976  28.6858  28.6976  29.1889  29.5038  29.6487  29.7512
    29.9138  30.1784  30.2489  30.3859  30.5387  30.6107  30.8448  30.8847
    31.8106  31.8162  32.1303  32.2431  32.6484  32.7793  32.8246  32.8475
    32.9711  33.0884  33.1085  33.3000  33.5365  33.7114  33.8657  34.0784
    34.3311  34.3956  34.7128  34.9059  34.9621  35.0953  35.2090  35.4194
    35.7726  35.8034  36.1744  36.2624  36.5396  36.6581  36.6892  36.7374
    36.8405  36.9536  36.9877  37.0436  37.1895  37.5031  37.6488  37.7466
    37.9423  38.2289  38.6135  38.7561  38.7825  38.8454  39.1433  39.3935
    39.3954  39.4187  39.8683  39.9464  40.1297  40.2552  40.2738  40.3495
    40.8479  40.8694  40.9534  41.1590  41.1620  41.3060  41.3813  41.4526

     occupation numbers
     1.0000   1.0000   1.0000   1.0000   1.0000   1.0000   1.0000   1.0000
     1.0000   1.0000   1.0000   1.0000   1.0000   1.0000   1.0000   1.0000
     1.0000   1.0000   1.0000   1.0000   1.0000   1.0000   1.0000   1.0000
     1.0000   1.0000   1.0000   1.0000   1.0000   1.0000   1.0000   1.0000
     1.0000   1.0000   1.0000   1.0000   1.0000   1.0000   1.0000   1.0000
     1.0000   1.0000   1.0000   1.0000   1.0000   1.0000   1.0000   1.0000
     1.0000   1.0000   1.0000   1.0000   1.0000   1.0000   1.0000   1.0000
     1.0000   1.0000   1.0000   1.0000   1.0000   1.0000   1.0000   1.0000
     1.0000   1.0000   1.0000   1.0000   1.0000   1.0000   1.0000   1.0000
     1.0000   1.0000   1.0000   1.0000   1.0000   1.0000   1.0000   1.0000
     1.0000   1.0000   0.0000   0.0000   0.0000   0.0000   0.0000   0.0000
     0.0000   0.0000   0.0000   0.0000   0.0000   0.0000   0.0000   0.0000
     0.0000   0.0000   0.0000   0.0000   0.0000   0.0000   0.0000   0.0000
     0.0000   0.0000   0.0000   0.0000   0.0000   0.0000   0.0000   0.0000
     0.0000   0.0000   0.0000   0.0000   0.0000   0.0000   0.0000   0.0000
     0.0000   0.0000   0.0000   0.0000   0.0000   0.0000   0.0000   0.0000
     0.0000   0.0000   0.0000   0.0000   0.0000   0.0000   0.0000   0.0000
     0.0000   0.0000   0.0000   0.0000   0.0000   0.0000   0.0000   0.0000
     0.0000   0.0000   0.0000   0.0000   0.0000   0.0000   0.0000   0.0000
     0.0000   0.0000   0.0000   0.0000   0.0000   0.0000   0.0000   0.0000
     0.0000   0.0000   0.0000   0.0000   0.0000   0.0000   0.0000   0.0000
     0.0000   0.0000   0.0000   0.0000   0.0000   0.0000   0.0000   0.0000
     0.0000   0.0000   0.0000   0.0000   0.0000   0.0000   0.0000   0.0000
     0.0000   0.0000   0.0000   0.0000   0.0000   0.0000   0.0000   0.0000
     0.0000   0.0000   0.0000   0.0000   0.0000   0.0000   0.0000   0.0000
     0.0000   0.0000   0.0000   0.0000   0.0000   0.0000   0.0000   0.0000
     0.0000   0.0000   0.0000   0.0000   0.0000   0.0000   0.0000   0.0000
     0.0000   0.0000   0.0000   0.0000   0.0000   0.0000   0.0000   0.0000
     0.0000   0.0000   0.0000   0.0000   0.0000   0.0000   0.0000   0.0000
     0.0000   0.0000   0.0000   0.0000   0.0000   0.0000   0.0000   0.0000
     0.0000   0.0000   0.0000   0.0000   0.0000   0.0000   0.0000   0.0000
     0.0000   0.0000   0.0000   0.0000   0.0000   0.0000   0.0000   0.0000

[...]

          k = 0.3333 0.2873-0.1866 (  5479 PWs)   bands (ev):

   -63.6308 -63.6305 -63.6261 -63.6259 -37.7274 -37.7270 -37.7048 -37.7033
   -37.4033 -37.4018 -37.3972 -37.3966 -37.3072 -37.3034 -37.2771 -37.2752
   -21.4856 -21.4213 -21.1831 -21.1329 -21.0449 -21.0229 -20.9396 -20.9224
   -20.6826 -20.6730 -20.6437 -20.6382 -20.2792 -20.2751 -20.2585 -20.2498
    -4.4708  -4.4084  -4.3938  -4.3524  -3.9427  -3.9311  -3.8658  -3.7660
    -3.7364  -3.6999  -3.3377  -3.3207  -3.2661  -3.1757  -3.0011  -2.8850
    -2.8688  -2.7400  -2.6834  -2.6067  -2.5294  -2.4807  -2.4104  -2.3798
    -2.3239  -2.2825  -2.1610  -2.1218  -2.0389  -2.0200  -1.9608  -1.8892
    -1.8094  -1.7763  -1.6551  -1.6054  -1.5518  -1.5149  -1.4704  -1.4352
    -1.2034  -1.1313  -1.0975  -1.0747  -0.9476  -0.8867  -0.8667  -0.8474
     2.8639   2.9212   2.9702   3.0082   3.1114   3.1406   3.2236   3.3010
     3.3070   3.3656   3.3980   3.4083   4.5594   4.6162   4.8803   5.0261
     5.4848   5.5915   5.6634   5.7583   9.9409  10.4427  11.3932  11.8541
    11.9907  12.3602  12.6957  13.1186  13.3937  13.6112  13.8619  14.2604
    14.8701  15.0238  15.2355  15.9291  15.9915  16.1656  16.7735  16.9160
    17.0488  17.1475  17.3483  17.6145  17.8524  18.0824  18.1835  18.3954
    18.6393  18.8998  18.9770  19.1661  19.3849  19.4476  19.5520  19.8706
    20.0679  20.1969  20.5160  20.6825  21.0932  21.2592  21.4407  21.6739
    21.8115  22.0639  22.2341  22.8204  23.0531  23.2494  23.4449  23.6503
    24.0416  24.0911  24.5366  24.6290  24.8401  25.0604  25.2224  25.3158
    25.6085  25.7677  26.0016  26.0962  26.3947  26.5200  26.5590  26.7184
    26.9913  27.2725  27.3272  27.5081  27.5655  27.8200  28.1294  28.3145
    28.3679  28.7164  29.0065  29.1166  29.2943  29.5703  29.7141  30.0877
    30.4278  30.4736  30.7334  30.8905  30.9981  31.2039  31.3343  31.4381
    31.8706  31.9568  32.1949  32.3905  32.4350  32.8456  33.0352  33.1742
    33.2423  33.3811  33.5599  33.6629  33.8057  34.0157  34.1093  34.3209
    34.4131  34.6079  34.7311  34.9273  35.0190  35.2307  35.4011  35.6368
    35.8736  36.0752  36.2517  36.3698  36.4171  36.5749  36.9487  36.9646
    37.0296  37.2901  37.4854  37.5893  37.7574  37.8621  37.9701  38.1340
    38.2657  38.3438  38.4673  38.5704  38.6601  38.8328  39.0001  39.0685
    39.2640  39.2684  39.4244  39.6593  39.7355  39.9456  40.0327  40.1433
    40.3799  40.5250  40.6453  40.7211  40.9198  40.9773  41.1132  41.2062

     occupation numbers
     1.0000   1.0000   1.0000   1.0000   1.0000   1.0000   1.0000   1.0000
     1.0000   1.0000   1.0000   1.0000   1.0000   1.0000   1.0000   1.0000
     1.0000   1.0000   1.0000   1.0000   1.0000   1.0000   1.0000   1.0000
     1.0000   1.0000   1.0000   1.0000   1.0000   1.0000   1.0000   1.0000
     1.0000   1.0000   1.0000   1.0000   1.0000   1.0000   1.0000   1.0000
     1.0000   1.0000   1.0000   1.0000   1.0000   1.0000   1.0000   1.0000
     1.0000   1.0000   1.0000   1.0000   1.0000   1.0000   1.0000   1.0000
     1.0000   1.0000   1.0000   1.0000   1.0000   1.0000   1.0000   1.0000
     1.0000   1.0000   1.0000   1.0000   1.0000   1.0000   1.0000   1.0000
     1.0000   1.0000   1.0000   1.0000   1.0000   1.0000   1.0000   1.0000
     1.0000   1.0000   0.0000   0.0000   0.0000   0.0000   0.0000   0.0000
     0.0000   0.0000   0.0000   0.0000   0.0000   0.0000   0.0000   0.0000
     0.0000   0.0000   0.0000   0.0000   0.0000   0.0000   0.0000   0.0000
     0.0000   0.0000   0.0000   0.0000   0.0000   0.0000   0.0000   0.0000
     0.0000   0.0000   0.0000   0.0000   0.0000   0.0000   0.0000   0.0000
     0.0000   0.0000   0.0000   0.0000   0.0000   0.0000   0.0000   0.0000
     0.0000   0.0000   0.0000   0.0000   0.0000   0.0000   0.0000   0.0000
     0.0000   0.0000   0.0000   0.0000   0.0000   0.0000   0.0000   0.0000
     0.0000   0.0000   0.0000   0.0000   0.0000   0.0000   0.0000   0.0000
     0.0000   0.0000   0.0000   0.0000   0.0000   0.0000   0.0000   0.0000
     0.0000   0.0000   0.0000   0.0000   0.0000   0.0000   0.0000   0.0000
     0.0000   0.0000   0.0000   0.0000   0.0000   0.0000   0.0000   0.0000
     0.0000   0.0000   0.0000   0.0000   0.0000   0.0000   0.0000   0.0000
     0.0000   0.0000   0.0000   0.0000   0.0000   0.0000   0.0000   0.0000
     0.0000   0.0000   0.0000   0.0000   0.0000   0.0000   0.0000   0.0000
     0.0000   0.0000   0.0000   0.0000   0.0000   0.0000   0.0000   0.0000
     0.0000   0.0000   0.0000   0.0000   0.0000   0.0000   0.0000   0.0000
     0.0000   0.0000   0.0000   0.0000   0.0000   0.0000   0.0000   0.0000
     0.0000   0.0000   0.0000   0.0000   0.0000   0.0000   0.0000   0.0000
     0.0000   0.0000   0.0000   0.0000   0.0000   0.0000   0.0000   0.0000
     0.0000   0.0000   0.0000   0.0000   0.0000   0.0000   0.0000   0.0000
     0.0000   0.0000   0.0000   0.0000   0.0000   0.0000   0.0000   0.0000

     highest occupied, lowest unoccupied level (ev):     2.9539    2.9318

!    total energy              =   -1359.33197121 Ry
     estimated scf accuracy    <       0.00000025 Ry

     The total energy is the sum of the following terms:
     one-electron contribution =   -1026.63899335 Ry
     hartree contribution      =     570.81106852 Ry
     xc contribution           =    -226.52586705 Ry
     ewald contribution        =    -676.97817933 Ry

     convergence has been achieved in  13 iterations

     Writing all to output data dir bands_nm/myprefix.save/

     General routines

     Parallel routines

   This run was terminated on:  18:52:37  15Jul2023

   JOB DONE.