     Program PWSCF v.7.1 starts on 16Jul2023 at 13:28:17

     Reading input from espresso_25855.pwi
Warning: card &CELL ignored
Warning: card / ignored

     Current dimensions of program PWSCF are:
     Max number of different atomic species (ntypx) = 10
     Max number of k-points (npk) =  40000
     Max angular momentum in pseudopotentials (lmaxx) =  4

     K-points division:     npool     =       2
     R & G space division:  proc/nbgrp/npool/nimage =       4
     Subspace diagonalization in iterative solution of the eigenvalue problem:
     a serial algorithm will be used

     Using Slab Decomposition

     bravais-lattice index     =            0
     lattice parameter (alat)  =       9.2993  a.u.
     unit-cell volume          =     798.8799 (a.u.)^3
     number of atoms/cell      =            7
     number of atomic types    =            3
     number of electrons       =        44.00
     number of Kohn-Sham states=           64
     kinetic-energy cutoff     =      30.0000  Ry
     charge density cutoff     =     240.0000  Ry
     scf convergence threshold =      1.0E-06
     mixing beta               =       0.7000
     number of iterations used =            8  plain     mixing
     Exchange-correlation= PBE
                           (   1   4   3   4   0   0   0)

     celldm(1)=   9.299338  celldm(2)=   0.000000  celldm(3)=   0.000000
     celldm(4)=   0.000000  celldm(5)=   0.000000  celldm(6)=   0.000000

     crystal axes: (cart. coord. in units of alat)
               a(1) = (   1.000000   0.000000   0.000000 )
               a(2) = (  -0.088487   0.999817   0.000000 )
               a(3) = (  -0.350168  -0.395234   0.993585 )

     reciprocal axes: (cart. coord. in units 2 pi/alat)
               b(1) = (  1.000000  0.088503  0.387634 )
               b(2) = (  0.000000  1.000184  0.397858 )
               b(3) = (  0.000000  0.000000  1.006456 )

     PseudoPot. # 1 for Si read from file:
     /lustre07/scratch/pragov/crystal_structure_design/utils/SSSP/Si.pbe-n-rrkjus_psl.1.0.0.UPF
     MD5 check sum: 0b0bb1205258b0d07b9f9672cf965d36
     Pseudo is Ultrasoft + core correction, Zval =  4.0
     Generated using "atomic" code by A. Dal Corso  v.5.1
     Using radial grid of 1141 points,  6 beta functions with:
                l(1) =   0
                l(2) =   0
                l(3) =   1
                l(4) =   1
                l(5) =   2
                l(6) =   2
     Q(r) pseudized with 0 coefficients

     PseudoPot. # 2 for P  read from file:
     /lustre07/scratch/pragov/crystal_structure_design/utils/SSSP/P.pbe-n-rrkjus_psl.1.0.0.UPF
     MD5 check sum: 8b930f418f0a4573dca56cd030ffe088
     Pseudo is Ultrasoft + core correction, Zval =  5.0
     Generated using "atomic" code by A. Dal Corso  v.5.1
     Using radial grid of 1147 points,  6 beta functions with:
                l(1) =   0
                l(2) =   0
                l(3) =   1
                l(4) =   1
                l(5) =   2
                l(6) =   2
     Q(r) pseudized with 0 coefficients

     PseudoPot. # 3 for Rh read from file:
     /lustre07/scratch/pragov/crystal_structure_design/utils/SSSP/Rh_ONCV_PBE-1.0.oncvpsp.upf
     MD5 check sum: ba07c69523b14cacd10683cd4c4284c1
     Pseudo is Norm-conserving, Zval = 17.0
     Generated using ONCVPSP code by D. R. Hamann
     Using radial grid of 1442 points,  6 beta functions with:
                l(1) =   0
                l(2) =   0
                l(3) =   1
                l(4) =   1
                l(5) =   2
                l(6) =   2

     atomic species   valence    mass     pseudopotential
        Si             4.00    28.08500     Si( 1.00)
        P              5.00    30.97376     P ( 1.00)
        Rh            17.00   102.90550     Rh( 1.00)

     No symmetry found

                                    s                        frac. trans.

      isym =  1     identity

 cryst.   s( 1) = (     1          0          0      )
                  (     0          1          0      )
                  (     0          0          1      )

 cart.    s( 1) = (  1.0000000  0.0000000  0.0000000 )
                  (  0.0000000  1.0000000  0.0000000 )
                  (  0.0000000  0.0000000  1.0000000 )

   Cartesian axes

     site n.     atom                  positions (alat units)
         1           Si  tau(   1) = (   0.4045981   0.4575816   0.3607926  )
         2           Si  tau(   2) = (   0.1446604   0.1602322   0.6307328  )
         3           Si  tau(   3) = (   0.6433950   0.0960136   0.1583775  )
         4           P   tau(   4) = (   0.5176268  -0.0410739   0.8377263  )
         5           P   tau(   5) = (   0.0364055   0.6487932   0.1462498  )
         6           P   tau(   6) = (  -0.0797851   0.5046122   0.8471813  )
         7           Rh  tau(   7) = (  -0.1736247  -0.1956298   0.4964875  )

   Crystallographic axes

     site n.     atom                  positions (cryst. coord.)
         1           Si  tau(   1) = (  0.5849510  0.6012100  0.3631220  )
         2           Si  tau(   2) = (  0.4033350  0.4112040  0.6348050  )
         3           Si  tau(   3) = (  0.7132850  0.1590430  0.1594000  )
         4           P   tau(   4) = (  0.8387230  0.2922150  0.8431350  )
         5           P   tau(   5) = (  0.1505170  0.7070990  0.1471940  )
         6           P   tau(   6) = (  0.2932710  0.8417630  0.8526510  )
         7           Rh  tau(   7) = (  0.0015170  0.0018660  0.4996930  )

     number of k points=    14
                       cart. coord. in units 2pi/alat
        k(    1) = (   0.0000000   0.0000000   0.0000000), wk =   0.0740741
        k(    2) = (   0.0000000   0.0000000   0.3354855), wk =   0.1481481
        k(    3) = (   0.0000000   0.3333945   0.1326195), wk =   0.1481481
        k(    4) = (   0.0000000   0.3333945   0.4681049), wk =   0.1481481
        k(    5) = (   0.0000000   0.3333945  -0.2028660), wk =   0.1481481
        k(    6) = (   0.3333333   0.0295010   0.1292114), wk =   0.1481481
        k(    7) = (   0.3333333   0.0295010   0.4646969), wk =   0.1481481
        k(    8) = (   0.3333333   0.0295010  -0.2062741), wk =   0.1481481
        k(    9) = (   0.3333333   0.3628955   0.2618309), wk =   0.1481481
        k(   10) = (   0.3333333   0.3628955   0.5973163), wk =   0.1481481
        k(   11) = (   0.3333333   0.3628955  -0.0736546), wk =   0.1481481
        k(   12) = (   0.3333333  -0.3038935  -0.0034081), wk =   0.1481481
        k(   13) = (   0.3333333  -0.3038935   0.3320774), wk =   0.1481481
        k(   14) = (   0.3333333  -0.3038935  -0.3388935), wk =   0.1481481

                       cryst. coord.
        k(    1) = (   0.0000000   0.0000000   0.0000000), wk =   0.0740741
        k(    2) = (   0.0000000   0.0000000   0.3333333), wk =   0.1481481
        k(    3) = (   0.0000000   0.3333333   0.0000000), wk =   0.1481481
        k(    4) = (   0.0000000   0.3333333   0.3333333), wk =   0.1481481
        k(    5) = (   0.0000000   0.3333333  -0.3333333), wk =   0.1481481
        k(    6) = (   0.3333333   0.0000000   0.0000000), wk =   0.1481481
        k(    7) = (   0.3333333   0.0000000   0.3333333), wk =   0.1481481
        k(    8) = (   0.3333333   0.0000000  -0.3333333), wk =   0.1481481
        k(    9) = (   0.3333333   0.3333333  -0.0000000), wk =   0.1481481
        k(   10) = (   0.3333333   0.3333333   0.3333333), wk =   0.1481481
        k(   11) = (   0.3333333   0.3333333  -0.3333333), wk =   0.1481481
        k(   12) = (   0.3333333  -0.3333333  -0.0000000), wk =   0.1481481
        k(   13) = (   0.3333333  -0.3333333   0.3333333), wk =   0.1481481
        k(   14) = (   0.3333333  -0.3333333  -0.3333333), wk =   0.1481481

     Initial potential from superposition of free atoms

     starting charge      43.9974, renormalised to      44.0000
     Starting wfcs are   34 randomized atomic wfcs +   30 random wfcs

     Self-consistent Calculation

     iteration #  1     ecut=    30.00 Ry     beta= 0.70
     Davidson diagonalization with overlap

     ethr =  1.00E-02,  avg # of iterations =  7.3

     total energy              =    -293.21252014 Ry
     estimated scf accuracy    <       0.56887012 Ry

[...]

     total energy              =    -293.49735240 Ry
     estimated scf accuracy    <       0.00000273 Ry

     iteration #  9     ecut=    30.00 Ry     beta= 0.70
     Davidson diagonalization with overlap

     ethr =  6.21E-09,  avg # of iterations =  1.0

     End of self-consistent calculation

          k = 0.0000 0.0000 0.0000 (  2191 PWs)   bands (ev):

   -69.1113 -37.0912 -36.9657 -36.9302  -4.5562  -0.9264  -0.1770   1.1897
     1.9323   3.9125   4.3540   4.7541   4.9829   5.6910   5.9914   6.2955
     6.3889   6.6327   6.8102   7.6311   8.2640   8.7848  11.1259  11.4653
    12.4870  12.7785  12.9189  13.5008  13.6972  14.1960  14.9313  16.2397
    16.5342  16.7248  17.2887  17.5019  18.5632  19.4291  19.9393  20.0289
    20.6394  20.8784  21.3873  22.4727  22.6972  22.8561  23.6843  23.8153
    24.0209  24.1138  24.3087  24.9457  25.4727  26.2392  26.4499  26.7274
    26.7875  27.3092  27.4768  28.0903  28.4690  28.7854  30.4008  30.6246

     occupation numbers
     1.0000   1.0000   1.0000   1.0000   1.0000   1.0000   1.0000   1.0000
     1.0000   1.0000   1.0000   1.0000   1.0000   1.0000   1.0000   1.0000
     1.0000   1.0000   1.0000   1.0000   1.0000   1.0000   0.0000   0.0000
     0.0000   0.0000   0.0000   0.0000   0.0000   0.0000   0.0000   0.0000
     0.0000   0.0000   0.0000   0.0000   0.0000   0.0000   0.0000   0.0000
     0.0000   0.0000   0.0000   0.0000   0.0000   0.0000   0.0000   0.0000
     0.0000   0.0000   0.0000   0.0000   0.0000   0.0000   0.0000   0.0000
     0.0000   0.0000   0.0000   0.0000   0.0000   0.0000   0.0000   0.0000

[...]

          k = 0.3333-0.3039-0.3389 (  2215 PWs)   bands (ev):

   -69.1113 -37.0916 -36.9660 -36.9304  -3.7102  -1.7518  -0.8586   0.3002
     2.3340   2.8414   4.4411   5.1944   5.5936   5.8370   6.3498   6.5103
     6.7273   7.1364   7.4226   8.0671   8.3557   8.8235  11.0608  11.9835
    12.3670  12.9034  13.3828  13.9151  14.2968  14.4828  14.8261  15.4448
    16.1281  16.4478  16.9241  17.6344  17.8119  18.2170  18.6967  19.3454
    19.7806  20.8457  21.0560  21.4892  21.6003  22.2856  22.6776  23.2897
    23.6863  24.3332  24.9843  25.3147  25.6758  25.9275  26.5170  27.3002
    27.7276  28.2578  28.6360  28.9173  29.2502  29.8252  30.3333  30.6502

     occupation numbers
     1.0000   1.0000   1.0000   1.0000   1.0000   1.0000   1.0000   1.0000
     1.0000   1.0000   1.0000   1.0000   1.0000   1.0000   1.0000   1.0000
     1.0000   1.0000   1.0000   1.0000   1.0000   1.0000   0.0000   0.0000
     0.0000   0.0000   0.0000   0.0000   0.0000   0.0000   0.0000   0.0000
     0.0000   0.0000   0.0000   0.0000   0.0000   0.0000   0.0000   0.0000
     0.0000   0.0000   0.0000   0.0000   0.0000   0.0000   0.0000   0.0000
     0.0000   0.0000   0.0000   0.0000   0.0000   0.0000   0.0000   0.0000
     0.0000   0.0000   0.0000   0.0000   0.0000   0.0000   0.0000   0.0000

     highest occupied, lowest unoccupied level (ev):     9.6243   10.6075

!    total energy              =    -293.49735266 Ry
     estimated scf accuracy    <       0.00000015 Ry

     The total energy is the sum of the following terms:
     one-electron contribution =    -134.46431850 Ry
     hartree contribution      =      86.15473029 Ry
     xc contribution           =     -53.71664633 Ry
     ewald contribution        =    -191.47111813 Ry

     convergence has been achieved in   9 iterations

     Writing all to output data dir bands_nm/myprefix.save/

     General routines

     Parallel routines

   This run was terminated on:  13:28:29  16Jul2023

   JOB DONE.