     Program PWSCF v.7.1 starts on 15Jul2023 at 18:52: 7

     Reading input from espresso_21820.pwi
Warning: card &CELL ignored
Warning: card / ignored

     Current dimensions of program PWSCF are:
     Max number of different atomic species (ntypx) = 10
     Max number of k-points (npk) =  40000
     Max angular momentum in pseudopotentials (lmaxx) =  4
     Message from routine setup:
     using ibrav=0 with symmetry is DISCOURAGED, use correct ibrav instead

     K-points division:     npool     =       2
     R & G space division:  proc/nbgrp/npool/nimage =       4
     Subspace diagonalization in iterative solution of the eigenvalue problem:
     one sub-group per band group will be used

     Using Slab Decomposition

     bravais-lattice index     =            0
     lattice parameter (alat)  =      12.6839  a.u.
     unit-cell volume          =    2593.3799 (a.u.)^3
     number of atoms/cell      =           16
     number of atomic types    =            4
     number of electrons       =       192.00
     number of Kohn-Sham states=          256
     kinetic-energy cutoff     =      30.0000  Ry
     charge density cutoff     =     240.0000  Ry
     scf convergence threshold =      1.0E-06
     mixing beta               =       0.7000
     number of iterations used =            8  plain     mixing
     Exchange-correlation=  SLA  PW   PBX  PBC
                           (   1   4   3   4   0   0   0)

     celldm(1)=  12.683878  celldm(2)=   0.000000  celldm(3)=   0.000000
     celldm(4)=   0.000000  celldm(5)=   0.000000  celldm(6)=   0.000000

     crystal axes: (cart. coord. in units of alat)
               a(1) = (   1.000000   0.000000   0.000000 )
               a(2) = (   0.000000   1.046059   0.000000 )
               a(3) = (   0.002467   0.000000   1.214938 )

     reciprocal axes: (cart. coord. in units 2 pi/alat)
               b(1) = (  1.000000  0.000000 -0.002031 )
               b(2) = (  0.000000  0.955969  0.000000 )
               b(3) = (  0.000000  0.000000  0.823088 )

     PseudoPot. # 1 for Ag read from file:
     /lustre07/scratch/pragov/crystal_structure_design/utils/SSSP/Ag_ONCV_PBE-1.0.oncvpsp.upf
     MD5 check sum: 94f47bd0669c641108e45594df92fabc
     Pseudo is Norm-conserving, Zval = 19.0
     Generated using ONCVPSP code by D. R. Hamann
     Using radial grid of 1398 points,  6 beta functions with:
                l(1) =   0
                l(2) =   0
                l(3) =   1
                l(4) =   1
                l(5) =   2
                l(6) =   2

     PseudoPot. # 2 for Hg read from file:
     /lustre07/scratch/pragov/crystal_structure_design/utils/SSSP/Hg_ONCV_PBE-1.0.oncvpsp.upf
     MD5 check sum: dd5a8773074bfcf4280086d4d95875c4
     Pseudo is Norm-conserving, Zval = 20.0
     Generated using ONCVPSP code by D. R. Hamann
     Using radial grid of 1262 points,  8 beta functions with:
                l(1) =   0
                l(2) =   0
                l(3) =   1
                l(4) =   1
                l(5) =   2
                l(6) =   2
                l(7) =   3
                l(8) =   3

     PseudoPot. # 3 for Ge read from file:
     /lustre07/scratch/pragov/crystal_structure_design/utils/SSSP/ge_pbe_v1.4.uspp.F.UPF
     MD5 check sum: 9c9eaa91e581c3f09632fb3098b2c6b2
     Pseudo is Ultrasoft + core correction, Zval = 14.0
     Generated by new atomic code, or converted to UPF format
     Using radial grid of  873 points,  6 beta functions with:
                l(1) =   0
                l(2) =   0
                l(3) =   1
                l(4) =   1
                l(5) =   2
                l(6) =   2
     Q(r) pseudized with  8 coefficients,  rinner =    1.400   1.400   1.400
                                                       1.400   1.400

     PseudoPot. # 4 for S  read from file:
     /lustre07/scratch/pragov/crystal_structure_design/utils/SSSP/s_pbe_v1.4.uspp.F.UPF
     MD5 check sum: 88d86576ff6df21479756cfb9bdac1df
     Pseudo is Ultrasoft + core correction, Zval =  6.0
     Generated by new atomic code, or converted to UPF format
     Using radial grid of  907 points,  6 beta functions with:
                l(1) =   0
                l(2) =   0
                l(3) =   1
                l(4) =   1
                l(5) =   2
                l(6) =   2
     Q(r) pseudized with  8 coefficients,  rinner =    1.300   1.300   1.300
                                                       1.300   1.300

     atomic species   valence    mass     pseudopotential
        Ag            19.00   107.86820     Ag( 1.00)
        Hg            20.00   200.59200     Hg( 1.00)
        Ge            14.00    72.63000     Ge( 1.00)
        S              6.00    32.06000     S ( 1.00)

      2 Sym. Ops. (no inversion) found ( 1 have fractional translation)

                                    s                        frac. trans.

      isym =  1     identity

 cryst.   s( 1) = (     1          0          0      )
                  (     0          1          0      )
                  (     0          0          1      )

 cart.    s( 1) = (  1.0000000  0.0000000  0.0000000 )
                  (  0.0000000  1.0000000  0.0000000 )
                  (  0.0000000  0.0000000  1.0000000 )

      isym =  2     inv. 180 deg rotation - cart. axis [0,1,0]

 cryst.   s( 2) = (     1          0          0      )    f =(  0.5000000 )
                  (     0         -1          0      )       (  0.0000000 )
                  (     0          0          1      )       ( -0.5000000 )

 cart.    s( 2) = (  1.0000000  0.0000000  0.0000000 )    f =(  0.4987663 )
                  (  0.0000000 -1.0000000  0.0000000 )       (  0.0000000 )
                  (  0.0000000  0.0000000  1.0000000 )       ( -0.6074688 )

   Cartesian axes

     site n.     atom                  positions (alat units)
         1           Ag  tau(   1) = (   0.9738143   0.1968849   0.2980290  )
         2           Ag  tau(   2) = (   0.4750480   0.8491736   0.9054978  )
         3           Ag  tau(   3) = (   0.9560096   0.6827728   0.6074056  )
         4           Ag  tau(   4) = (   0.4572433   0.3632857   1.2148744  )
         5           Hg  tau(   5) = (   0.9734382   0.1974456   0.9174394  )
         6           Hg  tau(   6) = (   0.4722045   0.8486129   0.3099707  )
         7           Ge  tau(   7) = (   0.4586999   0.3323349   0.6070727  )
         8           Ge  tau(   8) = (   0.9599336   0.7137236   1.2145415  )
         9           S   tau(   9) = (   0.3389114   0.6470311   0.6112582  )
        10           S   tau(  10) = (   0.8376777   0.3990274   0.0037894  )
        11           S   tau(  11) = (   0.3513657   0.1768247   0.3277914  )
        12           S   tau(  12) = (   0.3566247   0.1740746   0.8871304  )
        13           S   tau(  13) = (   0.8553910   0.8719839   0.2796616  )
        14           S   tau(  14) = (   0.8525994   0.8692338   0.9352601  )
        15           S   tau(  15) = (   0.7950059   0.3362911   0.6036235  )
        16           S   tau(  16) = (   0.2962396   0.7097674   1.2110923  )

   Crystallographic axes

     site n.     atom                  positions (cryst. coord.)
         1           Ag  tau(   1) = (  0.9732090  0.1882160  0.2453040  )
         2           Ag  tau(   2) = (  0.4732090  0.8117840  0.7453040  )
         3           Ag  tau(   3) = (  0.9547760  0.6527100  0.4999480  )
         4           Ag  tau(   4) = (  0.4547760  0.3472900  0.9999480  )
         5           Hg  tau(   5) = (  0.9715750  0.1887520  0.7551330  )
         6           Hg  tau(   6) = (  0.4715750  0.8112480  0.2551330  )
         7           Ge  tau(   7) = (  0.4574670  0.3177020  0.4996740  )
         8           Ge  tau(   8) = (  0.9574670  0.6822980  0.9996740  )
         9           S   tau(   9) = (  0.3376700  0.6185420  0.5031190  )
        10           S   tau(  10) = (  0.8376700  0.3814580  0.0031190  )
        11           S   tau(  11) = (  0.3507000  0.1690390  0.2698010  )
        12           S   tau(  12) = (  0.3548230  0.1664100  0.7301860  )
        13           S   tau(  13) = (  0.8548230  0.8335900  0.2301860  )
        14           S   tau(  14) = (  0.8507000  0.8309610  0.7698010  )
        15           S   tau(  15) = (  0.7937800  0.3214840  0.4968350  )
        16           S   tau(  16) = (  0.2937800  0.6785160  0.9968350  )

     number of k points=    10
                       cart. coord. in units 2pi/alat
        k(    1) = (   0.0000000   0.0000000   0.0000000), wk =   0.0740741
        k(    2) = (   0.0000000   0.0000000   0.2743625), wk =   0.1481481
        k(    3) = (   0.0000000   0.3186565   0.0000000), wk =   0.1481481
        k(    4) = (   0.0000000   0.3186565   0.2743625), wk =   0.2962963
        k(    5) = (   0.3333333   0.0000000  -0.0006770), wk =   0.1481481
        k(    6) = (   0.3333333   0.0000000   0.2736856), wk =   0.1481481
        k(    7) = (   0.3333333   0.0000000  -0.2750395), wk =   0.1481481
        k(    8) = (   0.3333333   0.3186565  -0.0006770), wk =   0.2962963
        k(    9) = (   0.3333333   0.3186565   0.2736856), wk =   0.2962963
        k(   10) = (   0.3333333   0.3186565  -0.2750395), wk =   0.2962963

                       cryst. coord.
        k(    1) = (   0.0000000   0.0000000   0.0000000), wk =   0.0740741
        k(    2) = (   0.0000000   0.0000000   0.3333333), wk =   0.1481481
        k(    3) = (   0.0000000   0.3333333   0.0000000), wk =   0.1481481
        k(    4) = (   0.0000000   0.3333333   0.3333333), wk =   0.2962963
        k(    5) = (   0.3333333   0.0000000  -0.0000000), wk =   0.1481481
        k(    6) = (   0.3333333   0.0000000   0.3333333), wk =   0.1481481
        k(    7) = (   0.3333333   0.0000000  -0.3333333), wk =   0.1481481
        k(    8) = (   0.3333333   0.3333333  -0.0000000), wk =   0.2962963
        k(    9) = (   0.3333333   0.3333333   0.3333333), wk =   0.2962963
        k(   10) = (   0.3333333   0.3333333  -0.3333333), wk =   0.2962963

     Initial potential from superposition of free atoms

     starting charge     191.9967, renormalised to     192.0000
     Starting wfcs are  110 randomized atomic wfcs +  146 random wfcs

     Self-consistent Calculation

     iteration #  1     ecut=    30.00 Ry     beta= 0.70
     Davidson diagonalization with overlap

     ethr =  1.00E-02,  avg # of iterations =  7.8

     Threshold (ethr) on eigenvalues was too large:
     Diagonalizing with lowered threshold

     Davidson diagonalization with overlap

[...]

     total energy              =   -2388.04098633 Ry
     estimated scf accuracy    <       1.12811636 Ry

[...]

     total energy              =   -2388.51113645 Ry
     estimated scf accuracy    <       0.00000290 Ry

     iteration #  9     ecut=    30.00 Ry     beta= 0.70
     Davidson diagonalization with overlap

     ethr =  1.51E-09,  avg # of iterations =  2.5

     End of self-consistent calculation

          k = 0.0000 0.0000 0.0000 (  7179 PWs)   bands (ev):

  -108.3110-108.3110 -84.5563 -84.5563 -84.5347 -84.5346 -56.1764 -56.1763
   -56.1724 -56.1689 -56.1533 -56.1521 -47.6188 -47.6184 -47.6091 -47.6076
   -47.6002 -47.6000 -47.5844 -47.5840 -47.5765 -47.5747 -47.5673 -47.5647
   -17.9044 -17.9020 -17.9019 -17.9016 -17.8976 -17.8972 -17.8592 -17.8583
   -17.8576 -17.8575  -6.6618  -6.3998  -5.3501  -5.2908  -5.2276  -5.2004
    -5.1639  -5.1164  -0.9289  -0.7400   0.7547   0.7727   0.7785   0.8034
     0.8181   0.9219   0.9468   0.9557   0.9810   1.0605   1.7626   2.4876
     2.5511   2.6381   2.6996   2.8955   2.9745   3.1480   3.2779   3.3321
     3.3558   3.4595   3.4758   3.5384   3.6863   3.7604   3.8469   3.8654
     3.9585   4.0053   4.1081   4.1615   4.2997   4.3043   4.5008   4.5533
     4.5783   4.6851   4.8568   5.0504   5.2560   5.2750   5.5214   5.7858
     5.9929   6.0236   6.3174   6.7290   6.8679   6.9821   7.0529   7.0834
     7.4887   8.8520   9.2871   9.8209  10.5928  10.6967  11.1887  11.4179
    11.6507  11.6606  12.0265  12.0665  12.2967  12.3227  12.7374  12.8295
    13.3324  13.5238  13.6808  13.8928  14.2656  14.4073  14.4755  14.7737
    14.8958  14.9712  15.1889  15.3598  15.4886  15.6473  16.3199  16.3423
    16.3935  16.6468  17.1200  17.3221  17.5020  17.6153  17.7739  17.9024
    17.9921  18.1385  18.2208  18.5844  18.6105  18.6198  18.7542  18.8289
    18.9531  18.9872  19.0398  19.2017  19.8708  19.8863  19.9960  20.1577
    20.3804  20.4001  20.6399  20.7366  20.8424  21.2541  21.3353  21.6343
    21.7070  21.7443  21.9639  22.0330  22.4738  22.4775  22.6419  22.7514
    22.9903  23.5574  23.9258  23.9833  24.0334  24.2391  24.3778  24.4364
    24.4537  24.6762  24.8400  25.1551  25.2909  25.4615  25.5683  25.7892
    26.0838  26.2813  26.2918  26.4060  26.6908  26.7202  26.8736  27.0700
    27.1935  27.2257  27.3539  27.3910  27.6160  28.0253  28.0891  28.2126
    28.4108  28.4265  28.5200  28.5382  28.6948  28.7596  28.9084  28.9936
    29.0501  29.1901  29.3580  29.3638  29.4799  29.5825  29.8063  29.9828
    30.0763  30.2079  30.5610  30.9902  31.1845  31.2357  31.2782  31.5736
    31.6567  31.8640  31.9392  31.9534  32.0404  32.0717  32.2879  32.4215
    32.4631  32.6809  32.8080  32.8558  33.1228  33.1793  33.2821  33.4062
    33.4324  33.5869  33.6577  33.7904  33.9050  33.9217  34.1843  34.2327
    34.3257  34.3862  34.5468  34.6508  34.6926  34.7408  34.8157  34.9511

     occupation numbers
     1.0000   1.0000   1.0000   1.0000   1.0000   1.0000   1.0000   1.0000
     1.0000   1.0000   1.0000   1.0000   1.0000   1.0000   1.0000   1.0000
     1.0000   1.0000   1.0000   1.0000   1.0000   1.0000   1.0000   1.0000
     1.0000   1.0000   1.0000   1.0000   1.0000   1.0000   1.0000   1.0000
     1.0000   1.0000   1.0000   1.0000   1.0000   1.0000   1.0000   1.0000
     1.0000   1.0000   1.0000   1.0000   1.0000   1.0000   1.0000   1.0000
     1.0000   1.0000   1.0000   1.0000   1.0000   1.0000   1.0000   1.0000
     1.0000   1.0000   1.0000   1.0000   1.0000   1.0000   1.0000   1.0000
     1.0000   1.0000   1.0000   1.0000   1.0000   1.0000   1.0000   1.0000
     1.0000   1.0000   1.0000   1.0000   1.0000   1.0000   1.0000   1.0000
     1.0000   1.0000   1.0000   1.0000   1.0000   1.0000   1.0000   1.0000
     1.0000   1.0000   1.0000   1.0000   1.0000   1.0000   1.0000   1.0000
     0.0000   0.0000   0.0000   0.0000   0.0000   0.0000   0.0000   0.0000
     0.0000   0.0000   0.0000   0.0000   0.0000   0.0000   0.0000   0.0000
     0.0000   0.0000   0.0000   0.0000   0.0000   0.0000   0.0000   0.0000
     0.0000   0.0000   0.0000   0.0000   0.0000   0.0000   0.0000   0.0000
     0.0000   0.0000   0.0000   0.0000   0.0000   0.0000   0.0000   0.0000
     0.0000   0.0000   0.0000   0.0000   0.0000   0.0000   0.0000   0.0000
     0.0000   0.0000   0.0000   0.0000   0.0000   0.0000   0.0000   0.0000
     0.0000   0.0000   0.0000   0.0000   0.0000   0.0000   0.0000   0.0000
     0.0000   0.0000   0.0000   0.0000   0.0000   0.0000   0.0000   0.0000
     0.0000   0.0000   0.0000   0.0000   0.0000   0.0000   0.0000   0.0000
     0.0000   0.0000   0.0000   0.0000   0.0000   0.0000   0.0000   0.0000
     0.0000   0.0000   0.0000   0.0000   0.0000   0.0000   0.0000   0.0000
     0.0000   0.0000   0.0000   0.0000   0.0000   0.0000   0.0000   0.0000
     0.0000   0.0000   0.0000   0.0000   0.0000   0.0000   0.0000   0.0000
     0.0000   0.0000   0.0000   0.0000   0.0000   0.0000   0.0000   0.0000
     0.0000   0.0000   0.0000   0.0000   0.0000   0.0000   0.0000   0.0000
     0.0000   0.0000   0.0000   0.0000   0.0000   0.0000   0.0000   0.0000
     0.0000   0.0000   0.0000   0.0000   0.0000   0.0000   0.0000   0.0000
     0.0000   0.0000   0.0000   0.0000   0.0000   0.0000   0.0000   0.0000
     0.0000   0.0000   0.0000   0.0000   0.0000   0.0000   0.0000   0.0000

[...]

          k = 0.3333 0.3187-0.2750 (  7194 PWs)   bands (ev):

  -108.3110-108.3110 -84.5563 -84.5563 -84.5347 -84.5347 -56.1756 -56.1749
   -56.1742 -56.1739 -56.1539 -56.1525 -47.6184 -47.6182 -47.6102 -47.6096
   -47.6011 -47.6004 -47.5845 -47.5839 -47.5776 -47.5769 -47.5653 -47.5648
   -17.9050 -17.9048 -17.9022 -17.9007 -17.8978 -17.8975 -17.8592 -17.8588
   -17.8583 -17.8571  -6.4672  -6.4284  -5.3703  -5.3265  -5.2875  -5.2413
    -5.2128  -5.1785  -0.8225  -0.7812   0.6630   0.6962   0.7174   0.7618
     0.8961   0.9225   0.9503   0.9643   1.0069   1.1426   1.8205   2.0375
     2.5925   2.6520   2.7650   2.8508   2.9517   3.1320   3.2823   3.3312
     3.3661   3.3896   3.5083   3.5649   3.6259   3.7090   3.8871   3.9749
     4.0556   4.1949   4.2618   4.3178   4.3284   4.3787   4.5072   4.7010
     4.8557   4.8819   5.0274   5.1363   5.2560   5.4172   5.6279   5.7786
     5.8933   6.0482   6.1236   6.2654   6.4429   6.5673   6.6485   6.7272
     9.0688   9.1025   9.4007   9.6338  10.5670  10.7989  10.8527  11.1515
    11.4247  11.8102  12.0112  12.1997  12.4097  12.5980  12.7383  12.8967
    13.1305  13.3482  13.4549  13.5427  13.8515  13.9829  14.1705  14.3764
    14.5950  14.7487  14.9085  15.0716  15.2732  15.5119  15.6903  15.9672
    16.2180  16.4876  16.8281  17.0480  17.2306  17.5433  17.6919  17.8934
    18.0257  18.2982  18.4185  18.5554  18.6827  18.8753  19.0366  19.1981
    19.3643  19.6134  19.8935  20.0479  20.2758  20.5682  20.6117  20.7425
    20.9037  21.1702  21.2894  21.4674  21.6195  21.7500  21.8035  21.9507
    22.0336  22.2441  22.5432  22.5946  22.7118  22.8433  23.0575  23.1061
    23.2553  23.3538  23.4894  23.6044  23.7900  23.9164  24.1341  24.2265
    24.3185  24.4820  24.6525  24.7549  24.9707  25.0985  25.1625  25.3978
    25.5497  25.7665  25.8383  26.0289  26.2260  26.2804  26.3872  26.4615
    26.6647  26.8591  27.0158  27.1709  27.2800  27.5394  27.5797  27.7102
    27.9167  28.0581  28.3053  28.4144  28.6588  28.7660  28.9030  28.9711
    29.0640  29.2987  29.4462  29.6226  29.8424  29.9122  30.1250  30.1548
    30.2869  30.3744  30.4204  30.5403  30.7182  30.8724  30.9368  31.1573
    31.2471  31.4679  31.5582  31.6759  31.8803  31.9450  32.1902  32.2631
    32.3932  32.4705  32.5485  32.6087  32.8550  33.0085  33.1069  33.2351
    33.3831  33.5385  33.5917  33.6951  33.9108  33.9960  34.0718  34.2269
    34.3629  34.5280  34.6475  34.7517  34.9748  35.0310  35.1270  35.2091

     occupation numbers
     1.0000   1.0000   1.0000   1.0000   1.0000   1.0000   1.0000   1.0000
     1.0000   1.0000   1.0000   1.0000   1.0000   1.0000   1.0000   1.0000
     1.0000   1.0000   1.0000   1.0000   1.0000   1.0000   1.0000   1.0000
     1.0000   1.0000   1.0000   1.0000   1.0000   1.0000   1.0000   1.0000
     1.0000   1.0000   1.0000   1.0000   1.0000   1.0000   1.0000   1.0000
     1.0000   1.0000   1.0000   1.0000   1.0000   1.0000   1.0000   1.0000
     1.0000   1.0000   1.0000   1.0000   1.0000   1.0000   1.0000   1.0000
     1.0000   1.0000   1.0000   1.0000   1.0000   1.0000   1.0000   1.0000
     1.0000   1.0000   1.0000   1.0000   1.0000   1.0000   1.0000   1.0000
     1.0000   1.0000   1.0000   1.0000   1.0000   1.0000   1.0000   1.0000
     1.0000   1.0000   1.0000   1.0000   1.0000   1.0000   1.0000   1.0000
     1.0000   1.0000   1.0000   1.0000   1.0000   1.0000   1.0000   1.0000
     0.0000   0.0000   0.0000   0.0000   0.0000   0.0000   0.0000   0.0000
     0.0000   0.0000   0.0000   0.0000   0.0000   0.0000   0.0000   0.0000
     0.0000   0.0000   0.0000   0.0000   0.0000   0.0000   0.0000   0.0000
     0.0000   0.0000   0.0000   0.0000   0.0000   0.0000   0.0000   0.0000
     0.0000   0.0000   0.0000   0.0000   0.0000   0.0000   0.0000   0.0000
     0.0000   0.0000   0.0000   0.0000   0.0000   0.0000   0.0000   0.0000
     0.0000   0.0000   0.0000   0.0000   0.0000   0.0000   0.0000   0.0000
     0.0000   0.0000   0.0000   0.0000   0.0000   0.0000   0.0000   0.0000
     0.0000   0.0000   0.0000   0.0000   0.0000   0.0000   0.0000   0.0000
     0.0000   0.0000   0.0000   0.0000   0.0000   0.0000   0.0000   0.0000
     0.0000   0.0000   0.0000   0.0000   0.0000   0.0000   0.0000   0.0000
     0.0000   0.0000   0.0000   0.0000   0.0000   0.0000   0.0000   0.0000
     0.0000   0.0000   0.0000   0.0000   0.0000   0.0000   0.0000   0.0000
     0.0000   0.0000   0.0000   0.0000   0.0000   0.0000   0.0000   0.0000
     0.0000   0.0000   0.0000   0.0000   0.0000   0.0000   0.0000   0.0000
     0.0000   0.0000   0.0000   0.0000   0.0000   0.0000   0.0000   0.0000
     0.0000   0.0000   0.0000   0.0000   0.0000   0.0000   0.0000   0.0000
     0.0000   0.0000   0.0000   0.0000   0.0000   0.0000   0.0000   0.0000
     0.0000   0.0000   0.0000   0.0000   0.0000   0.0000   0.0000   0.0000
     0.0000   0.0000   0.0000   0.0000   0.0000   0.0000   0.0000   0.0000

     highest occupied, lowest unoccupied level (ev):     7.0834    7.4887

!    total energy              =   -2388.51113724 Ry
     estimated scf accuracy    <       0.00000011 Ry

     The total energy is the sum of the following terms:
     one-electron contribution =   -1500.63130802 Ry
     hartree contribution      =     808.41361154 Ry
     xc contribution           =    -347.11744027 Ry
     ewald contribution        =   -1349.17600049 Ry

     convergence has been achieved in   9 iterations

     Writing all to output data dir bands_nm/myprefix.save/

     General routines

     Parallel routines

   This run was terminated on:  18:53:14  15Jul2023

   JOB DONE.