     Program PWSCF v.7.1 starts on 16Jul2023 at 15:30:36

     Reading input from espresso_23790.pwi
Warning: card &CELL ignored
Warning: card / ignored

     Current dimensions of program PWSCF are:
     Max number of different atomic species (ntypx) = 10
     Max number of k-points (npk) =  40000
     Max angular momentum in pseudopotentials (lmaxx) =  4
     Message from routine setup:
     using ibrav=0 with symmetry is DISCOURAGED, use correct ibrav instead

     K-points division:     npool     =       2
     R & G space division:  proc/nbgrp/npool/nimage =       4
     Subspace diagonalization in iterative solution of the eigenvalue problem:
     a serial algorithm will be used

     Using Slab Decomposition

     bravais-lattice index     =            0
     lattice parameter (alat)  =      15.3344  a.u.
     unit-cell volume          =    2466.6625 (a.u.)^3
     number of atoms/cell      =            8
     number of atomic types    =            2
     number of electrons       =        88.00
     number of Kohn-Sham states=           64
     kinetic-energy cutoff     =      30.0000  Ry
     charge density cutoff     =     240.0000  Ry
     scf convergence threshold =      1.0E-06
     mixing beta               =       0.7000
     number of iterations used =            8  plain     mixing
     Exchange-correlation= SLA  PW   PBX  PBC
                           (   1   4   3   4   0   0   0)

     celldm(1)=  15.334410  celldm(2)=   0.000000  celldm(3)=   0.000000
     celldm(4)=   0.000000  celldm(5)=   0.000000  celldm(6)=   0.000000

     crystal axes: (cart. coord. in units of alat)
               a(1) = (   1.000000   0.000000   0.000000 )
               a(2) = (   0.851764   0.523926   0.000000 )
               a(3) = (   0.367732   0.104044   1.305684 )

     reciprocal axes: (cart. coord. in units 2 pi/alat)
               b(1) = (  1.000000 -1.625731 -0.152092 )
               b(2) = (  0.000000  1.908665 -0.152092 )
               b(3) = (  0.000000  0.000000  0.765882 )

     PseudoPot. # 1 for Bi read from file:
     /lustre07/scratch/pragov/crystal_structure_design/utils/SSSP/Bi_pbe_v1.uspp.F.UPF
     MD5 check sum: cceb9f28ec65b6d7ff33140f5b0b1758
     Pseudo is Ultrasoft + core correction, Zval = 15.0
     Generated by new atomic code, or converted to UPF format
     Using radial grid of  899 points,  6 beta functions with:
                l(1) =   0
                l(2) =   0
                l(3) =   1
                l(4) =   1
                l(5) =   2
                l(6) =   2
     Q(r) pseudized with  6 coefficients,  rinner =    1.000   1.000   1.000
                                                       1.000   1.000

     PseudoPot. # 2 for I  read from file:
     /lustre07/scratch/pragov/crystal_structure_design/utils/SSSP/I.pbe-n-kjpaw_psl.0.2.UPF
     MD5 check sum: d4ef18d9c8f18dc85e5843bca1e50dc0
     Pseudo is Projector augmented-wave + core cor, Zval =  7.0
     Generated using "atomic" code by A. Dal Corso  v.5.0.99 svn rev. 10869
     Shape of augmentation charge: PSQ
     Using radial grid of 1247 points,  4 beta functions with:
                l(1) =   0
                l(2) =   0
                l(3) =   1
                l(4) =   1
     Q(r) pseudized with 0 coefficients

     atomic species   valence    mass     pseudopotential
        Bi            15.00   208.98040     Bi( 1.00)
        I              7.00   126.90447     I ( 1.00)

      2 Sym. Ops., with inversion, found

                                    s                        frac. trans.

      isym =  1     identity

 cryst.   s( 1) = (     1          0          0      )
                  (     0          1          0      )
                  (     0          0          1      )

 cart.    s( 1) = (  1.0000000  0.0000000  0.0000000 )
                  (  0.0000000  1.0000000 -0.0000000 )
                  (  0.0000000  0.0000000  1.0000000 )

      isym =  2     inversion

 cryst.   s( 2) = (    -1          0          0      )
                  (     0         -1          0      )
                  (     0          0         -1      )

 cart.    s( 2) = ( -1.0000000  0.0000000  0.0000000 )
                  (  0.0000000 -1.0000000  0.0000000 )
                  (  0.0000000  0.0000000 -1.0000000 )

   Cartesian axes

     site n.     atom                  positions (alat units)
         1           Bi  tau(   1) = (   1.8812922   0.5322810   1.2904550  )
         2           Bi  tau(   2) = (   0.6354758   0.1797975   0.9461381  )
         3           Bi  tau(   3) = (   1.5840193   0.4481725   0.3595463  )
         4           Bi  tau(   4) = (   0.3382029   0.0956890   0.0152295  )
         5           I   tau(   5) = (   1.3078099   0.3700235   1.0192891  )
         6           I   tau(   6) = (   0.9116853   0.2579465   0.2863954  )
         7           I   tau(   7) = (   0.4205609   0.1189909   0.4843358  )
         8           I   tau(   8) = (   1.7989342   0.5089792   0.8213487  )

   Crystallographic axes

     site n.     atom                  positions (cryst. coord.)
         1           Bi  tau(   1) = (  0.8196780  0.8196780  0.9883360  )
         2           Bi  tau(   2) = (  0.1992730  0.1992730  0.7246300  )
         3           Bi  tau(   3) = (  0.8007270  0.8007270  0.2753700  )
         4           Bi  tau(   4) = (  0.1803220  0.1803220  0.0116640  )
         5           I   tau(   5) = (  0.5512250  0.5512250  0.7806550  )
         6           I   tau(   6) = (  0.4487750  0.4487750  0.2193450  )
         7           I   tau(   7) = (  0.1534500  0.1534500  0.3709440  )
         8           I   tau(   8) = (  0.8465500  0.8465500  0.6290560  )

     number of k points=    14
                       cart. coord. in units 2pi/alat
        k(    1) = (   0.0000000   0.0000000   0.0000000), wk =   0.0740741
        k(    2) = (   0.0000000   0.0000000   0.2552939), wk =   0.1481481
        k(    3) = (   0.0000000   0.6362217  -0.0506974), wk =   0.1481481
        k(    4) = (   0.0000000   0.6362217   0.2045965), wk =   0.1481481
        k(    5) = (   0.0000000   0.6362217  -0.3059914), wk =   0.1481481
        k(    6) = (   0.3333333  -0.5419105  -0.0506974), wk =   0.1481481
        k(    7) = (   0.3333333  -0.5419105   0.2045965), wk =   0.1481481
        k(    8) = (   0.3333333  -0.5419105  -0.3059914), wk =   0.1481481
        k(    9) = (   0.3333333   0.0943112  -0.1013948), wk =   0.1481481
        k(   10) = (   0.3333333   0.0943112   0.1538991), wk =   0.1481481
        k(   11) = (   0.3333333   0.0943112  -0.3566888), wk =   0.1481481
        k(   12) = (   0.3333333  -1.1781322   0.0000000), wk =   0.1481481
        k(   13) = (   0.3333333  -1.1781322   0.2552939), wk =   0.1481481
        k(   14) = (   0.3333333  -1.1781322  -0.2552939), wk =   0.1481481

                       cryst. coord.
        k(    1) = (   0.0000000   0.0000000   0.0000000), wk =   0.0740741
        k(    2) = (   0.0000000   0.0000000   0.3333333), wk =   0.1481481
        k(    3) = (   0.0000000   0.3333333  -0.0000000), wk =   0.1481481
        k(    4) = (   0.0000000   0.3333333   0.3333333), wk =   0.1481481
        k(    5) = (   0.0000000   0.3333333  -0.3333333), wk =   0.1481481
        k(    6) = (   0.3333333   0.0000000   0.0000000), wk =   0.1481481
        k(    7) = (   0.3333333   0.0000000   0.3333333), wk =   0.1481481
        k(    8) = (   0.3333333   0.0000000  -0.3333333), wk =   0.1481481
        k(    9) = (   0.3333333   0.3333333   0.0000000), wk =   0.1481481
        k(   10) = (   0.3333333   0.3333333   0.3333333), wk =   0.1481481
        k(   11) = (   0.3333333   0.3333333  -0.3333333), wk =   0.1481481
        k(   12) = (   0.3333333  -0.3333333   0.0000000), wk =   0.1481481
        k(   13) = (   0.3333333  -0.3333333   0.3333333), wk =   0.1481481
        k(   14) = (   0.3333333  -0.3333333  -0.3333333), wk =   0.1481481

     Check: negative core charge=   -0.000003

     Initial potential from superposition of free atoms

     starting charge      83.9995, renormalised to      88.0000

     negative rho (up, down):  1.763E-01 0.000E+00
     Starting wfcs are   52 randomized atomic wfcs +   12 random wfcs
     Checking if some PAW data can be deallocated...

     Self-consistent Calculation

     iteration #  1     ecut=    30.00 Ry     beta= 0.70
     Davidson diagonalization with overlap

     ethr =  1.00E-02,  avg # of iterations =  6.4

     negative rho (up, down):  1.647E-01 0.000E+00

     total energy              =   -2255.94749734 Ry
     estimated scf accuracy    <       2.17950526 Ry

[...]

     total energy              =   -2256.90498272 Ry
     estimated scf accuracy    <       0.00000241 Ry

     iteration # 10     ecut=    30.00 Ry     beta= 0.70
     Davidson diagonalization with overlap

     ethr =  2.74E-09,  avg # of iterations =  4.2

     negative rho (up, down):  1.714E-01 0.000E+00

     End of self-consistent calculation

          k = 0.0000 0.0000 0.0000 (  6851 PWs)   bands (ev):

   -18.5750 -18.5749 -18.5708 -18.5708 -18.4095 -18.4094 -18.4039 -18.4038
   -18.3777 -18.3767 -17.6790 -17.5684 -17.5679 -17.5281 -17.5257 -17.4568
   -17.4459 -17.4292 -17.3968 -17.2978  -8.6180  -8.4552  -7.8297  -7.8294
    -6.7124  -5.6261  -5.2227  -3.7974   1.3715   1.4260   1.6698   1.7496
     1.8586   1.8973   2.1462   2.3442   2.4228   2.6533   2.6932   2.7706
     3.7873   3.9643   4.0053   4.4306   5.8241   6.2012   6.3363   6.4232
     6.6280   7.0439   7.8349   7.8896   9.3458   9.6675   9.9293  10.5006
    10.9014  11.2761  11.2893  11.4061  11.4794  12.0224  12.1467  12.2180

     occupation numbers
     1.0000   1.0000   1.0000   1.0000   1.0000   1.0000   1.0000   1.0000
     1.0000   1.0000   1.0000   1.0000   1.0000   1.0000   1.0000   1.0000
     1.0000   1.0000   1.0000   1.0000   1.0000   1.0000   1.0000   1.0000
     1.0000   1.0000   1.0000   1.0000   1.0000   1.0000   1.0000   1.0000
     1.0000   1.0000   1.0000   1.0000   1.0000   1.0000   1.0000   1.0000
     1.0000   1.0000   1.0000   1.0000   0.0000   0.0000   0.0000   0.0000
     0.0000   0.0000   0.0000   0.0000   0.0000   0.0000   0.0000   0.0000
     0.0000   0.0000   0.0000   0.0000   0.0000   0.0000   0.0000   0.0000

[...]

          k = 0.3333-1.1781-0.2553 (  6835 PWs)   bands (ev):

   -18.5778 -18.5778 -18.5683 -18.5682 -18.4093 -18.4091 -18.4063 -18.4060
   -18.3732 -18.3726 -17.6357 -17.5776 -17.5361 -17.5348 -17.5178 -17.4484
   -17.4438 -17.4330 -17.4142 -17.3512  -8.0687  -8.0118  -7.7276  -7.7056
    -6.4775  -6.1114  -5.3697  -4.3676   0.6773   0.6889   0.7897   0.8378
     1.4728   2.0062   2.1073   2.3753   2.4372   2.5156   2.6812   2.7464
     3.1192   3.3724   3.6749   3.9433   6.5275   6.5858   6.8186   6.9059
     7.0629   7.1012   7.4854   7.6634   9.3912   9.7385  10.2806  10.7081
    10.7734  11.1237  11.4802  11.6805  11.8719  12.1161  12.4695  12.5456

     occupation numbers
     1.0000   1.0000   1.0000   1.0000   1.0000   1.0000   1.0000   1.0000
     1.0000   1.0000   1.0000   1.0000   1.0000   1.0000   1.0000   1.0000
     1.0000   1.0000   1.0000   1.0000   1.0000   1.0000   1.0000   1.0000
     1.0000   1.0000   1.0000   1.0000   1.0000   1.0000   1.0000   1.0000
     1.0000   1.0000   1.0000   1.0000   1.0000   1.0000   1.0000   1.0000
     1.0000   1.0000   1.0000   1.0000   0.0000   0.0000   0.0000   0.0000
     0.0000   0.0000   0.0000   0.0000   0.0000   0.0000   0.0000   0.0000
     0.0000   0.0000   0.0000   0.0000   0.0000   0.0000   0.0000   0.0000

     highest occupied, lowest unoccupied level (ev):     4.4306    5.4967

!    total energy              =   -2256.90498375 Ry
     estimated scf accuracy    <       0.00000050 Ry

     The total energy is the sum of the following terms:
     one-electron contribution =    -434.35333058 Ry
     hartree contribution      =     257.16741879 Ry
     xc contribution           =    -425.18295905 Ry
     ewald contribution        =    -372.43814941 Ry
     one-center paw contrib.   =   -1282.09796351 Ry
      -> PAW hartree energy AE =       0.00000000 Ry
      -> PAW hartree energy PS =       0.00000000 Ry
      -> PAW xc energy AE      =       0.00000000 Ry
      -> PAW xc energy PS      =       0.00000000 Ry
      -> total E_H with PAW    =     257.16741879 Ry
      -> total E_XC with PAW   =    -425.18295905 Ry

     convergence has been achieved in  10 iterations

     Writing all to output data dir bands_nm/myprefix.save/

     General routines

     Parallel routines

     PAW routines

   This run was terminated on:  15:30:52  16Jul2023

   JOB DONE.