     Program PWSCF v.7.1 starts on 12Jul2023 at 14:38:30

     Reading input from espresso_22180.pwi
Warning: card &CELL ignored
Warning: card / ignored

     Current dimensions of program PWSCF are:
     Max number of different atomic species (ntypx) = 10
     Max number of k-points (npk) =  40000
     Max angular momentum in pseudopotentials (lmaxx) =  4
     file O.pbe-n-kjpaw_psl.0.1.UPF: wavefunction(s)  2P renormalized
     Message from routine setup:
     using ibrav=0 with symmetry is DISCOURAGED, use correct ibrav instead

     K-points division:     npool     =       2
     R & G space division:  proc/nbgrp/npool/nimage =       8
     Subspace diagonalization in iterative solution of the eigenvalue problem:
     a serial algorithm will be used

     Using Slab Decomposition

     bravais-lattice index     =            0
     lattice parameter (alat)  =      10.9267  a.u.
     unit-cell volume          =    1495.1222 (a.u.)^3
     number of atoms/cell      =           12
     number of atomic types    =            3
     number of electrons       =        78.00
     number of Kohn-Sham states=           64
     kinetic-energy cutoff     =      30.0000  Ry
     charge density cutoff     =     240.0000  Ry
     scf convergence threshold =      1.0E-06
     mixing beta               =       0.7000
     number of iterations used =            8  plain     mixing
     Exchange-correlation= SLA  PW   PBX  PBC
                           (   1   4   3   4   0   0   0)

     celldm(1)=  10.926659  celldm(2)=   0.000000  celldm(3)=   0.000000
     celldm(4)=   0.000000  celldm(5)=   0.000000  celldm(6)=   0.000000

     crystal axes: (cart. coord. in units of alat)
               a(1) = (   1.000000   0.000000   0.000000 )
               a(2) = (  -0.500000   0.866026   0.000000 )
               a(3) = (   0.000000   0.000000   1.323378 )

     reciprocal axes: (cart. coord. in units 2 pi/alat)
               b(1) = (  1.000000  0.577350  0.000000 )
               b(2) = (  0.000000  1.154700  0.000000 )
               b(3) = (  0.000000  0.000000  0.755642 )

     PseudoPot. # 1 for Rb read from file:
     /lustre07/scratch/pragov/crystal_structure_design/utils/SSSP/Rb_ONCV_PBE-1.0.oncvpsp.upf
     MD5 check sum: 55a5172d6bfbce6759a58e35d43f6aa9
     Pseudo is Norm-conserving, Zval =  9.0
     Generated using ONCVPSP code by D. R. Hamann
     Using radial grid of 2308 points,  6 beta functions with:
                l(1) =   0
                l(2) =   0
                l(3) =   1
                l(4) =   1
                l(5) =   2
                l(6) =   2

     PseudoPot. # 2 for N  read from file:
     /lustre07/scratch/pragov/crystal_structure_design/utils/SSSP/N.pbe-n-radius_5.UPF
     MD5 check sum: 16739722b17309cd8fe442a2ace49922
     Pseudo is Ultrasoft + core correction, Zval =  5.0
     Generated using "atomic" code by A. Dal Corso  v.5.1
     Using radial grid of 1085 points,  4 beta functions with:
                l(1) =   0
                l(2) =   0
                l(3) =   1
                l(4) =   1
     Q(r) pseudized with 0 coefficients

     PseudoPot. # 3 for O  read from file:
     /lustre07/scratch/pragov/crystal_structure_design/utils/SSSP/O.pbe-n-kjpaw_psl.0.1.UPF
     MD5 check sum: 0234752ac141de4415c5fc33072bef88
     Pseudo is Projector augmented-wave + core cor, Zval =  6.0
     Generated using "atomic" code by A. Dal Corso  v.5.0.99 svn rev. 10869
     Shape of augmentation charge: BESSEL
     Using radial grid of 1095 points,  4 beta functions with:
                l(1) =   0
                l(2) =   0
                l(3) =   1
                l(4) =   1
     Q(r) pseudized with 0 coefficients

     atomic species   valence    mass     pseudopotential
        Rb             9.00    85.46780     Rb( 1.00)
        N              5.00    14.00700     N ( 1.00)
        O              6.00    15.99900     O ( 1.00)

      6 Sym. Ops. (no inversion) found ( 4 have fractional translation)

                                    s                        frac. trans.

      isym =  1     identity

 cryst.   s( 1) = (     1          0          0      )
                  (     0          1          0      )
                  (     0          0          1      )

 cart.    s( 1) = (  1.0000000  0.0000000  0.0000000 )
                  (  0.0000000  1.0000000  0.0000000 )
                  (  0.0000000  0.0000000  1.0000000 )

      isym =  2     180 deg rotation - cart. axis [1,0,0]

 cryst.   s( 2) = (     1          0          0      )    f =( -0.0000000 )
                  (    -1         -1          0      )       ( -0.0000000 )
                  (     0          0         -1      )       (  0.3333330 )

 cart.    s( 2) = (  1.0000000 -0.0000004  0.0000000 )    f =(  0.0000000 )
                  (  0.0000000 -1.0000000  0.0000000 )       ( -0.0000000 )
                  (  0.0000000  0.0000000 -1.0000000 )       (  0.4411255 )

      isym =  3     120 deg rotation - cryst. axis [0,0,1]

[...]

 cryst.   s( 5) = (    -1         -1          0      )    f =(  0.0000000 )
                  (     0          1          0      )       (  0.0000000 )
                  (     0          0         -1      )       ( -0.3333340 )

 cart.    s( 5) = ( -0.5000002 -0.8660251  0.0000000 )    f =(  0.0000000 )
                  ( -0.8660255  0.5000002  0.0000000 )       (  0.0000000 )
                  (  0.0000000  0.0000000 -1.0000000 )       ( -0.4411268 )

      isym =  6     180 deg rotation - cryst. axis [1,1,0]

 cryst.   s( 6) = (     0          1          0      )
                  (     1          0          0      )
                  (     0          0         -1      )

 cart.    s( 6) = ( -0.4999998  0.8660255  0.0000000 )
                  (  0.8660255  0.4999998  0.0000000 )
                  (  0.0000000  0.0000000 -1.0000000 )

   Cartesian axes

     site n.     atom                  positions (alat units)
         1           Rb  tau(   1) = (  -0.3506839   0.6074026   0.8822523  )
         2           Rb  tau(   2) = (   0.1493161   0.2586229   0.0000000  )
         3           Rb  tau(   3) = (   0.7013680   0.0000000   0.4411255  )
         4           N   tau(   4) = (  -0.3425499   0.5933141   0.2205634  )
         5           N   tau(   5) = (   0.1574501   0.2727114   0.6616889  )
         6           N   tau(   6) = (   0.6851000   0.0000000   1.1028143  )
         7           O   tau(   7) = (  -0.1937604   0.5425606   0.3745185  )
         8           O   tau(   8) = (   0.0667516   0.7625467   1.2567695  )
         9           O   tau(   9) = (   0.1270091   0.4269436   0.8156440  )
        10           O   tau(  10) = (   0.3062396   0.3234649   0.5077337  )
        11           O   tau(  11) = (   0.5667515   0.1034788   0.9488592  )
        12           O   tau(  12) = (   0.6270091   0.4390819   0.0666082  )

   Crystallographic axes

     site n.     atom                  positions (cryst. coord.)
         1           Rb  tau(   1) = ( -0.0000000  0.7013680  0.6666670  )
         2           Rb  tau(   2) = (  0.2986320  0.2986320  0.0000000  )
         3           Rb  tau(   3) = (  0.7013680  0.0000000  0.3333330  )
         4           N   tau(   4) = ( -0.0000000  0.6851000  0.1666670  )
         5           N   tau(   5) = (  0.3149000  0.3149000  0.5000000  )
         6           N   tau(   6) = (  0.6851000  0.0000000  0.8333330  )
         7           O   tau(   7) = (  0.1194870  0.6264950  0.2830020  )
         8           O   tau(   8) = (  0.5070080  0.8805130  0.9496680  )
         9           O   tau(   9) = (  0.3735050  0.4929920  0.6163350  )
        10           O   tau(  10) = (  0.4929920  0.3735050  0.3836650  )
        11           O   tau(  11) = (  0.6264950  0.1194870  0.7169980  )
        12           O   tau(  12) = (  0.8805130  0.5070080  0.0503320  )

     number of k points=     7
                       cart. coord. in units 2pi/alat
        k(    1) = (   0.0000000   0.0000000   0.0000000), wk =   0.0740741
        k(    2) = (   0.0000000   0.0000000   0.2518807), wk =   0.1481481
        k(    3) = (   0.0000000   0.3849001   0.0000000), wk =   0.4444444
        k(    4) = (   0.0000000   0.3849001   0.2518807), wk =   0.4444444
        k(    5) = (   0.3333333   0.5773501   0.0000000), wk =   0.1481481
        k(    6) = (   0.3333333   0.5773501   0.2518807), wk =   0.2962963
        k(    7) = (   0.0000000   0.3849001  -0.2518807), wk =   0.4444444

                       cryst. coord.
        k(    1) = (   0.0000000   0.0000000   0.0000000), wk =   0.0740741
        k(    2) = (   0.0000000   0.0000000   0.3333333), wk =   0.1481481
        k(    3) = (   0.0000000   0.3333333   0.0000000), wk =   0.4444444
        k(    4) = (   0.0000000   0.3333333   0.3333333), wk =   0.4444444
        k(    5) = (   0.3333333   0.3333333   0.0000000), wk =   0.1481481
        k(    6) = (   0.3333333   0.3333333   0.3333333), wk =   0.2962963
        k(    7) = (   0.0000000   0.3333333  -0.3333333), wk =   0.4444444

     Check: negative core charge=   -0.000010

     Initial potential from superposition of free atoms

     starting charge      77.9257, renormalised to      78.0000
     Starting wfcs are   51 randomized atomic wfcs +   13 random wfcs
     Checking if some PAW data can be deallocated...

     Self-consistent Calculation

     iteration #  1     ecut=    30.00 Ry     beta= 0.70
     Davidson diagonalization with overlap

     ethr =  1.00E-02,  avg # of iterations =  6.4

     total energy              =    -456.46706298 Ry
     estimated scf accuracy    <       1.08855765 Ry

[...]

     total energy              =    -456.89311099 Ry
     estimated scf accuracy    <       0.00000198 Ry

     iteration #  7     ecut=    30.00 Ry     beta= 0.70
     Davidson diagonalization with overlap

     ethr =  2.54E-09,  avg # of iterations =  2.4

     End of self-consistent calculation

          k = 0.0000 0.0000 0.0000 (  4201 PWs)   bands (ev):

   -22.4570 -22.4009 -22.4008 -20.9225 -20.8753 -20.8753 -16.5822 -16.5822
   -16.5752  -7.2177  -6.9728  -6.9728  -6.6655  -6.6655  -6.5765  -6.5765
    -6.5475  -6.4317  -6.4317  -6.4156  -6.2488  -3.7912  -3.6325  -3.6325
    -3.0117  -3.0116  -2.9886  -2.8522  -2.7167  -2.7167   0.8002   0.8002
     1.1886   1.9189   1.9189   2.0792   2.4790   2.9598   2.9598   5.5481
     5.8574   5.8574   8.2857   9.5137   9.5137   9.9702   9.9703  10.6935
    11.2900  11.2900  11.3687  11.5103  11.5554  11.5554  12.3592  12.3800
    12.3800  13.1979  13.1979  13.5213  14.2839  14.3998  14.3998  15.4865

     occupation numbers
     1.0000   1.0000   1.0000   1.0000   1.0000   1.0000   1.0000   1.0000
     1.0000   1.0000   1.0000   1.0000   1.0000   1.0000   1.0000   1.0000
     1.0000   1.0000   1.0000   1.0000   1.0000   1.0000   1.0000   1.0000
     1.0000   1.0000   1.0000   1.0000   1.0000   1.0000   1.0000   1.0000
     1.0000   1.0000   1.0000   1.0000   1.0000   1.0000   1.0000   0.0000
     0.0000   0.0000   0.0000   0.0000   0.0000   0.0000   0.0000   0.0000
     0.0000   0.0000   0.0000   0.0000   0.0000   0.0000   0.0000   0.0000
     0.0000   0.0000   0.0000   0.0000   0.0000   0.0000   0.0000   0.0000

[...]

          k = 0.0000 0.3849-0.2519 (  4149 PWs)   bands (ev):

   -22.4309 -22.4193 -22.3963 -20.9156 -20.9024 -20.8690 -16.5846 -16.5773
   -16.5723  -7.2428  -7.2029  -7.1635  -6.7134  -6.6685  -6.5457  -6.5046
    -6.4511  -6.4441  -6.3277  -6.2366  -6.1401  -3.7394  -3.6773  -3.5453
    -3.1546  -2.9714  -2.8818  -2.8112  -2.7341  -2.6920   0.8102   0.9438
     1.0861   1.7990   1.9291   2.0249   2.6706   2.8119   3.0217   5.5437
     5.6714   5.9149   8.9770   9.1452   9.9953  10.0923  10.3129  10.4610
    10.7397  10.9321  11.1848  11.4293  11.7584  11.9606  12.2674  12.4960
    12.6189  12.7253  12.9466  13.4670  14.1168  14.3541  14.5496  14.6496

     occupation numbers
     1.0000   1.0000   1.0000   1.0000   1.0000   1.0000   1.0000   1.0000
     1.0000   1.0000   1.0000   1.0000   1.0000   1.0000   1.0000   1.0000
     1.0000   1.0000   1.0000   1.0000   1.0000   1.0000   1.0000   1.0000
     1.0000   1.0000   1.0000   1.0000   1.0000   1.0000   1.0000   1.0000
     1.0000   1.0000   1.0000   1.0000   1.0000   1.0000   1.0000   0.0000
     0.0000   0.0000   0.0000   0.0000   0.0000   0.0000   0.0000   0.0000
     0.0000   0.0000   0.0000   0.0000   0.0000   0.0000   0.0000   0.0000
     0.0000   0.0000   0.0000   0.0000   0.0000   0.0000   0.0000   0.0000

     highest occupied, lowest unoccupied level (ev):     3.1073    5.5120

!    total energy              =    -456.89311152 Ry
     estimated scf accuracy    <       0.00000011 Ry

     The total energy is the sum of the following terms:
     one-electron contribution =    -193.01257743 Ry
     hartree contribution      =     129.12083305 Ry
     xc contribution           =     -82.74525770 Ry
     ewald contribution        =    -253.05987570 Ry
     one-center paw contrib.   =     -57.19623373 Ry
      -> PAW hartree energy AE =       0.00000000 Ry
      -> PAW hartree energy PS =       0.00000000 Ry
      -> PAW xc energy AE      =       0.00000000 Ry
      -> PAW xc energy PS      =       0.00000000 Ry
      -> total E_H with PAW    =     129.12083305 Ry
      -> total E_XC with PAW   =     -82.74525770 Ry

     convergence has been achieved in   7 iterations

     Writing all to output data dir bands_nm/myprefix.save/

     General routines

     Parallel routines

     PAW routines

   This run was terminated on:  14:38:41  12Jul2023

   JOB DONE.