     Program PWSCF v.7.1 starts on 15Jul2023 at 21:11:38

     Reading input from espresso_19774.pwi
Warning: card &CELL ignored
Warning: card / ignored

     Current dimensions of program PWSCF are:
     Max number of different atomic species (ntypx) = 10
     Max number of k-points (npk) =  40000
     Max angular momentum in pseudopotentials (lmaxx) =  4
     file O.pbe-n-kjpaw_psl.0.1.UPF: wavefunction(s)  2P renormalized
     Message from routine setup:
     using ibrav=0 with symmetry is DISCOURAGED, use correct ibrav instead

     K-points division:     npool     =       2
     R & G space division:  proc/nbgrp/npool/nimage =       4
     Subspace diagonalization in iterative solution of the eigenvalue problem:
     one sub-group per band group will be used

     Using Slab Decomposition

     bravais-lattice index     =            0
     lattice parameter (alat)  =      10.6001  a.u.
     unit-cell volume          =    1344.9977 (a.u.)^3
     number of atoms/cell      =           16
     number of atomic types    =            4
     number of electrons       =       132.00
     number of Kohn-Sham states=          256
     kinetic-energy cutoff     =      30.0000  Ry
     charge density cutoff     =     240.0000  Ry
     scf convergence threshold =      1.0E-06
     mixing beta               =       0.7000
     number of iterations used =            8  plain     mixing
     Exchange-correlation= SLA  PW   PBX  PBC
                           (   1   4   3   4   0   0   0)

     celldm(1)=  10.600105  celldm(2)=   0.000000  celldm(3)=   0.000000
     celldm(4)=   0.000000  celldm(5)=   0.000000  celldm(6)=   0.000000

     crystal axes: (cart. coord. in units of alat)
               a(1) = (   1.000000   0.000000   0.000000 )
               a(2) = (  -0.279970   0.960009   0.000000 )
               a(3) = (   0.311813   0.415737   1.176294 )

     reciprocal axes: (cart. coord. in units 2 pi/alat)
               b(1) = (  1.000000  0.291633 -0.368152 )
               b(2) = (  0.000000  1.041657 -0.368152 )
               b(3) = (  0.000000  0.000000  0.850128 )

     PseudoPot. # 1 for Ca read from file:
     /lustre07/scratch/pragov/crystal_structure_design/utils/SSSP/Ca_pbe_v1.uspp.F.UPF
     MD5 check sum: 403a4c14b9e4d4dfdc3024c9a3812218
     Pseudo is Ultrasoft + core correction, Zval = 10.0
     Generated by new atomic code, or converted to UPF format
     Using radial grid of  845 points,  6 beta functions with:
                l(1) =   0
                l(2) =   0
                l(3) =   1
                l(4) =   1
                l(5) =   2
                l(6) =   2
     Q(r) pseudized with  8 coefficients,  rinner =    1.500   1.500   1.500
                                                       1.500   1.500

     PseudoPot. # 2 for Ti read from file:
     /lustre07/scratch/pragov/crystal_structure_design/utils/SSSP/ti_pbe_v1.4.uspp.F.UPF
     MD5 check sum: 88a00a6731bd790ddea75d31a80cb452
     Pseudo is Ultrasoft + core correction, Zval = 12.0
     Generated by new atomic code, or converted to UPF format
     Using radial grid of  851 points,  6 beta functions with:
                l(1) =   0
                l(2) =   0
                l(3) =   1
                l(4) =   1
                l(5) =   2
                l(6) =   2
     Q(r) pseudized with  6 coefficients,  rinner =    1.000   1.000   1.000
                                                       1.000   1.000

     PseudoPot. # 3 for Ge read from file:
     /lustre07/scratch/pragov/crystal_structure_design/utils/SSSP/ge_pbe_v1.4.uspp.F.UPF
     MD5 check sum: 9c9eaa91e581c3f09632fb3098b2c6b2
     Pseudo is Ultrasoft + core correction, Zval = 14.0
     Generated by new atomic code, or converted to UPF format
     Using radial grid of  873 points,  6 beta functions with:
                l(1) =   0
                l(2) =   0
                l(3) =   1
                l(4) =   1
                l(5) =   2
                l(6) =   2
     Q(r) pseudized with  8 coefficients,  rinner =    1.400   1.400   1.400
                                                       1.400   1.400

     PseudoPot. # 4 for O  read from file:
     /lustre07/scratch/pragov/crystal_structure_design/utils/SSSP/O.pbe-n-kjpaw_psl.0.1.UPF
     MD5 check sum: 0234752ac141de4415c5fc33072bef88
     Pseudo is Projector augmented-wave + core cor, Zval =  6.0
     Generated using "atomic" code by A. Dal Corso  v.5.0.99 svn rev. 10869
     Shape of augmentation charge: BESSEL
     Using radial grid of 1095 points,  4 beta functions with:
                l(1) =   0
                l(2) =   0
                l(3) =   1
                l(4) =   1
     Q(r) pseudized with 0 coefficients

     atomic species   valence    mass     pseudopotential
        Ca            10.00    40.07800     Ca( 1.00)
        Ti            12.00    47.86700     Ti( 1.00)
        Ge            14.00    72.63000     Ge( 1.00)
        O              6.00    15.99900     O ( 1.00)

      2 Sym. Ops., with inversion, found

                                    s                        frac. trans.

      isym =  1     identity

 cryst.   s( 1) = (     1          0          0      )
                  (     0          1          0      )
                  (     0          0          1      )

 cart.    s( 1) = (  1.0000000  0.0000000  0.0000000 )
                  (  0.0000000  1.0000000  0.0000000 )
                  (  0.0000000  0.0000000  1.0000000 )

      isym =  2     inversion

 cryst.   s( 2) = (    -1          0          0      )
                  (     0         -1          0      )
                  (     0          0         -1      )

 cart.    s( 2) = ( -1.0000000  0.0000000  0.0000000 )
                  (  0.0000000 -1.0000000  0.0000000 )
                  (  0.0000000  0.0000000 -1.0000000 )

   Cartesian axes

     site n.     atom                  positions (alat units)
         1           Ca  tau(   1) = (   1.0129266   0.4775080   0.8822205  )
         2           Ca  tau(   2) = (   0.0189161   0.8982378   0.2940735  )
         3           Ti  tau(   3) = (   0.3600149   0.4800043   0.0000000  )
         4           Ti  tau(   4) = (   0.5159213   0.6878729   0.5881470  )
         5           Ge  tau(   5) = (   0.8433296   0.2799077   0.2940735  )
         6           Ge  tau(   6) = (   0.1885131   1.0958381   0.8822205  )
         7           O   tau(   7) = (   0.3516162   0.6487046   0.2940735  )
         8           O   tau(   8) = (   0.6802265   0.7270411   0.8822205  )
         9           O   tau(   9) = (   0.6386104   1.0094826   0.4953162  )
        10           O   tau(  10) = (   0.0856160   0.2721806   0.0928308  )
        11           O   tau(  11) = (   0.3932322   0.3662631   0.6809778  )
        12           O   tau(  12) = (   0.9462266   1.1035652   1.0834632  )
        13           O   tau(  13) = (   0.4504297   1.1529143   1.0492190  )
        14           O   tau(  14) = (   0.2070482   0.8284162   0.7152220  )
        15           O   tau(  15) = (   0.5814130   0.2228314   0.1270750  )
        16           O   tau(  16) = (   0.8247944   0.5473295   0.4610720  )

   Crystallographic axes

     site n.     atom                  positions (cryst. coord.)
         1           Ca  tau(   1) = (  0.8273920  0.1726080  0.7500000  )
         2           Ca  tau(   2) = (  0.1726080  0.8273920  0.2500000  )
         3           Ti  tau(   3) = (  0.5000000  0.5000000  0.0000000  )
         4           Ti  tau(   4) = (  0.5000000  0.5000000  0.5000000  )
         5           Ge  tau(   5) = (  0.8166960  0.1833040  0.2500000  )
         6           Ge  tau(   6) = (  0.1833040  0.8166960  0.7500000  )
         7           O   tau(   7) = (  0.4325360  0.5674640  0.2500000  )
         8           O   tau(   8) = (  0.5674640  0.4325360  0.7500000  )
         9           O   tau(   9) = (  0.7506570  0.8691830  0.4210820  )
        10           O   tau(  10) = (  0.1308170  0.2493430  0.0789180  )
        11           O   tau(  11) = (  0.2493430  0.1308170  0.5789180  )
        12           O   tau(  12) = (  0.8691830  0.7506570  0.9210820  )
        13           O   tau(  13) = (  0.4003850  0.8146690  0.8919700  )
        14           O   tau(  14) = (  0.1853310  0.5996150  0.6080300  )
        15           O   tau(  15) = (  0.5996150  0.1853310  0.1080300  )
        16           O   tau(  16) = (  0.8146690  0.4003850  0.3919700  )

     number of k points=    14
                       cart. coord. in units 2pi/alat
        k(    1) = (   0.0000000   0.0000000   0.0000000), wk =   0.0740741
        k(    2) = (   0.0000000   0.0000000   0.2833759), wk =   0.1481481
        k(    3) = (   0.0000000   0.3472191  -0.1227175), wk =   0.1481481
        k(    4) = (   0.0000000   0.3472191   0.1606584), wk =   0.1481481
        k(    5) = (   0.0000000   0.3472191  -0.4060933), wk =   0.1481481
        k(    6) = (   0.3333333   0.0972110  -0.1227175), wk =   0.1481481
        k(    7) = (   0.3333333   0.0972110   0.1606584), wk =   0.1481481
        k(    8) = (   0.3333333   0.0972110  -0.4060933), wk =   0.1481481
        k(    9) = (   0.3333333   0.4444301  -0.2454350), wk =   0.1481481
        k(   10) = (   0.3333333   0.4444301   0.0379409), wk =   0.1481481
        k(   11) = (   0.3333333   0.4444301  -0.5288108), wk =   0.1481481
        k(   12) = (   0.3333333  -0.2500081   0.0000000), wk =   0.1481481
        k(   13) = (   0.3333333  -0.2500081   0.2833759), wk =   0.1481481
        k(   14) = (   0.3333333  -0.2500081  -0.2833759), wk =   0.1481481

                       cryst. coord.
        k(    1) = (   0.0000000   0.0000000   0.0000000), wk =   0.0740741
        k(    2) = (   0.0000000   0.0000000   0.3333333), wk =   0.1481481
        k(    3) = (   0.0000000   0.3333333   0.0000000), wk =   0.1481481
        k(    4) = (   0.0000000   0.3333333   0.3333333), wk =   0.1481481
        k(    5) = (   0.0000000   0.3333333  -0.3333333), wk =   0.1481481
        k(    6) = (   0.3333333   0.0000000   0.0000000), wk =   0.1481481
        k(    7) = (   0.3333333   0.0000000   0.3333333), wk =   0.1481481
        k(    8) = (   0.3333333   0.0000000  -0.3333333), wk =   0.1481481
        k(    9) = (   0.3333333   0.3333333   0.0000000), wk =   0.1481481
        k(   10) = (   0.3333333   0.3333333   0.3333333), wk =   0.1481481
        k(   11) = (   0.3333333   0.3333333  -0.3333333), wk =   0.1481481
        k(   12) = (   0.3333333  -0.3333333  -0.0000000), wk =   0.1481481
        k(   13) = (   0.3333333  -0.3333333   0.3333333), wk =   0.1481481
        k(   14) = (   0.3333333  -0.3333333  -0.3333333), wk =   0.1481481

     Check: negative core charge=   -0.000014

     Initial potential from superposition of free atoms

     starting charge     129.9872, renormalised to     132.0000

     negative rho (up, down):  2.918E-03 0.000E+00
     Starting wfcs are   98 randomized atomic wfcs +  158 random wfcs
     Checking if some PAW data can be deallocated...

     Self-consistent Calculation

     iteration #  1     ecut=    30.00 Ry     beta= 0.70
     Davidson diagonalization with overlap

     ethr =  1.00E-02,  avg # of iterations =  6.1

     negative rho (up, down):  2.928E-03 0.000E+00

     total energy              =   -1231.72185541 Ry
     estimated scf accuracy    <       3.47811413 Ry

[...]

     total energy              =   -1233.30576074 Ry
     estimated scf accuracy    <       0.00000160 Ry

     iteration # 11     ecut=    30.00 Ry     beta= 0.70
     Davidson diagonalization with overlap

     ethr =  1.21E-09,  avg # of iterations =  1.0

     negative rho (up, down):  2.830E-03 0.000E+00

     End of self-consistent calculation

          k = 0.0000 0.0000 0.0000 (  3735 PWs)   bands (ev):

   -49.4208 -49.4169 -31.2139 -31.2094 -25.7261 -25.7133 -25.6909 -25.6696
   -25.6657 -25.5761 -16.5740 -16.5707 -16.5474 -16.5403 -16.5344 -16.5340
   -16.3143 -16.3132 -16.3019 -16.3002 -12.4499 -12.4061 -12.4020 -12.3768
   -12.3173 -12.2111 -11.4608 -10.8940  -9.8191  -9.7079  -9.6443  -9.6152
    -9.6075  -9.3415  -9.2551  -8.4970  -0.3033   0.1917   2.1807   2.1856
     2.4653   2.7842   3.0299   3.6925   3.7888   3.8340   3.8770   4.0654
     4.1798   4.3473   4.4453   4.9010   4.9414   5.0556   5.4819   5.5965
     5.6177   5.8352   6.0819   6.1338   6.1915   6.2279   6.5161   6.6360
     6.7281   6.7682   9.5719   9.9361  10.0570  10.1277  10.5518  11.1814
    11.3981  12.5912  12.6152  12.9174  12.9821  13.5499  13.8870  13.9475
    14.1177  14.2193  14.2954  14.4155  14.9067  14.9303  15.3479  15.3699
    15.7307  15.8334  16.5484  16.8276  16.9076  16.9954  17.1142  17.3455
    18.1411  19.0915  19.4689  20.5507  20.6324  20.6520  20.7006  21.1719
    21.6037  22.2066  22.3298  22.7927  23.1474  23.4067  23.9980  24.0724
    24.0876  24.4766  24.8321  24.8998  25.1259  25.5450  26.1285  26.2198
    26.4190  26.4716  26.4775  27.1339  27.9242  28.6094  28.6690  28.9290
    29.1659  29.1675  29.4249  29.8922  30.0462  30.3410  30.7922  30.9237
    31.1010  31.6796  32.1665  32.2291  32.5024  32.5610  33.1770  33.2841
    33.3361  33.4323  33.5687  34.1166  34.2713  34.5388  34.9334  35.0980
    35.2520  35.4754  35.5387  35.9714  35.9779  35.9872  36.3425  36.6383
    37.0649  37.4743  37.7022  37.8131  38.2927  38.5111  38.6288  39.0184
    39.1765  39.5165  39.5218  40.0987  40.1506  40.2105  40.2977  40.4104
    40.7130  41.0770  41.2028  41.8043  41.8699  41.9015  42.0350  42.5307
    42.6304  42.6352  42.8550  43.0176  43.6302  43.6408  43.7874  43.8884
    44.0379  44.3042  44.7414  44.8751  45.0858  45.3245  45.4345  45.7743
    46.2506  46.3382  46.5892  46.6436  46.8164  47.1623  47.1668  47.4088
    47.4118  47.6434  48.1037  48.3514  48.3822  48.4346  48.7189  49.0414
    49.1803  49.2223  49.3386  49.5325  49.9508  49.9639  50.3930  50.7426
    50.9769  51.1050  51.1344  51.2172  51.2183  51.8533  51.9065  52.0374
    52.0449  52.3050  52.6822  52.8380  53.0120  53.2888  53.4350  53.7011
    53.7067  53.8950  54.0377  54.1237  54.3432  54.5229  54.7307  54.7641
    54.9408  55.2306  55.5522  55.5530  55.7946  56.0622  56.1689  56.1702

     occupation numbers
     1.0000   1.0000   1.0000   1.0000   1.0000   1.0000   1.0000   1.0000
     1.0000   1.0000   1.0000   1.0000   1.0000   1.0000   1.0000   1.0000
     1.0000   1.0000   1.0000   1.0000   1.0000   1.0000   1.0000   1.0000
     1.0000   1.0000   1.0000   1.0000   1.0000   1.0000   1.0000   1.0000
     1.0000   1.0000   1.0000   1.0000   1.0000   1.0000   1.0000   1.0000
     1.0000   1.0000   1.0000   1.0000   1.0000   1.0000   1.0000   1.0000
     1.0000   1.0000   1.0000   1.0000   1.0000   1.0000   1.0000   1.0000
     1.0000   1.0000   1.0000   1.0000   1.0000   1.0000   1.0000   1.0000
     1.0000   1.0000   0.0000   0.0000   0.0000   0.0000   0.0000   0.0000
     0.0000   0.0000   0.0000   0.0000   0.0000   0.0000   0.0000   0.0000
     0.0000   0.0000   0.0000   0.0000   0.0000   0.0000   0.0000   0.0000
     0.0000   0.0000   0.0000   0.0000   0.0000   0.0000   0.0000   0.0000
     0.0000   0.0000   0.0000   0.0000   0.0000   0.0000   0.0000   0.0000
     0.0000   0.0000   0.0000   0.0000   0.0000   0.0000   0.0000   0.0000
     0.0000   0.0000   0.0000   0.0000   0.0000   0.0000   0.0000   0.0000
     0.0000   0.0000   0.0000   0.0000   0.0000   0.0000   0.0000   0.0000
     0.0000   0.0000   0.0000   0.0000   0.0000   0.0000   0.0000   0.0000
     0.0000   0.0000   0.0000   0.0000   0.0000   0.0000   0.0000   0.0000
     0.0000   0.0000   0.0000   0.0000   0.0000   0.0000   0.0000   0.0000
     0.0000   0.0000   0.0000   0.0000   0.0000   0.0000   0.0000   0.0000
     0.0000   0.0000   0.0000   0.0000   0.0000   0.0000   0.0000   0.0000
     0.0000   0.0000   0.0000   0.0000   0.0000   0.0000   0.0000   0.0000
     0.0000   0.0000   0.0000   0.0000   0.0000   0.0000   0.0000   0.0000
     0.0000   0.0000   0.0000   0.0000   0.0000   0.0000   0.0000   0.0000
     0.0000   0.0000   0.0000   0.0000   0.0000   0.0000   0.0000   0.0000
     0.0000   0.0000   0.0000   0.0000   0.0000   0.0000   0.0000   0.0000
     0.0000   0.0000   0.0000   0.0000   0.0000   0.0000   0.0000   0.0000
     0.0000   0.0000   0.0000   0.0000   0.0000   0.0000   0.0000   0.0000
     0.0000   0.0000   0.0000   0.0000   0.0000   0.0000   0.0000   0.0000
     0.0000   0.0000   0.0000   0.0000   0.0000   0.0000   0.0000   0.0000
     0.0000   0.0000   0.0000   0.0000   0.0000   0.0000   0.0000   0.0000
     0.0000   0.0000   0.0000   0.0000   0.0000   0.0000   0.0000   0.0000

[...]

          k = 0.3333-0.2500-0.2834 (  3729 PWs)   bands (ev):

   -49.4199 -49.4179 -31.2127 -31.2106 -25.7193 -25.7147 -25.6723 -25.6695
   -25.6608 -25.6065 -16.5754 -16.5735 -16.5445 -16.5429 -16.5332 -16.5324
   -16.3138 -16.3127 -16.3018 -16.3003 -12.4755 -12.4585 -12.3976 -12.3620
   -12.3304 -12.2621 -11.0145 -10.9571  -9.9494  -9.8832  -9.7192  -9.6461
    -9.4967  -9.4052  -9.0618  -8.6938   0.1161   0.2091   2.3696   2.5337
     2.7694   2.8432   3.0488   3.2872   3.6348   3.7855   4.0713   4.1291
     4.3423   4.4674   4.6317   4.7931   5.0119   5.1192   5.2357   5.4054
     5.4699   5.5175   5.6679   5.8960   5.9779   6.0757   6.1905   6.2839
     6.4479   6.5778  10.1845  10.2818  10.3221  10.3431  10.7369  11.0391
    11.6005  11.9054  12.6700  13.0958  13.4119  13.4670  13.8239  13.9345
    14.0453  14.4303  14.4663  14.6240  14.7820  14.9009  15.3024  15.4508
    15.7491  16.0436  16.2966  16.5561  16.7754  17.2741  17.7822  18.1016
    18.8623  18.9176  19.2237  19.5547  20.3286  20.5158  21.1941  21.4388
    21.9650  22.1048  22.2693  22.4061  22.8282  23.2371  23.4339  23.7152
    24.0881  24.1762  24.5874  25.0886  25.4596  25.6054  25.7800  25.9316
    26.3381  26.5779  26.8349  27.3662  27.8735  28.1608  28.5463  28.6438
    29.1785  29.4369  29.5878  29.7840  30.0619  30.3627  30.7678  31.0982
    31.2681  31.6070  31.6829  32.2571  32.5219  32.7319  32.9750  33.1641
    33.2229  33.6028  33.9909  34.1556  34.2318  34.5437  34.9899  35.0355
    35.5383  35.6546  36.1039  36.3889  36.5666  36.7347  37.2584  37.4509
    37.5027  37.5098  37.8295  38.0762  38.3289  38.4337  38.6787  38.8398
    39.0438  39.2730  39.4621  39.7124  39.9781  40.1022  40.5171  40.5521
    40.8408  41.0413  41.2119  41.3461  41.7748  42.1703  42.2051  42.2464
    42.6112  42.6238  42.8087  42.8973  43.1919  43.3157  43.5643  43.7622
    43.9815  44.1631  44.4732  44.5353  44.6591  45.0797  45.1658  45.2593
    45.5070  45.6211  45.6646  46.1223  46.4748  46.6440  46.7319  46.8791
    47.2193  47.4457  47.5386  47.6412  47.7879  48.0711  48.3389  48.5589
    48.6204  48.9441  49.0118  49.4413  49.7033  49.9758  50.1077  50.2503
    50.4071  50.5700  50.8358  51.0605  51.5617  51.6655  51.8379  52.0871
    52.4355  52.5738  52.8797  53.3220  53.3863  53.4833  53.5954  53.7640
    53.8504  54.2461  54.5312  54.6809  54.8873  55.1633  55.2524  55.4715
    55.5496  55.7943  55.8923  55.9711  56.1193  56.3263  56.8307  57.2857

     occupation numbers
     1.0000   1.0000   1.0000   1.0000   1.0000   1.0000   1.0000   1.0000
     1.0000   1.0000   1.0000   1.0000   1.0000   1.0000   1.0000   1.0000
     1.0000   1.0000   1.0000   1.0000   1.0000   1.0000   1.0000   1.0000
     1.0000   1.0000   1.0000   1.0000   1.0000   1.0000   1.0000   1.0000
     1.0000   1.0000   1.0000   1.0000   1.0000   1.0000   1.0000   1.0000
     1.0000   1.0000   1.0000   1.0000   1.0000   1.0000   1.0000   1.0000
     1.0000   1.0000   1.0000   1.0000   1.0000   1.0000   1.0000   1.0000
     1.0000   1.0000   1.0000   1.0000   1.0000   1.0000   1.0000   1.0000
     1.0000   1.0000   0.0000   0.0000   0.0000   0.0000   0.0000   0.0000
     0.0000   0.0000   0.0000   0.0000   0.0000   0.0000   0.0000   0.0000
     0.0000   0.0000   0.0000   0.0000   0.0000   0.0000   0.0000   0.0000
     0.0000   0.0000   0.0000   0.0000   0.0000   0.0000   0.0000   0.0000
     0.0000   0.0000   0.0000   0.0000   0.0000   0.0000   0.0000   0.0000
     0.0000   0.0000   0.0000   0.0000   0.0000   0.0000   0.0000   0.0000
     0.0000   0.0000   0.0000   0.0000   0.0000   0.0000   0.0000   0.0000
     0.0000   0.0000   0.0000   0.0000   0.0000   0.0000   0.0000   0.0000
     0.0000   0.0000   0.0000   0.0000   0.0000   0.0000   0.0000   0.0000
     0.0000   0.0000   0.0000   0.0000   0.0000   0.0000   0.0000   0.0000
     0.0000   0.0000   0.0000   0.0000   0.0000   0.0000   0.0000   0.0000
     0.0000   0.0000   0.0000   0.0000   0.0000   0.0000   0.0000   0.0000
     0.0000   0.0000   0.0000   0.0000   0.0000   0.0000   0.0000   0.0000
     0.0000   0.0000   0.0000   0.0000   0.0000   0.0000   0.0000   0.0000
     0.0000   0.0000   0.0000   0.0000   0.0000   0.0000   0.0000   0.0000
     0.0000   0.0000   0.0000   0.0000   0.0000   0.0000   0.0000   0.0000
     0.0000   0.0000   0.0000   0.0000   0.0000   0.0000   0.0000   0.0000
     0.0000   0.0000   0.0000   0.0000   0.0000   0.0000   0.0000   0.0000
     0.0000   0.0000   0.0000   0.0000   0.0000   0.0000   0.0000   0.0000
     0.0000   0.0000   0.0000   0.0000   0.0000   0.0000   0.0000   0.0000
     0.0000   0.0000   0.0000   0.0000   0.0000   0.0000   0.0000   0.0000
     0.0000   0.0000   0.0000   0.0000   0.0000   0.0000   0.0000   0.0000
     0.0000   0.0000   0.0000   0.0000   0.0000   0.0000   0.0000   0.0000
     0.0000   0.0000   0.0000   0.0000   0.0000   0.0000   0.0000   0.0000

     highest occupied, lowest unoccupied level (ev):     6.8224    9.5719

!    total energy              =   -1233.30576102 Ry
     estimated scf accuracy    <       0.00000003 Ry

     The total energy is the sum of the following terms:
     one-electron contribution =    -544.16501589 Ry
     hartree contribution      =     351.68119779 Ry
     xc contribution           =    -251.42527529 Ry
     ewald contribution        =    -694.18282299 Ry
     one-center paw contrib.   =     -95.21384464 Ry
      -> PAW hartree energy AE =       0.00000000 Ry
      -> PAW hartree energy PS =       0.00000000 Ry
      -> PAW xc energy AE      =       0.00000000 Ry
      -> PAW xc energy PS      =       0.00000000 Ry
      -> total E_H with PAW    =     351.68119779 Ry
      -> total E_XC with PAW   =    -251.42527529 Ry

     convergence has been achieved in  11 iterations

     Writing all to output data dir bands_nm/myprefix.save/

     General routines

     Parallel routines

     PAW routines

   This run was terminated on:  21:12:34  15Jul2023

   JOB DONE.