     Program PWSCF v.7.1 starts on 16Jul2023 at 14:16:12

     Reading input from espresso_26042.pwi
Warning: card &CELL ignored
Warning: card / ignored

     Current dimensions of program PWSCF are:
     Max number of different atomic species (ntypx) = 10
     Max number of k-points (npk) =  40000
     Max angular momentum in pseudopotentials (lmaxx) =  4
     file Cu.paw.z_11.ld1.psl.v1.0.0-low.upf: wavefunction(s)  4S 3D renormalized
     Message from routine setup:
     using ibrav=0 with symmetry is DISCOURAGED, use correct ibrav instead

     K-points division:     npool     =       2
     R & G space division:  proc/nbgrp/npool/nimage =       4
     Subspace diagonalization in iterative solution of the eigenvalue problem:
     a serial algorithm will be used

     Using Slab Decomposition

     bravais-lattice index     =            0
     lattice parameter (alat)  =       8.2255  a.u.
     unit-cell volume          =    1526.9123 (a.u.)^3
     number of atoms/cell      =            8
     number of atomic types    =            3
     number of electrons       =        68.00
     number of Kohn-Sham states=           64
     kinetic-energy cutoff     =      30.0000  Ry
     charge density cutoff     =     240.0000  Ry
     scf convergence threshold =      1.0E-06
     mixing beta               =       0.7000
     number of iterations used =            8  plain     mixing
     Exchange-correlation= SLA  PW   PBE  PBE
                           (   1   4   3   4   0   0   0)

     celldm(1)=   8.225507  celldm(2)=   0.000000  celldm(3)=   0.000000
     celldm(4)=   0.000000  celldm(5)=   0.000000  celldm(6)=   0.000000

     crystal axes: (cart. coord. in units of alat)
               a(1) = (   1.000000   0.000000   0.000000 )
               a(2) = (   0.000000   1.591744   0.000000 )
               a(3) = (   0.000000   0.018256   1.723665 )

     reciprocal axes: (cart. coord. in units 2 pi/alat)
               b(1) = (  1.000000  0.000000  0.000000 )
               b(2) = (  0.000000  0.628242 -0.006654 )
               b(3) = (  0.000000  0.000000  0.580159 )

     PseudoPot. # 1 for Y  read from file:
     /lustre07/scratch/pragov/crystal_structure_design/utils/SSSP/Y_pbe_v1.uspp.F.UPF
     MD5 check sum: 2cf71db95cafeb975fc457bd7f14888e
     Pseudo is Ultrasoft + core correction, Zval = 11.0
     Generated by new atomic code, or converted to UPF format
     Using radial grid of  885 points,  6 beta functions with:
                l(1) =   0
                l(2) =   0
                l(3) =   1
                l(4) =   1
                l(5) =   2
                l(6) =   2
     Q(r) pseudized with  6 coefficients,  rinner =    1.200   1.200   1.200
                                                       1.200   1.200

     PseudoPot. # 2 for Cu read from file:
     /lustre07/scratch/pragov/crystal_structure_design/utils/SSSP/Cu.paw.z_11.ld1.psl.v1.0.0-low.upf
     MD5 check sum: 619f40885d92a09a85a8b37550532d0c
     Pseudo is Projector augmented-wave + core cor, Zval = 11.0
     Generated using &quot;atomic&quot; code by A. Dal Corso  v.6.3MaX
     Shape of augmentation charge: PSQ
     Using radial grid of 1199 points,  6 beta functions with:
                l(1) =   0
                l(2) =   0
                l(3) =   1
                l(4) =   1
                l(5) =   2
                l(6) =   2
     Q(r) pseudized with 0 coefficients

     PseudoPot. # 3 for Te read from file:
     /lustre07/scratch/pragov/crystal_structure_design/utils/SSSP/Te_pbe_v1.uspp.F.UPF
     MD5 check sum: c319670d6894cc26e93307826a071b75
     Pseudo is Ultrasoft + core correction, Zval =  6.0
     Generated by new atomic code, or converted to UPF format
     Using radial grid of  891 points,  5 beta functions with:
                l(1) =   0
                l(2) =   0
                l(3) =   1
                l(4) =   1
                l(5) =   2
     Q(r) pseudized with  6 coefficients,  rinner =    1.800   1.800   1.800
                                                       1.800   1.800

     atomic species   valence    mass     pseudopotential
        Y             11.00    88.90584     Y ( 1.00)
        Cu            11.00    63.54600     Cu( 1.00)
        Te             6.00   127.60000     Te( 1.00)

      4 Sym. Ops., with inversion, found

                                    s                        frac. trans.

      isym =  1     identity

 cryst.   s( 1) = (     1          0          0      )
                  (     0          1          0      )
                  (     0          0          1      )

 cart.    s( 1) = (  1.0000000  0.0000000  0.0000000 )
                  (  0.0000000  1.0000000 -0.0000000 )
                  (  0.0000000  0.0000000  1.0000000 )

      isym =  2     180 deg rotation - cart. axis [1,0,0]

[...]

      isym =  3     inversion

[...]

      isym =  4     inv. 180 deg rotation - cart. axis [1,0,0]

 cryst.   s( 4) = (    -1          0          0      )
                  (     0          1          0      )
                  (     0          0          1      )

 cart.    s( 4) = ( -1.0000000  0.0000000  0.0000000 )
                  (  0.0000000  1.0000000 -0.0000000 )
                  (  0.0000000  0.0000000  1.0000000 )

   Cartesian axes

     site n.     atom                  positions (alat units)
         1           Y   tau(   1) = (   0.0000000   0.0000000   0.0000000  )
         2           Y   tau(   2) = (   0.5000000   0.0091278   0.8618324  )
         3           Cu  tau(   3) = (   0.5000000   1.0480058   1.4435331  )
         4           Cu  tau(   4) = (   0.5000000   0.5619938   0.2801317  )
         5           Te  tau(   5) = (   0.0000000   0.4303312   0.5835795  )
         6           Te  tau(   6) = (   0.5000000   0.4309057   1.4221890  )
         7           Te  tau(   7) = (   0.5000000   1.1790938   0.3014759  )
         8           Te  tau(   8) = (   0.0000000   1.1796683   1.1400854  )

   Crystallographic axes

     site n.     atom                  positions (cryst. coord.)
         1           Y   tau(   1) = (  0.0000000  0.0000000  0.0000000  )
         2           Y   tau(   2) = (  0.5000000 -0.0000000  0.5000000  )
         3           Cu  tau(   3) = (  0.5000000  0.6487960  0.8374790  )
         4           Cu  tau(   4) = (  0.5000000  0.3512040  0.1625210  )
         5           Te  tau(   5) = (  0.0000000  0.2664690  0.3385690  )
         6           Te  tau(   6) = (  0.5000000  0.2612500  0.8250960  )
         7           Te  tau(   7) = (  0.5000000  0.7387500  0.1749040  )
         8           Te  tau(   8) = (  0.0000000  0.7335310  0.6614310  )

     number of k points=    10
                       cart. coord. in units 2pi/alat
        k(    1) = (   0.0000000   0.0000000   0.0000000), wk =   0.0740741
        k(    2) = (   0.0000000   0.0000000   0.1933864), wk =   0.1481481
        k(    3) = (   0.0000000   0.2094139  -0.0022179), wk =   0.1481481
        k(    4) = (   0.0000000   0.2094139   0.1911685), wk =   0.1481481
        k(    5) = (   0.0000000   0.2094139  -0.1956043), wk =   0.1481481
        k(    6) = (   0.3333333   0.0000000   0.0000000), wk =   0.1481481
        k(    7) = (   0.3333333   0.0000000   0.1933864), wk =   0.2962963
        k(    8) = (   0.3333333   0.2094139  -0.0022179), wk =   0.2962963
        k(    9) = (   0.3333333   0.2094139   0.1911685), wk =   0.2962963
        k(   10) = (   0.3333333   0.2094139  -0.1956043), wk =   0.2962963

                       cryst. coord.
        k(    1) = (   0.0000000   0.0000000   0.0000000), wk =   0.0740741
        k(    2) = (   0.0000000   0.0000000   0.3333333), wk =   0.1481481
        k(    3) = (   0.0000000   0.3333333   0.0000000), wk =   0.1481481
        k(    4) = (   0.0000000   0.3333333   0.3333333), wk =   0.1481481
        k(    5) = (   0.0000000   0.3333333  -0.3333333), wk =   0.1481481
        k(    6) = (   0.3333333   0.0000000   0.0000000), wk =   0.1481481
        k(    7) = (   0.3333333   0.0000000   0.3333333), wk =   0.2962963
        k(    8) = (   0.3333333   0.3333333   0.0000000), wk =   0.2962963
        k(    9) = (   0.3333333   0.3333333   0.3333333), wk =   0.2962963
        k(   10) = (   0.3333333   0.3333333  -0.3333333), wk =   0.2962963

     Check: negative core charge=   -0.000002

     Initial potential from superposition of free atoms

     starting charge      67.9897, renormalised to      68.0000

     negative rho (up, down):  8.533E-02 0.000E+00
     Starting wfcs are   60 randomized atomic wfcs +    4 random wfcs
     Checking if some PAW data can be deallocated...

     Self-consistent Calculation

     iteration #  1     ecut=    30.00 Ry     beta= 0.70
     Davidson diagonalization with overlap

     ethr =  1.00E-02,  avg # of iterations =  5.8

     Threshold (ethr) on eigenvalues was too large:
     Diagonalizing with lowered threshold

     Davidson diagonalization with overlap

[...]

     negative rho (up, down):  8.547E-02 0.000E+00

     total energy              =    -707.63890162 Ry
     estimated scf accuracy    <       0.10879000 Ry

[...]

     total energy              =    -707.67142721 Ry
     estimated scf accuracy    <       0.00000526 Ry

     iteration #  8     ecut=    30.00 Ry     beta= 0.70
     Davidson diagonalization with overlap

     ethr =  7.74E-09,  avg # of iterations =  4.2

     negative rho (up, down):  8.567E-02 0.000E+00

     End of self-consistent calculation

          k = 0.0000 0.0000 0.0000 (  4247 PWs)   bands (ev):

   -35.8752 -35.6555 -15.9047 -15.8836 -15.8046 -15.6557 -15.6180 -15.6153
    -4.3544  -3.4725  -3.3158  -3.2277   2.3658   3.0018   3.5195   3.9192
     4.0153   4.0797   4.2032   4.5225   4.5246   4.7074   4.9030   4.9598
     5.0380   5.5247   5.5320   5.5859   5.9358   6.0769   6.1909   7.5709
     7.5808   7.6087   8.1386   8.9617   9.0547   9.0824   9.5119   9.7514
    10.2927  10.4956  10.5844  10.6415  11.0349  11.5352  11.8048  12.3749
    12.7503  12.9842  13.4151  13.7737  14.2686  14.6783  15.2749  15.9838
    16.1336  16.1757  16.3826  17.0041  17.2284  17.3993  17.4292  18.0160

     occupation numbers
     1.0000   1.0000   1.0000   1.0000   1.0000   1.0000   1.0000   1.0000
     1.0000   1.0000   1.0000   1.0000   1.0000   1.0000   1.0000   1.0000
     1.0000   1.0000   1.0000   1.0000   1.0000   1.0000   1.0000   1.0000
     1.0000   1.0000   1.0000   1.0000   1.0000   1.0000   1.0000   1.0000
     1.0000   1.0000   0.0000   0.0000   0.0000   0.0000   0.0000   0.0000
     0.0000   0.0000   0.0000   0.0000   0.0000   0.0000   0.0000   0.0000
     0.0000   0.0000   0.0000   0.0000   0.0000   0.0000   0.0000   0.0000
     0.0000   0.0000   0.0000   0.0000   0.0000   0.0000   0.0000   0.0000

[...]

          k = 0.3333 0.2094-0.1956 (  4225 PWs)   bands (ev):

   -35.8739 -35.6542 -15.8958 -15.8756 -15.8476 -15.6561 -15.6484 -15.6168
    -3.6923  -3.4455  -3.3288  -3.2295   2.3195   2.7095   3.4261   3.6921
     3.9500   4.1568   4.2140   4.4220   4.5037   4.6841   4.7284   4.9097
     5.0873   5.2763   5.3544   5.4743   5.6514   5.6944   6.0036   6.2203
     6.6831   6.9298   8.2352   8.9196   9.5317   9.8675  10.0829  10.1345
    10.4986  10.6002  10.7039  10.9943  11.1414  11.6385  12.0600  12.4379
    13.0695  13.4823  13.9761  14.2417  14.8015  15.1906  15.2753  15.5920
    15.6710  16.2131  16.4560  16.6890  17.0639  17.1570  17.2447  18.3047

     occupation numbers
     1.0000   1.0000   1.0000   1.0000   1.0000   1.0000   1.0000   1.0000
     1.0000   1.0000   1.0000   1.0000   1.0000   1.0000   1.0000   1.0000
     1.0000   1.0000   1.0000   1.0000   1.0000   1.0000   1.0000   1.0000
     1.0000   1.0000   1.0000   1.0000   1.0000   1.0000   1.0000   1.0000
     1.0000   1.0000   0.0000   0.0000   0.0000   0.0000   0.0000   0.0000
     0.0000   0.0000   0.0000   0.0000   0.0000   0.0000   0.0000   0.0000
     0.0000   0.0000   0.0000   0.0000   0.0000   0.0000   0.0000   0.0000
     0.0000   0.0000   0.0000   0.0000   0.0000   0.0000   0.0000   0.0000

     highest occupied, lowest unoccupied level (ev):     7.6087    8.1386

!    total energy              =    -707.67142932 Ry
     estimated scf accuracy    <       0.00000035 Ry

     The total energy is the sum of the following terms:
     one-electron contribution =    -200.63945564 Ry
     hartree contribution      =     145.33263689 Ry
     xc contribution           =    -191.15331311 Ry
     ewald contribution        =    -281.58304356 Ry
     one-center paw contrib.   =    -179.62825390 Ry
      -> PAW hartree energy AE =       0.00000000 Ry
      -> PAW hartree energy PS =       0.00000000 Ry
      -> PAW xc energy AE      =       0.00000000 Ry
      -> PAW xc energy PS      =       0.00000000 Ry
      -> total E_H with PAW    =     145.33263689 Ry
      -> total E_XC with PAW   =    -191.15331311 Ry

     convergence has been achieved in   8 iterations

     Writing all to output data dir bands_nm/myprefix.save/

     General routines

     Parallel routines

     PAW routines

   This run was terminated on:  14:16:20  16Jul2023

   JOB DONE.