     Program PWSCF v.7.1 starts on  9Jul2023 at 19:22:33

     Reading input from espresso_20234.pwi
Warning: card &CELL ignored
Warning: card / ignored

     Current dimensions of program PWSCF are:
     Max number of different atomic species (ntypx) = 10
     Max number of k-points (npk) =  40000
     Max angular momentum in pseudopotentials (lmaxx) =  4
     file O.pbe-n-kjpaw_psl.0.1.UPF: wavefunction(s)  2P renormalized
     Message from routine setup:
     using ibrav=0 with symmetry is DISCOURAGED, use correct ibrav instead

     K-points division:     npool     =       2
     R & G space division:  proc/nbgrp/npool/nimage =       4
     Subspace diagonalization in iterative solution of the eigenvalue problem:
     a serial algorithm will be used

     Using Slab Decomposition

     bravais-lattice index     =            0
     lattice parameter (alat)  =      19.6742  a.u.
     unit-cell volume          =     906.9852 (a.u.)^3
     number of atoms/cell      =            8
     number of atomic types    =            4
     number of electrons       =        84.00
     number of Kohn-Sham states=           64
     kinetic-energy cutoff     =      30.0000  Ry
     charge density cutoff     =     240.0000  Ry
     scf convergence threshold =      1.0E-06
     mixing beta               =       0.7000
     number of iterations used =            8  plain     mixing
     Exchange-correlation= SLA  PW   PBX  PBC
                           (   1   4   3   4   0   0   0)

     celldm(1)=  19.674201  celldm(2)=   0.000000  celldm(3)=   0.000000
     celldm(4)=   0.000000  celldm(5)=   0.000000  celldm(6)=   0.000000

     crystal axes: (cart. coord. in units of alat)
               a(1) = (   1.000000   0.000000   0.000000 )
               a(2) = (   0.929564   0.368660   0.000000 )
               a(3) = (   0.929564   0.177601   0.323060 )

     reciprocal axes: (cart. coord. in units 2 pi/alat)
               b(1) = (  1.000000 -2.521470 -1.491204 )
               b(2) = (  0.000000  2.712529 -1.491204 )
               b(3) = (  0.000000  0.000000  3.095400 )

     PseudoPot. # 1 for Y  read from file:
     /home/pragov/projects/rrg-bengioy-ad/pragov/crystal_structure_design/SSSP/Y_pbe_v1.uspp.F.UPF
     MD5 check sum: 2cf71db95cafeb975fc457bd7f14888e
     Pseudo is Ultrasoft + core correction, Zval = 11.0
     Generated by new atomic code, or converted to UPF format
     Using radial grid of  885 points,  6 beta functions with:
                l(1) =   0
                l(2) =   0
                l(3) =   1
                l(4) =   1
                l(5) =   2
                l(6) =   2
     Q(r) pseudized with  6 coefficients,  rinner =    1.200   1.200   1.200
                                                       1.200   1.200

     PseudoPot. # 2 for Zn read from file:
     /home/pragov/projects/rrg-bengioy-ad/pragov/crystal_structure_design/SSSP/Zn_pbe_v1.uspp.F.UPF
     MD5 check sum: df62231357ef9e81f77b2b3087fa5675
     Pseudo is Ultrasoft, Zval = 20.0
     Generated by new atomic code, or converted to UPF format
     Using radial grid of  943 points,  6 beta functions with:
                l(1) =   0
                l(2) =   0
                l(3) =   1
                l(4) =   1
                l(5) =   2
                l(6) =   2
     Q(r) pseudized with  8 coefficients,  rinner =    1.100   1.100   1.100
                                                       1.100   1.100

     PseudoPot. # 3 for P  read from file:
     /home/pragov/projects/rrg-bengioy-ad/pragov/crystal_structure_design/SSSP/P.pbe-n-rrkjus_psl.1.0.0.UPF
     MD5 check sum: 8b930f418f0a4573dca56cd030ffe088
     Pseudo is Ultrasoft + core correction, Zval =  5.0
     Generated using "atomic" code by A. Dal Corso  v.5.1
     Using radial grid of 1147 points,  6 beta functions with:
                l(1) =   0
                l(2) =   0
                l(3) =   1
                l(4) =   1
                l(5) =   2
                l(6) =   2
     Q(r) pseudized with 0 coefficients

     PseudoPot. # 4 for O  read from file:
     /home/pragov/projects/rrg-bengioy-ad/pragov/crystal_structure_design/SSSP/O.pbe-n-kjpaw_psl.0.1.UPF
     MD5 check sum: 0234752ac141de4415c5fc33072bef88
     Pseudo is Projector augmented-wave + core cor, Zval =  6.0
     Generated using "atomic" code by A. Dal Corso  v.5.0.99 svn rev. 10869
     Shape of augmentation charge: BESSEL
     Using radial grid of 1095 points,  4 beta functions with:
                l(1) =   0
                l(2) =   0
                l(3) =   1
                l(4) =   1
     Q(r) pseudized with 0 coefficients

     atomic species   valence    mass     pseudopotential
        Y             11.00    88.90584     Y ( 1.00)
        Zn            20.00    65.38000     Zn( 1.00)
        P              5.00    30.97376     P ( 1.00)
        O              6.00    15.99900     O ( 1.00)

      2 Sym. Ops., with inversion, found

                                    s                        frac. trans.

      isym =  1     identity

 cryst.   s( 1) = (     1          0          0      )
                  (     0          1          0      )
                  (     0          0          1      )

 cart.    s( 1) = (  1.0000000  0.0000000 -0.0000000 )
                  (  0.0000000  1.0000000  0.0000000 )
                  (  0.0000000  0.0000000  1.0000000 )

      isym =  2     inversion

 cryst.   s( 2) = (    -1          0          0      )
                  (     0         -1          0      )
                  (     0          0         -1      )

 cart.    s( 2) = ( -1.0000000  0.0000000  0.0000000 )
                  (  0.0000000 -1.0000000  0.0000000 )
                  (  0.0000000  0.0000000 -1.0000000 )

   Cartesian axes

     site n.     atom                  positions (alat units)
         1           Y   tau(   1) = (   1.7731831   0.3387817   0.2003564  )
         2           Y   tau(   2) = (   1.0859458   0.2074792   0.1227037  )
         3           Zn  tau(   3) = (   2.2981021   0.4390719   0.2596682  )
         4           Zn  tau(   4) = (   0.5610269   0.1071889   0.0633918  )
         5           P   tau(   5) = (   0.3199565   0.0611304   0.0361527  )
         6           P   tau(   6) = (   2.5391724   0.4851304   0.2869074  )
         7           O   tau(   7) = (   1.9862883   0.3794972   0.2244356  )
         8           O   tau(   8) = (   0.8728406   0.1667636   0.0986244  )

   Crystallographic axes

     site n.     atom                  positions (cryst. coord.)
         1           Y   tau(   1) = (  0.6201830  0.6201830  0.6201830  )
         2           Y   tau(   2) = (  0.3798170  0.3798170  0.3798170  )
         3           Zn  tau(   3) = (  0.8037770  0.8037770  0.8037770  )
         4           Zn  tau(   4) = (  0.1962230  0.1962230  0.1962230  )
         5           P   tau(   5) = (  0.1119070  0.1119070  0.1119070  )
         6           P   tau(   6) = (  0.8880930  0.8880930  0.8880930  )
         7           O   tau(   7) = (  0.6947180  0.6947180  0.6947180  )
         8           O   tau(   8) = (  0.3052820  0.3052820  0.3052820  )

     number of k points=    14
                       cart. coord. in units 2pi/alat
        k(    1) = (   0.0000000   0.0000000   0.0000000), wk =   0.0740741
        k(    2) = (   0.0000000   0.0000000   1.0317999), wk =   0.1481481
        k(    3) = (   0.0000000   0.9041763  -0.4970679), wk =   0.1481481
        k(    4) = (   0.0000000   0.9041763   0.5347320), wk =   0.1481481
        k(    5) = (   0.0000000   0.9041763  -1.5288678), wk =   0.1481481
        k(    6) = (   0.3333333  -0.8404901  -0.4970679), wk =   0.1481481
        k(    7) = (   0.3333333  -0.8404901   0.5347320), wk =   0.1481481
        k(    8) = (   0.3333333  -0.8404901  -1.5288678), wk =   0.1481481
        k(    9) = (   0.3333333   0.0636862  -0.9941358), wk =   0.1481481
        k(   10) = (   0.3333333   0.0636862   0.0376641), wk =   0.1481481
        k(   11) = (   0.3333333   0.0636862  -2.0259357), wk =   0.1481481
        k(   12) = (   0.3333333  -1.7446665   0.0000000), wk =   0.1481481
        k(   13) = (   0.3333333  -1.7446665   1.0317999), wk =   0.1481481
        k(   14) = (   0.3333333  -1.7446665  -1.0317999), wk =   0.1481481

                       cryst. coord.
        k(    1) = (   0.0000000   0.0000000   0.0000000), wk =   0.0740741
        k(    2) = (   0.0000000   0.0000000   0.3333333), wk =   0.1481481
        k(    3) = (   0.0000000   0.3333333   0.0000000), wk =   0.1481481
        k(    4) = (   0.0000000   0.3333333   0.3333333), wk =   0.1481481
        k(    5) = (   0.0000000   0.3333333  -0.3333333), wk =   0.1481481
        k(    6) = (   0.3333333   0.0000000   0.0000000), wk =   0.1481481
        k(    7) = (   0.3333333   0.0000000   0.3333333), wk =   0.1481481
        k(    8) = (   0.3333333   0.0000000  -0.3333333), wk =   0.1481481
        k(    9) = (   0.3333333   0.3333333   0.0000000), wk =   0.1481481
        k(   10) = (   0.3333333   0.3333333   0.3333333), wk =   0.1481481
        k(   11) = (   0.3333333   0.3333333  -0.3333333), wk =   0.1481481
        k(   12) = (   0.3333333  -0.3333333  -0.0000000), wk =   0.1481481
        k(   13) = (   0.3333333  -0.3333333   0.3333333), wk =   0.1481481
        k(   14) = (   0.3333333  -0.3333333  -0.3333333), wk =   0.1481481

     Check: negative core charge=   -0.000007

     Initial potential from superposition of free atoms

     starting charge      83.9905, renormalised to      84.0000

     negative rho (up, down):  8.588E-02 0.000E+00
     Starting wfcs are   68 randomized atomic wfcs
     Checking if some PAW data can be deallocated...

     Self-consistent Calculation

     iteration #  1     ecut=    30.00 Ry     beta= 0.70
     Davidson diagonalization with overlap

     ethr =  1.00E-02,  avg # of iterations =  4.1

     negative rho (up, down):  8.737E-02 0.000E+00

     total energy              =   -1209.07013817 Ry
     estimated scf accuracy    <       1.79926805 Ry

[...]

     total energy              =   -1210.08346184 Ry
     estimated scf accuracy    <       0.00005369 Ry

     iteration # 11     ecut=    30.00 Ry     beta= 0.70
     Davidson diagonalization with overlap

     ethr =  6.39E-08,  avg # of iterations =  1.6

     negative rho (up, down):  8.838E-02 0.000E+00

     End of self-consistent calculation

          k = 0.0000 0.0000 0.0000 (  2541 PWs)   bands (ev):

  -115.6753-115.6739 -69.7867 -69.7844 -69.7664 -69.7664 -69.7649 -69.7649
   -31.9482 -31.9078 -12.4555 -11.8844 -11.8844 -11.8724 -11.8184 -11.8184
    -7.5482  -7.5028  -1.1475  -0.2400   3.0798   3.0798   3.1745   3.1745
     3.2648   3.4164   3.4164   3.5742   3.6999   3.6999   5.3687   5.8233
     5.8233   6.3081   6.3946   6.3946   7.1771   9.7466  10.0427  10.0427
    10.6605  10.6605  12.0593  12.3302  13.3048  13.3048  13.3521  13.7747
    13.7747  14.7774  15.1792  15.1792  16.1184  16.1184  16.3952  16.5564
    16.5564  17.5297  17.8939  17.8940  18.0917  19.6303  19.8040  20.6186

     occupation numbers
     1.0000   1.0000   1.0000   1.0000   1.0000   1.0000   1.0000   1.0000
     1.0000   1.0000   1.0000   1.0000   1.0000   1.0000   1.0000   1.0000
     1.0000   1.0000   1.0000   1.0000   1.0000   1.0000   1.0000   1.0000
     1.0000   1.0000   1.0000   1.0000   1.0000   1.0000   1.0000   1.0000
     1.0000   1.0000   1.0000   1.0000   1.0000   1.0000   1.0000   1.0000
     1.0000   1.0000   0.0000   0.0000   0.0000   0.0000   0.0000   0.0000
     0.0000   0.0000   0.0000   0.0000   0.0000   0.0000   0.0000   0.0000
     0.0000   0.0000   0.0000   0.0000   0.0000   0.0000   0.0000   0.0000

[...]

          k = 0.3333-1.7447-1.0318 (  2522 PWs)   bands (ev):

  -115.6756-115.6738 -69.7863 -69.7815 -69.7707 -69.7681 -69.7672 -69.7581
   -31.9245 -31.9012 -12.5279 -12.3543 -11.9619 -11.9459 -11.8584 -11.8559
    -7.1665  -7.1481  -0.3506   0.2814   3.0797   3.2023   3.2367   3.2715
     3.3601   3.4043   3.4546   3.5704   3.6953   3.7407   5.3459   5.6494
     6.0840   6.0847   6.4650   6.6420   7.0912   7.1678   8.3837   8.6241
     9.2321   9.5705  12.4219  12.8972  13.2328  13.5128  13.9720  14.1927
    14.6426  15.2487  15.3804  15.5434  15.6581  15.7952  17.0769  17.1491
    17.8548  17.9409  18.2487  19.2292  19.3350  19.5934  21.0067  21.0128

     occupation numbers
     1.0000   1.0000   1.0000   1.0000   1.0000   1.0000   1.0000   1.0000
     1.0000   1.0000   1.0000   1.0000   1.0000   1.0000   1.0000   1.0000
     1.0000   1.0000   1.0000   1.0000   1.0000   1.0000   1.0000   1.0000
     1.0000   1.0000   1.0000   1.0000   1.0000   1.0000   1.0000   1.0000
     1.0000   1.0000   1.0000   1.0000   1.0000   1.0000   1.0000   1.0000
     1.0000   1.0000   0.0000   0.0000   0.0000   0.0000   0.0000   0.0000
     0.0000   0.0000   0.0000   0.0000   0.0000   0.0000   0.0000   0.0000
     0.0000   0.0000   0.0000   0.0000   0.0000   0.0000   0.0000   0.0000

     highest occupied, lowest unoccupied level (ev):    10.7041   12.0593

!    total energy              =   -1210.08347055 Ry
     estimated scf accuracy    <       0.00000025 Ry

     The total energy is the sum of the following terms:
     one-electron contribution =   -1030.15618666 Ry
     hartree contribution      =     548.55988233 Ry
     xc contribution           =    -152.22538682 Ry
     ewald contribution        =    -557.21910115 Ry
     one-center paw contrib.   =     -19.04267825 Ry
      -> PAW hartree energy AE =       0.00000000 Ry
      -> PAW hartree energy PS =       0.00000000 Ry
      -> PAW xc energy AE      =       0.00000000 Ry
      -> PAW xc energy PS      =       0.00000000 Ry
      -> total E_H with PAW    =     548.55988233 Ry
      -> total E_XC with PAW   =    -152.22538682 Ry

     convergence has been achieved in  11 iterations

     Writing all to output data dir bands_nm/myprefix.save/

     General routines

     Parallel routines

     PAW routines

   This run was terminated on:  19:22:58   9Jul2023

   JOB DONE.