     Program PWSCF v.7.1 starts on 15Jul2023 at 18:51:23

     Reading input from espresso_6688.pwi
Warning: card &CELL ignored
Warning: card / ignored

     Current dimensions of program PWSCF are:
     Max number of different atomic species (ntypx) = 10
     Max number of k-points (npk) =  40000
     Max angular momentum in pseudopotentials (lmaxx) =  4
     file Pb.pbe-dn-kjpaw_psl.0.2.2.UPF: wavefunction(s)  6S renormalized
     Message from routine setup:
     using ibrav=0 with symmetry is DISCOURAGED, use correct ibrav instead

     K-points division:     npool     =       2
     R & G space division:  proc/nbgrp/npool/nimage =       4
     Subspace diagonalization in iterative solution of the eigenvalue problem:
     one sub-group per band group will be used

     Using Slab Decomposition

     bravais-lattice index     =            0
     lattice parameter (alat)  =      17.4453  a.u.
     unit-cell volume          =    4541.1298 (a.u.)^3
     number of atoms/cell      =           16
     number of atomic types    =            3
     number of electrons       =       172.00
     number of Kohn-Sham states=          256
     kinetic-energy cutoff     =      30.0000  Ry
     charge density cutoff     =     240.0000  Ry
     scf convergence threshold =      1.0E-06
     mixing beta               =       0.7000
     number of iterations used =            8  plain     mixing
     Exchange-correlation= SLA  PW   PBX  PBC
                           (   1   4   3   4   0   0   0)

     celldm(1)=  17.445254  celldm(2)=   0.000000  celldm(3)=   0.000000
     celldm(4)=   0.000000  celldm(5)=   0.000000  celldm(6)=   0.000000

     crystal axes: (cart. coord. in units of alat)
               a(1) = (   1.000000   0.000000   0.000000 )
               a(2) = (  -0.667273   0.744813   0.000000 )
               a(3) = (   0.000000   0.000000   1.148378 )

     reciprocal axes: (cart. coord. in units 2 pi/alat)
               b(1) = (  1.000000  0.895894  0.000000 )
               b(2) = (  0.000000  1.342619  0.000000 )
               b(3) = (  0.000000  0.000000  0.870794 )

     PseudoPot. # 1 for Rb read from file:
     /lustre07/scratch/pragov/crystal_structure_design/utils/SSSP/Rb_ONCV_PBE-1.0.oncvpsp.upf
     MD5 check sum: 55a5172d6bfbce6759a58e35d43f6aa9
     Pseudo is Norm-conserving, Zval =  9.0
     Generated using ONCVPSP code by D. R. Hamann
     Using radial grid of 2308 points,  6 beta functions with:
                l(1) =   0
                l(2) =   0
                l(3) =   1
                l(4) =   1
                l(5) =   2
                l(6) =   2

     PseudoPot. # 2 for Li read from file:
     /lustre07/scratch/pragov/crystal_structure_design/utils/SSSP/li_pbe_v1.4.uspp.F.UPF
     MD5 check sum: e912e257baa3777c20ea3d68f190483c
     Pseudo is Ultrasoft, Zval =  3.0
     Generated by new atomic code, or converted to UPF format
     Using radial grid of  751 points,  5 beta functions with:
                l(1) =   0
                l(2) =   0
                l(3) =   0
                l(4) =   1
                l(5) =   1
     Q(r) pseudized with 10 coefficients,  rinner =    1.150   1.150   1.150

     PseudoPot. # 3 for Pb read from file:
     /lustre07/scratch/pragov/crystal_structure_design/utils/SSSP/Pb.pbe-dn-kjpaw_psl.0.2.2.UPF
     MD5 check sum: 9d431e6316058b74ade52399a6cf67da
     Pseudo is Projector augmented-wave + core cor, Zval = 14.0
     Generated using "atomic" code by A. Dal Corso  v.5.0.99 svn rev. 10869
     Shape of augmentation charge: PSQ
     Using radial grid of 1281 points,  6 beta functions with:
                l(1) =   0
                l(2) =   0
                l(3) =   1
                l(4) =   1
                l(5) =   2
                l(6) =   2
     Q(r) pseudized with 0 coefficients

     atomic species   valence    mass     pseudopotential
        Rb             9.00    85.46780     Rb( 1.00)
        Li             3.00     6.94000     Li( 1.00)
        Pb            14.00   207.20000     Pb( 1.00)

      4 Sym. Ops., with inversion, found ( 2 have fractional translation)

                                    s                        frac. trans.

      isym =  1     identity

 cryst.   s( 1) = (     1          0          0      )
                  (     0          1          0      )
                  (     0          0          1      )

 cart.    s( 1) = (  1.0000000 -0.0000000  0.0000000 )
                  (  0.0000000  1.0000000  0.0000000 )
                  (  0.0000000  0.0000000  1.0000000 )

      isym =  2     180 deg rotation - cart. axis [0,0,1]

 cryst.   s( 2) = (    -1          0          0      )    f =( -0.0000000 )
                  (     0         -1          0      )       ( -0.0000000 )
                  (     0          0          1      )       (  0.5000000 )

 cart.    s( 2) = ( -1.0000000  0.0000000  0.0000000 )    f =( -0.0000000 )
                  (  0.0000000 -1.0000000  0.0000000 )       ( -0.0000000 )
                  (  0.0000000  0.0000000  1.0000000 )       (  0.5741888 )

      isym =  3     inversion

 cryst.   s( 3) = (    -1          0          0      )
                  (     0         -1          0      )
                  (     0          0         -1      )

 cart.    s( 3) = ( -1.0000000  0.0000000  0.0000000 )
                  (  0.0000000 -1.0000000  0.0000000 )
                  (  0.0000000  0.0000000 -1.0000000 )

      isym =  4     inv. 180 deg rotation - cart. axis [0,0,1]

 cryst.   s( 4) = (     1          0          0      )    f =(  0.0000000 )
                  (     0          1          0      )       (  0.0000000 )
                  (     0          0         -1      )       (  0.5000000 )

 cart.    s( 4) = (  1.0000000 -0.0000000  0.0000000 )    f =(  0.0000000 )
                  (  0.0000000  1.0000000  0.0000000 )       (  0.0000000 )
                  (  0.0000000  0.0000000 -1.0000000 )       (  0.5741888 )

   Cartesian axes

     site n.     atom                  positions (alat units)
         1           Rb  tau(   1) = (  -0.2827033   0.5730159   0.2870944  )
         2           Rb  tau(   2) = (   0.6154301   0.1717971   0.8612833  )
         3           Rb  tau(   3) = (   0.3508972   0.2899706   0.0563429  )
         4           Rb  tau(   4) = (  -0.0181704   0.4548424   1.0920348  )
         5           Rb  tau(   5) = (  -0.0181704   0.4548424   0.6305317  )
         6           Rb  tau(   6) = (   0.3508972   0.2899706   0.5178460  )
         7           Li  tau(   7) = (   0.0000000   0.0000000   0.0000000  )
         8           Li  tau(   8) = (   0.0000000   0.0000000   0.5741888  )
         9           Pb  tau(   9) = (   0.0024349   0.1871886   0.2870944  )
        10           Pb  tau(  10) = (   0.3302919   0.5576244   0.8612833  )
        11           Pb  tau(  11) = (   0.1949310   0.6180935   0.2870944  )
        12           Pb  tau(  12) = (   0.1377958   0.1267195   0.8612833  )
        13           Pb  tau(  13) = (   0.7129856   0.1282166   0.1183828  )
        14           Pb  tau(  14) = (  -0.3802588   0.6165964   1.0299949  )
        15           Pb  tau(  15) = (  -0.3802588   0.6165964   0.6925716  )
        16           Pb  tau(  16) = (   0.7129856   0.1282166   0.4558060  )

   Crystallographic axes

     site n.     atom                  positions (cryst. coord.)
         1           Rb  tau(   1) = (  0.2306580  0.7693420  0.2500000  )
         2           Rb  tau(   2) = (  0.7693420  0.2306580  0.7500000  )
         3           Rb  tau(   3) = (  0.6106800  0.3893200  0.0490630  )
         4           Rb  tau(   4) = (  0.3893200  0.6106800  0.9509370  )
         5           Rb  tau(   5) = (  0.3893200  0.6106800  0.5490630  )
         6           Rb  tau(   6) = (  0.6106800  0.3893200  0.4509370  )
         7           Li  tau(   7) = (  0.0000000  0.0000000  0.0000000  )
         8           Li  tau(   8) = (  0.0000000  0.0000000  0.5000000  )
         9           Pb  tau(   9) = (  0.1701360  0.2513230  0.2500000  )
        10           Pb  tau(  10) = (  0.8298640  0.7486770  0.7500000  )
        11           Pb  tau(  11) = (  0.7486770  0.8298640  0.2500000  )
        12           Pb  tau(  12) = (  0.2513230  0.1701360  0.7500000  )
        13           Pb  tau(  13) = (  0.8278540  0.1721460  0.1030870  )
        14           Pb  tau(  14) = (  0.1721460  0.8278540  0.8969130  )
        15           Pb  tau(  15) = (  0.1721460  0.8278540  0.6030870  )
        16           Pb  tau(  16) = (  0.8278540  0.1721460  0.3969130  )

     number of k points=    10
                       cart. coord. in units 2pi/alat
        k(    1) = (   0.0000000   0.0000000   0.0000000), wk =   0.0740741
        k(    2) = (   0.0000000   0.0000000   0.2902646), wk =   0.1481481
        k(    3) = (   0.0000000   0.4475396   0.0000000), wk =   0.1481481
        k(    4) = (   0.0000000   0.4475396   0.2902646), wk =   0.2962963
        k(    5) = (   0.3333333   0.2986312   0.0000000), wk =   0.1481481
        k(    6) = (   0.3333333   0.2986312   0.2902646), wk =   0.2962963
        k(    7) = (   0.3333333   0.7461708   0.0000000), wk =   0.1481481
        k(    8) = (   0.3333333   0.7461708   0.2902646), wk =   0.2962963
        k(    9) = (   0.3333333  -0.1489084   0.0000000), wk =   0.1481481
        k(   10) = (   0.3333333  -0.1489084   0.2902646), wk =   0.2962963

                       cryst. coord.
        k(    1) = (   0.0000000   0.0000000   0.0000000), wk =   0.0740741
        k(    2) = (   0.0000000   0.0000000   0.3333333), wk =   0.1481481
        k(    3) = (   0.0000000   0.3333333   0.0000000), wk =   0.1481481
        k(    4) = (   0.0000000   0.3333333   0.3333333), wk =   0.2962963
        k(    5) = (   0.3333333  -0.0000000   0.0000000), wk =   0.1481481
        k(    6) = (   0.3333333  -0.0000000   0.3333333), wk =   0.2962963
        k(    7) = (   0.3333333   0.3333333   0.0000000), wk =   0.1481481
        k(    8) = (   0.3333333   0.3333333   0.3333333), wk =   0.2962963
        k(    9) = (   0.3333333  -0.3333333   0.0000000), wk =   0.1481481
        k(   10) = (   0.3333333  -0.3333333   0.3333333), wk =   0.2962963

     Initial potential from superposition of free atoms

     starting charge     170.9311, renormalised to     172.0000
     Starting wfcs are  112 randomized atomic wfcs +  144 random wfcs
     Checking if some PAW data can be deallocated...

     Self-consistent Calculation

     iteration #  1     ecut=    30.00 Ry     beta= 0.70
     Davidson diagonalization with overlap

     ethr =  1.00E-02,  avg # of iterations =  7.0

     Threshold (ethr) on eigenvalues was too large:
     Diagonalizing with lowered threshold

     Davidson diagonalization with overlap

[...]

     total energy              =   -7286.69404568 Ry
     estimated scf accuracy    <       0.99433103 Ry

[...]

     total energy              =   -7287.17058647 Ry
     estimated scf accuracy    <       0.00000212 Ry

     iteration #  9     ecut=    30.00 Ry     beta= 0.70
     Davidson diagonalization with overlap

     ethr =  1.23E-09,  avg # of iterations =  3.6

     End of self-consistent calculation

          k = 0.0000 0.0000 0.0000 ( 12613 PWs)   bands (ev):

   -41.1004 -41.1002 -22.7092 -22.7086 -22.6081 -22.6023 -22.5893 -22.5830
   -11.1457 -11.1455 -11.0400 -11.0400 -11.0245 -11.0213 -10.9980 -10.9979
   -10.9903 -10.9874 -10.9511 -10.9509 -10.8473 -10.8459 -10.8283 -10.8281
   -10.8189 -10.8166 -10.7574 -10.7566 -10.7556 -10.7536 -10.7350 -10.7335
   -10.7201 -10.7192 -10.7029 -10.7014 -10.6987 -10.6974 -10.6832 -10.6830
   -10.6820 -10.6820 -10.6192 -10.6184 -10.6046 -10.6030 -10.5790 -10.5789
    -6.9375  -6.9068  -6.8697  -6.8681  -6.8544  -6.8024  -6.8017  -6.7862
    -6.7508  -6.7018  -6.6846  -6.6660  -6.6592  -6.6311  -6.6311  -6.6305
    -6.6241  -6.5970  -4.4000  -4.2872  -1.8168  -1.7441  -1.7335  -1.6613
    -1.5885  -1.5425   2.9771   3.6011   3.7714   3.8733   4.0707   4.3464
     4.4366   4.5503   4.7387   4.7398   4.9985   5.2758   6.2679   6.4023
     6.9758   7.2762   7.4296   7.4969   7.5201   7.5468   7.6791   7.7018
     7.9276   8.2572   8.3339   8.4728   8.5488   8.7115   8.8526   9.3027
     9.3420   9.4675   9.6406   9.6557   9.6560   9.6853   9.7713  10.1898
    10.2189  10.4480  10.5392  10.6905  10.7211  10.8278  10.8912  11.0961
    11.1140  11.3933  11.4150  11.4632  11.4982  11.6280  11.7278  11.7839
    11.8516  12.0929  12.1103  12.1627  12.3511  12.3592  12.4622  12.5584
    12.6072  12.6457  12.7688  12.8350  12.9856  13.1046  13.1989  13.3926
    13.4587  13.5595  13.6600  13.8442  13.9377  13.9618  14.3091  14.3575
    14.5474  14.6391  14.6658  14.7989  14.8090  15.1630  15.3580  15.4064
    15.5893  15.7265  15.7647  15.9005  16.0058  16.1425  16.1947  16.1984
    16.2196  16.3816  16.4688  16.5243  16.6536  16.7340  16.9726  17.2490
    17.3220  17.3225  17.3346  17.4902  17.6105  17.7668  17.8063  17.8688
    18.2154  18.3495  18.4629  18.5166  18.5344  18.6328  18.6562  18.7942
    19.0189  19.0616  19.2410  19.3411  19.3653  19.4501  19.7917  19.8766
    19.8847  19.9468  20.0493  20.1132  20.2933  20.3272  20.3919  20.4404
    20.5544  20.6591  20.6702  20.7604  20.9638  21.0437  21.0885  21.1589
    21.3726  21.4160  21.4236  21.4480  21.5128  21.5720  21.6617  21.8274
    22.0614  22.0639  22.1227  22.1662  22.2790  22.3954  22.4039  22.4871
    22.5289  22.8817  22.9086  23.0244  23.0879  23.1902  23.3291  23.5124
    23.5202  23.5385  23.6107  23.6653  23.7675  23.8235  23.8700  24.1674
    24.3400  24.4248  24.4408  24.4505  24.5009  24.6429  24.6825  24.8440

     occupation numbers
     1.0000   1.0000   1.0000   1.0000   1.0000   1.0000   1.0000   1.0000
     1.0000   1.0000   1.0000   1.0000   1.0000   1.0000   1.0000   1.0000
     1.0000   1.0000   1.0000   1.0000   1.0000   1.0000   1.0000   1.0000
     1.0000   1.0000   1.0000   1.0000   1.0000   1.0000   1.0000   1.0000
     1.0000   1.0000   1.0000   1.0000   1.0000   1.0000   1.0000   1.0000
     1.0000   1.0000   1.0000   1.0000   1.0000   1.0000   1.0000   1.0000
     1.0000   1.0000   1.0000   1.0000   1.0000   1.0000   1.0000   1.0000
     1.0000   1.0000   1.0000   1.0000   1.0000   1.0000   1.0000   1.0000
     1.0000   1.0000   1.0000   1.0000   1.0000   1.0000   1.0000   1.0000
     1.0000   1.0000   1.0000   1.0000   1.0000   1.0000   1.0000   1.0000
     1.0000   1.0000   1.0000   1.0000   1.0000   1.0000   0.0000   0.0000
     0.0000   0.0000   0.0000   0.0000   0.0000   0.0000   0.0000   0.0000
     0.0000   0.0000   0.0000   0.0000   0.0000   0.0000   0.0000   0.0000
     0.0000   0.0000   0.0000   0.0000   0.0000   0.0000   0.0000   0.0000
     0.0000   0.0000   0.0000   0.0000   0.0000   0.0000   0.0000   0.0000
     0.0000   0.0000   0.0000   0.0000   0.0000   0.0000   0.0000   0.0000
     0.0000   0.0000   0.0000   0.0000   0.0000   0.0000   0.0000   0.0000
     0.0000   0.0000   0.0000   0.0000   0.0000   0.0000   0.0000   0.0000
     0.0000   0.0000   0.0000   0.0000   0.0000   0.0000   0.0000   0.0000
     0.0000   0.0000   0.0000   0.0000   0.0000   0.0000   0.0000   0.0000
     0.0000   0.0000   0.0000   0.0000   0.0000   0.0000   0.0000   0.0000
     0.0000   0.0000   0.0000   0.0000   0.0000   0.0000   0.0000   0.0000
     0.0000   0.0000   0.0000   0.0000   0.0000   0.0000   0.0000   0.0000
     0.0000   0.0000   0.0000   0.0000   0.0000   0.0000   0.0000   0.0000
     0.0000   0.0000   0.0000   0.0000   0.0000   0.0000   0.0000   0.0000
     0.0000   0.0000   0.0000   0.0000   0.0000   0.0000   0.0000   0.0000
     0.0000   0.0000   0.0000   0.0000   0.0000   0.0000   0.0000   0.0000
     0.0000   0.0000   0.0000   0.0000   0.0000   0.0000   0.0000   0.0000
     0.0000   0.0000   0.0000   0.0000   0.0000   0.0000   0.0000   0.0000
     0.0000   0.0000   0.0000   0.0000   0.0000   0.0000   0.0000   0.0000
     0.0000   0.0000   0.0000   0.0000   0.0000   0.0000   0.0000   0.0000
     0.0000   0.0000   0.0000   0.0000   0.0000   0.0000   0.0000   0.0000

[...]

          k = 0.3333-0.1489 0.2903 ( 12590 PWs)   bands (ev):

   -41.1003 -41.1002 -22.7090 -22.7087 -22.6072 -22.6042 -22.5871 -22.5842
   -11.1463 -11.1458 -11.0405 -11.0403 -11.0236 -11.0222 -10.9972 -10.9969
   -10.9894 -10.9883 -10.9511 -10.9509 -10.8468 -10.8464 -10.8284 -10.8283
   -10.8181 -10.8176 -10.7571 -10.7568 -10.7544 -10.7537 -10.7348 -10.7343
   -10.7193 -10.7191 -10.7022 -10.7017 -10.6984 -10.6976 -10.6832 -10.6831
   -10.6820 -10.6819 -10.6196 -10.6190 -10.6042 -10.6031 -10.5794 -10.5787
    -6.9200  -6.9138  -6.8803  -6.8700  -6.8211  -6.8178  -6.8015  -6.7909
    -6.7463  -6.7331  -6.6724  -6.6700  -6.6526  -6.6431  -6.6355  -6.6307
    -6.6125  -6.5985  -4.3381  -4.3092  -1.8491  -1.8229  -1.6976  -1.6688
    -1.5751  -1.5514   3.3310   3.5076   3.7441   3.7770   4.3076   4.4119
     4.4267   4.5581   4.5601   4.8150   4.9111   5.2137   6.0958   6.3545
     6.5723   6.8894   7.0027   7.2684   7.5096   7.6163   7.7587   7.8491
     7.9907   8.3768   8.5963   8.8042   9.0584   9.1702   9.2603   9.2921
     9.3731   9.4081   9.4648   9.5300   9.7759   9.8412   9.9964  10.2700
    10.2740  10.4299  10.4718  10.4841  10.6582  10.9310  11.0593  11.1608
    11.2968  11.3584  11.3983  11.4714  11.5293  11.5576  11.7734  11.8047
    11.8586  12.0050  12.0188  12.0772  12.1502  12.1937  12.2721  12.4095
    12.4481  12.5246  12.6333  12.8305  12.8508  13.0456  13.1843  13.3285
    13.6455  13.6991  13.8858  13.9213  14.0453  14.0762  14.1082  14.2057
    14.4574  14.4747  14.6057  14.6537  14.7976  14.8519  14.8621  15.1402
    15.4560  15.4880  15.6378  15.7277  15.7967  15.9543  16.1770  16.2392
    16.2740  16.6101  16.6285  16.8047  16.8849  16.9526  16.9946  17.1611
    17.2378  17.4014  17.5154  17.5619  17.7012  17.9235  17.9872  18.0647
    18.1583  18.1719  18.3288  18.3960  18.6785  18.7991  18.8830  18.9505
    19.0404  19.1068  19.2691  19.3472  19.4740  19.5532  19.5542  19.6858
    19.9106  19.9767  20.0161  20.0944  20.1621  20.2132  20.2602  20.3668
    20.6771  20.6961  20.9350  20.9471  20.9738  21.1310  21.1539  21.3701
    21.4303  21.4793  21.4943  21.5756  21.6943  21.7075  21.9334  21.9849
    22.0355  22.0634  22.2579  22.3760  22.4618  22.4656  22.5848  22.7200
    22.7306  22.8678  22.9783  22.9938  23.2119  23.2211  23.4046  23.4376
    23.5036  23.8349  23.8536  23.9117  23.9260  23.9658  24.0560  24.1382
    24.2616  24.2758  24.4990  24.5282  24.5509  24.6241  24.6896  24.7861

     occupation numbers
     1.0000   1.0000   1.0000   1.0000   1.0000   1.0000   1.0000   1.0000
     1.0000   1.0000   1.0000   1.0000   1.0000   1.0000   1.0000   1.0000
     1.0000   1.0000   1.0000   1.0000   1.0000   1.0000   1.0000   1.0000
     1.0000   1.0000   1.0000   1.0000   1.0000   1.0000   1.0000   1.0000
     1.0000   1.0000   1.0000   1.0000   1.0000   1.0000   1.0000   1.0000
     1.0000   1.0000   1.0000   1.0000   1.0000   1.0000   1.0000   1.0000
     1.0000   1.0000   1.0000   1.0000   1.0000   1.0000   1.0000   1.0000
     1.0000   1.0000   1.0000   1.0000   1.0000   1.0000   1.0000   1.0000
     1.0000   1.0000   1.0000   1.0000   1.0000   1.0000   1.0000   1.0000
     1.0000   1.0000   1.0000   1.0000   1.0000   1.0000   1.0000   1.0000
     1.0000   1.0000   1.0000   1.0000   1.0000   1.0000   0.0000   0.0000
     0.0000   0.0000   0.0000   0.0000   0.0000   0.0000   0.0000   0.0000
     0.0000   0.0000   0.0000   0.0000   0.0000   0.0000   0.0000   0.0000
     0.0000   0.0000   0.0000   0.0000   0.0000   0.0000   0.0000   0.0000
     0.0000   0.0000   0.0000   0.0000   0.0000   0.0000   0.0000   0.0000
     0.0000   0.0000   0.0000   0.0000   0.0000   0.0000   0.0000   0.0000
     0.0000   0.0000   0.0000   0.0000   0.0000   0.0000   0.0000   0.0000
     0.0000   0.0000   0.0000   0.0000   0.0000   0.0000   0.0000   0.0000
     0.0000   0.0000   0.0000   0.0000   0.0000   0.0000   0.0000   0.0000
     0.0000   0.0000   0.0000   0.0000   0.0000   0.0000   0.0000   0.0000
     0.0000   0.0000   0.0000   0.0000   0.0000   0.0000   0.0000   0.0000
     0.0000   0.0000   0.0000   0.0000   0.0000   0.0000   0.0000   0.0000
     0.0000   0.0000   0.0000   0.0000   0.0000   0.0000   0.0000   0.0000
     0.0000   0.0000   0.0000   0.0000   0.0000   0.0000   0.0000   0.0000
     0.0000   0.0000   0.0000   0.0000   0.0000   0.0000   0.0000   0.0000
     0.0000   0.0000   0.0000   0.0000   0.0000   0.0000   0.0000   0.0000
     0.0000   0.0000   0.0000   0.0000   0.0000   0.0000   0.0000   0.0000
     0.0000   0.0000   0.0000   0.0000   0.0000   0.0000   0.0000   0.0000
     0.0000   0.0000   0.0000   0.0000   0.0000   0.0000   0.0000   0.0000
     0.0000   0.0000   0.0000   0.0000   0.0000   0.0000   0.0000   0.0000
     0.0000   0.0000   0.0000   0.0000   0.0000   0.0000   0.0000   0.0000
     0.0000   0.0000   0.0000   0.0000   0.0000   0.0000   0.0000   0.0000

     highest occupied, lowest unoccupied level (ev):     5.4111    6.0958

!    total energy              =   -7287.17058723 Ry
     estimated scf accuracy    <       0.00000017 Ry

     The total energy is the sum of the following terms:
     one-electron contribution =    -676.96184933 Ry
     hartree contribution      =     426.38589787 Ry
     xc contribution           =    -406.59559389 Ry
     ewald contribution        =    -802.17195818 Ry
     one-center paw contrib.   =   -5827.82708370 Ry
      -> PAW hartree energy AE =       0.00000000 Ry
      -> PAW hartree energy PS =       0.00000000 Ry
      -> PAW xc energy AE      =       0.00000000 Ry
      -> PAW xc energy PS      =       0.00000000 Ry
      -> total E_H with PAW    =     426.38589787 Ry
      -> total E_XC with PAW   =    -406.59559389 Ry

     convergence has been achieved in   9 iterations

     Writing all to output data dir bands_nm/myprefix.save/

     General routines

     Parallel routines

     PAW routines

   This run was terminated on:  18:53:55  15Jul2023

   JOB DONE.