     Program PWSCF v.7.1 starts on 17Jul2023 at  0:54:30

     Reading input from espresso_26237.pwi
Warning: card &CELL ignored
Warning: card / ignored

     Current dimensions of program PWSCF are:
     Max number of different atomic species (ntypx) = 10
     Max number of k-points (npk) =  40000
     Max angular momentum in pseudopotentials (lmaxx) =  4
     file Fe.pbe-spn-kjpaw_psl.0.2.1.UPF: wavefunction(s)  3D renormalized
     file O.pbe-n-kjpaw_psl.0.1.UPF: wavefunction(s)  2P renormalized
     Message from routine setup:
     the system is metallic, specify occupations
     Message from routine setup:
     using ibrav=0 with symmetry is DISCOURAGED, use correct ibrav instead

     K-points division:     npool     =       2
     R & G space division:  proc/nbgrp/npool/nimage =       4
     Subspace diagonalization in iterative solution of the eigenvalue problem:
     a serial algorithm will be used

     Using Slab Decomposition

     bravais-lattice index     =            0
     lattice parameter (alat)  =       9.1429  a.u.
     unit-cell volume          =    1078.7344 (a.u.)^3
     number of atoms/cell      =           12
     number of atomic types    =            4
     number of electrons       =        95.00 (up:  50.00, down:  45.00)
     number of Kohn-Sham states=           64
     kinetic-energy cutoff     =      30.0000  Ry
     charge density cutoff     =     240.0000  Ry
     scf convergence threshold =      1.0E-06
     mixing beta               =       0.7000
     number of iterations used =            8  plain     mixing
     Exchange-correlation= SLA  PW   PBX  PBC
                           (   1   4   3   4   0   0   0)

     celldm(1)=   9.142933  celldm(2)=   0.000000  celldm(3)=   0.000000
     celldm(4)=   0.000000  celldm(5)=   0.000000  celldm(6)=   0.000000

     crystal axes: (cart. coord. in units of alat)
               a(1) = (   1.000000   0.000000   0.000000 )
               a(2) = (   0.412775   0.910833   0.000000 )
               a(3) = (   0.057546   0.037100   1.549599 )

     reciprocal axes: (cart. coord. in units 2 pi/alat)
               b(1) = (  1.000000 -0.453184 -0.026286 )
               b(2) = (  0.000000  1.097896 -0.026286 )
               b(3) = (  0.000000  0.000000  0.645328 )

     PseudoPot. # 1 for Fe read from file:
     /lustre03/project/6004852/pragov/crystal_structure_design/crystal-design/crystal_design/utils/SSSP/Fe.pbe-spn-kjpaw_psl.0.2.1.UPF
     MD5 check sum: e86618425769142926afa95317d90200
     Pseudo is Projector augmented-wave + core cor, Zval = 16.0
     Generated using "atomic" code by A. Dal Corso  v.5.0.99 svn rev. 10869
     Shape of augmentation charge: PSQ
     Using radial grid of 1191 points,  6 beta functions with:
                l(1) =   0
                l(2) =   0
                l(3) =   1
                l(4) =   1
                l(5) =   2
                l(6) =   2
     Q(r) pseudized with 0 coefficients

     PseudoPot. # 2 for Ag read from file:
     /lustre03/project/6004852/pragov/crystal_structure_design/crystal-design/crystal_design/utils/SSSP/Ag_ONCV_PBE-1.0.oncvpsp.upf
     MD5 check sum: 94f47bd0669c641108e45594df92fabc
     Pseudo is Norm-conserving, Zval = 19.0
     Generated using ONCVPSP code by D. R. Hamann
     Using radial grid of 1398 points,  6 beta functions with:
                l(1) =   0
                l(2) =   0
                l(3) =   1
                l(4) =   1
                l(5) =   2
                l(6) =   2

     PseudoPot. # 3 for S  read from file:
     /lustre03/project/6004852/pragov/crystal_structure_design/crystal-design/crystal_design/utils/SSSP/s_pbe_v1.4.uspp.F.UPF
     MD5 check sum: 88d86576ff6df21479756cfb9bdac1df
     Pseudo is Ultrasoft + core correction, Zval =  6.0
     Generated by new atomic code, or converted to UPF format
     Using radial grid of  907 points,  6 beta functions with:
                l(1) =   0
                l(2) =   0
                l(3) =   1
                l(4) =   1
                l(5) =   2
                l(6) =   2
     Q(r) pseudized with  8 coefficients,  rinner =    1.300   1.300   1.300
                                                       1.300   1.300

     PseudoPot. # 4 for O  read from file:
     /lustre03/project/6004852/pragov/crystal_structure_design/crystal-design/crystal_design/utils/SSSP/O.pbe-n-kjpaw_psl.0.1.UPF
     MD5 check sum: 0234752ac141de4415c5fc33072bef88
     Pseudo is Projector augmented-wave + core cor, Zval =  6.0
     Generated using "atomic" code by A. Dal Corso  v.5.0.99 svn rev. 10869
     Shape of augmentation charge: BESSEL
     Using radial grid of 1095 points,  4 beta functions with:
                l(1) =   0
                l(2) =   0
                l(3) =   1
                l(4) =   1
     Q(r) pseudized with 0 coefficients

     atomic species   valence    mass     pseudopotential
        Fe            16.00    55.84500     Fe( 1.00)
        Ag            19.00   107.86820     Ag( 1.00)
        S              6.00    32.06000     S ( 1.00)
        O              6.00    15.99900     O ( 1.00)

     Starting magnetic structure
     atomic species   magnetization
        Fe           0.000
        Ag           0.000
        S            0.000
        O            0.000

      2 Sym. Ops., with inversion, found

                                    s                        frac. trans.

      isym =  1     identity

 cryst.   s( 1) = (     1          0          0      )
                  (     0          1          0      )
                  (     0          0          1      )

 cart.    s( 1) = (  1.0000000  0.0000000  0.0000000 )
                  (  0.0000000  1.0000000  0.0000000 )
                  (  0.0000000  0.0000000  1.0000000 )

      isym =  2     inversion

 cryst.   s( 2) = (    -1          0          0      )
                  (     0         -1          0      )
                  (     0          0         -1      )

 cart.    s( 2) = ( -1.0000000 -0.0000000 -0.0000000 )
                  (  0.0000000 -1.0000000  0.0000000 )
                  (  0.0000000  0.0000000 -1.0000000 )

   Cartesian axes

     site n.     atom                  positions (alat units)
         1           Fe  tau(   1) = (   0.0000000   0.0000000   0.0000000  )
         2           Ag  tau(   2) = (   0.0287729   0.0185502   0.7747993  )
         3           S   tau(   3) = (   0.5587721   0.3602471   1.2168486  )
         4           S   tau(   4) = (   0.9115488   0.5876864   0.3327499  )
         5           O   tau(   5) = (   0.4508597   0.2906746   0.9452443  )
         6           O   tau(   6) = (   1.0194613   0.6572588   0.6043543  )
         7           O   tau(   7) = (   0.8486422   0.2469390   1.2473401  )
         8           O   tau(   8) = (   0.6216787   0.7009945   0.3022585  )
         9           O   tau(   9) = (   0.8951024   0.2768924   0.3022585  )
        10           O   tau(  10) = (   0.5752186   0.6710410   1.2473401  )
        11           O   tau(  11) = (   0.3920251   0.2527433   1.4527936  )
        12           O   tau(  12) = (   1.0782958   0.6951902   0.0968050  )

   Crystallographic axes

     site n.     atom                  positions (cryst. coord.)
         1           Fe  tau(   1) = (  0.0000000  0.0000000  0.0000000  )
         2           Ag  tau(   2) = (  0.0000000  0.0000000  0.5000000  )
         3           S   tau(   3) = (  0.3635280  0.3635280  0.7852670  )
         4           S   tau(   4) = (  0.6364720  0.6364720  0.2147330  )
         5           O   tau(   5) = (  0.2942840  0.2942840  0.6099930  )
         6           O   tau(   6) = (  0.7057160  0.7057160  0.3900070  )
         7           O   tau(   7) = (  0.7039460  0.2383260  0.8049440  )
         8           O   tau(   8) = (  0.2960540  0.7616740  0.1950560  )
         9           O   tau(   9) = (  0.7616740  0.2960540  0.1950560  )
        10           O   tau(  10) = (  0.2383260  0.7039460  0.8049440  )
        11           O   tau(  11) = (  0.2392980  0.2392980  0.9375290  )
        12           O   tau(  12) = (  0.7607020  0.7607020  0.0624710  )

     number of k points=    14
                       cart. coord. in units 2pi/alat
        k(    1) = (   0.0000000   0.0000000   0.0000000), wk =   0.0370370
        k(    2) = (   0.0000000   0.0000000   0.2151095), wk =   0.0740741
        k(    3) = (   0.0000000   0.3659654  -0.0087619), wk =   0.0740741
        k(    4) = (   0.0000000   0.3659654   0.2063475), wk =   0.0740741
        k(    5) = (   0.0000000   0.3659654  -0.2238714), wk =   0.0740741
        k(    6) = (   0.3333333  -0.1510614  -0.0087619), wk =   0.0740741
        k(    7) = (   0.3333333  -0.1510614   0.2063475), wk =   0.0740741
        k(    8) = (   0.3333333  -0.1510614  -0.2238714), wk =   0.0740741
        k(    9) = (   0.3333333   0.2149040  -0.0175239), wk =   0.0740741
        k(   10) = (   0.3333333   0.2149040   0.1975856), wk =   0.0740741
        k(   11) = (   0.3333333   0.2149040  -0.2326334), wk =   0.0740741
        k(   12) = (   0.3333333  -0.5170268   0.0000000), wk =   0.0740741
        k(   13) = (   0.3333333  -0.5170268   0.2151095), wk =   0.0740741
        k(   14) = (   0.3333333  -0.5170268  -0.2151095), wk =   0.0740741

                       cryst. coord.
        k(    1) = (   0.0000000   0.0000000   0.0000000), wk =   0.0370370
        k(    2) = (   0.0000000   0.0000000   0.3333333), wk =   0.0740741
        k(    3) = (   0.0000000   0.3333333   0.0000000), wk =   0.0740741
        k(    4) = (   0.0000000   0.3333333   0.3333333), wk =   0.0740741
        k(    5) = (   0.0000000   0.3333333  -0.3333333), wk =   0.0740741
        k(    6) = (   0.3333333   0.0000000   0.0000000), wk =   0.0740741
        k(    7) = (   0.3333333   0.0000000   0.3333333), wk =   0.0740741
        k(    8) = (   0.3333333   0.0000000  -0.3333333), wk =   0.0740741
        k(    9) = (   0.3333333   0.3333333   0.0000000), wk =   0.0740741
        k(   10) = (   0.3333333   0.3333333   0.3333333), wk =   0.0740741
        k(   11) = (   0.3333333   0.3333333  -0.3333333), wk =   0.0740741
        k(   12) = (   0.3333333  -0.3333333   0.0000000), wk =   0.0740741
        k(   13) = (   0.3333333  -0.3333333   0.3333333), wk =   0.0740741
        k(   14) = (   0.3333333  -0.3333333  -0.3333333), wk =   0.0740741

     Check: negative core charge=   -0.000057
     Generating pointlists ...
     new r_m :   0.1689 (alat units)  1.5447 (a.u.) for type    1
     new r_m :   0.2188 (alat units)  2.0002 (a.u.) for type    2
     new r_m :   0.1239 (alat units)  1.1330 (a.u.) for type    3
     new r_m :   0.1239 (alat units)  1.1330 (a.u.) for type    4

     Initial potential from superposition of free atoms

     starting charge      94.9992, renormalised to      95.0000
     Starting wfcs are   63 randomized atomic wfcs +    1 random wfcs
     Checking if some PAW data can be deallocated...

     Self-consistent Calculation

     iteration #  1     ecut=    30.00 Ry     beta= 0.70
     Davidson diagonalization with overlap

     ethr =  1.00E-02,  avg # of iterations =  5.4

     negative rho (up, down):  0.000E+00 8.319E-04

     total energy              =    -995.62973869 Ry
     estimated scf accuracy    <       3.19213146 Ry

     total magnetization       =     5.00 Bohr mag/cell
     absolute magnetization    =     5.00 Bohr mag/cell

[...]

     total energy              =    -996.90304453 Ry
     estimated scf accuracy    <       0.00000102 Ry

[...]

     iteration # 13     ecut=    30.00 Ry     beta= 0.70
     Davidson diagonalization with overlap

     ethr =  1.07E-09,  avg # of iterations =  3.7

     negative rho (up, down):  0.000E+00 1.132E-03

     Magnetic moment per site  (integrated on atomic sphere of radius R)
     atom   1 (R=0.169)  charge= 13.0689  magn=  3.7132
     atom   2 (R=0.219)  charge= 16.8922  magn=  0.0287
     atom   3 (R=0.124)  charge=  1.1936  magn=  0.0072
     atom   4 (R=0.124)  charge=  1.1936  magn=  0.0072
     atom   5 (R=0.124)  charge=  3.9755  magn=  0.0389
     atom   6 (R=0.124)  charge=  3.9755  magn=  0.0389
     atom   7 (R=0.124)  charge=  3.9743  magn=  0.1001
     atom   8 (R=0.124)  charge=  3.9743  magn=  0.1001
     atom   9 (R=0.124)  charge=  3.9744  magn=  0.1001
     atom  10 (R=0.124)  charge=  3.9744  magn=  0.1001
     atom  11 (R=0.124)  charge=  3.9970  magn=  0.1040
     atom  12 (R=0.124)  charge=  3.9970  magn=  0.1040

     End of self-consistent calculation

 ------ SPIN UP ------------

          k = 0.0000 0.0000 0.0000 (  2995 PWs)   bands (ev):

   -86.1111 -85.1374 -51.6559 -51.6265 -51.5028 -48.2045 -48.1948 -48.1837
   -18.7993 -18.6432 -14.8594 -14.6317 -14.5375 -14.5244 -14.5191 -14.4548
    -5.6644  -4.7978  -2.9732  -2.7301  -2.4032  -1.9620  -1.8552  -1.3547
    -0.5669  -0.0859   0.1472   0.8408   1.1580   1.1904   1.4323   1.5142
     1.6193   2.1149   2.1553   2.3268   2.3900   2.6207   3.0215   3.3679
     3.3778   3.4426   3.6537   3.7187   4.0626   4.0833   4.1442   4.2876
     4.3864   4.8040   8.3075  11.9491  12.0097  12.3987  12.7745  12.9647
    13.5686  13.6549  14.0117  14.0756  14.1922  15.2727  16.3876  17.2385

     occupation numbers
     1.0000   1.0000   1.0000   1.0000   1.0000   1.0000   1.0000   1.0000
     1.0000   1.0000   1.0000   1.0000   1.0000   1.0000   1.0000   1.0000
     1.0000   1.0000   1.0000   1.0000   1.0000   1.0000   1.0000   1.0000
     1.0000   1.0000   1.0000   1.0000   1.0000   1.0000   1.0000   1.0000
     1.0000   1.0000   1.0000   1.0000   1.0000   1.0000   1.0000   1.0000
     1.0000   1.0000   1.0000   1.0000   1.0000   1.0000   1.0000   1.0000
     1.0000   1.0000   0.0000   0.0000   0.0000   0.0000   0.0000   0.0000
     0.0000   0.0000   0.0000   0.0000   0.0000   0.0000   0.0000   0.0000

[...]

 ------ SPIN DOWN ----------

[...]

          k = 0.3333-0.5170-0.2151 (  2998 PWs)   bands (ev):

   -85.1205 -81.3881 -48.1779 -48.1689 -48.1671 -47.0735 -47.0487 -46.9809
   -18.5430 -18.5339 -14.6669 -14.6180 -14.5109 -14.4018 -14.3426 -14.3300
    -4.4771  -4.4586  -2.8844  -2.0671  -2.0393  -1.9180  -1.4013  -1.2285
     0.5773   0.9268   1.0243   1.1088   1.2912   1.5773   1.6487   1.7598
     2.1562   2.2098   3.1306   3.2194   3.3626   3.4793   3.5502   3.6271
     3.8558   3.9450   4.0807   4.2702   4.6706   5.5053   5.7175   5.7672
     6.4981   6.8571   9.6657  12.5895  12.6544  12.9091  13.1297  13.4168
    13.7779  13.8546  13.9583  14.2408  14.5198  15.3733  15.6682  15.8247

     occupation numbers
     1.0000   1.0000   1.0000   1.0000   1.0000   1.0000   1.0000   1.0000
     1.0000   1.0000   1.0000   1.0000   1.0000   1.0000   1.0000   1.0000
     1.0000   1.0000   1.0000   1.0000   1.0000   1.0000   1.0000   1.0000
     1.0000   1.0000   1.0000   1.0000   1.0000   1.0000   1.0000   1.0000
     1.0000   1.0000   1.0000   1.0000   1.0000   1.0000   1.0000   1.0000
     1.0000   1.0000   1.0000   1.0000   1.0000   0.0000   0.0000   0.0000
     0.0000   0.0000   0.0000   0.0000   0.0000   0.0000   0.0000   0.0000
     0.0000   0.0000   0.0000   0.0000   0.0000   0.0000   0.0000   0.0000

     highest occupied, lowest unoccupied level (ev):     4.8040    5.3302

!    total energy              =    -996.90304484 Ry
     estimated scf accuracy    <       0.00000011 Ry

     The total energy is the sum of the following terms:
     one-electron contribution =    -535.42154344 Ry
     hartree contribution      =     307.89386470 Ry
     xc contribution           =    -138.89460230 Ry
     ewald contribution        =    -478.20986491 Ry
     one-center paw contrib.   =    -152.27089888 Ry
      -> PAW hartree energy AE =     201.17011772 Ry
      -> PAW hartree energy PS =    -200.37964852 Ry
      -> PAW xc energy AE      =    -110.91995220 Ry
      -> PAW xc energy PS      =      34.05565914 Ry
      -> total E_H with PAW    =     308.68433390 Ry
      -> total E_XC with PAW   =    -215.75889537 Ry

     total magnetization       =     5.00 Bohr mag/cell
     absolute magnetization    =     5.05 Bohr mag/cell

     convergence has been achieved in  13 iterations

     Writing all to output data dir bands_nm_v2/myprefix.save/

     General routines

     Parallel routines

     PAW routines

   This run was terminated on:   0:54:55  17Jul2023

   JOB DONE.