     Program PWSCF v.7.1 starts on 14Jul2023 at 21: 3:28

     Reading input from espresso_21902.pwi
Warning: card &CELL ignored
Warning: card / ignored

     Current dimensions of program PWSCF are:
     Max number of different atomic species (ntypx) = 10
     Max number of k-points (npk) =  40000
     Max angular momentum in pseudopotentials (lmaxx) =  4
     file Cd.pbe-dn-rrkjus_psl.0.3.1.UPF: wavefunction(s)  4D renormalized
     Message from routine setup:
     using ibrav=0 with symmetry is DISCOURAGED, use correct ibrav instead

     K-points division:     npool     =       2
     R & G space division:  proc/nbgrp/npool/nimage =       4
     Subspace diagonalization in iterative solution of the eigenvalue problem:
     a serial algorithm will be used

     Using Slab Decomposition

     bravais-lattice index     =            0
     lattice parameter (alat)  =      14.1041  a.u.
     unit-cell volume          =    4253.6110 (a.u.)^3
     number of atoms/cell      =           14
     number of atomic types    =            4
     number of electrons       =       116.00
     number of Kohn-Sham states=           64
     kinetic-energy cutoff     =      30.0000  Ry
     charge density cutoff     =     240.0000  Ry
     scf convergence threshold =      1.0E-06
     mixing beta               =       0.7000
     number of iterations used =            8  plain     mixing
     Exchange-correlation=  SLA  PW   PBX  PBC
                           (   1   4   3   4   0   0   0)

     celldm(1)=  14.104128  celldm(2)=   0.000000  celldm(3)=   0.000000
     celldm(4)=   0.000000  celldm(5)=   0.000000  celldm(6)=   0.000000

     crystal axes: (cart. coord. in units of alat)
               a(1) = (   1.000000   0.000000   0.000000 )
               a(2) = (  -0.335197   0.942148   0.000000 )
               a(3) = (   0.000000   0.000000   1.609162 )

     reciprocal axes: (cart. coord. in units 2 pi/alat)
               b(1) = (  1.000000  0.355780  0.000000 )
               b(2) = (  0.000000  1.061404  0.000000 )
               b(3) = (  0.000000  0.000000  0.621441 )

     PseudoPot. # 1 for Rb read from file:
     /lustre07/scratch/pragov/crystal_structure_design/utils/SSSP/Rb_ONCV_PBE-1.0.oncvpsp.upf
     MD5 check sum: 55a5172d6bfbce6759a58e35d43f6aa9
     Pseudo is Norm-conserving, Zval =  9.0
     Generated using ONCVPSP code by D. R. Hamann
     Using radial grid of 2308 points,  6 beta functions with:
                l(1) =   0
                l(2) =   0
                l(3) =   1
                l(4) =   1
                l(5) =   2
                l(6) =   2

     PseudoPot. # 2 for Cd read from file:
     /lustre07/scratch/pragov/crystal_structure_design/utils/SSSP/Cd.pbe-dn-rrkjus_psl.0.3.1.UPF
     MD5 check sum: 558e9f355611b531a870a69ef6ace9e2
     Pseudo is Ultrasoft + core correction, Zval = 12.0
     Generated using "atomic" code by A. Dal Corso  v.5.0.99 svn rev. 10869
     Using radial grid of 1239 points,  6 beta functions with:
                l(1) =   0
                l(2) =   0
                l(3) =   1
                l(4) =   1
                l(5) =   2
                l(6) =   2
     Q(r) pseudized with 0 coefficients

     PseudoPot. # 3 for I  read from file:
     /lustre07/scratch/pragov/crystal_structure_design/utils/SSSP/I.pbe-n-kjpaw_psl.0.2.UPF
     MD5 check sum: d4ef18d9c8f18dc85e5843bca1e50dc0
     Pseudo is Projector augmented-wave + core cor, Zval =  7.0
     Generated using "atomic" code by A. Dal Corso  v.5.0.99 svn rev. 10869
     Shape of augmentation charge: PSQ
     Using radial grid of 1247 points,  4 beta functions with:
                l(1) =   0
                l(2) =   0
                l(3) =   1
                l(4) =   1
     Q(r) pseudized with 0 coefficients

     PseudoPot. # 4 for Br read from file:
     /lustre07/scratch/pragov/crystal_structure_design/utils/SSSP/br_pbe_v1.4.uspp.F.UPF
     MD5 check sum: d3ffb7b29f6225aa16fe06858fb2a80b
     Pseudo is Ultrasoft + core correction, Zval =  7.0
     Generated by new atomic code, or converted to UPF format
     Using radial grid of  879 points,  6 beta functions with:
                l(1) =   0
                l(2) =   0
                l(3) =   1
                l(4) =   1
                l(5) =   2
                l(6) =   2
     Q(r) pseudized with  8 coefficients,  rinner =    1.100   1.100   1.100
                                                       1.100   1.100

     atomic species   valence    mass     pseudopotential
        Rb             9.00    85.46780     Rb( 1.00)
        Cd            12.00   112.41400     Cd( 1.00)
        I              7.00   126.90447     I ( 1.00)
        Br             7.00    79.90400     Br( 1.00)

      2 Sym. Ops. (no inversion) found ( 1 have fractional translation)

                                    s                        frac. trans.

      isym =  1     identity

 cryst.   s( 1) = (     1          0          0      )
                  (     0          1          0      )
                  (     0          0          1      )

 cart.    s( 1) = (  1.0000000  0.0000000  0.0000000 )
                  (  0.0000000  1.0000000  0.0000000 )
                  (  0.0000000  0.0000000  1.0000000 )

      isym =  2     inv. 180 deg rotation - cart. axis [0,0,1]

 cryst.   s( 2) = (     1          0          0      )    f =(  0.0000000 )
                  (     0          1          0      )       (  0.0000000 )
                  (     0          0         -1      )       (  0.5000000 )

 cart.    s( 2) = (  1.0000000  0.0000000  0.0000000 )    f =(  0.0000000 )
                  (  0.0000000  1.0000000  0.0000000 )       (  0.0000000 )
                  (  0.0000000  0.0000000 -1.0000000 )       (  0.8045812 )

   Cartesian axes

     site n.     atom                  positions (alat units)
         1           Rb  tau(   1) = (   0.4072276   0.5771165   0.8045812  )
         2           Rb  tau(   2) = (   0.4072276   0.5771165   0.0000000  )
         3           Rb  tau(   3) = (  -0.0495096   0.8422869   0.4022906  )
         4           Rb  tau(   4) = (   0.8101544   0.2356868   1.2068719  )
         5           Cd  tau(   5) = (   0.7471972   0.2816090   0.4022906  )
         6           Cd  tau(   6) = (   0.0148589   0.7983649   1.2068719  )
         7           I   tau(   7) = (  -0.1083315   0.4459460   0.7103937  )
         8           I   tau(   8) = (   0.4564595   0.0474155   0.8987687  )
         9           I   tau(   9) = (  -0.1083315   0.4459460   0.0941875  )
        10           I   tau(  10) = (   0.4564595   0.0474155   1.5149750  )
        11           Br  tau(  11) = (   0.3956272   0.3410896   0.4022906  )
        12           Br  tau(  12) = (   0.1887438   0.4870717   1.2068719  )
        13           Br  tau(  13) = (   0.4609872   0.8715331   0.4022906  )
        14           Br  tau(  14) = (   0.6665915   0.7264536   1.2068719  )

   Crystallographic axes

     site n.     atom                  positions (cryst. coord.)
         1           Rb  tau(   1) = (  0.6125540  0.6125540  0.5000000  )
         2           Rb  tau(   2) = (  0.6125540  0.6125540  0.0000000  )
         3           Rb  tau(   3) = (  0.2501590  0.8940070  0.2500000  )
         4           Rb  tau(   4) = (  0.8940070  0.2501590  0.7500000  )
         5           Cd  tau(   5) = (  0.8473880  0.2989010  0.2500000  )
         6           Cd  tau(   6) = (  0.2989010  0.8473880  0.7500000  )
         7           I   tau(   7) = (  0.0503270  0.4733290  0.4414680  )
         8           I   tau(   8) = (  0.4733290  0.0503270  0.5585320  )
         9           I   tau(   9) = (  0.0503270  0.4733290  0.0585320  )
        10           I   tau(  10) = (  0.4733290  0.0503270  0.9414680  )
        11           Br  tau(  11) = (  0.5169800  0.3620340  0.2500000  )
        12           Br  tau(  12) = (  0.3620340  0.5169800  0.7500000  )
        13           Br  tau(  13) = (  0.7710610  0.9250490  0.2500000  )
        14           Br  tau(  14) = (  0.9250490  0.7710610  0.7500000  )

     number of k points=    10
                       cart. coord. in units 2pi/alat
        k(    1) = (   0.0000000   0.0000000   0.0000000), wk =   0.0740741
        k(    2) = (   0.0000000   0.0000000   0.2071471), wk =   0.1481481
        k(    3) = (   0.0000000   0.3538015   0.0000000), wk =   0.1481481
        k(    4) = (   0.0000000   0.3538015   0.2071471), wk =   0.2962963
        k(    5) = (   0.3333333   0.1185932   0.0000000), wk =   0.1481481
        k(    6) = (   0.3333333   0.1185932   0.2071471), wk =   0.2962963
        k(    7) = (   0.3333333   0.4723947   0.0000000), wk =   0.1481481
        k(    8) = (   0.3333333   0.4723947   0.2071471), wk =   0.2962963
        k(    9) = (   0.3333333  -0.2352082   0.0000000), wk =   0.1481481
        k(   10) = (   0.3333333  -0.2352082   0.2071471), wk =   0.2962963

                       cryst. coord.
        k(    1) = (   0.0000000   0.0000000   0.0000000), wk =   0.0740741
        k(    2) = (   0.0000000   0.0000000   0.3333333), wk =   0.1481481
        k(    3) = (   0.0000000   0.3333333   0.0000000), wk =   0.1481481
        k(    4) = (   0.0000000   0.3333333   0.3333333), wk =   0.2962963
        k(    5) = (   0.3333333   0.0000000   0.0000000), wk =   0.1481481
        k(    6) = (   0.3333333   0.0000000   0.3333333), wk =   0.2962963
        k(    7) = (   0.3333333   0.3333333   0.0000000), wk =   0.1481481
        k(    8) = (   0.3333333   0.3333333   0.3333333), wk =   0.2962963
        k(    9) = (   0.3333333  -0.3333333   0.0000000), wk =   0.1481481
        k(   10) = (   0.3333333  -0.3333333   0.3333333), wk =   0.2962963

     Check: negative core charge=   -0.000001

     Initial potential from superposition of free atoms

     starting charge     115.8908, renormalised to     116.0000
     Starting wfcs are   70 randomized atomic wfcs
     Checking if some PAW data can be deallocated...

     Self-consistent Calculation

     iteration #  1     ecut=    30.00 Ry     beta= 0.70
     Davidson diagonalization with overlap

     ethr =  1.00E-02,  avg # of iterations =  3.0

     Threshold (ethr) on eigenvalues was too large:
     Diagonalizing with lowered threshold

     Davidson diagonalization with overlap

[...]

     total energy              =   -2144.40288087 Ry
     estimated scf accuracy    <       0.25990164 Ry

[...]

     total energy              =   -2144.48278736 Ry
     estimated scf accuracy    <       0.00000377 Ry

     iteration #  7     ecut=    30.00 Ry     beta= 0.70
     Davidson diagonalization with overlap

     ethr =  3.25E-09,  avg # of iterations =  4.0

     End of self-consistent calculation

          k = 0.0000 0.0000 0.0000 ( 11797 PWs)   bands (ev):

   -24.1544 -24.1541 -23.9851 -23.9849 -11.8793 -11.8655 -11.7604 -11.7591
    -9.5539  -9.5126  -9.4911  -9.4135  -8.2655  -8.2588  -8.2573  -8.2154
    -8.2131  -8.1983  -8.0975  -8.0918  -8.0903  -8.0734  -8.0698  -8.0216
    -5.5772  -5.5725  -5.5638  -5.5599  -5.5478  -5.5291  -5.5215  -5.5202
    -5.5184  -5.5138  -1.9089  -1.7033  -0.6016  -0.4497  -0.4428  -0.4118
    -0.1212   0.0117   0.2226   0.2715   0.3113   0.3232   0.3244   0.4463
     0.6221   0.6245   0.6428   0.8443   0.8993   0.9435   1.0233   1.0698
     1.1008   1.1497   4.2946   5.1788   6.2619   6.6344   6.7747   6.8842

     occupation numbers
     1.0000   1.0000   1.0000   1.0000   1.0000   1.0000   1.0000   1.0000
     1.0000   1.0000   1.0000   1.0000   1.0000   1.0000   1.0000   1.0000
     1.0000   1.0000   1.0000   1.0000   1.0000   1.0000   1.0000   1.0000
     1.0000   1.0000   1.0000   1.0000   1.0000   1.0000   1.0000   1.0000
     1.0000   1.0000   1.0000   1.0000   1.0000   1.0000   1.0000   1.0000
     1.0000   1.0000   1.0000   1.0000   1.0000   1.0000   1.0000   1.0000
     1.0000   1.0000   1.0000   1.0000   1.0000   1.0000   1.0000   1.0000
     1.0000   1.0000   0.0000   0.0000   0.0000   0.0000   0.0000   0.0000

[...]

          k = 0.3333-0.2352 0.2071 ( 11779 PWs)   bands (ev):

   -24.1544 -24.1541 -23.9850 -23.9849 -11.8507 -11.8447 -11.7903 -11.7871
    -9.5700  -9.5528  -9.4662  -9.4329  -8.2511  -8.2474  -8.2400  -8.2264
    -8.2079  -8.1975  -8.0790  -8.0759  -8.0714  -8.0631  -8.0456  -8.0295
    -5.5864  -5.5850  -5.5644  -5.5560  -5.5552  -5.5358  -5.5227  -5.5209
    -5.5176  -5.5144  -1.9352  -1.8337  -0.3714  -0.3330  -0.2841  -0.1771
    -0.1479  -0.0165   0.0944   0.1324   0.2302   0.2455   0.4094   0.4231
     0.5470   0.6004   0.6651   0.7479   0.8737   0.8840   0.9166   0.9699
     1.0821   1.0893   4.9458   5.1726   6.5390   6.6455   6.9115   6.9413

     occupation numbers
     1.0000   1.0000   1.0000   1.0000   1.0000   1.0000   1.0000   1.0000
     1.0000   1.0000   1.0000   1.0000   1.0000   1.0000   1.0000   1.0000
     1.0000   1.0000   1.0000   1.0000   1.0000   1.0000   1.0000   1.0000
     1.0000   1.0000   1.0000   1.0000   1.0000   1.0000   1.0000   1.0000
     1.0000   1.0000   1.0000   1.0000   1.0000   1.0000   1.0000   1.0000
     1.0000   1.0000   1.0000   1.0000   1.0000   1.0000   1.0000   1.0000
     1.0000   1.0000   1.0000   1.0000   1.0000   1.0000   1.0000   1.0000
     1.0000   1.0000   0.0000   0.0000   0.0000   0.0000   0.0000   0.0000

     highest occupied, lowest unoccupied level (ev):     1.1497    4.2946

!    total energy              =   -2144.48278910 Ry
     estimated scf accuracy    <       0.00000041 Ry

     The total energy is the sum of the following terms:
     one-electron contribution =    -273.20841811 Ry
     hartree contribution      =     186.26599782 Ry
     xc contribution           =    -387.35448471 Ry
     ewald contribution        =    -388.08589574 Ry
     one-center paw contrib.   =   -1282.09998835 Ry
      -> PAW hartree energy AE =       0.00000000 Ry
      -> PAW hartree energy PS =       0.00000000 Ry
      -> PAW xc energy AE      =       0.00000000 Ry
      -> PAW xc energy PS      =       0.00000000 Ry
      -> total E_H with PAW    =     186.26599782 Ry
      -> total E_XC with PAW   =    -387.35448471 Ry

     convergence has been achieved in   7 iterations

     Writing all to output data dir bands_nm/myprefix.save/

     General routines

     Parallel routines

     PAW routines

   This run was terminated on:  21: 3:57  14Jul2023

   JOB DONE.