     Program PWSCF v.7.1 starts on 15Jul2023 at 22:32:19

     Reading input from espresso_19817.pwi
Warning: card &CELL ignored
Warning: card / ignored

     Current dimensions of program PWSCF are:
     Max number of different atomic species (ntypx) = 10
     Max number of k-points (npk) =  40000
     Max angular momentum in pseudopotentials (lmaxx) =  4
     file O.pbe-n-kjpaw_psl.0.1.UPF: wavefunction(s)  2P renormalized
     Message from routine setup:
     using ibrav=0 with symmetry is DISCOURAGED, use correct ibrav instead

     K-points division:     npool     =       2
     R & G space division:  proc/nbgrp/npool/nimage =       4
     Subspace diagonalization in iterative solution of the eigenvalue problem:
     one sub-group per band group will be used

     Using Slab Decomposition

     bravais-lattice index     =            0
     lattice parameter (alat)  =       8.9642  a.u.
     unit-cell volume          =    1441.3551 (a.u.)^3
     number of atoms/cell      =           18
     number of atomic types    =            3
     number of electrons       =       184.00
     number of Kohn-Sham states=          256
     kinetic-energy cutoff     =      30.0000  Ry
     charge density cutoff     =     240.0000  Ry
     scf convergence threshold =      1.0E-06
     mixing beta               =       0.7000
     number of iterations used =            8  plain     mixing
     Exchange-correlation=  SLA  PW   PBX  PBC
                           (   1   4   3   4   0   0   0)

     celldm(1)=   8.964241  celldm(2)=   0.000000  celldm(3)=   0.000000
     celldm(4)=   0.000000  celldm(5)=   0.000000  celldm(6)=   0.000000

     crystal axes: (cart. coord. in units of alat)
               a(1) = (   1.000000   0.000000   0.000000 )
               a(2) = (   0.000000   1.201181   0.000000 )
               a(3) = (   0.000000   0.082217   1.665797 )

     reciprocal axes: (cart. coord. in units 2 pi/alat)
               b(1) = (  1.000000  0.000000  0.000000 )
               b(2) = (  0.000000  0.832514 -0.041089 )
               b(3) = (  0.000000  0.000000  0.600313 )

     PseudoPot. # 1 for Co read from file:
     /lustre07/scratch/pragov/crystal_structure_design/utils/SSSP/Co_pbe_v1.2.uspp.F.UPF
     MD5 check sum: 5f91765df6ddd3222702df6e7b74a16d
     Pseudo is Ultrasoft + core correction, Zval = 17.0
     Generated by new atomic code, or converted to UPF format
     Using radial grid of  863 points,  6 beta functions with:
                l(1) =   0
                l(2) =   0
                l(3) =   1
                l(4) =   1
                l(5) =   2
                l(6) =   2
     Q(r) pseudized with  8 coefficients,  rinner =    1.200   1.200   1.200
                                                       1.200   1.200

     PseudoPot. # 2 for O  read from file:
     /lustre07/scratch/pragov/crystal_structure_design/utils/SSSP/O.pbe-n-kjpaw_psl.0.1.UPF
     MD5 check sum: 0234752ac141de4415c5fc33072bef88
     Pseudo is Projector augmented-wave + core cor, Zval =  6.0
     Generated using "atomic" code by A. Dal Corso  v.5.0.99 svn rev. 10869
     Shape of augmentation charge: BESSEL
     Using radial grid of 1095 points,  4 beta functions with:
                l(1) =   0
                l(2) =   0
                l(3) =   1
                l(4) =   1
     Q(r) pseudized with 0 coefficients

     PseudoPot. # 3 for F  read from file:
     /lustre07/scratch/pragov/crystal_structure_design/utils/SSSP/f_pbe_v1.4.uspp.F.UPF
     MD5 check sum: 4c38b6a325caf53ec0e86aed9459de46
     Pseudo is Ultrasoft, Zval =  7.0
     Generated by new atomic code, or converted to UPF format
     Using radial grid of  799 points,  4 beta functions with:
                l(1) =   0
                l(2) =   0
                l(3) =   1
                l(4) =   1
     Q(r) pseudized with  8 coefficients,  rinner =    0.950   0.950   0.950

     atomic species   valence    mass     pseudopotential
        Co            17.00    58.93319     Co( 1.00)
        O              6.00    15.99900     O ( 1.00)
        F              7.00    18.99840     F ( 1.00)

      2 Sym. Ops. (no inversion) found ( 1 have fractional translation)

                                    s                        frac. trans.

      isym =  1     identity

 cryst.   s( 1) = (     1          0          0      )
                  (     0          1          0      )
                  (     0          0          1      )

 cart.    s( 1) = (  1.0000000  0.0000000  0.0000000 )
                  (  0.0000000  1.0000000  0.0000000 )
                  (  0.0000000  0.0000000  1.0000000 )

      isym =  2     180 deg rotation - cart. axis [1,0,0]

 cryst.   s( 2) = (     1          0          0      )    f =(  0.5000000 )
                  (     0         -1          0      )       ( -0.0000000 )
                  (     0          0         -1      )       ( -0.0000000 )

 cart.    s( 2) = (  1.0000000  0.0000000  0.0000000 )    f =(  0.5000000 )
                  (  0.0000000 -1.0000000 -0.0000000 )       ( -0.0000000 )
                  (  0.0000000  0.0000000 -1.0000000 )       ( -0.0000000 )

   Cartesian axes

     site n.     atom                  positions (alat units)
         1           Co  tau(   1) = (   0.5147200   0.9763822   1.6431522  )
         2           Co  tau(   2) = (   0.5161580   0.1424202   1.1171468  )
         3           Co  tau(   3) = (   0.4704650   0.5116125   0.5488935  )
         4           Co  tau(   4) = (   0.0161580   1.1409771   0.5486503  )
         5           Co  tau(   5) = (   0.9704650   0.7717848   1.1169036  )
         6           Co  tau(   6) = (   0.0147200   0.3070151   0.0226448  )
         7           O   tau(   7) = (   0.1990120   0.2809696   0.3976491  )
         8           O   tau(   8) = (   0.6990120   1.0024278   1.2681480  )
         9           F   tau(   9) = (   0.1974840   1.0979210   0.9365644  )
        10           F   tau(  10) = (   0.1957390   0.7308092   1.4928690  )
        11           F   tau(  11) = (   0.3080780   0.8738010   0.3756639  )
        12           F   tau(  12) = (   0.2989750   0.1287611   1.4941450  )
        13           F   tau(  13) = (   0.2993700   0.5095378   0.9579966  )
        14           F   tau(  14) = (   0.6974840   0.1854764   0.7292327  )
        15           F   tau(  15) = (   0.6957390   0.5525881   0.1729281  )
        16           F   tau(  16) = (   0.8080780   0.4095963   1.2901332  )
        17           F   tau(  17) = (   0.7989750   1.1546362   0.1716521  )
        18           F   tau(  18) = (   0.7993700   0.7738595   0.7078005  )

   Crystallographic axes

     site n.     atom                  positions (cryst. coord.)
         1           Co  tau(   1) = (  0.5147200  0.7453360  0.9864060  )
         2           Co  tau(   2) = (  0.5161580  0.0726640  0.6706380  )
         3           Co  tau(   3) = (  0.4704650  0.4033710  0.3295080  )
         4           Co  tau(   4) = (  0.0161580  0.9273360  0.3293620  )
         5           Co  tau(   5) = (  0.9704650  0.5966290  0.6704920  )
         6           Co  tau(   6) = (  0.0147200  0.2546640  0.0135940  )
         7           O   tau(   7) = (  0.1990120  0.2175720  0.2387140  )
         8           O   tau(   8) = (  0.6990120  0.7824280  0.7612860  )
         9           F   tau(   9) = (  0.1974840  0.8755520  0.5622320  )
        10           F   tau(  10) = (  0.1957390  0.5470680  0.8961890  )
        11           F   tau(  11) = (  0.3080780  0.7120160  0.2255160  )
        12           F   tau(  12) = (  0.2989750  0.0458020  0.8969550  )
        13           F   tau(  13) = (  0.2993700  0.3848340  0.5750980  )
        14           F   tau(  14) = (  0.6974840  0.1244480  0.4377680  )
        15           F   tau(  15) = (  0.6957390  0.4529320  0.1038110  )
        16           F   tau(  16) = (  0.8080780  0.2879840  0.7744840  )
        17           F   tau(  17) = (  0.7989750  0.9541980  0.1030450  )
        18           F   tau(  18) = (  0.7993700  0.6151660  0.4249020  )

     number of k points=    10
                       cart. coord. in units 2pi/alat
        k(    1) = (   0.0000000   0.0000000   0.0000000), wk =   0.0740741
        k(    2) = (   0.0000000   0.0000000   0.2001044), wk =   0.1481481
        k(    3) = (   0.0000000   0.2775047  -0.0136965), wk =   0.1481481
        k(    4) = (   0.0000000   0.2775047   0.1864079), wk =   0.1481481
        k(    5) = (   0.0000000   0.2775047  -0.2138009), wk =   0.1481481
        k(    6) = (   0.3333333   0.0000000   0.0000000), wk =   0.1481481
        k(    7) = (   0.3333333   0.0000000   0.2001044), wk =   0.2962963
        k(    8) = (   0.3333333   0.2775047  -0.0136965), wk =   0.2962963
        k(    9) = (   0.3333333   0.2775047   0.1864079), wk =   0.2962963
        k(   10) = (   0.3333333   0.2775047  -0.2138009), wk =   0.2962963

                       cryst. coord.
        k(    1) = (   0.0000000   0.0000000   0.0000000), wk =   0.0740741
        k(    2) = (   0.0000000   0.0000000   0.3333333), wk =   0.1481481
        k(    3) = (   0.0000000   0.3333333   0.0000000), wk =   0.1481481
        k(    4) = (   0.0000000   0.3333333   0.3333333), wk =   0.1481481
        k(    5) = (   0.0000000   0.3333333  -0.3333333), wk =   0.1481481
        k(    6) = (   0.3333333   0.0000000   0.0000000), wk =   0.1481481
        k(    7) = (   0.3333333   0.0000000   0.3333333), wk =   0.2962963
        k(    8) = (   0.3333333   0.3333333   0.0000000), wk =   0.2962963
        k(    9) = (   0.3333333   0.3333333   0.3333333), wk =   0.2962963
        k(   10) = (   0.3333333   0.3333333  -0.3333333), wk =   0.2962963

     Check: negative core charge=   -0.000018

     Initial potential from superposition of free atoms

     starting charge     178.0000, renormalised to     184.0000
     Starting wfcs are  126 randomized atomic wfcs +  130 random wfcs
     Checking if some PAW data can be deallocated...

     Self-consistent Calculation

     iteration #  1     ecut=    30.00 Ry     beta= 0.70
     Davidson diagonalization with overlap

     ethr =  1.00E-02,  avg # of iterations =  6.0

     total energy              =   -2344.31868340 Ry
     estimated scf accuracy    <      22.86186251 Ry

[...]

     total energy              =   -2359.76129418 Ry
     estimated scf accuracy    <       0.00000227 Ry

     iteration # 19     ecut=    30.00 Ry     beta= 0.70
     Davidson diagonalization with overlap

     ethr =  1.23E-09,  avg # of iterations =  1.0

     End of self-consistent calculation

          k = 0.0000 0.0000 0.0000 (  4017 PWs)   bands (ev):

   -88.4122 -88.4122 -88.2886 -88.2885 -88.2544 -88.2539 -51.8928 -51.8919
   -51.6642 -51.6625 -51.6439 -51.6420 -51.6233 -51.6224 -51.5314 -51.5300
   -51.5107 -51.5106 -51.4901 -51.4895 -51.4525 -51.4509 -51.3931 -51.3914
   -17.4267 -17.1492 -17.1167 -16.9897 -16.9559 -16.9205 -16.8482 -16.8233
   -16.4541 -16.3556 -11.5957 -11.5704  -0.9417  -0.1276  -0.0623   0.2131
     0.2511   0.2938   0.3659   0.4743   0.5618   0.5823   0.8210   0.8524
     0.9013   0.9848   1.1163   1.1760   1.2524   1.2661   1.2911   1.4637
     1.6084   1.6387   1.7390   1.7704   1.9281   2.3106   2.3157   2.4092
     2.5108   2.5552   2.8432   2.8504   2.9584   3.1555   3.8489   3.8505
     5.6370   5.6482   5.6488   5.6797   5.7131   5.7133   5.8101   5.8306
     5.8648   5.9323   5.9370   6.0146   6.0241   6.1147   6.1618   6.2669
     6.3674   6.5255   6.5447   6.6651   6.6721   6.7534   6.8975   7.2260
     7.3334   7.4854   7.6468   7.6840   7.9267   8.1109   9.7990  13.1047
    13.2256  14.9739  15.1651  15.2221  15.3621  16.2872  16.6182  16.8585
    17.5106  17.7953  18.0963  18.3667  18.5675  18.5875  19.0042  19.3663
    19.7351  19.7415  19.9306  20.0979  20.1316  20.4539  20.7148  20.7556
    20.8321  21.3555  21.4327  21.8290  21.9851  22.2732  23.0393  23.0825
    24.0808  24.4495  24.5130  25.3116  26.1913  26.3546  28.2575  28.3138
    28.4406  28.6315  28.7731  29.0645  29.1101  29.3305  29.5969  29.6163
    29.8704  29.9332  30.4510  30.4521  30.5854  30.6316  31.2250  31.3371
    31.4376  31.5256  31.5518  31.8589  31.9159  32.1899  32.2395  32.3625
    32.5821  32.5915  33.8905  34.4136  34.4375  34.4723  34.6233  34.9022
    35.0453  35.7279  35.8347  35.9190  36.0009  36.2218  36.2785  36.4555
    36.5500  37.8603  37.9212  38.2338  38.2732  38.5459  38.8113  38.8735
    39.0751  39.4277  39.6103  39.6171  39.8430  39.8694  39.9976  40.1391
    40.4790  40.6060  40.6677  40.9022  41.1173  41.3456  41.3771  41.5858
    41.6337  42.2888  42.3725  42.6527  42.7059  42.8120  42.9158  43.0325
    43.0631  43.3914  43.4404  43.4997  43.6616  43.8405  44.0929  44.1345
    44.3132  44.6185  45.0855  45.4748  45.6541  46.1542  46.5772  47.0963
    47.3151  47.5564  47.6267  47.9557  48.0470  48.1235  48.4703  48.7277
    48.8233  48.8408  48.9670  49.1196  49.3757  49.3902  49.6068  49.8147
    49.9029  49.9717  50.0298  50.1595  50.6693  50.7146  50.8616  51.0205

     occupation numbers
     1.0000   1.0000   1.0000   1.0000   1.0000   1.0000   1.0000   1.0000
     1.0000   1.0000   1.0000   1.0000   1.0000   1.0000   1.0000   1.0000
     1.0000   1.0000   1.0000   1.0000   1.0000   1.0000   1.0000   1.0000
     1.0000   1.0000   1.0000   1.0000   1.0000   1.0000   1.0000   1.0000
     1.0000   1.0000   1.0000   1.0000   1.0000   1.0000   1.0000   1.0000
     1.0000   1.0000   1.0000   1.0000   1.0000   1.0000   1.0000   1.0000
     1.0000   1.0000   1.0000   1.0000   1.0000   1.0000   1.0000   1.0000
     1.0000   1.0000   1.0000   1.0000   1.0000   1.0000   1.0000   1.0000
     1.0000   1.0000   1.0000   1.0000   1.0000   1.0000   1.0000   1.0000
     1.0000   1.0000   1.0000   1.0000   1.0000   1.0000   1.0000   1.0000
     1.0000   1.0000   1.0000   1.0000   1.0000   1.0000   1.0000   1.0000
     1.0000   1.0000   1.0000   1.0000   0.0000   0.0000   0.0000   0.0000
     0.0000   0.0000   0.0000   0.0000   0.0000   0.0000   0.0000   0.0000
     0.0000   0.0000   0.0000   0.0000   0.0000   0.0000   0.0000   0.0000
     0.0000   0.0000   0.0000   0.0000   0.0000   0.0000   0.0000   0.0000
     0.0000   0.0000   0.0000   0.0000   0.0000   0.0000   0.0000   0.0000
     0.0000   0.0000   0.0000   0.0000   0.0000   0.0000   0.0000   0.0000
     0.0000   0.0000   0.0000   0.0000   0.0000   0.0000   0.0000   0.0000
     0.0000   0.0000   0.0000   0.0000   0.0000   0.0000   0.0000   0.0000
     0.0000   0.0000   0.0000   0.0000   0.0000   0.0000   0.0000   0.0000
     0.0000   0.0000   0.0000   0.0000   0.0000   0.0000   0.0000   0.0000
     0.0000   0.0000   0.0000   0.0000   0.0000   0.0000   0.0000   0.0000
     0.0000   0.0000   0.0000   0.0000   0.0000   0.0000   0.0000   0.0000
     0.0000   0.0000   0.0000   0.0000   0.0000   0.0000   0.0000   0.0000
     0.0000   0.0000   0.0000   0.0000   0.0000   0.0000   0.0000   0.0000
     0.0000   0.0000   0.0000   0.0000   0.0000   0.0000   0.0000   0.0000
     0.0000   0.0000   0.0000   0.0000   0.0000   0.0000   0.0000   0.0000
     0.0000   0.0000   0.0000   0.0000   0.0000   0.0000   0.0000   0.0000
     0.0000   0.0000   0.0000   0.0000   0.0000   0.0000   0.0000   0.0000
     0.0000   0.0000   0.0000   0.0000   0.0000   0.0000   0.0000   0.0000
     0.0000   0.0000   0.0000   0.0000   0.0000   0.0000   0.0000   0.0000
     0.0000   0.0000   0.0000   0.0000   0.0000   0.0000   0.0000   0.0000

[...]

          k = 0.3333 0.2775-0.2138 (  4011 PWs)   bands (ev):

   -88.4123 -88.4121 -88.2887 -88.2885 -88.2543 -88.2540 -51.8937 -51.8930
   -51.6616 -51.6603 -51.6418 -51.6405 -51.6210 -51.6196 -51.5322 -51.5313
   -51.5118 -51.5113 -51.4914 -51.4907 -51.4533 -51.4522 -51.3928 -51.3925
   -17.2585 -17.1686 -17.1115 -17.0308 -17.0010 -16.9300 -16.8575 -16.8418
   -16.4532 -16.3917 -11.5959 -11.5914  -0.4408  -0.3582  -0.2404  -0.1370
     0.0214   0.2294   0.3667   0.5087   0.6327   0.7414   0.8870   0.9160
     0.9471   1.0473   1.1652   1.1969   1.2803   1.3954   1.4751   1.5688
     1.6971   1.7731   1.8497   2.0262   2.0756   2.1117   2.1826   2.3377
     2.3942   2.4645   2.6298   2.7154   2.8278   2.9060   3.6137   3.6585
     5.6603   5.6864   5.6937   5.7452   5.7748   5.8029   5.8508   5.8669
     5.8994   5.9326   5.9960   6.0228   6.0613   6.0912   6.1580   6.2158
     6.4408   6.6470   6.6863   6.7377   6.7706   6.8969   6.9358   7.0484
     7.2023   7.2523   7.5012   7.5380   7.7145   7.8624  12.2025  12.9251
    13.5832  14.3237  14.5245  15.0162  15.4919  15.6449  16.1025  16.4919
    17.0494  17.2547  17.6992  18.2422  18.5124  19.1745  19.1971  19.7567
    19.8467  19.9173  20.1710  20.4165  20.6606  20.9047  21.0285  21.2084
    21.6076  21.7547  22.0729  22.2453  22.3619  22.8748  23.1101  24.0367
    24.0640  24.3132  24.4366  24.6420  24.9670  25.4402  26.3029  26.5610
    26.6483  26.9416  27.7778  28.0654  28.3126  28.8040  28.9333  29.3385
    29.5394  29.7226  30.0497  30.6970  30.8507  30.9631  31.0658  31.2231
    31.5365  31.8371  32.0745  32.1838  32.3232  32.7320  33.0742  33.5989
    33.8019  33.9354  34.0863  34.2878  34.5417  34.8882  35.4270  35.5219
    35.6665  35.8195  36.0319  36.1459  36.3087  36.4978  36.6949  36.8558
    37.1183  37.2751  37.5313  37.7552  38.0391  38.2829  38.5205  38.7282
    38.8989  38.9762  39.1731  39.5148  40.2250  40.3551  40.6434  40.8239
    40.8866  41.0344  41.2146  41.3995  41.5437  41.6320  41.7351  41.8928
    42.0875  42.1867  42.2572  42.4704  42.6509  42.7509  43.0242  43.1369
    43.3893  43.6526  43.8079  43.8748  44.0641  44.2370  44.4117  44.9403
    45.0153  45.4147  45.5635  45.8582  45.9516  46.1696  46.3324  46.4219
    46.6439  46.8483  47.0072  47.1855  47.3175  47.6871  47.9266  48.0262
    48.1764  48.4783  48.5528  48.6228  48.7905  49.0327  49.2155  49.4035
    49.5696  49.7039  49.8637  50.0775  50.3508  50.5143  50.7336  50.9330

     occupation numbers
     1.0000   1.0000   1.0000   1.0000   1.0000   1.0000   1.0000   1.0000
     1.0000   1.0000   1.0000   1.0000   1.0000   1.0000   1.0000   1.0000
     1.0000   1.0000   1.0000   1.0000   1.0000   1.0000   1.0000   1.0000
     1.0000   1.0000   1.0000   1.0000   1.0000   1.0000   1.0000   1.0000
     1.0000   1.0000   1.0000   1.0000   1.0000   1.0000   1.0000   1.0000
     1.0000   1.0000   1.0000   1.0000   1.0000   1.0000   1.0000   1.0000
     1.0000   1.0000   1.0000   1.0000   1.0000   1.0000   1.0000   1.0000
     1.0000   1.0000   1.0000   1.0000   1.0000   1.0000   1.0000   1.0000
     1.0000   1.0000   1.0000   1.0000   1.0000   1.0000   1.0000   1.0000
     1.0000   1.0000   1.0000   1.0000   1.0000   1.0000   1.0000   1.0000
     1.0000   1.0000   1.0000   1.0000   1.0000   1.0000   1.0000   1.0000
     1.0000   1.0000   1.0000   1.0000   0.0000   0.0000   0.0000   0.0000
     0.0000   0.0000   0.0000   0.0000   0.0000   0.0000   0.0000   0.0000
     0.0000   0.0000   0.0000   0.0000   0.0000   0.0000   0.0000   0.0000
     0.0000   0.0000   0.0000   0.0000   0.0000   0.0000   0.0000   0.0000
     0.0000   0.0000   0.0000   0.0000   0.0000   0.0000   0.0000   0.0000
     0.0000   0.0000   0.0000   0.0000   0.0000   0.0000   0.0000   0.0000
     0.0000   0.0000   0.0000   0.0000   0.0000   0.0000   0.0000   0.0000
     0.0000   0.0000   0.0000   0.0000   0.0000   0.0000   0.0000   0.0000
     0.0000   0.0000   0.0000   0.0000   0.0000   0.0000   0.0000   0.0000
     0.0000   0.0000   0.0000   0.0000   0.0000   0.0000   0.0000   0.0000
     0.0000   0.0000   0.0000   0.0000   0.0000   0.0000   0.0000   0.0000
     0.0000   0.0000   0.0000   0.0000   0.0000   0.0000   0.0000   0.0000
     0.0000   0.0000   0.0000   0.0000   0.0000   0.0000   0.0000   0.0000
     0.0000   0.0000   0.0000   0.0000   0.0000   0.0000   0.0000   0.0000
     0.0000   0.0000   0.0000   0.0000   0.0000   0.0000   0.0000   0.0000
     0.0000   0.0000   0.0000   0.0000   0.0000   0.0000   0.0000   0.0000
     0.0000   0.0000   0.0000   0.0000   0.0000   0.0000   0.0000   0.0000
     0.0000   0.0000   0.0000   0.0000   0.0000   0.0000   0.0000   0.0000
     0.0000   0.0000   0.0000   0.0000   0.0000   0.0000   0.0000   0.0000
     0.0000   0.0000   0.0000   0.0000   0.0000   0.0000   0.0000   0.0000
     0.0000   0.0000   0.0000   0.0000   0.0000   0.0000   0.0000   0.0000

     highest occupied, lowest unoccupied level (ev):     6.7517    6.6721

!    total energy              =   -2359.76129423 Ry
     estimated scf accuracy    <       0.00000006 Ry

     The total energy is the sum of the following terms:
     one-electron contribution =   -1624.43500564 Ry
     hartree contribution      =     893.33306001 Ry
     xc contribution           =    -302.67092160 Ry
     ewald contribution        =   -1306.92735584 Ry
     one-center paw contrib.   =     -19.06107116 Ry
      -> PAW hartree energy AE =       0.00000000 Ry
      -> PAW hartree energy PS =       0.00000000 Ry
      -> PAW xc energy AE      =       0.00000000 Ry
      -> PAW xc energy PS      =       0.00000000 Ry
      -> total E_H with PAW    =     893.33306001 Ry
      -> total E_XC with PAW   =    -302.67092160 Ry

     convergence has been achieved in  19 iterations

     Writing all to output data dir bands_nm/myprefix.save/

     General routines

     Parallel routines

     PAW routines

   This run was terminated on:  22:33:52  15Jul2023

   JOB DONE.