     Program PWSCF v.7.1 starts on 14Jul2023 at  2:12: 8

     Reading input from espresso_6892.pwi
Warning: card &CELL ignored
Warning: card / ignored

     Current dimensions of program PWSCF are:
     Max number of different atomic species (ntypx) = 10
     Max number of k-points (npk) =  40000
     Max angular momentum in pseudopotentials (lmaxx) =  4
     Message from routine setup:
     using ibrav=0 with symmetry is DISCOURAGED, use correct ibrav instead

     K-points division:     npool     =       2
     R & G space division:  proc/nbgrp/npool/nimage =       4
     Subspace diagonalization in iterative solution of the eigenvalue problem:
     a serial algorithm will be used

     Using Slab Decomposition

     bravais-lattice index     =            0
     lattice parameter (alat)  =      11.3635  a.u.
     unit-cell volume          =     670.5739 (a.u.)^3
     number of atoms/cell      =            4
     number of atomic types    =            1
     number of electrons       =        20.00
     number of Kohn-Sham states=           64
     kinetic-energy cutoff     =      30.0000  Ry
     charge density cutoff     =     240.0000  Ry
     scf convergence threshold =      1.0E-06
     mixing beta               =       0.7000
     number of iterations used =            8  plain     mixing
     Exchange-correlation= PBE
                           (   1   4   3   4   0   0   0)

     celldm(1)=  11.363505  celldm(2)=   0.000000  celldm(3)=   0.000000
     celldm(4)=   0.000000  celldm(5)=   0.000000  celldm(6)=   0.000000

     crystal axes: (cart. coord. in units of alat)
               a(1) = (   1.000000   0.000000   0.000000 )
               a(2) = (  -0.810034   0.586383   0.000000 )
               a(3) = (   0.000000   0.000000   0.779343 )

     reciprocal axes: (cart. coord. in units 2 pi/alat)
               b(1) = (  1.000000  1.381408  0.000000 )
               b(2) = (  0.000000  1.705370  0.000000 )
               b(3) = (  0.000000  0.000000  1.283133 )

     PseudoPot. # 1 for As read from file:
     /lustre07/scratch/pragov/crystal_structure_design/utils/SSSP/As.pbe-n-rrkjus_psl.0.2.UPF
     MD5 check sum: 767315de957beeeb34f87d97bf945c8f
     Pseudo is Ultrasoft + core correction, Zval =  5.0
     Generated using "atomic" code by A. Dal Corso  v.5.0.99 svn rev. 10869
     Using radial grid of 1209 points,  4 beta functions with:
                l(1) =   0
                l(2) =   0
                l(3) =   1
                l(4) =   1
     Q(r) pseudized with 0 coefficients

     atomic species   valence    mass     pseudopotential
        As             5.00    74.92159     As( 1.00)

      4 Sym. Ops., with inversion, found ( 2 have fractional translation)

                                    s                        frac. trans.

      isym =  1     identity

 cryst.   s( 1) = (     1          0          0      )
                  (     0          1          0      )
                  (     0          0          1      )

 cart.    s( 1) = (  1.0000000  0.0000000  0.0000000 )
                  (  0.0000000  1.0000000  0.0000000 )
                  (  0.0000000  0.0000000  1.0000000 )

      isym =  2     180 deg rotation - cart. axis [0,0,1]

 cryst.   s( 2) = (    -1          0          0      )    f =( -0.5000000 )
                  (     0         -1          0      )       ( -0.5000000 )
                  (     0          0          1      )       (  0.5000000 )

 cart.    s( 2) = ( -1.0000000 -0.0000000  0.0000000 )    f =( -0.0949830 )
                  (  0.0000000 -1.0000000  0.0000000 )       ( -0.2931914 )
                  (  0.0000000  0.0000000  1.0000000 )       (  0.3896713 )

      isym =  3     inversion

 cryst.   s( 3) = (    -1          0          0      )
                  (     0         -1          0      )
                  (     0          0         -1      )

 cart.    s( 3) = ( -1.0000000 -0.0000000  0.0000000 )
                  (  0.0000000 -1.0000000  0.0000000 )
                  (  0.0000000  0.0000000 -1.0000000 )

      isym =  4     inv. 180 deg rotation - cart. axis [0,0,1]

 cryst.   s( 4) = (     1          0          0      )    f =(  0.5000000 )
                  (     0          1          0      )       ( -0.5000000 )
                  (     0          0         -1      )       ( -0.5000000 )

 cart.    s( 4) = (  1.0000000  0.0000000  0.0000000 )    f =(  0.9050170 )
                  (  0.0000000  1.0000000  0.0000000 )       ( -0.2931914 )
                  (  0.0000000  0.0000000 -1.0000000 )       ( -0.3896713 )

   Cartesian axes

     site n.     atom                  positions (alat units)
         1           As  tau(   1) = (  -0.6183007   0.5242685   0.0534863  )
         2           As  tau(   2) = (   0.8082667   0.0621144   0.7258563  )
         3           As  tau(   3) = (  -0.0967503   0.3553058   0.4431576  )
         4           As  tau(   4) = (   0.2867163   0.2310771   0.3361850  )

   Crystallographic axes

     site n.     atom                  positions (cryst. coord.)
         1           As  tau(   1) = (  0.1059280  0.8940720  0.0686300  )
         2           As  tau(   2) = (  0.8940720  0.1059280  0.9313700  )
         3           As  tau(   3) = (  0.3940720  0.6059280  0.5686300  )
         4           As  tau(   4) = (  0.6059280  0.3940720  0.4313700  )

     number of k points=    10
                       cart. coord. in units 2pi/alat
        k(    1) = (   0.0000000   0.0000000   0.0000000), wk =   0.0740741
        k(    2) = (   0.0000000   0.0000000   0.4277109), wk =   0.1481481
        k(    3) = (   0.0000000   0.5684568   0.0000000), wk =   0.1481481
        k(    4) = (   0.0000000   0.5684568   0.4277109), wk =   0.2962963
        k(    5) = (   0.3333333   0.4604693   0.0000000), wk =   0.1481481
        k(    6) = (   0.3333333   0.4604693   0.4277109), wk =   0.2962963
        k(    7) = (   0.3333333   1.0289261   0.0000000), wk =   0.1481481
        k(    8) = (   0.3333333   1.0289261   0.4277109), wk =   0.2962963
        k(    9) = (   0.3333333  -0.1079875   0.0000000), wk =   0.1481481
        k(   10) = (   0.3333333  -0.1079875   0.4277109), wk =   0.2962963

                       cryst. coord.
        k(    1) = (   0.0000000   0.0000000   0.0000000), wk =   0.0740741
        k(    2) = (   0.0000000   0.0000000   0.3333333), wk =   0.1481481
        k(    3) = (   0.0000000   0.3333333   0.0000000), wk =   0.1481481
        k(    4) = (   0.0000000   0.3333333   0.3333333), wk =   0.2962963
        k(    5) = (   0.3333333   0.0000000   0.0000000), wk =   0.1481481
        k(    6) = (   0.3333333   0.0000000   0.3333333), wk =   0.2962963
        k(    7) = (   0.3333333   0.3333333   0.0000000), wk =   0.1481481
        k(    8) = (   0.3333333   0.3333333   0.3333333), wk =   0.2962963
        k(    9) = (   0.3333333  -0.3333333   0.0000000), wk =   0.1481481
        k(   10) = (   0.3333333  -0.3333333   0.3333333), wk =   0.2962963

     Initial potential from superposition of free atoms

     starting charge      19.9991, renormalised to      20.0000
     Starting wfcs are   16 randomized atomic wfcs +   48 random wfcs

     Self-consistent Calculation

     iteration #  1     ecut=    30.00 Ry     beta= 0.70
     Davidson diagonalization with overlap

     ethr =  1.00E-02,  avg # of iterations =  7.0

     Threshold (ethr) on eigenvalues was too large:
     Diagonalizing with lowered threshold

     Davidson diagonalization with overlap

[...]

     total energy              =     -72.77536046 Ry
     estimated scf accuracy    <       0.03291028 Ry

[...]

     total energy              =     -72.77596170 Ry
     estimated scf accuracy    <       0.00002081 Ry

     iteration #  5     ecut=    30.00 Ry     beta= 0.70
     Davidson diagonalization with overlap

     ethr =  1.04E-07,  avg # of iterations =  1.0

     End of self-consistent calculation

          k = 0.0000 0.0000 0.0000 (  1871 PWs)   bands (ev):

    -8.5390  -6.1311  -3.7210  -0.5433   0.2649   1.8890   2.8632   3.7310
     4.0875   4.8262   7.4057   7.6231   8.0423   8.8401  10.4284  11.0440
    13.0742  13.1753  13.7792  14.0554  14.2748  14.5411  14.8913  15.7193
    16.9561  18.0337  18.2881  20.6056  21.4078  21.6058  22.0705  22.1208
    22.3548  22.4048  23.1957  23.5370  24.3139  24.5385  24.9402  25.7230
    26.0092  26.5714  26.9114  31.3397  31.4952  32.1064  32.1380  32.5241
    33.4327  33.5037  33.9554  34.0159  34.3996  35.6909  35.8747  35.8763
    36.1745  36.3514  36.8174  37.8314  38.0768  38.4183  38.8257  38.9317

     occupation numbers
     1.0000   1.0000   1.0000   1.0000   1.0000   1.0000   1.0000   1.0000
     1.0000   1.0000   0.0000   0.0000   0.0000   0.0000   0.0000   0.0000
     0.0000   0.0000   0.0000   0.0000   0.0000   0.0000   0.0000   0.0000
     0.0000   0.0000   0.0000   0.0000   0.0000   0.0000   0.0000   0.0000
     0.0000   0.0000   0.0000   0.0000   0.0000   0.0000   0.0000   0.0000
     0.0000   0.0000   0.0000   0.0000   0.0000   0.0000   0.0000   0.0000
     0.0000   0.0000   0.0000   0.0000   0.0000   0.0000   0.0000   0.0000
     0.0000   0.0000   0.0000   0.0000   0.0000   0.0000   0.0000   0.0000

[...]

          k = 0.3333-0.1080 0.4277 (  1862 PWs)   bands (ev):

    -7.8786  -6.8192  -3.8788  -2.5583   2.2357   3.1851   3.4694   4.0397
     4.1404   5.4374   6.4235   7.3735   7.9335   8.1207   9.2217   9.2296
    12.2785  12.9948  13.7000  14.7116  15.3709  15.8614  16.8530  16.9079
    18.0894  18.1472  18.4688  18.9791  19.8415  20.0230  21.2191  21.7327
    22.7738  22.9568  23.9388  24.6176  24.8280  25.7400  26.4827  26.5673
    26.9156  26.9286  27.3017  28.0926  28.6218  29.4931  29.7220  30.7370
    31.5650  32.4007  33.0248  33.5668  34.0754  34.1963  34.3434  34.6885
    34.8755  37.9909  38.2542  38.8128  39.0347  39.6081  40.0059  40.0089

     occupation numbers
     1.0000   1.0000   1.0000   1.0000   1.0000   1.0000   1.0000   1.0000
     1.0000   1.0000   0.0000   0.0000   0.0000   0.0000   0.0000   0.0000
     0.0000   0.0000   0.0000   0.0000   0.0000   0.0000   0.0000   0.0000
     0.0000   0.0000   0.0000   0.0000   0.0000   0.0000   0.0000   0.0000
     0.0000   0.0000   0.0000   0.0000   0.0000   0.0000   0.0000   0.0000
     0.0000   0.0000   0.0000   0.0000   0.0000   0.0000   0.0000   0.0000
     0.0000   0.0000   0.0000   0.0000   0.0000   0.0000   0.0000   0.0000
     0.0000   0.0000   0.0000   0.0000   0.0000   0.0000   0.0000   0.0000

     highest occupied, lowest unoccupied level (ev):     5.5362    6.2983

!    total energy              =     -72.77596615 Ry
     estimated scf accuracy    <       0.00000035 Ry

     The total energy is the sum of the following terms:
     one-electron contribution =       8.34003891 Ry
     hartree contribution      =       4.69992857 Ry
     xc contribution           =     -36.61036000 Ry
     ewald contribution        =     -49.20557363 Ry

     convergence has been achieved in   5 iterations

     Writing all to output data dir bands_nm/myprefix.save/

     General routines

     Parallel routines

   This run was terminated on:   2:12:28  14Jul2023

   JOB DONE.