     Program PWSCF v.7.0 starts on  6Jun2023 at 21:13:25

     K-points division:     npool     =       2
     R & G space division:  proc/nbgrp/npool/nimage =       4

     Reading input from espresso_407.pwi
Warning: card &CELL ignored
Warning: card / ignored

     Current dimensions of program PWSCF are:
     Max number of different atomic species (ntypx) = 10
     Max number of k-points (npk) =  40000
     Max angular momentum in pseudopotentials (lmaxx) =  4
     file O.pbe-n-kjpaw_psl.0.1.UPF: wavefunction(s)  2P renormalized
     Message from routine setup:
     using ibrav=0 with symmetry is DISCOURAGED, use correct ibrav instead

     Using Slab Decomposition

     bravais-lattice index     =            0
     lattice parameter (alat)  =      11.2914  a.u.
     unit-cell volume          =    1021.7852 (a.u.)^3
     number of atoms/cell      =           14
     number of atomic types    =            4
     number of electrons       =       118.00
     number of Kohn-Sham states=           64
     kinetic-energy cutoff     =      30.0000  Ry
     charge density cutoff     =     240.0000  Ry
     scf convergence threshold =      1.0E-06
     mixing beta               =       0.7000
     number of iterations used =            8  plain     mixing
     Exchange-correlation= SLA  PW   PBX  PBC
                           (   1   4   3   4   0   0   0)

     celldm(1)=  11.291404  celldm(2)=   0.000000  celldm(3)=   0.000000
     celldm(4)=   0.000000  celldm(5)=   0.000000  celldm(6)=   0.000000

     crystal axes: (cart. coord. in units of alat)
               a(1) = (   1.000000   0.000000   0.000000 )
               a(2) = (  -0.009133   0.999958   0.000000 )
               a(3) = (  -0.475910  -0.519325   0.709797 )

     reciprocal axes: (cart. coord. in units 2 pi/alat)
               b(1) = (  1.000000  0.009134  0.677170 )
               b(2) = (  0.000000  1.000042  0.731684 )
               b(3) = (  0.000000  0.000000  1.408854 )

     PseudoPot. # 1 for Li read from file:
     /home/pragov/projects/rrg-bengioy-ad/pragov/crystal_structure_design/SSSP/li_pbe_v1.4.uspp.F.UPF
     MD5 check sum: e912e257baa3777c20ea3d68f190483c
     Pseudo is Ultrasoft, Zval =  3.0
     Generated by new atomic code, or converted to UPF format
     Using radial grid of  751 points,  5 beta functions with:
                l(1) =   0
                l(2) =   0
                l(3) =   0
                l(4) =   1
                l(5) =   1
     Q(r) pseudized with 10 coefficients,  rinner =    1.150   1.150   1.150

     PseudoPot. # 2 for Mn read from file:
     /home/pragov/projects/rrg-bengioy-ad/pragov/crystal_structure_design/SSSP/mn_pbe_v1.5.uspp.F.UPF
     MD5 check sum: 82ef2b46521d7a7d9e736dc3972e4928
     Pseudo is Ultrasoft + core correction, Zval = 15.0
     Generated by new atomic code, or converted to UPF format
     Using radial grid of  859 points,  6 beta functions with:
                l(1) =   0
                l(2) =   0
                l(3) =   1
                l(4) =   1
                l(5) =   2
                l(6) =   2
     Q(r) pseudized with  8 coefficients,  rinner =    0.950   0.950   0.950
                                                       0.950   0.950

     PseudoPot. # 3 for Rh read from file:
     /home/pragov/projects/rrg-bengioy-ad/pragov/crystal_structure_design/SSSP/Rh_ONCV_PBE-1.0.oncvpsp.upf
     MD5 check sum: ba07c69523b14cacd10683cd4c4284c1
     Pseudo is Norm-conserving, Zval = 17.0
     Generated using ONCVPSP code by D. R. Hamann
     Using radial grid of 1442 points,  6 beta functions with:
                l(1) =   0
                l(2) =   0
                l(3) =   1
                l(4) =   1
                l(5) =   2
                l(6) =   2

     PseudoPot. # 4 for O  read from file:
     /home/pragov/projects/rrg-bengioy-ad/pragov/crystal_structure_design/SSSP/O.pbe-n-kjpaw_psl.0.1.UPF
     MD5 check sum: 0234752ac141de4415c5fc33072bef88
     Pseudo is Projector augmented-wave + core cor, Zval =  6.0
     Generated using "atomic" code by A. Dal Corso  v.5.0.99 svn rev. 10869
     Shape of augmentation charge: BESSEL
     Using radial grid of 1095 points,  4 beta functions with:
                l(1) =   0
                l(2) =   0
                l(3) =   1
                l(4) =   1
     Q(r) pseudized with 0 coefficients

     atomic species   valence    mass     pseudopotential
        Li             3.00     6.94000     Li( 1.00)
        Mn            15.00    54.93804     Mn( 1.00)
        Rh            17.00   102.90550     Rh( 1.00)
        O              6.00    15.99900     O ( 1.00)

      2 Sym. Ops., with inversion, found

                                    s                        frac. trans.

      isym =  1     identity

 cryst.   s( 1) = (     1          0          0      )
                  (     0          1          0      )
                  (     0          0          1      )

 cart.    s( 1) = (  1.0000000  0.0000000 -0.0000000 )
                  (  0.0000000  1.0000000 -0.0000000 )
                  (  0.0000000  0.0000000  1.0000000 )

      isym =  2     inversion

 cryst.   s( 2) = (    -1          0          0      )
                  (     0         -1          0      )
                  (     0          0         -1      )

 cart.    s( 2) = ( -1.0000000 -0.0000000  0.0000000 )
                  (  0.0000000 -1.0000000  0.0000000 )
                  (  0.0000000  0.0000000 -1.0000000 )

   Cartesian axes

     site n.     atom                  positions (alat units)
         1           Li  tau(   1) = (  -0.0017045   0.7453991   0.1774491  )
         2           Li  tau(   2) = (   0.5166616  -0.2647662   0.5323474  )
         3           Mn  tau(   3) = (   0.2574786   0.2403165   0.3548983  )
         4           Mn  tau(   4) = (   0.5000000   0.0000000   0.0000000  )
         5           Rh  tau(   5) = (   0.4954334   0.4999791   0.0000000  )
         6           Rh  tau(   6) = (  -0.2425214   0.2403165   0.3548983  )
         7           O   tau(   7) = (   0.4975904   0.0136761   0.3307702  )
         8           O   tau(   8) = (   0.2711771   0.2380319   0.0241281  )
         9           O   tau(   9) = (   0.7198004   0.2400778   0.0133612  )
        10           O   tau(  10) = (   0.4955398   0.4623004   0.3415371  )
        11           O   tau(  11) = (   0.0173667   0.4669568   0.3790264  )
        12           O   tau(  12) = (   0.2437800   0.2426010   0.6856685  )
        13           O   tau(  13) = (  -0.2048433   0.2405551   0.6964354  )
        14           O   tau(  14) = (   0.0194173   0.0183325   0.3682595  )

   Crystallographic axes

     site n.     atom                  positions (cryst. coord.)
         1           Li  tau(   1) = (  0.1252670  0.8752670  0.2500000  )
         2           Li  tau(   2) = (  0.8747330  0.1247330  0.7500000  )
         3           Mn  tau(   3) = (  0.5000000  0.5000000  0.5000000  )
         4           Mn  tau(   4) = (  0.5000000  0.0000000  0.0000000  )
         5           Rh  tau(   5) = (  0.5000000  0.5000000  0.0000000  )
         6           Rh  tau(   6) = (  0.0000000  0.5000000  0.5000000  )
         7           O   tau(   7) = (  0.7217030  0.2556960  0.4660070  )
         8           O   tau(   8) = (  0.2896900  0.2556960  0.0339930  )
         9           O   tau(   9) = (  0.7310410  0.2498640  0.0188240  )
        10           O   tau(  10) = (  0.7310410  0.7122170  0.4811760  )
        11           O   tau(  11) = (  0.2782970  0.7443040  0.5339930  )
        12           O   tau(  12) = (  0.7103100  0.7443040  0.9660070  )
        13           O   tau(  13) = (  0.2689590  0.7501360  0.9811760  )
        14           O   tau(  14) = (  0.2689590  0.2877830  0.5188240  )

     number of k points=    14
                       cart. coord. in units 2pi/alat
        k(    1) = (   0.0000000   0.0000000   0.0000000), wk =   0.0740741
        k(    2) = (   0.0000000   0.0000000   0.4696181), wk =   0.1481481
        k(    3) = (   0.0000000   0.3333472   0.2438948), wk =   0.1481481
        k(    4) = (   0.0000000   0.3333472   0.7135129), wk =   0.1481481
        k(    5) = (   0.0000000   0.3333472  -0.2257233), wk =   0.1481481
        k(    6) = (   0.3333333   0.0030445   0.2257233), wk =   0.1481481
        k(    7) = (   0.3333333   0.0030445   0.6953415), wk =   0.1481481
        k(    8) = (   0.3333333   0.0030445  -0.2438948), wk =   0.1481481
        k(    9) = (   0.3333333   0.3363918   0.4696181), wk =   0.1481481
        k(   10) = (   0.3333333   0.3363918   0.9392362), wk =   0.1481481
        k(   11) = (   0.3333333   0.3363918  -0.0000000), wk =   0.1481481
        k(   12) = (   0.3333333  -0.3303027  -0.0181714), wk =   0.1481481
        k(   13) = (   0.3333333  -0.3303027   0.4514467), wk =   0.1481481
        k(   14) = (   0.3333333  -0.3303027  -0.4877896), wk =   0.1481481

                       cryst. coord.
        k(    1) = (   0.0000000   0.0000000   0.0000000), wk =   0.0740741
        k(    2) = (   0.0000000   0.0000000   0.3333333), wk =   0.1481481
        k(    3) = (   0.0000000   0.3333333  -0.0000000), wk =   0.1481481
        k(    4) = (   0.0000000   0.3333333   0.3333333), wk =   0.1481481
        k(    5) = (   0.0000000   0.3333333  -0.3333333), wk =   0.1481481
        k(    6) = (   0.3333333   0.0000000  -0.0000000), wk =   0.1481481
        k(    7) = (   0.3333333   0.0000000   0.3333333), wk =   0.1481481
        k(    8) = (   0.3333333   0.0000000  -0.3333333), wk =   0.1481481
        k(    9) = (   0.3333333   0.3333333   0.0000000), wk =   0.1481481
        k(   10) = (   0.3333333   0.3333333   0.3333333), wk =   0.1481481
        k(   11) = (   0.3333333   0.3333333  -0.3333333), wk =   0.1481481
        k(   12) = (   0.3333333  -0.3333333  -0.0000000), wk =   0.1481481
        k(   13) = (   0.3333333  -0.3333333   0.3333333), wk =   0.1481481
        k(   14) = (   0.3333333  -0.3333333  -0.3333333), wk =   0.1481481

     Check: negative core charge=   -0.000023

     Initial potential from superposition of free atoms

     starting charge     116.0975, renormalised to     118.0000
     Starting wfcs are   88 randomized atomic wfcs
     Checking if some PAW data can be deallocated...

     Self-consistent Calculation

     iteration #  1     ecut=    30.00 Ry     beta= 0.70
     Davidson diagonalization with overlap

     ethr =  1.00E-02,  avg # of iterations =  2.0

     total energy              =   -1212.11442406 Ry
     estimated scf accuracy    <       8.60071469 Ry

[...]

     c_bands:  1 eigenvalues not converged
     ethr =  4.93E-08,  avg # of iterations =  7.9

[...]

     total energy              =   -1218.17712719 Ry
     estimated scf accuracy    <       0.00000290 Ry

     iteration # 23     ecut=    30.00 Ry     beta= 0.70
     Davidson diagonalization with overlap

     ethr =  2.16E-09,  avg # of iterations =  1.1

     End of self-consistent calculation

          k = 0.0000 0.0000 0.0000 (  2803 PWs)   bands (ev):

   -70.6329 -70.6263 -69.5456 -69.5383 -39.4472 -39.3749 -39.3372 -39.3139
   -39.2784 -39.2625 -37.5917 -37.5033 -37.3685 -37.3501 -37.3490 -37.3087
   -34.8296 -34.8286 -10.2494  -9.2907  -9.1492  -9.0370  -9.0338  -8.8204
    -8.8147  -8.7846   2.2105   2.7175   2.7462   2.7744   3.3227   3.5389
     4.1386   4.2450   4.2521   4.3394   4.3711   4.5518   5.1369   5.1966
     5.2707   5.9731   6.0336   6.0339   6.3361   6.3839   6.3910   7.0686
     7.1723   7.2566   7.3457   7.3936   8.1536   8.4823   8.6735   8.7158
     9.0189   9.0755   9.1976   9.3258   9.4081   9.4775  11.5784  11.6591

     occupation numbers
     1.0000   1.0000   1.0000   1.0000   1.0000   1.0000   1.0000   1.0000
     1.0000   1.0000   1.0000   1.0000   1.0000   1.0000   1.0000   1.0000
     1.0000   1.0000   1.0000   1.0000   1.0000   1.0000   1.0000   1.0000
     1.0000   1.0000   1.0000   1.0000   1.0000   1.0000   1.0000   1.0000
     1.0000   1.0000   1.0000   1.0000   1.0000   1.0000   1.0000   1.0000
     1.0000   1.0000   1.0000   1.0000   1.0000   1.0000   1.0000   1.0000
     1.0000   1.0000   1.0000   1.0000   1.0000   1.0000   1.0000   1.0000
     1.0000   1.0000   1.0000   0.0000   0.0000   0.0000   0.0000   0.0000

[...]

          k = 0.3333-0.3303-0.4878 (  2826 PWs)   bands (ev):

   -70.6310 -70.6284 -69.5457 -69.5383 -39.4279 -39.3907 -39.3302 -39.3259
   -39.2722 -39.2689 -37.5942 -37.5045 -37.3695 -37.3501 -37.3495 -37.3090
   -34.8295 -34.8290  -9.7646  -9.5864  -9.1815  -9.1379  -9.0201  -8.9037
    -8.8692  -8.8105   2.9036   3.1734   3.3220   3.3993   3.6571   3.8865
     3.8883   3.9012   3.9635   4.3896   4.3962   4.4648   4.5312   4.9689
     5.0849   5.2816   5.4599   5.8057   6.0071   6.0491   6.1271   6.2371
     6.5144   6.8168   8.0237   8.3279   8.5143   8.8413   8.9613   9.0383
     9.1887   9.2926   9.3457   9.4767   9.4806   9.6131  11.2232  11.3100

     occupation numbers
     1.0000   1.0000   1.0000   1.0000   1.0000   1.0000   1.0000   1.0000
     1.0000   1.0000   1.0000   1.0000   1.0000   1.0000   1.0000   1.0000
     1.0000   1.0000   1.0000   1.0000   1.0000   1.0000   1.0000   1.0000
     1.0000   1.0000   1.0000   1.0000   1.0000   1.0000   1.0000   1.0000
     1.0000   1.0000   1.0000   1.0000   1.0000   1.0000   1.0000   1.0000
     1.0000   1.0000   1.0000   1.0000   1.0000   1.0000   1.0000   1.0000
     1.0000   1.0000   1.0000   1.0000   1.0000   1.0000   1.0000   1.0000
     1.0000   1.0000   1.0000   0.0000   0.0000   0.0000   0.0000   0.0000

     highest occupied, lowest unoccupied level (ev):     9.4080    9.2731

!    total energy              =   -1218.17712709 Ry
     estimated scf accuracy    <       0.00000021 Ry

     The total energy is the sum of the following terms:
     one-electron contribution =    -687.47680268 Ry
     hartree contribution      =     394.08329378 Ry
     xc contribution           =    -162.43690380 Ry
     ewald contribution        =    -686.12749398 Ry
     one-center paw contrib.   =     -76.21922042 Ry
      -> PAW hartree energy AE =       0.00000000 Ry
      -> PAW hartree energy PS =       0.00000000 Ry
      -> PAW xc energy AE      =       0.00000000 Ry
      -> PAW xc energy PS      =       0.00000000 Ry
      -> total E_H with PAW    =     394.08329378 Ry
      -> total E_XC with PAW   =    -162.43690380 Ry

     convergence has been achieved in  23 iterations

     Writing all to output data dir calculations_bands/myprefix.save/

     General routines

     Parallel routines

     PAW routines

   This run was terminated on:  21:13:58   6Jun2023

   JOB DONE.