     Program PWSCF v.7.1 starts on 16Jul2023 at 20:53:42

     Reading input from espresso_25945.pwi
Warning: card &CELL ignored
Warning: card / ignored

     Current dimensions of program PWSCF are:
     Max number of different atomic species (ntypx) = 10
     Max number of k-points (npk) =  40000
     Max angular momentum in pseudopotentials (lmaxx) =  4
     file In.pbe-dn-rrkjus_psl.0.2.2.UPF: wavefunction(s)  5S renormalized
     Message from routine setup:
     using ibrav=0 with symmetry is DISCOURAGED, use correct ibrav instead

     K-points division:     npool     =       2
     R & G space division:  proc/nbgrp/npool/nimage =       4
     Subspace diagonalization in iterative solution of the eigenvalue problem:
     one sub-group per band group will be used

     Using Slab Decomposition

     bravais-lattice index     =            0
     lattice parameter (alat)  =      15.1241  a.u.
     unit-cell volume          =    2446.1857 (a.u.)^3
     number of atoms/cell      =           14
     number of atomic types    =            3
     number of electrons       =       140.00
     number of Kohn-Sham states=          256
     kinetic-energy cutoff     =      30.0000  Ry
     charge density cutoff     =     240.0000  Ry
     scf convergence threshold =      1.0E-06
     mixing beta               =       0.7000
     number of iterations used =            8  plain     mixing
     Exchange-correlation= SLA  PW   PBE  PBE
                           (   1   4   3   4   0   0   0)

     celldm(1)=  15.124051  celldm(2)=   0.000000  celldm(3)=   0.000000
     celldm(4)=   0.000000  celldm(5)=   0.000000  celldm(6)=   0.000000

     crystal axes: (cart. coord. in units of alat)
               a(1) = (   1.000000   0.000000   0.000000 )
               a(2) = (   0.500000   0.866025   0.000000 )
               a(3) = (   0.500000   0.288675   0.816497 )

     reciprocal axes: (cart. coord. in units 2 pi/alat)
               b(1) = (  1.000000 -0.577350 -0.408248 )
               b(2) = (  0.000000  1.154701 -0.408248 )
               b(3) = (  0.000000  0.000000  1.224745 )

     PseudoPot. # 1 for Zn read from file:
     /lustre07/scratch/pragov/crystal_structure_design/utils/SSSP/Zn_pbe_v1.uspp.F.UPF
     MD5 check sum: df62231357ef9e81f77b2b3087fa5675
     Pseudo is Ultrasoft, Zval = 20.0
     Generated by new atomic code, or converted to UPF format
     Using radial grid of  943 points,  6 beta functions with:
                l(1) =   0
                l(2) =   0
                l(3) =   1
                l(4) =   1
                l(5) =   2
                l(6) =   2
     Q(r) pseudized with  8 coefficients,  rinner =    1.100   1.100   1.100
                                                       1.100   1.100

     PseudoPot. # 2 for In read from file:
     /lustre07/scratch/pragov/crystal_structure_design/utils/SSSP/In.pbe-dn-rrkjus_psl.0.2.2.UPF
     MD5 check sum: 25e7c42c3b55b68f4bf926be2e7201a4
     Pseudo is Ultrasoft + core correction, Zval = 13.0
     Generated using "atomic" code by A. Dal Corso  v.5.0.99 svn rev. 10869
     Using radial grid of 1241 points,  6 beta functions with:
                l(1) =   0
                l(2) =   0
                l(3) =   1
                l(4) =   1
                l(5) =   2
                l(6) =   2
     Q(r) pseudized with 0 coefficients

     PseudoPot. # 3 for Se read from file:
     /lustre07/scratch/pragov/crystal_structure_design/utils/SSSP/Se_pbe_v1.uspp.F.UPF
     MD5 check sum: 1b3568f3a8ae88f9a2a0ad0698632c85
     Pseudo is Ultrasoft + core correction, Zval =  6.0
     Generated by new atomic code, or converted to UPF format
     Using radial grid of  877 points,  6 beta functions with:
                l(1) =   0
                l(2) =   0
                l(3) =   1
                l(4) =   1
                l(5) =   2
                l(6) =   2
     Q(r) pseudized with  8 coefficients,  rinner =    1.300   1.300   1.300
                                                       1.300   1.300

     atomic species   valence    mass     pseudopotential
        Zn            20.00    65.38000     Zn( 1.00)
        In            13.00   114.81800     In( 1.00)
        Se             6.00    78.97100     Se( 1.00)

     12 Sym. Ops., with inversion, found ( 6 have fractional translation)

                                    s                        frac. trans.

      isym =  1     identity

 cryst.   s( 1) = (     1          0          0      )
                  (     0          1          0      )
                  (     0          0          1      )

 cart.    s( 1) = (  1.0000000  0.0000000  0.0000000 )
                  (  0.0000000  1.0000000  0.0000000 )
                  (  0.0000000  0.0000000  1.0000000 )

      isym =  2     180 deg rotation - cart. axis [1,0,0]

 cryst.   s( 2) = (     1          0          0      )    f =( -0.2500000 )
                  (     1         -1          0      )       ( -0.2500000 )
                  (     1          0         -1      )       ( -0.2500000 )

 cart.    s( 2) = (  1.0000000  0.0000000  0.0000000 )    f =( -0.5000000 )
                  (  0.0000000 -1.0000000  0.0000000 )       ( -0.2886751 )
                  (  0.0000000  0.0000000 -1.0000000 )       ( -0.2041241 )

      isym =  3     120 deg rotation - cryst. axis [0,0,1]

[...]

      isym =  6     180 deg rotation - cryst. axis [1,1,0]

[...]

      isym =  7     inversion

[...]

      isym =  8     inv. 180 deg rotation - cart. axis [1,0,0]

 cryst.   s( 8) = (    -1          0          0      )
                  (    -1          1          0      )
                  (    -1          0          1      )

 cart.    s( 8) = ( -1.0000000  0.0000000  0.0000000 )
                  (  0.0000000  1.0000000  0.0000000 )
                  (  0.0000000  0.0000000  1.0000000 )

      isym =  9     inv. 120 deg rotation - cryst. axis [0,0,1]

 cryst.   s( 9) = (     1         -1          0      )    f =( -0.2500000 )
                  (     1          0          0      )       ( -0.2500000 )
                  (     1          0         -1      )       ( -0.2500000 )

 cart.    s( 9) = (  0.5000000  0.8660254  0.0000000 )    f =( -0.5000000 )
                  ( -0.8660254  0.5000000  0.0000000 )       ( -0.2886751 )
                  (  0.0000000  0.0000000 -1.0000000 )       ( -0.2041241 )

[...]

 cryst.   s(10) = (     0          1          0      )    f =( -0.2500000 )
                  (    -1          1          0      )       ( -0.2500000 )
                  (     0          1         -1      )       ( -0.2500000 )

 cart.    s(10) = (  0.5000000 -0.8660254 -0.0000000 )    f =( -0.5000000 )
                  (  0.8660254  0.5000000  0.0000000 )       ( -0.2886751 )
                  (  0.0000000  0.0000000 -1.0000000 )       ( -0.2041241 )

[...]

 cryst.   s(11) = (     0          1          0      )
                  (     1          0          0      )
                  (     0          0          1      )

 cart.    s(11) = (  0.5000000  0.8660254  0.0000000 )
                  (  0.8660254 -0.5000000 -0.0000000 )
                  (  0.0000000  0.0000000  1.0000000 )

      isym = 12     inv. 180 deg rotation - cryst. axis [1,1,0]

 cryst.   s(12) = (     1         -1          0      )
                  (     0         -1          0      )
                  (     0         -1          1      )

 cart.    s(12) = (  0.5000000 -0.8660254 -0.0000000 )
                  ( -0.8660254 -0.5000000 -0.0000000 )
                  (  0.0000000  0.0000000  1.0000000 )

   Cartesian axes

     site n.     atom                  positions (alat units)
         1           Zn  tau(   1) = (   0.5000000   0.2886751   0.2041241  )
         2           Zn  tau(   2) = (   0.0000000   0.0000000   0.0000000  )
         3           In  tau(   3) = (   0.7500000   0.7216878   0.5103104  )
         4           In  tau(   4) = (   1.0000000   0.2886751   0.5103104  )
         5           In  tau(   5) = (   1.0000000   0.5773503   0.1020621  )
         6           In  tau(   6) = (   1.2500000   0.7216878   0.5103104  )
         7           Se  tau(   7) = (   1.2408230   0.4383116   0.3099331  )
         8           Se  tau(   8) = (   1.0000005   0.8554284   0.3099331  )
         9           Se  tau(   9) = (   1.0000005   0.5773506   0.7031946  )
        10           Se  tau(  10) = (   0.7591780   0.4383116   0.3099331  )
        11           Se  tau(  11) = (   1.2591770   1.0050641   0.7106876  )
        12           Se  tau(  12) = (   1.4999995   0.5879472   0.7106876  )
        13           Se  tau(  13) = (   1.4999995   0.8660251   0.3174261  )
        14           Se  tau(  14) = (   1.7408220   1.0050641   0.7106876  )

   Crystallographic axes

     site n.     atom                  positions (cryst. coord.)
         1           Zn  tau(   1) = (  0.2500000  0.2500000  0.2500000  )
         2           Zn  tau(   2) = (  0.0000000  0.0000000  0.0000000  )
         3           In  tau(   3) = (  0.1250000  0.6250000  0.6250000  )
         4           In  tau(   4) = (  0.6250000  0.1250000  0.6250000  )
         5           In  tau(   5) = (  0.6250000  0.6250000  0.1250000  )
         6           In  tau(   6) = (  0.6250000  0.6250000  0.6250000  )
         7           Se  tau(   7) = (  0.8612340  0.3795890  0.3795890  )
         8           Se  tau(   8) = (  0.3795890  0.8612340  0.3795890  )
         9           Se  tau(   9) = (  0.3795890  0.3795890  0.8612340  )
        10           Se  tau(  10) = (  0.3795890  0.3795890  0.3795890  )
        11           Se  tau(  11) = (  0.3887660  0.8704110  0.8704110  )
        12           Se  tau(  12) = (  0.8704110  0.3887660  0.8704110  )
        13           Se  tau(  13) = (  0.8704110  0.8704110  0.3887660  )
        14           Se  tau(  14) = (  0.8704110  0.8704110  0.8704110  )

     number of k points=     6
                       cart. coord. in units 2pi/alat
        k(    1) = (   0.0000000   0.0000000   0.0000000), wk =   0.0740741
        k(    2) = (   0.0000000   0.0000000   0.4082483), wk =   0.1481481
        k(    3) = (   0.0000000   0.3849002  -0.1360828), wk =   0.4444444
        k(    4) = (   0.0000000   0.3849002   0.2721655), wk =   0.4444444
        k(    5) = (   0.0000000   0.3849002  -0.5443311), wk =   0.4444444
        k(    6) = (   0.3333333  -0.5773503  -0.0000000), wk =   0.4444444

                       cryst. coord.
        k(    1) = (   0.0000000   0.0000000   0.0000000), wk =   0.0740741
        k(    2) = (   0.0000000   0.0000000   0.3333333), wk =   0.1481481
        k(    3) = (   0.0000000   0.3333333  -0.0000000), wk =   0.4444444
        k(    4) = (   0.0000000   0.3333333   0.3333333), wk =   0.4444444
        k(    5) = (   0.0000000   0.3333333  -0.3333333), wk =   0.4444444
        k(    6) = (   0.3333333  -0.3333333   0.0000000), wk =   0.4444444

     Initial potential from superposition of free atoms

     starting charge     139.9843, renormalised to     140.0000
     Starting wfcs are   94 randomized atomic wfcs +  162 random wfcs

     Self-consistent Calculation

     iteration #  1     ecut=    30.00 Ry     beta= 0.70
     Davidson diagonalization with overlap

     ethr =  1.00E-02,  avg # of iterations =  7.2

     Threshold (ethr) on eigenvalues was too large:
     Diagonalizing with lowered threshold

     Davidson diagonalization with overlap

[...]

     total energy              =   -1851.45493751 Ry
     estimated scf accuracy    <       0.58885630 Ry

[...]

     ethr =  3.38E-05,  avg # of iterations =  2.2

[...]

     c_bands:  5 eigenvalues not converged
     c_bands:  4 eigenvalues not converged
     c_bands:  4 eigenvalues not converged
     ethr =  4.87E-06,  avg # of iterations = 30.0

[...]

     total energy              =   -1851.69259854 Ry
     estimated scf accuracy    <       0.00000608 Ry

     iteration #  7     ecut=    30.00 Ry     beta= 0.70
     Davidson diagonalization with overlap

     c_bands:  2 eigenvalues not converged
     ethr =  4.35E-09,  avg # of iterations = 13.3

     End of self-consistent calculation

          k = 0.0000 0.0000 0.0000 (  6855 PWs)   bands (ev):

  -119.5967-119.5956 -73.7072 -73.7072 -73.7072 -73.7036 -73.7036 -73.7036
    -8.3613  -8.3612  -8.3612  -8.0604  -8.0604  -8.0525  -8.0171  -8.0171
    -8.0170  -7.9668  -7.9668  -7.9668  -7.9483  -7.9483  -7.9404  -7.9404
    -7.9404  -7.9038  -7.9037  -7.9036  -7.0742  -6.1773  -6.0192  -6.0191
    -6.0191  -5.3410  -5.3409  -5.3408  -0.4911  -0.4910  -0.4910  -0.4858
    -0.4858  -0.4858  -0.4634  -0.4634  -0.4382  -0.4382  -0.0228   0.4477
     0.4477   0.4478   0.7494   2.2177   2.2177   3.6250   3.6251   3.6251
     4.2111   4.2111   4.2111   5.1687   5.1688   5.1689   5.5654   5.5654
     5.5654   5.7585   5.7585   5.8178   5.8178   5.8179   5.8927   7.0028
     7.0029   7.0029   7.1988   9.2671   9.6344   9.6344   9.6345  10.9594
    10.9594  10.9594  11.5688  11.5688  12.0376  12.0376  12.0376  12.4015
    12.4015  12.8308  12.8308  12.8308  13.8341  14.8835  14.8835  14.8835
    15.1779  15.6876  15.6876  15.6876  16.0966  16.8013  17.0157  17.0157
    17.7072  17.7072  17.8170  17.8170  17.8170  17.8993  17.8993  17.8993
    18.6031  18.6031  18.6032  19.2128  19.2128  19.2128  19.2791  19.2791
    19.6637  19.6638  19.6638  19.7893  19.7893  19.7893  20.3224  20.3224
    20.3224  20.5268  21.0908  21.0908  21.0909  21.3074  21.3074  21.3532
    21.3532  21.3532  21.4091  21.4091  21.4091  21.6885  22.0807  22.0807
    22.0807  22.8698  22.8698  22.8699  23.2381  23.2381  23.9483  25.7709
    26.2471  26.2471  26.2821  26.2821  26.2821  26.3358  26.3358  26.3359
    26.8898  26.8898  26.8898  27.5134  27.5134  27.5134  27.8836  27.8836
    27.8836  28.3087  28.3087  28.3087  28.4329  28.7691  28.7709  28.7709
    28.7709  29.0221  29.0221  29.1200  29.1201  29.1201  29.1400  29.1400
    29.1400  29.3356  29.3356  29.4910  29.4910  29.4910  30.0168  30.2913
    30.2914  30.2914  30.3009  30.3009  30.3748  30.3748  30.3748  31.8911
    31.8911  31.8911  33.1829  33.7129  33.7129  33.7129  33.8795  33.8796
    33.8797  33.9430  33.9430  33.9431  35.0533  35.0534  35.0535  35.0801
    35.0802  35.0803  35.0848  35.0849  35.0849  35.1237  35.1237  35.2288
    35.2288  35.2290  35.2399  35.5039  35.5039  35.9769  35.9770  35.9771
    36.0669  36.0670  36.0671  36.1167  36.1167  36.1922  36.5989  36.5990
    36.5991  36.7175  36.7175  36.8176  36.8177  36.8179  37.4279  37.7128
    37.8187  37.8190  37.8199  37.9407  37.9412  37.9414  38.0816  38.1736

     occupation numbers
     1.0000   1.0000   1.0000   1.0000   1.0000   1.0000   1.0000   1.0000
     1.0000   1.0000   1.0000   1.0000   1.0000   1.0000   1.0000   1.0000
     1.0000   1.0000   1.0000   1.0000   1.0000   1.0000   1.0000   1.0000
     1.0000   1.0000   1.0000   1.0000   1.0000   1.0000   1.0000   1.0000
     1.0000   1.0000   1.0000   1.0000   1.0000   1.0000   1.0000   1.0000
     1.0000   1.0000   1.0000   1.0000   1.0000   1.0000   1.0000   1.0000
     1.0000   1.0000   1.0000   1.0000   1.0000   1.0000   1.0000   1.0000
     1.0000   1.0000   1.0000   1.0000   1.0000   1.0000   1.0000   1.0000
     1.0000   1.0000   1.0000   1.0000   1.0000   1.0000   0.0000   0.0000
     0.0000   0.0000   0.0000   0.0000   0.0000   0.0000   0.0000   0.0000
     0.0000   0.0000   0.0000   0.0000   0.0000   0.0000   0.0000   0.0000
     0.0000   0.0000   0.0000   0.0000   0.0000   0.0000   0.0000   0.0000
     0.0000   0.0000   0.0000   0.0000   0.0000   0.0000   0.0000   0.0000
     0.0000   0.0000   0.0000   0.0000   0.0000   0.0000   0.0000   0.0000
     0.0000   0.0000   0.0000   0.0000   0.0000   0.0000   0.0000   0.0000
     0.0000   0.0000   0.0000   0.0000   0.0000   0.0000   0.0000   0.0000
     0.0000   0.0000   0.0000   0.0000   0.0000   0.0000   0.0000   0.0000
     0.0000   0.0000   0.0000   0.0000   0.0000   0.0000   0.0000   0.0000
     0.0000   0.0000   0.0000   0.0000   0.0000   0.0000   0.0000   0.0000
     0.0000   0.0000   0.0000   0.0000   0.0000   0.0000   0.0000   0.0000
     0.0000   0.0000   0.0000   0.0000   0.0000   0.0000   0.0000   0.0000
     0.0000   0.0000   0.0000   0.0000   0.0000   0.0000   0.0000   0.0000
     0.0000   0.0000   0.0000   0.0000   0.0000   0.0000   0.0000   0.0000
     0.0000   0.0000   0.0000   0.0000   0.0000   0.0000   0.0000   0.0000
     0.0000   0.0000   0.0000   0.0000   0.0000   0.0000   0.0000   0.0000
     0.0000   0.0000   0.0000   0.0000   0.0000   0.0000   0.0000   0.0000
     0.0000   0.0000   0.0000   0.0000   0.0000   0.0000   0.0000   0.0000
     0.0000   0.0000   0.0000   0.0000   0.0000   0.0000   0.0000   0.0000
     0.0000   0.0000   0.0000   0.0000   0.0000   0.0000   0.0000   0.0000
     0.0000   0.0000   0.0000   0.0000   0.0000   0.0000   0.0000   0.0000
     0.0000   0.0000   0.0000   0.0000   0.0000   0.0000   0.0000   0.0000
     0.0000   0.0000   0.0000   0.0000   0.0000   0.0000   0.0000   0.0000

[...]

          k = 0.3333-0.5774-0.0000 (  6789 PWs)   bands (ev):

  -119.5950-119.5947 -73.7031 -73.7023 -73.7016 -73.7010 -73.6994 -73.6992
    -8.3217  -8.2692  -8.2265  -8.1935  -8.1571  -8.0936  -8.0337  -8.0226
    -8.0136  -7.9893  -7.9597  -7.9571  -7.9561  -7.9508  -7.9484  -7.9377
    -7.9337  -7.9276  -7.9227  -7.9122  -6.6488  -6.4460  -6.1878  -5.8418
    -5.7946  -5.5577  -5.5451  -5.4744  -0.6354  -0.6015  -0.5389  -0.5001
    -0.4938  -0.4802  -0.4439  -0.4439  -0.4402  -0.4374   0.5479   0.8067
     1.0322   1.3271   1.9778   2.2974   2.7698   2.7782   2.8555   3.0115
     3.4545   3.5953   3.6723   4.3905   4.4348   4.4619   4.6581   4.7009
     4.7176   5.0119   5.0817   5.1890   5.4595   5.9022   8.2438   8.3225
     8.5392   8.6252   9.5052   9.6055  10.2591  11.0686  11.0860  11.1973
    11.2472  11.4161  11.6370  11.8738  11.9145  12.1539  12.4562  12.7450
    12.9032  12.9111  13.0375  13.2031  13.4671  13.6769  14.0380  14.0993
    14.2091  14.2472  14.7097  14.7595  14.9679  15.1899  15.4691  15.6005
    15.6283  16.2363  16.6075  16.6329  17.1593  17.3642  17.4417  18.1020
    18.1400  18.1813  18.2738  18.6023  18.6451  18.8116  19.3664  19.3806
    19.7508  19.9372  20.4474  20.4577  20.6098  20.8849  21.0550  21.1265
    21.2715  21.3243  21.3991  21.7241  21.7828  21.8723  21.9569  22.0705
    22.1489  22.3724  22.4983  23.1714  23.3227  23.5278  23.5479  23.6863
    23.7985  24.0267  24.2113  24.2883  24.4575  24.4869  24.5316  24.7447
    24.8388  24.8536  24.9818  24.9906  25.1229  25.5007  25.8023  25.8562
    25.9322  26.0186  26.2999  26.4404  26.6506  26.9263  27.1883  27.3251
    27.6862  27.7879  27.9042  28.2584  28.4610  28.4840  28.6230  28.9712
    29.0033  29.0064  29.1588  29.3692  29.4013  29.5259  29.5559  29.6819
    29.8994  29.9444  30.1883  30.2168  30.2416  30.2839  30.3865  30.4957
    30.6020  30.6099  30.6809  30.7234  30.9105  30.9193  30.9551  31.0320
    31.1797  31.3748  31.9158  31.9231  31.9995  32.0562  32.2006  32.3917
    32.7649  32.8498  32.9970  33.0723  33.1366  33.3064  33.6723  33.7617
    33.8363  33.8744  34.0315  34.5465  34.6622  35.2639  35.3368  35.3509
    35.6874  35.8456  35.8495  35.9113  35.9350  36.0901  36.3121  36.3286
    36.4098  36.5327  36.5547  36.6166  36.7571  36.9747  37.0590  37.1196
    37.2406  37.2519  37.3636  37.4704  37.6191  37.6664  37.8012  38.1054
    38.1742  38.2006  38.2028  38.2375  38.2966  38.3594  38.3766  38.3887

     occupation numbers
     1.0000   1.0000   1.0000   1.0000   1.0000   1.0000   1.0000   1.0000
     1.0000   1.0000   1.0000   1.0000   1.0000   1.0000   1.0000   1.0000
     1.0000   1.0000   1.0000   1.0000   1.0000   1.0000   1.0000   1.0000
     1.0000   1.0000   1.0000   1.0000   1.0000   1.0000   1.0000   1.0000
     1.0000   1.0000   1.0000   1.0000   1.0000   1.0000   1.0000   1.0000
     1.0000   1.0000   1.0000   1.0000   1.0000   1.0000   1.0000   1.0000
     1.0000   1.0000   1.0000   1.0000   1.0000   1.0000   1.0000   1.0000
     1.0000   1.0000   1.0000   1.0000   1.0000   1.0000   1.0000   1.0000
     1.0000   1.0000   1.0000   1.0000   1.0000   1.0000   0.0000   0.0000
     0.0000   0.0000   0.0000   0.0000   0.0000   0.0000   0.0000   0.0000
     0.0000   0.0000   0.0000   0.0000   0.0000   0.0000   0.0000   0.0000
     0.0000   0.0000   0.0000   0.0000   0.0000   0.0000   0.0000   0.0000
     0.0000   0.0000   0.0000   0.0000   0.0000   0.0000   0.0000   0.0000
     0.0000   0.0000   0.0000   0.0000   0.0000   0.0000   0.0000   0.0000
     0.0000   0.0000   0.0000   0.0000   0.0000   0.0000   0.0000   0.0000
     0.0000   0.0000   0.0000   0.0000   0.0000   0.0000   0.0000   0.0000
     0.0000   0.0000   0.0000   0.0000   0.0000   0.0000   0.0000   0.0000
     0.0000   0.0000   0.0000   0.0000   0.0000   0.0000   0.0000   0.0000
     0.0000   0.0000   0.0000   0.0000   0.0000   0.0000   0.0000   0.0000
     0.0000   0.0000   0.0000   0.0000   0.0000   0.0000   0.0000   0.0000
     0.0000   0.0000   0.0000   0.0000   0.0000   0.0000   0.0000   0.0000
     0.0000   0.0000   0.0000   0.0000   0.0000   0.0000   0.0000   0.0000
     0.0000   0.0000   0.0000   0.0000   0.0000   0.0000   0.0000   0.0000
     0.0000   0.0000   0.0000   0.0000   0.0000   0.0000   0.0000   0.0000
     0.0000   0.0000   0.0000   0.0000   0.0000   0.0000   0.0000   0.0000
     0.0000   0.0000   0.0000   0.0000   0.0000   0.0000   0.0000   0.0000
     0.0000   0.0000   0.0000   0.0000   0.0000   0.0000   0.0000   0.0000
     0.0000   0.0000   0.0000   0.0000   0.0000   0.0000   0.0000   0.0000
     0.0000   0.0000   0.0000   0.0000   0.0000   0.0000   0.0000   0.0000
     0.0000   0.0000   0.0000   0.0000   0.0000   0.0000   0.0000   0.0000
     0.0000   0.0000   0.0000   0.0000   0.0000   0.0000   0.0000   0.0000
     0.0000   0.0000   0.0000   0.0000   0.0000   0.0000   0.0000   0.0000

     highest occupied, lowest unoccupied level (ev):     5.9022    5.8927

!    total energy              =   -1851.69262833 Ry
     estimated scf accuracy    <       0.00000026 Ry

     The total energy is the sum of the following terms:
     one-electron contribution =   -1242.75434184 Ry
     hartree contribution      =     693.21280005 Ry
     xc contribution           =    -512.73613458 Ry
     ewald contribution        =    -789.41495197 Ry

     convergence has been achieved in   7 iterations

     Writing all to output data dir bands_nm/myprefix.save/

     General routines

     Parallel routines

   This run was terminated on:  20:54:35  16Jul2023

   JOB DONE.