     Program PWSCF v.7.1 starts on 16Jul2023 at 23:37: 5

     Reading input from espresso_24032.pwi
Warning: card &CELL ignored
Warning: card / ignored

     Current dimensions of program PWSCF are:
     Max number of different atomic species (ntypx) = 10
     Max number of k-points (npk) =  40000
     Max angular momentum in pseudopotentials (lmaxx) =  4
     Message from routine setup:
     using ibrav=0 with symmetry is DISCOURAGED, use correct ibrav instead

     K-points division:     npool     =       2
     R & G space division:  proc/nbgrp/npool/nimage =       4
     Subspace diagonalization in iterative solution of the eigenvalue problem:
     one sub-group per band group will be used

     Using Slab Decomposition

     bravais-lattice index     =            0
     lattice parameter (alat)  =      15.2624  a.u.
     unit-cell volume          =    2710.8212 (a.u.)^3
     number of atoms/cell      =           18
     number of atomic types    =            3
     number of electrons       =       176.00
     number of Kohn-Sham states=          256
     kinetic-energy cutoff     =      30.0000  Ry
     charge density cutoff     =     240.0000  Ry
     scf convergence threshold =      1.0E-06
     mixing beta               =       0.7000
     number of iterations used =            8  plain     mixing
     Exchange-correlation=  SLA  PW   PBX  PBC
                           (   1   4   3   4   0   0   0)

     celldm(1)=  15.262357  celldm(2)=   0.000000  celldm(3)=   0.000000
     celldm(4)=   0.000000  celldm(5)=   0.000000  celldm(6)=   0.000000

     crystal axes: (cart. coord. in units of alat)
               a(1) = (   1.000000   0.000000   0.000000 )
               a(2) = (   0.012058   0.999927   0.000000 )
               a(3) = (   0.006845   0.006763   0.762549 )

     reciprocal axes: (cart. coord. in units 2 pi/alat)
               b(1) = (  1.000000 -0.012059 -0.008869 )
               b(2) = (  0.000000  1.000073 -0.008869 )
               b(3) = (  0.000000  0.000000  1.311391 )

     PseudoPot. # 1 for Sc read from file:
     /lustre07/scratch/pragov/crystal_structure_design/utils/SSSP/Sc_ONCV_PBE-1.0.oncvpsp.upf
     MD5 check sum: e21af8023abb52e52cb7cd3133e4a229
     Pseudo is Norm-conserving, Zval = 11.0
     Generated using ONCVPSP code by D. R. Hamann
     Using radial grid of 1662 points,  6 beta functions with:
                l(1) =   0
                l(2) =   0
                l(3) =   1
                l(4) =   1
                l(5) =   2
                l(6) =   2

     PseudoPot. # 2 for Os read from file:
     /lustre07/scratch/pragov/crystal_structure_design/utils/SSSP/Os_pbe_v1.2.uspp.F.UPF
     MD5 check sum: a3fb40a04f0c37c25c34bbc47164c9a8
     Pseudo is Ultrasoft + core correction, Zval = 16.0
     Generated by new atomic code, or converted to UPF format
     Using radial grid of  983 points,  8 beta functions with:
                l(1) =   0
                l(2) =   0
                l(3) =   1
                l(4) =   1
                l(5) =   2
                l(6) =   2
                l(7) =   3
                l(8) =   3
     Q(r) pseudized with  8 coefficients,  rinner =    1.150   1.150   1.150
                                                       1.150   1.150   1.150
                                                       1.150

     PseudoPot. # 3 for Cl read from file:
     /lustre07/scratch/pragov/crystal_structure_design/utils/SSSP/cl_pbe_v1.4.uspp.F.UPF
     MD5 check sum: fc6f6913ecf08c9257cb748ef0700058
     Pseudo is Ultrasoft + core correction, Zval =  7.0
     Generated by new atomic code, or converted to UPF format
     Using radial grid of  909 points,  6 beta functions with:
                l(1) =   0
                l(2) =   0
                l(3) =   1
                l(4) =   1
                l(5) =   2
                l(6) =   2
     Q(r) pseudized with  8 coefficients,  rinner =    1.300   1.300   1.300
                                                       1.300   1.300

     atomic species   valence    mass     pseudopotential
        Sc            11.00    44.95591     Sc( 1.00)
        Os            16.00   190.23000     Os( 1.00)
        Cl             7.00    35.45000     Cl( 1.00)

      2 Sym. Ops., with inversion, found

                                    s                        frac. trans.

      isym =  1     identity

 cryst.   s( 1) = (     1          0          0      )
                  (     0          1          0      )
                  (     0          0          1      )

 cart.    s( 1) = (  1.0000000  0.0000000  0.0000000 )
                  (  0.0000000  1.0000000  0.0000000 )
                  (  0.0000000  0.0000000  1.0000000 )

      isym =  2     inversion

 cryst.   s( 2) = (    -1          0          0      )
                  (     0         -1          0      )
                  (     0          0         -1      )

 cart.    s( 2) = ( -1.0000000  0.0000000  0.0000000 )
                  (  0.0000000 -1.0000000 -0.0000000 )
                  (  0.0000000  0.0000000 -1.0000000 )

   Cartesian axes

     site n.     atom                  positions (alat units)
         1           Sc  tau(   1) = (   0.1196918   0.7474352   0.7500529  )
         2           Sc  tau(   2) = (   0.2735013   0.8994011   0.3937703  )
         3           Sc  tau(   3) = (   0.8992112   0.2592550   0.0124959  )
         4           Sc  tau(   4) = (   0.7454017   0.1072891   0.3687785  )
         5           Sc  tau(   5) = (   0.7534693   0.8971138   0.0100405  )
         6           Sc  tau(   6) = (   0.1093465   0.2607117   0.3712339  )
         7           Sc  tau(   7) = (   0.2654337   0.1095764   0.7525083  )
         8           Sc  tau(   8) = (   0.9095564   0.7459785   0.3913149  )
         9           Os  tau(   9) = (   0.0228732   0.9924037   0.1906372  )
        10           Os  tau(  10) = (   0.9960298   0.0142865   0.5719116  )
        11           Cl  tau(  11) = (   0.4377692   0.8251973   0.6846262  )
        12           Cl  tau(  12) = (   0.1919095   0.5822845   0.4591970  )
        13           Cl  tau(  13) = (   0.5811337   0.1814929   0.0779226  )
        14           Cl  tau(  14) = (   0.8269934   0.4244057   0.3033518  )
        15           Cl  tau(  15) = (   0.8199320   0.5876845   0.6827039  )
        16           Cl  tau(  16) = (   0.4247969   0.1972855   0.4611194  )
        17           Cl  tau(  17) = (   0.1989709   0.4190057   0.0798450  )
        18           Cl  tau(  18) = (   0.5941061   0.8094047   0.3014295  )

   Crystallographic axes

     site n.     atom                  positions (cryst. coord.)
         1           Sc  tau(   1) = (  0.1040260  0.7408370  0.9836130  )
         2           Sc  tau(   2) = (  0.2591630  0.8959740  0.5163870  )
         3           Sc  tau(   3) = (  0.8959740  0.2591630  0.0163870  )
         4           Sc  tau(   4) = (  0.7408370  0.1040260  0.4836130  )
         5           Sc  tau(   5) = (  0.7425620  0.8970900  0.0131670  )
         6           Sc  tau(   6) = (  0.1029100  0.2574380  0.4868330  )
         7           Sc  tau(   7) = (  0.2574380  0.1029100  0.9868330  )
         8           Sc  tau(   8) = (  0.8970900  0.7425620  0.5131670  )
         9           Os  tau(   9) = (  0.0092150  0.9907850  0.2500000  )
        10           Os  tau(  10) = (  0.9907850  0.0092150  0.7500000  )
        11           Cl  tau(  11) = (  0.4217460  0.8191850  0.8978130  )
        12           Cl  tau(  12) = (  0.1808150  0.5782540  0.6021870  )
        13           Cl  tau(  13) = (  0.5782540  0.1808150  0.1021870  )
        14           Cl  tau(  14) = (  0.8191850  0.4217460  0.3978130  )
        15           Cl  tau(  15) = (  0.8067900  0.5816720  0.8952920  )
        16           Cl  tau(  16) = (  0.4183280  0.1932100  0.6047080  )
        17           Cl  tau(  17) = (  0.1932100  0.4183280  0.1047080  )
        18           Cl  tau(  18) = (  0.5816720  0.8067900  0.3952920  )

     number of k points=    14
                       cart. coord. in units 2pi/alat
        k(    1) = (   0.0000000   0.0000000   0.0000000), wk =   0.0740741
        k(    2) = (   0.0000000   0.0000000   0.4371305), wk =   0.1481481
        k(    3) = (   0.0000000   0.3333576  -0.0029565), wk =   0.1481481
        k(    4) = (   0.0000000   0.3333576   0.4341740), wk =   0.1481481
        k(    5) = (   0.0000000   0.3333576  -0.4400870), wk =   0.1481481
        k(    6) = (   0.3333333  -0.0040196  -0.0029565), wk =   0.1481481
        k(    7) = (   0.3333333  -0.0040196   0.4341740), wk =   0.1481481
        k(    8) = (   0.3333333  -0.0040196  -0.4400870), wk =   0.1481481
        k(    9) = (   0.3333333   0.3293379  -0.0059130), wk =   0.1481481
        k(   10) = (   0.3333333   0.3293379   0.4312175), wk =   0.1481481
        k(   11) = (   0.3333333   0.3293379  -0.4430434), wk =   0.1481481
        k(   12) = (   0.3333333  -0.3373772  -0.0000000), wk =   0.1481481
        k(   13) = (   0.3333333  -0.3373772   0.4371305), wk =   0.1481481
        k(   14) = (   0.3333333  -0.3373772  -0.4371305), wk =   0.1481481

                       cryst. coord.
        k(    1) = (   0.0000000   0.0000000   0.0000000), wk =   0.0740741
        k(    2) = (   0.0000000   0.0000000   0.3333333), wk =   0.1481481
        k(    3) = (   0.0000000   0.3333333   0.0000000), wk =   0.1481481
        k(    4) = (   0.0000000   0.3333333   0.3333333), wk =   0.1481481
        k(    5) = (   0.0000000   0.3333333  -0.3333333), wk =   0.1481481
        k(    6) = (   0.3333333   0.0000000   0.0000000), wk =   0.1481481
        k(    7) = (   0.3333333   0.0000000   0.3333333), wk =   0.1481481
        k(    8) = (   0.3333333   0.0000000  -0.3333333), wk =   0.1481481
        k(    9) = (   0.3333333   0.3333333  -0.0000000), wk =   0.1481481
        k(   10) = (   0.3333333   0.3333333   0.3333333), wk =   0.1481481
        k(   11) = (   0.3333333   0.3333333  -0.3333333), wk =   0.1481481
        k(   12) = (   0.3333333  -0.3333333   0.0000000), wk =   0.1481481
        k(   13) = (   0.3333333  -0.3333333   0.3333333), wk =   0.1481481
        k(   14) = (   0.3333333  -0.3333333  -0.3333333), wk =   0.1481481

     Check: negative core charge=   -0.000001

     Initial potential from superposition of free atoms

     starting charge     174.9787, renormalised to     176.0000

     negative rho (up, down):  3.611E-01 0.000E+00
     Starting wfcs are  138 randomized atomic wfcs +  118 random wfcs

     Self-consistent Calculation

     iteration #  1     ecut=    30.00 Ry     beta= 0.70
     Davidson diagonalization with overlap

     ethr =  1.00E-02,  avg # of iterations =  6.0

     negative rho (up, down):  3.244E-01 0.000E+00

     total energy              =   -1393.57722937 Ry
     estimated scf accuracy    <       9.87182078 Ry

[...]

     total energy              =   -1400.25232556 Ry
     estimated scf accuracy    <       0.00000378 Ry

     iteration # 13     ecut=    30.00 Ry     beta= 0.70
     Davidson diagonalization with overlap

     ethr =  2.04E-09,  avg # of iterations =  1.0

     negative rho (up, down):  3.611E-01 0.000E+00

     End of self-consistent calculation

          k = 0.0000 0.0000 0.0000 (  7541 PWs)   bands (ev):

   -76.1564 -76.1512 -40.7698 -40.7684 -40.7601 -40.7578 -40.6983 -40.6919
   -40.6895 -40.6892 -35.6320 -35.4895 -35.4725 -35.4720 -35.4643 -35.4640
   -19.5792 -19.5785 -19.5456 -19.5261 -19.4775 -19.4694 -19.4200 -19.3972
   -19.3859 -19.3490 -19.3475 -19.3163 -19.2937 -19.2925 -19.2768 -19.2499
   -19.2433 -19.2415 -19.2181 -19.2179 -19.2146 -19.2024 -19.1694 -19.1663
    -8.1942  -7.8684  -7.8102  -7.7578  -7.5639  -7.5523  -7.4944  -7.4898
     2.4494   2.6526   2.6735   2.8400   2.8680   2.9872   3.0111   3.1097
     3.2244   3.2809   3.4963   3.5214   3.6091   3.6343   3.9152   4.1576
     4.1846   4.3965   4.5220   4.6059   4.7676   4.8376   4.8630   4.8886
     5.2747   6.3124   6.4215   6.4594   6.5506   6.9434   7.1012   7.3611
     7.3702   8.1129   8.2777   8.7396   8.7502   8.7547   9.3742   9.4014
    10.1148  10.2032  10.4212  10.4458  10.4637  10.4669  10.5537  10.5967
    10.6751  10.8843  10.9300  11.0811  11.1505  11.2332  11.2670  11.4182
    11.4502  11.5847  11.6615  11.8158  11.8698  12.0182  12.0286  12.0470
    12.0898  12.1018  12.2729  12.2729  12.3961  12.4158  12.5039  12.5131
    12.7169  12.8906  12.9094  12.9147  13.1520  13.2508  13.2641  13.5849
    13.9783  14.0584  14.1713  14.3148  14.5893  15.1744  15.4206  15.5035
    15.6442  15.6556  15.8780  15.8939  16.0135  16.3006  16.3648  16.6448
    16.8687  17.0676  17.1549  17.1829  17.4008  17.6158  17.9333  18.0187
    18.0858  18.2719  18.4405  18.4474  18.6251  18.7660  18.9615  19.1146
    19.2162  19.4373  19.4886  19.6811  19.9030  19.9173  19.9572  20.0182
    20.2381  20.3769  20.3832  20.7212  20.9495  21.0989  21.3735  21.4053
    21.6101  22.0317  22.3261  22.4461  22.4527  22.7846  22.9617  23.0063
    23.0898  23.3997  23.5720  23.5993  23.8767  23.9825  24.0653  24.2153
    24.5576  24.6097  24.7480  25.1101  25.2842  25.3537  25.4700  25.5644
    25.5999  25.7135  25.7165  25.9929  26.1747  26.2008  26.2026  26.3345
    26.4867  26.6759  26.8109  26.8332  26.8594  26.9629  27.4375  27.4876
    27.5679  27.8492  27.9008  27.9430  27.9952  28.1977  28.2840  28.5942
    28.6816  28.7119  28.8046  28.9575  29.1068  29.1449  29.3977  29.4242
    29.5916  29.6850  29.7050  29.8451  30.0312  30.0579  30.3170  30.3523
    30.5796  30.5951  30.6543  30.7750  30.9012  31.1132  31.1825  31.2336
    31.4151  31.4449  31.6778  31.9418  32.0571  32.0967  32.2295  32.2993

     occupation numbers
     1.0000   1.0000   1.0000   1.0000   1.0000   1.0000   1.0000   1.0000
     1.0000   1.0000   1.0000   1.0000   1.0000   1.0000   1.0000   1.0000
     1.0000   1.0000   1.0000   1.0000   1.0000   1.0000   1.0000   1.0000
     1.0000   1.0000   1.0000   1.0000   1.0000   1.0000   1.0000   1.0000
     1.0000   1.0000   1.0000   1.0000   1.0000   1.0000   1.0000   1.0000
     1.0000   1.0000   1.0000   1.0000   1.0000   1.0000   1.0000   1.0000
     1.0000   1.0000   1.0000   1.0000   1.0000   1.0000   1.0000   1.0000
     1.0000   1.0000   1.0000   1.0000   1.0000   1.0000   1.0000   1.0000
     1.0000   1.0000   1.0000   1.0000   1.0000   1.0000   1.0000   1.0000
     1.0000   1.0000   1.0000   1.0000   1.0000   1.0000   1.0000   1.0000
     1.0000   1.0000   1.0000   1.0000   1.0000   1.0000   1.0000   1.0000
     0.0000   0.0000   0.0000   0.0000   0.0000   0.0000   0.0000   0.0000
     0.0000   0.0000   0.0000   0.0000   0.0000   0.0000   0.0000   0.0000
     0.0000   0.0000   0.0000   0.0000   0.0000   0.0000   0.0000   0.0000
     0.0000   0.0000   0.0000   0.0000   0.0000   0.0000   0.0000   0.0000
     0.0000   0.0000   0.0000   0.0000   0.0000   0.0000   0.0000   0.0000
     0.0000   0.0000   0.0000   0.0000   0.0000   0.0000   0.0000   0.0000
     0.0000   0.0000   0.0000   0.0000   0.0000   0.0000   0.0000   0.0000
     0.0000   0.0000   0.0000   0.0000   0.0000   0.0000   0.0000   0.0000
     0.0000   0.0000   0.0000   0.0000   0.0000   0.0000   0.0000   0.0000
     0.0000   0.0000   0.0000   0.0000   0.0000   0.0000   0.0000   0.0000
     0.0000   0.0000   0.0000   0.0000   0.0000   0.0000   0.0000   0.0000
     0.0000   0.0000   0.0000   0.0000   0.0000   0.0000   0.0000   0.0000
     0.0000   0.0000   0.0000   0.0000   0.0000   0.0000   0.0000   0.0000
     0.0000   0.0000   0.0000   0.0000   0.0000   0.0000   0.0000   0.0000
     0.0000   0.0000   0.0000   0.0000   0.0000   0.0000   0.0000   0.0000
     0.0000   0.0000   0.0000   0.0000   0.0000   0.0000   0.0000   0.0000
     0.0000   0.0000   0.0000   0.0000   0.0000   0.0000   0.0000   0.0000
     0.0000   0.0000   0.0000   0.0000   0.0000   0.0000   0.0000   0.0000
     0.0000   0.0000   0.0000   0.0000   0.0000   0.0000   0.0000   0.0000
     0.0000   0.0000   0.0000   0.0000   0.0000   0.0000   0.0000   0.0000
     0.0000   0.0000   0.0000   0.0000   0.0000   0.0000   0.0000   0.0000

[...]

          k = 0.3333-0.3374-0.4371 (  7525 PWs)   bands (ev):

   -76.1551 -76.1525 -40.7681 -40.7673 -40.7605 -40.7592 -40.6967 -40.6921
   -40.6911 -40.6898 -35.5968 -35.5251 -35.4707 -35.4700 -35.4664 -35.4656
   -19.5798 -19.5790 -19.5447 -19.5346 -19.4815 -19.4757 -19.4079 -19.3914
   -19.3827 -19.3648 -19.3144 -19.3043 -19.2946 -19.2921 -19.2609 -19.2488
   -19.2478 -19.2471 -19.2143 -19.2134 -19.2124 -19.2078 -19.1916 -19.1875
    -7.9962  -7.9054  -7.8005  -7.6800  -7.6727  -7.6135  -7.5740  -7.5140
     2.3600   2.4672   2.6505   2.8600   2.9625   3.0204   3.0574   3.3432
     3.3625   3.4989   3.5723   3.6630   3.7257   3.7999   4.0035   4.1198
     4.2310   4.3700   4.4988   4.5806   4.6551   4.6813   4.7680   4.9182
     5.0747   6.0826   6.6447   6.7150   6.8928   7.1010   7.1173   7.2938
     7.3221   7.3326   7.5874   7.7700   8.7950   8.8490   9.1243   9.1619
    10.2131  10.2764  10.4456  10.4990  10.5742  10.6217  10.6607  10.7218
    10.8756  10.9864  11.0389  11.0948  11.2379  11.3177  11.4452  11.4584
    11.4972  11.5735  11.6305  11.7055  11.7781  11.8986  11.9930  12.0470
    12.0875  12.1526  12.1632  12.2454  12.3021  12.3611  12.3893  12.4743
    12.5700  12.6383  12.6796  12.7780  13.0100  13.0750  13.2981  13.3998
    14.0992  14.2433  14.3996  14.8585  15.1145  15.3239  15.4640  15.5582
    15.6833  15.8846  16.0020  16.1787  16.3375  16.4806  16.8139  16.9016
    17.1025  17.2363  17.4186  17.4618  17.5460  17.6327  17.7249  17.8718
    18.0433  18.0989  18.2180  18.3460  18.4940  18.6536  18.7135  18.8502
    18.9943  19.2245  19.5729  19.7350  19.8244  19.8477  19.9445  20.2540
    20.3124  20.4432  20.8067  20.9196  21.1329  21.2282  21.4390  21.5806
    21.7843  21.8620  22.0459  22.2124  22.3607  22.5721  22.8423  22.9547
    23.2076  23.3242  23.5203  23.6297  23.8658  23.9787  24.0386  24.0624
    24.2393  24.3734  24.5207  24.7639  25.0198  25.2112  25.2231  25.3183
    25.6047  25.7002  25.8102  25.9700  26.0470  26.0982  26.1542  26.5015
    26.5940  26.6827  26.8479  26.9323  27.0106  27.0926  27.1974  27.3927
    27.5587  27.6355  27.8897  28.0457  28.0671  28.1426  28.3164  28.3630
    28.5703  28.6161  28.8503  28.9552  29.1108  29.2260  29.3033  29.4072
    29.5662  29.6840  29.8948  29.9893  30.0709  30.2272  30.5290  30.6339
    30.6968  30.7315  30.8701  31.0496  31.1336  31.2099  31.3978  31.5282
    31.6417  31.8343  31.8751  32.0043  32.0802  32.2277  32.4081  32.4529

     occupation numbers
     1.0000   1.0000   1.0000   1.0000   1.0000   1.0000   1.0000   1.0000
     1.0000   1.0000   1.0000   1.0000   1.0000   1.0000   1.0000   1.0000
     1.0000   1.0000   1.0000   1.0000   1.0000   1.0000   1.0000   1.0000
     1.0000   1.0000   1.0000   1.0000   1.0000   1.0000   1.0000   1.0000
     1.0000   1.0000   1.0000   1.0000   1.0000   1.0000   1.0000   1.0000
     1.0000   1.0000   1.0000   1.0000   1.0000   1.0000   1.0000   1.0000
     1.0000   1.0000   1.0000   1.0000   1.0000   1.0000   1.0000   1.0000
     1.0000   1.0000   1.0000   1.0000   1.0000   1.0000   1.0000   1.0000
     1.0000   1.0000   1.0000   1.0000   1.0000   1.0000   1.0000   1.0000
     1.0000   1.0000   1.0000   1.0000   1.0000   1.0000   1.0000   1.0000
     1.0000   1.0000   1.0000   1.0000   1.0000   1.0000   1.0000   1.0000
     0.0000   0.0000   0.0000   0.0000   0.0000   0.0000   0.0000   0.0000
     0.0000   0.0000   0.0000   0.0000   0.0000   0.0000   0.0000   0.0000
     0.0000   0.0000   0.0000   0.0000   0.0000   0.0000   0.0000   0.0000
     0.0000   0.0000   0.0000   0.0000   0.0000   0.0000   0.0000   0.0000
     0.0000   0.0000   0.0000   0.0000   0.0000   0.0000   0.0000   0.0000
     0.0000   0.0000   0.0000   0.0000   0.0000   0.0000   0.0000   0.0000
     0.0000   0.0000   0.0000   0.0000   0.0000   0.0000   0.0000   0.0000
     0.0000   0.0000   0.0000   0.0000   0.0000   0.0000   0.0000   0.0000
     0.0000   0.0000   0.0000   0.0000   0.0000   0.0000   0.0000   0.0000
     0.0000   0.0000   0.0000   0.0000   0.0000   0.0000   0.0000   0.0000
     0.0000   0.0000   0.0000   0.0000   0.0000   0.0000   0.0000   0.0000
     0.0000   0.0000   0.0000   0.0000   0.0000   0.0000   0.0000   0.0000
     0.0000   0.0000   0.0000   0.0000   0.0000   0.0000   0.0000   0.0000
     0.0000   0.0000   0.0000   0.0000   0.0000   0.0000   0.0000   0.0000
     0.0000   0.0000   0.0000   0.0000   0.0000   0.0000   0.0000   0.0000
     0.0000   0.0000   0.0000   0.0000   0.0000   0.0000   0.0000   0.0000
     0.0000   0.0000   0.0000   0.0000   0.0000   0.0000   0.0000   0.0000
     0.0000   0.0000   0.0000   0.0000   0.0000   0.0000   0.0000   0.0000
     0.0000   0.0000   0.0000   0.0000   0.0000   0.0000   0.0000   0.0000
     0.0000   0.0000   0.0000   0.0000   0.0000   0.0000   0.0000   0.0000
     0.0000   0.0000   0.0000   0.0000   0.0000   0.0000   0.0000   0.0000

     highest occupied, lowest unoccupied level (ev):     9.4394   10.1148

!    total energy              =   -1400.25232608 Ry
     estimated scf accuracy    <       0.00000013 Ry

     The total energy is the sum of the following terms:
     one-electron contribution =    -860.54791580 Ry
     hartree contribution      =     477.49648625 Ry
     xc contribution           =    -246.19726738 Ry
     ewald contribution        =    -771.00362914 Ry

     convergence has been achieved in  13 iterations

     Writing all to output data dir bands_nm/myprefix.save/

     General routines

     Parallel routines

   This run was terminated on:  23:39: 3  16Jul2023

   JOB DONE.