     Program PWSCF v.7.0 starts on  4Jun2023 at 21: 3:12

     K-points division:     npool     =       2
     R & G space division:  proc/nbgrp/npool/nimage =       4

     Reading input from espresso_10123.pwi
Warning: card &CELL ignored
Warning: card / ignored

     Current dimensions of program PWSCF are:
     Max number of different atomic species (ntypx) = 10
     Max number of k-points (npk) =  40000
     Max angular momentum in pseudopotentials (lmaxx) =  4
     file Ba.pbe-spn-kjpaw_psl.1.0.0.UPF: wavefunction(s)  5S 6S renormalized
     file O.pbe-n-kjpaw_psl.0.1.UPF: wavefunction(s)  2P renormalized
     Message from routine setup:
     using ibrav=0 with symmetry is DISCOURAGED, use correct ibrav instead

     Using Slab Decomposition

     bravais-lattice index     =            0
     lattice parameter (alat)  =      11.1933  a.u.
     unit-cell volume          =     992.6915 (a.u.)^3
     number of atoms/cell      =           10
     number of atomic types    =            3
     number of electrons       =        84.00
     number of Kohn-Sham states=           64
     kinetic-energy cutoff     =      30.0000  Ry
     charge density cutoff     =     240.0000  Ry
     scf convergence threshold =      1.0E-06
     mixing beta               =       0.7000
     number of iterations used =            8  plain     mixing
     Exchange-correlation= SLA  PW   PBX  PBC
                           (   1   4   3   4   0   0   0)

     celldm(1)=  11.193291  celldm(2)=   0.000000  celldm(3)=   0.000000
     celldm(4)=   0.000000  celldm(5)=   0.000000  celldm(6)=   0.000000

     crystal axes: (cart. coord. in units of alat)
               a(1) = (   1.000000   0.000000   0.000000 )
               a(2) = (  -0.002111   0.999998   0.000000 )
               a(3) = (  -0.497807  -0.501134   0.707851 )

     reciprocal axes: (cart. coord. in units 2 pi/alat)
               b(1) = (  1.000000  0.002111  0.704760 )
               b(2) = (  0.000000  1.000002  0.707967 )
               b(3) = (  0.000000  0.000000  1.412727 )

     PseudoPot. # 1 for Ba read from file:
     /home/pragov/projects/rrg-bengioy-ad/pragov/crystal_structure_design/SSSP/Ba.pbe-spn-kjpaw_psl.1.0.0.UPF
     MD5 check sum: c432291d3e53af55f19d5e8866385beb
     Pseudo is Projector augmented-wave + core cor, Zval = 10.0
     Generated using "atomic" code by A. Dal Corso  v.5.1
     Shape of augmentation charge: PSQ
     Using radial grid of 1251 points,  7 beta functions with:
                l(1) =   0
                l(2) =   0
                l(3) =   0
                l(4) =   1
                l(5) =   1
                l(6) =   2
                l(7) =   2
     Q(r) pseudized with 0 coefficients

     PseudoPot. # 2 for Sn read from file:
     /home/pragov/projects/rrg-bengioy-ad/pragov/crystal_structure_design/SSSP/Sn_pbe_v1.uspp.F.UPF
     MD5 check sum: 4cf58ce39ec5d5d420df3dd08604eb00
     Pseudo is Ultrasoft + core correction, Zval = 14.0
     Generated by new atomic code, or converted to UPF format
     Using radial grid of  891 points,  6 beta functions with:
                l(1) =   0
                l(2) =   0
                l(3) =   1
                l(4) =   1
                l(5) =   2
                l(6) =   2
     Q(r) pseudized with  6 coefficients,  rinner =    1.200   1.200   1.200
                                                       1.200   1.200

     PseudoPot. # 3 for O  read from file:
     /home/pragov/projects/rrg-bengioy-ad/pragov/crystal_structure_design/SSSP/O.pbe-n-kjpaw_psl.0.1.UPF
     MD5 check sum: 0234752ac141de4415c5fc33072bef88
     Pseudo is Projector augmented-wave + core cor, Zval =  6.0
     Generated using "atomic" code by A. Dal Corso  v.5.0.99 svn rev. 10869
     Shape of augmentation charge: BESSEL
     Using radial grid of 1095 points,  4 beta functions with:
                l(1) =   0
                l(2) =   0
                l(3) =   1
                l(4) =   1
     Q(r) pseudized with 0 coefficients

     atomic species   valence    mass     pseudopotential
        Ba            10.00   137.32700     Ba( 1.00)
        Sn            14.00   118.71000     Sn( 1.00)
        O              6.00    15.99900     O ( 1.00)

      2 Sym. Ops., with inversion, found

                                    s                        frac. trans.

      isym =  1     identity

 cryst.   s( 1) = (     1          0          0      )
                  (     0          1          0      )
                  (     0          0          1      )

 cart.    s( 1) = (  1.0000000 -0.0000000 -0.0000000 )
                  (  0.0000000  1.0000000  0.0000000 )
                  (  0.0000000  0.0000000  1.0000000 )

      isym =  2     inversion

 cryst.   s( 2) = (    -1          0          0      )
                  (     0         -1          0      )
                  (     0          0         -1      )

 cart.    s( 2) = ( -1.0000000  0.0000000  0.0000000 )
                  (  0.0000000 -1.0000000 -0.0000000 )
                  (  0.0000000  0.0000000 -1.0000000 )

   Cartesian axes

     site n.     atom                  positions (alat units)
         1           Ba  tau(   1) = (  -0.0004954   0.4994399   0.3539134  )
         2           Ba  tau(   2) = (   0.5005772  -0.0005760   0.3539375  )
         3           Sn  tau(   3) = (   0.0000000   0.0000000   0.0000000  )
         4           Sn  tau(   4) = (   0.4989444   0.4999989   0.0000000  )
         5           O   tau(   5) = (   0.7649026   0.2654624   0.0000000  )
         6           O   tau(   6) = (   0.2329863   0.7345354   0.0000000  )
         7           O   tau(   7) = (   0.2385841   0.2608646   0.6909008  )
         8           O   tau(   8) = (   0.5149435   0.5148943   0.3539255  )
         9           O   tau(   9) = (  -0.0148617  -0.0160305   0.3539255  )
        10           O   tau(  10) = (   0.2614977   0.2379993   0.0169502  )

   Crystallographic axes

     site n.     atom                  positions (cryst. coord.)
         1           Ba  tau(   1) = (  0.2499830  0.7500000  0.4999830  )
         2           Ba  tau(   2) = (  0.7500170  0.2500000  0.5000170  )
         3           Sn  tau(   3) = (  0.0000000  0.0000000  0.0000000  )
         4           Sn  tau(   4) = (  0.5000000  0.5000000  0.0000000  )
         5           O   tau(   5) = (  0.7654630  0.2654630  0.0000000  )
         6           O   tau(   6) = (  0.2345370  0.7345370  0.0000000  )
         7           O   tau(   7) = (  0.7260540  0.7500000  0.9760540  )
         8           O   tau(   8) = (  0.7654630  0.7654630  0.5000000  )
         9           O   tau(   9) = (  0.2345370  0.2345370  0.5000000  )
        10           O   tau(  10) = (  0.2739460  0.2500000  0.0239460  )

     number of k points=    14
                       cart. coord. in units 2pi/alat
        k(    1) = (   0.0000000   0.0000000   0.0000000), wk =   0.0740741
        k(    2) = (   0.0000000   0.0000000   0.4709089), wk =   0.1481481
        k(    3) = (   0.0000000   0.3333341   0.2359889), wk =   0.1481481
        k(    4) = (   0.0000000   0.3333341   0.7068979), wk =   0.1481481
        k(    5) = (   0.0000000   0.3333341  -0.2349200), wk =   0.1481481
        k(    6) = (   0.3333333   0.0007037   0.2349200), wk =   0.1481481
        k(    7) = (   0.3333333   0.0007037   0.7058289), wk =   0.1481481
        k(    8) = (   0.3333333   0.0007037  -0.2359889), wk =   0.1481481
        k(    9) = (   0.3333333   0.3340378   0.4709089), wk =   0.1481481
        k(   10) = (   0.3333333   0.3340378   0.9418178), wk =   0.1481481
        k(   11) = (   0.3333333   0.3340378  -0.0000000), wk =   0.1481481
        k(   12) = (   0.3333333  -0.3326304  -0.0010690), wk =   0.1481481
        k(   13) = (   0.3333333  -0.3326304   0.4698400), wk =   0.1481481
        k(   14) = (   0.3333333  -0.3326304  -0.4719779), wk =   0.1481481

                       cryst. coord.
        k(    1) = (   0.0000000   0.0000000   0.0000000), wk =   0.0740741
        k(    2) = (   0.0000000   0.0000000   0.3333333), wk =   0.1481481
        k(    3) = (   0.0000000   0.3333333   0.0000000), wk =   0.1481481
        k(    4) = (   0.0000000   0.3333333   0.3333333), wk =   0.1481481
        k(    5) = (   0.0000000   0.3333333  -0.3333333), wk =   0.1481481
        k(    6) = (   0.3333333  -0.0000000  -0.0000000), wk =   0.1481481
        k(    7) = (   0.3333333  -0.0000000   0.3333333), wk =   0.1481481
        k(    8) = (   0.3333333  -0.0000000  -0.3333333), wk =   0.1481481
        k(    9) = (   0.3333333   0.3333333   0.0000000), wk =   0.1481481
        k(   10) = (   0.3333333   0.3333333   0.3333333), wk =   0.1481481
        k(   11) = (   0.3333333   0.3333333  -0.3333333), wk =   0.1481481
        k(   12) = (   0.3333333  -0.3333333  -0.0000000), wk =   0.1481481
        k(   13) = (   0.3333333  -0.3333333   0.3333333), wk =   0.1481481
        k(   14) = (   0.3333333  -0.3333333  -0.3333333), wk =   0.1481481

     Check: negative core charge=   -0.000009

     Initial potential from superposition of free atoms

     starting charge      81.9659, renormalised to      84.0000
     Starting wfcs are   52 randomized atomic wfcs +   12 random wfcs
     Checking if some PAW data can be deallocated...

     Self-consistent Calculation

     iteration #  1     ecut=    30.00 Ry     beta= 0.70
     Davidson diagonalization with overlap

     ethr =  1.00E-02,  avg # of iterations =  5.7

     negative rho (up, down):  3.375E-02 0.000E+00

     total energy              =   -1448.28906454 Ry
     estimated scf accuracy    <       2.06134143 Ry

[...]

     negative rho (up, down):  7.730E-03 0.000E+00

[...]

     total energy              =   -1449.18069525 Ry
     estimated scf accuracy    <       0.00000790 Ry

     iteration # 12     ecut=    30.00 Ry     beta= 0.70
     Davidson diagonalization with overlap

     ethr =  9.40E-09,  avg # of iterations =  1.0

     End of self-consistent calculation

          k = 0.0000 0.0000 0.0000 (  2733 PWs)   bands (ev):

   -15.4267 -15.2798 -11.0815 -11.0717 -10.6119 -10.6083 -10.4497 -10.4484
   -10.4471 -10.4204 -10.4191 -10.4167  -7.9839  -6.9548  -6.9382  -6.9178
    -5.4827  -5.4725  -0.9920  -0.9639  -0.9478  -0.6251  -0.6187  -0.6088
     0.9808   5.2072   5.2072   5.2490   8.0707   8.0850   8.1001   8.6121
     8.6363   8.6735   8.8088   8.8144   9.1150   9.1292   9.1344   9.2069
     9.5732   9.5803  10.1742  14.5579  14.5779  14.6554  14.6597  14.6626
    16.7886  16.8202  16.8533  16.9157  17.9622  19.0388  19.0497  19.8888
    19.9326  20.0275  20.5813  21.9891  22.1293  22.1897  22.9071  23.0085

     occupation numbers
     1.0000   1.0000   1.0000   1.0000   1.0000   1.0000   1.0000   1.0000
     1.0000   1.0000   1.0000   1.0000   1.0000   1.0000   1.0000   1.0000
     1.0000   1.0000   1.0000   1.0000   1.0000   1.0000   1.0000   1.0000
     1.0000   1.0000   1.0000   1.0000   1.0000   1.0000   1.0000   1.0000
     1.0000   1.0000   1.0000   1.0000   1.0000   1.0000   1.0000   1.0000
     1.0000   1.0000   0.0000   0.0000   0.0000   0.0000   0.0000   0.0000
     0.0000   0.0000   0.0000   0.0000   0.0000   0.0000   0.0000   0.0000
     0.0000   0.0000   0.0000   0.0000   0.0000   0.0000   0.0000   0.0000

[...]

          k = 0.3333-0.3326-0.4720 (  2758 PWs)   bands (ev):

   -15.3424 -15.3420 -10.9934 -10.9714 -10.7655 -10.7470 -10.4389 -10.4352
   -10.4336 -10.4303 -10.4284 -10.4237  -7.5196  -7.3747  -6.9795  -6.6605
    -6.0315  -5.8343  -0.6055  -0.5858  -0.5241  -0.4918  -0.4266  -0.4124
     3.0917   3.3053   5.3265   5.9144   6.8621   7.1375   7.2967   7.5280
     7.9039   8.1304   8.2103   8.4048   8.4323   8.7217   8.7339   8.8038
     8.9868   9.3312  14.1528  14.3886  16.3343  16.6736  16.8111  17.3669
    17.4007  17.4326  17.9065  17.9746  18.0056  18.0283  18.7929  19.0093
    19.2707  19.8142  20.2745  21.0756  21.2081  21.5826  21.9012  23.7608

     occupation numbers
     1.0000   1.0000   1.0000   1.0000   1.0000   1.0000   1.0000   1.0000
     1.0000   1.0000   1.0000   1.0000   1.0000   1.0000   1.0000   1.0000
     1.0000   1.0000   1.0000   1.0000   1.0000   1.0000   1.0000   1.0000
     1.0000   1.0000   1.0000   1.0000   1.0000   1.0000   1.0000   1.0000
     1.0000   1.0000   1.0000   1.0000   1.0000   1.0000   1.0000   1.0000
     1.0000   1.0000   0.0000   0.0000   0.0000   0.0000   0.0000   0.0000
     0.0000   0.0000   0.0000   0.0000   0.0000   0.0000   0.0000   0.0000
     0.0000   0.0000   0.0000   0.0000   0.0000   0.0000   0.0000   0.0000

     highest occupied, lowest unoccupied level (ev):     9.5803   10.1742

!    total energy              =   -1449.18069535 Ry
     estimated scf accuracy    <       0.00000001 Ry

     The total energy is the sum of the following terms:
     one-electron contribution =    -163.66846833 Ry
     hartree contribution      =     146.33789183 Ry
     xc contribution           =    -181.09747912 Ry
     ewald contribution        =    -443.70106060 Ry
     one-center paw contrib.   =    -807.05157913 Ry
      -> PAW hartree energy AE =      57.60817617 Ry
      -> PAW hartree energy PS =     -57.38406236 Ry
      -> PAW xc energy AE      =    -788.49070047 Ry
      -> PAW xc energy PS      =      38.35141142 Ry
      -> total E_H with PAW    =     146.56200564 Ry
      -> total E_XC with PAW   =    -931.23676816 Ry

     convergence has been achieved in  12 iterations

     Writing all to output data dir calculations_bands/myprefix.save/

     General routines

     Parallel routines

     PAW routines

   This run was terminated on:  21: 4:44   4Jun2023

   JOB DONE.