     Program PWSCF v.7.1 starts on 13Jul2023 at  7:53:16

     Reading input from espresso_5884.pwi
Warning: card &CELL ignored
Warning: card / ignored

     Current dimensions of program PWSCF are:
     Max number of different atomic species (ntypx) = 10
     Max number of k-points (npk) =  40000
     Max angular momentum in pseudopotentials (lmaxx) =  4
     file O.pbe-n-kjpaw_psl.0.1.UPF: wavefunction(s)  2P renormalized
     Message from routine setup:
     using ibrav=0 with symmetry is DISCOURAGED, use correct ibrav instead

     K-points division:     npool     =       2
     R & G space division:  proc/nbgrp/npool/nimage =       8
     Subspace diagonalization in iterative solution of the eigenvalue problem:
     a serial algorithm will be used

     Using Slab Decomposition

     bravais-lattice index     =            0
     lattice parameter (alat)  =      12.3507  a.u.
     unit-cell volume          =    1435.3182 (a.u.)^3
     number of atoms/cell      =           20
     number of atomic types    =            4
     number of electrons       =       128.00
     number of Kohn-Sham states=           64
     kinetic-energy cutoff     =      30.0000  Ry
     charge density cutoff     =     240.0000  Ry
     scf convergence threshold =      1.0E-06
     mixing beta               =       0.7000
     number of iterations used =            8  plain     mixing
     Exchange-correlation= SLA  PW   PBX  PBC
                           (   1   4   3   4   0   0   0)

     celldm(1)=  12.350707  celldm(2)=   0.000000  celldm(3)=   0.000000
     celldm(4)=   0.000000  celldm(5)=   0.000000  celldm(6)=   0.000000

     crystal axes: (cart. coord. in units of alat)
               a(1) = (   1.000000   0.000000   0.000000 )
               a(2) = (   0.113516   0.993536   0.000000 )
               a(3) = (   0.210383   0.187714   0.766812 )

     reciprocal axes: (cart. coord. in units 2 pi/alat)
               b(1) = (  1.000000 -0.114254 -0.246391 )
               b(2) = (  0.000000  1.006506 -0.246391 )
               b(3) = (  0.000000  0.000000  1.304100 )

     PseudoPot. # 1 for Li read from file:
     /lustre07/scratch/pragov/crystal_structure_design/utils/SSSP/li_pbe_v1.4.uspp.F.UPF
     MD5 check sum: e912e257baa3777c20ea3d68f190483c
     Pseudo is Ultrasoft, Zval =  3.0
     Generated by new atomic code, or converted to UPF format
     Using radial grid of  751 points,  5 beta functions with:
                l(1) =   0
                l(2) =   0
                l(3) =   0
                l(4) =   1
                l(5) =   1
     Q(r) pseudized with 10 coefficients,  rinner =    1.150   1.150   1.150

     PseudoPot. # 2 for Co read from file:
     /lustre07/scratch/pragov/crystal_structure_design/utils/SSSP/Co_pbe_v1.2.uspp.F.UPF
     MD5 check sum: 5f91765df6ddd3222702df6e7b74a16d
     Pseudo is Ultrasoft + core correction, Zval = 17.0
     Generated by new atomic code, or converted to UPF format
     Using radial grid of  863 points,  6 beta functions with:
                l(1) =   0
                l(2) =   0
                l(3) =   1
                l(4) =   1
                l(5) =   2
                l(6) =   2
     Q(r) pseudized with  8 coefficients,  rinner =    1.200   1.200   1.200
                                                       1.200   1.200

     PseudoPot. # 3 for Si read from file:
     /lustre07/scratch/pragov/crystal_structure_design/utils/SSSP/Si.pbe-n-rrkjus_psl.1.0.0.UPF
     MD5 check sum: 0b0bb1205258b0d07b9f9672cf965d36
     Pseudo is Ultrasoft + core correction, Zval =  4.0
     Generated using "atomic" code by A. Dal Corso  v.5.1
     Using radial grid of 1141 points,  6 beta functions with:
                l(1) =   0
                l(2) =   0
                l(3) =   1
                l(4) =   1
                l(5) =   2
                l(6) =   2
     Q(r) pseudized with 0 coefficients

     PseudoPot. # 4 for O  read from file:
     /lustre07/scratch/pragov/crystal_structure_design/utils/SSSP/O.pbe-n-kjpaw_psl.0.1.UPF
     MD5 check sum: 0234752ac141de4415c5fc33072bef88
     Pseudo is Projector augmented-wave + core cor, Zval =  6.0
     Generated using "atomic" code by A. Dal Corso  v.5.0.99 svn rev. 10869
     Shape of augmentation charge: BESSEL
     Using radial grid of 1095 points,  4 beta functions with:
                l(1) =   0
                l(2) =   0
                l(3) =   1
                l(4) =   1
     Q(r) pseudized with 0 coefficients

     atomic species   valence    mass     pseudopotential
        Li             3.00     6.94000     Li( 1.00)
        Co            17.00    58.93319     Co( 1.00)
        Si             4.00    28.08500     Si( 1.00)
        O              6.00    15.99900     O ( 1.00)

      2 Sym. Ops., with inversion, found

                                    s                        frac. trans.

      isym =  1     identity

 cryst.   s( 1) = (     1          0          0      )
                  (     0          1          0      )
                  (     0          0          1      )

 cart.    s( 1) = (  1.0000000  0.0000000 -0.0000000 )
                  (  0.0000000  1.0000000  0.0000000 )
                  (  0.0000000  0.0000000  1.0000000 )

      isym =  2     inversion

 cryst.   s( 2) = (    -1          0          0      )
                  (     0         -1          0      )
                  (     0          0         -1      )

 cart.    s( 2) = ( -1.0000000 -0.0000000  0.0000000 )
                  (  0.0000000 -1.0000000  0.0000000 )
                  (  0.0000000  0.0000000 -1.0000000 )

   Cartesian axes

     site n.     atom                  positions (alat units)
         1           Li  tau(   1) = (   0.9281822   0.3981175   0.5751093  )
         2           Li  tau(   2) = (   0.3957162   0.7831329   0.1917031  )
         3           Co  tau(   3) = (   0.9636219   0.1466468   0.1917031  )
         4           Co  tau(   4) = (   0.3602765   1.0346036   0.5751093  )
         5           Si  tau(   5) = (   0.9194389   0.6605141   0.2034829  )
         6           Si  tau(   6) = (   0.8658067   0.9323741   0.5868890  )
         7           Si  tau(   7) = (   0.4580916   0.2488763   0.1799233  )
         8           Si  tau(   8) = (   0.4044595   0.5207363   0.5633295  )
         9           O   tau(   9) = (   1.0934726   0.8204651   0.1159620  )
        10           O   tau(  10) = (   0.9986054   0.4305269   0.2512100  )
        11           O   tau(  11) = (   1.0444795   1.0871260   0.4993681  )
        12           O   tau(  12) = (   0.7261875   0.6543036   0.0439077  )
        13           O   tau(  13) = (   0.6776056   0.1441143   0.1321961  )
        14           O   tau(  14) = (   0.8376994   0.7410768   0.4273138  )
        15           O   tau(  15) = (   0.4861990   0.4401736   0.3394985  )
        16           O   tau(  16) = (   0.6462928   1.0371360   0.6346162  )
        17           O   tau(  17) = (   0.5977109   0.5269467   0.7229047  )
        18           O   tau(  18) = (   0.2794189   0.0941244   0.2674442  )
        19           O   tau(  19) = (   0.3252930   0.7507235   0.5156023  )
        20           O   tau(  20) = (   0.2304257   0.3607852   0.6508504  )

   Crystallographic axes

     site n.     atom                  positions (cryst. coord.)
         1           Li  tau(   1) = (  0.7409940  0.2590060  0.7500000  )
         2           Li  tau(   2) = (  0.2590060  0.7409940  0.2500000  )
         3           Co  tau(   3) = (  0.8996330  0.1003670  0.2500000  )
         4           Co  tau(   4) = (  0.1003670  0.8996330  0.7500000  )
         5           Si  tau(   5) = (  0.7938360  0.6146750  0.2653620  )
         6           Si  tau(   6) = (  0.6146750  0.7938360  0.7653620  )
         7           Si  tau(   7) = (  0.3853250  0.2061640  0.2346380  )
         8           Si  tau(   8) = (  0.2061640  0.3853250  0.7346380  )
         9           O   tau(   9) = (  0.9711590  0.7972310  0.1512260  )
        10           O   tau(  10) = (  0.8875200  0.3714320  0.3276030  )
        11           O   tau(  11) = (  0.7972310  0.9711590  0.6512260  )
        12           O   tau(  12) = (  0.6406120  0.6477420  0.0572600  )
        13           O   tau(  13) = (  0.6285680  0.1124800  0.1723970  )
        14           O   tau(  14) = (  0.6477420  0.6406120  0.5572600  )
        15           O   tau(  15) = (  0.3522580  0.3593880  0.4427400  )
        16           O   tau(  16) = (  0.3714320  0.8875200  0.8276030  )
        17           O   tau(  17) = (  0.3593880  0.3522580  0.9427400  )
        18           O   tau(  18) = (  0.2027690  0.0288410  0.3487740  )
        19           O   tau(  19) = (  0.1124800  0.6285680  0.6723970  )
        20           O   tau(  20) = (  0.0288410  0.2027690  0.8487740  )

     number of k points=    14
                       cart. coord. in units 2pi/alat
        k(    1) = (   0.0000000   0.0000000   0.0000000), wk =   0.0740741
        k(    2) = (   0.0000000   0.0000000   0.4347000), wk =   0.1481481
        k(    3) = (   0.0000000   0.3355020  -0.0821302), wk =   0.1481481
        k(    4) = (   0.0000000   0.3355020   0.3525698), wk =   0.1481481
        k(    5) = (   0.0000000   0.3355020  -0.5168302), wk =   0.1481481
        k(    6) = (   0.3333333  -0.0380848  -0.0821302), wk =   0.1481481
        k(    7) = (   0.3333333  -0.0380848   0.3525698), wk =   0.1481481
        k(    8) = (   0.3333333  -0.0380848  -0.5168302), wk =   0.1481481
        k(    9) = (   0.3333333   0.2974172  -0.1642604), wk =   0.1481481
        k(   10) = (   0.3333333   0.2974172   0.2704396), wk =   0.1481481
        k(   11) = (   0.3333333   0.2974172  -0.5989605), wk =   0.1481481
        k(   12) = (   0.3333333  -0.3735867   0.0000000), wk =   0.1481481
        k(   13) = (   0.3333333  -0.3735867   0.4347000), wk =   0.1481481
        k(   14) = (   0.3333333  -0.3735867  -0.4347000), wk =   0.1481481

                       cryst. coord.
        k(    1) = (   0.0000000   0.0000000   0.0000000), wk =   0.0740741
        k(    2) = (   0.0000000   0.0000000   0.3333333), wk =   0.1481481
        k(    3) = (   0.0000000   0.3333333   0.0000000), wk =   0.1481481
        k(    4) = (   0.0000000   0.3333333   0.3333333), wk =   0.1481481
        k(    5) = (   0.0000000   0.3333333  -0.3333333), wk =   0.1481481
        k(    6) = (   0.3333333   0.0000000   0.0000000), wk =   0.1481481
        k(    7) = (   0.3333333   0.0000000   0.3333333), wk =   0.1481481
        k(    8) = (   0.3333333   0.0000000  -0.3333333), wk =   0.1481481
        k(    9) = (   0.3333333   0.3333333   0.0000000), wk =   0.1481481
        k(   10) = (   0.3333333   0.3333333   0.3333333), wk =   0.1481481
        k(   11) = (   0.3333333   0.3333333  -0.3333333), wk =   0.1481481
        k(   12) = (   0.3333333  -0.3333333  -0.0000000), wk =   0.1481481
        k(   13) = (   0.3333333  -0.3333333   0.3333333), wk =   0.1481481
        k(   14) = (   0.3333333  -0.3333333  -0.3333333), wk =   0.1481481

     Check: negative core charge=   -0.000016

     Initial potential from superposition of free atoms

     starting charge     125.0962, renormalised to     128.0000
     Starting wfcs are  100 randomized atomic wfcs
     Checking if some PAW data can be deallocated...

     Self-consistent Calculation

     iteration #  1     ecut=    30.00 Ry     beta= 0.70
     Davidson diagonalization with overlap

     ethr =  1.00E-02,  avg # of iterations =  2.0

     total energy              =   -1168.12020917 Ry
     estimated scf accuracy    <       7.06895302 Ry

[...]

     total energy              =   -1172.21014398 Ry
     estimated scf accuracy    <       0.00000335 Ry

     iteration # 15     ecut=    30.00 Ry     beta= 0.70
     Davidson diagonalization with overlap

     ethr =  2.36E-09,  avg # of iterations =  2.3

     End of self-consistent calculation

          k = 0.0000 0.0000 0.0000 (  3963 PWs)   bands (ev):

   -89.1046 -89.1045 -52.3732 -52.3627 -52.3241 -52.3223 -52.2667 -52.2620
   -37.7721 -37.7720 -14.4135 -14.0544 -12.8475 -12.8109 -12.7327 -12.6754
   -12.6157 -12.2981 -11.9533 -11.8573 -11.6775 -11.6712  -3.1956  -3.1439
    -1.3223  -0.4373  -0.2594  -0.0940  -0.0203   0.1167   0.4587   0.6374
     0.7214   0.9572   1.4198   1.5777   1.8246   1.9546   2.0738   2.3683
     2.4299   2.7438   2.7757   2.9736   3.1831   3.1859   3.2025   3.5121
     3.6456   3.6490   3.8471   3.8884   3.9386   4.0509   4.2279   4.4607
     4.6525   4.7875   5.5208   5.6667   5.7409   5.7736   5.9133   5.9169

     occupation numbers
     1.0000   1.0000   1.0000   1.0000   1.0000   1.0000   1.0000   1.0000
     1.0000   1.0000   1.0000   1.0000   1.0000   1.0000   1.0000   1.0000
     1.0000   1.0000   1.0000   1.0000   1.0000   1.0000   1.0000   1.0000
     1.0000   1.0000   1.0000   1.0000   1.0000   1.0000   1.0000   1.0000
     1.0000   1.0000   1.0000   1.0000   1.0000   1.0000   1.0000   1.0000
     1.0000   1.0000   1.0000   1.0000   1.0000   1.0000   1.0000   1.0000
     1.0000   1.0000   1.0000   1.0000   1.0000   1.0000   1.0000   1.0000
     1.0000   1.0000   1.0000   1.0000   1.0000   1.0000   1.0000   1.0000

[...]

          k = 0.3333-0.3736-0.4347 (  3972 PWs)   bands (ev):

   -89.1046 -89.1044 -52.3716 -52.3659 -52.3240 -52.3223 -52.2641 -52.2623
   -37.7721 -37.7719 -14.0351 -13.9202 -13.4231 -13.3428 -12.6620 -12.4973
   -12.4378 -12.3184 -11.8723 -11.8376 -11.7179 -11.6671  -2.6204  -2.5426
    -1.3835  -1.1807  -0.3237   0.0103   0.1269   0.1971   0.6797   0.7696
     0.7946   0.9302   1.3019   1.6210   1.7909   1.9387   2.0223   2.1697
     2.4278   2.5479   2.7058   2.7621   2.9068   3.0261   3.0788   3.2704
     3.4955   3.5445   3.6220   3.7263   3.9982   4.1353   4.3106   4.3997
     4.5412   4.6393   5.5620   5.6205   5.6847   5.7719   5.8594   5.9536

     occupation numbers
     1.0000   1.0000   1.0000   1.0000   1.0000   1.0000   1.0000   1.0000
     1.0000   1.0000   1.0000   1.0000   1.0000   1.0000   1.0000   1.0000
     1.0000   1.0000   1.0000   1.0000   1.0000   1.0000   1.0000   1.0000
     1.0000   1.0000   1.0000   1.0000   1.0000   1.0000   1.0000   1.0000
     1.0000   1.0000   1.0000   1.0000   1.0000   1.0000   1.0000   1.0000
     1.0000   1.0000   1.0000   1.0000   1.0000   1.0000   1.0000   1.0000
     1.0000   1.0000   1.0000   1.0000   1.0000   1.0000   1.0000   1.0000
     1.0000   1.0000   1.0000   1.0000   1.0000   1.0000   1.0000   1.0000

     highest occupied level (ev):     5.9903

!    total energy              =   -1172.21014319 Ry
     estimated scf accuracy    <       0.00000100 Ry

     The total energy is the sum of the following terms:
     one-electron contribution =    -749.10666860 Ry
     hartree contribution      =     437.77303001 Ry
     xc contribution           =    -187.06319472 Ry
     ewald contribution        =    -559.65399263 Ry
     one-center paw contrib.   =    -114.15931726 Ry
      -> PAW hartree energy AE =       0.00000000 Ry
      -> PAW hartree energy PS =       0.00000000 Ry
      -> PAW xc energy AE      =       0.00000000 Ry
      -> PAW xc energy PS      =       0.00000000 Ry
      -> total E_H with PAW    =     437.77303001 Ry
      -> total E_XC with PAW   =    -187.06319472 Ry

     convergence has been achieved in  15 iterations

     Writing all to output data dir bands_nm/myprefix.save/

     General routines

     Parallel routines

     PAW routines

   This run was terminated on:   7:53:33  13Jul2023

   JOB DONE.