     Program PWSCF v.7.1 starts on 14Jul2023 at 13:25:14

     Reading input from espresso_18429.pwi
Warning: card &CELL ignored
Warning: card / ignored

     Current dimensions of program PWSCF are:
     Max number of different atomic species (ntypx) = 10
     Max number of k-points (npk) =  40000
     Max angular momentum in pseudopotentials (lmaxx) =  4
     file Mg.pbe-n-kjpaw_psl.0.3.0.UPF: wavefunction(s)  3S renormalized
     file Nb.pbe-spn-kjpaw_psl.0.3.0.UPF: wavefunction(s)  4S 4P renormalized
     Message from routine setup:
     using ibrav=0 with symmetry is DISCOURAGED, use correct ibrav instead

     K-points division:     npool     =       2
     R & G space division:  proc/nbgrp/npool/nimage =       4
     Subspace diagonalization in iterative solution of the eigenvalue problem:
     a serial algorithm will be used

     Using Slab Decomposition

     bravais-lattice index     =            0
     lattice parameter (alat)  =      10.2004  a.u.
     unit-cell volume          =     866.1749 (a.u.)^3
     number of atoms/cell      =           12
     number of atomic types    =            3
     number of electrons       =        64.00
     number of Kohn-Sham states=           64
     kinetic-energy cutoff     =      30.0000  Ry
     charge density cutoff     =     240.0000  Ry
     scf convergence threshold =      1.0E-06
     mixing beta               =       0.7000
     number of iterations used =            8  plain     mixing
     Exchange-correlation= PBE
                           (   1   4   3   4   0   0   0)

     celldm(1)=  10.200373  celldm(2)=   0.000000  celldm(3)=   0.000000
     celldm(4)=   0.000000  celldm(5)=   0.000000  celldm(6)=   0.000000

     crystal axes: (cart. coord. in units of alat)
               a(1) = (   1.000000   0.000000   0.000000 )
               a(2) = (  -0.498865   0.866680   0.000000 )
               a(3) = (  -0.168318  -0.291095   0.941670 )

     reciprocal axes: (cart. coord. in units 2 pi/alat)
               b(1) = (  1.000000  0.575605  0.356679 )
               b(2) = (  0.000000  1.153829  0.356679 )
               b(3) = (  0.000000  0.000000  1.061943 )

     PseudoPot. # 1 for Mg read from file:
     /lustre07/scratch/pragov/crystal_structure_design/utils/SSSP/Mg.pbe-n-kjpaw_psl.0.3.0.UPF
     MD5 check sum: 24ecedc7f3e3cbe212e682f4413594e4
     Pseudo is Projector augmented-wave + core cor, Zval =  2.0
     Generated using "atomic" code by A. Dal Corso  v.5.0.99 svn rev. 10869
     Shape of augmentation charge: PSQ
     Using radial grid of 1129 points,  4 beta functions with:
                l(1) =   0
                l(2) =   0
                l(3) =   1
                l(4) =   1
     Q(r) pseudized with 0 coefficients

     PseudoPot. # 2 for Nb read from file:
     /lustre07/scratch/pragov/crystal_structure_design/utils/SSSP/Nb.pbe-spn-kjpaw_psl.0.3.0.UPF
     MD5 check sum: 411d72ad547312f8017e2943ceca08cc
     Pseudo is Projector augmented-wave + core cor, Zval = 13.0
     Generated using "atomic" code by A. Dal Corso  v.5.0.99 svn rev. 10869
     Shape of augmentation charge: PSQ
     Using radial grid of 1227 points,  6 beta functions with:
                l(1) =   0
                l(2) =   0
                l(3) =   1
                l(4) =   1
                l(5) =   2
                l(6) =   2
     Q(r) pseudized with 0 coefficients

     PseudoPot. # 3 for N  read from file:
     /lustre07/scratch/pragov/crystal_structure_design/utils/SSSP/N.pbe-n-radius_5.UPF
     MD5 check sum: 16739722b17309cd8fe442a2ace49922
     Pseudo is Ultrasoft + core correction, Zval =  5.0
     Generated using "atomic" code by A. Dal Corso  v.5.1
     Using radial grid of 1085 points,  4 beta functions with:
                l(1) =   0
                l(2) =   0
                l(3) =   1
                l(4) =   1
     Q(r) pseudized with 0 coefficients

     atomic species   valence    mass     pseudopotential
        Mg             2.00    24.30500     Mg( 1.00)
        Nb            13.00    92.90637     Nb( 1.00)
        N              5.00    14.00700     N ( 1.00)

      2 Sym. Ops., with inversion, found

                                    s                        frac. trans.

      isym =  1     identity

 cryst.   s( 1) = (     1          0          0      )
                  (     0          1          0      )
                  (     0          0          1      )

 cart.    s( 1) = (  1.0000000  0.0000000  0.0000000 )
                  (  0.0000000  1.0000000 -0.0000000 )
                  (  0.0000000  0.0000000  1.0000000 )

      isym =  2     inversion

 cryst.   s( 2) = (    -1          0          0      )
                  (     0         -1          0      )
                  (     0          0         -1      )

 cart.    s( 2) = ( -1.0000000  0.0000000 -0.0000000 )
                  (  0.0000000 -1.0000000  0.0000000 )
                  (  0.0000000  0.0000000 -1.0000000 )

   Cartesian axes

     site n.     atom                  positions (alat units)
         1           Mg  tau(   1) = (   0.6713490  -0.0041766   0.4708350  )
         2           Mg  tau(   2) = (  -0.3385321   0.5797610   0.4708350  )
         3           Mg  tau(   3) = (   0.1664084   0.2877922   0.4708350  )
         4           Mg  tau(   4) = (   0.0000000   0.0000000   0.0000000  )
         5           Nb  tau(   5) = (  -0.0014560   0.5790660   0.0000000  )
         6           Nb  tau(   6) = (   0.5025912   0.2876137   0.0000000  )
         7           N   tau(   7) = (   0.3461145  -0.0004436   0.2211870  )
         8           N   tau(   8) = (   0.5058656   0.2758353   0.7204831  )
         9           N   tau(   9) = (  -0.0132976   0.5760280   0.7204831  )
        10           N   tau(  10) = (  -0.1730488   0.2997492   0.2211870  )
        11           N   tau(  11) = (   0.3273304   0.5660960   0.2260215  )
        12           N   tau(  12) = (   0.0054865   0.0094884   0.7156486  )

   Crystallographic axes

     site n.     atom                  positions (cryst. coord.)
         1           Mg  tau(   1) = (  0.8368820  0.1631180  0.5000000  )
         2           Mg  tau(   2) = (  0.1631180  0.8368820  0.5000000  )
         3           Mg  tau(   3) = (  0.5000000  0.5000000  0.5000000  )
         4           Mg  tau(   4) = (  0.0000000  0.0000000  0.0000000  )
         5           Nb  tau(   5) = (  0.3318570  0.6681430  0.0000000  )
         6           Nb  tau(   6) = (  0.6681430  0.3318570  0.0000000  )
         7           N   tau(   7) = (  0.4247520  0.0783810  0.2348880  )
         8           N   tau(   8) = (  0.9216190  0.5752480  0.7651120  )
         9           N   tau(   9) = (  0.5752480  0.9216190  0.7651120  )
        10           N   tau(  10) = (  0.0783810  0.4247520  0.2348880  )
        11           N   tau(  11) = (  0.7337950  0.7337950  0.2400220  )
        12           N   tau(  12) = (  0.2662050  0.2662050  0.7599780  )

     number of k points=    14
                       cart. coord. in units 2pi/alat
        k(    1) = (   0.0000000   0.0000000   0.0000000), wk =   0.0740741
        k(    2) = (   0.0000000   0.0000000   0.3539810), wk =   0.1481481
        k(    3) = (   0.0000000   0.3846096   0.1188931), wk =   0.1481481
        k(    4) = (   0.0000000   0.3846096   0.4728741), wk =   0.1481481
        k(    5) = (   0.0000000   0.3846096  -0.2350879), wk =   0.1481481
        k(    6) = (   0.3333333   0.1918682   0.1188931), wk =   0.1481481
        k(    7) = (   0.3333333   0.1918682   0.4728741), wk =   0.1481481
        k(    8) = (   0.3333333   0.1918682  -0.2350880), wk =   0.1481481
        k(    9) = (   0.3333333   0.5764778   0.2377861), wk =   0.1481481
        k(   10) = (   0.3333333   0.5764778   0.5917671), wk =   0.1481481
        k(   11) = (   0.3333333   0.5764778  -0.1161949), wk =   0.1481481
        k(   12) = (   0.3333333  -0.1927414  -0.0000000), wk =   0.1481481
        k(   13) = (   0.3333333  -0.1927414   0.3539810), wk =   0.1481481
        k(   14) = (   0.3333333  -0.1927414  -0.3539810), wk =   0.1481481

                       cryst. coord.
        k(    1) = (   0.0000000   0.0000000   0.0000000), wk =   0.0740741
        k(    2) = (   0.0000000   0.0000000   0.3333333), wk =   0.1481481
        k(    3) = (   0.0000000   0.3333333   0.0000000), wk =   0.1481481
        k(    4) = (   0.0000000   0.3333333   0.3333333), wk =   0.1481481
        k(    5) = (   0.0000000   0.3333333  -0.3333333), wk =   0.1481481
        k(    6) = (   0.3333333   0.0000000   0.0000000), wk =   0.1481481
        k(    7) = (   0.3333333   0.0000000   0.3333333), wk =   0.1481481
        k(    8) = (   0.3333333   0.0000000  -0.3333333), wk =   0.1481481
        k(    9) = (   0.3333333   0.3333333   0.0000000), wk =   0.1481481
        k(   10) = (   0.3333333   0.3333333   0.3333333), wk =   0.1481481
        k(   11) = (   0.3333333   0.3333333  -0.3333333), wk =   0.1481481
        k(   12) = (   0.3333333  -0.3333333   0.0000000), wk =   0.1481481
        k(   13) = (   0.3333333  -0.3333333   0.3333333), wk =   0.1481481
        k(   14) = (   0.3333333  -0.3333333  -0.3333333), wk =   0.1481481

     Check: negative core charge=   -0.000006

     Initial potential from superposition of free atoms

     starting charge      63.9920, renormalised to      64.0000
     Starting wfcs are   60 randomized atomic wfcs +    4 random wfcs
     Checking if some PAW data can be deallocated...

     Self-consistent Calculation

     iteration #  1     ecut=    30.00 Ry     beta= 0.70
     Davidson diagonalization with overlap

     ethr =  1.00E-02,  avg # of iterations =  5.6

     total energy              =    -921.97276832 Ry
     estimated scf accuracy    <       5.64198529 Ry

[...]

     total energy              =    -924.94456478 Ry
     estimated scf accuracy    <       0.00018758 Ry

     iteration #  9     ecut=    30.00 Ry     beta= 0.70
     Davidson diagonalization with overlap

     ethr =  2.93E-07,  avg # of iterations =  3.0

     End of self-consistent calculation

          k = 0.0000 0.0000 0.0000 (  2413 PWs)   bands (ev):

   -45.1706 -45.1073 -21.4288 -21.4033 -21.2770 -21.1516 -21.0853 -21.0652
    -4.5222  -2.8109  -2.7766  -2.3146  -2.2737  -2.2623   4.2759   5.1798
     5.6952   5.9954   6.1226   6.3728   6.6695   6.7175   6.9841   6.9848
     7.7284   7.9347   8.4268   9.0981   9.4090  10.1110  10.2561  10.2654
    12.3342  12.4916  12.5627  12.5802  13.1965  13.4028  15.1877  16.3350
    16.3968  16.6693  16.8157  17.0612  18.7029  19.2649  19.6274  19.8754
    20.1216  20.6895  20.7637  21.0585  21.0673  21.8456  21.9690  22.8466
    24.0344  24.2579  24.5192  24.8144  25.1825  25.2576  25.4327  25.7140

     occupation numbers
     1.0000   1.0000   1.0000   1.0000   1.0000   1.0000   1.0000   1.0000
     1.0000   1.0000   1.0000   1.0000   1.0000   1.0000   1.0000   1.0000
     1.0000   1.0000   1.0000   1.0000   1.0000   1.0000   1.0000   1.0000
     1.0000   1.0000   1.0000   1.0000   1.0000   1.0000   1.0000   1.0000
     0.0000   0.0000   0.0000   0.0000   0.0000   0.0000   0.0000   0.0000
     0.0000   0.0000   0.0000   0.0000   0.0000   0.0000   0.0000   0.0000
     0.0000   0.0000   0.0000   0.0000   0.0000   0.0000   0.0000   0.0000
     0.0000   0.0000   0.0000   0.0000   0.0000   0.0000   0.0000   0.0000

[...]

          k = 0.3333-0.1927-0.3540 (  2406 PWs)   bands (ev):

   -45.1581 -45.1198 -21.4512 -21.3505 -21.2540 -21.1769 -21.1409 -21.0413
    -3.6984  -3.0868  -2.9954  -2.7182  -2.5498  -2.1964   4.8283   5.1210
     5.5598   5.9800   5.9933   6.5978   6.7580   6.9340   7.1367   7.7993
     8.0603   8.2223   8.3883   8.7553   8.9165   9.1812   9.4070   9.6916
    12.0988  12.2313  12.6616  12.9211  13.1996  13.6854  15.5639  16.1422
    16.3657  16.8444  17.9670  18.2943  18.8129  19.2478  19.3511  19.5998
    20.0144  20.0670  20.7304  20.8536  21.4725  21.7596  22.1945  22.4935
    23.0818  23.3109  24.1538  24.4768  24.9077  25.0553  26.0125  26.1809

     occupation numbers
     1.0000   1.0000   1.0000   1.0000   1.0000   1.0000   1.0000   1.0000
     1.0000   1.0000   1.0000   1.0000   1.0000   1.0000   1.0000   1.0000
     1.0000   1.0000   1.0000   1.0000   1.0000   1.0000   1.0000   1.0000
     1.0000   1.0000   1.0000   1.0000   1.0000   1.0000   1.0000   1.0000
     0.0000   0.0000   0.0000   0.0000   0.0000   0.0000   0.0000   0.0000
     0.0000   0.0000   0.0000   0.0000   0.0000   0.0000   0.0000   0.0000
     0.0000   0.0000   0.0000   0.0000   0.0000   0.0000   0.0000   0.0000
     0.0000   0.0000   0.0000   0.0000   0.0000   0.0000   0.0000   0.0000

     highest occupied, lowest unoccupied level (ev):    10.2654   11.5006

!    total energy              =    -924.94459789 Ry
     estimated scf accuracy    <       0.00000079 Ry

     The total energy is the sum of the following terms:
     one-electron contribution =    -117.47784541 Ry
     hartree contribution      =      95.84854866 Ry
     xc contribution           =     -97.47786313 Ry
     ewald contribution        =    -263.69737747 Ry
     one-center paw contrib.   =    -542.14006053 Ry
      -> PAW hartree energy AE =       1.82650167 Ry
      -> PAW hartree energy PS =      -1.82350485 Ry
      -> PAW xc energy AE      =     -65.32481107 Ry
      -> PAW xc energy PS      =       2.74463729 Ry
      -> total E_H with PAW    =      95.85154548 Ry
      -> total E_XC with PAW   =    -160.05803692 Ry

     convergence has been achieved in   9 iterations

     Writing all to output data dir bands_nm/myprefix.save/

     General routines

     Parallel routines

     PAW routines

   This run was terminated on:  13:26:44  14Jul2023

   JOB DONE.