     Program PWSCF v.7.0 starts on 23Jun2023 at  7:31:18

     K-points division:     npool     =       2
     R & G space division:  proc/nbgrp/npool/nimage =       4

     Reading input from espresso_390.pwi
Warning: card &CELL ignored
Warning: card / ignored

     Current dimensions of program PWSCF are:
     Max number of different atomic species (ntypx) = 10
     Max number of k-points (npk) =  40000
     Max angular momentum in pseudopotentials (lmaxx) =  4
     Message from routine setup:
     using ibrav=0 with symmetry is DISCOURAGED, use correct ibrav instead

     Using Slab Decomposition

     bravais-lattice index     =            0
     lattice parameter (alat)  =      18.3103  a.u.
     unit-cell volume          =   10501.0231 (a.u.)^3
     number of atoms/cell      =           20
     number of atomic types    =            2
     number of electrons       =       176.00
     number of Kohn-Sham states=           90
     kinetic-energy cutoff     =      30.0000  Ry
     charge density cutoff     =     240.0000  Ry
     scf convergence threshold =      1.0E-06
     mixing beta               =       0.7000
     number of iterations used =            8  plain     mixing
     Exchange-correlation=  SLA  PW   PBX  PBC
                           (   1   4   3   4   0   0   0)

     celldm(1)=  18.310269  celldm(2)=   0.000000  celldm(3)=   0.000000
     celldm(4)=   0.000000  celldm(5)=   0.000000  celldm(6)=   0.000000

     crystal axes: (cart. coord. in units of alat)
               a(1) = (   1.000000   0.000000   0.000000 )
               a(2) = (   0.000000   1.256364   0.000000 )
               a(3) = (   0.000000   0.000000   1.361545 )

     reciprocal axes: (cart. coord. in units 2 pi/alat)
               b(1) = (  1.000000  0.000000  0.000000 )
               b(2) = (  0.000000  0.795948  0.000000 )
               b(3) = (  0.000000  0.000000  0.734460 )

     PseudoPot. # 1 for Hg read from file:
     /home/pragov/projects/rrg-bengioy-ad/pragov/crystal_structure_design/SSSP/Hg_ONCV_PBE-1.0.oncvpsp.upf
     MD5 check sum: dd5a8773074bfcf4280086d4d95875c4
     Pseudo is Norm-conserving, Zval = 20.0
     Generated using ONCVPSP code by D. R. Hamann
     Using radial grid of 1262 points,  8 beta functions with:
                l(1) =   0
                l(2) =   0
                l(3) =   1
                l(4) =   1
                l(5) =   2
                l(6) =   2
                l(7) =   3
                l(8) =   3

     PseudoPot. # 2 for S  read from file:
     /home/pragov/projects/rrg-bengioy-ad/pragov/crystal_structure_design/SSSP/s_pbe_v1.4.uspp.F.UPF
     MD5 check sum: 88d86576ff6df21479756cfb9bdac1df
     Pseudo is Ultrasoft + core correction, Zval =  6.0
     Generated by new atomic code, or converted to UPF format
     Using radial grid of  907 points,  6 beta functions with:
                l(1) =   0
                l(2) =   0
                l(3) =   1
                l(4) =   1
                l(5) =   2
                l(6) =   2
     Q(r) pseudized with  8 coefficients,  rinner =    1.300   1.300   1.300
                                                       1.300   1.300

     atomic species   valence    mass     pseudopotential
        Hg            20.00   200.59200     Hg( 1.00)
        S              6.00    32.06000     S ( 1.00)

      8 Sym. Ops., with inversion, found ( 6 have fractional translation)

                                    s                        frac. trans.

      isym =  1     identity

 cryst.   s( 1) = (     1          0          0      )
                  (     0          1          0      )
                  (     0          0          1      )

 cart.    s( 1) = (  1.0000000  0.0000000  0.0000000 )
                  (  0.0000000  1.0000000  0.0000000 )
                  (  0.0000000  0.0000000  1.0000000 )

      isym =  2     180 deg rotation - cart. axis [0,0,1]

 cryst.   s( 2) = (    -1          0          0      )    f =(  0.0000000 )
                  (     0         -1          0      )       (  0.0000000 )
                  (     0          0          1      )       (  0.5000000 )

 cart.    s( 2) = ( -1.0000000  0.0000000  0.0000000 )    f =(  0.0000000 )
                  (  0.0000000 -1.0000000  0.0000000 )       (  0.0000000 )
                  (  0.0000000  0.0000000  1.0000000 )       (  0.6807723 )

[...]

      isym =  4     180 deg rotation - cart. axis [1,0,0]

[...]

      isym =  5     inversion

 cryst.   s( 5) = (    -1          0          0      )
                  (     0         -1          0      )
                  (     0          0         -1      )

 cart.    s( 5) = ( -1.0000000  0.0000000  0.0000000 )
                  (  0.0000000 -1.0000000  0.0000000 )
                  (  0.0000000  0.0000000 -1.0000000 )

      isym =  6     inv. 180 deg rotation - cart. axis [0,0,1]

[...]

      isym =  8     inv. 180 deg rotation - cart. axis [1,0,0]

 cryst.   s( 8) = (    -1          0          0      )    f =(  0.5000000 )
                  (     0          1          0      )       (  0.0000000 )
                  (     0          0          1      )       (  0.5000000 )

 cart.    s( 8) = ( -1.0000000  0.0000000  0.0000000 )    f =(  0.5000000 )
                  (  0.0000000  1.0000000  0.0000000 )       (  0.0000000 )
                  (  0.0000000  0.0000000  1.0000000 )       (  0.6807723 )

   Cartesian axes

     site n.     atom                  positions (alat units)
         1           Hg  tau(   1) = (   0.6046320   1.1380738   0.3403862  )
         2           Hg  tau(   2) = (   0.3953680   0.1182905   1.0211585  )
         3           Hg  tau(   3) = (   0.8953680   1.1380738   1.0211585  )
         4           Hg  tau(   4) = (   0.1046320   0.1182905   0.3403862  )
         5           S   tau(   5) = (   0.8818060   0.5975256   0.9107018  )
         6           S   tau(   6) = (   0.1181940   0.6588387   0.2299295  )
         7           S   tau(   7) = (   0.6181940   0.5975256   0.4508428  )
         8           S   tau(   8) = (   0.3818060   0.6588387   1.1316151  )
         9           S   tau(   9) = (   0.1181940   0.6588387   0.4508428  )
        10           S   tau(  10) = (   0.8818060   0.5975256   1.1316151  )
        11           S   tau(  11) = (   0.3818060   0.6588387   0.9107018  )
        12           S   tau(  12) = (   0.6181940   0.5975256   0.2299295  )
        13           S   tau(  13) = (   0.6301160   0.7871135   0.1768170  )
        14           S   tau(  14) = (   0.3698840   0.4692508   0.8575893  )
        15           S   tau(  15) = (   0.8698840   0.7871135   1.1847276  )
        16           S   tau(  16) = (   0.1301160   0.4692508   0.5039553  )
        17           S   tau(  17) = (   0.3698840   0.4692508   1.1847276  )
        18           S   tau(  18) = (   0.6301160   0.7871135   0.5039553  )
        19           S   tau(  19) = (   0.1301160   0.4692508   0.1768170  )
        20           S   tau(  20) = (   0.8698840   0.7871135   0.8575893  )

   Crystallographic axes

     site n.     atom                  positions (cryst. coord.)
         1           Hg  tau(   1) = (  0.6046320  0.9058470  0.2500000  )
         2           Hg  tau(   2) = (  0.3953680  0.0941530  0.7500000  )
         3           Hg  tau(   3) = (  0.8953680  0.9058470  0.7500000  )
         4           Hg  tau(   4) = (  0.1046320  0.0941530  0.2500000  )
         5           S   tau(   5) = (  0.8818060  0.4755990  0.6688740  )
         6           S   tau(   6) = (  0.1181940  0.5244010  0.1688740  )
         7           S   tau(   7) = (  0.6181940  0.4755990  0.3311260  )
         8           S   tau(   8) = (  0.3818060  0.5244010  0.8311260  )
         9           S   tau(   9) = (  0.1181940  0.5244010  0.3311260  )
        10           S   tau(  10) = (  0.8818060  0.4755990  0.8311260  )
        11           S   tau(  11) = (  0.3818060  0.5244010  0.6688740  )
        12           S   tau(  12) = (  0.6181940  0.4755990  0.1688740  )
        13           S   tau(  13) = (  0.6301160  0.6265010  0.1298650  )
        14           S   tau(  14) = (  0.3698840  0.3734990  0.6298650  )
        15           S   tau(  15) = (  0.8698840  0.6265010  0.8701350  )
        16           S   tau(  16) = (  0.1301160  0.3734990  0.3701350  )
        17           S   tau(  17) = (  0.3698840  0.3734990  0.8701350  )
        18           S   tau(  18) = (  0.6301160  0.6265010  0.3701350  )
        19           S   tau(  19) = (  0.1301160  0.3734990  0.1298650  )
        20           S   tau(  20) = (  0.8698840  0.6265010  0.6298650  )

     number of k points=     8
                       cart. coord. in units 2pi/alat
        k(    1) = (   0.0000000   0.0000000   0.0000000), wk =   0.0740741
        k(    2) = (   0.0000000   0.0000000   0.2448200), wk =   0.1481481
        k(    3) = (   0.0000000   0.2653158   0.0000000), wk =   0.1481481
        k(    4) = (   0.0000000   0.2653158   0.2448200), wk =   0.2962963
        k(    5) = (   0.3333333   0.0000000   0.0000000), wk =   0.1481481
        k(    6) = (   0.3333333   0.0000000   0.2448200), wk =   0.2962963
        k(    7) = (   0.3333333   0.2653158   0.0000000), wk =   0.2962963
        k(    8) = (   0.3333333   0.2653158   0.2448200), wk =   0.5925926

                       cryst. coord.
        k(    1) = (   0.0000000   0.0000000   0.0000000), wk =   0.0740741
        k(    2) = (   0.0000000   0.0000000   0.3333333), wk =   0.1481481
        k(    3) = (   0.0000000   0.3333333   0.0000000), wk =   0.1481481
        k(    4) = (   0.0000000   0.3333333   0.3333333), wk =   0.2962963
        k(    5) = (   0.3333333   0.0000000   0.0000000), wk =   0.1481481
        k(    6) = (   0.3333333   0.0000000   0.3333333), wk =   0.2962963
        k(    7) = (   0.3333333   0.3333333   0.0000000), wk =   0.2962963
        k(    8) = (   0.3333333   0.3333333   0.3333333), wk =   0.5925926

     Initial potential from superposition of free atoms

     starting charge     175.9991, renormalised to     176.0000
     Starting wfcs are  104 randomized atomic wfcs

     Self-consistent Calculation

     iteration #  1     ecut=    30.00 Ry     beta= 0.70
     Davidson diagonalization with overlap

     ethr =  1.00E-02,  avg # of iterations =  2.0

     Threshold (ethr) on eigenvalues was too large:
     Diagonalizing with lowered threshold

     Davidson diagonalization with overlap

[...]

     total energy              =   -1624.60890153 Ry
     estimated scf accuracy    <       0.66290704 Ry

[...]

     total energy              =   -1624.93373287 Ry
     estimated scf accuracy    <       0.00000771 Ry

     iteration #  9     ecut=    30.00 Ry     beta= 0.70
     Davidson diagonalization with overlap

     ethr =  4.38E-09,  avg # of iterations =  6.0

     End of self-consistent calculation

          k = 0.0000 0.0000 0.0000 ( 29161 PWs)   bands (ev):

  -115.7544-115.7544-115.7544-115.7544 -63.6266 -63.6260 -63.6254 -63.6223
   -63.6205 -63.6205 -63.6199 -63.6184 -63.6147 -63.6133 -63.6132 -63.6111
   -18.5962 -18.5864 -18.5806 -18.5789 -16.8850 -16.8675 -16.8612 -16.8611
   -13.4216 -13.4095 -13.3896 -13.3852 -11.1645 -11.1407 -11.1157 -11.1090
    -7.8341  -7.8076  -7.7957  -7.7852  -6.9924  -6.9195  -6.8911  -6.8308
    -6.5645  -6.5538  -6.3908  -6.3882  -6.3849  -6.3846  -6.3755  -6.3724
    -6.3724  -6.3700  -6.3688  -6.3685  -6.3658  -6.3636  -6.3628  -6.3623
    -6.3600  -6.3515  -6.3472  -6.3431  -6.3405  -6.3384  -6.2955  -6.2634
    -5.8430  -5.7864  -5.7514  -5.7277  -5.0387  -5.0147  -4.8626  -4.7828
    -3.6582  -3.6068  -3.5651  -3.4593  -3.4306  -3.2744  -3.1698  -3.0608
    -3.0185  -2.9895  -2.9729  -2.8248  -2.7015  -2.6169  -2.5598  -2.4678
    -1.4130  -1.3779

     occupation numbers
     1.0000   1.0000   1.0000   1.0000   1.0000   1.0000   1.0000   1.0000
     1.0000   1.0000   1.0000   1.0000   1.0000   1.0000   1.0000   1.0000
     1.0000   1.0000   1.0000   1.0000   1.0000   1.0000   1.0000   1.0000
     1.0000   1.0000   1.0000   1.0000   1.0000   1.0000   1.0000   1.0000
     1.0000   1.0000   1.0000   1.0000   1.0000   1.0000   1.0000   1.0000
     1.0000   1.0000   1.0000   1.0000   1.0000   1.0000   1.0000   1.0000
     1.0000   1.0000   1.0000   1.0000   1.0000   1.0000   1.0000   1.0000
     1.0000   1.0000   1.0000   1.0000   1.0000   1.0000   1.0000   1.0000
     1.0000   1.0000   1.0000   1.0000   1.0000   1.0000   1.0000   1.0000
     1.0000   1.0000   1.0000   1.0000   1.0000   1.0000   1.0000   1.0000
     1.0000   1.0000   1.0000   1.0000   1.0000   1.0000   1.0000   1.0000
     0.0000   0.0000

[...]

          k = 0.3333 0.2653 0.2448 ( 29139 PWs)   bands (ev):

  -115.7544-115.7544-115.7544-115.7544 -63.6241 -63.6241 -63.6233 -63.6227
   -63.6205 -63.6200 -63.6198 -63.6197 -63.6137 -63.6135 -63.6128 -63.6126
   -18.5906 -18.5863 -18.5839 -18.5814 -16.8761 -16.8698 -16.8657 -16.8632
   -13.4112 -13.4060 -13.3960 -13.3928 -11.1470 -11.1391 -11.1221 -11.1215
    -7.8183  -7.8102  -7.7970  -7.7969  -6.9486  -6.9289  -6.8827  -6.8769
    -6.5082  -6.4949  -6.3870  -6.3855  -6.3850  -6.3824  -6.3807  -6.3776
    -6.3721  -6.3708  -6.3684  -6.3674  -6.3651  -6.3640  -6.3627  -6.3606
    -6.3528  -6.3526  -6.3499  -6.3481  -6.3457  -6.3451  -6.3350  -6.3294
    -5.8032  -5.7867  -5.7523  -5.7519  -4.9857  -4.9623  -4.8916  -4.8562
    -3.6192  -3.5830  -3.5588  -3.5268  -3.3276  -3.2928  -3.2014  -3.1777
    -2.9887  -2.9557  -2.9204  -2.9025  -2.6558  -2.6101  -2.5757  -2.5321
    -1.3735  -1.3475

     occupation numbers
     1.0000   1.0000   1.0000   1.0000   1.0000   1.0000   1.0000   1.0000
     1.0000   1.0000   1.0000   1.0000   1.0000   1.0000   1.0000   1.0000
     1.0000   1.0000   1.0000   1.0000   1.0000   1.0000   1.0000   1.0000
     1.0000   1.0000   1.0000   1.0000   1.0000   1.0000   1.0000   1.0000
     1.0000   1.0000   1.0000   1.0000   1.0000   1.0000   1.0000   1.0000
     1.0000   1.0000   1.0000   1.0000   1.0000   1.0000   1.0000   1.0000
     1.0000   1.0000   1.0000   1.0000   1.0000   1.0000   1.0000   1.0000
     1.0000   1.0000   1.0000   1.0000   1.0000   1.0000   1.0000   1.0000
     1.0000   1.0000   1.0000   1.0000   1.0000   1.0000   1.0000   1.0000
     1.0000   1.0000   1.0000   1.0000   1.0000   1.0000   1.0000   1.0000
     1.0000   1.0000   1.0000   1.0000   1.0000   1.0000   1.0000   1.0000
     0.0000   0.0000

     highest occupied, lowest unoccupied level (ev):    -2.4678   -1.4131

!    total energy              =   -1624.93373497 Ry
     estimated scf accuracy    <       0.00000068 Ry

     The total energy is the sum of the following terms:
     one-electron contribution =   -1662.15266305 Ry
     hartree contribution      =     820.57228482 Ry
     xc contribution           =    -243.08414798 Ry
     ewald contribution        =    -540.26920876 Ry

     convergence has been achieved in   9 iterations

     Writing all to output data dir calculations_bands/myprefix.save/

     General routines

     Parallel routines

   This run was terminated on:   7:32: 9  23Jun2023

   JOB DONE.