     Program PWSCF v.7.1 starts on 15Jul2023 at 21:12:32

     Reading input from espresso_482.pwi
Warning: card &CELL ignored
Warning: card / ignored

     Current dimensions of program PWSCF are:
     Max number of different atomic species (ntypx) = 10
     Max number of k-points (npk) =  40000
     Max angular momentum in pseudopotentials (lmaxx) =  4
     file K.pbe-spn-kjpaw_psl.1.0.0.UPF: wavefunction(s)  3S renormalized
     Message from routine setup:
     using ibrav=0 with symmetry is DISCOURAGED, use correct ibrav instead

     K-points division:     npool     =       2
     R & G space division:  proc/nbgrp/npool/nimage =       4
     Subspace diagonalization in iterative solution of the eigenvalue problem:
     one sub-group per band group will be used

     Using Slab Decomposition

     bravais-lattice index     =            0
     lattice parameter (alat)  =      11.7074  a.u.
     unit-cell volume          =    3416.6161 (a.u.)^3
     number of atoms/cell      =           16
     number of atomic types    =            3
     number of electrons       =       204.00
     number of Kohn-Sham states=          256
     kinetic-energy cutoff     =      30.0000  Ry
     charge density cutoff     =     240.0000  Ry
     scf convergence threshold =      1.0E-06
     mixing beta               =       0.7000
     number of iterations used =            8  plain     mixing
     Exchange-correlation= PBE
                           (   1   4   3   4   0   0   0)

     celldm(1)=  11.707377  celldm(2)=   0.000000  celldm(3)=   0.000000
     celldm(4)=   0.000000  celldm(5)=   0.000000  celldm(6)=   0.000000

     crystal axes: (cart. coord. in units of alat)
               a(1) = (   1.000000   0.000000   0.000000 )
               a(2) = (   0.000000   1.083381   0.000000 )
               a(3) = (   0.000000   0.000000   1.965333 )

     reciprocal axes: (cart. coord. in units 2 pi/alat)
               b(1) = (  1.000000  0.000000  0.000000 )
               b(2) = (  0.000000  0.923036  0.000000 )
               b(3) = (  0.000000  0.000000  0.508820 )

     PseudoPot. # 1 for K  read from file:
     /lustre07/scratch/pragov/crystal_structure_design/utils/SSSP/K.pbe-spn-kjpaw_psl.1.0.0.UPF
     MD5 check sum: 7d58810084cac21f60fbe77ea2b688fd
     Pseudo is Projector augmented-wave + core cor, Zval =  9.0
     Generated using "atomic" code by A. Dal Corso  v.5.1
     Shape of augmentation charge: PSQ
     Using radial grid of 1165 points,  6 beta functions with:
                l(1) =   0
                l(2) =   0
                l(3) =   1
                l(4) =   1
                l(5) =   2
                l(6) =   2
     Q(r) pseudized with 0 coefficients

     PseudoPot. # 2 for Ge read from file:
     /lustre07/scratch/pragov/crystal_structure_design/utils/SSSP/ge_pbe_v1.4.uspp.F.UPF
     MD5 check sum: 9c9eaa91e581c3f09632fb3098b2c6b2
     Pseudo is Ultrasoft + core correction, Zval = 14.0
     Generated by new atomic code, or converted to UPF format
     Using radial grid of  873 points,  6 beta functions with:
                l(1) =   0
                l(2) =   0
                l(3) =   1
                l(4) =   1
                l(5) =   2
                l(6) =   2
     Q(r) pseudized with  8 coefficients,  rinner =    1.400   1.400   1.400
                                                       1.400   1.400

     PseudoPot. # 3 for Au read from file:
     /lustre07/scratch/pragov/crystal_structure_design/utils/SSSP/Au_ONCV_PBE-1.0.oncvpsp.upf
     MD5 check sum: d14007822ba0e19f0206237467fc06c2
     Pseudo is Norm-conserving, Zval = 19.0
     Generated using ONCVPSP code by D. R. Hamann
     Using radial grid of 1278 points,  8 beta functions with:
                l(1) =   0
                l(2) =   0
                l(3) =   1
                l(4) =   1
                l(5) =   2
                l(6) =   2
                l(7) =   3
                l(8) =   3

     atomic species   valence    mass     pseudopotential
        K              9.00    39.09830     K ( 1.00)
        Ge            14.00    72.63000     Ge( 1.00)
        Au            19.00   196.96657     Au( 1.00)

      8 Sym. Ops., with inversion, found ( 4 have fractional translation)

                                    s                        frac. trans.

      isym =  1     identity

 cryst.   s( 1) = (     1          0          0      )
                  (     0          1          0      )
                  (     0          0          1      )

 cart.    s( 1) = (  1.0000000  0.0000000  0.0000000 )
                  (  0.0000000  1.0000000  0.0000000 )
                  (  0.0000000  0.0000000  1.0000000 )

      isym =  2     180 deg rotation - cart. axis [0,0,1]

 cryst.   s( 2) = (    -1          0          0      )    f =(  0.0000000 )
                  (     0         -1          0      )       (  0.5000000 )
                  (     0          0          1      )       (  0.5000000 )

 cart.    s( 2) = ( -1.0000000  0.0000000  0.0000000 )    f =(  0.0000000 )
                  (  0.0000000 -1.0000000  0.0000000 )       (  0.5416905 )
                  (  0.0000000  0.0000000  1.0000000 )       (  0.9826665 )

[...]

      isym =  4     180 deg rotation - cart. axis [1,0,0]

[...]

      isym =  5     inversion

[...]

      isym =  6     inv. 180 deg rotation - cart. axis [0,0,1]

[...]

 cryst.   s( 7) = (     1          0          0      )
                  (     0         -1          0      )
                  (     0          0          1      )

 cart.    s( 7) = (  1.0000000  0.0000000  0.0000000 )
                  (  0.0000000 -1.0000000  0.0000000 )
                  (  0.0000000  0.0000000  1.0000000 )

      isym =  8     inv. 180 deg rotation - cart. axis [1,0,0]

 cryst.   s( 8) = (    -1          0          0      )    f =(  0.0000000 )
                  (     0          1          0      )       (  0.5000000 )
                  (     0          0          1      )       (  0.5000000 )

 cart.    s( 8) = ( -1.0000000  0.0000000  0.0000000 )    f =(  0.0000000 )
                  (  0.0000000  1.0000000  0.0000000 )       (  0.5416905 )
                  (  0.0000000  0.0000000  1.0000000 )       (  0.9826665 )

   Cartesian axes

     site n.     atom                  positions (alat units)
         1           K   tau(   1) = (   0.4216520   0.5416905   0.9826665  )
         2           K   tau(   2) = (   0.5783480   0.0000000   0.0000000  )
         3           K   tau(   3) = (   0.1688060   0.0000000   0.4661907  )
         4           K   tau(   4) = (   0.1688060   0.0000000   1.4991422  )
         5           K   tau(   5) = (   0.8311940   0.5416905   0.5164757  )
         6           K   tau(   6) = (   0.8311940   0.5416905   1.4488572  )
         7           Ge  tau(   7) = (   0.9422770   0.2246532   0.9826665  )
         8           Ge  tau(   8) = (   0.6727410   0.0000000   1.2076028  )
         9           Ge  tau(   9) = (   0.3272590   0.5416905   0.2249363  )
        10           Ge  tau(  10) = (   0.3272590   0.5416905   1.7403967  )
        11           Ge  tau(  11) = (   0.0577230   0.7663437   0.0000000  )
        12           Ge  tau(  12) = (   0.0577230   0.3170374   0.0000000  )
        13           Ge  tau(  13) = (   0.6727410   0.0000000   0.7577302  )
        14           Ge  tau(  14) = (   0.9422770   0.8587279   0.9826665  )
        15           Au  tau(  15) = (   0.6908200   0.5416905   0.0000000  )
        16           Au  tau(  16) = (   0.3091800   0.0000000   0.9826665  )

   Crystallographic axes

     site n.     atom                  positions (cryst. coord.)
         1           K   tau(   1) = (  0.4216520  0.5000000  0.5000000  )
         2           K   tau(   2) = (  0.5783480  0.0000000  0.0000000  )
         3           K   tau(   3) = (  0.1688060  0.0000000  0.2372070  )
         4           K   tau(   4) = (  0.1688060  0.0000000  0.7627930  )
         5           K   tau(   5) = (  0.8311940  0.5000000  0.2627930  )
         6           K   tau(   6) = (  0.8311940  0.5000000  0.7372070  )
         7           Ge  tau(   7) = (  0.9422770  0.2073630  0.5000000  )
         8           Ge  tau(   8) = (  0.6727410  0.0000000  0.6144520  )
         9           Ge  tau(   9) = (  0.3272590  0.5000000  0.1144520  )
        10           Ge  tau(  10) = (  0.3272590  0.5000000  0.8855480  )
        11           Ge  tau(  11) = (  0.0577230  0.7073630  0.0000000  )
        12           Ge  tau(  12) = (  0.0577230  0.2926370  0.0000000  )
        13           Ge  tau(  13) = (  0.6727410  0.0000000  0.3855480  )
        14           Ge  tau(  14) = (  0.9422770  0.7926370  0.5000000  )
        15           Au  tau(  15) = (  0.6908200  0.5000000  0.0000000  )
        16           Au  tau(  16) = (  0.3091800  0.0000000  0.5000000  )

     number of k points=     8
                       cart. coord. in units 2pi/alat
        k(    1) = (   0.0000000   0.0000000   0.0000000), wk =   0.0740741
        k(    2) = (   0.0000000   0.0000000   0.1696065), wk =   0.1481481
        k(    3) = (   0.0000000   0.3076787   0.0000000), wk =   0.1481481
        k(    4) = (   0.0000000   0.3076787   0.1696065), wk =   0.2962963
        k(    5) = (   0.3333333   0.0000000   0.0000000), wk =   0.1481481
        k(    6) = (   0.3333333   0.0000000   0.1696065), wk =   0.2962963
        k(    7) = (   0.3333333   0.3076787   0.0000000), wk =   0.2962963
        k(    8) = (   0.3333333   0.3076787   0.1696065), wk =   0.5925926

                       cryst. coord.
        k(    1) = (   0.0000000   0.0000000   0.0000000), wk =   0.0740741
        k(    2) = (   0.0000000   0.0000000   0.3333333), wk =   0.1481481
        k(    3) = (   0.0000000   0.3333333   0.0000000), wk =   0.1481481
        k(    4) = (   0.0000000   0.3333333   0.3333333), wk =   0.2962963
        k(    5) = (   0.3333333   0.0000000   0.0000000), wk =   0.1481481
        k(    6) = (   0.3333333   0.0000000   0.3333333), wk =   0.2962963
        k(    7) = (   0.3333333   0.3333333   0.0000000), wk =   0.2962963
        k(    8) = (   0.3333333   0.3333333   0.3333333), wk =   0.5925926

     Check: negative core charge=   -0.000003

     Initial potential from superposition of free atoms

     starting charge     203.8798, renormalised to     204.0000
     Starting wfcs are  140 randomized atomic wfcs +  116 random wfcs
     Checking if some PAW data can be deallocated...

     Self-consistent Calculation

     iteration #  1     ecut=    30.00 Ry     beta= 0.70
     Davidson diagonalization with overlap

     ethr =  1.00E-02,  avg # of iterations =  7.0

     Threshold (ethr) on eigenvalues was too large:
     Diagonalizing with lowered threshold

     Davidson diagonalization with overlap

[...]

     total energy              =   -2936.36119004 Ry
     estimated scf accuracy    <       0.51975021 Ry

[...]

     c_bands:  1 eigenvalues not converged
     ethr =  1.10E-05,  avg # of iterations = 10.9

[...]

     total energy              =   -2936.53031413 Ry
     estimated scf accuracy    <       0.00001207 Ry

     iteration #  8     ecut=    30.00 Ry     beta= 0.70
     Davidson diagonalization with overlap

     ethr =  5.92E-09,  avg # of iterations =  2.0

     End of self-consistent calculation

          k = 0.0000 0.0000 0.0000 (  9471 PWs)   bands (ev):

  -100.4577-100.4577 -51.5904 -51.5886 -51.4340 -51.4307 -51.4078 -51.4073
   -25.2613 -25.2611 -25.0899 -25.0898 -25.0776 -25.0775 -18.2500 -18.2486
   -18.2145 -18.2124 -18.2120 -18.2092 -18.2037 -18.2033 -18.2007 -18.1979
   -18.1695 -18.1674 -18.1506 -18.1502 -18.1466 -18.1457 -18.1343 -18.1336
   -18.1210 -18.1192 -18.1142 -18.1141 -18.0613 -18.0612 -18.0612 -18.0606
   -18.0562 -18.0557 -18.0547 -18.0526 -18.0391 -18.0386 -18.0381 -18.0355
   -18.0322 -18.0311 -18.0201 -18.0201 -17.9962 -17.9959  -8.8537  -8.8523
    -8.7765  -8.7718  -8.7126  -8.7004  -8.6666  -8.6558  -8.6394  -8.6362
    -8.6019  -8.5986  -8.5903  -8.5659  -8.5478  -8.5417  -8.5383  -8.5375
    -5.0861  -5.0206  -1.2566  -1.0985  -0.9454  -0.9248  -0.6691  -0.6606
     1.3941   1.4403   1.4803   1.4864   1.4892   1.5440   1.9493   1.9890
     2.0026   2.0281   2.1060   2.1147   3.5722   3.6681   4.0150   4.3927
     5.0610   5.2190   5.3384   5.4854   5.6819   5.7134   6.5813   6.6680
     7.1639   7.5148   7.7331   8.3236   8.5303   8.7558   8.8753   8.9063
     8.9721   9.0617   9.5757   9.6030   9.9493   9.9594  10.1429  10.1856
    10.4095  10.6423  10.7590  10.8603  10.9048  11.0495  11.2269  11.5459
    11.7554  11.7859  11.7958  11.9074  12.0421  12.0586  12.2020  12.3986
    12.5063  12.7458  12.8075  12.8406  12.8774  12.8784  13.0094  13.0479
    13.1105  13.1663  13.1991  13.2372  13.2761  13.3181  13.4741  13.5536
    13.5620  13.7846  14.0432  14.0489  14.1225  14.1250  14.5934  14.5994
    14.8766  15.1192  15.2438  15.4385  15.5696  15.8369  15.8470  15.8568
    15.8650  16.0218  16.5533  16.7955  16.9622  17.0251  17.1372  17.1559
    17.2594  17.3706  17.5632  17.8735  17.8892  18.0487  18.4625  18.4714
    18.4904  18.5196  18.6503  18.7369  18.7445  18.8322  19.1036  19.3297
    19.3830  19.4255  19.4909  19.8265  20.0588  20.0949  20.1686  20.2122
    20.2232  20.3613  20.3666  20.4970  20.6077  20.7365  21.0695  21.1277
    21.3854  21.4137  21.5469  21.5998  21.7343  21.9647  22.3358  22.3464
    22.3854  22.4580  22.6286  22.6631  22.6811  22.7300  23.1913  23.2253
    23.2399  23.2417  23.3391  23.4115  23.4947  23.6342  23.7511  23.8027
    23.8990  23.9285  24.2399  24.4162  24.4520  24.5164  24.7096  24.7737
    24.9584  25.1922  25.4635  25.4832  25.5485  25.6102  25.6496  25.7143
    25.8315  26.1239  26.2018  26.2986  26.5897  26.6334  26.7353  26.8517

     occupation numbers
     1.0000   1.0000   1.0000   1.0000   1.0000   1.0000   1.0000   1.0000
     1.0000   1.0000   1.0000   1.0000   1.0000   1.0000   1.0000   1.0000
     1.0000   1.0000   1.0000   1.0000   1.0000   1.0000   1.0000   1.0000
     1.0000   1.0000   1.0000   1.0000   1.0000   1.0000   1.0000   1.0000
     1.0000   1.0000   1.0000   1.0000   1.0000   1.0000   1.0000   1.0000
     1.0000   1.0000   1.0000   1.0000   1.0000   1.0000   1.0000   1.0000
     1.0000   1.0000   1.0000   1.0000   1.0000   1.0000   1.0000   1.0000
     1.0000   1.0000   1.0000   1.0000   1.0000   1.0000   1.0000   1.0000
     1.0000   1.0000   1.0000   1.0000   1.0000   1.0000   1.0000   1.0000
     1.0000   1.0000   1.0000   1.0000   1.0000   1.0000   1.0000   1.0000
     1.0000   1.0000   1.0000   1.0000   1.0000   1.0000   1.0000   1.0000
     1.0000   1.0000   1.0000   1.0000   1.0000   1.0000   1.0000   1.0000
     1.0000   1.0000   1.0000   1.0000   1.0000   1.0000   0.0000   0.0000
     0.0000   0.0000   0.0000   0.0000   0.0000   0.0000   0.0000   0.0000
     0.0000   0.0000   0.0000   0.0000   0.0000   0.0000   0.0000   0.0000
     0.0000   0.0000   0.0000   0.0000   0.0000   0.0000   0.0000   0.0000
     0.0000   0.0000   0.0000   0.0000   0.0000   0.0000   0.0000   0.0000
     0.0000   0.0000   0.0000   0.0000   0.0000   0.0000   0.0000   0.0000
     0.0000   0.0000   0.0000   0.0000   0.0000   0.0000   0.0000   0.0000
     0.0000   0.0000   0.0000   0.0000   0.0000   0.0000   0.0000   0.0000
     0.0000   0.0000   0.0000   0.0000   0.0000   0.0000   0.0000   0.0000
     0.0000   0.0000   0.0000   0.0000   0.0000   0.0000   0.0000   0.0000
     0.0000   0.0000   0.0000   0.0000   0.0000   0.0000   0.0000   0.0000
     0.0000   0.0000   0.0000   0.0000   0.0000   0.0000   0.0000   0.0000
     0.0000   0.0000   0.0000   0.0000   0.0000   0.0000   0.0000   0.0000
     0.0000   0.0000   0.0000   0.0000   0.0000   0.0000   0.0000   0.0000
     0.0000   0.0000   0.0000   0.0000   0.0000   0.0000   0.0000   0.0000
     0.0000   0.0000   0.0000   0.0000   0.0000   0.0000   0.0000   0.0000
     0.0000   0.0000   0.0000   0.0000   0.0000   0.0000   0.0000   0.0000
     0.0000   0.0000   0.0000   0.0000   0.0000   0.0000   0.0000   0.0000
     0.0000   0.0000   0.0000   0.0000   0.0000   0.0000   0.0000   0.0000
     0.0000   0.0000   0.0000   0.0000   0.0000   0.0000   0.0000   0.0000

[...]

          k = 0.3333 0.3077 0.1696 (  9480 PWs)   bands (ev):

  -100.4577-100.4577 -51.5895 -51.5892 -51.4330 -51.4324 -51.4085 -51.4081
   -25.2611 -25.2610 -25.0867 -25.0867 -25.0807 -25.0807 -18.2480 -18.2479
   -18.2128 -18.2123 -18.2103 -18.2095 -18.2032 -18.2027 -18.2000 -18.1989
   -18.1690 -18.1681 -18.1515 -18.1511 -18.1468 -18.1463 -18.1349 -18.1334
   -18.1219 -18.1217 -18.1131 -18.1129 -18.0630 -18.0623 -18.0611 -18.0599
   -18.0564 -18.0559 -18.0542 -18.0538 -18.0407 -18.0405 -18.0401 -18.0390
   -18.0306 -18.0303 -18.0245 -18.0240 -17.9960 -17.9954  -8.8563  -8.8560
    -8.7808  -8.7779  -8.7111  -8.7096  -8.6682  -8.6658  -8.6536  -8.6502
    -8.5824  -8.5808  -8.5654  -8.5643  -8.5528  -8.5511  -8.5474  -8.5467
    -4.8341  -4.8234  -1.5391  -1.5321  -1.2625  -1.2564  -1.2209  -1.2044
     1.7149   1.7425   1.7937   1.8037   1.8305   1.8428   1.9123   1.9191
     2.0230   2.0308   3.4319   3.4429   4.0712   4.1385   4.1882   4.2229
     4.4384   4.5630   4.8447   4.8770   5.0545   5.0771   7.2631   7.3739
     7.6428   7.7040   7.9147   8.1243   8.2360   8.5385   8.5739   8.9175
     8.9467   8.9820   9.4083   9.4425   9.8304   9.8666  10.0090  10.1924
    10.2489  10.3478  10.5683  10.6855  10.7664  10.9688  11.1117  11.2280
    11.3355  11.4302  11.5783  11.7320  11.8071  11.8555  12.0330  12.2210
    12.3934  12.5022  12.5879  12.7052  12.7883  12.9268  12.9929  13.0503
    13.0889  13.1526  13.2141  13.2794  13.4580  13.5658  13.5805  13.6423
    13.8242  14.1478  14.2379  14.4058  14.5883  14.6524  14.6758  14.8711
    15.0118  15.1306  15.1931  15.3731  15.5004  15.5894  15.9481  15.9759
    16.1501  16.2372  16.4880  16.6315  16.7228  16.8627  17.0021  17.1993
    17.3059  17.3401  17.4527  17.6017  17.6193  17.6814  17.9471  18.0574
    18.3197  18.3915  18.6805  18.7912  18.9387  18.9930  19.1340  19.3367
    19.5076  19.5844  19.6043  19.8146  20.1022  20.1360  20.2312  20.4081
    20.5352  20.6248  20.8315  20.9178  21.0150  21.1636  21.3135  21.4190
    21.4714  21.6975  21.8815  22.0312  22.0812  22.1267  22.2721  22.3924
    22.5017  22.5329  22.5820  22.6520  22.7263  22.8836  23.0294  23.0827
    23.2441  23.4247  23.5472  23.6313  23.7815  23.8643  23.9567  24.0583
    24.1352  24.4313  24.5214  24.5770  24.6973  24.8523  24.8732  24.9824
    25.1787  25.3143  25.4252  25.5090  25.6651  25.7183  25.8567  25.9544
    26.1204  26.1264  26.2718  26.4585  26.5327  26.6495  26.6802  26.7755

     occupation numbers
     1.0000   1.0000   1.0000   1.0000   1.0000   1.0000   1.0000   1.0000
     1.0000   1.0000   1.0000   1.0000   1.0000   1.0000   1.0000   1.0000
     1.0000   1.0000   1.0000   1.0000   1.0000   1.0000   1.0000   1.0000
     1.0000   1.0000   1.0000   1.0000   1.0000   1.0000   1.0000   1.0000
     1.0000   1.0000   1.0000   1.0000   1.0000   1.0000   1.0000   1.0000
     1.0000   1.0000   1.0000   1.0000   1.0000   1.0000   1.0000   1.0000
     1.0000   1.0000   1.0000   1.0000   1.0000   1.0000   1.0000   1.0000
     1.0000   1.0000   1.0000   1.0000   1.0000   1.0000   1.0000   1.0000
     1.0000   1.0000   1.0000   1.0000   1.0000   1.0000   1.0000   1.0000
     1.0000   1.0000   1.0000   1.0000   1.0000   1.0000   1.0000   1.0000
     1.0000   1.0000   1.0000   1.0000   1.0000   1.0000   1.0000   1.0000
     1.0000   1.0000   1.0000   1.0000   1.0000   1.0000   1.0000   1.0000
     1.0000   1.0000   1.0000   1.0000   1.0000   1.0000   0.0000   0.0000
     0.0000   0.0000   0.0000   0.0000   0.0000   0.0000   0.0000   0.0000
     0.0000   0.0000   0.0000   0.0000   0.0000   0.0000   0.0000   0.0000
     0.0000   0.0000   0.0000   0.0000   0.0000   0.0000   0.0000   0.0000
     0.0000   0.0000   0.0000   0.0000   0.0000   0.0000   0.0000   0.0000
     0.0000   0.0000   0.0000   0.0000   0.0000   0.0000   0.0000   0.0000
     0.0000   0.0000   0.0000   0.0000   0.0000   0.0000   0.0000   0.0000
     0.0000   0.0000   0.0000   0.0000   0.0000   0.0000   0.0000   0.0000
     0.0000   0.0000   0.0000   0.0000   0.0000   0.0000   0.0000   0.0000
     0.0000   0.0000   0.0000   0.0000   0.0000   0.0000   0.0000   0.0000
     0.0000   0.0000   0.0000   0.0000   0.0000   0.0000   0.0000   0.0000
     0.0000   0.0000   0.0000   0.0000   0.0000   0.0000   0.0000   0.0000
     0.0000   0.0000   0.0000   0.0000   0.0000   0.0000   0.0000   0.0000
     0.0000   0.0000   0.0000   0.0000   0.0000   0.0000   0.0000   0.0000
     0.0000   0.0000   0.0000   0.0000   0.0000   0.0000   0.0000   0.0000
     0.0000   0.0000   0.0000   0.0000   0.0000   0.0000   0.0000   0.0000
     0.0000   0.0000   0.0000   0.0000   0.0000   0.0000   0.0000   0.0000
     0.0000   0.0000   0.0000   0.0000   0.0000   0.0000   0.0000   0.0000
     0.0000   0.0000   0.0000   0.0000   0.0000   0.0000   0.0000   0.0000
     0.0000   0.0000   0.0000   0.0000   0.0000   0.0000   0.0000   0.0000

     highest occupied, lowest unoccupied level (ev):     5.7134    6.5813

!    total energy              =   -2936.53031664 Ry
     estimated scf accuracy    <       0.00000038 Ry

     The total energy is the sum of the following terms:
     one-electron contribution =   -2089.95718928 Ry
     hartree contribution      =    1155.15747018 Ry
     xc contribution           =    -584.12471918 Ry
     ewald contribution        =   -1085.10291239 Ry
     one-center paw contrib.   =    -332.50296597 Ry
      -> PAW hartree energy AE =      75.34127955 Ry
      -> PAW hartree energy PS =     -74.92105724 Ry
      -> PAW xc energy AE      =    -132.42683538 Ry
      -> PAW xc energy PS      =      21.17272354 Ry
      -> total E_H with PAW    =    1155.57769250 Ry
      -> total E_XC with PAW   =    -695.37883102 Ry

     convergence has been achieved in   8 iterations

     Writing all to output data dir bands_nm/myprefix.save/

     General routines

     Parallel routines

     PAW routines

   This run was terminated on:  21:13:42  15Jul2023

   JOB DONE.