     Program PWSCF v.7.1 starts on 16Jul2023 at 15:24: 3

     Reading input from espresso_24461.pwi
Warning: card &CELL ignored
Warning: card / ignored

     Current dimensions of program PWSCF are:
     Max number of different atomic species (ntypx) = 10
     Max number of k-points (npk) =  40000
     Max angular momentum in pseudopotentials (lmaxx) =  4
     file Ho.paw.z_21.atompaw.wentzcovitch.v1.2.upf: wavefunction(s)  6S 0P 5D 0D 4F 0F renormalized
     file O.pbe-n-kjpaw_psl.0.1.UPF: wavefunction(s)  2P renormalized
     Message from routine setup:
     using ibrav=0 with symmetry is DISCOURAGED, use correct ibrav instead

     K-points division:     npool     =       2
     R & G space division:  proc/nbgrp/npool/nimage =       4
     Subspace diagonalization in iterative solution of the eigenvalue problem:
     a serial algorithm will be used

     Using Slab Decomposition

     bravais-lattice index     =            0
     lattice parameter (alat)  =       6.8383  a.u.
     unit-cell volume          =     958.8334 (a.u.)^3
     number of atoms/cell      =           12
     number of atomic types    =            4
     number of electrons       =        84.00
     number of Kohn-Sham states=           64
     kinetic-energy cutoff     =      30.0000  Ry
     charge density cutoff     =     240.0000  Ry
     scf convergence threshold =      1.0E-06
     mixing beta               =       0.7000
     number of iterations used =            8  plain     mixing
     Exchange-correlation= SLA  PW   PBX  PBC
                           (   1   4   3   4   0   0   0)

     celldm(1)=   6.838295  celldm(2)=   0.000000  celldm(3)=   0.000000
     celldm(4)=   0.000000  celldm(5)=   0.000000  celldm(6)=   0.000000

     crystal axes: (cart. coord. in units of alat)
               a(1) = (   1.000000   0.000000   0.000000 )
               a(2) = (   0.000000   1.708638   0.000000 )
               a(3) = (   0.000000   0.534220   1.754889 )

     reciprocal axes: (cart. coord. in units 2 pi/alat)
               b(1) = (  1.000000  0.000000  0.000000 )
               b(2) = (  0.000000  0.585261 -0.178164 )
               b(3) = (  0.000000  0.000000  0.569837 )

     PseudoPot. # 1 for Ho read from file:
     /lustre07/scratch/pragov/crystal_structure_design/utils/SSSP/Ho.paw.z_21.atompaw.wentzcovitch.v1.2.upf
     MD5 check sum: f900adcc49abc9ab8113872cdbacec3e
     Pseudo is Projector augmented-wave + core cor, Zval = 21.0
     Generated using ATOMPAW code
     Shape of augmentation charge: BESSEL
     Using radial grid of 1114 points,  8 beta functions with:
                l(1) =   0
                l(2) =   0
                l(3) =   1
                l(4) =   1
                l(5) =   2
                l(6) =   2
                l(7) =   3
                l(8) =   3
     Q(r) pseudized with 0 coefficients

     PseudoPot. # 2 for H  read from file:
     /lustre07/scratch/pragov/crystal_structure_design/utils/SSSP/H.pbe-rrkjus_psl.1.0.0.UPF
     MD5 check sum: f52b6d4d1c606e5624b1dc7b2218f220
     Pseudo is Ultrasoft, Zval =  1.0
     Generated using "atomic" code by A. Dal Corso  v.5.1
     Using radial grid of  929 points,  2 beta functions with:
                l(1) =   0
                l(2) =   0
     Q(r) pseudized with 0 coefficients

     PseudoPot. # 3 for Cl read from file:
     /lustre07/scratch/pragov/crystal_structure_design/utils/SSSP/cl_pbe_v1.4.uspp.F.UPF
     MD5 check sum: fc6f6913ecf08c9257cb748ef0700058
     Pseudo is Ultrasoft + core correction, Zval =  7.0
     Generated by new atomic code, or converted to UPF format
     Using radial grid of  909 points,  6 beta functions with:
                l(1) =   0
                l(2) =   0
                l(3) =   1
                l(4) =   1
                l(5) =   2
                l(6) =   2
     Q(r) pseudized with  8 coefficients,  rinner =    1.300   1.300   1.300
                                                       1.300   1.300

     PseudoPot. # 4 for O  read from file:
     /lustre07/scratch/pragov/crystal_structure_design/utils/SSSP/O.pbe-n-kjpaw_psl.0.1.UPF
     MD5 check sum: 0234752ac141de4415c5fc33072bef88
     Pseudo is Projector augmented-wave + core cor, Zval =  6.0
     Generated using "atomic" code by A. Dal Corso  v.5.0.99 svn rev. 10869
     Shape of augmentation charge: BESSEL
     Using radial grid of 1095 points,  4 beta functions with:
                l(1) =   0
                l(2) =   0
                l(3) =   1
                l(4) =   1
     Q(r) pseudized with 0 coefficients

     atomic species   valence    mass     pseudopotential
        Ho            21.00   164.93033     Ho( 1.00)
        H              1.00     1.00800     H ( 1.00)
        Cl             7.00    35.45000     Cl( 1.00)
        O              6.00    15.99900     O ( 1.00)

      4 Sym. Ops., with inversion, found ( 2 have fractional translation)

                                    s                        frac. trans.

      isym =  1     identity

 cryst.   s( 1) = (     1          0          0      )
                  (     0          1          0      )
                  (     0          0          1      )

 cart.    s( 1) = (  1.0000000  0.0000000  0.0000000 )
                  (  0.0000000  1.0000000  0.0000000 )
                  (  0.0000000  0.0000000  1.0000000 )

      isym =  2     180 deg rotation - cart. axis [1,0,0]

 cryst.   s( 2) = (     1          0          0      )    f =(  0.5000000 )
                  (     0         -1          0      )       (  0.0000000 )
                  (     0          0         -1      )       (  0.0000000 )

 cart.    s( 2) = (  1.0000000  0.0000000  0.0000000 )    f =(  0.5000000 )
                  (  0.0000000 -1.0000000  0.0000000 )       (  0.0000000 )
                  (  0.0000000  0.0000000 -1.0000000 )       (  0.0000000 )

      isym =  3     inversion

 cryst.   s( 3) = (    -1          0          0      )
                  (     0         -1          0      )
                  (     0          0         -1      )

 cart.    s( 3) = ( -1.0000000  0.0000000  0.0000000 )
                  (  0.0000000 -1.0000000  0.0000000 )
                  (  0.0000000  0.0000000 -1.0000000 )

      isym =  4     inv. 180 deg rotation - cart. axis [1,0,0]

 cryst.   s( 4) = (    -1          0          0      )    f =(  0.5000000 )
                  (     0          1          0      )       (  0.0000000 )
                  (     0          0          1      )       (  0.0000000 )

 cart.    s( 4) = ( -1.0000000  0.0000000  0.0000000 )    f =(  0.5000000 )
                  (  0.0000000  1.0000000  0.0000000 )       (  0.0000000 )
                  (  0.0000000  0.0000000  1.0000000 )       (  0.0000000 )

   Cartesian axes

     site n.     atom                  positions (alat units)
         1           Ho  tau(   1) = (   0.7500000   1.2790865   0.2010172  )
         2           Ho  tau(   2) = (   0.2500000   0.9637712   1.5538714  )
         3           H   tau(   3) = (   0.7500000   0.3384692   0.4043123  )
         4           H   tau(   4) = (   0.2500000   0.7517966   0.5359921  )
         5           H   tau(   5) = (   0.7500000   1.4910612   1.2188965  )
         6           H   tau(   6) = (   0.2500000   1.9043886   1.3505764  )
         7           Cl  tau(   7) = (   0.2500000   1.5411698   0.7543231  )
         8           Cl  tau(   8) = (   0.7500000   0.7016879   1.0005656  )
         9           O   tau(   9) = (   0.7500000   0.2267001   0.1584542  )
        10           O   tau(  10) = (   0.2500000   0.8509555   0.2843920  )
        11           O   tau(  11) = (   0.7500000   1.3919023   1.4704967  )
        12           O   tau(  12) = (   0.2500000   2.0161576   1.5964345  )

   Crystallographic axes

     site n.     atom                  positions (cryst. coord.)
         1           Ho  tau(   1) = (  0.7500000  0.7127860  0.1145470  )
         2           Ho  tau(   2) = (  0.2500000  0.2872140  0.8854530  )
         3           H   tau(   3) = (  0.7500000  0.1260590  0.2303920  )
         4           H   tau(   4) = (  0.2500000  0.3445030  0.3054280  )
         5           H   tau(   5) = (  0.7500000  0.6554970  0.6945720  )
         6           H   tau(   6) = (  0.2500000  0.8739410  0.7696080  )
         7           Cl  tau(   7) = (  0.2500000  0.7675940  0.4298410  )
         8           Cl  tau(   8) = (  0.7500000  0.2324060  0.5701590  )
         9           O   tau(   9) = (  0.7500000  0.1044480  0.0902930  )
        10           O   tau(  10) = (  0.2500000  0.4473630  0.1620570  )
        11           O   tau(  11) = (  0.7500000  0.5526370  0.8379430  )
        12           O   tau(  12) = (  0.2500000  0.8955520  0.9097070  )

     number of k points=    10
                       cart. coord. in units 2pi/alat
        k(    1) = (   0.0000000   0.0000000   0.0000000), wk =   0.0740741
        k(    2) = (   0.0000000   0.0000000   0.1899456), wk =   0.1481481
        k(    3) = (   0.0000000   0.1950872  -0.0593880), wk =   0.1481481
        k(    4) = (   0.0000000   0.1950872   0.1305575), wk =   0.1481481
        k(    5) = (   0.0000000   0.1950872  -0.2493336), wk =   0.1481481
        k(    6) = (   0.3333333   0.0000000   0.0000000), wk =   0.1481481
        k(    7) = (   0.3333333   0.0000000   0.1899456), wk =   0.2962963
        k(    8) = (   0.3333333   0.1950872  -0.0593880), wk =   0.2962963
        k(    9) = (   0.3333333   0.1950872   0.1305575), wk =   0.2962963
        k(   10) = (   0.3333333   0.1950872  -0.2493336), wk =   0.2962963

                       cryst. coord.
        k(    1) = (   0.0000000   0.0000000   0.0000000), wk =   0.0740741
        k(    2) = (   0.0000000   0.0000000   0.3333333), wk =   0.1481481
        k(    3) = (   0.0000000   0.3333333   0.0000000), wk =   0.1481481
        k(    4) = (   0.0000000   0.3333333   0.3333333), wk =   0.1481481
        k(    5) = (   0.0000000   0.3333333  -0.3333333), wk =   0.1481481
        k(    6) = (   0.3333333   0.0000000   0.0000000), wk =   0.1481481
        k(    7) = (   0.3333333   0.0000000   0.3333333), wk =   0.2962963
        k(    8) = (   0.3333333   0.3333333   0.0000000), wk =   0.2962963
        k(    9) = (   0.3333333   0.3333333   0.3333333), wk =   0.2962963
        k(   10) = (   0.3333333   0.3333333  -0.3333333), wk =   0.2962963

     Check: negative core charge=   -0.000009

     Initial potential from superposition of free atoms

     starting charge      83.9914, renormalised to      84.0000

     negative rho (up, down):  3.009E-02 0.000E+00
     Starting wfcs are   92 randomized atomic wfcs
     Checking if some PAW data can be deallocated...

     Self-consistent Calculation

     iteration #  1     ecut=    30.00 Ry     beta= 0.70
     Davidson diagonalization with overlap

     ethr =  1.00E-02,  avg # of iterations =  7.0

     negative rho (up, down):  2.836E-02 0.000E+00

     total energy              =   -1889.75057746 Ry
     estimated scf accuracy    <       7.89093263 Ry

[...]

     total energy              =   -1897.50661751 Ry
     estimated scf accuracy    <       0.00000940 Ry

     iteration # 42     ecut=    30.00 Ry     beta= 0.70
     Davidson diagonalization with overlap

     ethr =  2.40E-09,  avg # of iterations =  1.0

     negative rho (up, down):  2.993E-02 0.000E+00

     End of self-consistent calculation

          k = 0.0000 0.0000 0.0000 (  2639 PWs)   bands (ev):

   -38.6837 -38.6687 -14.4739 -14.0896 -14.0532 -13.7093 -13.6534 -13.5833
   -11.6428 -11.1908 -10.9994 -10.5026  -6.5828  -6.3352   0.3666   1.1530
     1.4525   1.6067   3.5108   3.6746   4.1519   4.4274   4.5331   4.6436
     5.0224   5.1822   5.3300   5.4333   5.6683   5.7107   6.3558   6.5839
     7.1352   7.1392   7.1724   7.2133   7.2154   7.2258   7.2470   7.3161
     7.3219   7.3310   7.3955   7.4151   7.4337   7.4500  11.8839  11.9865
    13.1707  13.3964  13.4611  13.9492  14.4247  14.7016  14.7457  14.7474
    16.0154  16.3911  16.5369  17.3012  17.7758  17.8478  19.0758  19.3469

     occupation numbers
     1.0000   1.0000   1.0000   1.0000   1.0000   1.0000   1.0000   1.0000
     1.0000   1.0000   1.0000   1.0000   1.0000   1.0000   1.0000   1.0000
     1.0000   1.0000   1.0000   1.0000   1.0000   1.0000   1.0000   1.0000
     1.0000   1.0000   1.0000   1.0000   1.0000   1.0000   1.0000   1.0000
     1.0000   1.0000   1.0000   1.0000   1.0000   1.0000   1.0000   1.0000
     1.0000   1.0000   0.0000   0.0000   0.0000   0.0000   0.0000   0.0000
     0.0000   0.0000   0.0000   0.0000   0.0000   0.0000   0.0000   0.0000
     0.0000   0.0000   0.0000   0.0000   0.0000   0.0000   0.0000   0.0000

[...]

          k = 0.3333 0.1951-0.2493 (  2670 PWs)   bands (ev):

   -38.6664 -38.6627 -14.4652 -14.3713 -14.0338 -13.8138 -13.7768 -13.7051
   -11.2827 -11.1228 -10.8455 -10.7254  -6.3961  -6.3164   0.8880   0.9324
     1.3492   1.5011   3.5105   3.6829   4.0641   4.1934   4.3314   4.7356
     4.8379   5.0218   5.1525   5.2148   5.3918   5.6947   5.9175   6.2290
     7.0956   7.0987   7.1222   7.1257   7.1787   7.2213   7.2610   7.2770
     7.3086   7.3412   7.3417   7.3660   7.4068   7.4569  13.1071  13.2014
    13.6404  14.0312  14.2649  14.5990  14.6759  14.8575  15.1309  15.7850
    15.9374  16.1522  16.5570  16.7602  17.0651  17.4864  17.6741  18.6006

     occupation numbers
     1.0000   1.0000   1.0000   1.0000   1.0000   1.0000   1.0000   1.0000
     1.0000   1.0000   1.0000   1.0000   1.0000   1.0000   1.0000   1.0000
     1.0000   1.0000   1.0000   1.0000   1.0000   1.0000   1.0000   1.0000
     1.0000   1.0000   1.0000   1.0000   1.0000   1.0000   1.0000   1.0000
     1.0000   1.0000   1.0000   1.0000   1.0000   1.0000   1.0000   1.0000
     1.0000   1.0000   0.0000   0.0000   0.0000   0.0000   0.0000   0.0000
     0.0000   0.0000   0.0000   0.0000   0.0000   0.0000   0.0000   0.0000
     0.0000   0.0000   0.0000   0.0000   0.0000   0.0000   0.0000   0.0000

     highest occupied, lowest unoccupied level (ev):     7.3541    7.3391

!    total energy              =   -1897.50661729 Ry
     estimated scf accuracy    <       0.00000024 Ry

     The total energy is the sum of the following terms:
     one-electron contribution =    -622.99424439 Ry
     hartree contribution      =     343.73797585 Ry
     xc contribution           =    -112.36693771 Ry
     ewald contribution        =    -497.58728270 Ry
     one-center paw contrib.   =   -1008.29612833 Ry
      -> PAW hartree energy AE =     585.72873012 Ry
      -> PAW hartree energy PS =    -535.40632581 Ry
      -> PAW xc energy AE      =   -1078.54068832 Ry
      -> PAW xc energy PS      =      57.98382769 Ry
      -> total E_H with PAW    =     394.06038016 Ry
      -> total E_XC with PAW   =   -1132.92379835 Ry

     convergence has been achieved in  42 iterations

     Writing all to output data dir bands_nm/myprefix.save/

     General routines

     Parallel routines

     PAW routines

   This run was terminated on:  15:24:34  16Jul2023

   JOB DONE.