     Program PWSCF v.7.1 starts on 16Jul2023 at 15:15: 6

     Reading input from espresso_26331.pwi
Warning: card &CELL ignored
Warning: card / ignored

     Current dimensions of program PWSCF are:
     Max number of different atomic species (ntypx) = 10
     Max number of k-points (npk) =  40000
     Max angular momentum in pseudopotentials (lmaxx) =  4
     Message from routine setup:
     using ibrav=0 with symmetry is DISCOURAGED, use correct ibrav instead

     K-points division:     npool     =       2
     R & G space division:  proc/nbgrp/npool/nimage =       4
     Subspace diagonalization in iterative solution of the eigenvalue problem:
     a serial algorithm will be used

     Using Slab Decomposition

     bravais-lattice index     =            0
     lattice parameter (alat)  =      14.3902  a.u.
     unit-cell volume          =    4146.3396 (a.u.)^3
     number of atoms/cell      =           16
     number of atomic types    =            3
     number of electrons       =       106.00
     number of Kohn-Sham states=           64
     kinetic-energy cutoff     =      30.0000  Ry
     charge density cutoff     =     240.0000  Ry
     scf convergence threshold =      1.0E-06
     mixing beta               =       0.7000
     number of iterations used =            8  plain     mixing
     Exchange-correlation= SLA  PW   PBE  PBE
                           (   1   4   3   4   0   0   0)

     celldm(1)=  14.390181  celldm(2)=   0.000000  celldm(3)=   0.000000
     celldm(4)=   0.000000  celldm(5)=   0.000000  celldm(6)=   0.000000

     crystal axes: (cart. coord. in units of alat)
               a(1) = (   1.000000   0.000000   0.000000 )
               a(2) = (   0.073892   1.017980   0.000000 )
               a(3) = (   0.058561   0.111778   1.366869 )

     reciprocal axes: (cart. coord. in units 2 pi/alat)
               b(1) = (  1.000000 -0.072587 -0.036907 )
               b(2) = (  0.000000  0.982338 -0.080333 )
               b(3) = (  0.000000  0.000000  0.731599 )

     PseudoPot. # 1 for Cs read from file:
     /lustre07/scratch/pragov/crystal_structure_design/utils/SSSP/Cs_pbe_v1.uspp.F.UPF
     MD5 check sum: 3476d69cb178dfad3ffaa59df4e07ca4
     Pseudo is Ultrasoft + core correction, Zval =  9.0
     Generated by new atomic code, or converted to UPF format
     Using radial grid of  905 points,  6 beta functions with:
                l(1) =   0
                l(2) =   0
                l(3) =   1
                l(4) =   1
                l(5) =   2
                l(6) =   2
     Q(r) pseudized with  6 coefficients,  rinner =    1.500   1.500   1.500
                                                       1.500   1.500

     PseudoPot. # 2 for P  read from file:
     /lustre07/scratch/pragov/crystal_structure_design/utils/SSSP/P.pbe-n-rrkjus_psl.1.0.0.UPF
     MD5 check sum: 8b930f418f0a4573dca56cd030ffe088
     Pseudo is Ultrasoft + core correction, Zval =  5.0
     Generated using "atomic" code by A. Dal Corso  v.5.1
     Using radial grid of 1147 points,  6 beta functions with:
                l(1) =   0
                l(2) =   0
                l(3) =   1
                l(4) =   1
                l(5) =   2
                l(6) =   2
     Q(r) pseudized with 0 coefficients

     PseudoPot. # 3 for Se read from file:
     /lustre07/scratch/pragov/crystal_structure_design/utils/SSSP/Se_pbe_v1.uspp.F.UPF
     MD5 check sum: 1b3568f3a8ae88f9a2a0ad0698632c85
     Pseudo is Ultrasoft + core correction, Zval =  6.0
     Generated by new atomic code, or converted to UPF format
     Using radial grid of  877 points,  6 beta functions with:
                l(1) =   0
                l(2) =   0
                l(3) =   1
                l(4) =   1
                l(5) =   2
                l(6) =   2
     Q(r) pseudized with  8 coefficients,  rinner =    1.300   1.300   1.300
                                                       1.300   1.300

     atomic species   valence    mass     pseudopotential
        Cs             9.00   132.90545     Cs( 1.00)
        P              5.00    30.97376     P ( 1.00)
        Se             6.00    78.97100     Se( 1.00)

      2 Sym. Ops., with inversion, found

                                    s                        frac. trans.

      isym =  1     identity

 cryst.   s( 1) = (     1          0          0      )
                  (     0          1          0      )
                  (     0          0          1      )

 cart.    s( 1) = (  1.0000000  0.0000000  0.0000000 )
                  (  0.0000000  1.0000000 -0.0000000 )
                  (  0.0000000  0.0000000  1.0000000 )

      isym =  2     inversion

 cryst.   s( 2) = (    -1          0          0      )
                  (     0         -1          0      )
                  (     0          0         -1      )

 cart.    s( 2) = ( -1.0000000  0.0000000  0.0000000 )
                  (  0.0000000 -1.0000000  0.0000000 )
                  (  0.0000000  0.0000000 -1.0000000 )

   Cartesian axes

     site n.     atom                  positions (alat units)
         1           Cs  tau(   1) = (   0.8513815   0.2138637   0.8663530  )
         2           Cs  tau(   2) = (   0.2810720   0.9158945   0.5005160  )
         3           Cs  tau(   3) = (   0.2983167   0.3876531   1.3229911  )
         4           Cs  tau(   4) = (   0.8341369   0.7421051   0.0438779  )
         5           P   tau(   5) = (   0.3541658   0.8903501   1.0624645  )
         6           P   tau(   6) = (   0.7782877   0.2394081   0.3044045  )
         7           Se  tau(   7) = (   1.0175939   0.3663816   0.3987362  )
         8           Se  tau(   8) = (   0.5915930   0.6938390   1.0375766  )
         9           Se  tau(   9) = (   0.3459049   0.1140249   0.9219914  )
        10           Se  tau(  10) = (   0.1148596   0.7633766   0.9681328  )
        11           Se  tau(  11) = (   0.6723517   0.6737001   0.7410070  )
        12           Se  tau(  12) = (   0.4601019   0.4560581   0.6258620  )
        13           Se  tau(  13) = (   0.3863724   0.8920907   1.3517104  )
        14           Se  tau(  14) = (   0.7865486   1.0157333   0.4448776  )
        15           Se  tau(  15) = (   0.7460811   0.2376675   0.0151586  )
        16           Se  tau(  16) = (   0.5408605   0.4359192   0.3292924  )

   Crystallographic axes

     site n.     atom                  positions (cryst. coord.)
         1           Cs  tau(   1) = (  0.8038830  0.1404900  0.6338230  )
         2           Cs  tau(   2) = (  0.1961170  0.8595100  0.3661770  )
         3           Cs  tau(   3) = (  0.2213500  0.2745270  0.9678990  )
         4           Cs  tau(   4) = (  0.7786500  0.7254730  0.0321010  )
         5           P   tau(   5) = (  0.2503250  0.7892740  0.7772980  )
         6           P   tau(   6) = (  0.7496750  0.2107260  0.2227020  )
         7           Se  tau(   7) = (  0.9762830  0.3278790  0.2917150  )
         8           Se  tau(   8) = (  0.5029350  0.5982330  0.7590900  )
         9           Se  tau(   9) = (  0.3036000  0.0379450  0.6745280  )
        10           Se  tau(  10) = (  0.0237170  0.6721210  0.7082850  )
        11           Se  tau(  11) = (  0.5961010  0.6022740  0.5421200  )
        12           Se  tau(  12) = (  0.4038990  0.3977260  0.4578800  )
        13           Se  tau(  13) = (  0.2717300  0.7677480  0.9889100  )
        14           Se  tau(  14) = (  0.6964000  0.9620550  0.3254720  )
        15           Se  tau(  15) = (  0.7282700  0.2322520  0.0110900  )
        16           Se  tau(  16) = (  0.4970650  0.4017670  0.2409100  )

     number of k points=    14
                       cart. coord. in units 2pi/alat
        k(    1) = (   0.0000000   0.0000000   0.0000000), wk =   0.0740741
        k(    2) = (   0.0000000   0.0000000   0.2438663), wk =   0.1481481
        k(    3) = (   0.0000000   0.3274459  -0.0267775), wk =   0.1481481
        k(    4) = (   0.0000000   0.3274459   0.2170888), wk =   0.1481481
        k(    5) = (   0.0000000   0.3274459  -0.2706439), wk =   0.1481481
        k(    6) = (   0.3333333  -0.0241958  -0.0123024), wk =   0.1481481
        k(    7) = (   0.3333333  -0.0241958   0.2315639), wk =   0.1481481
        k(    8) = (   0.3333333  -0.0241958  -0.2561688), wk =   0.1481481
        k(    9) = (   0.3333333   0.3032501  -0.0390799), wk =   0.1481481
        k(   10) = (   0.3333333   0.3032501   0.2047864), wk =   0.1481481
        k(   11) = (   0.3333333   0.3032501  -0.2829463), wk =   0.1481481
        k(   12) = (   0.3333333  -0.3516417   0.0144751), wk =   0.1481481
        k(   13) = (   0.3333333  -0.3516417   0.2583414), wk =   0.1481481
        k(   14) = (   0.3333333  -0.3516417  -0.2293912), wk =   0.1481481

                       cryst. coord.
        k(    1) = (   0.0000000   0.0000000   0.0000000), wk =   0.0740741
        k(    2) = (   0.0000000   0.0000000   0.3333333), wk =   0.1481481
        k(    3) = (   0.0000000   0.3333333   0.0000000), wk =   0.1481481
        k(    4) = (   0.0000000   0.3333333   0.3333333), wk =   0.1481481
        k(    5) = (   0.0000000   0.3333333  -0.3333333), wk =   0.1481481
        k(    6) = (   0.3333333   0.0000000   0.0000000), wk =   0.1481481
        k(    7) = (   0.3333333   0.0000000   0.3333333), wk =   0.1481481
        k(    8) = (   0.3333333   0.0000000  -0.3333333), wk =   0.1481481
        k(    9) = (   0.3333333   0.3333333  -0.0000000), wk =   0.1481481
        k(   10) = (   0.3333333   0.3333333   0.3333333), wk =   0.1481481
        k(   11) = (   0.3333333   0.3333333  -0.3333333), wk =   0.1481481
        k(   12) = (   0.3333333  -0.3333333  -0.0000000), wk =   0.1481481
        k(   13) = (   0.3333333  -0.3333333   0.3333333), wk =   0.1481481
        k(   14) = (   0.3333333  -0.3333333  -0.3333333), wk =   0.1481481

     Initial potential from superposition of free atoms

     starting charge     105.8414, renormalised to     106.0000
     Starting wfcs are  100 randomized atomic wfcs

     Self-consistent Calculation

     iteration #  1     ecut=    30.00 Ry     beta= 0.70
     Davidson diagonalization with overlap

     ethr =  1.00E-02,  avg # of iterations =  2.9

     Threshold (ethr) on eigenvalues was too large:
     Diagonalizing with lowered threshold

     Davidson diagonalization with overlap

[...]

     total energy              =    -716.99207342 Ry
     estimated scf accuracy    <       0.48893049 Ry

[...]

     total energy              =    -717.15556008 Ry
     estimated scf accuracy    <       0.00000246 Ry

     iteration #  9     ecut=    30.00 Ry     beta= 0.70
     Davidson diagonalization with overlap

     ethr =  2.32E-09,  avg # of iterations =  4.6

     End of self-consistent calculation

          k = 0.0000 0.0000 0.0000 ( 11507 PWs)   bands (ev):

   -18.0079 -17.9964 -17.7489 -17.7392 -11.9270 -11.4806 -10.8518 -10.2930
    -9.0614  -8.8374  -8.7090  -8.7039  -8.6354  -7.7606  -5.1318  -5.1019
    -4.9494  -4.8505  -4.8345  -4.8323  -4.8160  -4.7747  -4.6803  -4.6372
    -4.6180  -4.5894  -4.5759  -4.4963  -1.8940  -1.6899  -1.2699  -1.2420
    -1.0329  -0.9517  -0.8370  -0.5085   0.1227   0.7180   1.2076   1.5018
     1.8276   1.9048   1.9664   2.0622   2.1094   2.2948   2.3478   2.4358
     2.5687   2.6789   2.7355   2.8665   2.9574   4.5680   4.8858   5.0705
     5.4822   5.6399   6.1118   6.2883   6.7130   6.9113   7.0175   7.3035

     occupation numbers
     1.0000   1.0000   1.0000   1.0000   1.0000   1.0000   1.0000   1.0000
     1.0000   1.0000   1.0000   1.0000   1.0000   1.0000   1.0000   1.0000
     1.0000   1.0000   1.0000   1.0000   1.0000   1.0000   1.0000   1.0000
     1.0000   1.0000   1.0000   1.0000   1.0000   1.0000   1.0000   1.0000
     1.0000   1.0000   1.0000   1.0000   1.0000   1.0000   1.0000   1.0000
     1.0000   1.0000   1.0000   1.0000   1.0000   1.0000   1.0000   1.0000
     1.0000   1.0000   1.0000   1.0000   1.0000   0.0000   0.0000   0.0000
     0.0000   0.0000   0.0000   0.0000   0.0000   0.0000   0.0000   0.0000

[...]

          k = 0.3333-0.3516-0.2294 ( 11507 PWs)   bands (ev):

   -18.0073 -17.9968 -17.7468 -17.7409 -11.9052 -11.4855 -10.8946 -10.2950
    -9.0054  -8.8554  -8.7492  -8.7102  -8.6563  -7.7591  -5.2201  -5.1659
    -4.8610  -4.8473  -4.8228  -4.8130  -4.7503  -4.7360  -4.6163  -4.5934
    -4.5888  -4.5582  -4.5060  -4.4441  -2.0059  -1.9088  -1.1972  -1.1619
    -0.9441  -0.9243  -0.7164  -0.5342  -0.0005   0.6973   1.1447   1.4129
     1.6121   1.7749   1.8406   1.9686   1.9844   2.1570   2.2592   2.3312
     2.4532   2.6428   2.7070   2.7441   2.9284   4.7702   5.0629   5.2434
     5.4479   5.9208   5.9847   6.2218   6.8995   7.2272   7.3240   7.5091

     occupation numbers
     1.0000   1.0000   1.0000   1.0000   1.0000   1.0000   1.0000   1.0000
     1.0000   1.0000   1.0000   1.0000   1.0000   1.0000   1.0000   1.0000
     1.0000   1.0000   1.0000   1.0000   1.0000   1.0000   1.0000   1.0000
     1.0000   1.0000   1.0000   1.0000   1.0000   1.0000   1.0000   1.0000
     1.0000   1.0000   1.0000   1.0000   1.0000   1.0000   1.0000   1.0000
     1.0000   1.0000   1.0000   1.0000   1.0000   1.0000   1.0000   1.0000
     1.0000   1.0000   1.0000   1.0000   1.0000   0.0000   0.0000   0.0000
     0.0000   0.0000   0.0000   0.0000   0.0000   0.0000   0.0000   0.0000

     highest occupied, lowest unoccupied level (ev):     2.9602    4.4674

!    total energy              =    -717.15556138 Ry
     estimated scf accuracy    <       0.00000056 Ry

     The total energy is the sum of the following terms:
     one-electron contribution =     -62.52363106 Ry
     hartree contribution      =      70.52250955 Ry
     xc contribution           =    -426.67079068 Ry
     ewald contribution        =    -298.48364919 Ry

     convergence has been achieved in   9 iterations

     Writing all to output data dir bands_nm/myprefix.save/

     General routines

     Parallel routines

   This run was terminated on:  15:15:35  16Jul2023

   JOB DONE.