     Program PWSCF v.7.1 starts on 13Jul2023 at  8: 9:14

     Reading input from espresso_5904.pwi
Warning: card &CELL ignored
Warning: card / ignored

     Current dimensions of program PWSCF are:
     Max number of different atomic species (ntypx) = 10
     Max number of k-points (npk) =  40000
     Max angular momentum in pseudopotentials (lmaxx) =  4
     file O.pbe-n-kjpaw_psl.0.1.UPF: wavefunction(s)  2P renormalized
     Message from routine setup:
     using ibrav=0 with symmetry is DISCOURAGED, use correct ibrav instead

     K-points division:     npool     =       2
     R & G space division:  proc/nbgrp/npool/nimage =       8
     Subspace diagonalization in iterative solution of the eigenvalue problem:
     a serial algorithm will be used

     Using Slab Decomposition

     bravais-lattice index     =            0
     lattice parameter (alat)  =       9.3127  a.u.
     unit-cell volume          =    1522.0691 (a.u.)^3
     number of atoms/cell      =           19
     number of atomic types    =            4
     number of electrons       =       116.00
     number of Kohn-Sham states=           64
     kinetic-energy cutoff     =      30.0000  Ry
     charge density cutoff     =     240.0000  Ry
     scf convergence threshold =      1.0E-06
     mixing beta               =       0.7000
     number of iterations used =            8  plain     mixing
     Exchange-correlation= SLA  PW   PBX  PBC
                           (   1   4   3   4   0   0   0)

     celldm(1)=   9.312693  celldm(2)=   0.000000  celldm(3)=   0.000000
     celldm(4)=   0.000000  celldm(5)=   0.000000  celldm(6)=   0.000000

     crystal axes: (cart. coord. in units of alat)
               a(1) = (   1.000000   0.000000   0.000000 )
               a(2) = (  -0.496143   1.356077   0.000000 )
               a(3) = (  -0.213690  -0.626209   1.389710 )

     reciprocal axes: (cart. coord. in units 2 pi/alat)
               b(1) = (  1.000000  0.365867  0.318627 )
               b(2) = (  0.000000  0.737421  0.332285 )
               b(3) = (  0.000000  0.000000  0.719575 )

     PseudoPot. # 1 for Li read from file:
     /lustre07/scratch/pragov/crystal_structure_design/utils/SSSP/li_pbe_v1.4.uspp.F.UPF
     MD5 check sum: e912e257baa3777c20ea3d68f190483c
     Pseudo is Ultrasoft, Zval =  3.0
     Generated by new atomic code, or converted to UPF format
     Using radial grid of  751 points,  5 beta functions with:
                l(1) =   0
                l(2) =   0
                l(3) =   0
                l(4) =   1
                l(5) =   1
     Q(r) pseudized with 10 coefficients,  rinner =    1.150   1.150   1.150

     PseudoPot. # 2 for Ni read from file:
     /lustre07/scratch/pragov/crystal_structure_design/utils/SSSP/ni_pbe_v1.4.uspp.F.UPF
     MD5 check sum: 1ee80287db30b12d2bc1f57a5b5d6409
     Pseudo is Ultrasoft + core correction, Zval = 18.0
     Generated by new atomic code, or converted to UPF format
     Using radial grid of  865 points,  6 beta functions with:
                l(1) =   0
                l(2) =   0
                l(3) =   1
                l(4) =   1
                l(5) =   2
                l(6) =   2
     Q(r) pseudized with 10 coefficients,  rinner =    0.980   0.980   0.980
                                                       0.980   0.980

     PseudoPot. # 3 for P  read from file:
     /lustre07/scratch/pragov/crystal_structure_design/utils/SSSP/P.pbe-n-rrkjus_psl.1.0.0.UPF
     MD5 check sum: 8b930f418f0a4573dca56cd030ffe088
     Pseudo is Ultrasoft + core correction, Zval =  5.0
     Generated using "atomic" code by A. Dal Corso  v.5.1
     Using radial grid of 1147 points,  6 beta functions with:
                l(1) =   0
                l(2) =   0
                l(3) =   1
                l(4) =   1
                l(5) =   2
                l(6) =   2
     Q(r) pseudized with 0 coefficients

     PseudoPot. # 4 for O  read from file:
     /lustre07/scratch/pragov/crystal_structure_design/utils/SSSP/O.pbe-n-kjpaw_psl.0.1.UPF
     MD5 check sum: 0234752ac141de4415c5fc33072bef88
     Pseudo is Projector augmented-wave + core cor, Zval =  6.0
     Generated using "atomic" code by A. Dal Corso  v.5.0.99 svn rev. 10869
     Shape of augmentation charge: BESSEL
     Using radial grid of 1095 points,  4 beta functions with:
                l(1) =   0
                l(2) =   0
                l(3) =   1
                l(4) =   1
     Q(r) pseudized with 0 coefficients

     atomic species   valence    mass     pseudopotential
        Li             3.00     6.94000     Li( 1.00)
        Ni            18.00    58.69340     Ni( 1.00)
        P              5.00    30.97376     P ( 1.00)
        O              6.00    15.99900     O ( 1.00)

      2 Sym. Ops., with inversion, found

                                    s                        frac. trans.

      isym =  1     identity

 cryst.   s( 1) = (     1          0          0      )
                  (     0          1          0      )
                  (     0          0          1      )

 cart.    s( 1) = (  1.0000000  0.0000000  0.0000000 )
                  (  0.0000000  1.0000000  0.0000000 )
                  (  0.0000000  0.0000000  1.0000000 )

      isym =  2     inversion

 cryst.   s( 2) = (    -1          0          0      )
                  (     0         -1          0      )
                  (     0          0         -1      )

 cart.    s( 2) = ( -1.0000000  0.0000000  0.0000000 )
                  (  0.0000000 -1.0000000  0.0000000 )
                  (  0.0000000  0.0000000 -1.0000000 )

   Cartesian axes

     site n.     atom                  positions (alat units)
         1           Li  tau(   1) = (   0.2459267   0.6809509   0.7724618  )
         2           Li  tau(   2) = (   0.0442399   0.0489176   0.6172479  )
         3           Ni  tau(   3) = (   0.0000000   0.0000000   0.0000000  )
         4           P   tau(   4) = (  -0.0796459   0.9638024   0.2945504  )
         5           P   tau(   5) = (   0.5946222   0.4109275   0.2997618  )
         6           P   tau(   6) = (  -0.3044555   0.3189409   1.0899480  )
         7           P   tau(   7) = (   0.3698125  -0.2339340   1.0951594  )
         8           O   tau(   8) = (   0.1390958   0.9647605   0.4993130  )
         9           O   tau(   9) = (  -0.1579201   0.3071163   1.3849319  )
        10           O   tau(  10) = (   0.5622727  -0.4740983   1.1038965  )
        11           O   tau(  11) = (  -0.2636827   0.6997646   0.3195624  )
        12           O   tau(  12) = (  -0.5226458   0.5356565   1.1006446  )
        13           O   tau(  13) = (  -0.0928238   0.3384007   0.8774975  )
        14           O   tau(  14) = (   0.3829904   0.3914677   0.5122123  )
        15           O   tau(  15) = (   0.8128124   0.1942119   0.2890652  )
        16           O   tau(  16) = (   0.5538493   0.0301038   1.0701474  )
        17           O   tau(  17) = (  -0.2721061   1.2039667   0.2858133  )
        18           O   tau(  18) = (   0.4480867   0.4227522   0.0047778  )
        19           O   tau(  19) = (   0.1510709  -0.2348921   0.8903968  )

   Crystallographic axes

     site n.     atom                  positions (cryst. coord.)
         1           Li  tau(   1) = (  0.7411910  0.7588250  0.5558440  )
         2           Li  tau(   2) = (  0.2588090  0.2411750  0.4441560  )
         3           Ni  tau(   3) = (  0.0000000  0.0000000  0.0000000  )
         4           P   tau(   4) = (  0.3668290  0.8086030  0.2119510  )
         5           P   tau(   5) = (  0.8404790  0.4026330  0.2157010  )
         6           P   tau(   6) = (  0.1595210  0.5973670  0.7842990  )
         7           P   tau(   7) = (  0.6331710  0.1913970  0.7880490  )
         8           O   tau(   8) = (  0.6511640  0.8773490  0.3592930  )
         9           O   tau(   9) = (  0.3957200  0.6866660  0.9965620  )
        10           O   tau(  10) = (  0.7405470  0.0171980  0.7943360  )
        11           O   tau(  11) = (  0.0941590  0.6222070  0.2299490  )
        12           O   tau(  12) = (  0.0240280  0.7607320  0.7919960  )
        13           O   tau(  13) = (  0.3105800  0.5411230  0.6314250  )
        14           O   tau(  14) = (  0.6894200  0.4588770  0.3685750  )
        15           O   tau(  15) = (  0.9759720  0.2392680  0.2080040  )
        16           O   tau(  16) = (  0.9058410  0.3777930  0.7700510  )
        17           O   tau(  17) = (  0.2594530  0.9828020  0.2056640  )
        18           O   tau(  18) = (  0.6042800  0.3133340  0.0034380  )
        19           O   tau(  19) = (  0.3488360  0.1226510  0.6407070  )

     number of k points=    14
                       cart. coord. in units 2pi/alat
        k(    1) = (   0.0000000   0.0000000   0.0000000), wk =   0.0740741
        k(    2) = (   0.0000000   0.0000000   0.2398582), wk =   0.1481481
        k(    3) = (   0.0000000   0.2458071   0.1107616), wk =   0.1481481
        k(    4) = (   0.0000000   0.2458071   0.3506199), wk =   0.1481481
        k(    5) = (   0.0000000   0.2458071  -0.1290966), wk =   0.1481481
        k(    6) = (   0.3333333   0.1219556   0.1062089), wk =   0.1481481
        k(    7) = (   0.3333333   0.1219556   0.3460672), wk =   0.1481481
        k(    8) = (   0.3333333   0.1219556  -0.1336493), wk =   0.1481481
        k(    9) = (   0.3333333   0.3677626   0.2169706), wk =   0.1481481
        k(   10) = (   0.3333333   0.3677626   0.4568288), wk =   0.1481481
        k(   11) = (   0.3333333   0.3677626  -0.0228877), wk =   0.1481481
        k(   12) = (   0.3333333  -0.1238515  -0.0045527), wk =   0.1481481
        k(   13) = (   0.3333333  -0.1238515   0.2353056), wk =   0.1481481
        k(   14) = (   0.3333333  -0.1238515  -0.2444109), wk =   0.1481481

                       cryst. coord.
        k(    1) = (   0.0000000   0.0000000   0.0000000), wk =   0.0740741
        k(    2) = (   0.0000000   0.0000000   0.3333333), wk =   0.1481481
        k(    3) = (   0.0000000   0.3333333   0.0000000), wk =   0.1481481
        k(    4) = (   0.0000000   0.3333333   0.3333333), wk =   0.1481481
        k(    5) = (   0.0000000   0.3333333  -0.3333333), wk =   0.1481481
        k(    6) = (   0.3333333   0.0000000   0.0000000), wk =   0.1481481
        k(    7) = (   0.3333333   0.0000000   0.3333333), wk =   0.1481481
        k(    8) = (   0.3333333   0.0000000  -0.3333333), wk =   0.1481481
        k(    9) = (   0.3333333   0.3333333   0.0000000), wk =   0.1481481
        k(   10) = (   0.3333333   0.3333333   0.3333333), wk =   0.1481481
        k(   11) = (   0.3333333   0.3333333  -0.3333333), wk =   0.1481481
        k(   12) = (   0.3333333  -0.3333333  -0.0000000), wk =   0.1481481
        k(   13) = (   0.3333333  -0.3333333   0.3333333), wk =   0.1481481
        k(   14) = (   0.3333333  -0.3333333  -0.3333333), wk =   0.1481481

     Check: negative core charge=   -0.000014

     Initial potential from superposition of free atoms

     starting charge     113.0979, renormalised to     116.0000
     Starting wfcs are   87 randomized atomic wfcs
     Checking if some PAW data can be deallocated...

     Self-consistent Calculation

     iteration #  1     ecut=    30.00 Ry     beta= 0.70
     Davidson diagonalization with overlap

     ethr =  1.00E-02,  avg # of iterations =  2.5

     total energy              =    -926.45072973 Ry
     estimated scf accuracy    <       4.50542333 Ry

[...]

     total energy              =    -928.53191358 Ry
     estimated scf accuracy    <       0.00000231 Ry

     iteration # 13     ecut=    30.00 Ry     beta= 0.70
     Davidson diagonalization with overlap

     ethr =  1.99E-09,  avg # of iterations =  3.9

     End of self-consistent calculation

          k = 0.0000 0.0000 0.0000 (  4207 PWs)   bands (ev):

   -98.1843 -59.1210 -59.0794 -57.2977 -39.0495 -39.0478 -18.5761 -17.6800
   -17.6410 -16.1639 -16.1076 -15.3771 -15.3423 -15.2511 -14.5721 -14.5089
   -14.4906 -14.4618  -7.8149  -7.0228  -5.9581  -4.7001  -3.9101  -2.8435
    -2.3919  -2.3520  -2.1920  -1.5656  -1.3526  -1.1145  -0.9502  -0.9227
    -0.8516   0.0492   0.0736   0.1619   0.1764   0.3477   0.8922   0.9700
     1.0351   1.3531   1.4097   1.4247   1.7122   1.8804   2.0696   2.1210
     2.1682   2.3499   2.5361   2.5534   2.5754   2.7843   3.7645   4.5871
     4.6900   4.8376   5.3707   8.5633  10.8253  10.9307  11.4435  11.5779

     occupation numbers
     1.0000   1.0000   1.0000   1.0000   1.0000   1.0000   1.0000   1.0000
     1.0000   1.0000   1.0000   1.0000   1.0000   1.0000   1.0000   1.0000
     1.0000   1.0000   1.0000   1.0000   1.0000   1.0000   1.0000   1.0000
     1.0000   1.0000   1.0000   1.0000   1.0000   1.0000   1.0000   1.0000
     1.0000   1.0000   1.0000   1.0000   1.0000   1.0000   1.0000   1.0000
     1.0000   1.0000   1.0000   1.0000   1.0000   1.0000   1.0000   1.0000
     1.0000   1.0000   1.0000   1.0000   1.0000   1.0000   1.0000   1.0000
     1.0000   1.0000   0.0000   0.0000   0.0000   0.0000   0.0000   0.0000

[...]

          k = 0.3333-0.1239-0.2444 (  4230 PWs)   bands (ev):

   -98.1853 -59.1228 -59.0834 -57.3001 -39.0499 -39.0481 -18.5196 -17.6940
   -17.6777 -16.1191 -16.0984 -15.4196 -15.3181 -15.2079 -14.6312 -14.6068
   -14.4743 -14.4526  -7.8410  -7.0636  -5.9664  -4.6806  -3.6378  -2.7700
    -2.6116  -2.5324  -2.3141  -1.7638  -1.2039  -1.0264  -0.8419  -0.7587
    -0.3597  -0.2116  -0.1492  -0.0114   0.2294   0.4416   0.5759   0.8179
     0.9701   1.1575   1.4222   1.6689   1.8099   1.8445   2.0223   2.2147
     2.3021   2.4041   2.5123   2.6372   2.7342   2.7952   3.7689   4.6024
     4.6502   4.8577   5.3008   9.8200  10.7971  11.0917  11.2503  11.6228

     occupation numbers
     1.0000   1.0000   1.0000   1.0000   1.0000   1.0000   1.0000   1.0000
     1.0000   1.0000   1.0000   1.0000   1.0000   1.0000   1.0000   1.0000
     1.0000   1.0000   1.0000   1.0000   1.0000   1.0000   1.0000   1.0000
     1.0000   1.0000   1.0000   1.0000   1.0000   1.0000   1.0000   1.0000
     1.0000   1.0000   1.0000   1.0000   1.0000   1.0000   1.0000   1.0000
     1.0000   1.0000   1.0000   1.0000   1.0000   1.0000   1.0000   1.0000
     1.0000   1.0000   1.0000   1.0000   1.0000   1.0000   1.0000   1.0000
     1.0000   1.0000   0.0000   0.0000   0.0000   0.0000   0.0000   0.0000

     highest occupied, lowest unoccupied level (ev):     4.8633    5.2888

!    total energy              =    -928.53191391 Ry
     estimated scf accuracy    <       0.00000042 Ry

     The total energy is the sum of the following terms:
     one-electron contribution =    -578.67580282 Ry
     hartree contribution      =     342.96820591 Ry
     xc contribution           =    -150.75179050 Ry
     ewald contribution        =    -427.89355544 Ry
     one-center paw contrib.   =    -114.17897106 Ry
      -> PAW hartree energy AE =       0.00000000 Ry
      -> PAW hartree energy PS =       0.00000000 Ry
      -> PAW xc energy AE      =       0.00000000 Ry
      -> PAW xc energy PS      =       0.00000000 Ry
      -> total E_H with PAW    =     342.96820591 Ry
      -> total E_XC with PAW   =    -150.75179050 Ry

     convergence has been achieved in  13 iterations

     Writing all to output data dir bands_nm/myprefix.save/

     General routines

     Parallel routines

     PAW routines

   This run was terminated on:   8: 9:25  13Jul2023

   JOB DONE.