     Program PWSCF v.7.1 starts on 14Jul2023 at  2: 4:23

     Reading input from espresso_6583.pwi
Warning: card &CELL ignored
Warning: card / ignored

     Current dimensions of program PWSCF are:
     Max number of different atomic species (ntypx) = 10
     Max number of k-points (npk) =  40000
     Max angular momentum in pseudopotentials (lmaxx) =  4
     file Lu.paw.z_25.atompaw.wentzcovitch.v1.2.upf: wavefunction(s)  6S 0P 5D 0D 0F renormalized
     file O.pbe-n-kjpaw_psl.0.1.UPF: wavefunction(s)  2P renormalized
     Message from routine setup:
     using ibrav=0 with symmetry is DISCOURAGED, use correct ibrav instead

     K-points division:     npool     =       2
     R & G space division:  proc/nbgrp/npool/nimage =       4
     Subspace diagonalization in iterative solution of the eigenvalue problem:
     a serial algorithm will be used

     Using Slab Decomposition

     bravais-lattice index     =            0
     lattice parameter (alat)  =      10.8141  a.u.
     unit-cell volume          =    1021.9707 (a.u.)^3
     number of atoms/cell      =           12
     number of atomic types    =            3
     number of electrons       =       126.00
     number of Kohn-Sham states=           64
     kinetic-energy cutoff     =      30.0000  Ry
     charge density cutoff     =     240.0000  Ry
     scf convergence threshold =      1.0E-06
     mixing beta               =       0.7000
     number of iterations used =            8  plain     mixing
     Exchange-correlation= SLA  PW   PBX  PBC
                           (   1   4   3   4   0   0   0)

     celldm(1)=  10.814064  celldm(2)=   0.000000  celldm(3)=   0.000000
     celldm(4)=   0.000000  celldm(5)=   0.000000  celldm(6)=   0.000000

     crystal axes: (cart. coord. in units of alat)
               a(1) = (   1.000000   0.000000   0.000000 )
               a(2) = (   0.000000   0.885402   0.000000 )
               a(3) = (   0.000000   0.081902   0.912707 )

     reciprocal axes: (cart. coord. in units 2 pi/alat)
               b(1) = (  1.000000  0.000000  0.000000 )
               b(2) = (  0.000000  1.129431 -0.101349 )
               b(3) = (  0.000000  0.000000  1.095642 )

     PseudoPot. # 1 for Lu read from file:
     /lustre07/scratch/pragov/crystal_structure_design/utils/SSSP/Lu.paw.z_25.atompaw.wentzcovitch.v1.2.upf
     MD5 check sum: a517b3205eadf2aa79773283867f4cbe
     Pseudo is Projector augmented-wave + core cor, Zval = 25.0
     Generated using ATOMPAW code
     Shape of augmentation charge: BESSEL
     Using radial grid of 1118 points,  8 beta functions with:
                l(1) =   0
                l(2) =   0
                l(3) =   1
                l(4) =   1
                l(5) =   2
                l(6) =   2
                l(7) =   3
                l(8) =   3
     Q(r) pseudized with 0 coefficients

     PseudoPot. # 2 for W  read from file:
     /lustre07/scratch/pragov/crystal_structure_design/utils/SSSP/W_pbe_v1.2.uspp.F.UPF
     MD5 check sum: 9c083fa34c2a2ea0f02f1f893e16e1c8
     Pseudo is Ultrasoft + core correction, Zval = 14.0
     Generated by new atomic code, or converted to UPF format
     Using radial grid of  923 points,  8 beta functions with:
                l(1) =   0
                l(2) =   0
                l(3) =   0
                l(4) =   1
                l(5) =   1
                l(6) =   2
                l(7) =   2
                l(8) =   3
     Q(r) pseudized with  6 coefficients,  rinner =    1.350   1.350   1.350
                                                       1.350   1.350   1.350
                                                       1.350

     PseudoPot. # 3 for O  read from file:
     /lustre07/scratch/pragov/crystal_structure_design/utils/SSSP/O.pbe-n-kjpaw_psl.0.1.UPF
     MD5 check sum: 0234752ac141de4415c5fc33072bef88
     Pseudo is Projector augmented-wave + core cor, Zval =  6.0
     Generated using "atomic" code by A. Dal Corso  v.5.0.99 svn rev. 10869
     Shape of augmentation charge: BESSEL
     Using radial grid of 1095 points,  4 beta functions with:
                l(1) =   0
                l(2) =   0
                l(3) =   1
                l(4) =   1
     Q(r) pseudized with 0 coefficients

     atomic species   valence    mass     pseudopotential
        Lu            25.00   174.96680     Lu( 1.00)
        W             14.00   183.84000     W ( 1.00)
        O              6.00    15.99900     O ( 1.00)

      4 Sym. Ops., with inversion, found ( 2 have fractional translation)

                                    s                        frac. trans.

      isym =  1     identity

 cryst.   s( 1) = (     1          0          0      )
                  (     0          1          0      )
                  (     0          0          1      )

 cart.    s( 1) = (  1.0000000  0.0000000  0.0000000 )
                  (  0.0000000  1.0000000  0.0000000 )
                  (  0.0000000  0.0000000  1.0000000 )

      isym =  2     180 deg rotation - cart. axis [1,0,0]

 cryst.   s( 2) = (     1          0          0      )    f =(  0.0000000 )
                  (     0         -1          0      )       (  0.0000000 )
                  (     0          0         -1      )       ( -0.5000000 )

 cart.    s( 2) = (  1.0000000  0.0000000  0.0000000 )    f =(  0.0000000 )
                  (  0.0000000 -1.0000000  0.0000000 )       ( -0.0409508 )
                  (  0.0000000  0.0000000 -1.0000000 )       ( -0.4563533 )

      isym =  3     inversion

 cryst.   s( 3) = (    -1          0          0      )
                  (     0         -1          0      )
                  (     0          0         -1      )

 cart.    s( 3) = ( -1.0000000  0.0000000  0.0000000 )
                  (  0.0000000 -1.0000000  0.0000000 )
                  (  0.0000000  0.0000000 -1.0000000 )

      isym =  4     inv. 180 deg rotation - cart. axis [1,0,0]

 cryst.   s( 4) = (    -1          0          0      )    f =( -0.0000000 )
                  (     0          1          0      )       (  0.0000000 )
                  (     0          0          1      )       (  0.5000000 )

 cart.    s( 4) = ( -1.0000000  0.0000000  0.0000000 )    f =( -0.0000000 )
                  (  0.0000000  1.0000000  0.0000000 )       (  0.0409508 )
                  (  0.0000000  0.0000000  1.0000000 )       (  0.4563533 )

   Cartesian axes

     site n.     atom                  positions (alat units)
         1           Lu  tau(   1) = (   0.3018470   0.5041272   0.6845300  )
         2           Lu  tau(   2) = (   0.6981530   0.4631764   0.2281767  )
         3           W   tau(   3) = (   0.8246470   0.9468282   0.6845300  )
         4           W   tau(   4) = (   0.1753530   0.0204754   0.2281767  )
         5           O   tau(   5) = (   0.0938940   0.2377248   0.4942872  )
         6           O   tau(   6) = (   0.9061060   0.1967740   0.0379339  )
         7           O   tau(   7) = (   0.6073140   0.2860382   0.5593943  )
         8           O   tau(   8) = (   0.3926860   0.2450873   0.1030409  )
         9           O   tau(   9) = (   0.6073140   0.7222163   0.8096657  )
        10           O   tau(  10) = (   0.3926860   0.6812654   0.3533124  )
        11           O   tau(  11) = (   0.0938940   0.7705296   0.8747728  )
        12           O   tau(  12) = (   0.9061060   0.7295787   0.4184194  )

   Crystallographic axes

     site n.     atom                  positions (cryst. coord.)
         1           Lu  tau(   1) = (  0.3018470  0.5000000  0.7500000  )
         2           Lu  tau(   2) = (  0.6981530  0.5000000  0.2500000  )
         3           W   tau(   3) = (  0.8246470  1.0000000  0.7500000  )
         4           W   tau(   4) = (  0.1753530 -0.0000000  0.2500000  )
         5           O   tau(   5) = (  0.0938940  0.2183980  0.5415620  )
         6           O   tau(   6) = (  0.9061060  0.2183980  0.0415620  )
         7           O   tau(   7) = (  0.6073140  0.2663660  0.6128960  )
         8           O   tau(   8) = (  0.3926860  0.2663660  0.1128960  )
         9           O   tau(   9) = (  0.6073140  0.7336340  0.8871040  )
        10           O   tau(  10) = (  0.3926860  0.7336340  0.3871040  )
        11           O   tau(  11) = (  0.0938940  0.7816020  0.9584380  )
        12           O   tau(  12) = (  0.9061060  0.7816020  0.4584380  )

     number of k points=    10
                       cart. coord. in units 2pi/alat
        k(    1) = (   0.0000000   0.0000000   0.0000000), wk =   0.0740741
        k(    2) = (   0.0000000   0.0000000   0.3652141), wk =   0.1481481
        k(    3) = (   0.0000000   0.3764769  -0.0337831), wk =   0.1481481
        k(    4) = (   0.0000000   0.3764769   0.3314310), wk =   0.1481481
        k(    5) = (   0.0000000   0.3764769  -0.3989972), wk =   0.1481481
        k(    6) = (   0.3333333   0.0000000   0.0000000), wk =   0.1481481
        k(    7) = (   0.3333333   0.0000000   0.3652141), wk =   0.2962963
        k(    8) = (   0.3333333   0.3764769  -0.0337831), wk =   0.2962963
        k(    9) = (   0.3333333   0.3764769   0.3314310), wk =   0.2962963
        k(   10) = (   0.3333333   0.3764769  -0.3989972), wk =   0.2962963

                       cryst. coord.
        k(    1) = (   0.0000000   0.0000000   0.0000000), wk =   0.0740741
        k(    2) = (   0.0000000   0.0000000   0.3333333), wk =   0.1481481
        k(    3) = (   0.0000000   0.3333333   0.0000000), wk =   0.1481481
        k(    4) = (   0.0000000   0.3333333   0.3333333), wk =   0.1481481
        k(    5) = (   0.0000000   0.3333333  -0.3333333), wk =   0.1481481
        k(    6) = (   0.3333333   0.0000000   0.0000000), wk =   0.1481481
        k(    7) = (   0.3333333   0.0000000   0.3333333), wk =   0.2962963
        k(    8) = (   0.3333333   0.3333333   0.0000000), wk =   0.2962963
        k(    9) = (   0.3333333   0.3333333   0.3333333), wk =   0.2962963
        k(   10) = (   0.3333333   0.3333333  -0.3333333), wk =   0.2962963

     Check: negative core charge=   -0.000011

     Initial potential from superposition of free atoms

     starting charge     125.7918, renormalised to     126.0000

     negative rho (up, down):  1.241E-01 0.000E+00
     Starting wfcs are  122 randomized atomic wfcs
     Checking if some PAW data can be deallocated...

     Self-consistent Calculation

     iteration #  1     ecut=    30.00 Ry     beta= 0.70
     Davidson diagonalization with overlap

     ethr =  1.00E-02,  avg # of iterations =  2.0

     negative rho (up, down):  1.192E-01 0.000E+00

     total energy              =   -2810.33258985 Ry
     estimated scf accuracy    <       3.95924078 Ry

[...]

     c_bands:  1 eigenvalues not converged
     ethr =  3.77E-08,  avg # of iterations = 16.0

[...]

     total energy              =   -2812.53227683 Ry
     estimated scf accuracy    <       0.00000238 Ry

     iteration # 12     ecut=    30.00 Ry     beta= 0.70
     Davidson diagonalization with overlap

     ethr =  1.89E-09,  avg # of iterations =  2.4

     negative rho (up, down):  1.205E-01 0.000E+00

     End of self-consistent calculation

          k = 0.0000 0.0000 0.0000 (  2855 PWs)   bands (ev):

   -62.8152 -62.8097 -42.6646 -42.6526 -27.1692 -27.1562 -27.0974 -27.0332
   -26.9025 -26.7959 -13.6532 -13.6364 -13.5788 -13.4424 -13.4271 -13.3691
    -7.2694  -6.2651  -6.0651  -5.9209  -5.7661  -5.7164  -5.3893  -5.3402
     5.4958   5.5612   6.0340   6.0974   6.2756   6.4434   7.1107   7.1348
     7.3884   7.6244   7.6650   7.8298   8.2322   8.4293   8.4466   8.5179
     8.6814   8.7082   8.7363   8.7936   8.7942   8.8620   8.9024   8.9864
     8.9896   9.0074   9.0109   9.1144   9.1386   9.3016   9.3207   9.3749
     9.8755   9.9459  10.1498  10.2276  10.3931  10.3957  13.7311  13.7617

     occupation numbers
     1.0000   1.0000   1.0000   1.0000   1.0000   1.0000   1.0000   1.0000
     1.0000   1.0000   1.0000   1.0000   1.0000   1.0000   1.0000   1.0000
     1.0000   1.0000   1.0000   1.0000   1.0000   1.0000   1.0000   1.0000
     1.0000   1.0000   1.0000   1.0000   1.0000   1.0000   1.0000   1.0000
     1.0000   1.0000   1.0000   1.0000   1.0000   1.0000   1.0000   1.0000
     1.0000   1.0000   1.0000   1.0000   1.0000   1.0000   1.0000   1.0000
     1.0000   1.0000   1.0000   1.0000   1.0000   1.0000   1.0000   1.0000
     1.0000   1.0000   1.0000   1.0000   1.0000   1.0000   1.0000   0.0000

[...]

          k = 0.3333 0.3765-0.3990 (  2828 PWs)   bands (ev):

   -62.8137 -62.8110 -42.6614 -42.6557 -27.1691 -27.1630 -27.0831 -27.0544
   -26.8681 -26.8174 -13.6841 -13.6626 -13.5363 -13.4849 -13.4010 -13.3669
    -6.7517  -6.3730  -6.1865  -6.0290  -5.7547  -5.7138  -5.5324  -5.4225
     5.8281   5.9393   6.0992   6.3179   6.5062   6.7163   6.8919   7.0222
     7.3580   7.4466   7.7343   7.8778   8.1281   8.3609   8.4823   8.5708
     8.6315   8.7264   8.7493   8.7956   8.8046   8.8883   8.8919   8.9453
     8.9756   9.0127   9.0646   9.2068   9.2239   9.2721   9.3324   9.4255
     9.5679   9.6912   9.7116   9.8144   9.9420  10.1335  13.6947  14.1121

     occupation numbers
     1.0000   1.0000   1.0000   1.0000   1.0000   1.0000   1.0000   1.0000
     1.0000   1.0000   1.0000   1.0000   1.0000   1.0000   1.0000   1.0000
     1.0000   1.0000   1.0000   1.0000   1.0000   1.0000   1.0000   1.0000
     1.0000   1.0000   1.0000   1.0000   1.0000   1.0000   1.0000   1.0000
     1.0000   1.0000   1.0000   1.0000   1.0000   1.0000   1.0000   1.0000
     1.0000   1.0000   1.0000   1.0000   1.0000   1.0000   1.0000   1.0000
     1.0000   1.0000   1.0000   1.0000   1.0000   1.0000   1.0000   1.0000
     1.0000   1.0000   1.0000   1.0000   1.0000   1.0000   1.0000   0.0000

     highest occupied, lowest unoccupied level (ev):    13.8638   13.7617

!    total energy              =   -2812.53227662 Ry
     estimated scf accuracy    <       0.00000044 Ry

     The total energy is the sum of the following terms:
     one-electron contribution =   -1017.47968094 Ry
     hartree contribution      =     506.39297535 Ry
     xc contribution           =    -224.96683000 Ry
     ewald contribution        =   -1016.11108899 Ry
     one-center paw contrib.   =   -1060.36765204 Ry
      -> PAW hartree energy AE =     982.27303212 Ry
      -> PAW hartree energy PS =    -848.02378343 Ry
      -> PAW xc energy AE      =   -1198.74159239 Ry
      -> PAW xc energy PS      =      80.29510789 Ry
      -> total E_H with PAW    =     640.64222404 Ry
      -> total E_XC with PAW   =   -1343.41331451 Ry

     convergence has been achieved in  12 iterations

     Writing all to output data dir bands_nm/myprefix.save/

     General routines

     Parallel routines

     PAW routines

   This run was terminated on:   2: 4:38  14Jul2023

   JOB DONE.