     Program PWSCF v.7.1 starts on 15Jul2023 at 17:45:22

     Reading input from espresso_20890.pwi
Warning: card &CELL ignored
Warning: card / ignored

     Current dimensions of program PWSCF are:
     Max number of different atomic species (ntypx) = 10
     Max number of k-points (npk) =  40000
     Max angular momentum in pseudopotentials (lmaxx) =  4
     Message from routine setup:
     using ibrav=0 with symmetry is DISCOURAGED, use correct ibrav instead

     K-points division:     npool     =       2
     R & G space division:  proc/nbgrp/npool/nimage =       4
     Subspace diagonalization in iterative solution of the eigenvalue problem:
     one sub-group per band group will be used

     Using Slab Decomposition

     bravais-lattice index     =            0
     lattice parameter (alat)  =      13.3857  a.u.
     unit-cell volume          =    4049.4381 (a.u.)^3
     number of atoms/cell      =           20
     number of atomic types    =            2
     number of electrons       =       160.00
     number of Kohn-Sham states=          256
     kinetic-energy cutoff     =      30.0000  Ry
     charge density cutoff     =     240.0000  Ry
     scf convergence threshold =      1.0E-06
     mixing beta               =       0.7000
     number of iterations used =            8  plain     mixing
     Exchange-correlation= SLA  PW   PBE  PBE
                           (   1   4   3   4   0   0   0)

     celldm(1)=  13.385707  celldm(2)=   0.000000  celldm(3)=   0.000000
     celldm(4)=   0.000000  celldm(5)=   0.000000  celldm(6)=   0.000000

     crystal axes: (cart. coord. in units of alat)
               a(1) = (   1.000000   0.000000   0.000000 )
               a(2) = (  -0.487892   0.873137   0.000000 )
               a(3) = (  -0.169820  -0.287958   1.933697 )

     reciprocal axes: (cart. coord. in units 2 pi/alat)
               b(1) = (  1.000000  0.558781  0.171033 )
               b(2) = (  0.000000  1.145296  0.170553 )
               b(3) = (  0.000000  0.000000  0.517144 )

     PseudoPot. # 1 for Sc read from file:
     /lustre07/scratch/pragov/crystal_structure_design/utils/SSSP/Sc_ONCV_PBE-1.0.oncvpsp.upf
     MD5 check sum: e21af8023abb52e52cb7cd3133e4a229
     Pseudo is Norm-conserving, Zval = 11.0
     Generated using ONCVPSP code by D. R. Hamann
     Using radial grid of 1662 points,  6 beta functions with:
                l(1) =   0
                l(2) =   0
                l(3) =   1
                l(4) =   1
                l(5) =   2
                l(6) =   2

     PseudoPot. # 2 for Te read from file:
     /lustre07/scratch/pragov/crystal_structure_design/utils/SSSP/Te_pbe_v1.uspp.F.UPF
     MD5 check sum: c319670d6894cc26e93307826a071b75
     Pseudo is Ultrasoft + core correction, Zval =  6.0
     Generated by new atomic code, or converted to UPF format
     Using radial grid of  891 points,  5 beta functions with:
                l(1) =   0
                l(2) =   0
                l(3) =   1
                l(4) =   1
                l(5) =   2
     Q(r) pseudized with  6 coefficients,  rinner =    1.800   1.800   1.800
                                                       1.800   1.800

     atomic species   valence    mass     pseudopotential
        Sc            11.00    44.95591     Sc( 1.00)
        Te             6.00   127.60000     Te( 1.00)

      2 Sym. Ops., with inversion, found

                                    s                        frac. trans.

      isym =  1     identity

 cryst.   s( 1) = (     1          0          0      )
                  (     0          1          0      )
                  (     0          0          1      )

 cart.    s( 1) = (  1.0000000  0.0000000  0.0000000 )
                  (  0.0000000  1.0000000  0.0000000 )
                  (  0.0000000  0.0000000  1.0000000 )

      isym =  2     inversion

 cryst.   s( 2) = (    -1          0          0      )
                  (     0         -1          0      )
                  (     0          0         -1      )

 cart.    s( 2) = ( -1.0000000  0.0000000  0.0000000 )
                  (  0.0000000 -1.0000000  0.0000000 )
                  (  0.0000000  0.0000000 -1.0000000 )

   Cartesian axes

     site n.     atom                  positions (alat units)
         1           Sc  tau(   1) = (   0.0000000   0.0000000   0.0000000  )
         2           Sc  tau(   2) = (   0.3366576   0.0041933   1.9336082  )
         3           Sc  tau(   3) = (   0.0056302   0.5809852   0.0000890  )
         4           Sc  tau(   4) = (  -0.3248062   0.5826052   0.4762561  )
         5           Sc  tau(   5) = (  -0.3248080   0.5836112   0.9740245  )
         6           Sc  tau(   6) = (   0.6670958   0.0015674   0.9596726  )
         7           Sc  tau(   7) = (   0.6670939   0.0025734   1.4574411  )
         8           Sc  tau(   8) = (   0.1711439   0.2925893   0.9668486  )
         9           Te  tau(   9) = (   0.0025023   0.0012128   0.7231892  )
        10           Te  tau(  10) = (   0.0024436   0.0017282   1.6921069  )
        11           Te  tau(  11) = (   0.5043424   0.2957083   0.7226710  )
        12           Te  tau(  12) = (   0.5031825   0.2946617   1.6897710  )
        13           Te  tau(  13) = (   0.0075742   0.5815275   0.7233130  )
        14           Te  tau(  14) = (   0.0083716   0.5837863   1.6911652  )
        15           Te  tau(  15) = (   0.3339162   0.0013922   0.2425320  )
        16           Te  tau(  16) = (   0.3347136   0.0036510   1.2103842  )
        17           Te  tau(  17) = (  -0.1608947   0.2905168   0.2439262  )
        18           Te  tau(  18) = (  -0.1620546   0.2894703   1.2110262  )
        19           Te  tau(  19) = (   0.3398441   0.5834503   0.2415903  )
        20           Te  tau(  20) = (   0.3397855   0.5839657   1.2105080  )

   Crystallographic axes

     site n.     atom                  positions (cryst. coord.)
         1           Sc  tau(   1) = (  0.0000000  0.0000000  0.0000000  )
         2           Sc  tau(   2) = (  0.6697110  0.3345850  0.9999540  )
         3           Sc  tau(   3) = (  0.3302890  0.6654150  0.0000460  )
         4           Sc  tau(   4) = (  0.0821980  0.7484820  0.2462930  )
         5           Sc  tau(   5) = (  0.1678930  0.8345300  0.5037110  )
         6           Sc  tau(   6) = (  0.8321070  0.1654700  0.4962890  )
         7           Sc  tau(   7) = (  0.9178020  0.2515180  0.7537070  )
         8           Sc  tau(   8) = (  0.5000000  0.5000000  0.5000000  )
         9           Te  tau(   9) = (  0.1268690  0.1247310  0.3739930  )
        10           Te  tau(  10) = (  0.2928150  0.2905730  0.8750630  )
        11           Te  tau(  11) = (  0.7931790  0.4619270  0.3737250  )
        12           Te  tau(  12) = (  0.9568400  0.6256700  0.8738550  )
        13           Te  tau(  13) = (  0.4562310  0.7893840  0.3740570  )
        14           Te  tau(  14) = (  0.6238250  0.9570410  0.8745760  )
        15           Te  tau(  15) = (  0.3761750  0.0429590  0.1254240  )
        16           Te  tau(  16) = (  0.5437690  0.2106160  0.6259430  )
        17           Te  tau(  17) = (  0.0431600  0.3743300  0.1261450  )
        18           Te  tau(  18) = (  0.2068210  0.5380730  0.6262750  )
        19           Te  tau(  19) = (  0.7071850  0.7094270  0.1249370  )
        20           Te  tau(  20) = (  0.8731310  0.8752690  0.6260070  )

     number of k points=    14
                       cart. coord. in units 2pi/alat
        k(    1) = (   0.0000000   0.0000000   0.0000000), wk =   0.0740741
        k(    2) = (   0.0000000   0.0000000   0.1723813), wk =   0.1481481
        k(    3) = (   0.0000000   0.3817652   0.0568509), wk =   0.1481481
        k(    4) = (   0.0000000   0.3817652   0.2292323), wk =   0.1481481
        k(    5) = (   0.0000000   0.3817652  -0.1155304), wk =   0.1481481
        k(    6) = (   0.3333333   0.1862604   0.0570109), wk =   0.1481481
        k(    7) = (   0.3333333   0.1862604   0.2293923), wk =   0.1481481
        k(    8) = (   0.3333333   0.1862604  -0.1153704), wk =   0.1481481
        k(    9) = (   0.3333333   0.5680256   0.1138619), wk =   0.1481481
        k(   10) = (   0.3333333   0.5680256   0.2862432), wk =   0.1481481
        k(   11) = (   0.3333333   0.5680256  -0.0585195), wk =   0.1481481
        k(   12) = (   0.3333333  -0.1955048   0.0001600), wk =   0.1481481
        k(   13) = (   0.3333333  -0.1955048   0.1725413), wk =   0.1481481
        k(   14) = (   0.3333333  -0.1955048  -0.1722214), wk =   0.1481481

                       cryst. coord.
        k(    1) = (   0.0000000   0.0000000   0.0000000), wk =   0.0740741
        k(    2) = (   0.0000000   0.0000000   0.3333333), wk =   0.1481481
        k(    3) = (   0.0000000   0.3333333  -0.0000000), wk =   0.1481481
        k(    4) = (   0.0000000   0.3333333   0.3333333), wk =   0.1481481
        k(    5) = (   0.0000000   0.3333333  -0.3333333), wk =   0.1481481
        k(    6) = (   0.3333333   0.0000000  -0.0000000), wk =   0.1481481
        k(    7) = (   0.3333333   0.0000000   0.3333333), wk =   0.1481481
        k(    8) = (   0.3333333   0.0000000  -0.3333333), wk =   0.1481481
        k(    9) = (   0.3333333   0.3333333   0.0000000), wk =   0.1481481
        k(   10) = (   0.3333333   0.3333333   0.3333333), wk =   0.1481481
        k(   11) = (   0.3333333   0.3333333  -0.3333333), wk =   0.1481481
        k(   12) = (   0.3333333  -0.3333333   0.0000000), wk =   0.1481481
        k(   13) = (   0.3333333  -0.3333333   0.3333333), wk =   0.1481481
        k(   14) = (   0.3333333  -0.3333333  -0.3333333), wk =   0.1481481

     Initial potential from superposition of free atoms

     starting charge     159.9763, renormalised to     160.0000
     Starting wfcs are  128 randomized atomic wfcs +  128 random wfcs

     Self-consistent Calculation

     iteration #  1     ecut=    30.00 Ry     beta= 0.70
     Davidson diagonalization with overlap

     ethr =  1.00E-02,  avg # of iterations =  7.2

     Threshold (ethr) on eigenvalues was too large:
     Diagonalizing with lowered threshold

     Davidson diagonalization with overlap

[...]

     total energy              =   -1054.46889201 Ry
     estimated scf accuracy    <       0.49028402 Ry

[...]

     total energy              =   -1054.65169034 Ry
     estimated scf accuracy    <       0.00000127 Ry

     iteration # 12     ecut=    30.00 Ry     beta= 0.70
     Davidson diagonalization with overlap

     ethr =  7.95E-10,  avg # of iterations =  1.0

     End of self-consistent calculation

          k = 0.0000 0.0000 0.0000 ( 11257 PWs)   bands (ev):

   -43.6654 -43.6654 -43.5027 -43.5006 -43.5003 -43.4032 -43.2968 -43.2953
   -22.2402 -22.2400 -22.2392 -22.2389 -22.2324 -22.2319 -22.1280 -22.1014
   -22.0890 -22.0859 -22.0783 -22.0514 -22.0446 -22.0444 -22.0345 -21.9924
   -21.9887 -21.9391 -21.8856 -21.8829 -21.8710 -21.8660 -21.8555 -21.8513
    -4.7910  -4.3820  -4.1787  -3.6427  -3.5573  -3.5490  -3.5425  -3.5360
    -3.3757  -3.3745  -3.3647  -3.3620   2.1950   2.8679   3.0565   3.0869
     3.1322   3.3788   3.4092   3.4361   3.5019   3.5234   3.5641   3.6685
     3.6896   3.8741   3.9556   3.9771   4.3485   4.3939   4.5157   4.5193
     4.5696   4.5769   4.7310   4.9389   5.0903   5.1895   5.2739   5.3099
     5.3311   5.4419   5.5016   6.4271   6.5052   6.8925   7.0154   7.1131
     7.5654   7.8347   7.8851   8.1202   8.1485   8.1629   8.2348   8.2512
     8.2777   8.3209   8.3727   8.5062   8.5441   8.6268   8.6424   8.6996
     8.7033   8.7954   8.8375   8.8762   8.8987   8.9062   8.9417   9.1126
     9.1786   9.2013   9.4414   9.5152   9.5842   9.7363   9.7748   9.8387
    10.0269  10.1333  10.2311  10.2817  10.3013  10.3242  10.8773  10.8938
    10.9580  11.1199  11.5060  11.7742  11.7957  11.9667  12.1512  12.3424
    12.5293  12.6251  12.9735  12.9745  13.3316  13.4075  13.4490  13.6636
    14.0203  14.0596  14.2412  14.2696  14.3942  14.6005  14.8233  15.0454
    15.1021  15.1192  15.1676  15.2500  15.2641  15.3460  15.3897  15.5439
    15.5730  15.6922  15.7076  15.7241  15.7928  15.8205  15.8299  15.8750
    15.9204  15.9938  16.0880  16.2482  16.4330  16.5652  16.6288  16.6919
    17.3313  17.4678  17.5153  17.6335  17.7620  17.9089  18.0776  18.1030
    18.1475  18.1713  18.1747  18.2678  18.3062  18.3071  18.4333  18.4788
    18.5171  18.5749  18.6396  18.6942  18.8214  18.8921  19.0247  19.0821
    19.1587  19.4440  19.5676  20.4025  20.6561  20.8705  20.9734  20.9827
    20.9932  21.0954  21.5271  21.6306  21.8668  22.1992  22.2193  22.3591
    22.4856  22.5132  22.5799  22.5986  22.6324  22.6436  22.8654  23.0211
    23.1037  23.2925  23.4820  23.5073  23.8246  23.8937  23.9030  24.0362
    24.1090  24.3115  24.4905  24.6378  24.7927  24.8011  24.9016  25.0139
    25.0975  25.1068  25.1909  25.2309  25.5003  25.5661  25.5966  25.6226
    25.7339  25.8258  25.8830  25.9124  25.9342  25.9411  26.0034  26.0294
    26.0852  26.2546  26.5277  26.5403  26.5799  26.6739  26.7963  26.9517

     occupation numbers
     1.0000   1.0000   1.0000   1.0000   1.0000   1.0000   1.0000   1.0000
     1.0000   1.0000   1.0000   1.0000   1.0000   1.0000   1.0000   1.0000
     1.0000   1.0000   1.0000   1.0000   1.0000   1.0000   1.0000   1.0000
     1.0000   1.0000   1.0000   1.0000   1.0000   1.0000   1.0000   1.0000
     1.0000   1.0000   1.0000   1.0000   1.0000   1.0000   1.0000   1.0000
     1.0000   1.0000   1.0000   1.0000   1.0000   1.0000   1.0000   1.0000
     1.0000   1.0000   1.0000   1.0000   1.0000   1.0000   1.0000   1.0000
     1.0000   1.0000   1.0000   1.0000   1.0000   1.0000   1.0000   1.0000
     1.0000   1.0000   1.0000   1.0000   1.0000   1.0000   1.0000   1.0000
     1.0000   1.0000   1.0000   1.0000   1.0000   1.0000   1.0000   1.0000
     0.0000   0.0000   0.0000   0.0000   0.0000   0.0000   0.0000   0.0000
     0.0000   0.0000   0.0000   0.0000   0.0000   0.0000   0.0000   0.0000
     0.0000   0.0000   0.0000   0.0000   0.0000   0.0000   0.0000   0.0000
     0.0000   0.0000   0.0000   0.0000   0.0000   0.0000   0.0000   0.0000
     0.0000   0.0000   0.0000   0.0000   0.0000   0.0000   0.0000   0.0000
     0.0000   0.0000   0.0000   0.0000   0.0000   0.0000   0.0000   0.0000
     0.0000   0.0000   0.0000   0.0000   0.0000   0.0000   0.0000   0.0000
     0.0000   0.0000   0.0000   0.0000   0.0000   0.0000   0.0000   0.0000
     0.0000   0.0000   0.0000   0.0000   0.0000   0.0000   0.0000   0.0000
     0.0000   0.0000   0.0000   0.0000   0.0000   0.0000   0.0000   0.0000
     0.0000   0.0000   0.0000   0.0000   0.0000   0.0000   0.0000   0.0000
     0.0000   0.0000   0.0000   0.0000   0.0000   0.0000   0.0000   0.0000
     0.0000   0.0000   0.0000   0.0000   0.0000   0.0000   0.0000   0.0000
     0.0000   0.0000   0.0000   0.0000   0.0000   0.0000   0.0000   0.0000
     0.0000   0.0000   0.0000   0.0000   0.0000   0.0000   0.0000   0.0000
     0.0000   0.0000   0.0000   0.0000   0.0000   0.0000   0.0000   0.0000
     0.0000   0.0000   0.0000   0.0000   0.0000   0.0000   0.0000   0.0000
     0.0000   0.0000   0.0000   0.0000   0.0000   0.0000   0.0000   0.0000
     0.0000   0.0000   0.0000   0.0000   0.0000   0.0000   0.0000   0.0000
     0.0000   0.0000   0.0000   0.0000   0.0000   0.0000   0.0000   0.0000
     0.0000   0.0000   0.0000   0.0000   0.0000   0.0000   0.0000   0.0000
     0.0000   0.0000   0.0000   0.0000   0.0000   0.0000   0.0000   0.0000

[...]

          k = 0.3333-0.1955-0.1722 ( 11237 PWs)   bands (ev):

   -43.6654 -43.6654 -43.5020 -43.5009 -43.5006 -43.4032 -43.2964 -43.2957
   -22.2401 -22.2400 -22.2391 -22.2388 -22.2323 -22.2320 -22.1283 -22.1010
   -22.0891 -22.0836 -22.0793 -22.0527 -22.0451 -22.0400 -22.0383 -21.9927
   -21.9882 -21.9391 -21.8854 -21.8799 -21.8708 -21.8693 -21.8544 -21.8523
    -4.4709  -4.2707  -3.8730  -3.8236  -3.7124  -3.6541  -3.6426  -3.6087
    -3.5524  -3.4624  -3.4577  -3.4108   2.3592   2.6562   2.7971   3.0399
     3.0731   3.2255   3.2638   3.3358   3.4381   3.4855   4.0525   4.2479
     4.3054   4.3114   4.3446   4.4526   4.5838   4.6217   4.6764   4.7241
     4.7834   4.8551   4.9404   5.0158   5.0432   5.1535   5.1833   5.2796
     5.4027   5.4553   5.5146   5.6053   5.7531   5.9682   6.0952   6.2208
     7.5098   7.6529   7.7040   7.8892   8.0363   8.1567   8.2297   8.2656
     8.3042   8.3796   8.5067   8.6154   8.6317   8.7405   8.7689   8.8369
     8.8817   8.9072   8.9664   8.9722   8.9888   9.0192   9.0909   9.1100
     9.1974   9.2191   9.2843   9.4313   9.5089   9.6026   9.7894   9.9084
     9.9407  10.1031  10.1420  10.3253  10.4429  10.4632  10.5921  10.8061
    11.0320  11.4484  11.9466  12.1174  12.3136  12.4425  12.5264  12.6661
    12.8037  12.8394  12.8933  12.9540  13.1552  13.2631  13.3180  13.3870
    13.5083  13.6053  13.7631  13.8060  13.9324  14.0599  14.1291  14.1483
    14.3010  14.3914  14.4818  14.5241  14.5886  14.6826  14.8603  14.9541
    15.0661  15.3509  15.5875  15.6140  15.7072  15.8054  15.8835  15.9885
    16.1762  16.2411  16.2912  16.4648  16.5457  16.9423  17.1434  17.1875
    17.3162  17.5160  17.9549  18.0592  18.2700  18.3706  18.4141  18.4671
    18.5601  18.6038  18.8045  18.9026  19.0741  19.1750  19.3891  19.5237
    19.6197  19.9023  19.9966  20.0620  20.1095  20.2243  20.2925  20.3608
    20.4548  20.5981  20.6339  20.7468  20.8378  20.9613  21.0219  21.0924
    21.1789  21.2705  21.4157  21.4638  21.5212  21.6806  21.7422  21.7709
    21.9008  22.0499  22.1730  22.2415  22.2801  22.3263  22.4215  22.4307
    22.5168  22.6414  22.6596  22.7814  22.8484  22.9027  23.2805  23.4382
    23.5761  23.7106  23.8566  23.9831  24.0664  24.1783  24.2894  24.4497
    24.5571  24.6214  24.7047  24.8351  24.9169  24.9637  25.1336  25.1415
    25.2943  25.3575  25.4384  25.5861  25.7492  25.9185  26.1890  26.2303
    26.3187  26.4795  26.5468  26.7204  26.8557  26.8656  26.9195  27.0959

     occupation numbers
     1.0000   1.0000   1.0000   1.0000   1.0000   1.0000   1.0000   1.0000
     1.0000   1.0000   1.0000   1.0000   1.0000   1.0000   1.0000   1.0000
     1.0000   1.0000   1.0000   1.0000   1.0000   1.0000   1.0000   1.0000
     1.0000   1.0000   1.0000   1.0000   1.0000   1.0000   1.0000   1.0000
     1.0000   1.0000   1.0000   1.0000   1.0000   1.0000   1.0000   1.0000
     1.0000   1.0000   1.0000   1.0000   1.0000   1.0000   1.0000   1.0000
     1.0000   1.0000   1.0000   1.0000   1.0000   1.0000   1.0000   1.0000
     1.0000   1.0000   1.0000   1.0000   1.0000   1.0000   1.0000   1.0000
     1.0000   1.0000   1.0000   1.0000   1.0000   1.0000   1.0000   1.0000
     1.0000   1.0000   1.0000   1.0000   1.0000   1.0000   1.0000   1.0000
     0.0000   0.0000   0.0000   0.0000   0.0000   0.0000   0.0000   0.0000
     0.0000   0.0000   0.0000   0.0000   0.0000   0.0000   0.0000   0.0000
     0.0000   0.0000   0.0000   0.0000   0.0000   0.0000   0.0000   0.0000
     0.0000   0.0000   0.0000   0.0000   0.0000   0.0000   0.0000   0.0000
     0.0000   0.0000   0.0000   0.0000   0.0000   0.0000   0.0000   0.0000
     0.0000   0.0000   0.0000   0.0000   0.0000   0.0000   0.0000   0.0000
     0.0000   0.0000   0.0000   0.0000   0.0000   0.0000   0.0000   0.0000
     0.0000   0.0000   0.0000   0.0000   0.0000   0.0000   0.0000   0.0000
     0.0000   0.0000   0.0000   0.0000   0.0000   0.0000   0.0000   0.0000
     0.0000   0.0000   0.0000   0.0000   0.0000   0.0000   0.0000   0.0000
     0.0000   0.0000   0.0000   0.0000   0.0000   0.0000   0.0000   0.0000
     0.0000   0.0000   0.0000   0.0000   0.0000   0.0000   0.0000   0.0000
     0.0000   0.0000   0.0000   0.0000   0.0000   0.0000   0.0000   0.0000
     0.0000   0.0000   0.0000   0.0000   0.0000   0.0000   0.0000   0.0000
     0.0000   0.0000   0.0000   0.0000   0.0000   0.0000   0.0000   0.0000
     0.0000   0.0000   0.0000   0.0000   0.0000   0.0000   0.0000   0.0000
     0.0000   0.0000   0.0000   0.0000   0.0000   0.0000   0.0000   0.0000
     0.0000   0.0000   0.0000   0.0000   0.0000   0.0000   0.0000   0.0000
     0.0000   0.0000   0.0000   0.0000   0.0000   0.0000   0.0000   0.0000
     0.0000   0.0000   0.0000   0.0000   0.0000   0.0000   0.0000   0.0000
     0.0000   0.0000   0.0000   0.0000   0.0000   0.0000   0.0000   0.0000
     0.0000   0.0000   0.0000   0.0000   0.0000   0.0000   0.0000   0.0000

     highest occupied, lowest unoccupied level (ev):     7.1131    7.2347

!    total energy              =   -1054.65169052 Ry
     estimated scf accuracy    <       0.00000010 Ry

     The total energy is the sum of the following terms:
     one-electron contribution =    -432.77896031 Ry
     hartree contribution      =     254.91098149 Ry
     xc contribution           =    -268.94456177 Ry
     ewald contribution        =    -607.83914993 Ry

     convergence has been achieved in  12 iterations

     Writing all to output data dir bands_nm/myprefix.save/

     General routines

     Parallel routines

   This run was terminated on:  17:47:55  15Jul2023

   JOB DONE.