     Program PWSCF v.7.0 starts on  4Jun2023 at 19:11:53

     K-points division:     npool     =       2
     R & G space division:  proc/nbgrp/npool/nimage =       4

     Reading input from espresso_9080.pwi
Warning: card &CELL ignored
Warning: card / ignored

     Current dimensions of program PWSCF are:
     Max number of different atomic species (ntypx) = 10
     Max number of k-points (npk) =  40000
     Max angular momentum in pseudopotentials (lmaxx) =  4
     file Ba.pbe-spn-kjpaw_psl.1.0.0.UPF: wavefunction(s)  5S 6S renormalized
     Message from routine setup:
     using ibrav=0 with symmetry is DISCOURAGED, use correct ibrav instead

     Using Slab Decomposition

     bravais-lattice index     =            0
     lattice parameter (alat)  =      19.0659  a.u.
     unit-cell volume          =    3812.5975 (a.u.)^3
     number of atoms/cell      =           18
     number of atomic types    =            3
     number of electrons       =       116.00
     number of Kohn-Sham states=           64
     kinetic-energy cutoff     =      30.0000  Ry
     charge density cutoff     =     240.0000  Ry
     scf convergence threshold =      1.0E-06
     mixing beta               =       0.7000
     number of iterations used =            8  plain     mixing
     Exchange-correlation= PBE
                           (   1   4   3   4   0   0   0)

     celldm(1)=  19.065939  celldm(2)=   0.000000  celldm(3)=   0.000000
     celldm(4)=   0.000000  celldm(5)=   0.000000  celldm(6)=   0.000000

     crystal axes: (cart. coord. in units of alat)
               a(1) = (   1.000000   0.000000   0.000000 )
               a(2) = (  -0.539772   0.841811   0.000000 )
               a(3) = (   0.201058   0.367759   0.653479 )

     reciprocal axes: (cart. coord. in units 2 pi/alat)
               b(1) = (  1.000000  0.641204 -0.668524 )
               b(2) = (  0.000000  1.187915 -0.668524 )
               b(3) = (  0.000000  0.000000  1.530271 )

     PseudoPot. # 1 for Ba read from file:
     /home/pragov/projects/rrg-bengioy-ad/pragov/crystal_structure_design/SSSP/Ba.pbe-spn-kjpaw_psl.1.0.0.UPF
     MD5 check sum: c432291d3e53af55f19d5e8866385beb
     Pseudo is Projector augmented-wave + core cor, Zval = 10.0
     Generated using "atomic" code by A. Dal Corso  v.5.1
     Shape of augmentation charge: PSQ
     Using radial grid of 1251 points,  7 beta functions with:
                l(1) =   0
                l(2) =   0
                l(3) =   0
                l(4) =   1
                l(5) =   1
                l(6) =   2
                l(7) =   2
     Q(r) pseudized with 0 coefficients

     PseudoPot. # 2 for Si read from file:
     /home/pragov/projects/rrg-bengioy-ad/pragov/crystal_structure_design/SSSP/Si.pbe-n-rrkjus_psl.1.0.0.UPF
     MD5 check sum: 0b0bb1205258b0d07b9f9672cf965d36
     Pseudo is Ultrasoft + core correction, Zval =  4.0
     Generated using "atomic" code by A. Dal Corso  v.5.1
     Using radial grid of 1141 points,  6 beta functions with:
                l(1) =   0
                l(2) =   0
                l(3) =   1
                l(4) =   1
                l(5) =   2
                l(6) =   2
     Q(r) pseudized with 0 coefficients

     PseudoPot. # 3 for As read from file:
     /home/pragov/projects/rrg-bengioy-ad/pragov/crystal_structure_design/SSSP/As.pbe-n-rrkjus_psl.0.2.UPF
     MD5 check sum: 767315de957beeeb34f87d97bf945c8f
     Pseudo is Ultrasoft + core correction, Zval =  5.0
     Generated using "atomic" code by A. Dal Corso  v.5.0.99 svn rev. 10869
     Using radial grid of 1209 points,  4 beta functions with:
                l(1) =   0
                l(2) =   0
                l(3) =   1
                l(4) =   1
     Q(r) pseudized with 0 coefficients

     atomic species   valence    mass     pseudopotential
        Ba            10.00   137.32700     Ba( 1.00)
        Si             4.00    28.08500     Si( 1.00)
        As             5.00    74.92159     As( 1.00)

      2 Sym. Ops., with inversion, found

                                    s                        frac. trans.

      isym =  1     identity

 cryst.   s( 1) = (     1          0          0      )
                  (     0          1          0      )
                  (     0          0          1      )

 cart.    s( 1) = (  1.0000000 -0.0000000 -0.0000000 )
                  (  0.0000000  1.0000000 -0.0000000 )
                  (  0.0000000  0.0000000  1.0000000 )

      isym =  2     inversion

 cryst.   s( 2) = (    -1          0          0      )
                  (     0         -1          0      )
                  (     0          0         -1      )

 cart.    s( 2) = ( -1.0000000  0.0000000  0.0000000 )
                  (  0.0000000 -1.0000000  0.0000000 )
                  (  0.0000000  0.0000000 -1.0000000 )

   Cartesian axes

     site n.     atom                  positions (alat units)
         1           Ba  tau(   1) = (   1.0617946   0.3244758   0.4901094  )
         2           Ba  tau(   2) = (  -0.4005091   0.8850940   0.1633698  )
         3           Ba  tau(   3) = (   0.3798229   0.4584777   0.1633698  )
         4           Ba  tau(   4) = (   0.2814625   0.7510921   0.4901094  )
         5           Ba  tau(   5) = (   0.7581850   0.2516228   0.1633698  )
         6           Ba  tau(   6) = (  -0.0968996   0.9579469   0.4901094  )
         7           Si  tau(   7) = (   0.0497179   0.7559198   0.1023159  )
         8           Si  tau(   8) = (  -0.0487487   0.5758126   0.2244237  )
         9           Si  tau(   9) = (   0.6115676   0.4536500   0.5511633  )
        10           Si  tau(  10) = (   0.7100342   0.6337571   0.4290555  )
        11           As  tau(  11) = (   0.4599422   0.1161513   0.1329765  )
        12           As  tau(  12) = (   0.7112432   0.5758107   0.1937631  )
        13           As  tau(  13) = (   0.0594011   0.3744758   0.1661294  )
        14           As  tau(  14) = (   0.2775818   0.7735541   0.1606102  )
        15           As  tau(  15) = (   0.6018843   0.8350940   0.4873498  )
        16           As  tau(  16) = (   0.3837037   0.4360156   0.4928691  )
        17           As  tau(  17) = (  -0.0499577   0.6337591   0.4597161  )
        18           As  tau(  18) = (   0.2013432   1.0934185   0.5205027  )

   Crystallographic axes

     site n.     atom                  positions (cryst. coord.)
         1           Ba  tau(   1) = (  0.9422000  0.0578000  0.7500000  )
         2           Ba  tau(   2) = (  0.0578000  0.9422000  0.2500000  )
         3           Ba  tau(   3) = (  0.5645840  0.4354160  0.2500000  )
         4           Ba  tau(   4) = (  0.4354160  0.5645840  0.7500000  )
         5           Ba  tau(   5) = (  0.8103100  0.1896900  0.2500000  )
         6           Ba  tau(   6) = (  0.1896900  0.8103100  0.7500000  )
         7           Si  tau(   7) = (  0.4660160  0.8295680  0.1565710  )
         8           Si  tau(   8) = (  0.1704320  0.5339840  0.3434290  )
         9           Si  tau(   9) = (  0.5339840  0.1704320  0.8434290  )
        10           Si  tau(  10) = (  0.8295680  0.4660160  0.6565710  )
        11           As  tau(  11) = (  0.4455210  0.0490800  0.2034900  )
        12           As  tau(  12) = (  0.9509200  0.5544790  0.2965100  )
        13           As  tau(  13) = (  0.1884550  0.3337840  0.2542230  )
        14           As  tau(  14) = (  0.6662160  0.8115450  0.2457770  )
        15           As  tau(  15) = (  0.8115450  0.6662160  0.7457770  )
        16           As  tau(  16) = (  0.3337840  0.1884550  0.7542230  )
        17           As  tau(  17) = (  0.0490800  0.4455210  0.7034900  )
        18           As  tau(  18) = (  0.5544790  0.9509200  0.7965100  )

     number of k points=    14
                       cart. coord. in units 2pi/alat
        k(    1) = (   0.0000000   0.0000000   0.0000000), wk =   0.0740741
        k(    2) = (   0.0000000   0.0000000   0.5100902), wk =   0.1481481
        k(    3) = (   0.0000000   0.3959717  -0.2228412), wk =   0.1481481
        k(    4) = (   0.0000000   0.3959717   0.2872490), wk =   0.1481481
        k(    5) = (   0.0000000   0.3959717  -0.7329314), wk =   0.1481481
        k(    6) = (   0.3333333   0.2137346  -0.2228412), wk =   0.1481481
        k(    7) = (   0.3333333   0.2137346   0.2872490), wk =   0.1481481
        k(    8) = (   0.3333333   0.2137346  -0.7329314), wk =   0.1481481
        k(    9) = (   0.3333333   0.6097063  -0.4456824), wk =   0.1481481
        k(   10) = (   0.3333333   0.6097063   0.0644078), wk =   0.1481481
        k(   11) = (   0.3333333   0.6097063  -0.9557726), wk =   0.1481481
        k(   12) = (   0.3333333  -0.1822371  -0.0000000), wk =   0.1481481
        k(   13) = (   0.3333333  -0.1822371   0.5100902), wk =   0.1481481
        k(   14) = (   0.3333333  -0.1822371  -0.5100902), wk =   0.1481481

                       cryst. coord.
        k(    1) = (   0.0000000   0.0000000   0.0000000), wk =   0.0740741
        k(    2) = (   0.0000000   0.0000000   0.3333333), wk =   0.1481481
        k(    3) = (   0.0000000   0.3333333  -0.0000000), wk =   0.1481481
        k(    4) = (   0.0000000   0.3333333   0.3333333), wk =   0.1481481
        k(    5) = (   0.0000000   0.3333333  -0.3333333), wk =   0.1481481
        k(    6) = (   0.3333333  -0.0000000   0.0000000), wk =   0.1481481
        k(    7) = (   0.3333333  -0.0000000   0.3333333), wk =   0.1481481
        k(    8) = (   0.3333333  -0.0000000  -0.3333333), wk =   0.1481481
        k(    9) = (   0.3333333   0.3333333  -0.0000000), wk =   0.1481481
        k(   10) = (   0.3333333   0.3333333   0.3333333), wk =   0.1481481
        k(   11) = (   0.3333333   0.3333333  -0.3333333), wk =   0.1481481
        k(   12) = (   0.3333333  -0.3333333   0.0000000), wk =   0.1481481
        k(   13) = (   0.3333333  -0.3333333   0.3333333), wk =   0.1481481
        k(   14) = (   0.3333333  -0.3333333  -0.3333333), wk =   0.1481481

     Initial potential from superposition of free atoms

     starting charge     115.8938, renormalised to     116.0000
     Starting wfcs are   78 randomized atomic wfcs
     Checking if some PAW data can be deallocated...

     Self-consistent Calculation

     iteration #  1     ecut=    30.00 Ry     beta= 0.70
     Davidson diagonalization with overlap

     ethr =  1.00E-02,  avg # of iterations =  5.4

     negative rho (up, down):  2.175E-01 0.000E+00

     total energy              =   -2809.03316007 Ry
     estimated scf accuracy    <       1.31602839 Ry

[...]

     negative rho (up, down):  8.448E-03 0.000E+00

[...]

     c_bands:  1 eigenvalues not converged
     ethr =  1.97E-06,  avg # of iterations = 11.2

[...]

     c_bands:  1 eigenvalues not converged
     ethr =  5.84E-07,  avg # of iterations =  3.3

[...]

     total energy              =   -2809.43644554 Ry
     estimated scf accuracy    <       0.00000754 Ry

     iteration # 13     ecut=    30.00 Ry     beta= 0.70
     Davidson diagonalization with overlap

     ethr =  6.50E-09,  avg # of iterations =  2.0

     End of self-consistent calculation

          k = 0.0000 0.0000 0.0000 ( 10553 PWs)   bands (ev):

   -21.2728 -21.2648 -21.1929 -21.1810 -21.1050 -21.0886  -6.7542  -6.7266
    -6.7249  -6.7163  -6.7158  -6.6445  -6.5741  -6.4892  -6.4360  -6.4359
    -6.4053  -6.4048  -6.4027  -6.3391  -6.3384  -6.3305  -6.3137  -6.2431
    -5.3294  -4.5786  -3.8047  -3.3935  -3.3731  -3.1792  -3.0956  -2.9200
    -1.2433  -0.1958   0.6474   1.2654   2.7032   2.7685   2.8525   3.2168
     3.8256   3.9060   3.9359   4.1328   4.4766   4.6478   4.8550   5.1679
     5.2573   5.3242   5.4377   5.7093   5.7750   5.7994   5.8611   5.8636
     5.8748   6.1534   6.9943   8.0679   8.4684   8.5955   8.5970   8.6594

     occupation numbers
     1.0000   1.0000   1.0000   1.0000   1.0000   1.0000   1.0000   1.0000
     1.0000   1.0000   1.0000   1.0000   1.0000   1.0000   1.0000   1.0000
     1.0000   1.0000   1.0000   1.0000   1.0000   1.0000   1.0000   1.0000
     1.0000   1.0000   1.0000   1.0000   1.0000   1.0000   1.0000   1.0000
     1.0000   1.0000   1.0000   1.0000   1.0000   1.0000   1.0000   1.0000
     1.0000   1.0000   1.0000   1.0000   1.0000   1.0000   1.0000   1.0000
     1.0000   1.0000   1.0000   1.0000   1.0000   1.0000   1.0000   1.0000
     1.0000   1.0000   0.0000   0.0000   0.0000   0.0000   0.0000   0.0000

[...]

          k = 0.3333-0.1822-0.5101 ( 10578 PWs)   bands (ev):

   -21.2702 -21.2668 -21.1904 -21.1838 -21.1011 -21.0930  -6.7666  -6.7508
    -6.7435  -6.6912  -6.6433  -6.5880  -6.5671  -6.5444  -6.4973  -6.4913
    -6.3942  -6.3861  -6.3744  -6.3573  -6.3405  -6.3289  -6.3187  -6.2857
    -5.0483  -4.7740  -3.5648  -3.4564  -3.3959  -3.3295  -3.1119  -3.0815
    -0.9618  -0.4377   0.9938   1.2286   2.7246   2.8521   3.1212   3.1627
     3.3734   3.7295   4.3486   4.4395   4.5572   4.6713   4.8015   4.9609
     5.0469   5.1324   5.4269   5.5475   5.5987   5.6308   5.6851   5.8295
     5.8648   5.9743   7.3595   7.5981   7.8967   8.0386   8.6005   8.6302

     occupation numbers
     1.0000   1.0000   1.0000   1.0000   1.0000   1.0000   1.0000   1.0000
     1.0000   1.0000   1.0000   1.0000   1.0000   1.0000   1.0000   1.0000
     1.0000   1.0000   1.0000   1.0000   1.0000   1.0000   1.0000   1.0000
     1.0000   1.0000   1.0000   1.0000   1.0000   1.0000   1.0000   1.0000
     1.0000   1.0000   1.0000   1.0000   1.0000   1.0000   1.0000   1.0000
     1.0000   1.0000   1.0000   1.0000   1.0000   1.0000   1.0000   1.0000
     1.0000   1.0000   1.0000   1.0000   1.0000   1.0000   1.0000   1.0000
     1.0000   1.0000   0.0000   0.0000   0.0000   0.0000   0.0000   0.0000

     highest occupied, lowest unoccupied level (ev):     6.1534    6.9943

!    total energy              =   -2809.43644550 Ry
     estimated scf accuracy    <       0.00000078 Ry

     The total energy is the sum of the following terms:
     one-electron contribution =     -11.46473961 Ry
     hartree contribution      =      55.56499741 Ry
     xc contribution           =    -219.97088572 Ry
     ewald contribution        =    -383.83356606 Ry
     one-center paw contrib.   =   -2249.73225153 Ry
      -> PAW hartree energy AE =      86.24773751 Ry
      -> PAW hartree energy PS =     -85.92048159 Ry
      -> PAW xc energy AE      =   -1182.69564312 Ry
      -> PAW xc energy PS      =      57.50254595 Ry
      -> total E_H with PAW    =      55.89225333 Ry
      -> total E_XC with PAW   =   -1345.16398289 Ry

     convergence has been achieved in  13 iterations

     Writing all to output data dir calculations_bands/myprefix.save/

     General routines

     Parallel routines

     PAW routines

   This run was terminated on:  19:15:12   4Jun2023

   JOB DONE.