     Program PWSCF v.7.1 starts on 14Jul2023 at 15: 0:27

     Reading input from espresso_10916.pwi
Warning: card &CELL ignored
Warning: card / ignored

     Current dimensions of program PWSCF are:
     Max number of different atomic species (ntypx) = 10
     Max number of k-points (npk) =  40000
     Max angular momentum in pseudopotentials (lmaxx) =  4
     file Cd.pbe-dn-rrkjus_psl.0.3.1.UPF: wavefunction(s)  4D renormalized
     Message from routine setup:
     using ibrav=0 with symmetry is DISCOURAGED, use correct ibrav instead

     K-points division:     npool     =       2
     R & G space division:  proc/nbgrp/npool/nimage =       4
     Subspace diagonalization in iterative solution of the eigenvalue problem:
     a serial algorithm will be used

     Using Slab Decomposition

     bravais-lattice index     =            0
     lattice parameter (alat)  =      15.2781  a.u.
     unit-cell volume          =    1828.2279 (a.u.)^3
     number of atoms/cell      =           10
     number of atomic types    =            3
     number of electrons       =        70.00
     number of Kohn-Sham states=           64
     kinetic-energy cutoff     =      30.0000  Ry
     charge density cutoff     =     240.0000  Ry
     scf convergence threshold =      1.0E-06
     mixing beta               =       0.7000
     number of iterations used =            8  plain     mixing
     Exchange-correlation= SLA  PW   PBE  PBE
                           (   1   4   3   4   0   0   0)

     celldm(1)=  15.278073  celldm(2)=   0.000000  celldm(3)=   0.000000
     celldm(4)=   0.000000  celldm(5)=   0.000000  celldm(6)=   0.000000

     crystal axes: (cart. coord. in units of alat)
               a(1) = (   1.000000   0.000000   0.000000 )
               a(2) = (   0.664006   0.747728   0.000000 )
               a(3) = (   0.664005   0.298374   0.685616 )

     reciprocal axes: (cart. coord. in units 2 pi/alat)
               b(1) = (  1.000000 -0.888031 -0.582017 )
               b(2) = (  0.000000  1.337385 -0.582017 )
               b(3) = (  0.000000  0.000000  1.458542 )

     PseudoPot. # 1 for Cd read from file:
     /lustre07/scratch/pragov/crystal_structure_design/utils/SSSP/Cd.pbe-dn-rrkjus_psl.0.3.1.UPF
     MD5 check sum: 558e9f355611b531a870a69ef6ace9e2
     Pseudo is Ultrasoft + core correction, Zval = 12.0
     Generated using "atomic" code by A. Dal Corso  v.5.0.99 svn rev. 10869
     Using radial grid of 1239 points,  6 beta functions with:
                l(1) =   0
                l(2) =   0
                l(3) =   1
                l(4) =   1
                l(5) =   2
                l(6) =   2
     Q(r) pseudized with 0 coefficients

     PseudoPot. # 2 for P  read from file:
     /lustre07/scratch/pragov/crystal_structure_design/utils/SSSP/P.pbe-n-rrkjus_psl.1.0.0.UPF
     MD5 check sum: 8b930f418f0a4573dca56cd030ffe088
     Pseudo is Ultrasoft + core correction, Zval =  5.0
     Generated using "atomic" code by A. Dal Corso  v.5.1
     Using radial grid of 1147 points,  6 beta functions with:
                l(1) =   0
                l(2) =   0
                l(3) =   1
                l(4) =   1
                l(5) =   2
                l(6) =   2
     Q(r) pseudized with 0 coefficients

     PseudoPot. # 3 for Se read from file:
     /lustre07/scratch/pragov/crystal_structure_design/utils/SSSP/Se_pbe_v1.uspp.F.UPF
     MD5 check sum: 1b3568f3a8ae88f9a2a0ad0698632c85
     Pseudo is Ultrasoft + core correction, Zval =  6.0
     Generated by new atomic code, or converted to UPF format
     Using radial grid of  877 points,  6 beta functions with:
                l(1) =   0
                l(2) =   0
                l(3) =   1
                l(4) =   1
                l(5) =   2
                l(6) =   2
     Q(r) pseudized with  8 coefficients,  rinner =    1.300   1.300   1.300
                                                       1.300   1.300

     atomic species   valence    mass     pseudopotential
        Cd            12.00   112.41400     Cd( 1.00)
        P              5.00    30.97376     P ( 1.00)
        Se             6.00    78.97100     Se( 1.00)

      2 Sym. Ops., with inversion, found

                                    s                        frac. trans.

      isym =  1     identity

 cryst.   s( 1) = (     1          0          0      )
                  (     0          1          0      )
                  (     0          0          1      )

 cart.    s( 1) = (  1.0000000  0.0000000 -0.0000000 )
                  (  0.0000000  1.0000000  0.0000000 )
                  (  0.0000000  0.0000000  1.0000000 )

      isym =  2     inversion

 cryst.   s( 2) = (    -1          0          0      )
                  (     0         -1          0      )
                  (     0          0         -1      )

 cart.    s( 2) = ( -1.0000000  0.0000000  0.0000000 )
                  (  0.0000000 -1.0000000  0.0000000 )
                  (  0.0000000  0.0000000 -1.0000000 )

   Cartesian axes

     site n.     atom                  positions (alat units)
         1           Cd  tau(   1) = (   0.3924817   0.1763633   0.1155887  )
         2           Cd  tau(   2) = (   1.9355293   0.8697380   0.5700275  )
         3           P   tau(   3) = (   1.0394034   0.4670601   0.3061119  )
         4           P   tau(   4) = (   1.2886076   0.5790411   0.3795044  )
         5           Se  tau(   5) = (   0.9664867   0.5815341   0.0675894  )
         6           Se  tau(   6) = (   1.0765816   0.1962629   0.2816018  )
         7           Se  tau(   7) = (   0.8616073   0.5274308   0.5062570  )
         8           Se  tau(   8) = (   1.3615243   0.4645671   0.6180268  )
         9           Se  tau(   9) = (   1.2514294   0.8498384   0.4040145  )
        10           Se  tau(  10) = (   1.4664037   0.5186704   0.1793593  )

   Crystallographic axes

     site n.     atom                  positions (cryst. coord.)
         1           Cd  tau(   1) = (  0.1685910  0.1685910  0.1685910  )
         2           Cd  tau(   2) = (  0.8314090  0.8314090  0.8314090  )
         3           P   tau(   3) = (  0.4464770  0.4464770  0.4464770  )
         4           P   tau(   4) = (  0.5535230  0.5535230  0.5535230  )
         5           Se  tau(   5) = (  0.4107280  0.7383970  0.0985820  )
         6           Se  tau(   6) = (  0.7383970  0.0985820  0.4107280  )
         7           Se  tau(   7) = (  0.0985820  0.4107280  0.7383970  )
         8           Se  tau(   8) = (  0.5892720  0.2616030  0.9014180  )
         9           Se  tau(   9) = (  0.2616030  0.9014180  0.5892720  )
        10           Se  tau(  10) = (  0.9014180  0.5892720  0.2616030  )

     number of k points=    14
                       cart. coord. in units 2pi/alat
        k(    1) = (   0.0000000   0.0000000   0.0000000), wk =   0.0740741
        k(    2) = (   0.0000000   0.0000000   0.4861806), wk =   0.1481481
        k(    3) = (   0.0000000   0.4457951  -0.1940057), wk =   0.1481481
        k(    4) = (   0.0000000   0.4457951   0.2921749), wk =   0.1481481
        k(    5) = (   0.0000000   0.4457951  -0.6801863), wk =   0.1481481
        k(    6) = (   0.3333333  -0.2960104  -0.1940057), wk =   0.1481481
        k(    7) = (   0.3333333  -0.2960104   0.2921749), wk =   0.1481481
        k(    8) = (   0.3333333  -0.2960104  -0.6801863), wk =   0.1481481
        k(    9) = (   0.3333333   0.1497847  -0.3880114), wk =   0.1481481
        k(   10) = (   0.3333333   0.1497847   0.0981692), wk =   0.1481481
        k(   11) = (   0.3333333   0.1497847  -0.8741921), wk =   0.1481481
        k(   12) = (   0.3333333  -0.7418055  -0.0000000), wk =   0.1481481
        k(   13) = (   0.3333333  -0.7418055   0.4861806), wk =   0.1481481
        k(   14) = (   0.3333333  -0.7418055  -0.4861806), wk =   0.1481481

                       cryst. coord.
        k(    1) = (   0.0000000   0.0000000   0.0000000), wk =   0.0740741
        k(    2) = (   0.0000000   0.0000000   0.3333333), wk =   0.1481481
        k(    3) = (   0.0000000   0.3333333   0.0000000), wk =   0.1481481
        k(    4) = (   0.0000000   0.3333333   0.3333333), wk =   0.1481481
        k(    5) = (   0.0000000   0.3333333  -0.3333333), wk =   0.1481481
        k(    6) = (   0.3333333   0.0000000   0.0000000), wk =   0.1481481
        k(    7) = (   0.3333333   0.0000000   0.3333333), wk =   0.1481481
        k(    8) = (   0.3333333   0.0000000  -0.3333333), wk =   0.1481481
        k(    9) = (   0.3333333   0.3333333  -0.0000000), wk =   0.1481481
        k(   10) = (   0.3333333   0.3333333   0.3333333), wk =   0.1481481
        k(   11) = (   0.3333333   0.3333333  -0.3333333), wk =   0.1481481
        k(   12) = (   0.3333333  -0.3333333  -0.0000000), wk =   0.1481481
        k(   13) = (   0.3333333  -0.3333333   0.3333333), wk =   0.1481481
        k(   14) = (   0.3333333  -0.3333333  -0.3333333), wk =   0.1481481

     Initial potential from superposition of free atoms

     starting charge      69.9895, renormalised to      70.0000
     Starting wfcs are   50 randomized atomic wfcs +   14 random wfcs

     Self-consistent Calculation

     iteration #  1     ecut=    30.00 Ry     beta= 0.70
     Davidson diagonalization with overlap

     ethr =  1.00E-02,  avg # of iterations =  7.0

     Threshold (ethr) on eigenvalues was too large:
     Diagonalizing with lowered threshold

     Davidson diagonalization with overlap

[...]

     total energy              =    -534.28965155 Ry
     estimated scf accuracy    <       0.22794205 Ry

[...]

     total energy              =    -534.35751910 Ry
     estimated scf accuracy    <       0.00003291 Ry

     iteration #  7     ecut=    30.00 Ry     beta= 0.70
     Davidson diagonalization with overlap

     ethr =  4.70E-08,  avg # of iterations =  8.5

     End of self-consistent calculation

          k = 0.0000 0.0000 0.0000 (  5045 PWs)   bands (ev):

   -10.3917  -9.3924  -7.8645  -7.8644  -7.7135  -7.7135  -5.5850  -3.6589
    -3.1122  -3.1122  -3.0616  -3.0616  -2.9923  -2.9470  -2.9470  -2.9078
    -2.9078  -2.9077  -1.2364  -0.1880  -0.1880   0.1894   0.1894   1.2139
     1.9375   2.4531   2.6751   2.6751   3.0054   3.5519   3.5519   3.8375
     3.8375   4.3351   4.3351   5.6682   6.6130   7.4978   7.4978   7.8429
     8.0930   8.5428   8.8597   8.8597   9.9830   9.9830  10.2635  10.2636
    11.0286  11.5457  12.7034  13.0477  13.0698  13.0698  13.1783  13.2626
    13.2626  13.6971  14.2453  14.2453  15.0760  15.0761  15.1279  15.3336

     occupation numbers
     1.0000   1.0000   1.0000   1.0000   1.0000   1.0000   1.0000   1.0000
     1.0000   1.0000   1.0000   1.0000   1.0000   1.0000   1.0000   1.0000
     1.0000   1.0000   1.0000   1.0000   1.0000   1.0000   1.0000   1.0000
     1.0000   1.0000   1.0000   1.0000   1.0000   1.0000   1.0000   1.0000
     1.0000   1.0000   1.0000   0.0000   0.0000   0.0000   0.0000   0.0000
     0.0000   0.0000   0.0000   0.0000   0.0000   0.0000   0.0000   0.0000
     0.0000   0.0000   0.0000   0.0000   0.0000   0.0000   0.0000   0.0000
     0.0000   0.0000   0.0000   0.0000   0.0000   0.0000   0.0000   0.0000

[...]

          k = 0.3333-0.7418-0.4862 (  5074 PWs)   bands (ev):

   -10.2749  -9.3878  -8.0884  -7.8991  -7.8259  -7.7871  -5.2362  -3.8586
    -3.0822  -3.0709  -3.0392  -3.0167  -3.0147  -2.9572  -2.9193  -2.9089
    -2.9007  -2.6860  -0.9253  -0.2772  -0.1820   0.1569   0.5681   1.2497
     1.8501   2.2251   2.3720   2.7048   2.9031   2.9603   3.2198   3.5749
     3.8577   4.1342   4.2879   6.8352   6.9565   7.1327   7.6277   7.8111
     7.8786   8.4974   8.7728   9.2527   9.9981  10.4024  10.4584  11.0665
    11.3280  11.5555  11.7250  11.7809  12.1426  12.6467  12.8823  13.0821
    13.5026  13.7222  14.2230  14.4144  14.7679  15.0648  15.2910  15.4194

     occupation numbers
     1.0000   1.0000   1.0000   1.0000   1.0000   1.0000   1.0000   1.0000
     1.0000   1.0000   1.0000   1.0000   1.0000   1.0000   1.0000   1.0000
     1.0000   1.0000   1.0000   1.0000   1.0000   1.0000   1.0000   1.0000
     1.0000   1.0000   1.0000   1.0000   1.0000   1.0000   1.0000   1.0000
     1.0000   1.0000   1.0000   0.0000   0.0000   0.0000   0.0000   0.0000
     0.0000   0.0000   0.0000   0.0000   0.0000   0.0000   0.0000   0.0000
     0.0000   0.0000   0.0000   0.0000   0.0000   0.0000   0.0000   0.0000
     0.0000   0.0000   0.0000   0.0000   0.0000   0.0000   0.0000   0.0000

     highest occupied, lowest unoccupied level (ev):     4.6515    5.6682

!    total energy              =    -534.35760862 Ry
     estimated scf accuracy    <       0.00000095 Ry

     The total energy is the sum of the following terms:
     one-electron contribution =    -149.01572628 Ry
     hartree contribution      =     117.00566454 Ry
     xc contribution           =    -272.63081780 Ry
     ewald contribution        =    -229.71672908 Ry

     convergence has been achieved in   7 iterations

     Writing all to output data dir bands_nm/myprefix.save/

     General routines

     Parallel routines

   This run was terminated on:  15: 0:51  14Jul2023

   JOB DONE.