     Program PWSCF v.7.1 starts on 15Jul2023 at 22:33:42

     Reading input from espresso_24978.pwi
Warning: card &CELL ignored
Warning: card / ignored

     Current dimensions of program PWSCF are:
     Max number of different atomic species (ntypx) = 10
     Max number of k-points (npk) =  40000
     Max angular momentum in pseudopotentials (lmaxx) =  4
     file O.pbe-n-kjpaw_psl.0.1.UPF: wavefunction(s)  2P renormalized
     Message from routine setup:
     using ibrav=0 with symmetry is DISCOURAGED, use correct ibrav instead

     K-points division:     npool     =       2
     R & G space division:  proc/nbgrp/npool/nimage =       4
     Subspace diagonalization in iterative solution of the eigenvalue problem:
     one sub-group per band group will be used

     Using Slab Decomposition

     bravais-lattice index     =            0
     lattice parameter (alat)  =      12.6194  a.u.
     unit-cell volume          =    2853.8457 (a.u.)^3
     number of atoms/cell      =           20
     number of atomic types    =            3
     number of electrons       =       160.00
     number of Kohn-Sham states=          256
     kinetic-energy cutoff     =      30.0000  Ry
     charge density cutoff     =     240.0000  Ry
     scf convergence threshold =      1.0E-06
     mixing beta               =       0.7000
     number of iterations used =            8  plain     mixing
     Exchange-correlation= SLA  PW   PBX  PBC
                           (   1   4   3   4   0   0   0)

     celldm(1)=  12.619351  celldm(2)=   0.000000  celldm(3)=   0.000000
     celldm(4)=   0.000000  celldm(5)=   0.000000  celldm(6)=   0.000000

     crystal axes: (cart. coord. in units of alat)
               a(1) = (   1.000000   0.000000   0.000000 )
               a(2) = (   0.000000   1.002781   0.000000 )
               a(3) = (   0.000000   0.000000   1.416164 )

     reciprocal axes: (cart. coord. in units 2 pi/alat)
               b(1) = (  1.000000  0.000000  0.000000 )
               b(2) = (  0.000000  0.997227  0.000000 )
               b(3) = (  0.000000  0.000000  0.706133 )

     PseudoPot. # 1 for Ca read from file:
     /lustre07/scratch/pragov/crystal_structure_design/utils/SSSP/Ca_pbe_v1.uspp.F.UPF
     MD5 check sum: 403a4c14b9e4d4dfdc3024c9a3812218
     Pseudo is Ultrasoft + core correction, Zval = 10.0
     Generated by new atomic code, or converted to UPF format
     Using radial grid of  845 points,  6 beta functions with:
                l(1) =   0
                l(2) =   0
                l(3) =   1
                l(4) =   1
                l(5) =   2
                l(6) =   2
     Q(r) pseudized with  8 coefficients,  rinner =    1.500   1.500   1.500
                                                       1.500   1.500

     PseudoPot. # 2 for Si read from file:
     /lustre07/scratch/pragov/crystal_structure_design/utils/SSSP/Si.pbe-n-rrkjus_psl.1.0.0.UPF
     MD5 check sum: 0b0bb1205258b0d07b9f9672cf965d36
     Pseudo is Ultrasoft + core correction, Zval =  4.0
     Generated using "atomic" code by A. Dal Corso  v.5.1
     Using radial grid of 1141 points,  6 beta functions with:
                l(1) =   0
                l(2) =   0
                l(3) =   1
                l(4) =   1
                l(5) =   2
                l(6) =   2
     Q(r) pseudized with 0 coefficients

     PseudoPot. # 3 for O  read from file:
     /lustre07/scratch/pragov/crystal_structure_design/utils/SSSP/O.pbe-n-kjpaw_psl.0.1.UPF
     MD5 check sum: 0234752ac141de4415c5fc33072bef88
     Pseudo is Projector augmented-wave + core cor, Zval =  6.0
     Generated using "atomic" code by A. Dal Corso  v.5.0.99 svn rev. 10869
     Shape of augmentation charge: BESSEL
     Using radial grid of 1095 points,  4 beta functions with:
                l(1) =   0
                l(2) =   0
                l(3) =   1
                l(4) =   1
     Q(r) pseudized with 0 coefficients

     atomic species   valence    mass     pseudopotential
        Ca            10.00    40.07800     Ca( 1.00)
        Si             4.00    28.08500     Si( 1.00)
        O              6.00    15.99900     O ( 1.00)

      8 Sym. Ops., with inversion, found ( 6 have fractional translation)

                                    s                        frac. trans.

      isym =  1     identity

 cryst.   s( 1) = (     1          0          0      )
                  (     0          1          0      )
                  (     0          0          1      )

 cart.    s( 1) = (  1.0000000  0.0000000  0.0000000 )
                  (  0.0000000  1.0000000  0.0000000 )
                  (  0.0000000  0.0000000  1.0000000 )

      isym =  2     180 deg rotation - cart. axis [0,0,1]

 cryst.   s( 2) = (    -1          0          0      )    f =(  0.0000000 )
                  (     0         -1          0      )       ( -0.0000000 )
                  (     0          0          1      )       (  0.5000000 )

 cart.    s( 2) = ( -1.0000000  0.0000000  0.0000000 )    f =(  0.0000000 )
                  (  0.0000000 -1.0000000  0.0000000 )       ( -0.0000000 )
                  (  0.0000000  0.0000000  1.0000000 )       (  0.7080820 )

[...]

      isym =  4     180 deg rotation - cart. axis [1,0,0]

[...]

      isym =  5     inversion

 cryst.   s( 5) = (    -1          0          0      )
                  (     0         -1          0      )
                  (     0          0         -1      )

 cart.    s( 5) = ( -1.0000000  0.0000000  0.0000000 )
                  (  0.0000000 -1.0000000  0.0000000 )
                  (  0.0000000  0.0000000 -1.0000000 )

      isym =  6     inv. 180 deg rotation - cart. axis [0,0,1]

[...]

      isym =  8     inv. 180 deg rotation - cart. axis [1,0,0]

 cryst.   s( 8) = (    -1          0          0      )    f =(  0.5000000 )
                  (     0          1          0      )       (  0.5000000 )
                  (     0          0          1      )       (  0.5000000 )

 cart.    s( 8) = ( -1.0000000  0.0000000  0.0000000 )    f =(  0.5000000 )
                  (  0.0000000  1.0000000  0.0000000 )       (  0.5013903 )
                  (  0.0000000  0.0000000  1.0000000 )       (  0.7080820 )

   Cartesian axes

     site n.     atom                  positions (alat units)
         1           Ca  tau(   1) = (   0.2304600   0.7717218   1.3869669  )
         2           Ca  tau(   2) = (   0.7304600   0.7324489   0.7372790  )
         3           Ca  tau(   3) = (   0.2695400   0.2703316   0.0291971  )
         4           Ca  tau(   4) = (   0.7695400   0.2310587   0.6788849  )
         5           Ca  tau(   5) = (   0.2304600   0.7717218   0.7372790  )
         6           Ca  tau(   6) = (   0.7304600   0.7324489   1.3869669  )
         7           Ca  tau(   7) = (   0.2695400   0.2703316   0.6788849  )
         8           Ca  tau(   8) = (   0.7695400   0.2310587   0.0291971  )
         9           Ca  tau(   9) = (   0.5029080   0.0405214   1.0621230  )
        10           Ca  tau(  10) = (   0.0029080   0.4608689   1.0621230  )
        11           Ca  tau(  11) = (   0.9970920   0.5419116   0.3540410  )
        12           Ca  tau(  12) = (   0.4970920   0.9622592   0.3540410  )
        13           Si  tau(  13) = (   0.9906010   1.0014027   1.0621230  )
        14           Si  tau(  14) = (   0.4906010   0.5027681   1.0621230  )
        15           Si  tau(  15) = (   0.5093990   0.5000124   0.3540410  )
        16           Si  tau(  16) = (   0.0093990   0.0013778   0.3540410  )
        17           O   tau(  17) = (   0.0000000   0.5013903   0.7080820  )
        18           O   tau(  18) = (   0.5000000   0.0000000   0.0000000  )
        19           O   tau(  19) = (   0.5000000   0.0000000   0.7080820  )
        20           O   tau(  20) = (   0.0000000   0.5013903   0.0000000  )

   Crystallographic axes

     site n.     atom                  positions (cryst. coord.)
         1           Ca  tau(   1) = (  0.2304600  0.7695820  0.9793830  )
         2           Ca  tau(   2) = (  0.7304600  0.7304180  0.5206170  )
         3           Ca  tau(   3) = (  0.2695400  0.2695820  0.0206170  )
         4           Ca  tau(   4) = (  0.7695400  0.2304180  0.4793830  )
         5           Ca  tau(   5) = (  0.2304600  0.7695820  0.5206170  )
         6           Ca  tau(   6) = (  0.7304600  0.7304180  0.9793830  )
         7           Ca  tau(   7) = (  0.2695400  0.2695820  0.4793830  )
         8           Ca  tau(   8) = (  0.7695400  0.2304180  0.0206170  )
         9           Ca  tau(   9) = (  0.5029080  0.0404090  0.7500000  )
        10           Ca  tau(  10) = (  0.0029080  0.4595910  0.7500000  )
        11           Ca  tau(  11) = (  0.9970920  0.5404090  0.2500000  )
        12           Ca  tau(  12) = (  0.4970920  0.9595910  0.2500000  )
        13           Si  tau(  13) = (  0.9906010  0.9986260  0.7500000  )
        14           Si  tau(  14) = (  0.4906010  0.5013740  0.7500000  )
        15           Si  tau(  15) = (  0.5093990  0.4986260  0.2500000  )
        16           Si  tau(  16) = (  0.0093990  0.0013740  0.2500000  )
        17           O   tau(  17) = (  0.0000000  0.5000000  0.5000000  )
        18           O   tau(  18) = (  0.5000000  0.0000000  0.0000000  )
        19           O   tau(  19) = (  0.5000000  0.0000000  0.5000000  )
        20           O   tau(  20) = (  0.0000000  0.5000000  0.0000000  )

     number of k points=     8
                       cart. coord. in units 2pi/alat
        k(    1) = (   0.0000000   0.0000000   0.0000000), wk =   0.0740741
        k(    2) = (   0.0000000   0.0000000   0.2353776), wk =   0.1481481
        k(    3) = (   0.0000000   0.3324091   0.0000000), wk =   0.1481481
        k(    4) = (   0.0000000   0.3324091   0.2353776), wk =   0.2962963
        k(    5) = (   0.3333333   0.0000000   0.0000000), wk =   0.1481481
        k(    6) = (   0.3333333   0.0000000   0.2353776), wk =   0.2962963
        k(    7) = (   0.3333333   0.3324091   0.0000000), wk =   0.2962963
        k(    8) = (   0.3333333   0.3324091   0.2353776), wk =   0.5925926

                       cryst. coord.
        k(    1) = (   0.0000000   0.0000000   0.0000000), wk =   0.0740741
        k(    2) = (   0.0000000   0.0000000   0.3333333), wk =   0.1481481
        k(    3) = (   0.0000000   0.3333333   0.0000000), wk =   0.1481481
        k(    4) = (   0.0000000   0.3333333   0.3333333), wk =   0.2962963
        k(    5) = (   0.3333333   0.0000000   0.0000000), wk =   0.1481481
        k(    6) = (   0.3333333   0.0000000   0.3333333), wk =   0.2962963
        k(    7) = (   0.3333333   0.3333333   0.0000000), wk =   0.2962963
        k(    8) = (   0.3333333   0.3333333   0.3333333), wk =   0.5925926

     Check: negative core charge=   -0.000005

     Initial potential from superposition of free atoms

     starting charge     159.9323, renormalised to     160.0000
     Starting wfcs are  152 randomized atomic wfcs +  104 random wfcs
     Checking if some PAW data can be deallocated...

     Self-consistent Calculation

     iteration #  1     ecut=    30.00 Ry     beta= 0.70
     Davidson diagonalization with overlap

     ethr =  1.00E-02,  avg # of iterations =  6.1

     total energy              =   -1111.69410794 Ry
     estimated scf accuracy    <       2.20204829 Ry

[...]

     total energy              =   -1112.79177046 Ry
     estimated scf accuracy    <       0.00000201 Ry

     iteration #  9     ecut=    30.00 Ry     beta= 0.70
     Davidson diagonalization with overlap

     ethr =  1.26E-09,  avg # of iterations =  2.0

     End of self-consistent calculation

          k = 0.0000 0.0000 0.0000 (  7847 PWs)   bands (ev):

   -32.8169 -32.7824 -32.7492 -32.7488 -32.7486 -32.7483 -32.7475 -32.7455
   -32.7448 -32.7156 -32.7149 -32.7143 -14.7526 -14.4454 -14.0919 -14.0632
   -14.0489 -14.0416 -13.9959 -13.9900 -13.9897 -13.9867 -13.9852 -13.9598
   -13.8637 -13.8446 -13.8222 -13.8175 -13.8016 -13.7986 -13.7932 -13.7875
   -13.7783 -13.7682 -13.7626 -13.7558 -13.6744 -13.6666 -13.6610 -13.6379
   -13.6336 -13.6328 -13.6324 -13.6276 -13.6263 -13.6213 -13.6204 -13.6201
   -10.5912 -10.1676  -9.8214  -9.5227   1.0882   1.5830   1.9662   1.9722
     3.0976   3.1263   3.1377   3.1497   3.1832   3.5286   4.0872   4.2038
     4.2217   4.3350   4.3404   4.3491   5.4273   6.3330   6.3519   6.9614
     6.9696   6.9724   7.4726   7.5567   7.5692   8.2765   8.2928   8.3022
     8.4913   8.5042   9.3360   9.3841   9.4038   9.5135   9.5210   9.5371
     9.5972   9.9148   9.9889  10.2930  10.3418  10.4851  10.5381  10.9864
    11.0745  11.2231  11.2272  11.3396  11.3720  11.4009  11.6234  11.6878
    11.7606  11.8404  11.9455  11.9655  12.0541  12.1079  12.1463  12.2151
    12.4480  12.5753  12.6178  12.7393  12.7554  12.8126  12.8815  12.8983
    12.9762  12.9990  13.1696  13.1943  13.4404  13.7012  13.7684  13.7700
    13.8106  13.9717  13.9956  14.0292  14.0632  14.1384  14.1675  14.2140
    14.2842  14.3861  14.4334  14.4389  14.4410  14.4414  14.4416  14.5001
    14.8704  15.0064  15.2906  15.4104  16.0346  16.2648  16.3199  16.5807
    16.6599  16.6963  16.6963  16.7262  16.7580  16.9034  17.0474  17.0557
    17.1187  17.1565  17.2180  17.2888  17.4847  18.1504  18.1558  18.6091
    18.6797  18.7167  19.4143  19.4389  19.5292  19.5788  19.7597  19.8162
    19.8227  19.8999  19.9118  20.0750  20.3485  20.4403  20.5458  20.5998
    20.7145  20.7906  20.9220  21.0792  22.0612  22.3087  22.3915  22.4938
    22.6446  22.8741  23.1370  23.4113  23.5008  23.5042  23.5400  23.5439
    23.5949  23.7334  23.7491  23.9084  23.9587  24.1969  24.3787  24.4406
    24.5123  24.5907  24.6504  24.7654  24.9601  25.1963  25.4349  25.6837
    25.7940  26.0298  26.0886  26.1880  26.2096  26.2431  26.5174  26.5190
    26.6730  26.9265  27.2682  27.2944  27.3720  27.4546  27.6328  27.6337
    27.8898  28.0285  28.1208  28.3423  28.3574  28.5051  28.6361  28.6640
    28.7717  28.9328  28.9377  29.1159  29.1683  29.2860  29.3970  29.4594
    29.5572  29.5780  29.7217  29.8088  29.8147  29.9906  30.0222  30.0314

     occupation numbers
     1.0000   1.0000   1.0000   1.0000   1.0000   1.0000   1.0000   1.0000
     1.0000   1.0000   1.0000   1.0000   1.0000   1.0000   1.0000   1.0000
     1.0000   1.0000   1.0000   1.0000   1.0000   1.0000   1.0000   1.0000
     1.0000   1.0000   1.0000   1.0000   1.0000   1.0000   1.0000   1.0000
     1.0000   1.0000   1.0000   1.0000   1.0000   1.0000   1.0000   1.0000
     1.0000   1.0000   1.0000   1.0000   1.0000   1.0000   1.0000   1.0000
     1.0000   1.0000   1.0000   1.0000   1.0000   1.0000   1.0000   1.0000
     1.0000   1.0000   1.0000   1.0000   1.0000   1.0000   1.0000   1.0000
     1.0000   1.0000   1.0000   1.0000   1.0000   1.0000   1.0000   1.0000
     1.0000   1.0000   1.0000   1.0000   1.0000   1.0000   1.0000   1.0000
     0.0000   0.0000   0.0000   0.0000   0.0000   0.0000   0.0000   0.0000
     0.0000   0.0000   0.0000   0.0000   0.0000   0.0000   0.0000   0.0000
     0.0000   0.0000   0.0000   0.0000   0.0000   0.0000   0.0000   0.0000
     0.0000   0.0000   0.0000   0.0000   0.0000   0.0000   0.0000   0.0000
     0.0000   0.0000   0.0000   0.0000   0.0000   0.0000   0.0000   0.0000
     0.0000   0.0000   0.0000   0.0000   0.0000   0.0000   0.0000   0.0000
     0.0000   0.0000   0.0000   0.0000   0.0000   0.0000   0.0000   0.0000
     0.0000   0.0000   0.0000   0.0000   0.0000   0.0000   0.0000   0.0000
     0.0000   0.0000   0.0000   0.0000   0.0000   0.0000   0.0000   0.0000
     0.0000   0.0000   0.0000   0.0000   0.0000   0.0000   0.0000   0.0000
     0.0000   0.0000   0.0000   0.0000   0.0000   0.0000   0.0000   0.0000
     0.0000   0.0000   0.0000   0.0000   0.0000   0.0000   0.0000   0.0000
     0.0000   0.0000   0.0000   0.0000   0.0000   0.0000   0.0000   0.0000
     0.0000   0.0000   0.0000   0.0000   0.0000   0.0000   0.0000   0.0000
     0.0000   0.0000   0.0000   0.0000   0.0000   0.0000   0.0000   0.0000
     0.0000   0.0000   0.0000   0.0000   0.0000   0.0000   0.0000   0.0000
     0.0000   0.0000   0.0000   0.0000   0.0000   0.0000   0.0000   0.0000
     0.0000   0.0000   0.0000   0.0000   0.0000   0.0000   0.0000   0.0000
     0.0000   0.0000   0.0000   0.0000   0.0000   0.0000   0.0000   0.0000
     0.0000   0.0000   0.0000   0.0000   0.0000   0.0000   0.0000   0.0000
     0.0000   0.0000   0.0000   0.0000   0.0000   0.0000   0.0000   0.0000
     0.0000   0.0000   0.0000   0.0000   0.0000   0.0000   0.0000   0.0000

[...]

          k = 0.3333 0.3324 0.2354 (  7928 PWs)   bands (ev):

   -32.7901 -32.7768 -32.7739 -32.7627 -32.7476 -32.7472 -32.7396 -32.7362
   -32.7332 -32.7279 -32.7229 -32.7192 -14.4804 -14.3337 -14.3282 -14.1954
   -13.9834 -13.9688 -13.9471 -13.9391 -13.9308 -13.9194 -13.9004 -13.8943
   -13.8894 -13.8819 -13.8790 -13.8733 -13.8432 -13.8258 -13.7979 -13.7920
   -13.7852 -13.7801 -13.7368 -13.7273 -13.7232 -13.7175 -13.7037 -13.6934
   -13.6896 -13.6795 -13.6723 -13.6591 -13.6564 -13.6416 -13.6340 -13.6271
   -10.1790  -9.9985  -9.9977  -9.8317   1.5344   1.7281   1.7383   1.8806
     3.2371   3.3686   3.3900   3.4501   3.5282   3.6330   3.8387   3.8621
     3.9302   3.9821   4.1425   4.2121   5.8497   6.0586   6.2408   6.2419
     6.5635   6.6591   7.0723   7.1715   7.3064   7.3211   7.5643   7.6512
     9.4215   9.7859   9.8128   9.8992   9.9586  10.0945  10.1757  10.2349
    10.3165  10.4198  10.4394  10.5964  10.6451  10.7864  10.8293  10.8606
    10.9785  11.1122  11.1710  11.1801  11.3788  11.6171  11.6751  11.7853
    11.8614  11.9293  12.0043  12.0871  12.1277  12.2163  12.2638  12.3265
    12.4044  12.5774  12.6260  12.6815  12.8013  12.8317  12.9115  12.9233
    13.0922  13.1014  13.1368  13.2771  13.2860  13.3855  13.4668  13.5202
    13.5664  13.5825  13.6719  13.7374  13.7736  13.8443  13.8567  13.9847
    14.0284  14.0467  14.0923  14.1608  14.2199  14.2949  14.3791  14.5367
    14.7460  14.9226  14.9854  15.2086  15.5612  15.8988  15.9643  16.0933
    16.1154  16.1599  16.2279  16.3544  16.4819  16.5882  16.6381  16.7463
    16.8264  17.2797  17.3971  17.6364  17.9570  18.0387  18.3392  18.5077
    18.6879  18.7774  19.0510  19.2232  19.3049  19.8611  19.9255  20.0875
    20.2126  20.4139  20.5943  20.8868  21.0256  21.1270  21.1791  21.3184
    21.3309  21.5069  21.7414  21.8067  21.9569  22.1956  22.2489  22.3776
    22.8119  22.8394  22.9226  23.0526  23.1669  23.3447  23.5150  23.5519
    23.6005  23.6536  23.8261  23.9030  24.0127  24.2496  24.3309  24.6662
    24.7431  24.8723  25.0097  25.0520  25.1230  25.3381  25.4007  25.5235
    25.6622  25.8708  25.9778  26.0161  26.1994  26.3604  26.4662  26.5284
    26.8464  26.9449  27.0805  27.2760  27.3383  27.4340  27.8978  27.9173
    27.9600  28.1366  28.3316  28.4922  28.6225  28.6518  28.8406  28.9200
    28.9733  29.0376  29.0684  29.1983  29.3372  29.5091  29.5780  29.7755
    29.8708  30.0749  30.1494  30.1917  30.2773  30.2988  30.5339  30.6195

     occupation numbers
     1.0000   1.0000   1.0000   1.0000   1.0000   1.0000   1.0000   1.0000
     1.0000   1.0000   1.0000   1.0000   1.0000   1.0000   1.0000   1.0000
     1.0000   1.0000   1.0000   1.0000   1.0000   1.0000   1.0000   1.0000
     1.0000   1.0000   1.0000   1.0000   1.0000   1.0000   1.0000   1.0000
     1.0000   1.0000   1.0000   1.0000   1.0000   1.0000   1.0000   1.0000
     1.0000   1.0000   1.0000   1.0000   1.0000   1.0000   1.0000   1.0000
     1.0000   1.0000   1.0000   1.0000   1.0000   1.0000   1.0000   1.0000
     1.0000   1.0000   1.0000   1.0000   1.0000   1.0000   1.0000   1.0000
     1.0000   1.0000   1.0000   1.0000   1.0000   1.0000   1.0000   1.0000
     1.0000   1.0000   1.0000   1.0000   1.0000   1.0000   1.0000   1.0000
     0.0000   0.0000   0.0000   0.0000   0.0000   0.0000   0.0000   0.0000
     0.0000   0.0000   0.0000   0.0000   0.0000   0.0000   0.0000   0.0000
     0.0000   0.0000   0.0000   0.0000   0.0000   0.0000   0.0000   0.0000
     0.0000   0.0000   0.0000   0.0000   0.0000   0.0000   0.0000   0.0000
     0.0000   0.0000   0.0000   0.0000   0.0000   0.0000   0.0000   0.0000
     0.0000   0.0000   0.0000   0.0000   0.0000   0.0000   0.0000   0.0000
     0.0000   0.0000   0.0000   0.0000   0.0000   0.0000   0.0000   0.0000
     0.0000   0.0000   0.0000   0.0000   0.0000   0.0000   0.0000   0.0000
     0.0000   0.0000   0.0000   0.0000   0.0000   0.0000   0.0000   0.0000
     0.0000   0.0000   0.0000   0.0000   0.0000   0.0000   0.0000   0.0000
     0.0000   0.0000   0.0000   0.0000   0.0000   0.0000   0.0000   0.0000
     0.0000   0.0000   0.0000   0.0000   0.0000   0.0000   0.0000   0.0000
     0.0000   0.0000   0.0000   0.0000   0.0000   0.0000   0.0000   0.0000
     0.0000   0.0000   0.0000   0.0000   0.0000   0.0000   0.0000   0.0000
     0.0000   0.0000   0.0000   0.0000   0.0000   0.0000   0.0000   0.0000
     0.0000   0.0000   0.0000   0.0000   0.0000   0.0000   0.0000   0.0000
     0.0000   0.0000   0.0000   0.0000   0.0000   0.0000   0.0000   0.0000
     0.0000   0.0000   0.0000   0.0000   0.0000   0.0000   0.0000   0.0000
     0.0000   0.0000   0.0000   0.0000   0.0000   0.0000   0.0000   0.0000
     0.0000   0.0000   0.0000   0.0000   0.0000   0.0000   0.0000   0.0000
     0.0000   0.0000   0.0000   0.0000   0.0000   0.0000   0.0000   0.0000
     0.0000   0.0000   0.0000   0.0000   0.0000   0.0000   0.0000   0.0000

     highest occupied, lowest unoccupied level (ev):     8.3022    8.4913

!    total energy              =   -1112.79177076 Ry
     estimated scf accuracy    <       0.00000003 Ry

     The total energy is the sum of the following terms:
     one-electron contribution =    -447.32672725 Ry
     hartree contribution      =     273.17551372 Ry
     xc contribution           =    -197.85154075 Ry
     ewald contribution        =    -702.70506138 Ry
     one-center paw contrib.   =     -38.08395511 Ry
      -> PAW hartree energy AE =       0.00000000 Ry
      -> PAW hartree energy PS =       0.00000000 Ry
      -> PAW xc energy AE      =       0.00000000 Ry
      -> PAW xc energy PS      =       0.00000000 Ry
      -> total E_H with PAW    =     273.17551372 Ry
      -> total E_XC with PAW   =    -197.85154075 Ry

     convergence has been achieved in   9 iterations

     Writing all to output data dir bands_nm/myprefix.save/

     General routines

     Parallel routines

     PAW routines

   This run was terminated on:  22:34:35  15Jul2023

   JOB DONE.