     Program PWSCF v.7.1 starts on 16Jul2023 at 22: 1:53

     Reading input from espresso_16512.pwi
Warning: card &CELL ignored
Warning: card / ignored

     Current dimensions of program PWSCF are:
     Max number of different atomic species (ntypx) = 10
     Max number of k-points (npk) =  40000
     Max angular momentum in pseudopotentials (lmaxx) =  4
     file O.pbe-n-kjpaw_psl.0.1.UPF: wavefunction(s)  2P renormalized
     Message from routine setup:
     using ibrav=0 with symmetry is DISCOURAGED, use correct ibrav instead

     K-points division:     npool     =       2
     R & G space division:  proc/nbgrp/npool/nimage =       4
     Subspace diagonalization in iterative solution of the eigenvalue problem:
     one sub-group per band group will be used

     Using Slab Decomposition

     bravais-lattice index     =            0
     lattice parameter (alat)  =       9.2177  a.u.
     unit-cell volume          =    1406.4387 (a.u.)^3
     number of atoms/cell      =           16
     number of atomic types    =            3
     number of electrons       =       134.00
     number of Kohn-Sham states=          256
     kinetic-energy cutoff     =      30.0000  Ry
     charge density cutoff     =     240.0000  Ry
     scf convergence threshold =      1.0E-06
     mixing beta               =       0.7000
     number of iterations used =            8  plain     mixing
     Exchange-correlation=  SLA  PW   PBX  PBC
                           (   1   4   3   4   0   0   0)

     celldm(1)=   9.217719  celldm(2)=   0.000000  celldm(3)=   0.000000
     celldm(4)=   0.000000  celldm(5)=   0.000000  celldm(6)=   0.000000

     crystal axes: (cart. coord. in units of alat)
               a(1) = (   1.000000   0.000000   0.000000 )
               a(2) = (   0.000000   0.995738   0.000000 )
               a(3) = (   0.000000   0.981246   1.803454 )

     reciprocal axes: (cart. coord. in units 2 pi/alat)
               b(1) = (  1.000000  0.000000  0.000000 )
               b(2) = (  0.000000  1.004280 -0.546421 )
               b(3) = (  0.000000  0.000000  0.554492 )

     PseudoPot. # 1 for V  read from file:
     /lustre07/scratch/pragov/crystal_structure_design/utils/SSSP/v_pbe_v1.4.uspp.F.UPF
     MD5 check sum: 22b79981416ebb76fdaf5b1b8640f6fb
     Pseudo is Ultrasoft + core correction, Zval = 13.0
     Generated by new atomic code, or converted to UPF format
     Using radial grid of  853 points,  6 beta functions with:
                l(1) =   0
                l(2) =   0
                l(3) =   1
                l(4) =   1
                l(5) =   2
                l(6) =   2
     Q(r) pseudized with  8 coefficients,  rinner =    1.100   1.100   1.100
                                                       1.100   1.100

     PseudoPot. # 2 for O  read from file:
     /lustre07/scratch/pragov/crystal_structure_design/utils/SSSP/O.pbe-n-kjpaw_psl.0.1.UPF
     MD5 check sum: 0234752ac141de4415c5fc33072bef88
     Pseudo is Projector augmented-wave + core cor, Zval =  6.0
     Generated using "atomic" code by A. Dal Corso  v.5.0.99 svn rev. 10869
     Shape of augmentation charge: BESSEL
     Using radial grid of 1095 points,  4 beta functions with:
                l(1) =   0
                l(2) =   0
                l(3) =   1
                l(4) =   1
     Q(r) pseudized with 0 coefficients

     PseudoPot. # 3 for F  read from file:
     /lustre07/scratch/pragov/crystal_structure_design/utils/SSSP/f_pbe_v1.4.uspp.F.UPF
     MD5 check sum: 4c38b6a325caf53ec0e86aed9459de46
     Pseudo is Ultrasoft, Zval =  7.0
     Generated by new atomic code, or converted to UPF format
     Using radial grid of  799 points,  4 beta functions with:
                l(1) =   0
                l(2) =   0
                l(3) =   1
                l(4) =   1
     Q(r) pseudized with  8 coefficients,  rinner =    0.950   0.950   0.950

     atomic species   valence    mass     pseudopotential
        V             13.00    50.94150     V ( 1.00)
        O              6.00    15.99900     O ( 1.00)
        F              7.00    18.99840     F ( 1.00)

      2 Sym. Ops. (no inversion) found ( 1 have fractional translation)

                                    s                        frac. trans.

      isym =  1     identity

 cryst.   s( 1) = (     1          0          0      )
                  (     0          1          0      )
                  (     0          0          1      )

 cart.    s( 1) = (  1.0000000  0.0000000  0.0000000 )
                  (  0.0000000  1.0000000  0.0000000 )
                  (  0.0000000  0.0000000  1.0000000 )

      isym =  2     inv. 180 deg rotation - cart. axis [1,0,0]

 cryst.   s( 2) = (    -1          0          0      )    f =(  0.0000000 )
                  (     0          1          0      )       (  0.0000000 )
                  (     0          0          1      )       (  0.5000000 )

 cart.    s( 2) = ( -1.0000000  0.0000000  0.0000000 )    f =(  0.0000000 )
                  (  0.0000000  1.0000000  0.0000000 )       (  0.4906231 )
                  (  0.0000000  0.0000000  1.0000000 )       (  0.9017270 )

   Cartesian axes

     site n.     atom                  positions (alat units)
         1           V   tau(   1) = (   0.7635440   0.5045082   0.3123402  )
         2           V   tau(   2) = (   0.2395350   0.9808107   0.5645046  )
         3           V   tau(   3) = (   0.2364560   0.9951313   1.2140673  )
         4           V   tau(   4) = (   0.7604650   1.4714338   1.4662316  )
         5           O   tau(   5) = (   0.0445010   0.7858926   0.3471974  )
         6           O   tau(   6) = (   0.9554990   1.2765157   1.2489244  )
         7           F   tau(   7) = (   0.4687460   0.2157174   0.3300231  )
         8           F   tau(   8) = (   0.5390640   0.7074444   0.5834913  )
         9           F   tau(   9) = (   0.9685080   1.2749576   0.5891885  )
        10           F   tau(  10) = (   0.4191240   1.1624107   0.8846700  )
        11           F   tau(  11) = (   0.0682290   0.8069763   0.9007315  )
        12           F   tau(  12) = (   0.5312540   0.7063406   1.2317501  )
        13           F   tau(  13) = (   0.0314920   1.7655807   1.4909155  )
        14           F   tau(  14) = (   0.4609360   1.1980676   1.4852184  )
        15           F   tau(  15) = (   0.5808760   1.6530338   1.7863970  )
        16           F   tau(  16) = (   0.9317710   1.2975994   1.8024586  )

   Crystallographic axes

     site n.     atom                  positions (cryst. coord.)
         1           V   tau(   1) = (  0.7635440  0.3359980  0.1731900  )
         2           V   tau(   2) = (  0.2395350  0.6765510  0.3130130  )
         3           V   tau(   3) = (  0.2364560  0.3359980  0.6731900  )
         4           V   tau(   4) = (  0.7604650  0.6765510  0.8130130  )
         5           O   tau(   5) = (  0.0445010  0.5995400  0.1925180  )
         6           O   tau(   6) = (  0.9554990  0.5995400  0.6925180  )
         7           F   tau(   7) = (  0.4687460  0.0363090  0.1829950  )
         8           F   tau(   8) = (  0.5390640  0.3916400  0.3235410  )
         9           F   tau(   9) = (  0.9685080  0.9584690  0.3267000  )
        10           F   tau(  10) = (  0.4191240  0.6839830  0.4905420  )
        11           F   tau(  11) = (  0.0682290  0.3182510  0.4994480  )
        12           F   tau(  12) = (  0.5312540  0.0363090  0.6829950  )
        13           F   tau(  13) = (  0.0314920  0.9584690  0.8267000  )
        14           F   tau(  14) = (  0.4609360  0.3916400  0.8235410  )
        15           F   tau(  15) = (  0.5808760  0.6839830  0.9905420  )
        16           F   tau(  16) = (  0.9317710  0.3182510  0.9994480  )

     number of k points=    10
                       cart. coord. in units 2pi/alat
        k(    1) = (   0.0000000   0.0000000   0.0000000), wk =   0.0740741
        k(    2) = (   0.0000000   0.0000000   0.1848305), wk =   0.1481481
        k(    3) = (   0.0000000   0.3347599  -0.1821404), wk =   0.1481481
        k(    4) = (   0.0000000   0.3347599   0.0026901), wk =   0.1481481
        k(    5) = (   0.0000000   0.3347599  -0.3669710), wk =   0.1481481
        k(    6) = (   0.3333333   0.0000000   0.0000000), wk =   0.1481481
        k(    7) = (   0.3333333   0.0000000   0.1848305), wk =   0.2962963
        k(    8) = (   0.3333333   0.3347599  -0.1821404), wk =   0.2962963
        k(    9) = (   0.3333333   0.3347599   0.0026901), wk =   0.2962963
        k(   10) = (   0.3333333   0.3347599  -0.3669710), wk =   0.2962963

                       cryst. coord.
        k(    1) = (   0.0000000   0.0000000   0.0000000), wk =   0.0740741
        k(    2) = (   0.0000000   0.0000000   0.3333333), wk =   0.1481481
        k(    3) = (   0.0000000   0.3333333   0.0000000), wk =   0.1481481
        k(    4) = (   0.0000000   0.3333333   0.3333333), wk =   0.1481481
        k(    5) = (   0.0000000   0.3333333  -0.3333333), wk =   0.1481481
        k(    6) = (   0.3333333   0.0000000   0.0000000), wk =   0.1481481
        k(    7) = (   0.3333333   0.0000000   0.3333333), wk =   0.2962963
        k(    8) = (   0.3333333   0.3333333   0.0000000), wk =   0.2962963
        k(    9) = (   0.3333333   0.3333333   0.3333333), wk =   0.2962963
        k(   10) = (   0.3333333   0.3333333  -0.3333333), wk =   0.2962963

     Check: negative core charge=   -0.000008

     Initial potential from superposition of free atoms

     starting charge     133.9951, renormalised to     134.0000

     negative rho (up, down):  1.764E-03 0.000E+00
     Starting wfcs are   88 randomized atomic wfcs +  168 random wfcs
     Checking if some PAW data can be deallocated...

     Self-consistent Calculation

     iteration #  1     ecut=    30.00 Ry     beta= 0.70
     Davidson diagonalization with overlap

     ethr =  1.00E-02,  avg # of iterations =  7.2

     negative rho (up, down):  5.836E-03 0.000E+00

     total energy              =   -1148.72116278 Ry
     estimated scf accuracy    <       3.42843233 Ry

[...]

     total energy              =   -1150.69825031 Ry
     estimated scf accuracy    <       0.00000393 Ry

     iteration # 16     ecut=    30.00 Ry     beta= 0.70
     Davidson diagonalization with overlap

     ethr =  1.37E-09,  avg # of iterations =  1.0

     negative rho (up, down):  4.141E-03 0.000E+00

     End of self-consistent calculation

          k = 0.0000 0.0000 0.0000 (  3875 PWs)   bands (ev):

   -60.3022 -60.3019 -60.1698 -60.1698 -34.3397 -34.3382 -34.1270 -34.1255
   -34.0721 -34.0707 -34.0557 -34.0537 -34.0118 -34.0118 -33.8541 -33.8534
   -19.0646 -18.8464 -18.6635 -18.5528 -18.5429 -18.5107 -18.5085 -18.4667
   -18.2674 -18.2549 -13.0937 -13.0754  -2.0416  -1.8675  -1.6786  -1.6336
    -1.3833  -1.3816  -1.2887  -1.1406  -1.0093  -0.9957  -0.9856  -0.8867
    -0.8009  -0.6143  -0.2100  -0.1751  -0.1260   0.0274   0.0832   0.1152
     0.1859   0.2262   0.3182   0.4688   0.5293   0.5923   0.8708   0.9276
     1.0564   1.1511   1.3219   1.3604   1.7579   1.7669   2.2185   2.2265
     5.2628   5.5504   5.6167   5.7492   5.8124   5.8136   5.9438   5.9542
     6.5712   6.6438   6.8780   6.9358   7.0436   7.2995   7.5179   7.5455
     8.0312   8.1508   9.0144   9.1086  10.2787  12.6399  13.0496  15.4783
    15.5031  16.7500  17.0092  17.1426  17.2739  17.3307  17.5385  17.5502
    17.7617  17.9367  18.7197  18.7402  18.8530  19.5758  19.6967  19.9447
    20.0593  20.7479  20.8526  20.9646  21.2514  21.3486  21.6546  21.6571
    21.9504  21.9848  22.0384  24.2173  24.4580  24.8517  25.2231  25.4386
    25.4914  26.0305  26.4102  26.5511  27.0730  27.0768  27.3463  27.4517
    27.4813  27.9471  28.1533  28.2568  28.4119  28.7992  29.4048  29.4981
    29.5627  29.7888  30.0001  30.1185  30.2333  30.2807  30.3878  31.4100
    31.6226  32.8540  32.8841  33.5453  33.5760  33.7189  33.7825  33.8637
    33.9761  34.1028  34.5943  34.8288  35.2488  35.2498  35.4145  35.5164
    35.7373  36.7342  36.7926  37.1233  37.2250  37.2824  37.5778  37.6454
    37.8998  38.0391  38.1514  38.4974  38.6397  38.8297  39.0128  39.0240
    39.3604  39.4647  39.5315  39.6975  39.9645  39.9930  40.1262  40.2311
    40.3921  40.5642  40.7109  41.0395  41.2264  41.2715  41.3548  41.5498
    41.7509  42.0484  42.4794  42.5169  42.7131  42.8444  43.1269  43.1778
    43.4090  43.4511  43.6961  43.7237  43.8179  44.0169  44.0537  44.5011
    44.8136  45.0568  45.1503  45.7197  45.7749  45.9679  45.9873  46.1248
    46.1708  46.5678  47.0010  47.5325  47.5870  47.8463  47.9250  48.1200
    48.4951  48.5829  49.2983  49.6081  49.7641  50.0187  50.4306  50.5148
    51.1243  51.3133  51.3500  51.4359  51.5594  51.8910  52.0880  52.1206
    52.2489  52.5484  52.7589  52.9277  52.9508  53.1448  53.2464  53.3791
    53.4731  54.0554  54.1991  54.2144  54.3215  54.3629  54.5366  54.6566

     occupation numbers
     1.0000   1.0000   1.0000   1.0000   1.0000   1.0000   1.0000   1.0000
     1.0000   1.0000   1.0000   1.0000   1.0000   1.0000   1.0000   1.0000
     1.0000   1.0000   1.0000   1.0000   1.0000   1.0000   1.0000   1.0000
     1.0000   1.0000   1.0000   1.0000   1.0000   1.0000   1.0000   1.0000
     1.0000   1.0000   1.0000   1.0000   1.0000   1.0000   1.0000   1.0000
     1.0000   1.0000   1.0000   1.0000   1.0000   1.0000   1.0000   1.0000
     1.0000   1.0000   1.0000   1.0000   1.0000   1.0000   1.0000   1.0000
     1.0000   1.0000   1.0000   1.0000   1.0000   1.0000   1.0000   1.0000
     1.0000   1.0000   1.0000   0.0000   0.0000   0.0000   0.0000   0.0000
     0.0000   0.0000   0.0000   0.0000   0.0000   0.0000   0.0000   0.0000
     0.0000   0.0000   0.0000   0.0000   0.0000   0.0000   0.0000   0.0000
     0.0000   0.0000   0.0000   0.0000   0.0000   0.0000   0.0000   0.0000
     0.0000   0.0000   0.0000   0.0000   0.0000   0.0000   0.0000   0.0000
     0.0000   0.0000   0.0000   0.0000   0.0000   0.0000   0.0000   0.0000
     0.0000   0.0000   0.0000   0.0000   0.0000   0.0000   0.0000   0.0000
     0.0000   0.0000   0.0000   0.0000   0.0000   0.0000   0.0000   0.0000
     0.0000   0.0000   0.0000   0.0000   0.0000   0.0000   0.0000   0.0000
     0.0000   0.0000   0.0000   0.0000   0.0000   0.0000   0.0000   0.0000
     0.0000   0.0000   0.0000   0.0000   0.0000   0.0000   0.0000   0.0000
     0.0000   0.0000   0.0000   0.0000   0.0000   0.0000   0.0000   0.0000
     0.0000   0.0000   0.0000   0.0000   0.0000   0.0000   0.0000   0.0000
     0.0000   0.0000   0.0000   0.0000   0.0000   0.0000   0.0000   0.0000
     0.0000   0.0000   0.0000   0.0000   0.0000   0.0000   0.0000   0.0000
     0.0000   0.0000   0.0000   0.0000   0.0000   0.0000   0.0000   0.0000
     0.0000   0.0000   0.0000   0.0000   0.0000   0.0000   0.0000   0.0000
     0.0000   0.0000   0.0000   0.0000   0.0000   0.0000   0.0000   0.0000
     0.0000   0.0000   0.0000   0.0000   0.0000   0.0000   0.0000   0.0000
     0.0000   0.0000   0.0000   0.0000   0.0000   0.0000   0.0000   0.0000
     0.0000   0.0000   0.0000   0.0000   0.0000   0.0000   0.0000   0.0000
     0.0000   0.0000   0.0000   0.0000   0.0000   0.0000   0.0000   0.0000
     0.0000   0.0000   0.0000   0.0000   0.0000   0.0000   0.0000   0.0000
     0.0000   0.0000   0.0000   0.0000   0.0000   0.0000   0.0000   0.0000

[...]

          k = 0.3333 0.3348-0.3670 (  3918 PWs)   bands (ev):

   -60.3023 -60.3021 -60.1701 -60.1699 -34.3409 -34.3398 -34.1280 -34.1269
   -34.0747 -34.0694 -34.0552 -34.0513 -34.0182 -34.0119 -33.8559 -33.8554
   -18.8867 -18.7976 -18.7174 -18.6358 -18.5595 -18.5467 -18.5081 -18.4781
   -18.2821 -18.2689 -13.0984 -13.0938  -1.9608  -1.8486  -1.7600  -1.6312
    -1.4676  -1.4272  -1.2544  -1.2281  -1.1696  -1.0929  -0.7929  -0.7003
    -0.6058  -0.4397  -0.2812  -0.2377  -0.0911  -0.0024   0.1126   0.2127
     0.2390   0.3450   0.4772   0.5618   0.6306   0.6803   0.7655   0.8370
     0.9824   1.0258   1.0971   1.1405   1.7100   1.8399   1.9199   2.0000
     5.5616   5.5841   5.6296   5.6677   5.7275   5.8746   5.9676   5.9851
     6.5836   6.6407   6.7185   6.7835   7.0233   7.3152   7.5169   7.8153
     7.8893   8.0458   8.8221   9.0786  12.5454  13.1117  14.3309  14.6983
    14.8506  15.1996  15.3035  16.2088  16.3168  16.4554  16.7530  17.4748
    17.9343  18.2714  18.8173  19.2368  19.2955  19.5063  19.9338  20.1441
    20.2495  20.6860  21.2866  21.4667  21.6704  21.7453  21.9910  22.4693
    22.7313  22.9593  23.4039  23.5741  23.8064  24.0597  24.5354  24.7175
    24.9796  25.1955  25.8011  26.7664  26.8513  26.9571  27.3218  27.5621
    27.7883  27.9687  28.1363  28.4761  28.5419  28.7450  29.0517  29.4215
    29.7574  29.9320  30.1948  30.2945  30.6035  30.7762  31.3286  31.8066
    32.1619  32.3858  32.5192  32.7100  32.9703  33.1842  33.6096  33.8893
    34.1228  34.4350  34.5149  34.7521  34.9298  35.0851  35.3742  35.5370
    35.8255  36.0981  36.3710  36.5526  36.8826  37.1305  37.2606  37.5122
    37.6157  37.9778  38.2738  38.5754  38.6806  38.9650  39.1467  39.5723
    39.7859  39.8370  39.9084  40.3023  40.4373  40.5467  40.7032  40.7467
    40.8761  40.9727  41.2122  41.2824  41.5240  41.6035  41.8436  41.9355
    42.0738  42.2310  42.3585  42.8581  43.0246  43.1499  43.4452  43.5679
    43.7065  43.9356  44.0450  44.2146  44.2847  44.5045  44.7504  45.1305
    45.3148  45.4905  45.7685  46.0329  46.2951  46.4779  46.6324  46.8266
    46.9112  47.2455  47.4614  47.5613  47.7779  47.9369  48.0488  48.5221
    48.7284  49.0236  49.1070  49.2882  49.4944  49.6192  49.7331  50.1402
    50.2172  50.2879  50.4299  50.5924  50.7770  50.8415  51.0674  51.1846
    51.3309  51.5256  51.7830  51.8937  52.0826  52.1316  52.5623  52.8865
    53.0651  53.3530  53.4055  53.6954  53.8181  53.8487  53.9978  54.1369

     occupation numbers
     1.0000   1.0000   1.0000   1.0000   1.0000   1.0000   1.0000   1.0000
     1.0000   1.0000   1.0000   1.0000   1.0000   1.0000   1.0000   1.0000
     1.0000   1.0000   1.0000   1.0000   1.0000   1.0000   1.0000   1.0000
     1.0000   1.0000   1.0000   1.0000   1.0000   1.0000   1.0000   1.0000
     1.0000   1.0000   1.0000   1.0000   1.0000   1.0000   1.0000   1.0000
     1.0000   1.0000   1.0000   1.0000   1.0000   1.0000   1.0000   1.0000
     1.0000   1.0000   1.0000   1.0000   1.0000   1.0000   1.0000   1.0000
     1.0000   1.0000   1.0000   1.0000   1.0000   1.0000   1.0000   1.0000
     1.0000   1.0000   1.0000   0.0000   0.0000   0.0000   0.0000   0.0000
     0.0000   0.0000   0.0000   0.0000   0.0000   0.0000   0.0000   0.0000
     0.0000   0.0000   0.0000   0.0000   0.0000   0.0000   0.0000   0.0000
     0.0000   0.0000   0.0000   0.0000   0.0000   0.0000   0.0000   0.0000
     0.0000   0.0000   0.0000   0.0000   0.0000   0.0000   0.0000   0.0000
     0.0000   0.0000   0.0000   0.0000   0.0000   0.0000   0.0000   0.0000
     0.0000   0.0000   0.0000   0.0000   0.0000   0.0000   0.0000   0.0000
     0.0000   0.0000   0.0000   0.0000   0.0000   0.0000   0.0000   0.0000
     0.0000   0.0000   0.0000   0.0000   0.0000   0.0000   0.0000   0.0000
     0.0000   0.0000   0.0000   0.0000   0.0000   0.0000   0.0000   0.0000
     0.0000   0.0000   0.0000   0.0000   0.0000   0.0000   0.0000   0.0000
     0.0000   0.0000   0.0000   0.0000   0.0000   0.0000   0.0000   0.0000
     0.0000   0.0000   0.0000   0.0000   0.0000   0.0000   0.0000   0.0000
     0.0000   0.0000   0.0000   0.0000   0.0000   0.0000   0.0000   0.0000
     0.0000   0.0000   0.0000   0.0000   0.0000   0.0000   0.0000   0.0000
     0.0000   0.0000   0.0000   0.0000   0.0000   0.0000   0.0000   0.0000
     0.0000   0.0000   0.0000   0.0000   0.0000   0.0000   0.0000   0.0000
     0.0000   0.0000   0.0000   0.0000   0.0000   0.0000   0.0000   0.0000
     0.0000   0.0000   0.0000   0.0000   0.0000   0.0000   0.0000   0.0000
     0.0000   0.0000   0.0000   0.0000   0.0000   0.0000   0.0000   0.0000
     0.0000   0.0000   0.0000   0.0000   0.0000   0.0000   0.0000   0.0000
     0.0000   0.0000   0.0000   0.0000   0.0000   0.0000   0.0000   0.0000
     0.0000   0.0000   0.0000   0.0000   0.0000   0.0000   0.0000   0.0000
     0.0000   0.0000   0.0000   0.0000   0.0000   0.0000   0.0000   0.0000

     highest occupied, lowest unoccupied level (ev):     5.6949    5.6196

!    total energy              =   -1150.69824987 Ry
     estimated scf accuracy    <       0.00000061 Ry

     The total energy is the sum of the following terms:
     one-electron contribution =    -682.85076724 Ry
     hartree contribution      =     394.55664013 Ry
     xc contribution           =    -185.90832799 Ry
     ewald contribution        =    -657.43349354 Ry
     one-center paw contrib.   =     -19.06230123 Ry
      -> PAW hartree energy AE =       0.00000000 Ry
      -> PAW hartree energy PS =       0.00000000 Ry
      -> PAW xc energy AE      =       0.00000000 Ry
      -> PAW xc energy PS      =       0.00000000 Ry
      -> total E_H with PAW    =     394.55664013 Ry
      -> total E_XC with PAW   =    -185.90832799 Ry

     convergence has been achieved in  16 iterations

     Writing all to output data dir bands_nm/myprefix.save/

     General routines

     Parallel routines

     PAW routines

   This run was terminated on:  22: 2:51  16Jul2023

   JOB DONE.