     Program PWSCF v.7.1 starts on 15Jul2023 at 20:38:23

     Reading input from espresso_24945.pwi
Warning: card &CELL ignored
Warning: card / ignored

     Current dimensions of program PWSCF are:
     Max number of different atomic species (ntypx) = 10
     Max number of k-points (npk) =  40000
     Max angular momentum in pseudopotentials (lmaxx) =  4
     file Cu.paw.z_11.ld1.psl.v1.0.0-low.upf: wavefunction(s)  4S 3D renormalized

     K-points division:     npool     =       2
     R & G space division:  proc/nbgrp/npool/nimage =       4
     Subspace diagonalization in iterative solution of the eigenvalue problem:
     one sub-group per band group will be used

     Using Slab Decomposition

     bravais-lattice index     =            0
     lattice parameter (alat)  =      13.1818  a.u.
     unit-cell volume          =    2361.7058 (a.u.)^3
     number of atoms/cell      =           14
     number of atomic types    =            3
     number of electrons       =       134.00
     number of Kohn-Sham states=          256
     kinetic-energy cutoff     =      30.0000  Ry
     charge density cutoff     =     240.0000  Ry
     scf convergence threshold =      1.0E-06
     mixing beta               =       0.7000
     number of iterations used =            8  plain     mixing
     Exchange-correlation=  SLA  PW   PBX  PBC
                           (   1   4   3   4   0   0   0)

     celldm(1)=  13.181830  celldm(2)=   0.000000  celldm(3)=   0.000000
     celldm(4)=   0.000000  celldm(5)=   0.000000  celldm(6)=   0.000000

     crystal axes: (cart. coord. in units of alat)
               a(1) = (   1.000000   0.000000   0.000000 )
               a(2) = (   0.830352   0.557239   0.000000 )
               a(3) = (   0.819309   0.249433   1.850366 )

     reciprocal axes: (cart. coord. in units 2 pi/alat)
               b(1) = (  1.000000 -1.490120 -0.241911 )
               b(2) = (  0.000000  1.794564 -0.241911 )
               b(3) = (  0.000000  0.000000  0.540434 )

     PseudoPot. # 1 for Cu read from file:
     /lustre07/scratch/pragov/crystal_structure_design/utils/SSSP/Cu.paw.z_11.ld1.psl.v1.0.0-low.upf
     MD5 check sum: 619f40885d92a09a85a8b37550532d0c
     Pseudo is Projector augmented-wave + core cor, Zval = 11.0
     Generated using &quot;atomic&quot; code by A. Dal Corso  v.6.3MaX
     Shape of augmentation charge: PSQ
     Using radial grid of 1199 points,  6 beta functions with:
                l(1) =   0
                l(2) =   0
                l(3) =   1
                l(4) =   1
                l(5) =   2
                l(6) =   2
     Q(r) pseudized with 0 coefficients

     PseudoPot. # 2 for Bi read from file:
     /lustre07/scratch/pragov/crystal_structure_design/utils/SSSP/Bi_pbe_v1.uspp.F.UPF
     MD5 check sum: cceb9f28ec65b6d7ff33140f5b0b1758
     Pseudo is Ultrasoft + core correction, Zval = 15.0
     Generated by new atomic code, or converted to UPF format
     Using radial grid of  899 points,  6 beta functions with:
                l(1) =   0
                l(2) =   0
                l(3) =   1
                l(4) =   1
                l(5) =   2
                l(6) =   2
     Q(r) pseudized with  6 coefficients,  rinner =    1.000   1.000   1.000
                                                       1.000   1.000

     PseudoPot. # 3 for S  read from file:
     /lustre07/scratch/pragov/crystal_structure_design/utils/SSSP/s_pbe_v1.4.uspp.F.UPF
     MD5 check sum: 88d86576ff6df21479756cfb9bdac1df
     Pseudo is Ultrasoft + core correction, Zval =  6.0
     Generated by new atomic code, or converted to UPF format
     Using radial grid of  907 points,  6 beta functions with:
                l(1) =   0
                l(2) =   0
                l(3) =   1
                l(4) =   1
                l(5) =   2
                l(6) =   2
     Q(r) pseudized with  8 coefficients,  rinner =    1.300   1.300   1.300
                                                       1.300   1.300

     atomic species   valence    mass     pseudopotential
        Cu            11.00    63.54600     Cu( 1.00)
        Bi            15.00   208.98040     Bi( 1.00)
        S              6.00    32.06000     S ( 1.00)

     No symmetry found

                                    s                        frac. trans.

      isym =  1     identity

 cryst.   s( 1) = (     1          0          0      )
                  (     0          1          0      )
                  (     0          0          1      )

 cart.    s( 1) = (  1.0000000  0.0000000 -0.0000000 )
                  (  0.0000000  1.0000000  0.0000000 )
                  (  0.0000000  0.0000000  1.0000000 )

   Cartesian axes

     site n.     atom                  positions (alat units)
         1           Cu  tau(   1) = (   1.3577511   0.2952020   0.9251828  )
         2           Bi  tau(   2) = (   1.3236249   0.4014977   1.5667970  )
         3           Bi  tau(   3) = (   1.3268558   0.4024813   0.2835685  )
         4           Bi  tau(   4) = (   1.8302455   0.5507585   1.1760331  )
         5           Bi  tau(   5) = (   0.8230084   0.2441119   0.6743324  )
         6           Bi  tau(   6) = (   0.8304687   0.5568569   0.0000000  )
         7           S   tau(   7) = (   1.9730569   0.6014159   1.7178479  )
         8           S   tau(   8) = (   0.6761963   0.2065953   0.1325176  )
         9           S   tau(   9) = (   2.4760249   0.7537380   1.4875718  )
        10           S   tau(  10) = (   0.1736759   0.0528032   0.3627938  )
        11           S   tau(  11) = (   1.1876367   0.3601682   1.2086884  )
        12           S   tau(  12) = (   1.4628043   0.4439412   0.6416772  )
        13           S   tau(  13) = (   0.6764332   0.2187755   1.0164428  )
        14           S   tau(  14) = (   1.9660729   0.6113977   0.8339227  )

   Crystallographic axes

     site n.     atom                  positions (cryst. coord.)
         1           Cu  tau(   1) = (  0.6940530  0.3059470  0.5000000  )
         2           Bi  tau(   2) = (  0.3463200  0.3414880  0.8467500  )
         3           Bi  tau(   3) = (  0.6585120  0.6536800  0.1532500  )
         4           Bi  tau(   4) = (  0.7250540  0.7038760  0.6355680  )
         5           Bi  tau(   5) = (  0.2961240  0.2749460  0.3644320  )
         6           Bi  tau(   6) = (  0.0006850  0.9993150  0.0000000  )
         7           S   tau(   7) = (  0.6613090  0.6637130  0.9283830  )
         8           S   tau(   8) = (  0.3362870  0.3386910  0.0716170  )
         9           S   tau(   9) = (  0.9930050  0.9927710  0.8039340  )
        10           S   tau(  10) = (  0.0072290  0.0069950  0.1960660  )
        11           S   tau(  11) = (  0.3585480  0.3539500  0.6532160  )
        12           S   tau(  12) = (  0.6460500  0.6414520  0.3467840  )
        13           S   tau(  13) = (  0.1045430  0.1467180  0.5493200  )
        14           S   tau(  14) = (  0.8532820  0.8954570  0.4506800  )

     number of k points=    14
                       cart. coord. in units 2pi/alat
        k(    1) = (   0.0000000   0.0000000   0.0000000), wk =   0.0740741
        k(    2) = (   0.0000000   0.0000000   0.1801446), wk =   0.1481481
        k(    3) = (   0.0000000   0.5981878  -0.0806369), wk =   0.1481481
        k(    4) = (   0.0000000   0.5981878   0.0995077), wk =   0.1481481
        k(    5) = (   0.0000000   0.5981878  -0.2607815), wk =   0.1481481
        k(    6) = (   0.3333333  -0.4967067  -0.0806369), wk =   0.1481481
        k(    7) = (   0.3333333  -0.4967067   0.0995077), wk =   0.1481481
        k(    8) = (   0.3333333  -0.4967067  -0.2607815), wk =   0.1481481
        k(    9) = (   0.3333333   0.1014811  -0.1612739), wk =   0.1481481
        k(   10) = (   0.3333333   0.1014811   0.0188707), wk =   0.1481481
        k(   11) = (   0.3333333   0.1014811  -0.3414185), wk =   0.1481481
        k(   12) = (   0.3333333  -1.0948946  -0.0000000), wk =   0.1481481
        k(   13) = (   0.3333333  -1.0948946   0.1801446), wk =   0.1481481
        k(   14) = (   0.3333333  -1.0948946  -0.1801446), wk =   0.1481481

                       cryst. coord.
        k(    1) = (   0.0000000   0.0000000   0.0000000), wk =   0.0740741
        k(    2) = (   0.0000000   0.0000000   0.3333333), wk =   0.1481481
        k(    3) = (   0.0000000   0.3333333   0.0000000), wk =   0.1481481
        k(    4) = (   0.0000000   0.3333333   0.3333333), wk =   0.1481481
        k(    5) = (   0.0000000   0.3333333  -0.3333333), wk =   0.1481481
        k(    6) = (   0.3333333   0.0000000  -0.0000000), wk =   0.1481481
        k(    7) = (   0.3333333   0.0000000   0.3333333), wk =   0.1481481
        k(    8) = (   0.3333333   0.0000000  -0.3333333), wk =   0.1481481
        k(    9) = (   0.3333333   0.3333333   0.0000000), wk =   0.1481481
        k(   10) = (   0.3333333   0.3333333   0.3333333), wk =   0.1481481
        k(   11) = (   0.3333333   0.3333333  -0.3333333), wk =   0.1481481
        k(   12) = (   0.3333333  -0.3333333  -0.0000000), wk =   0.1481481
        k(   13) = (   0.3333333  -0.3333333   0.3333333), wk =   0.1481481
        k(   14) = (   0.3333333  -0.3333333  -0.3333333), wk =   0.1481481

     Check: negative core charge=   -0.000004

     Initial potential from superposition of free atoms

     starting charge     128.9993, renormalised to     134.0000

     negative rho (up, down):  2.148E-01 0.000E+00
     Starting wfcs are   86 randomized atomic wfcs +  170 random wfcs
     Checking if some PAW data can be deallocated...

     Self-consistent Calculation

     iteration #  1     ecut=    30.00 Ry     beta= 0.70
     Davidson diagonalization with overlap

     ethr =  1.00E-02,  avg # of iterations =  7.0

     negative rho (up, down):  2.094E-01 0.000E+00

     total energy              =   -1227.25001432 Ry
     estimated scf accuracy    <     124.93528439 Ry

[...]

     total energy              =   -1332.55549799 Ry
     estimated scf accuracy    <       0.00000198 Ry

     iteration # 20     ecut=    30.00 Ry     beta= 0.70
     Davidson diagonalization with overlap

     ethr =  1.48E-09,  avg # of iterations =  1.1

     negative rho (up, down):  2.053E-01 0.000E+00

     End of self-consistent calculation

          k = 0.0000 0.0000 0.0000 (  6581 PWs)   bands (ev):

   -15.3565 -15.3477 -15.3472 -15.3371 -15.3359 -15.3338 -15.3238 -15.3236
   -15.3215 -15.3116 -15.3106 -15.3094 -15.3045 -15.2975 -15.2975 -15.1255
   -15.1209 -15.1092 -15.1050 -15.0999 -15.0900 -15.0814 -15.0808 -15.0681
   -15.0625  -6.5131  -6.0944  -5.7388  -4.7288  -4.5776  -4.3864  -4.1762
    -4.1090  -2.8307  -2.6104  -1.3876  -1.2899  -0.3965   2.9414   3.4386
     4.0074   4.1264   4.2819   4.6933   4.7918   4.7970   4.8522   4.9859
     4.9946   5.1714   5.2972   5.4556   5.5430   5.7508   5.9346   5.9979
     6.0309   6.2373   6.4871   6.4955   6.5827   6.6049   7.0214   7.2894
     7.3490   7.4022   7.5009   8.7765   9.4059   9.9495   9.9924  10.3022
    10.4280  10.5650  10.6151  10.8071  10.9140  11.0319  11.2811  11.3042
    11.3809  11.5839  13.1255  13.4563  13.6281  14.1424  14.3866  15.1350
    15.1741  15.2145  15.2404  15.4067  15.6519  15.9848  16.0375  16.1370
    16.4704  16.5779  16.9447  17.0143  17.1102  17.1246  17.1565  17.2639
    17.4596  17.6448  17.7748  17.8734  18.1048  18.1709  18.3955  18.7071
    18.9374  19.0288  19.3224  19.4106  19.5018  19.6461  19.8472  20.2221
    20.2918  20.3625  20.7133  20.7455  21.0691  21.0760  21.2341  21.4815
    21.5574  21.8975  22.0923  22.1581  22.2977  22.7843  23.0078  23.0384
    23.4118  23.6947  23.8835  23.9215  24.1445  24.8131  24.9042  24.9345
    25.1469  25.2364  25.2955  25.5896  25.8741  25.9215  25.9833  26.2221
    26.3135  26.5232  26.8097  26.9562  27.0519  27.4269  27.4375  27.5105
    27.6039  27.6502  28.0100  28.0705  28.1444  28.1871  28.3508  28.4381
    28.4383  28.5517  28.8670  29.0308  29.3353  29.3406  29.4474  29.4986
    29.6003  29.6116  29.8339  29.9179  30.0023  30.3011  30.5000  30.5013
    30.6096  30.6110  30.9144  30.9963  31.0347  31.1254  31.2294  31.2998
    31.3920  31.5770  31.5954  31.7400  31.7799  31.9572  32.0064  32.1670
    32.3846  32.4337  32.7475  33.0165  33.0863  33.2503  33.2760  33.4781
    33.4790  33.4917  33.5604  33.5672  33.6939  33.6984  33.7886  33.9110
    33.9592  33.9630  34.0512  34.1729  34.2860  34.6169  34.6533  34.7310
    34.7781  35.0786  35.2553  35.4551  35.5148  35.8063  35.9108  36.0934
    36.1433  36.3800  36.4265  36.4436  36.9051  36.9549  37.0713  37.3119
    37.3129  37.3670  37.4011  37.6473  37.8284  37.8354  38.1836  38.2787
    38.3304  38.5492  38.7864  38.9172  39.0107  39.1762  39.2986  39.3538

     occupation numbers
     1.0000   1.0000   1.0000   1.0000   1.0000   1.0000   1.0000   1.0000
     1.0000   1.0000   1.0000   1.0000   1.0000   1.0000   1.0000   1.0000
     1.0000   1.0000   1.0000   1.0000   1.0000   1.0000   1.0000   1.0000
     1.0000   1.0000   1.0000   1.0000   1.0000   1.0000   1.0000   1.0000
     1.0000   1.0000   1.0000   1.0000   1.0000   1.0000   1.0000   1.0000
     1.0000   1.0000   1.0000   1.0000   1.0000   1.0000   1.0000   1.0000
     1.0000   1.0000   1.0000   1.0000   1.0000   1.0000   1.0000   1.0000
     1.0000   1.0000   1.0000   1.0000   1.0000   1.0000   1.0000   1.0000
     1.0000   1.0000   1.0000   0.0000   0.0000   0.0000   0.0000   0.0000
     0.0000   0.0000   0.0000   0.0000   0.0000   0.0000   0.0000   0.0000
     0.0000   0.0000   0.0000   0.0000   0.0000   0.0000   0.0000   0.0000
     0.0000   0.0000   0.0000   0.0000   0.0000   0.0000   0.0000   0.0000
     0.0000   0.0000   0.0000   0.0000   0.0000   0.0000   0.0000   0.0000
     0.0000   0.0000   0.0000   0.0000   0.0000   0.0000   0.0000   0.0000
     0.0000   0.0000   0.0000   0.0000   0.0000   0.0000   0.0000   0.0000
     0.0000   0.0000   0.0000   0.0000   0.0000   0.0000   0.0000   0.0000
     0.0000   0.0000   0.0000   0.0000   0.0000   0.0000   0.0000   0.0000
     0.0000   0.0000   0.0000   0.0000   0.0000   0.0000   0.0000   0.0000
     0.0000   0.0000   0.0000   0.0000   0.0000   0.0000   0.0000   0.0000
     0.0000   0.0000   0.0000   0.0000   0.0000   0.0000   0.0000   0.0000
     0.0000   0.0000   0.0000   0.0000   0.0000   0.0000   0.0000   0.0000
     0.0000   0.0000   0.0000   0.0000   0.0000   0.0000   0.0000   0.0000
     0.0000   0.0000   0.0000   0.0000   0.0000   0.0000   0.0000   0.0000
     0.0000   0.0000   0.0000   0.0000   0.0000   0.0000   0.0000   0.0000
     0.0000   0.0000   0.0000   0.0000   0.0000   0.0000   0.0000   0.0000
     0.0000   0.0000   0.0000   0.0000   0.0000   0.0000   0.0000   0.0000
     0.0000   0.0000   0.0000   0.0000   0.0000   0.0000   0.0000   0.0000
     0.0000   0.0000   0.0000   0.0000   0.0000   0.0000   0.0000   0.0000
     0.0000   0.0000   0.0000   0.0000   0.0000   0.0000   0.0000   0.0000
     0.0000   0.0000   0.0000   0.0000   0.0000   0.0000   0.0000   0.0000
     0.0000   0.0000   0.0000   0.0000   0.0000   0.0000   0.0000   0.0000
     0.0000   0.0000   0.0000   0.0000   0.0000   0.0000   0.0000   0.0000

[...]

          k = 0.3333-1.0949-0.1801 (  6526 PWs)   bands (ev):

   -15.3604 -15.3542 -15.3450 -15.3398 -15.3288 -15.3248 -15.3223 -15.3171
   -15.3162 -15.3104 -15.3067 -15.3059 -15.3051 -15.3038 -15.2994 -15.1226
   -15.1207 -15.1053 -15.1030 -15.0907 -15.0885 -15.0857 -15.0802 -15.0680
   -15.0674  -5.4716  -5.1860  -5.1451  -4.7865  -4.4907  -4.3222  -4.1136
    -4.1062  -2.7804  -2.5489  -2.0954  -1.9606  -1.5524   2.9575   3.1709
     3.2747   3.4123   3.5654   3.8753   4.0993   4.2127   4.2873   4.5592
     4.6848   4.7826   4.8736   5.0083   5.1053   5.4266   5.5601   5.5802
     6.0604   6.1507   6.2921   6.3666   6.5184   6.7536   6.8783   7.0072
     7.1692   7.3710   7.4843   9.6629   9.7561   9.9734  10.2484  10.6308
    10.8218  10.9469  11.0488  11.1998  11.2637  11.3800  11.5268  11.6711
    11.8638  12.1307  12.7490  12.9820  13.1048  14.2429  14.3127  14.6871
    15.1357  15.3451  15.4841  15.8132  16.0133  16.4039  16.5237  16.6385
    16.7736  17.0523  17.3411  17.6477  17.7531  18.2037  18.2776  18.3542
    18.4834  18.6891  18.9437  19.0555  19.2317  19.2976  19.4522  19.5636
    19.7519  19.8062  19.9415  20.0106  20.2828  20.4645  20.5500  20.7691
    20.8686  21.1560  21.2774  21.6005  21.7291  21.8602  22.0802  22.3216
    22.6498  22.7100  22.8442  22.9659  23.0418  23.2399  23.3741  23.4231
    23.5390  23.6666  23.8575  23.9121  23.9867  24.0949  24.1446  24.3496
    24.5437  24.6855  24.9231  24.9772  25.0326  25.2086  25.3276  25.5313
    25.6245  25.7416  25.8930  26.1995  26.2987  26.4447  26.6632  26.8289
    26.8799  26.9680  27.0250  27.1452  27.3092  27.4738  27.6059  27.7662
    27.9766  28.0337  28.2154  28.4997  28.6244  28.7319  28.8382  29.0496
    29.0970  29.2520  29.4242  29.5582  29.6044  29.6754  29.7412  29.7977
    29.9839  30.1831  30.2415  30.3926  30.5797  30.6357  30.8614  30.9713
    31.0171  31.0863  31.1868  31.3267  31.4785  31.6582  31.8155  31.9769
    32.0269  32.1828  32.3521  32.4300  32.5949  32.8935  32.9550  33.1294
    33.2448  33.4585  33.5005  33.5036  33.5169  33.6146  33.7133  33.7250
    33.7973  34.0428  34.1868  34.3070  34.3509  34.4646  34.6159  34.6711
    35.0184  35.1146  35.1663  35.3149  35.4051  35.5810  35.6803  35.9010
    36.0464  36.1770  36.2905  36.5342  36.6715  36.8639  36.9410  37.0822
    37.2291  37.3664  37.4039  37.5953  37.7337  37.9302  37.9921  38.1234
    38.2236  38.3163  38.4261  38.5776  38.6557  38.7208  38.8287  38.9682

     occupation numbers
     1.0000   1.0000   1.0000   1.0000   1.0000   1.0000   1.0000   1.0000
     1.0000   1.0000   1.0000   1.0000   1.0000   1.0000   1.0000   1.0000
     1.0000   1.0000   1.0000   1.0000   1.0000   1.0000   1.0000   1.0000
     1.0000   1.0000   1.0000   1.0000   1.0000   1.0000   1.0000   1.0000
     1.0000   1.0000   1.0000   1.0000   1.0000   1.0000   1.0000   1.0000
     1.0000   1.0000   1.0000   1.0000   1.0000   1.0000   1.0000   1.0000
     1.0000   1.0000   1.0000   1.0000   1.0000   1.0000   1.0000   1.0000
     1.0000   1.0000   1.0000   1.0000   1.0000   1.0000   1.0000   1.0000
     1.0000   1.0000   1.0000   0.0000   0.0000   0.0000   0.0000   0.0000
     0.0000   0.0000   0.0000   0.0000   0.0000   0.0000   0.0000   0.0000
     0.0000   0.0000   0.0000   0.0000   0.0000   0.0000   0.0000   0.0000
     0.0000   0.0000   0.0000   0.0000   0.0000   0.0000   0.0000   0.0000
     0.0000   0.0000   0.0000   0.0000   0.0000   0.0000   0.0000   0.0000
     0.0000   0.0000   0.0000   0.0000   0.0000   0.0000   0.0000   0.0000
     0.0000   0.0000   0.0000   0.0000   0.0000   0.0000   0.0000   0.0000
     0.0000   0.0000   0.0000   0.0000   0.0000   0.0000   0.0000   0.0000
     0.0000   0.0000   0.0000   0.0000   0.0000   0.0000   0.0000   0.0000
     0.0000   0.0000   0.0000   0.0000   0.0000   0.0000   0.0000   0.0000
     0.0000   0.0000   0.0000   0.0000   0.0000   0.0000   0.0000   0.0000
     0.0000   0.0000   0.0000   0.0000   0.0000   0.0000   0.0000   0.0000
     0.0000   0.0000   0.0000   0.0000   0.0000   0.0000   0.0000   0.0000
     0.0000   0.0000   0.0000   0.0000   0.0000   0.0000   0.0000   0.0000
     0.0000   0.0000   0.0000   0.0000   0.0000   0.0000   0.0000   0.0000
     0.0000   0.0000   0.0000   0.0000   0.0000   0.0000   0.0000   0.0000
     0.0000   0.0000   0.0000   0.0000   0.0000   0.0000   0.0000   0.0000
     0.0000   0.0000   0.0000   0.0000   0.0000   0.0000   0.0000   0.0000
     0.0000   0.0000   0.0000   0.0000   0.0000   0.0000   0.0000   0.0000
     0.0000   0.0000   0.0000   0.0000   0.0000   0.0000   0.0000   0.0000
     0.0000   0.0000   0.0000   0.0000   0.0000   0.0000   0.0000   0.0000
     0.0000   0.0000   0.0000   0.0000   0.0000   0.0000   0.0000   0.0000
     0.0000   0.0000   0.0000   0.0000   0.0000   0.0000   0.0000   0.0000
     0.0000   0.0000   0.0000   0.0000   0.0000   0.0000   0.0000   0.0000

     highest occupied, lowest unoccupied level (ev):     7.9831    8.4849

!    total energy              =   -1332.55549758 Ry
     estimated scf accuracy    <       0.00000090 Ry

     The total energy is the sum of the following terms:
     one-electron contribution =    -353.59876018 Ry
     hartree contribution      =     259.20484663 Ry
     xc contribution           =    -435.16017118 Ry
     ewald contribution        =    -713.19065868 Ry
     one-center paw contrib.   =     -89.81075417 Ry
      -> PAW hartree energy AE =      97.78934145 Ry
      -> PAW hartree energy PS =     -97.04847801 Ry
      -> PAW xc energy AE      =    -134.93675682 Ry
      -> PAW xc energy PS      =      44.38513922 Ry
      -> total E_H with PAW    =     259.94571007 Ry
      -> total E_XC with PAW   =    -525.71178879 Ry

     convergence has been achieved in  20 iterations

     Writing all to output data dir bands_nm/myprefix.save/

     General routines

     Parallel routines

     PAW routines

   This run was terminated on:  20:41:40  15Jul2023

   JOB DONE.