     Program PWSCF v.7.1 starts on 16Jul2023 at 23:10:19

     Reading input from espresso_3732.pwi
Warning: card &CELL ignored
Warning: card / ignored

     Current dimensions of program PWSCF are:
     Max number of different atomic species (ntypx) = 10
     Max number of k-points (npk) =  40000
     Max angular momentum in pseudopotentials (lmaxx) =  4
     file O.pbe-n-kjpaw_psl.0.1.UPF: wavefunction(s)  2P renormalized
     Message from routine setup:
     using ibrav=0 with symmetry is DISCOURAGED, use correct ibrav instead

     K-points division:     npool     =       2
     R & G space division:  proc/nbgrp/npool/nimage =       4
     Subspace diagonalization in iterative solution of the eigenvalue problem:
     one sub-group per band group will be used

     Using Slab Decomposition

     bravais-lattice index     =            0
     lattice parameter (alat)  =      10.5836  a.u.
     unit-cell volume          =    1810.0840 (a.u.)^3
     number of atoms/cell      =           20
     number of atomic types    =            3
     number of electrons       =       176.00
     number of Kohn-Sham states=          256
     kinetic-energy cutoff     =      30.0000  Ry
     charge density cutoff     =     240.0000  Ry
     scf convergence threshold =      1.0E-06
     mixing beta               =       0.7000
     number of iterations used =            8  plain     mixing
     Exchange-correlation= SLA  PW   PBX  PBC
                           (   1   4   3   4   0   0   0)

     celldm(1)=  10.583632  celldm(2)=   0.000000  celldm(3)=   0.000000
     celldm(4)=   0.000000  celldm(5)=   0.000000  celldm(6)=   0.000000

     crystal axes: (cart. coord. in units of alat)
               a(1) = (   1.000000   0.000000   0.000000 )
               a(2) = (   0.000000   1.055179   0.000000 )
               a(3) = (   0.000000   0.000000   1.447000 )

     reciprocal axes: (cart. coord. in units 2 pi/alat)
               b(1) = (  1.000000  0.000000  0.000000 )
               b(2) = (  0.000000  0.947707  0.000000 )
               b(3) = (  0.000000  0.000000  0.691085 )

     PseudoPot. # 1 for Sc read from file:
     /lustre07/scratch/pragov/crystal_structure_design/utils/SSSP/Sc_ONCV_PBE-1.0.oncvpsp.upf
     MD5 check sum: e21af8023abb52e52cb7cd3133e4a229
     Pseudo is Norm-conserving, Zval = 11.0
     Generated using ONCVPSP code by D. R. Hamann
     Using radial grid of 1662 points,  6 beta functions with:
                l(1) =   0
                l(2) =   0
                l(3) =   1
                l(4) =   1
                l(5) =   2
                l(6) =   2

     PseudoPot. # 2 for Bi read from file:
     /lustre07/scratch/pragov/crystal_structure_design/utils/SSSP/Bi_pbe_v1.uspp.F.UPF
     MD5 check sum: cceb9f28ec65b6d7ff33140f5b0b1758
     Pseudo is Ultrasoft + core correction, Zval = 15.0
     Generated by new atomic code, or converted to UPF format
     Using radial grid of  899 points,  6 beta functions with:
                l(1) =   0
                l(2) =   0
                l(3) =   1
                l(4) =   1
                l(5) =   2
                l(6) =   2
     Q(r) pseudized with  6 coefficients,  rinner =    1.000   1.000   1.000
                                                       1.000   1.000

     PseudoPot. # 3 for O  read from file:
     /lustre07/scratch/pragov/crystal_structure_design/utils/SSSP/O.pbe-n-kjpaw_psl.0.1.UPF
     MD5 check sum: 0234752ac141de4415c5fc33072bef88
     Pseudo is Projector augmented-wave + core cor, Zval =  6.0
     Generated using "atomic" code by A. Dal Corso  v.5.0.99 svn rev. 10869
     Shape of augmentation charge: BESSEL
     Using radial grid of 1095 points,  4 beta functions with:
                l(1) =   0
                l(2) =   0
                l(3) =   1
                l(4) =   1
     Q(r) pseudized with 0 coefficients

     atomic species   valence    mass     pseudopotential
        Sc            11.00    44.95591     Sc( 1.00)
        Bi            15.00   208.98040     Bi( 1.00)
        O              6.00    15.99900     O ( 1.00)

      8 Sym. Ops., with inversion, found ( 6 have fractional translation)

                                    s                        frac. trans.

      isym =  1     identity

 cryst.   s( 1) = (     1          0          0      )
                  (     0          1          0      )
                  (     0          0          1      )

 cart.    s( 1) = (  1.0000000  0.0000000  0.0000000 )
                  (  0.0000000  1.0000000  0.0000000 )
                  (  0.0000000  0.0000000  1.0000000 )

      isym =  2     180 deg rotation - cart. axis [0,0,1]

 cryst.   s( 2) = (    -1          0          0      )    f =(  0.0000000 )
                  (     0         -1          0      )       ( -0.0000000 )
                  (     0          0          1      )       ( -0.5000000 )

 cart.    s( 2) = ( -1.0000000  0.0000000  0.0000000 )    f =(  0.0000000 )
                  (  0.0000000 -1.0000000  0.0000000 )       ( -0.0000000 )
                  (  0.0000000  0.0000000  1.0000000 )       ( -0.7235000 )

[...]

      isym =  4     180 deg rotation - cart. axis [1,0,0]

[...]

      isym =  5     inversion

 cryst.   s( 5) = (    -1          0          0      )
                  (     0         -1          0      )
                  (     0          0         -1      )

 cart.    s( 5) = ( -1.0000000  0.0000000  0.0000000 )
                  (  0.0000000 -1.0000000  0.0000000 )
                  (  0.0000000  0.0000000 -1.0000000 )

      isym =  6     inv. 180 deg rotation - cart. axis [0,0,1]

[...]

      isym =  8     inv. 180 deg rotation - cart. axis [1,0,0]

 cryst.   s( 8) = (    -1          0          0      )    f =(  0.5000000 )
                  (     0          1          0      )       (  0.5000000 )
                  (     0          0          1      )       (  0.0000000 )

 cart.    s( 8) = ( -1.0000000  0.0000000  0.0000000 )    f =(  0.5000000 )
                  (  0.0000000  1.0000000  0.0000000 )       (  0.5275893 )
                  (  0.0000000  0.0000000  1.0000000 )       (  0.0000000 )

   Cartesian axes

     site n.     atom                  positions (alat units)
         1           Sc  tau(   1) = (   0.0000000   0.5275893   0.0000000  )
         2           Sc  tau(   2) = (   0.0000000   0.5275893   0.7235000  )
         3           Sc  tau(   3) = (   0.5000000   0.0000000   0.0000000  )
         4           Sc  tau(   4) = (   0.5000000   0.0000000   0.7235000  )
         5           Bi  tau(   5) = (   0.0105670   0.0481214   0.3617500  )
         6           Bi  tau(   6) = (   0.4894330   0.5757107   0.3617500  )
         7           Bi  tau(   7) = (   0.5105670   0.4794679   1.0852500  )
         8           Bi  tau(   8) = (   0.9894330   1.0070571   1.0852500  )
         9           O   tau(   9) = (   0.1153480   0.5667248   1.0852500  )
        10           O   tau(  10) = (   0.1864750   0.8514542   0.0835151  )
        11           O   tau(  11) = (   0.1864750   0.8514542   0.6399850  )
        12           O   tau(  12) = (   0.3135250   0.3238649   0.0835151  )
        13           O   tau(  13) = (   0.3135250   0.3238649   0.6399850  )
        14           O   tau(  14) = (   0.3846520   0.0391355   1.0852500  )
        15           O   tau(  15) = (   0.6153480   1.0160430   0.3617500  )
        16           O   tau(  16) = (   0.6864750   0.7313137   0.8070151  )
        17           O   tau(  17) = (   0.6864750   0.7313137   1.3634850  )
        18           O   tau(  18) = (   0.8135250   0.2037244   0.8070151  )
        19           O   tau(  19) = (   0.8135250   0.2037244   1.3634850  )
        20           O   tau(  20) = (   0.8846520   0.4884538   0.3617500  )

   Crystallographic axes

     site n.     atom                  positions (cryst. coord.)
         1           Sc  tau(   1) = (  0.0000000  0.5000000  0.0000000  )
         2           Sc  tau(   2) = (  0.0000000  0.5000000  0.5000000  )
         3           Sc  tau(   3) = (  0.5000000  0.0000000  0.0000000  )
         4           Sc  tau(   4) = (  0.5000000  0.0000000  0.5000000  )
         5           Bi  tau(   5) = (  0.0105670  0.0456050  0.2500000  )
         6           Bi  tau(   6) = (  0.4894330  0.5456050  0.2500000  )
         7           Bi  tau(   7) = (  0.5105670  0.4543950  0.7500000  )
         8           Bi  tau(   8) = (  0.9894330  0.9543950  0.7500000  )
         9           O   tau(   9) = (  0.1153480  0.5370890  0.7500000  )
        10           O   tau(  10) = (  0.1864750  0.8069290  0.0577160  )
        11           O   tau(  11) = (  0.1864750  0.8069290  0.4422840  )
        12           O   tau(  12) = (  0.3135250  0.3069290  0.0577160  )
        13           O   tau(  13) = (  0.3135250  0.3069290  0.4422840  )
        14           O   tau(  14) = (  0.3846520  0.0370890  0.7500000  )
        15           O   tau(  15) = (  0.6153480  0.9629110  0.2500000  )
        16           O   tau(  16) = (  0.6864750  0.6930710  0.5577160  )
        17           O   tau(  17) = (  0.6864750  0.6930710  0.9422840  )
        18           O   tau(  18) = (  0.8135250  0.1930710  0.5577160  )
        19           O   tau(  19) = (  0.8135250  0.1930710  0.9422840  )
        20           O   tau(  20) = (  0.8846520  0.4629110  0.2500000  )

     number of k points=     8
                       cart. coord. in units 2pi/alat
        k(    1) = (   0.0000000   0.0000000   0.0000000), wk =   0.0740741
        k(    2) = (   0.0000000   0.0000000   0.2303617), wk =   0.1481481
        k(    3) = (   0.0000000   0.3159023   0.0000000), wk =   0.1481481
        k(    4) = (   0.0000000   0.3159023   0.2303617), wk =   0.2962963
        k(    5) = (   0.3333333   0.0000000   0.0000000), wk =   0.1481481
        k(    6) = (   0.3333333   0.0000000   0.2303617), wk =   0.2962963
        k(    7) = (   0.3333333   0.3159023   0.0000000), wk =   0.2962963
        k(    8) = (   0.3333333   0.3159023   0.2303617), wk =   0.5925926

                       cryst. coord.
        k(    1) = (   0.0000000   0.0000000   0.0000000), wk =   0.0740741
        k(    2) = (   0.0000000   0.0000000   0.3333333), wk =   0.1481481
        k(    3) = (   0.0000000   0.3333333   0.0000000), wk =   0.1481481
        k(    4) = (   0.0000000   0.3333333   0.3333333), wk =   0.2962963
        k(    5) = (   0.3333333   0.0000000   0.0000000), wk =   0.1481481
        k(    6) = (   0.3333333   0.0000000   0.3333333), wk =   0.2962963
        k(    7) = (   0.3333333   0.3333333   0.0000000), wk =   0.2962963
        k(    8) = (   0.3333333   0.3333333   0.3333333), wk =   0.5925926

     Check: negative core charge=   -0.000013

     Initial potential from superposition of free atoms

     starting charge     171.9893, renormalised to     176.0000

     negative rho (up, down):  1.692E-01 0.000E+00
     Starting wfcs are  124 randomized atomic wfcs +  132 random wfcs
     Checking if some PAW data can be deallocated...

     Self-consistent Calculation

     iteration #  1     ecut=    30.00 Ry     beta= 0.70
     Davidson diagonalization with overlap

     ethr =  1.00E-02,  avg # of iterations =  6.1

     negative rho (up, down):  1.534E-01 0.000E+00

     total energy              =   -1607.01006487 Ry
     estimated scf accuracy    <       5.02191466 Ry

[...]

     total energy              =   -1609.49135464 Ry
     estimated scf accuracy    <       0.00000105 Ry

     iteration #  9     ecut=    30.00 Ry     beta= 0.70
     Davidson diagonalization with overlap

     ethr =  5.99E-10,  avg # of iterations =  1.1

     negative rho (up, down):  1.603E-01 0.000E+00

     End of self-consistent calculation

          k = 0.0000 0.0000 0.0000 (  5035 PWs)   bands (ev):

   -37.6912 -37.6889 -37.6870 -37.6847 -16.4522 -16.4476 -16.4296 -16.4294
   -16.4120 -16.4017 -16.3314 -16.3303 -16.3280 -16.3160 -16.3014 -16.2947
   -11.9281 -11.8978 -11.8904 -11.8792 -11.8642 -11.8536 -11.8528 -11.8441
   -11.8371 -11.8339 -11.8260 -11.8234 -11.8155 -11.8039 -11.8018 -11.7997
   -11.7841 -11.7684 -11.7459 -11.7429  -7.6403  -6.7430  -6.6869  -6.6565
    -6.4670  -6.3333  -6.2729  -6.2566  -6.2299  -5.9665  -5.8570  -5.8240
     0.3373   0.5949   1.2300   1.9625   5.1883   5.3029   5.3045   6.0869
     6.1814   6.3964   6.5043   6.7072   6.7576   6.9559   6.9778   7.1981
     7.2443   7.2903   7.4904   7.5276   7.5812   8.0376   8.2222   8.3342
     8.3877   8.3954   8.4156   8.5025   8.6924   8.7997   9.0149   9.1273
     9.1929   9.2430   9.2621   9.3020   9.4448   9.9058  10.1293  10.1733
    12.9202  14.1954  14.2065  14.3285  14.3706  14.5194  14.6525  14.6977
    14.7009  14.7672  14.9802  15.0447  15.2432  15.2919  15.3253  15.4826
    15.5207  15.7279  15.7786  15.9273  15.9353  16.1952  16.4030  16.5083
    16.8979  17.0087  17.1452  17.4949  17.8599  18.6240  18.6406  18.6800
    19.4033  19.8060  19.9706  20.3280  20.3751  20.9378  20.9753  21.9717
    21.9951  22.7734  23.0874  23.1885  23.6796  23.7815  24.1741  24.4696
    24.4783  24.6946  24.9753  25.1523  25.1907  25.3739  25.4023  25.6400
    25.8363  25.9256  26.2305  26.6934  26.9287  27.1863  27.3353  27.4462
    28.0200  28.1563  28.2004  28.2381  28.5513  28.9204  29.2025  29.2386
    29.6185  29.6346  29.7996  29.9161  29.9931  30.2202  30.3549  30.9766
    31.0600  31.2964  31.7107  31.7549  32.0129  32.1998  32.2727  32.3967
    32.6827  32.7837  32.9723  32.9841  33.7914  33.8080  33.8100  33.8505
    34.0054  34.0247  34.5360  34.6211  34.7057  34.7210  34.7426  34.9384
    35.0522  35.3970  35.4723  35.7707  35.9078  36.0500  36.2860  36.3285
    36.3288  36.5913  37.0229  37.0397  37.0464  37.0699  37.0951  37.4339
    37.7956  37.8070  38.0936  38.3380  38.4219  38.5711  38.6509  39.2320
    39.3973  39.7140  39.7180  39.9953  40.3021  40.4311  40.4594  40.9136
    40.9880  41.0507  41.2659  41.3479  41.3835  41.4920  42.1307  42.2962
    42.3327  42.4828  42.5498  42.5613  43.0023  43.0439  43.1089  43.1147
    43.3966  43.4034  43.5034  43.6437  43.7673  43.8357  43.9921  44.2723
    44.3164  44.4905  44.5514  44.5767  44.6269  44.8037  45.0164  45.5559

     occupation numbers
     1.0000   1.0000   1.0000   1.0000   1.0000   1.0000   1.0000   1.0000
     1.0000   1.0000   1.0000   1.0000   1.0000   1.0000   1.0000   1.0000
     1.0000   1.0000   1.0000   1.0000   1.0000   1.0000   1.0000   1.0000
     1.0000   1.0000   1.0000   1.0000   1.0000   1.0000   1.0000   1.0000
     1.0000   1.0000   1.0000   1.0000   1.0000   1.0000   1.0000   1.0000
     1.0000   1.0000   1.0000   1.0000   1.0000   1.0000   1.0000   1.0000
     1.0000   1.0000   1.0000   1.0000   1.0000   1.0000   1.0000   1.0000
     1.0000   1.0000   1.0000   1.0000   1.0000   1.0000   1.0000   1.0000
     1.0000   1.0000   1.0000   1.0000   1.0000   1.0000   1.0000   1.0000
     1.0000   1.0000   1.0000   1.0000   1.0000   1.0000   1.0000   1.0000
     1.0000   1.0000   1.0000   1.0000   1.0000   1.0000   1.0000   1.0000
     0.0000   0.0000   0.0000   0.0000   0.0000   0.0000   0.0000   0.0000
     0.0000   0.0000   0.0000   0.0000   0.0000   0.0000   0.0000   0.0000
     0.0000   0.0000   0.0000   0.0000   0.0000   0.0000   0.0000   0.0000
     0.0000   0.0000   0.0000   0.0000   0.0000   0.0000   0.0000   0.0000
     0.0000   0.0000   0.0000   0.0000   0.0000   0.0000   0.0000   0.0000
     0.0000   0.0000   0.0000   0.0000   0.0000   0.0000   0.0000   0.0000
     0.0000   0.0000   0.0000   0.0000   0.0000   0.0000   0.0000   0.0000
     0.0000   0.0000   0.0000   0.0000   0.0000   0.0000   0.0000   0.0000
     0.0000   0.0000   0.0000   0.0000   0.0000   0.0000   0.0000   0.0000
     0.0000   0.0000   0.0000   0.0000   0.0000   0.0000   0.0000   0.0000
     0.0000   0.0000   0.0000   0.0000   0.0000   0.0000   0.0000   0.0000
     0.0000   0.0000   0.0000   0.0000   0.0000   0.0000   0.0000   0.0000
     0.0000   0.0000   0.0000   0.0000   0.0000   0.0000   0.0000   0.0000
     0.0000   0.0000   0.0000   0.0000   0.0000   0.0000   0.0000   0.0000
     0.0000   0.0000   0.0000   0.0000   0.0000   0.0000   0.0000   0.0000
     0.0000   0.0000   0.0000   0.0000   0.0000   0.0000   0.0000   0.0000
     0.0000   0.0000   0.0000   0.0000   0.0000   0.0000   0.0000   0.0000
     0.0000   0.0000   0.0000   0.0000   0.0000   0.0000   0.0000   0.0000
     0.0000   0.0000   0.0000   0.0000   0.0000   0.0000   0.0000   0.0000
     0.0000   0.0000   0.0000   0.0000   0.0000   0.0000   0.0000   0.0000
     0.0000   0.0000   0.0000   0.0000   0.0000   0.0000   0.0000   0.0000

[...]

          k = 0.3333 0.3159 0.2304 (  5027 PWs)   bands (ev):

   -37.6890 -37.6880 -37.6879 -37.6868 -16.4344 -16.4260 -16.4216 -16.4068
   -16.4014 -16.3956 -16.3576 -16.3554 -16.3361 -16.3296 -16.3100 -16.3066
   -11.8950 -11.8855 -11.8847 -11.8747 -11.8734 -11.8699 -11.8566 -11.8525
   -11.8265 -11.8240 -11.8226 -11.8208 -11.8137 -11.8134 -11.8120 -11.8092
   -11.7724 -11.7682 -11.7612 -11.7584  -7.0552  -6.7976  -6.6681  -6.5772
    -6.5267  -6.4151  -6.3432  -6.3280  -6.1651  -6.1207  -6.0903  -6.0171
     0.6414   0.8069   0.8668   1.1394   5.8830   5.9455   6.1611   6.3893
     6.4306   6.5169   6.6733   6.7329   6.8944   6.9685   7.0106   7.1720
     7.3262   7.5139   7.6258   7.7822   7.8150   7.9110   8.0004   8.0897
     8.2762   8.3608   8.3868   8.4796   8.5067   8.5954   8.8419   8.9234
     8.9505   9.0002   9.0454   9.0777   9.5490   9.6365   9.9069   9.9856
    13.4774  13.6900  13.7157  13.9017  14.2121  14.2782  14.4409  14.4862
    14.8023  14.8230  14.9030  14.9632  15.1238  15.1859  15.2778  15.3851
    15.4144  15.5844  15.7861  15.8535  16.0901  16.1280  16.2284  16.2898
    17.0267  17.0905  17.1309  17.3403  17.7348  18.0572  18.1026  18.3732
    20.9532  21.0637  21.3039  21.5240  21.6200  21.9223  21.9477  22.1089
    22.4305  22.5158  22.6407  22.7780  23.0811  23.3396  23.6458  23.8076
    24.0439  24.2067  24.3154  24.6416  24.9082  25.1202  25.3595  25.4806
    25.6214  25.8247  25.8669  26.4808  26.5211  26.7262  27.2766  27.4320
    27.6692  27.9451  28.2501  28.3447  28.6049  28.6483  29.1155  29.3836
    29.6952  29.8682  30.1541  30.3758  30.6440  30.7532  30.8815  31.1025
    31.2222  31.3195  31.7842  31.8552  31.9798  32.4013  32.4909  32.6437
    32.7674  33.1086  33.3086  33.4245  33.5328  33.6437  33.8907  34.0248
    34.3197  34.6191  34.6467  34.8369  34.9963  35.0900  35.1510  35.2584
    35.6377  35.6678  35.9325  36.1324  36.3750  36.5915  36.8082  36.8667
    37.0021  37.0382  37.0411  37.0511  37.0602  37.1782  37.4189  37.5271
    37.6274  37.9071  38.1294  38.2661  38.4423  38.6205  38.8697  38.9230
    39.0386  39.1253  39.2744  39.5954  39.7446  39.9524  40.0166  40.0932
    40.4524  40.7189  40.7527  40.9736  41.0505  41.3302  41.4609  41.6273
    41.8610  41.9897  42.1198  42.1685  42.3393  42.3552  42.6465  42.7325
    42.8937  43.0838  43.1769  43.3899  43.4386  43.4998  43.5191  44.0418
    44.1038  44.1781  44.3098  44.5614  44.7545  45.0505  45.1062  45.2133

     occupation numbers
     1.0000   1.0000   1.0000   1.0000   1.0000   1.0000   1.0000   1.0000
     1.0000   1.0000   1.0000   1.0000   1.0000   1.0000   1.0000   1.0000
     1.0000   1.0000   1.0000   1.0000   1.0000   1.0000   1.0000   1.0000
     1.0000   1.0000   1.0000   1.0000   1.0000   1.0000   1.0000   1.0000
     1.0000   1.0000   1.0000   1.0000   1.0000   1.0000   1.0000   1.0000
     1.0000   1.0000   1.0000   1.0000   1.0000   1.0000   1.0000   1.0000
     1.0000   1.0000   1.0000   1.0000   1.0000   1.0000   1.0000   1.0000
     1.0000   1.0000   1.0000   1.0000   1.0000   1.0000   1.0000   1.0000
     1.0000   1.0000   1.0000   1.0000   1.0000   1.0000   1.0000   1.0000
     1.0000   1.0000   1.0000   1.0000   1.0000   1.0000   1.0000   1.0000
     1.0000   1.0000   1.0000   1.0000   1.0000   1.0000   1.0000   1.0000
     0.0000   0.0000   0.0000   0.0000   0.0000   0.0000   0.0000   0.0000
     0.0000   0.0000   0.0000   0.0000   0.0000   0.0000   0.0000   0.0000
     0.0000   0.0000   0.0000   0.0000   0.0000   0.0000   0.0000   0.0000
     0.0000   0.0000   0.0000   0.0000   0.0000   0.0000   0.0000   0.0000
     0.0000   0.0000   0.0000   0.0000   0.0000   0.0000   0.0000   0.0000
     0.0000   0.0000   0.0000   0.0000   0.0000   0.0000   0.0000   0.0000
     0.0000   0.0000   0.0000   0.0000   0.0000   0.0000   0.0000   0.0000
     0.0000   0.0000   0.0000   0.0000   0.0000   0.0000   0.0000   0.0000
     0.0000   0.0000   0.0000   0.0000   0.0000   0.0000   0.0000   0.0000
     0.0000   0.0000   0.0000   0.0000   0.0000   0.0000   0.0000   0.0000
     0.0000   0.0000   0.0000   0.0000   0.0000   0.0000   0.0000   0.0000
     0.0000   0.0000   0.0000   0.0000   0.0000   0.0000   0.0000   0.0000
     0.0000   0.0000   0.0000   0.0000   0.0000   0.0000   0.0000   0.0000
     0.0000   0.0000   0.0000   0.0000   0.0000   0.0000   0.0000   0.0000
     0.0000   0.0000   0.0000   0.0000   0.0000   0.0000   0.0000   0.0000
     0.0000   0.0000   0.0000   0.0000   0.0000   0.0000   0.0000   0.0000
     0.0000   0.0000   0.0000   0.0000   0.0000   0.0000   0.0000   0.0000
     0.0000   0.0000   0.0000   0.0000   0.0000   0.0000   0.0000   0.0000
     0.0000   0.0000   0.0000   0.0000   0.0000   0.0000   0.0000   0.0000
     0.0000   0.0000   0.0000   0.0000   0.0000   0.0000   0.0000   0.0000
     0.0000   0.0000   0.0000   0.0000   0.0000   0.0000   0.0000   0.0000

     highest occupied, lowest unoccupied level (ev):    10.1976   12.9202

!    total energy              =   -1609.49135487 Ry
     estimated scf accuracy    <       0.00000001 Ry

     The total energy is the sum of the following terms:
     one-electron contribution =    -307.21752565 Ry
     hartree contribution      =     266.25878446 Ry
     xc contribution           =    -395.84222970 Ry
     ewald contribution        =   -1058.37550227 Ry
     one-center paw contrib.   =    -114.31488171 Ry
      -> PAW hartree energy AE =       0.00000000 Ry
      -> PAW hartree energy PS =       0.00000000 Ry
      -> PAW xc energy AE      =       0.00000000 Ry
      -> PAW xc energy PS      =       0.00000000 Ry
      -> total E_H with PAW    =     266.25878446 Ry
      -> total E_XC with PAW   =    -395.84222970 Ry

     convergence has been achieved in   9 iterations

     Writing all to output data dir bands_nm/myprefix.save/

     General routines

     Parallel routines

     PAW routines

   This run was terminated on:  23:10:59  16Jul2023

   JOB DONE.