     Program PWSCF v.7.1 starts on 15Jul2023 at 20: 7:50

     Reading input from espresso_3000.pwi
Warning: card &CELL ignored
Warning: card / ignored

     Current dimensions of program PWSCF are:
     Max number of different atomic species (ntypx) = 10
     Max number of k-points (npk) =  40000
     Max angular momentum in pseudopotentials (lmaxx) =  4
     file O.pbe-n-kjpaw_psl.0.1.UPF: wavefunction(s)  2P renormalized
     Message from routine setup:
     using ibrav=0 with symmetry is DISCOURAGED, use correct ibrav instead

     K-points division:     npool     =       2
     R & G space division:  proc/nbgrp/npool/nimage =       4
     Subspace diagonalization in iterative solution of the eigenvalue problem:
     one sub-group per band group will be used

     Using Slab Decomposition

     bravais-lattice index     =            0
     lattice parameter (alat)  =      14.1603  a.u.
     unit-cell volume          =    1975.4627 (a.u.)^3
     number of atoms/cell      =           18
     number of atomic types    =            5
     number of electrons       =       164.00
     number of Kohn-Sham states=          256
     kinetic-energy cutoff     =      30.0000  Ry
     charge density cutoff     =     240.0000  Ry
     scf convergence threshold =      1.0E-06
     mixing beta               =       0.7000
     number of iterations used =            8  plain     mixing
     Exchange-correlation=  SLA  PW   PBX  PBC
                           (   1   4   3   4   0   0   0)

     celldm(1)=  14.160263  celldm(2)=   0.000000  celldm(3)=   0.000000
     celldm(4)=   0.000000  celldm(5)=   0.000000  celldm(6)=   0.000000

     crystal axes: (cart. coord. in units of alat)
               a(1) = (   1.000000   0.000000   0.000000 )
               a(2) = (   0.030539   0.999534   0.000000 )
               a(3) = (  -0.505255  -0.510092   0.696077 )

     reciprocal axes: (cart. coord. in units 2 pi/alat)
               b(1) = (  1.000000 -0.030553  0.703470 )
               b(2) = (  0.000000  1.000467  0.733152 )
               b(3) = (  0.000000  0.000000  1.436622 )

     PseudoPot. # 1 for Cs read from file:
     /lustre07/scratch/pragov/crystal_structure_design/utils/SSSP/Cs_pbe_v1.uspp.F.UPF
     MD5 check sum: 3476d69cb178dfad3ffaa59df4e07ca4
     Pseudo is Ultrasoft + core correction, Zval =  9.0
     Generated by new atomic code, or converted to UPF format
     Using radial grid of  905 points,  6 beta functions with:
                l(1) =   0
                l(2) =   0
                l(3) =   1
                l(4) =   1
                l(5) =   2
                l(6) =   2
     Q(r) pseudized with  6 coefficients,  rinner =    1.500   1.500   1.500
                                                       1.500   1.500

     PseudoPot. # 2 for Ti read from file:
     /lustre07/scratch/pragov/crystal_structure_design/utils/SSSP/ti_pbe_v1.4.uspp.F.UPF
     MD5 check sum: 88a00a6731bd790ddea75d31a80cb452
     Pseudo is Ultrasoft + core correction, Zval = 12.0
     Generated by new atomic code, or converted to UPF format
     Using radial grid of  851 points,  6 beta functions with:
                l(1) =   0
                l(2) =   0
                l(3) =   1
                l(4) =   1
                l(5) =   2
                l(6) =   2
     Q(r) pseudized with  6 coefficients,  rinner =    1.000   1.000   1.000
                                                       1.000   1.000

     PseudoPot. # 3 for Zn read from file:
     /lustre07/scratch/pragov/crystal_structure_design/utils/SSSP/Zn_pbe_v1.uspp.F.UPF
     MD5 check sum: df62231357ef9e81f77b2b3087fa5675
     Pseudo is Ultrasoft, Zval = 20.0
     Generated by new atomic code, or converted to UPF format
     Using radial grid of  943 points,  6 beta functions with:
                l(1) =   0
                l(2) =   0
                l(3) =   1
                l(4) =   1
                l(5) =   2
                l(6) =   2
     Q(r) pseudized with  8 coefficients,  rinner =    1.100   1.100   1.100
                                                       1.100   1.100

     PseudoPot. # 4 for O  read from file:
     /lustre07/scratch/pragov/crystal_structure_design/utils/SSSP/O.pbe-n-kjpaw_psl.0.1.UPF
     MD5 check sum: 0234752ac141de4415c5fc33072bef88
     Pseudo is Projector augmented-wave + core cor, Zval =  6.0
     Generated using "atomic" code by A. Dal Corso  v.5.0.99 svn rev. 10869
     Shape of augmentation charge: BESSEL
     Using radial grid of 1095 points,  4 beta functions with:
                l(1) =   0
                l(2) =   0
                l(3) =   1
                l(4) =   1
     Q(r) pseudized with 0 coefficients

     PseudoPot. # 5 for F  read from file:
     /lustre07/scratch/pragov/crystal_structure_design/utils/SSSP/f_pbe_v1.4.uspp.F.UPF
     MD5 check sum: 4c38b6a325caf53ec0e86aed9459de46
     Pseudo is Ultrasoft, Zval =  7.0
     Generated by new atomic code, or converted to UPF format
     Using radial grid of  799 points,  4 beta functions with:
                l(1) =   0
                l(2) =   0
                l(3) =   1
                l(4) =   1
     Q(r) pseudized with  8 coefficients,  rinner =    0.950   0.950   0.950

     atomic species   valence    mass     pseudopotential
        Cs             9.00   132.90545     Cs( 1.00)
        Ti            12.00    47.86700     Ti( 1.00)
        Zn            20.00    65.38000     Zn( 1.00)
        O              6.00    15.99900     O ( 1.00)
        F              7.00    18.99840     F ( 1.00)

      2 Sym. Ops., with inversion, found

                                    s                        frac. trans.

      isym =  1     identity

 cryst.   s( 1) = (     1          0          0      )
                  (     0          1          0      )
                  (     0          0          1      )

 cart.    s( 1) = (  1.0000000  0.0000000 -0.0000000 )
                  (  0.0000000  1.0000000  0.0000000 )
                  (  0.0000000  0.0000000  1.0000000 )

      isym =  2     inversion

 cryst.   s( 2) = (    -1          0          0      )
                  (     0         -1          0      )
                  (     0          0         -1      )

 cart.    s( 2) = ( -1.0000000  0.0000000  0.0000000 )
                  (  0.0000000 -1.0000000  0.0000000 )
                  (  0.0000000  0.0000000 -1.0000000 )

   Cartesian axes

     site n.     atom                  positions (alat units)
         1           Cs  tau(   1) = (  -0.2412460  -0.0065387   0.5220580  )
         2           Cs  tau(   2) = (   0.7665304   0.4959800   0.1740193  )
         3           Ti  tau(   3) = (   0.2626422   0.2447206   0.3480386  )
         4           Ti  tau(   4) = (   0.5000000   0.0000000   0.0000000  )
         5           Zn  tau(   5) = (   0.0000000   0.0000000   0.0000000  )
         6           Zn  tau(   6) = (   0.2473727  -0.2550461   0.3480386  )
         7           O   tau(   7) = (   0.4223231   0.1621288   0.1740193  )
         8           O   tau(   8) = (   0.1029612   0.3273125   0.5220580  )
         9           F   tau(   9) = (   0.7411126   0.0086507   0.1022043  )
        10           F   tau(  10) = (   0.4440047  -0.3118182   0.5220580  )
        11           F   tau(  11) = (   0.4646710   0.2936675   0.5075517  )
        12           F   tau(  12) = (   0.0498391  -0.3096525   0.5365642  )
        13           F   tau(  13) = (   0.2466322   0.0039847   0.4502430  )
        14           F   tau(  14) = (   0.2786521   0.4854566   0.2458343  )
        15           F   tau(  15) = (   0.4754452   0.7990938   0.1595131  )
        16           F   tau(  16) = (   0.0606134   0.1957738   0.1885256  )
        17           F   tau(  17) = (   0.0812797   0.8012595   0.1740193  )
        18           F   tau(  18) = (  -0.2158283   0.4807906   0.5938730  )

   Crystallographic axes

     site n.     atom                  positions (cryst. coord.)
         1           Cs  tau(   1) = (  0.1262060  0.3762060  0.7500000  )
         2           Cs  tau(   2) = (  0.8737940  0.6237940  0.2500000  )
         3           Ti  tau(   3) = (  0.5000000  0.5000000  0.5000000  )
         4           Ti  tau(   4) = (  0.5000000  0.0000000  0.0000000  )
         5           Zn  tau(   5) = (  0.0000000  0.0000000  0.0000000  )
         6           Zn  tau(   6) = (  0.5000000  0.0000000  0.5000000  )
         7           O   tau(   7) = (  0.5397870  0.2897870  0.2500000  )
         8           O   tau(   8) = (  0.4602130  0.7102130  0.7500000  )
         9           F   tau(   9) = (  0.8127460  0.0835860  0.1468290  )
        10           F   tau(  10) = (  0.8207840  0.0707840  0.7500000  )
        11           F   tau(  11) = (  0.8127460  0.6659170  0.7291600  )
        12           F   tau(  12) = (  0.4367570  0.0835860  0.7708400  )
        13           F   tau(  13) = (  0.5632430  0.3340830  0.6468290  )
        14           F   tau(  14) = (  0.4367570  0.6659170  0.3531710  )
        15           F   tau(  15) = (  0.5632430  0.9164140  0.2291600  )
        16           F   tau(  16) = (  0.1872540  0.3340830  0.2708400  )
        17           F   tau(  17) = (  0.1792160  0.9292160  0.2500000  )
        18           F   tau(  18) = (  0.1872540  0.9164140  0.8531710  )

     number of k points=    14
                       cart. coord. in units 2pi/alat
        k(    1) = (   0.0000000   0.0000000   0.0000000), wk =   0.0740741
        k(    2) = (   0.0000000   0.0000000   0.4788740), wk =   0.1481481
        k(    3) = (   0.0000000   0.3334889   0.2443839), wk =   0.1481481
        k(    4) = (   0.0000000   0.3334889   0.7232580), wk =   0.1481481
        k(    5) = (   0.0000000   0.3334889  -0.2344901), wk =   0.1481481
        k(    6) = (   0.3333333  -0.0101844   0.2344901), wk =   0.1481481
        k(    7) = (   0.3333333  -0.0101844   0.7133641), wk =   0.1481481
        k(    8) = (   0.3333333  -0.0101844  -0.2443839), wk =   0.1481481
        k(    9) = (   0.3333333   0.3233045   0.4788740), wk =   0.1481481
        k(   10) = (   0.3333333   0.3233045   0.9577481), wk =   0.1481481
        k(   11) = (   0.3333333   0.3233045   0.0000000), wk =   0.1481481
        k(   12) = (   0.3333333  -0.3436733  -0.0098938), wk =   0.1481481
        k(   13) = (   0.3333333  -0.3436733   0.4689802), wk =   0.1481481
        k(   14) = (   0.3333333  -0.3436733  -0.4887679), wk =   0.1481481

                       cryst. coord.
        k(    1) = (   0.0000000   0.0000000   0.0000000), wk =   0.0740741
        k(    2) = (   0.0000000   0.0000000   0.3333333), wk =   0.1481481
        k(    3) = (   0.0000000   0.3333333  -0.0000000), wk =   0.1481481
        k(    4) = (   0.0000000   0.3333333   0.3333333), wk =   0.1481481
        k(    5) = (   0.0000000   0.3333333  -0.3333333), wk =   0.1481481
        k(    6) = (   0.3333333   0.0000000  -0.0000000), wk =   0.1481481
        k(    7) = (   0.3333333   0.0000000   0.3333333), wk =   0.1481481
        k(    8) = (   0.3333333   0.0000000  -0.3333333), wk =   0.1481481
        k(    9) = (   0.3333333   0.3333333  -0.0000000), wk =   0.1481481
        k(   10) = (   0.3333333   0.3333333   0.3333333), wk =   0.1481481
        k(   11) = (   0.3333333   0.3333333  -0.3333333), wk =   0.1481481
        k(   12) = (   0.3333333  -0.3333333  -0.0000000), wk =   0.1481481
        k(   13) = (   0.3333333  -0.3333333   0.3333333), wk =   0.1481481
        k(   14) = (   0.3333333  -0.3333333  -0.3333333), wk =   0.1481481

     Check: negative core charge=   -0.000005

     Initial potential from superposition of free atoms

     starting charge     161.9209, renormalised to     164.0000

     negative rho (up, down):  2.413E-03 0.000E+00
     Starting wfcs are  120 randomized atomic wfcs +  136 random wfcs
     Checking if some PAW data can be deallocated...

     Self-consistent Calculation

     iteration #  1     ecut=    30.00 Ry     beta= 0.70
     Davidson diagonalization with overlap

     ethr =  1.00E-02,  avg # of iterations = 10.9

     total energy              =   -1631.00889735 Ry
     estimated scf accuracy    <     264.61609838 Ry

[...]

     negative rho (up, down):  4.956E-04 0.000E+00

[...]

     total energy              =   -1858.81106844 Ry
     estimated scf accuracy    <       0.00000880 Ry

     iteration # 27     ecut=    30.00 Ry     beta= 0.70
     Davidson diagonalization with overlap

     ethr =  5.37E-09,  avg # of iterations =  1.0

     negative rho (up, down):  2.358E-03 0.000E+00

     End of self-consistent calculation

          k = 0.0000 0.0000 0.0000 (  5497 PWs)   bands (ev):

  -119.0662-119.0655 -73.2440 -73.2408 -73.2284 -73.2222 -73.1845 -73.1789
   -52.7874 -52.7837 -29.1472 -29.1470 -29.1416 -29.1410 -28.9723 -28.8545
   -18.2493 -18.0415 -18.0260 -17.8731 -17.7730 -17.7685 -17.7372 -17.7323
   -17.2297 -17.1926 -15.3433 -15.3138 -12.3079 -11.3477  -2.4448  -2.4288
    -2.4025  -2.1628  -2.1532  -2.1117  -1.9544  -1.7930  -1.5286  -1.5132
    -1.4569  -0.9319  -0.6724  -0.6537  -0.5537  -0.3106  -0.2203  -0.1427
    -0.1349  -0.1322  -0.0718   0.0402   0.2265   0.2756   0.2765   0.4816
     0.5031   0.5392   0.5686   0.5942   0.7667   0.8735   0.8861   0.9689
     1.0620   1.1652   1.2127   1.4019   1.4212   1.4502   1.6516   1.7465
     1.8659   1.9969   2.2110   2.2847   2.4877   2.8133   3.2477   3.3333
     3.3718   3.4168   6.7412   6.7649   6.8755   6.9845   7.8126   8.2732
     8.4436   8.6828   9.1651   9.7428  10.9564  11.2567  11.3139  11.6632
    11.6951  11.7852  11.9677  12.0750  12.1186  12.2433  12.3061  13.5413
    13.5959  13.7793  14.0612  15.1980  15.5862  15.5939  15.7916  15.8292
    15.9865  16.2507  16.2675  17.2383  17.4170  17.5686  17.7118  17.9455
    18.0756  18.1302  19.0084  19.0452  19.1727  19.2171  19.3507  19.7554
    19.8600  20.0311  20.1104  20.1621  20.3431  20.5454  20.7427  21.0453
    21.2513  21.3449  21.6137  22.1159  22.2139  22.2922  22.4277  22.4930
    22.7669  22.8169  22.9324  23.1093  23.1180  23.7977  23.8166  24.1799
    24.2481  24.4280  24.5606  24.6192  24.6408  24.7362  24.8828  25.0593
    25.5109  25.5810  25.6709  26.0707  26.6143  26.6165  26.7477  26.8825
    27.0331  27.1839  27.4466  27.5641  27.8516  28.7300  29.0109  29.0440
    29.2028  29.3894  29.4057  29.4662  29.4683  29.4972  29.6745  29.8817
    30.0795  30.5353  30.8294  31.0597  31.1074  31.4468  31.6713  31.7611
    31.7851  32.0886  32.1481  32.4249  32.5416  32.6582  32.8810  33.0332
    33.1416  33.4846  33.6090  33.7310  33.7597  33.9410  34.2602  34.3302
    34.4735  34.6814  34.8564  35.0182  35.0721  35.1207  35.2925  35.3772
    35.7425  35.8609  35.9703  36.0303  36.1476  36.1554  36.4698  36.5212
    36.5535  37.0468  37.0930  37.4362  37.6662  37.8235  37.9153  38.1237
    38.2394  38.2723  38.3498  38.3745  38.6468  39.0950  39.1156  39.1840
    39.3932  39.9749  40.1267  40.2620  40.6219  40.8938  41.0881  41.0988
    41.3784  41.4816  41.8391  41.9282  41.9316  41.9762  41.9776  42.1428

     occupation numbers
     1.0000   1.0000   1.0000   1.0000   1.0000   1.0000   1.0000   1.0000
     1.0000   1.0000   1.0000   1.0000   1.0000   1.0000   1.0000   1.0000
     1.0000   1.0000   1.0000   1.0000   1.0000   1.0000   1.0000   1.0000
     1.0000   1.0000   1.0000   1.0000   1.0000   1.0000   1.0000   1.0000
     1.0000   1.0000   1.0000   1.0000   1.0000   1.0000   1.0000   1.0000
     1.0000   1.0000   1.0000   1.0000   1.0000   1.0000   1.0000   1.0000
     1.0000   1.0000   1.0000   1.0000   1.0000   1.0000   1.0000   1.0000
     1.0000   1.0000   1.0000   1.0000   1.0000   1.0000   1.0000   1.0000
     1.0000   1.0000   1.0000   1.0000   1.0000   1.0000   1.0000   1.0000
     1.0000   1.0000   1.0000   1.0000   1.0000   1.0000   1.0000   1.0000
     1.0000   1.0000   0.0000   0.0000   0.0000   0.0000   0.0000   0.0000
     0.0000   0.0000   0.0000   0.0000   0.0000   0.0000   0.0000   0.0000
     0.0000   0.0000   0.0000   0.0000   0.0000   0.0000   0.0000   0.0000
     0.0000   0.0000   0.0000   0.0000   0.0000   0.0000   0.0000   0.0000
     0.0000   0.0000   0.0000   0.0000   0.0000   0.0000   0.0000   0.0000
     0.0000   0.0000   0.0000   0.0000   0.0000   0.0000   0.0000   0.0000
     0.0000   0.0000   0.0000   0.0000   0.0000   0.0000   0.0000   0.0000
     0.0000   0.0000   0.0000   0.0000   0.0000   0.0000   0.0000   0.0000
     0.0000   0.0000   0.0000   0.0000   0.0000   0.0000   0.0000   0.0000
     0.0000   0.0000   0.0000   0.0000   0.0000   0.0000   0.0000   0.0000
     0.0000   0.0000   0.0000   0.0000   0.0000   0.0000   0.0000   0.0000
     0.0000   0.0000   0.0000   0.0000   0.0000   0.0000   0.0000   0.0000
     0.0000   0.0000   0.0000   0.0000   0.0000   0.0000   0.0000   0.0000
     0.0000   0.0000   0.0000   0.0000   0.0000   0.0000   0.0000   0.0000
     0.0000   0.0000   0.0000   0.0000   0.0000   0.0000   0.0000   0.0000
     0.0000   0.0000   0.0000   0.0000   0.0000   0.0000   0.0000   0.0000
     0.0000   0.0000   0.0000   0.0000   0.0000   0.0000   0.0000   0.0000
     0.0000   0.0000   0.0000   0.0000   0.0000   0.0000   0.0000   0.0000
     0.0000   0.0000   0.0000   0.0000   0.0000   0.0000   0.0000   0.0000
     0.0000   0.0000   0.0000   0.0000   0.0000   0.0000   0.0000   0.0000
     0.0000   0.0000   0.0000   0.0000   0.0000   0.0000   0.0000   0.0000
     0.0000   0.0000   0.0000   0.0000   0.0000   0.0000   0.0000   0.0000

[...]

          k = 0.3333-0.3437-0.4888 (  5462 PWs)   bands (ev):

  -119.0657-119.0649 -73.2405 -73.2377 -73.2276 -73.2263 -73.1802 -73.1746
   -52.7866 -52.7843 -29.1459 -29.1458 -29.1428 -29.1423 -28.9434 -28.8844
   -18.1533 -18.0721 -17.9840 -17.9071 -17.8746 -17.8329 -17.7016 -17.6941
   -17.2131 -17.1943 -15.3316 -15.3258 -12.0874 -11.6078  -2.3719  -2.3614
    -2.2722  -2.1945  -2.1571  -2.0966  -1.7969  -1.4640  -1.3941  -1.3005
    -1.2891  -0.8050  -0.7967  -0.7668  -0.6915  -0.5793  -0.5499  -0.5117
    -0.4805  -0.1770  -0.0950  -0.0727   0.1935   0.1944   0.2203   0.3185
     0.3774   0.5474   0.6443   0.7156   0.8711   0.8827   1.0982   1.1073
     1.1664   1.2217   1.3162   1.3285   1.4760   1.4979   1.5687   1.7689
     1.9091   2.0025   2.2175   2.4449   2.4978   2.8929   3.0862   3.1595
     3.2316   3.2623   6.9095   6.9173   7.1379   7.1462   7.9105   8.0238
     8.7557   9.1022   9.2342   9.8626  10.7773  11.2165  11.2403  11.2761
    11.3493  11.4515  11.5626  12.5303  12.7195  12.8251  13.0339  13.1919
    13.2711  13.4332  14.2163  14.4827  14.5630  15.4278  15.6121  15.9063
    16.1143  16.2351  16.4115  16.8194  17.3932  17.8550  17.9237  18.0821
    18.1634  18.4444  18.6212  18.8008  19.2080  19.3597  19.5716  19.5917
    19.9900  20.1468  20.2220  20.2446  20.4261  20.4916  20.6274  21.1022
    21.2748  21.6301  21.7024  22.0947  22.2697  22.3820  22.3844  22.5237
    22.6515  23.0747  23.3408  23.3565  23.4300  23.4618  23.8937  23.9688
    24.0170  24.1276  24.3303  24.4530  24.5088  24.6658  25.2167  25.3057
    25.3414  25.5507  25.8530  26.1347  26.3670  26.5367  27.0745  27.1126
    27.2240  27.2386  27.4739  27.8249  27.9508  28.2071  28.4227  28.5479
    28.9890  29.1533  29.2530  29.7213  29.8097  29.9709  30.0277  30.1244
    30.4266  30.5704  30.6846  30.6877  31.3115  31.4169  31.5338  31.6207
    31.8703  32.0398  32.3850  32.3869  32.4794  32.9993  33.0248  33.0425
    33.1130  33.3208  33.5947  33.6121  33.8001  33.8966  34.0131  34.2875
    34.5137  34.5811  34.6496  34.6846  35.1258  35.2757  35.3127  35.4986
    35.8776  35.8813  36.0438  36.1702  36.2501  36.2731  36.4225  36.7068
    36.7599  36.9940  37.4890  37.4933  37.6833  37.7497  37.7683  38.1429
    38.1636  38.8142  38.8170  38.8749  39.0137  39.1254  39.2739  39.2940
    39.6939  39.8180  40.1258  40.4901  40.5739  40.6178  40.7551  40.9339
    40.9486  41.1317  41.2265  41.4759  41.5981  41.7787  41.8277  41.9844

     occupation numbers
     1.0000   1.0000   1.0000   1.0000   1.0000   1.0000   1.0000   1.0000
     1.0000   1.0000   1.0000   1.0000   1.0000   1.0000   1.0000   1.0000
     1.0000   1.0000   1.0000   1.0000   1.0000   1.0000   1.0000   1.0000
     1.0000   1.0000   1.0000   1.0000   1.0000   1.0000   1.0000   1.0000
     1.0000   1.0000   1.0000   1.0000   1.0000   1.0000   1.0000   1.0000
     1.0000   1.0000   1.0000   1.0000   1.0000   1.0000   1.0000   1.0000
     1.0000   1.0000   1.0000   1.0000   1.0000   1.0000   1.0000   1.0000
     1.0000   1.0000   1.0000   1.0000   1.0000   1.0000   1.0000   1.0000
     1.0000   1.0000   1.0000   1.0000   1.0000   1.0000   1.0000   1.0000
     1.0000   1.0000   1.0000   1.0000   1.0000   1.0000   1.0000   1.0000
     1.0000   1.0000   0.0000   0.0000   0.0000   0.0000   0.0000   0.0000
     0.0000   0.0000   0.0000   0.0000   0.0000   0.0000   0.0000   0.0000
     0.0000   0.0000   0.0000   0.0000   0.0000   0.0000   0.0000   0.0000
     0.0000   0.0000   0.0000   0.0000   0.0000   0.0000   0.0000   0.0000
     0.0000   0.0000   0.0000   0.0000   0.0000   0.0000   0.0000   0.0000
     0.0000   0.0000   0.0000   0.0000   0.0000   0.0000   0.0000   0.0000
     0.0000   0.0000   0.0000   0.0000   0.0000   0.0000   0.0000   0.0000
     0.0000   0.0000   0.0000   0.0000   0.0000   0.0000   0.0000   0.0000
     0.0000   0.0000   0.0000   0.0000   0.0000   0.0000   0.0000   0.0000
     0.0000   0.0000   0.0000   0.0000   0.0000   0.0000   0.0000   0.0000
     0.0000   0.0000   0.0000   0.0000   0.0000   0.0000   0.0000   0.0000
     0.0000   0.0000   0.0000   0.0000   0.0000   0.0000   0.0000   0.0000
     0.0000   0.0000   0.0000   0.0000   0.0000   0.0000   0.0000   0.0000
     0.0000   0.0000   0.0000   0.0000   0.0000   0.0000   0.0000   0.0000
     0.0000   0.0000   0.0000   0.0000   0.0000   0.0000   0.0000   0.0000
     0.0000   0.0000   0.0000   0.0000   0.0000   0.0000   0.0000   0.0000
     0.0000   0.0000   0.0000   0.0000   0.0000   0.0000   0.0000   0.0000
     0.0000   0.0000   0.0000   0.0000   0.0000   0.0000   0.0000   0.0000
     0.0000   0.0000   0.0000   0.0000   0.0000   0.0000   0.0000   0.0000
     0.0000   0.0000   0.0000   0.0000   0.0000   0.0000   0.0000   0.0000
     0.0000   0.0000   0.0000   0.0000   0.0000   0.0000   0.0000   0.0000
     0.0000   0.0000   0.0000   0.0000   0.0000   0.0000   0.0000   0.0000

     highest occupied, lowest unoccupied level (ev):     3.4631    6.7036

!    total energy              =   -1858.81106973 Ry
     estimated scf accuracy    <       0.00000027 Ry

     The total energy is the sum of the following terms:
     one-electron contribution =   -1703.00258378 Ry
     hartree contribution      =     920.02017314 Ry
     xc contribution           =    -289.58423181 Ry
     ewald contribution        =    -767.19235740 Ry
     one-center paw contrib.   =     -19.05206989 Ry
      -> PAW hartree energy AE =       0.00000000 Ry
      -> PAW hartree energy PS =       0.00000000 Ry
      -> PAW xc energy AE      =       0.00000000 Ry
      -> PAW xc energy PS      =       0.00000000 Ry
      -> total E_H with PAW    =     920.02017314 Ry
      -> total E_XC with PAW   =    -289.58423181 Ry

     convergence has been achieved in  27 iterations

     Writing all to output data dir bands_nm/myprefix.save/

     General routines

     Parallel routines

     PAW routines

   This run was terminated on:  20:13:43  15Jul2023

   JOB DONE.