     Program PWSCF v.7.1 starts on 15Jul2023 at 18:48:24

     Reading input from espresso_15042.pwi
Warning: card &CELL ignored
Warning: card / ignored

     Current dimensions of program PWSCF are:
     Max number of different atomic species (ntypx) = 10
     Max number of k-points (npk) =  40000
     Max angular momentum in pseudopotentials (lmaxx) =  4
     file Pb.pbe-dn-kjpaw_psl.0.2.2.UPF: wavefunction(s)  6S renormalized
     Message from routine setup:
     using ibrav=0 with symmetry is DISCOURAGED, use correct ibrav instead

     K-points division:     npool     =       2
     R & G space division:  proc/nbgrp/npool/nimage =       4
     Subspace diagonalization in iterative solution of the eigenvalue problem:
     one sub-group per band group will be used

     Using Slab Decomposition

     bravais-lattice index     =            0
     lattice parameter (alat)  =       8.1789  a.u.
     unit-cell volume          =    2497.4769 (a.u.)^3
     number of atoms/cell      =           18
     number of atomic types    =            3
     number of electrons       =       168.00
     number of Kohn-Sham states=          256
     kinetic-energy cutoff     =      30.0000  Ry
     charge density cutoff     =     240.0000  Ry
     scf convergence threshold =      1.0E-06
     mixing beta               =       0.7000
     number of iterations used =            8  plain     mixing
     Exchange-correlation=  SLA  PW   PBX  PBC
                           (   1   4   3   4   0   0   0)

     celldm(1)=   8.178932  celldm(2)=   0.000000  celldm(3)=   0.000000
     celldm(4)=   0.000000  celldm(5)=   0.000000  celldm(6)=   0.000000

     crystal axes: (cart. coord. in units of alat)
               a(1) = (   1.000000   0.000000   0.000000 )
               a(2) = (  -0.504185   0.863595   0.000000 )
               a(3) = (   0.000000   0.000000   5.285685 )

     reciprocal axes: (cart. coord. in units 2 pi/alat)
               b(1) = (  1.000000  0.583821  0.000000 )
               b(2) = (  0.000000  1.157950  0.000000 )
               b(3) = (  0.000000  0.000000  0.189190 )

     PseudoPot. # 1 for Pb read from file:
     /lustre07/scratch/pragov/crystal_structure_design/utils/SSSP/Pb.pbe-dn-kjpaw_psl.0.2.2.UPF
     MD5 check sum: 9d431e6316058b74ade52399a6cf67da
     Pseudo is Projector augmented-wave + core cor, Zval = 14.0
     Generated using "atomic" code by A. Dal Corso  v.5.0.99 svn rev. 10869
     Shape of augmentation charge: PSQ
     Using radial grid of 1281 points,  6 beta functions with:
                l(1) =   0
                l(2) =   0
                l(3) =   1
                l(4) =   1
                l(5) =   2
                l(6) =   2
     Q(r) pseudized with 0 coefficients

     PseudoPot. # 2 for I  read from file:
     /lustre07/scratch/pragov/crystal_structure_design/utils/SSSP/I.pbe-n-kjpaw_psl.0.2.UPF
     MD5 check sum: d4ef18d9c8f18dc85e5843bca1e50dc0
     Pseudo is Projector augmented-wave + core cor, Zval =  7.0
     Generated using "atomic" code by A. Dal Corso  v.5.0.99 svn rev. 10869
     Shape of augmentation charge: PSQ
     Using radial grid of 1247 points,  4 beta functions with:
                l(1) =   0
                l(2) =   0
                l(3) =   1
                l(4) =   1
     Q(r) pseudized with 0 coefficients

     PseudoPot. # 3 for F  read from file:
     /lustre07/scratch/pragov/crystal_structure_design/utils/SSSP/f_pbe_v1.4.uspp.F.UPF
     MD5 check sum: 4c38b6a325caf53ec0e86aed9459de46
     Pseudo is Ultrasoft, Zval =  7.0
     Generated by new atomic code, or converted to UPF format
     Using radial grid of  799 points,  4 beta functions with:
                l(1) =   0
                l(2) =   0
                l(3) =   1
                l(4) =   1
     Q(r) pseudized with  8 coefficients,  rinner =    0.950   0.950   0.950

     atomic species   valence    mass     pseudopotential
        Pb            14.00   207.20000     Pb( 1.00)
        I              7.00   126.90447     I ( 1.00)
        F              7.00    18.99840     F ( 1.00)

      2 Sym. Ops. (no inversion) found ( 1 have fractional translation)

                                    s                        frac. trans.

      isym =  1     identity

 cryst.   s( 1) = (     1          0          0      )
                  (     0          1          0      )
                  (     0          0          1      )

 cart.    s( 1) = (  1.0000000  0.0000000  0.0000000 )
                  (  0.0000000  1.0000000  0.0000000 )
                  (  0.0000000  0.0000000  1.0000000 )

      isym =  2     180 deg rotation - cart. axis [0,0,1]

 cryst.   s( 2) = (    -1          0          0      )    f =(  0.0000000 )
                  (     0         -1          0      )       ( -0.0000000 )
                  (     0          0          1      )       (  0.5000000 )

 cart.    s( 2) = ( -1.0000000  0.0000000  0.0000000 )    f =(  0.0000000 )
                  (  0.0000000 -1.0000000  0.0000000 )       ( -0.0000000 )
                  (  0.0000000  0.0000000  1.0000000 )       (  2.6428426 )

   Cartesian axes

     site n.     atom                  positions (alat units)
         1           Pb  tau(   1) = (  -0.0158756   0.5832430   3.3571395  )
         2           Pb  tau(   2) = (   0.5084774   0.2821971   1.8708313  )
         3           Pb  tau(   3) = (  -0.0126627   0.5813984   4.5136739  )
         4           Pb  tau(   4) = (   0.5116903   0.2803525   0.7142969  )
         5           Pb  tau(   5) = (   0.9944857   0.0031659   2.6916612  )
         6           Pb  tau(   6) = (  -0.4986710   0.8604296   0.0488186  )
         7           I   tau(   7) = (   0.0097271   0.5685438   1.3467133  )
         8           I   tau(   8) = (   0.4860876   0.2950517   3.9895559  )
         9           F   tau(   9) = (  -0.0030554   0.5758826   2.7932785  )
        10           F   tau(  10) = (   0.5048147   0.2843000   2.4110230  )
        11           F   tau(  11) = (  -0.0090000   0.5792955   5.0538656  )
        12           F   tau(  12) = (   0.4988701   0.2877129   0.1504359  )
        13           F   tau(  13) = (   0.9952287   0.0027393   3.3059054  )
        14           F   tau(  14) = (  -0.4953001   0.8584942   2.0124982  )
        15           F   tau(  15) = (   0.9911148   0.0051013   4.6553408  )
        16           F   tau(  16) = (  -0.4994140   0.8608562   0.6630628  )
        17           F   tau(  17) = (   0.4997967   0.2871809   3.0979718  )
        18           F   tau(  18) = (  -0.0039820   0.5764146   0.4551292  )

   Crystallographic axes

     site n.     atom                  positions (cryst. coord.)
         1           Pb  tau(   1) = (  0.3246340  0.6753660  0.6351380  )
         2           Pb  tau(   2) = (  0.6732300  0.3267700  0.3539430  )
         3           Pb  tau(   3) = (  0.3267700  0.6732300  0.8539430  )
         4           Pb  tau(   4) = (  0.6753660  0.3246340  0.1351380  )
         5           Pb  tau(   5) = (  0.9963340  0.0036660  0.5092360  )
         6           Pb  tau(   6) = (  0.0036660  0.9963340  0.0092360  )
         7           I   tau(   7) = (  0.3416550  0.6583450  0.2547850  )
         8           I   tau(   8) = (  0.6583450  0.3416550  0.7547850  )
         9           F   tau(   9) = (  0.3331570  0.6668430  0.5284610  )
        10           F   tau(  10) = (  0.6707950  0.3292050  0.4561420  )
        11           F   tau(  11) = (  0.3292050  0.6707950  0.9561420  )
        12           F   tau(  12) = (  0.6668430  0.3331570  0.0284610  )
        13           F   tau(  13) = (  0.9968280  0.0031720  0.6254450  )
        14           F   tau(  14) = (  0.0059070  0.9940930  0.3807450  )
        15           F   tau(  15) = (  0.9940930  0.0059070  0.8807450  )
        16           F   tau(  16) = (  0.0031720  0.9968280  0.1254450  )
        17           F   tau(  17) = (  0.6674590  0.3325410  0.5861060  )
        18           F   tau(  18) = (  0.3325410  0.6674590  0.0861060  )

     number of k points=    10
                       cart. coord. in units 2pi/alat
        k(    1) = (   0.0000000   0.0000000   0.0000000), wk =   0.0740741
        k(    2) = (   0.0000000   0.0000000   0.0630634), wk =   0.1481481
        k(    3) = (   0.0000000   0.3859832   0.0000000), wk =   0.1481481
        k(    4) = (   0.0000000   0.3859832   0.0630634), wk =   0.2962963
        k(    5) = (   0.3333333   0.1946070   0.0000000), wk =   0.1481481
        k(    6) = (   0.3333333   0.1946070   0.0630634), wk =   0.2962963
        k(    7) = (   0.3333333   0.5805902   0.0000000), wk =   0.1481481
        k(    8) = (   0.3333333   0.5805902   0.0630634), wk =   0.2962963
        k(    9) = (   0.3333333  -0.1913761   0.0000000), wk =   0.1481481
        k(   10) = (   0.3333333  -0.1913761   0.0630634), wk =   0.2962963

                       cryst. coord.
        k(    1) = (   0.0000000   0.0000000   0.0000000), wk =   0.0740741
        k(    2) = (   0.0000000   0.0000000   0.3333333), wk =   0.1481481
        k(    3) = (   0.0000000   0.3333333   0.0000000), wk =   0.1481481
        k(    4) = (   0.0000000   0.3333333   0.3333333), wk =   0.2962963
        k(    5) = (   0.3333333  -0.0000000   0.0000000), wk =   0.1481481
        k(    6) = (   0.3333333  -0.0000000   0.3333333), wk =   0.2962963
        k(    7) = (   0.3333333   0.3333333   0.0000000), wk =   0.1481481
        k(    8) = (   0.3333333   0.3333333   0.3333333), wk =   0.2962963
        k(    9) = (   0.3333333  -0.3333333   0.0000000), wk =   0.1481481
        k(   10) = (   0.3333333  -0.3333333   0.3333333), wk =   0.2962963

     Check: negative core charge=   -0.000001

     Initial potential from superposition of free atoms

     starting charge     167.9857, renormalised to     168.0000
     Starting wfcs are  102 randomized atomic wfcs +  154 random wfcs
     Checking if some PAW data can be deallocated...

     Self-consistent Calculation

     iteration #  1     ecut=    30.00 Ry     beta= 0.70
     Davidson diagonalization with overlap

     ethr =  1.00E-02,  avg # of iterations =  7.0

     total energy              =   -6466.95630377 Ry
     estimated scf accuracy    <       2.59630247 Ry

[...]

     total energy              =   -6468.19351334 Ry
     estimated scf accuracy    <       0.00000306 Ry

     iteration # 11     ecut=    30.00 Ry     beta= 0.70
     Davidson diagonalization with overlap

     ethr =  1.82E-09,  avg # of iterations =  2.0

     End of self-consistent calculation

          k = 0.0000 0.0000 0.0000 (  6933 PWs)   bands (ev):

   -16.4790 -16.4789 -16.1707 -16.1707 -15.9997 -15.9995 -15.7757 -15.7756
   -14.6429 -14.6428 -10.1276 -10.1276 -10.1263 -10.1263 -10.0399 -10.0398
   -10.0397 -10.0396  -9.9713  -9.9710  -9.8615  -9.8614  -9.8608  -9.8608
    -9.8381  -9.8381  -9.8355  -9.8355  -9.8300  -9.8297  -9.5798  -9.5797
    -9.5777  -9.5776  -9.5632  -9.5632  -9.5573  -9.5573  -9.5201  -9.5199
    -5.6830  -5.6828  -1.2791  -1.2035  -0.6902  -0.4722  -0.2873  -0.1562
     1.7257   1.7458   1.9579   1.9606   2.0184   2.0214   2.0575   2.1107
     2.1129   2.1207   2.1238   2.1522   2.3140   2.3172   2.4322   2.4335
     2.8491   2.8502   2.9183   2.9194   2.9812   3.0151   3.5378   3.6061
     3.6728   3.6728   3.7778   3.7784   4.3832   4.3967   5.3120   5.3415
     5.6252   5.6262   5.6531   5.6540   9.2797   9.3911   9.9367  10.3834
    10.4824  10.4920  10.4953  10.5047  11.0204  11.4231  11.4506  11.4514
    11.4759  11.5329  11.9525  11.9595  11.9629  11.9734  13.3989  13.4988
    14.7864  14.9401  14.9643  15.0270  15.0518  15.2135  16.4165  16.5187
    16.5234  16.5500  16.5512  16.5843  17.7705  17.9423  18.3957  18.4911
    18.6502  18.6836  18.7825  19.0304  19.1912  19.3495  19.4599  19.5554
    19.7442  19.8939  20.1650  20.5202  20.5453  20.6285  20.6303  20.6688
    20.9262  20.9353  21.0336  21.0627  21.5837  22.2237  22.3200  22.3293
    22.3504  22.3757  22.7407  22.8373  22.9944  23.0071  23.1974  23.2497
    23.8919  24.0381  24.8602  24.9365  24.9432  25.0650  25.4965  25.5608
    25.8440  26.1662  26.3533  26.4007  26.6132  26.9847  27.1872  27.3356
    27.5252  27.5609  27.6552  28.5211  28.5787  28.9016  29.0254  29.1666
    29.5939  29.6048  30.1186  30.2371  30.3333  30.3396  30.3420  30.4749
    30.5866  30.6449  30.9966  31.0575  31.1191  31.5380  31.5422  31.9858
    32.0863  32.0995  32.1888  32.2121  32.3153  32.5604  32.7392  32.7482
    32.7892  32.8725  33.0408  33.1160  33.2193  33.2902  33.2916  33.4035
    33.7552  33.8239  33.8280  33.8281  33.9920  34.5055  34.5753  34.6338
    34.7378  34.7536  34.7932  34.9264  35.1607  35.2892  35.3273  35.4366
    35.4880  35.4898  35.9524  35.9543  35.9926  36.0024  36.0489  36.3080
    36.4368  36.5890  36.8202  36.9583  37.1481  37.2058  37.2165  37.2654
    37.2993  37.6358  37.6590  37.7119  37.9099  37.9920  37.9927  38.3650
    38.3673  38.3917  38.4458  38.5011  38.5227  38.6742  38.7403  39.1652

     occupation numbers
     1.0000   1.0000   1.0000   1.0000   1.0000   1.0000   1.0000   1.0000
     1.0000   1.0000   1.0000   1.0000   1.0000   1.0000   1.0000   1.0000
     1.0000   1.0000   1.0000   1.0000   1.0000   1.0000   1.0000   1.0000
     1.0000   1.0000   1.0000   1.0000   1.0000   1.0000   1.0000   1.0000
     1.0000   1.0000   1.0000   1.0000   1.0000   1.0000   1.0000   1.0000
     1.0000   1.0000   1.0000   1.0000   1.0000   1.0000   1.0000   1.0000
     1.0000   1.0000   1.0000   1.0000   1.0000   1.0000   1.0000   1.0000
     1.0000   1.0000   1.0000   1.0000   1.0000   1.0000   1.0000   1.0000
     1.0000   1.0000   1.0000   1.0000   1.0000   1.0000   1.0000   1.0000
     1.0000   1.0000   1.0000   1.0000   1.0000   1.0000   1.0000   1.0000
     1.0000   1.0000   1.0000   1.0000   0.0000   0.0000   0.0000   0.0000
     0.0000   0.0000   0.0000   0.0000   0.0000   0.0000   0.0000   0.0000
     0.0000   0.0000   0.0000   0.0000   0.0000   0.0000   0.0000   0.0000
     0.0000   0.0000   0.0000   0.0000   0.0000   0.0000   0.0000   0.0000
     0.0000   0.0000   0.0000   0.0000   0.0000   0.0000   0.0000   0.0000
     0.0000   0.0000   0.0000   0.0000   0.0000   0.0000   0.0000   0.0000
     0.0000   0.0000   0.0000   0.0000   0.0000   0.0000   0.0000   0.0000
     0.0000   0.0000   0.0000   0.0000   0.0000   0.0000   0.0000   0.0000
     0.0000   0.0000   0.0000   0.0000   0.0000   0.0000   0.0000   0.0000
     0.0000   0.0000   0.0000   0.0000   0.0000   0.0000   0.0000   0.0000
     0.0000   0.0000   0.0000   0.0000   0.0000   0.0000   0.0000   0.0000
     0.0000   0.0000   0.0000   0.0000   0.0000   0.0000   0.0000   0.0000
     0.0000   0.0000   0.0000   0.0000   0.0000   0.0000   0.0000   0.0000
     0.0000   0.0000   0.0000   0.0000   0.0000   0.0000   0.0000   0.0000
     0.0000   0.0000   0.0000   0.0000   0.0000   0.0000   0.0000   0.0000
     0.0000   0.0000   0.0000   0.0000   0.0000   0.0000   0.0000   0.0000
     0.0000   0.0000   0.0000   0.0000   0.0000   0.0000   0.0000   0.0000
     0.0000   0.0000   0.0000   0.0000   0.0000   0.0000   0.0000   0.0000
     0.0000   0.0000   0.0000   0.0000   0.0000   0.0000   0.0000   0.0000
     0.0000   0.0000   0.0000   0.0000   0.0000   0.0000   0.0000   0.0000
     0.0000   0.0000   0.0000   0.0000   0.0000   0.0000   0.0000   0.0000
     0.0000   0.0000   0.0000   0.0000   0.0000   0.0000   0.0000   0.0000

[...]

          k = 0.3333-0.1914 0.0631 (  6913 PWs)   bands (ev):

   -16.4202 -16.4201 -16.1400 -16.1399 -15.9422 -15.9422 -15.8106 -15.8105
   -14.7209 -14.7209 -10.0940 -10.0940 -10.0889 -10.0889 -10.0454 -10.0454
   -10.0438 -10.0438  -9.9771  -9.9771  -9.8596  -9.8595  -9.8512  -9.8511
    -9.8368  -9.8368  -9.8079  -9.8079  -9.7615  -9.7614  -9.5816  -9.5816
    -9.5781  -9.5780  -9.5606  -9.5606  -9.5237  -9.5236  -9.4603  -9.4603
    -5.3548  -5.3547  -1.5421  -1.5325  -1.2383  -1.2161  -1.0907  -1.0782
     1.3475   1.3495   1.6295   1.6385   1.8793   1.8850   1.9656   1.9950
     2.1807   2.1849   2.1893   2.2174   2.5460   2.5625   2.6680   2.6763
     3.0249   3.0479   3.0546   3.0552   3.2541   3.2886   3.8444   3.8772
     4.0717   4.0724   4.0814   4.0875   4.2202   4.2349   4.8011   4.8161
     5.0462   5.0786   5.2759   5.2761   8.7512   8.8341   9.5638   9.6717
    10.0470  10.1818  10.7018  10.7047  10.7093  10.8459  11.3418  11.4974
    11.5668  11.6386  11.9176  11.9479  12.2268  12.2512  13.2854  13.3050
    14.7980  14.8640  15.4925  15.5709  16.4474  16.5191  16.7952  16.8183
    17.2291  17.2769  17.5067  17.6285  18.4834  18.6716  18.9823  19.0393
    19.1508  19.2273  19.7567  19.9243  20.2828  20.3175  20.3668  20.4392
    20.7409  21.0355  21.4057  21.4144  21.4984  21.6079  21.6991  21.7489
    21.9252  21.9645  22.1319  22.3511  22.5795  22.6532  22.6748  22.7478
    23.1426  23.3329  23.3361  23.4685  23.5487  23.6801  23.8367  23.9143
    24.0627  24.1953  24.4272  24.6238  25.0091  25.1616  25.2889  25.4083
    25.6668  25.8202  26.0212  26.3932  26.4926  26.6038  26.6895  26.8916
    27.0401  27.1706  27.4498  27.4560  27.5615  27.5951  27.9024  28.0577
    28.1827  28.3859  28.5200  28.7383  28.7451  29.0763  29.0832  29.3343
    29.4232  29.7405  29.8352  29.9148  29.9521  30.1191  30.3153  30.3499
    30.5366  30.6290  30.7848  30.9203  31.2157  31.2909  31.5071  31.5347
    31.7214  31.8843  31.9151  32.1902  32.3107  32.3976  32.6837  32.7915
    32.8257  33.0380  33.0804  33.2442  33.2561  33.3858  33.4412  33.4455
    33.6204  33.7696  33.7751  33.9817  34.2393  34.4846  34.5591  34.7703
    34.8697  34.8785  35.2256  35.4128  35.4603  35.5397  35.7854  35.8083
    36.0331  36.0509  36.1715  36.4243  36.5255  36.6514  36.8314  36.9984
    37.1989  37.2547  37.3463  37.5569  37.5927  37.6434  37.8525  37.9646
    38.0384  38.2458  38.3535  38.4761  38.5686  38.6682  38.6788  38.9465

     occupation numbers
     1.0000   1.0000   1.0000   1.0000   1.0000   1.0000   1.0000   1.0000
     1.0000   1.0000   1.0000   1.0000   1.0000   1.0000   1.0000   1.0000
     1.0000   1.0000   1.0000   1.0000   1.0000   1.0000   1.0000   1.0000
     1.0000   1.0000   1.0000   1.0000   1.0000   1.0000   1.0000   1.0000
     1.0000   1.0000   1.0000   1.0000   1.0000   1.0000   1.0000   1.0000
     1.0000   1.0000   1.0000   1.0000   1.0000   1.0000   1.0000   1.0000
     1.0000   1.0000   1.0000   1.0000   1.0000   1.0000   1.0000   1.0000
     1.0000   1.0000   1.0000   1.0000   1.0000   1.0000   1.0000   1.0000
     1.0000   1.0000   1.0000   1.0000   1.0000   1.0000   1.0000   1.0000
     1.0000   1.0000   1.0000   1.0000   1.0000   1.0000   1.0000   1.0000
     1.0000   1.0000   1.0000   1.0000   0.0000   0.0000   0.0000   0.0000
     0.0000   0.0000   0.0000   0.0000   0.0000   0.0000   0.0000   0.0000
     0.0000   0.0000   0.0000   0.0000   0.0000   0.0000   0.0000   0.0000
     0.0000   0.0000   0.0000   0.0000   0.0000   0.0000   0.0000   0.0000
     0.0000   0.0000   0.0000   0.0000   0.0000   0.0000   0.0000   0.0000
     0.0000   0.0000   0.0000   0.0000   0.0000   0.0000   0.0000   0.0000
     0.0000   0.0000   0.0000   0.0000   0.0000   0.0000   0.0000   0.0000
     0.0000   0.0000   0.0000   0.0000   0.0000   0.0000   0.0000   0.0000
     0.0000   0.0000   0.0000   0.0000   0.0000   0.0000   0.0000   0.0000
     0.0000   0.0000   0.0000   0.0000   0.0000   0.0000   0.0000   0.0000
     0.0000   0.0000   0.0000   0.0000   0.0000   0.0000   0.0000   0.0000
     0.0000   0.0000   0.0000   0.0000   0.0000   0.0000   0.0000   0.0000
     0.0000   0.0000   0.0000   0.0000   0.0000   0.0000   0.0000   0.0000
     0.0000   0.0000   0.0000   0.0000   0.0000   0.0000   0.0000   0.0000
     0.0000   0.0000   0.0000   0.0000   0.0000   0.0000   0.0000   0.0000
     0.0000   0.0000   0.0000   0.0000   0.0000   0.0000   0.0000   0.0000
     0.0000   0.0000   0.0000   0.0000   0.0000   0.0000   0.0000   0.0000
     0.0000   0.0000   0.0000   0.0000   0.0000   0.0000   0.0000   0.0000
     0.0000   0.0000   0.0000   0.0000   0.0000   0.0000   0.0000   0.0000
     0.0000   0.0000   0.0000   0.0000   0.0000   0.0000   0.0000   0.0000
     0.0000   0.0000   0.0000   0.0000   0.0000   0.0000   0.0000   0.0000
     0.0000   0.0000   0.0000   0.0000   0.0000   0.0000   0.0000   0.0000

     highest occupied, lowest unoccupied level (ev):     5.6540    8.7075

!    total energy              =   -6468.19351398 Ry
     estimated scf accuracy    <       0.00000005 Ry

     The total energy is the sum of the following terms:
     one-electron contribution =    -784.77241297 Ry
     hartree contribution      =     516.25489162 Ry
     xc contribution           =    -443.34160398 Ry
     ewald contribution        =    -744.42589413 Ry
     one-center paw contrib.   =   -5011.90849452 Ry
      -> PAW hartree energy AE =     286.65732697 Ry
      -> PAW hartree energy PS =    -286.01805957 Ry
      -> PAW xc energy AE      =   -2316.85467438 Ry
      -> PAW xc energy PS      =     130.78335275 Ry
      -> total E_H with PAW    =     516.89415902 Ry
      -> total E_XC with PAW   =   -2629.41292562 Ry

     convergence has been achieved in  11 iterations

     Writing all to output data dir bands_nm/myprefix.save/

     General routines

     Parallel routines

     PAW routines

   This run was terminated on:  18:49:38  15Jul2023

   JOB DONE.