     Program PWSCF v.7.0 starts on  7Jun2023 at  2:11:57

     K-points division:     npool     =       2
     R & G space division:  proc/nbgrp/npool/nimage =       4

     Reading input from espresso_1234.pwi
Warning: card &CELL ignored
Warning: card / ignored

     Current dimensions of program PWSCF are:
     Max number of different atomic species (ntypx) = 10
     Max number of k-points (npk) =  40000
     Max angular momentum in pseudopotentials (lmaxx) =  4
     file Pb.pbe-dn-kjpaw_psl.0.2.2.UPF: wavefunction(s)  6S renormalized
     Message from routine setup:
     using ibrav=0 with symmetry is DISCOURAGED, use correct ibrav instead

     Using Slab Decomposition

     bravais-lattice index     =            0
     lattice parameter (alat)  =      14.3054  a.u.
     unit-cell volume          =    1590.6834 (a.u.)^3
     number of atoms/cell      =            8
     number of atomic types    =            3
     number of electrons       =        76.00
     number of Kohn-Sham states=           64
     kinetic-energy cutoff     =      30.0000  Ry
     charge density cutoff     =     240.0000  Ry
     scf convergence threshold =      1.0E-06
     mixing beta               =       0.7000
     number of iterations used =            8  plain     mixing
     Exchange-correlation= SLA  PW   PBE  PBE
                           (   1   4   3   4   0   0   0)

     celldm(1)=  14.305378  celldm(2)=   0.000000  celldm(3)=   0.000000
     celldm(4)=   0.000000  celldm(5)=   0.000000  celldm(6)=   0.000000

     crystal axes: (cart. coord. in units of alat)
               a(1) = (   1.000000   0.000000   0.000000 )
               a(2) = (  -0.332242   0.943194   0.000000 )
               a(3) = (   0.000000   0.000000   0.576082 )

     reciprocal axes: (cart. coord. in units 2 pi/alat)
               b(1) = (  1.000000  0.352252  0.000000 )
               b(2) = (  0.000000  1.060227  0.000000 )
               b(3) = (  0.000000  0.000000  1.735863 )

     PseudoPot. # 1 for Ca read from file:
     /home/pragov/projects/rrg-bengioy-ad/pragov/crystal_structure_design/SSSP/Ca_pbe_v1.uspp.F.UPF
     MD5 check sum: 403a4c14b9e4d4dfdc3024c9a3812218
     Pseudo is Ultrasoft + core correction, Zval = 10.0
     Generated by new atomic code, or converted to UPF format
     Using radial grid of  845 points,  6 beta functions with:
                l(1) =   0
                l(2) =   0
                l(3) =   1
                l(4) =   1
                l(5) =   2
                l(6) =   2
     Q(r) pseudized with  8 coefficients,  rinner =    1.500   1.500   1.500
                                                       1.500   1.500

     PseudoPot. # 2 for Pb read from file:
     /home/pragov/projects/rrg-bengioy-ad/pragov/crystal_structure_design/SSSP/Pb.pbe-dn-kjpaw_psl.0.2.2.UPF
     MD5 check sum: 9d431e6316058b74ade52399a6cf67da
     Pseudo is Projector augmented-wave + core cor, Zval = 14.0
     Generated using "atomic" code by A. Dal Corso  v.5.0.99 svn rev. 10869
     Shape of augmentation charge: PSQ
     Using radial grid of 1281 points,  6 beta functions with:
                l(1) =   0
                l(2) =   0
                l(3) =   1
                l(4) =   1
                l(5) =   2
                l(6) =   2
     Q(r) pseudized with 0 coefficients

     PseudoPot. # 3 for Se read from file:
     /home/pragov/projects/rrg-bengioy-ad/pragov/crystal_structure_design/SSSP/Se_pbe_v1.uspp.F.UPF
     MD5 check sum: 1b3568f3a8ae88f9a2a0ad0698632c85
     Pseudo is Ultrasoft + core correction, Zval =  6.0
     Generated by new atomic code, or converted to UPF format
     Using radial grid of  877 points,  6 beta functions with:
                l(1) =   0
                l(2) =   0
                l(3) =   1
                l(4) =   1
                l(5) =   2
                l(6) =   2
     Q(r) pseudized with  8 coefficients,  rinner =    1.300   1.300   1.300
                                                       1.300   1.300

     atomic species   valence    mass     pseudopotential
        Ca            10.00    40.07800     Ca( 1.00)
        Pb            14.00   207.20000     Pb( 1.00)
        Se             6.00    78.97100     Se( 1.00)

      4 Sym. Ops., with inversion, found

                                    s                        frac. trans.

      isym =  1     identity

 cryst.   s( 1) = (     1          0          0      )
                  (     0          1          0      )
                  (     0          0          1      )

 cart.    s( 1) = (  1.0000000 -0.0000000  0.0000000 )
                  (  0.0000000  1.0000000  0.0000000 )
                  (  0.0000000  0.0000000  1.0000000 )

      isym =  2     180 deg rotation - cart. axis [0,0,1]

[...]

      isym =  3     inversion

[...]

      isym =  4     inv. 180 deg rotation - cart. axis [0,0,1]

 cryst.   s( 4) = (     1          0          0      )
                  (     0          1          0      )
                  (     0          0         -1      )

 cart.    s( 4) = (  1.0000000 -0.0000000  0.0000000 )
                  (  0.0000000  1.0000000  0.0000000 )
                  (  0.0000000  0.0000000 -1.0000000 )

   Cartesian axes

     site n.     atom                  positions (alat units)
         1           Ca  tau(   1) = (   0.3338791   0.4715971   0.0000000  )
         2           Pb  tau(   2) = (   0.5000000   0.0000000   0.2880412  )
         3           Pb  tau(   3) = (  -0.1661209   0.4715971   0.2880412  )
         4           Pb  tau(   4) = (   0.0000000   0.0000000   0.0000000  )
         5           Se  tau(   5) = (   0.0072800   0.7028212   0.0000000  )
         6           Se  tau(   6) = (   0.6604782   0.2403730   0.0000000  )
         7           Se  tau(   7) = (   0.4945951   0.6986051   0.2880412  )
         8           Se  tau(   8) = (   0.1731630   0.2445891   0.2880412  )

   Crystallographic axes

     site n.     atom                  positions (cryst. coord.)
         1           Ca  tau(   1) = (  0.5000000  0.5000000  0.0000000  )
         2           Pb  tau(   2) = (  0.5000000  0.0000000  0.5000000  )
         3           Pb  tau(   3) = (  0.0000000  0.5000000  0.5000000  )
         4           Pb  tau(   4) = (  0.0000000  0.0000000  0.0000000  )
         5           Se  tau(   5) = (  0.2548500  0.7451500  0.0000000  )
         6           Se  tau(   6) = (  0.7451500  0.2548500  0.0000000  )
         7           Se  tau(   7) = (  0.7406800  0.7406800  0.5000000  )
         8           Se  tau(   8) = (  0.2593200  0.2593200  0.5000000  )

     number of k points=    10
                       cart. coord. in units 2pi/alat
        k(    1) = (   0.0000000   0.0000000   0.0000000), wk =   0.0740741
        k(    2) = (   0.0000000   0.0000000   0.5786209), wk =   0.1481481
        k(    3) = (   0.0000000   0.3534090   0.0000000), wk =   0.1481481
        k(    4) = (   0.0000000   0.3534090   0.5786209), wk =   0.2962963
        k(    5) = (   0.3333333   0.1174173   0.0000000), wk =   0.1481481
        k(    6) = (   0.3333333   0.1174173   0.5786209), wk =   0.2962963
        k(    7) = (   0.3333333   0.4708263   0.0000000), wk =   0.1481481
        k(    8) = (   0.3333333   0.4708263   0.5786209), wk =   0.2962963
        k(    9) = (   0.3333333  -0.2359917   0.0000000), wk =   0.1481481
        k(   10) = (   0.3333333  -0.2359917   0.5786209), wk =   0.2962963

                       cryst. coord.
        k(    1) = (   0.0000000   0.0000000   0.0000000), wk =   0.0740741
        k(    2) = (   0.0000000   0.0000000   0.3333333), wk =   0.1481481
        k(    3) = (   0.0000000   0.3333333   0.0000000), wk =   0.1481481
        k(    4) = (   0.0000000   0.3333333   0.3333333), wk =   0.2962963
        k(    5) = (   0.3333333   0.0000000   0.0000000), wk =   0.1481481
        k(    6) = (   0.3333333   0.0000000   0.3333333), wk =   0.2962963
        k(    7) = (   0.3333333   0.3333333   0.0000000), wk =   0.1481481
        k(    8) = (   0.3333333   0.3333333   0.3333333), wk =   0.2962963
        k(    9) = (   0.3333333  -0.3333333   0.0000000), wk =   0.1481481
        k(   10) = (   0.3333333  -0.3333333   0.3333333), wk =   0.2962963

     Initial potential from superposition of free atoms

     starting charge      75.9872, renormalised to      76.0000
     Starting wfcs are   53 randomized atomic wfcs +   11 random wfcs
     Checking if some PAW data can be deallocated...

     Self-consistent Calculation

     iteration #  1     ecut=    30.00 Ry     beta= 0.70
     Davidson diagonalization with overlap

     ethr =  1.00E-02,  avg # of iterations =  6.9

     Threshold (ethr) on eigenvalues was too large:
     Diagonalizing with lowered threshold

     Davidson diagonalization with overlap

[...]

     total energy              =   -2861.30780649 Ry
     estimated scf accuracy    <       0.43569391 Ry

[...]

     total energy              =   -2861.51338666 Ry
     estimated scf accuracy    <       0.00000337 Ry

     iteration #  8     ecut=    30.00 Ry     beta= 0.70
     Davidson diagonalization with overlap

     ethr =  4.43E-09,  avg # of iterations =  4.4

     End of self-consistent calculation

          k = 0.0000 0.0000 0.0000 (  4381 PWs)   bands (ev):

   -33.6569 -14.6729 -14.6649 -14.6441  -9.6998  -9.6706  -9.6636  -9.6624
    -9.6614  -9.5225  -9.4964  -9.4867  -9.4839  -9.4682  -9.4646  -9.4601
    -9.4587  -9.4586  -9.4525  -5.8685  -5.0115  -4.9103  -4.7309  -1.4127
    -0.8268   0.4769   2.8346   4.4216   4.4794   5.0490   5.5386   5.5730
     5.6658   5.7054   5.7787   5.9035   5.9495   7.1291   7.8562   8.1523
     9.0206   9.6874   9.8014   9.9360  10.1191  11.1330  11.2670  11.9636
    12.0942  12.3476  12.3479  12.3869  12.6059  12.6367  14.5406  14.8877
    14.9703  15.0871  15.2513  15.6361  16.1693  16.4888  16.8241  17.1972

     occupation numbers
     1.0000   1.0000   1.0000   1.0000   1.0000   1.0000   1.0000   1.0000
     1.0000   1.0000   1.0000   1.0000   1.0000   1.0000   1.0000   1.0000
     1.0000   1.0000   1.0000   1.0000   1.0000   1.0000   1.0000   1.0000
     1.0000   1.0000   1.0000   1.0000   1.0000   1.0000   1.0000   1.0000
     1.0000   1.0000   1.0000   1.0000   1.0000   1.0000   0.0000   0.0000
     0.0000   0.0000   0.0000   0.0000   0.0000   0.0000   0.0000   0.0000
     0.0000   0.0000   0.0000   0.0000   0.0000   0.0000   0.0000   0.0000
     0.0000   0.0000   0.0000   0.0000   0.0000   0.0000   0.0000   0.0000

[...]

          k = 0.3333-0.2360 0.5786 (  4410 PWs)   bands (ev):

   -33.6560 -14.6700 -14.6661 -14.6631  -9.6925  -9.6824  -9.6680  -9.6615
    -9.6555  -9.5303  -9.4999  -9.4858  -9.4795  -9.4691  -9.4683  -9.4658
    -9.4633  -9.4580  -9.4432  -5.2514  -4.9068  -4.8251  -4.7664  -1.0201
    -0.7551  -0.5062   3.2156   3.4342   4.0968   4.5340   4.5872   4.7351
     5.1264   5.4136   5.6106   5.8065   5.8089   6.3254   8.6567   9.1090
     9.7586   9.7933   9.9113   9.9903  10.5341  10.7455  11.4849  11.6473
    11.7757  12.2560  12.6894  12.9022  13.1098  13.5673  13.9203  14.6609
    14.8554  14.9664  15.3849  15.9668  16.5176  16.7857  17.5270  17.9286

     occupation numbers
     1.0000   1.0000   1.0000   1.0000   1.0000   1.0000   1.0000   1.0000
     1.0000   1.0000   1.0000   1.0000   1.0000   1.0000   1.0000   1.0000
     1.0000   1.0000   1.0000   1.0000   1.0000   1.0000   1.0000   1.0000
     1.0000   1.0000   1.0000   1.0000   1.0000   1.0000   1.0000   1.0000
     1.0000   1.0000   1.0000   1.0000   1.0000   1.0000   0.0000   0.0000
     0.0000   0.0000   0.0000   0.0000   0.0000   0.0000   0.0000   0.0000
     0.0000   0.0000   0.0000   0.0000   0.0000   0.0000   0.0000   0.0000
     0.0000   0.0000   0.0000   0.0000   0.0000   0.0000   0.0000   0.0000

     highest occupied, lowest unoccupied level (ev):     7.1291    7.8562

!    total energy              =   -2861.51338793 Ry
     estimated scf accuracy    <       0.00000078 Ry

     The total energy is the sum of the following terms:
     one-electron contribution =    -152.04664696 Ry
     hartree contribution      =     122.72105806 Ry
     xc contribution           =    -263.86770463 Ry
     ewald contribution        =    -382.88507840 Ry
     one-center paw contrib.   =   -2185.43501600 Ry
      -> PAW hartree energy AE =       0.00000000 Ry
      -> PAW hartree energy PS =       0.00000000 Ry
      -> PAW xc energy AE      =       0.00000000 Ry
      -> PAW xc energy PS      =       0.00000000 Ry
      -> total E_H with PAW    =     122.72105806 Ry
      -> total E_XC with PAW   =    -263.86770463 Ry

     convergence has been achieved in   8 iterations

     Writing all to output data dir calculations_bands/myprefix.save/

     General routines

     Parallel routines

     PAW routines

   This run was terminated on:   2:12: 9   7Jun2023

   JOB DONE.