     Program PWSCF v.7.1 starts on 14Jul2023 at 17:16:14

     Reading input from espresso_11733.pwi
Warning: card &CELL ignored
Warning: card / ignored

     Current dimensions of program PWSCF are:
     Max number of different atomic species (ntypx) = 10
     Max number of k-points (npk) =  40000
     Max angular momentum in pseudopotentials (lmaxx) =  4
     file Ba.pbe-spn-kjpaw_psl.1.0.0.UPF: wavefunction(s)  5S 6S renormalized
     file La.paw.z_11.atompaw.wentzcovitch.v1.2.upf: wavefunction(s)  6S 0P 5D 0D 4F 0F renormalized
     Message from routine setup:
     using ibrav=0 with symmetry is DISCOURAGED, use correct ibrav instead

     K-points division:     npool     =       2
     R & G space division:  proc/nbgrp/npool/nimage =       4
     Subspace diagonalization in iterative solution of the eigenvalue problem:
     a serial algorithm will be used

     Using Slab Decomposition

     bravais-lattice index     =            0
     lattice parameter (alat)  =      16.7515  a.u.
     unit-cell volume          =    3065.8339 (a.u.)^3
     number of atoms/cell      =           11
     number of atomic types    =            3
     number of electrons       =        88.00
     number of Kohn-Sham states=           64
     kinetic-energy cutoff     =      30.0000  Ry
     charge density cutoff     =     240.0000  Ry
     scf convergence threshold =      1.0E-06
     mixing beta               =       0.7000
     number of iterations used =            8  plain     mixing
     Exchange-correlation= SLA  PW   PBX  PBC
                           (   1   4   3   4   0   0   0)

     celldm(1)=  16.751511  celldm(2)=   0.000000  celldm(3)=   0.000000
     celldm(4)=   0.000000  celldm(5)=   0.000000  celldm(6)=   0.000000

     crystal axes: (cart. coord. in units of alat)
               a(1) = (   1.000000   0.000000   0.000000 )
               a(2) = (  -0.358298   0.933607   0.000000 )
               a(3) = (   0.098666   0.143548   0.698590 )

     reciprocal axes: (cart. coord. in units 2 pi/alat)
               b(1) = (  1.000000  0.383778 -0.220095 )
               b(2) = (  0.000000  1.071114 -0.220095 )
               b(3) = (  0.000000  0.000000  1.431454 )

     PseudoPot. # 1 for Ba read from file:
     /lustre07/scratch/pragov/crystal_structure_design/utils/SSSP/Ba.pbe-spn-kjpaw_psl.1.0.0.UPF
     MD5 check sum: c432291d3e53af55f19d5e8866385beb
     Pseudo is Projector augmented-wave + core cor, Zval = 10.0
     Generated using "atomic" code by A. Dal Corso  v.5.1
     Shape of augmentation charge: PSQ
     Using radial grid of 1251 points,  7 beta functions with:
                l(1) =   0
                l(2) =   0
                l(3) =   0
                l(4) =   1
                l(5) =   1
                l(6) =   2
                l(7) =   2
     Q(r) pseudized with 0 coefficients

     PseudoPot. # 2 for La read from file:
     /lustre07/scratch/pragov/crystal_structure_design/utils/SSSP/La.paw.z_11.atompaw.wentzcovitch.v1.2.upf
     MD5 check sum: 754494e15ae71f30e5b5f678af019e01
     Pseudo is Projector augmented-wave + core cor, Zval = 11.0
     Generated using ATOMPAW code
     Shape of augmentation charge: BESSEL
     Using radial grid of 1101 points,  8 beta functions with:
                l(1) =   0
                l(2) =   0
                l(3) =   1
                l(4) =   1
                l(5) =   2
                l(6) =   2
                l(7) =   3
                l(8) =   3
     Q(r) pseudized with 0 coefficients

     PseudoPot. # 3 for I  read from file:
     /lustre07/scratch/pragov/crystal_structure_design/utils/SSSP/I.pbe-n-kjpaw_psl.0.2.UPF
     MD5 check sum: d4ef18d9c8f18dc85e5843bca1e50dc0
     Pseudo is Projector augmented-wave + core cor, Zval =  7.0
     Generated using "atomic" code by A. Dal Corso  v.5.0.99 svn rev. 10869
     Shape of augmentation charge: PSQ
     Using radial grid of 1247 points,  4 beta functions with:
                l(1) =   0
                l(2) =   0
                l(3) =   1
                l(4) =   1
     Q(r) pseudized with 0 coefficients

     atomic species   valence    mass     pseudopotential
        Ba            10.00   137.32700     Ba( 1.00)
        La            11.00   138.90547     La( 1.00)
        I              7.00   126.90447     I ( 1.00)

      2 Sym. Ops., with inversion, found

                                    s                        frac. trans.

      isym =  1     identity

 cryst.   s( 1) = (     1          0          0      )
                  (     0          1          0      )
                  (     0          0          1      )

 cart.    s( 1) = (  1.0000000  0.0000000  0.0000000 )
                  (  0.0000000  1.0000000  0.0000000 )
                  (  0.0000000  0.0000000  1.0000000 )

      isym =  2     inversion

 cryst.   s( 2) = (    -1          0          0      )
                  (     0         -1          0      )
                  (     0          0         -1      )

 cart.    s( 2) = ( -1.0000000  0.0000000 -0.0000000 )
                  (  0.0000000 -1.0000000  0.0000000 )
                  (  0.0000000  0.0000000 -1.0000000 )

   Cartesian axes

     site n.     atom                  positions (alat units)
         1           Ba  tau(   1) = (   0.0000000   0.0000000   0.0000000  )
         2           La  tau(   2) = (   0.1238061   0.7079218   0.3492951  )
         3           La  tau(   3) = (   0.6165613   0.3692334   0.3492951  )
         4           I   tau(   4) = (   0.7544851   0.7145053   0.4038200  )
         5           I   tau(   5) = (   0.3967365   0.9603987   0.4038200  )
         6           I   tau(   6) = (   0.4162994   0.6056710   0.1363313  )
         7           I   tau(   7) = (   0.6665215   0.2292118   0.0000000  )
         8           I   tau(   8) = (  -0.0248197   0.7043954   0.0000000  )
         9           I   tau(   9) = (   0.3240680   0.4714841   0.5622589  )
        10           I   tau(  10) = (   0.3436309   0.1167564   0.2947701  )
        11           I   tau(  11) = (  -0.0141177   0.3626499   0.2947701  )

   Crystallographic axes

     site n.     atom                  positions (cryst. coord.)
         1           Ba  tau(   1) = (  0.0000000  0.0000000  0.0000000  )
         2           La  tau(   2) = (  0.3186130  0.6813870  0.5000000  )
         3           La  tau(   3) = (  0.6813870  0.3186130  0.5000000  )
         4           I   tau(   4) = (  0.9398180  0.6764380  0.5780500  )
         5           I   tau(   5) = (  0.6764380  0.9398180  0.5780500  )
         6           I   tau(   6) = (  0.6187370  0.6187370  0.1951520  )
         7           I   tau(   7) = (  0.7544880  0.2455120  0.0000000  )
         8           I   tau(   8) = (  0.2455120  0.7544880  0.0000000  )
         9           I   tau(   9) = (  0.3812630  0.3812630  0.8048480  )
        10           I   tau(  10) = (  0.3235620  0.0601820  0.4219500  )
        11           I   tau(  11) = (  0.0601820  0.3235620  0.4219500  )

     number of k points=    14
                       cart. coord. in units 2pi/alat
        k(    1) = (   0.0000000   0.0000000   0.0000000), wk =   0.0740741
        k(    2) = (   0.0000000   0.0000000   0.4771515), wk =   0.1481481
        k(    3) = (   0.0000000   0.3570381  -0.0733650), wk =   0.1481481
        k(    4) = (   0.0000000   0.3570381   0.4037865), wk =   0.1481481
        k(    5) = (   0.0000000   0.3570381  -0.5505165), wk =   0.1481481
        k(    6) = (   0.3333333   0.1279261  -0.0733650), wk =   0.1481481
        k(    7) = (   0.3333333   0.1279261   0.4037865), wk =   0.1481481
        k(    8) = (   0.3333333   0.1279261  -0.5505165), wk =   0.1481481
        k(    9) = (   0.3333333   0.4849642  -0.1467300), wk =   0.1481481
        k(   10) = (   0.3333333   0.4849642   0.3304214), wk =   0.1481481
        k(   11) = (   0.3333333   0.4849642  -0.6238815), wk =   0.1481481
        k(   12) = (   0.3333333  -0.2291120   0.0000000), wk =   0.1481481
        k(   13) = (   0.3333333  -0.2291120   0.4771515), wk =   0.1481481
        k(   14) = (   0.3333333  -0.2291120  -0.4771515), wk =   0.1481481

                       cryst. coord.
        k(    1) = (   0.0000000   0.0000000   0.0000000), wk =   0.0740741
        k(    2) = (   0.0000000   0.0000000   0.3333333), wk =   0.1481481
        k(    3) = (   0.0000000   0.3333333   0.0000000), wk =   0.1481481
        k(    4) = (   0.0000000   0.3333333   0.3333333), wk =   0.1481481
        k(    5) = (   0.0000000   0.3333333  -0.3333333), wk =   0.1481481
        k(    6) = (   0.3333333  -0.0000000   0.0000000), wk =   0.1481481
        k(    7) = (   0.3333333  -0.0000000   0.3333333), wk =   0.1481481
        k(    8) = (   0.3333333  -0.0000000  -0.3333333), wk =   0.1481481
        k(    9) = (   0.3333333   0.3333333   0.0000000), wk =   0.1481481
        k(   10) = (   0.3333333   0.3333333   0.3333333), wk =   0.1481481
        k(   11) = (   0.3333333   0.3333333  -0.3333333), wk =   0.1481481
        k(   12) = (   0.3333333  -0.3333333  -0.0000000), wk =   0.1481481
        k(   13) = (   0.3333333  -0.3333333   0.3333333), wk =   0.1481481
        k(   14) = (   0.3333333  -0.3333333  -0.3333333), wk =   0.1481481

     Check: negative core charge=   -0.000001

     Initial potential from superposition of free atoms

     starting charge      87.9653, renormalised to      88.0000

     negative rho (up, down):  2.131E-04 0.000E+00
     Starting wfcs are  101 randomized atomic wfcs
     Checking if some PAW data can be deallocated...

     Self-consistent Calculation

     iteration #  1     ecut=    30.00 Ry     beta= 0.70
     Davidson diagonalization with overlap

     ethr =  1.00E-02,  avg # of iterations =  2.0

     Threshold (ethr) on eigenvalues was too large:
     Diagonalizing with lowered threshold

     Davidson diagonalization with overlap

[...]

     negative rho (up, down):  2.774E-04 0.000E+00

     total energy              =   -4385.14350379 Ry
     estimated scf accuracy    <       0.11401071 Ry

[...]

     c_bands:  3 eigenvalues not converged
     ethr =  3.23E-05,  avg # of iterations =  9.3

[...]

     c_bands:  1 eigenvalues not converged
     c_bands:  1 eigenvalues not converged
     ethr =  7.88E-06,  avg # of iterations = 13.4

[...]

     total energy              =   -4385.18229692 Ry
     estimated scf accuracy    <       0.00000358 Ry

     iteration #  8     ecut=    30.00 Ry     beta= 0.70
     Davidson diagonalization with overlap

     ethr =  4.06E-09,  avg # of iterations =  4.6

     negative rho (up, down):  3.095E-04 0.000E+00

     End of self-consistent calculation

          k = 0.0000 0.0000 0.0000 (  8517 PWs)   bands (ev):

   -27.8029 -27.8015 -23.2336 -11.5317 -11.5161 -11.5134 -11.4830 -11.4815
   -11.4489  -8.3750  -8.3700  -8.3506  -7.3537  -6.7450  -6.7284  -6.6843
    -6.6286  -6.6105  -6.5098  -6.4639   1.4295   1.7771   1.9364   1.9403
     2.1327   2.2448   2.4285   2.4532   2.5636   2.6617   2.6739   3.0480
     3.2325   3.3704   3.3964   3.5678   3.5693   3.7575   3.7627   3.7915
     4.3035   4.4520   4.5192   4.6351   6.9591   6.9857   6.9871   6.9874
     6.9977   7.0264   7.0340   7.0460   7.0499   7.0668   7.0758   7.0881
     7.0966   7.1484   7.2212   7.7838   7.9234   8.0906   8.1653   8.1962

     occupation numbers
     1.0000   1.0000   1.0000   1.0000   1.0000   1.0000   1.0000   1.0000
     1.0000   1.0000   1.0000   1.0000   1.0000   1.0000   1.0000   1.0000
     1.0000   1.0000   1.0000   1.0000   1.0000   1.0000   1.0000   1.0000
     1.0000   1.0000   1.0000   1.0000   1.0000   1.0000   1.0000   1.0000
     1.0000   1.0000   1.0000   1.0000   1.0000   1.0000   1.0000   1.0000
     1.0000   1.0000   1.0000   1.0000   0.0000   0.0000   0.0000   0.0000
     0.0000   0.0000   0.0000   0.0000   0.0000   0.0000   0.0000   0.0000
     0.0000   0.0000   0.0000   0.0000   0.0000   0.0000   0.0000   0.0000

[...]

          k = 0.3333-0.2291-0.4772 (  8499 PWs)   bands (ev):

   -27.8025 -27.8018 -23.2335 -11.5424 -11.5245 -11.5202 -11.5105 -11.4700
   -11.4519  -8.3783  -8.3696  -8.3568  -7.0400  -6.8194  -6.7634  -6.7158
    -6.6525  -6.6137  -6.5639  -6.4284   1.3565   1.6552   1.7466   1.9052
     1.9960   2.1853   2.3880   2.5239   2.5676   2.7599   2.8632   2.9209
     3.1897   3.3226   3.4308   3.6475   3.6644   3.7593   3.9569   4.0700
     4.1656   4.2384   4.4690   4.5377   6.9680   6.9895   6.9927   7.0011
     7.0091   7.0135   7.0362   7.0525   7.0569   7.0702   7.0852   7.0930
     7.1118   7.1290   7.4723   7.8053   7.8935   7.9256   8.0848   8.3276

     occupation numbers
     1.0000   1.0000   1.0000   1.0000   1.0000   1.0000   1.0000   1.0000
     1.0000   1.0000   1.0000   1.0000   1.0000   1.0000   1.0000   1.0000
     1.0000   1.0000   1.0000   1.0000   1.0000   1.0000   1.0000   1.0000
     1.0000   1.0000   1.0000   1.0000   1.0000   1.0000   1.0000   1.0000
     1.0000   1.0000   1.0000   1.0000   1.0000   1.0000   1.0000   1.0000
     1.0000   1.0000   1.0000   1.0000   0.0000   0.0000   0.0000   0.0000
     0.0000   0.0000   0.0000   0.0000   0.0000   0.0000   0.0000   0.0000
     0.0000   0.0000   0.0000   0.0000   0.0000   0.0000   0.0000   0.0000

     highest occupied, lowest unoccupied level (ev):     4.6669    6.9591

!    total energy              =   -4385.18229826 Ry
     total all-electron energy =   -131052.254981 Ry
     estimated scf accuracy    <       0.00000038 Ry

     The total energy is the sum of the following terms:
     one-electron contribution =     -24.97208882 Ry
     hartree contribution      =      53.32842772 Ry
     xc contribution           =    -380.60839635 Ry
     ewald contribution        =    -306.55658692 Ry
     one-center paw contrib.   =   -3726.37365390 Ry
      -> PAW hartree energy AE =      62.14761915 Ry
      -> PAW hartree energy PS =     -62.03106997 Ry
      -> PAW xc energy AE      =    -799.40088433 Ry
      -> PAW xc energy PS      =      30.72917892 Ry
      -> total E_H with PAW    =      53.44497691 Ry
      -> total E_XC with PAW   =   -1149.28010175 Ry

     convergence has been achieved in   8 iterations

     Writing all to output data dir bands_nm/myprefix.save/

     General routines

     Parallel routines

     PAW routines

   This run was terminated on:  17:16:39  14Jul2023

   JOB DONE.