     Program PWSCF v.7.1 starts on 15Jul2023 at 21:33: 7

     Reading input from espresso_19407.pwi
Warning: card &CELL ignored
Warning: card / ignored

     Current dimensions of program PWSCF are:
     Max number of different atomic species (ntypx) = 10
     Max number of k-points (npk) =  40000
     Max angular momentum in pseudopotentials (lmaxx) =  4
     file Yb.paw.z_24.atompaw.wentzcovitch.v1.2.upf: wavefunction(s)  6S 0P 5D 0D 4F 0F renormalized
     file O.pbe-n-kjpaw_psl.0.1.UPF: wavefunction(s)  2P renormalized
     Message from routine setup:
     using ibrav=0 with symmetry is DISCOURAGED, use correct ibrav instead

     K-points division:     npool     =       2
     R & G space division:  proc/nbgrp/npool/nimage =       4
     Subspace diagonalization in iterative solution of the eigenvalue problem:
     one sub-group per band group will be used

     Using Slab Decomposition

     bravais-lattice index     =            0
     lattice parameter (alat)  =      10.4509  a.u.
     unit-cell volume          =    1701.1737 (a.u.)^3
     number of atoms/cell      =           20
     number of atomic types    =            3
     number of electrons       =       216.00
     number of Kohn-Sham states=          256
     kinetic-energy cutoff     =      30.0000  Ry
     charge density cutoff     =     240.0000  Ry
     scf convergence threshold =      1.0E-06
     mixing beta               =       0.7000
     number of iterations used =            8  plain     mixing
     Exchange-correlation= SLA  PW   PBX  PBC
                           (   1   4   3   4   0   0   0)

     celldm(1)=  10.450921  celldm(2)=   0.000000  celldm(3)=   0.000000
     celldm(4)=   0.000000  celldm(5)=   0.000000  celldm(6)=   0.000000

     crystal axes: (cart. coord. in units of alat)
               a(1) = (   1.000000   0.000000   0.000000 )
               a(2) = (   0.000000   1.035351   0.000000 )
               a(3) = (   0.000000   0.000000   1.439452 )

     reciprocal axes: (cart. coord. in units 2 pi/alat)
               b(1) = (  1.000000  0.000000  0.000000 )
               b(2) = (  0.000000  0.965856  0.000000 )
               b(3) = (  0.000000  0.000000  0.694709 )

     PseudoPot. # 1 for Yb read from file:
     /lustre07/scratch/pragov/crystal_structure_design/utils/SSSP/Yb.paw.z_24.atompaw.wentzcovitch.v1.2.upf
     MD5 check sum: 2246be0c1287a90a9096a0c3416daab6
     Pseudo is Projector augmented-wave + core cor, Zval = 24.0
     Generated using ATOMPAW code
     Shape of augmentation charge: BESSEL
     Using radial grid of 1117 points,  8 beta functions with:
                l(1) =   0
                l(2) =   0
                l(3) =   1
                l(4) =   1
                l(5) =   2
                l(6) =   2
                l(7) =   3
                l(8) =   3
     Q(r) pseudized with 0 coefficients

     PseudoPot. # 2 for Hf read from file:
     /lustre07/scratch/pragov/crystal_structure_design/utils/SSSP/Hf-sp.oncvpsp.upf
     MD5 check sum: 417ed15784afe83d2e06dacf143de3f8
     Pseudo is Norm-conserving + core correction, Zval = 12.0
     Generated using ONCVPSP code by D. R. Hamann
     Using radial grid of 1656 points,  8 beta functions with:
                l(1) =   0
                l(2) =   0
                l(3) =   1
                l(4) =   1
                l(5) =   2
                l(6) =   2
                l(7) =   3
                l(8) =   3

     PseudoPot. # 3 for O  read from file:
     /lustre07/scratch/pragov/crystal_structure_design/utils/SSSP/O.pbe-n-kjpaw_psl.0.1.UPF
     MD5 check sum: 0234752ac141de4415c5fc33072bef88
     Pseudo is Projector augmented-wave + core cor, Zval =  6.0
     Generated using "atomic" code by A. Dal Corso  v.5.0.99 svn rev. 10869
     Shape of augmentation charge: BESSEL
     Using radial grid of 1095 points,  4 beta functions with:
                l(1) =   0
                l(2) =   0
                l(3) =   1
                l(4) =   1
     Q(r) pseudized with 0 coefficients

     atomic species   valence    mass     pseudopotential
        Yb            24.00   173.05400     Yb( 1.00)
        Hf            12.00   178.49000     Hf( 1.00)
        O              6.00    15.99900     O ( 1.00)

      8 Sym. Ops., with inversion, found ( 6 have fractional translation)

                                    s                        frac. trans.

      isym =  1     identity

 cryst.   s( 1) = (     1          0          0      )
                  (     0          1          0      )
                  (     0          0          1      )

 cart.    s( 1) = (  1.0000000  0.0000000  0.0000000 )
                  (  0.0000000  1.0000000  0.0000000 )
                  (  0.0000000  0.0000000  1.0000000 )

      isym =  2     180 deg rotation - cart. axis [0,0,1]

 cryst.   s( 2) = (    -1          0          0      )    f =(  0.0000000 )
                  (     0         -1          0      )       (  0.0000000 )
                  (     0          0          1      )       ( -0.5000000 )

 cart.    s( 2) = ( -1.0000000  0.0000000  0.0000000 )    f =(  0.0000000 )
                  (  0.0000000 -1.0000000  0.0000000 )       (  0.0000000 )
                  (  0.0000000  0.0000000  1.0000000 )       ( -0.7197262 )

[...]

      isym =  4     180 deg rotation - cart. axis [1,0,0]

[...]

      isym =  5     inversion

 cryst.   s( 5) = (    -1          0          0      )
                  (     0         -1          0      )
                  (     0          0         -1      )

 cart.    s( 5) = ( -1.0000000  0.0000000  0.0000000 )
                  (  0.0000000 -1.0000000  0.0000000 )
                  (  0.0000000  0.0000000 -1.0000000 )

      isym =  6     inv. 180 deg rotation - cart. axis [0,0,1]

[...]

      isym =  8     inv. 180 deg rotation - cart. axis [1,0,0]

 cryst.   s( 8) = (    -1          0          0      )    f =(  0.5000000 )
                  (     0          1          0      )       (  0.5000000 )
                  (     0          0          1      )       (  0.0000000 )

 cart.    s( 8) = ( -1.0000000  0.0000000  0.0000000 )    f =(  0.5000000 )
                  (  0.0000000  1.0000000  0.0000000 )       (  0.5176756 )
                  (  0.0000000  0.0000000  1.0000000 )       (  0.0000000 )

   Cartesian axes

     site n.     atom                  positions (alat units)
         1           Yb  tau(   1) = (   0.9872800   0.0547080   0.3598631  )
         2           Yb  tau(   2) = (   0.4872800   0.4629677   1.0795893  )
         3           Yb  tau(   3) = (   0.5127200   0.5723836   0.3598631  )
         4           Yb  tau(   4) = (   0.0127200   0.9806433   1.0795893  )
         5           Hf  tau(   5) = (   0.5000000   0.0000000   0.0000000  )
         6           Hf  tau(   6) = (   0.5000000   0.0000000   0.7197262  )
         7           Hf  tau(   7) = (   0.0000000   0.5176756   0.0000000  )
         8           Hf  tau(   8) = (   0.0000000   0.5176756   0.7197262  )
         9           O   tau(   9) = (   0.6069370   0.0425022   1.0795893  )
        10           O   tau(  10) = (   0.1933970   0.2030531   0.7995180  )
        11           O   tau(  11) = (   0.1933970   0.2030531   1.3596607  )
        12           O   tau(  12) = (   0.6933970   0.3146225   0.0797917  )
        13           O   tau(  13) = (   0.6933970   0.3146225   0.6399345  )
        14           O   tau(  14) = (   0.1069370   0.4751734   0.3598631  )
        15           O   tau(  15) = (   0.8930630   0.5601778   1.0795893  )
        16           O   tau(  16) = (   0.3066030   0.7207287   0.7995180  )
        17           O   tau(  17) = (   0.3066030   0.7207287   1.3596607  )
        18           O   tau(  18) = (   0.8066030   0.8322981   0.0797917  )
        19           O   tau(  19) = (   0.8066030   0.8322981   0.6399345  )
        20           O   tau(  20) = (   0.3930630   0.9928490   0.3598631  )

   Crystallographic axes

     site n.     atom                  positions (cryst. coord.)
         1           Yb  tau(   1) = (  0.9872800  0.0528400  0.2500000  )
         2           Yb  tau(   2) = (  0.4872800  0.4471600  0.7500000  )
         3           Yb  tau(   3) = (  0.5127200  0.5528400  0.2500000  )
         4           Yb  tau(   4) = (  0.0127200  0.9471600  0.7500000  )
         5           Hf  tau(   5) = (  0.5000000  0.0000000  0.0000000  )
         6           Hf  tau(   6) = (  0.5000000  0.0000000  0.5000000  )
         7           Hf  tau(   7) = (  0.0000000  0.5000000  0.0000000  )
         8           Hf  tau(   8) = (  0.0000000  0.5000000  0.5000000  )
         9           O   tau(   9) = (  0.6069370  0.0410510  0.7500000  )
        10           O   tau(  10) = (  0.1933970  0.1961200  0.5554320  )
        11           O   tau(  11) = (  0.1933970  0.1961200  0.9445680  )
        12           O   tau(  12) = (  0.6933970  0.3038800  0.0554320  )
        13           O   tau(  13) = (  0.6933970  0.3038800  0.4445680  )
        14           O   tau(  14) = (  0.1069370  0.4589490  0.2500000  )
        15           O   tau(  15) = (  0.8930630  0.5410510  0.7500000  )
        16           O   tau(  16) = (  0.3066030  0.6961200  0.5554320  )
        17           O   tau(  17) = (  0.3066030  0.6961200  0.9445680  )
        18           O   tau(  18) = (  0.8066030  0.8038800  0.0554320  )
        19           O   tau(  19) = (  0.8066030  0.8038800  0.4445680  )
        20           O   tau(  20) = (  0.3930630  0.9589490  0.2500000  )

     number of k points=     8
                       cart. coord. in units 2pi/alat
        k(    1) = (   0.0000000   0.0000000   0.0000000), wk =   0.0740741
        k(    2) = (   0.0000000   0.0000000   0.2315695), wk =   0.1481481
        k(    3) = (   0.0000000   0.3219519   0.0000000), wk =   0.1481481
        k(    4) = (   0.0000000   0.3219519   0.2315695), wk =   0.2962963
        k(    5) = (   0.3333333   0.0000000   0.0000000), wk =   0.1481481
        k(    6) = (   0.3333333   0.0000000   0.2315695), wk =   0.2962963
        k(    7) = (   0.3333333   0.3219519   0.0000000), wk =   0.2962963
        k(    8) = (   0.3333333   0.3219519   0.2315695), wk =   0.5925926

                       cryst. coord.
        k(    1) = (   0.0000000   0.0000000   0.0000000), wk =   0.0740741
        k(    2) = (   0.0000000   0.0000000   0.3333333), wk =   0.1481481
        k(    3) = (   0.0000000   0.3333333   0.0000000), wk =   0.1481481
        k(    4) = (   0.0000000   0.3333333   0.3333333), wk =   0.2962963
        k(    5) = (   0.3333333   0.0000000   0.0000000), wk =   0.1481481
        k(    6) = (   0.3333333   0.0000000   0.3333333), wk =   0.2962963
        k(    7) = (   0.3333333   0.3333333   0.0000000), wk =   0.2962963
        k(    8) = (   0.3333333   0.3333333   0.3333333), wk =   0.5925926

     Check: negative core charge=   -0.000012

     Initial potential from superposition of free atoms

     starting charge     215.9765, renormalised to     216.0000
     Starting wfcs are  216 randomized atomic wfcs +   40 random wfcs
     Checking if some PAW data can be deallocated...

     Self-consistent Calculation

     iteration #  1     ecut=    30.00 Ry     beta= 0.70
     Davidson diagonalization with overlap

     ethr =  1.00E-02,  avg # of iterations =  9.1

     total energy              =   -4994.33691241 Ry
     estimated scf accuracy    <       5.50096716 Ry

[...]

     c_bands:  1 eigenvalues not converged
     ethr =  2.55E-05,  avg # of iterations = 11.2

[...]

     c_bands:  1 eigenvalues not converged
     ethr =  1.24E-06,  avg # of iterations =  6.9

[...]

     total energy              =   -4997.72457698 Ry
     estimated scf accuracy    <       0.00000511 Ry

     iteration # 27     ecut=    30.00 Ry     beta= 0.70
     Davidson diagonalization with overlap

     ethr =  8.03E-10,  avg # of iterations =  1.0

     End of self-consistent calculation

          k = 0.0000 0.0000 0.0000 (  4727 PWs)   bands (ev):

   -47.5325 -47.5250 -47.5235 -47.5071 -35.9308 -35.9289 -35.9252 -35.9232
   -16.5720 -16.5664 -16.5587 -16.5558 -16.5379 -16.5349 -16.4097 -16.4018
   -16.3967 -16.3827 -16.3800 -16.3746  -8.7151  -8.6480  -8.6326  -8.6264
    -8.6047  -8.5174  -8.4128  -8.3949  -8.3767  -8.3596  -8.3594  -8.3477
    -5.1905  -4.5505  -4.3641  -4.2912  -4.2338  -4.1603  -3.7981  -3.6064
    -3.5959  -3.5154  -3.3502  -3.2826   7.5970   7.8036   7.8693   7.9307
     8.2384   8.2736   8.3757   8.5169   8.5841   8.6528   9.3161   9.5822
     9.8494   9.8746   9.9459   9.9885  10.0018  10.0180  10.0376  10.1810
    10.1851  10.3693  10.6865  10.8378  10.8897  10.9632  10.9642  10.9972
    11.0001  11.1240  11.2179  11.4172  11.5006  11.5847  11.6330  11.7027
    15.5798  15.8160  15.8171  15.8189  15.8638  15.8805  15.8807  15.8859
    15.8937  15.8976  15.9104  15.9120  15.9195  15.9224  15.9235  15.9267
    15.9324  15.9413  15.9500  15.9584  15.9622  15.9772  15.9817  15.9848
    16.0266  16.0302  16.0332  16.0353  16.5879  16.6331  16.6529  16.9972
    17.1797  17.3427  18.0245  18.1205  18.5476  18.6371  18.7367  18.9730
    18.9785  19.2940  19.3102  19.3586  19.3942  19.6719  19.6730  20.4441
    20.4730  20.5460  20.6259  21.0401  21.0981  21.1883  21.2269  21.5230
    21.7101  21.7243  21.8096  21.9026  21.9179  21.9309  21.9507  22.6740
    22.7205  22.9454  22.9551  23.0047  23.7774  23.7947  23.9781  24.2882
    25.0125  25.0877  25.1502  26.3543  26.4190  26.5955  26.6024  26.7179
    26.7446  26.8901  27.0524  27.4018  27.4754  27.6303  27.8197  27.8208
    28.3518  28.6661  29.5122  29.5427  29.6822  30.0251  30.4034  31.2278
    31.2981  31.5016  31.5566  31.6955  31.8182  31.8549  31.9520  32.1811
    33.2927  33.4555  33.5038  33.7814  33.8231  34.4925  34.7639  35.0183
    35.2305  35.3665  35.4791  35.5415  35.6315  36.3786  36.5028  36.7795
    36.9460  37.2779  37.7339  37.8648  37.9829  38.0929  38.1678  38.3700
    38.5052  38.6886  38.7845  39.0370  39.4028  39.5528  39.7456  39.7487
    39.8611  40.0651  40.0755  40.3115  40.4312  40.7485  41.4645  41.5560
    41.6165  42.1598  42.2627  42.2814  42.4432  42.7082  43.0699  43.2158
    43.3995  43.4124  43.6015  43.8526  43.9909  44.3012  44.3641  44.4514
    44.8064  44.8330  44.9419  44.9431  45.0523  45.1796  45.1963  45.2492
    45.5198  45.7501  45.8392  46.0663  46.0918  46.1846  46.5024  46.5168

     occupation numbers
     1.0000   1.0000   1.0000   1.0000   1.0000   1.0000   1.0000   1.0000
     1.0000   1.0000   1.0000   1.0000   1.0000   1.0000   1.0000   1.0000
     1.0000   1.0000   1.0000   1.0000   1.0000   1.0000   1.0000   1.0000
     1.0000   1.0000   1.0000   1.0000   1.0000   1.0000   1.0000   1.0000
     1.0000   1.0000   1.0000   1.0000   1.0000   1.0000   1.0000   1.0000
     1.0000   1.0000   1.0000   1.0000   1.0000   1.0000   1.0000   1.0000
     1.0000   1.0000   1.0000   1.0000   1.0000   1.0000   1.0000   1.0000
     1.0000   1.0000   1.0000   1.0000   1.0000   1.0000   1.0000   1.0000
     1.0000   1.0000   1.0000   1.0000   1.0000   1.0000   1.0000   1.0000
     1.0000   1.0000   1.0000   1.0000   1.0000   1.0000   1.0000   1.0000
     1.0000   1.0000   1.0000   1.0000   1.0000   1.0000   1.0000   1.0000
     1.0000   1.0000   1.0000   1.0000   1.0000   1.0000   1.0000   1.0000
     1.0000   1.0000   1.0000   1.0000   1.0000   1.0000   1.0000   1.0000
     1.0000   1.0000   1.0000   1.0000   0.0000   0.0000   0.0000   0.0000
     0.0000   0.0000   0.0000   0.0000   0.0000   0.0000   0.0000   0.0000
     0.0000   0.0000   0.0000   0.0000   0.0000   0.0000   0.0000   0.0000
     0.0000   0.0000   0.0000   0.0000   0.0000   0.0000   0.0000   0.0000
     0.0000   0.0000   0.0000   0.0000   0.0000   0.0000   0.0000   0.0000
     0.0000   0.0000   0.0000   0.0000   0.0000   0.0000   0.0000   0.0000
     0.0000   0.0000   0.0000   0.0000   0.0000   0.0000   0.0000   0.0000
     0.0000   0.0000   0.0000   0.0000   0.0000   0.0000   0.0000   0.0000
     0.0000   0.0000   0.0000   0.0000   0.0000   0.0000   0.0000   0.0000
     0.0000   0.0000   0.0000   0.0000   0.0000   0.0000   0.0000   0.0000
     0.0000   0.0000   0.0000   0.0000   0.0000   0.0000   0.0000   0.0000
     0.0000   0.0000   0.0000   0.0000   0.0000   0.0000   0.0000   0.0000
     0.0000   0.0000   0.0000   0.0000   0.0000   0.0000   0.0000   0.0000
     0.0000   0.0000   0.0000   0.0000   0.0000   0.0000   0.0000   0.0000
     0.0000   0.0000   0.0000   0.0000   0.0000   0.0000   0.0000   0.0000
     0.0000   0.0000   0.0000   0.0000   0.0000   0.0000   0.0000   0.0000
     0.0000   0.0000   0.0000   0.0000   0.0000   0.0000   0.0000   0.0000
     0.0000   0.0000   0.0000   0.0000   0.0000   0.0000   0.0000   0.0000
     0.0000   0.0000   0.0000   0.0000   0.0000   0.0000   0.0000   0.0000

[...]

          k = 0.3333 0.3220 0.2316 (  4715 PWs)   bands (ev):

   -47.5223 -47.5214 -47.5199 -47.5189 -35.9283 -35.9274 -35.9267 -35.9258
   -16.5623 -16.5597 -16.5259 -16.5214 -16.5147 -16.5126 -16.4330 -16.4317
   -16.4281 -16.4220 -16.3857 -16.3832  -8.7109  -8.6627  -8.6454  -8.6017
    -8.5359  -8.5055  -8.4435  -8.4281  -8.4257  -8.4082  -8.3614  -8.3493
    -4.4897  -4.4686  -4.2929  -4.2362  -4.1976  -4.1460  -3.9067  -3.8006
    -3.6891  -3.6076  -3.5241  -3.4855   7.9361   7.9931   8.1490   8.1674
     8.3573   8.5404   8.6383   8.6803   8.7535   9.0644   9.2111   9.2688
     9.3580   9.4495   9.6058   9.6873   9.7990   9.8840   9.9797  10.0802
    10.2066  10.3550  10.3964  10.5441  10.6204  10.7212  10.9126  10.9280
    11.0356  11.0820  11.1322  11.2176  11.3050  11.3441  11.3826  11.4720
    15.7421  15.7809  15.8078  15.8297  15.8800  15.8851  15.8907  15.8940
    15.8995  15.9027  15.9142  15.9184  15.9217  15.9239  15.9252  15.9327
    15.9444  15.9455  15.9605  15.9617  15.9633  15.9737  15.9803  15.9836
    16.0093  16.0110  16.0156  16.0240  17.0611  17.3234  17.3418  17.4320
    17.7766  17.8406  18.0754  18.2333  18.4019  18.5180  18.6262  18.8328
    19.0161  19.4248  19.5196  19.6441  19.9315  19.9772  20.0929  20.2022
    20.4510  20.5784  20.7224  20.9124  21.0818  21.1244  21.2095  21.5365
    21.6080  21.9092  21.9987  22.0908  22.1433  22.4262  22.5166  22.6158
    22.7140  22.8861  23.0525  23.1276  23.3176  23.3846  23.7304  23.9867
    24.5363  24.6371  24.8364  24.9752  25.2306  25.4857  26.7249  26.7438
    27.2906  27.4404  27.6497  27.7340  28.2336  28.3450  28.3876  28.4441
    28.8096  28.9753  29.1737  29.5106  29.8424  29.9579  30.2139  30.3568
    30.7458  30.9629  31.2034  31.4157  31.7102  31.8470  32.1250  32.3932
    32.8508  33.1253  33.5100  34.0064  34.0911  34.1835  34.3316  34.5397
    34.7610  35.0755  35.3080  35.9760  36.0082  36.3479  36.5281  36.7857
    36.8189  37.1882  37.4768  37.5954  37.6805  37.9178  38.0567  38.2556
    38.4191  38.5051  38.9333  38.9472  39.0674  39.1499  39.4457  39.6680
    39.9726  40.1419  40.2011  40.2607  40.5746  40.9059  41.1648  41.3433
    41.4931  41.9575  42.1651  42.2693  42.3318  42.6147  42.6934  42.7654
    43.0892  43.2967  43.3813  43.5229  43.8721  44.0286  44.3187  44.5735
    44.7438  44.8093  44.9114  45.0007  45.3523  45.3892  45.6437  45.8001
    45.8634  46.0840  46.1589  46.2503  46.3392  46.4376  46.5641  46.7456

     occupation numbers
     1.0000   1.0000   1.0000   1.0000   1.0000   1.0000   1.0000   1.0000
     1.0000   1.0000   1.0000   1.0000   1.0000   1.0000   1.0000   1.0000
     1.0000   1.0000   1.0000   1.0000   1.0000   1.0000   1.0000   1.0000
     1.0000   1.0000   1.0000   1.0000   1.0000   1.0000   1.0000   1.0000
     1.0000   1.0000   1.0000   1.0000   1.0000   1.0000   1.0000   1.0000
     1.0000   1.0000   1.0000   1.0000   1.0000   1.0000   1.0000   1.0000
     1.0000   1.0000   1.0000   1.0000   1.0000   1.0000   1.0000   1.0000
     1.0000   1.0000   1.0000   1.0000   1.0000   1.0000   1.0000   1.0000
     1.0000   1.0000   1.0000   1.0000   1.0000   1.0000   1.0000   1.0000
     1.0000   1.0000   1.0000   1.0000   1.0000   1.0000   1.0000   1.0000
     1.0000   1.0000   1.0000   1.0000   1.0000   1.0000   1.0000   1.0000
     1.0000   1.0000   1.0000   1.0000   1.0000   1.0000   1.0000   1.0000
     1.0000   1.0000   1.0000   1.0000   1.0000   1.0000   1.0000   1.0000
     1.0000   1.0000   1.0000   1.0000   0.0000   0.0000   0.0000   0.0000
     0.0000   0.0000   0.0000   0.0000   0.0000   0.0000   0.0000   0.0000
     0.0000   0.0000   0.0000   0.0000   0.0000   0.0000   0.0000   0.0000
     0.0000   0.0000   0.0000   0.0000   0.0000   0.0000   0.0000   0.0000
     0.0000   0.0000   0.0000   0.0000   0.0000   0.0000   0.0000   0.0000
     0.0000   0.0000   0.0000   0.0000   0.0000   0.0000   0.0000   0.0000
     0.0000   0.0000   0.0000   0.0000   0.0000   0.0000   0.0000   0.0000
     0.0000   0.0000   0.0000   0.0000   0.0000   0.0000   0.0000   0.0000
     0.0000   0.0000   0.0000   0.0000   0.0000   0.0000   0.0000   0.0000
     0.0000   0.0000   0.0000   0.0000   0.0000   0.0000   0.0000   0.0000
     0.0000   0.0000   0.0000   0.0000   0.0000   0.0000   0.0000   0.0000
     0.0000   0.0000   0.0000   0.0000   0.0000   0.0000   0.0000   0.0000
     0.0000   0.0000   0.0000   0.0000   0.0000   0.0000   0.0000   0.0000
     0.0000   0.0000   0.0000   0.0000   0.0000   0.0000   0.0000   0.0000
     0.0000   0.0000   0.0000   0.0000   0.0000   0.0000   0.0000   0.0000
     0.0000   0.0000   0.0000   0.0000   0.0000   0.0000   0.0000   0.0000
     0.0000   0.0000   0.0000   0.0000   0.0000   0.0000   0.0000   0.0000
     0.0000   0.0000   0.0000   0.0000   0.0000   0.0000   0.0000   0.0000
     0.0000   0.0000   0.0000   0.0000   0.0000   0.0000   0.0000   0.0000

     highest occupied, lowest unoccupied level (ev):    16.0353   16.5879

!    total energy              =   -4997.72457605 Ry
     estimated scf accuracy    <       0.00000090 Ry

     The total energy is the sum of the following terms:
     one-electron contribution =   -1518.67016755 Ry
     hartree contribution      =     772.57970370 Ry
     xc contribution           =    -358.59638409 Ry
     ewald contribution        =   -1834.29873718 Ry
     one-center paw contrib.   =   -2058.73899093 Ry
      -> PAW hartree energy AE =    1355.57927185 Ry
      -> PAW hartree energy PS =   -1171.52032240 Ry
      -> PAW xc energy AE      =   -1754.89375237 Ry
      -> PAW xc energy PS      =     112.44495866 Ry
      -> total E_H with PAW    =     956.63865315 Ry
      -> total E_XC with PAW   =   -2001.04517780 Ry

     convergence has been achieved in  27 iterations

     Writing all to output data dir bands_nm/myprefix.save/

     General routines

     Parallel routines

     PAW routines

   This run was terminated on:  21:34:55  15Jul2023

   JOB DONE.