     Program PWSCF v.7.1 starts on 15Jul2023 at 18:57: 9

     Reading input from espresso_2917.pwi
Warning: card &CELL ignored
Warning: card / ignored

     Current dimensions of program PWSCF are:
     Max number of different atomic species (ntypx) = 10
     Max number of k-points (npk) =  40000
     Max angular momentum in pseudopotentials (lmaxx) =  4
     file Ba.pbe-spn-kjpaw_psl.1.0.0.UPF: wavefunction(s)  5S 6S renormalized
     Message from routine setup:
     using ibrav=0 with symmetry is DISCOURAGED, use correct ibrav instead

     K-points division:     npool     =       2
     R & G space division:  proc/nbgrp/npool/nimage =       4
     Subspace diagonalization in iterative solution of the eigenvalue problem:
     one sub-group per band group will be used

     Using Slab Decomposition

     bravais-lattice index     =            0
     lattice parameter (alat)  =      17.2082  a.u.
     unit-cell volume          =    2140.4908 (a.u.)^3
     number of atoms/cell      =           18
     number of atomic types    =            4
     number of electrons       =       160.00
     number of Kohn-Sham states=          256
     kinetic-energy cutoff     =      30.0000  Ry
     charge density cutoff     =     240.0000  Ry
     scf convergence threshold =      1.0E-06
     mixing beta               =       0.7000
     number of iterations used =            8  plain     mixing
     Exchange-correlation=  SLA  PW   PBX  PBC
                           (   1   4   3   4   0   0   0)

     celldm(1)=  17.208183  celldm(2)=   0.000000  celldm(3)=   0.000000
     celldm(4)=   0.000000  celldm(5)=   0.000000  celldm(6)=   0.000000

     crystal axes: (cart. coord. in units of alat)
               a(1) = (   1.000000   0.000000   0.000000 )
               a(2) = (  -0.776113   0.630594   0.000000 )
               a(3) = (   0.000000   0.000000   0.666129 )

     reciprocal axes: (cart. coord. in units 2 pi/alat)
               b(1) = (  1.000000  1.230764  0.000000 )
               b(2) = (  0.000000  1.585806  0.000000 )
               b(3) = (  0.000000  0.000000  1.501211 )

     PseudoPot. # 1 for Ba read from file:
     /lustre07/scratch/pragov/crystal_structure_design/utils/SSSP/Ba.pbe-spn-kjpaw_psl.1.0.0.UPF
     MD5 check sum: c432291d3e53af55f19d5e8866385beb
     Pseudo is Projector augmented-wave + core cor, Zval = 10.0
     Generated using "atomic" code by A. Dal Corso  v.5.1
     Shape of augmentation charge: PSQ
     Using radial grid of 1251 points,  7 beta functions with:
                l(1) =   0
                l(2) =   0
                l(3) =   0
                l(4) =   1
                l(5) =   1
                l(6) =   2
                l(7) =   2
     Q(r) pseudized with 0 coefficients

     PseudoPot. # 2 for Sr read from file:
     /lustre07/scratch/pragov/crystal_structure_design/utils/SSSP/Sr_pbe_v1.uspp.F.UPF
     MD5 check sum: 6b418c05fbe9db5448babca5e47b7a5b
     Pseudo is Ultrasoft + core correction, Zval = 10.0
     Generated by new atomic code, or converted to UPF format
     Using radial grid of  883 points,  6 beta functions with:
                l(1) =   0
                l(2) =   0
                l(3) =   1
                l(4) =   1
                l(5) =   2
                l(6) =   2
     Q(r) pseudized with  6 coefficients,  rinner =    1.400   1.400   1.400
                                                       1.400   1.400

     PseudoPot. # 3 for Pd read from file:
     /lustre07/scratch/pragov/crystal_structure_design/utils/SSSP/Pd_ONCV_PBE-1.0.oncvpsp.upf
     MD5 check sum: eb77f42b51d86fb18e25f68156a31cf1
     Pseudo is Norm-conserving, Zval = 18.0
     Generated using ONCVPSP code by D. R. Hamann
     Using radial grid of 1410 points,  6 beta functions with:
                l(1) =   0
                l(2) =   0
                l(3) =   1
                l(4) =   1
                l(5) =   2
                l(6) =   2

     PseudoPot. # 4 for F  read from file:
     /lustre07/scratch/pragov/crystal_structure_design/utils/SSSP/f_pbe_v1.4.uspp.F.UPF
     MD5 check sum: 4c38b6a325caf53ec0e86aed9459de46
     Pseudo is Ultrasoft, Zval =  7.0
     Generated by new atomic code, or converted to UPF format
     Using radial grid of  799 points,  4 beta functions with:
                l(1) =   0
                l(2) =   0
                l(3) =   1
                l(4) =   1
     Q(r) pseudized with  8 coefficients,  rinner =    0.950   0.950   0.950

     atomic species   valence    mass     pseudopotential
        Ba            10.00   137.32700     Ba( 1.00)
        Sr            10.00    87.62000     Sr( 1.00)
        Pd            18.00   106.42000     Pd( 1.00)
        F              7.00    18.99840     F ( 1.00)

      2 Sym. Ops. (no inversion) found ( 1 have fractional translation)

                                    s                        frac. trans.

      isym =  1     identity

 cryst.   s( 1) = (     1          0          0      )
                  (     0          1          0      )
                  (     0          0          1      )

 cart.    s( 1) = (  1.0000000  0.0000000  0.0000000 )
                  (  0.0000000  1.0000000  0.0000000 )
                  (  0.0000000  0.0000000  1.0000000 )

      isym =  2     inv. 180 deg rotation - cart. axis [0,0,1]

 cryst.   s( 2) = (     1          0          0      )    f =( -0.5000000 )
                  (     0          1          0      )       (  0.5000000 )
                  (     0          0         -1      )       (  0.5000000 )

 cart.    s( 2) = (  1.0000000  0.0000000  0.0000000 )    f =( -0.8880564 )
                  (  0.0000000  1.0000000  0.0000000 )       (  0.3152971 )
                  (  0.0000000  0.0000000 -1.0000000 )       (  0.3330645 )

   Cartesian axes

     site n.     atom                  positions (alat units)
         1           Ba  tau(   1) = (  -0.1791009   0.4186300   0.3330645  )
         2           Ba  tau(   2) = (   0.7089555   0.1033329   0.0000000  )
         3           Sr  tau(   3) = (   0.3966527   0.2142135   0.3330645  )
         4           Sr  tau(   4) = (  -0.4914037   0.5295105   0.0000000  )
         5           Pd  tau(   5) = (  -0.7687437   0.6279778   0.3330645  )
         6           Pd  tau(   6) = (   0.1193127   0.3126807   0.0000000  )
         7           F   tau(   7) = (   0.4886976   0.0069529   0.1646851  )
         8           F   tau(   8) = (   0.5987872   0.3170281   0.5014440  )
         9           F   tau(   9) = (   0.4868436   0.0017310   0.4977496  )
        10           F   tau(  10) = (   0.6006412   0.3222500   0.1683794  )
        11           F   tau(  11) = (  -0.1074176   0.1532451   0.2272073  )
        12           F   tau(  12) = (   0.0438836   0.5793956   0.4389218  )
        13           F   tau(  13) = (  -0.0680600   0.2640985   0.5602718  )
        14           F   tau(  14) = (   0.0045260   0.4685422   0.1058572  )
        15           F   tau(  15) = (   0.3418258   0.4698343   0.4404419  )
        16           F   tau(  16) = (   0.1929078   0.0503965   0.2256872  )
        17           F   tau(  17) = (   0.3048515   0.3656935   0.1073773  )
        18           F   tau(  18) = (   0.2298821   0.1545372   0.5587517  )

   Crystallographic axes

     site n.     atom                  positions (cryst. coord.)
         1           Ba  tau(   1) = (  0.3361340  0.6638660  0.5000000  )
         2           Ba  tau(   2) = (  0.8361340  0.1638660  0.0000000  )
         3           Sr  tau(   3) = (  0.6602990  0.3397010  0.5000000  )
         4           Sr  tau(   4) = (  0.1602990  0.8397010  0.0000000  )
         5           Pd  tau(   5) = (  0.0041490  0.9958510  0.5000000  )
         6           Pd  tau(   6) = (  0.5041490  0.4958510  0.0000000  )
         7           F   tau(   7) = (  0.4972550  0.0110260  0.2472270  )
         8           F   tau(   8) = (  0.9889740  0.5027450  0.7527730  )
         9           F   tau(   9) = (  0.4889740  0.0027450  0.7472270  )
        10           F   tau(  10) = (  0.9972550  0.5110260  0.2527730  )
        11           F   tau(  11) = (  0.0811910  0.2430170  0.3410860  )
        12           F   tau(  12) = (  0.7569830  0.9188090  0.6589140  )
        13           F   tau(  13) = (  0.2569830  0.4188090  0.8410860  )
        14           F   tau(  14) = (  0.5811910  0.7430170  0.1589140  )
        15           F   tau(  15) = (  0.9200810  0.7450660  0.6611960  )
        16           F   tau(  16) = (  0.2549340  0.0799190  0.3388040  )
        17           F   tau(  17) = (  0.7549340  0.5799190  0.1611960  )
        18           F   tau(  18) = (  0.4200810  0.2450660  0.8388040  )

     number of k points=    10
                       cart. coord. in units 2pi/alat
        k(    1) = (   0.0000000   0.0000000   0.0000000), wk =   0.0740741
        k(    2) = (   0.0000000   0.0000000   0.5004035), wk =   0.1481481
        k(    3) = (   0.0000000   0.5286020   0.0000000), wk =   0.1481481
        k(    4) = (   0.0000000   0.5286020   0.5004035), wk =   0.2962963
        k(    5) = (   0.3333333   0.4102548   0.0000000), wk =   0.1481481
        k(    6) = (   0.3333333   0.4102548   0.5004035), wk =   0.2962963
        k(    7) = (   0.3333333   0.9388568   0.0000000), wk =   0.1481481
        k(    8) = (   0.3333333   0.9388568   0.5004035), wk =   0.2962963
        k(    9) = (   0.3333333  -0.1183472   0.0000000), wk =   0.1481481
        k(   10) = (   0.3333333  -0.1183472   0.5004035), wk =   0.2962963

                       cryst. coord.
        k(    1) = (   0.0000000   0.0000000   0.0000000), wk =   0.0740741
        k(    2) = (   0.0000000   0.0000000   0.3333333), wk =   0.1481481
        k(    3) = (   0.0000000   0.3333333   0.0000000), wk =   0.1481481
        k(    4) = (   0.0000000   0.3333333   0.3333333), wk =   0.2962963
        k(    5) = (   0.3333333   0.0000000   0.0000000), wk =   0.1481481
        k(    6) = (   0.3333333   0.0000000   0.3333333), wk =   0.2962963
        k(    7) = (   0.3333333   0.3333333   0.0000000), wk =   0.1481481
        k(    8) = (   0.3333333   0.3333333   0.3333333), wk =   0.2962963
        k(    9) = (   0.3333333  -0.3333333   0.0000000), wk =   0.1481481
        k(   10) = (   0.3333333  -0.3333333   0.3333333), wk =   0.2962963

     Check: negative core charge=   -0.000002

     Initial potential from superposition of free atoms

     starting charge     159.8980, renormalised to     160.0000

     negative rho (up, down):  1.274E-01 0.000E+00
     Starting wfcs are  104 randomized atomic wfcs +  152 random wfcs
     Checking if some PAW data can be deallocated...

     Self-consistent Calculation

     iteration #  1     ecut=    30.00 Ry     beta= 0.70
     Davidson diagonalization with overlap

     ethr =  1.00E-02,  avg # of iterations =  7.2

     negative rho (up, down):  2.339E-01 0.000E+00

     total energy              =   -2103.01168883 Ry
     estimated scf accuracy    <       2.40892173 Ry

[...]

     total energy              =   -2103.92378201 Ry
     estimated scf accuracy    <       0.00000812 Ry

     iteration # 12     ecut=    30.00 Ry     beta= 0.70
     Davidson diagonalization with overlap

     ethr =  4.67E-09,  avg # of iterations =  2.0

     negative rho (up, down):  1.341E-01 0.000E+00

     End of self-consistent calculation

          k = 0.0000 0.0000 0.0000 (  5861 PWs)   bands (ev):

   -79.1982 -79.1982 -45.0098 -45.0078 -44.9912 -44.9907 -43.7007 -43.7002
   -27.6438 -27.6230 -20.1086 -19.9379 -17.0812 -16.9870 -16.9322 -16.9152
   -16.8767 -16.8596 -16.8543 -16.7878 -16.2419 -16.2358 -16.2340 -16.0576
    -9.7419  -9.6327  -9.6289  -9.5387  -9.4974  -9.4907  -5.3859  -5.3148
    -5.3106  -5.1831  -5.1799  -4.9919  -0.3001  -0.2972  -0.2893   0.0519
     0.6132   0.7918   0.8518   1.0403   1.0788   1.1906   1.2147   1.2344
     1.2901   1.4410   1.4503   1.4514   1.5783   1.8329   1.8847   1.9436
     2.0040   2.0106   2.0287   2.2191   2.3338   2.3568   2.4163   2.4792
     2.5091   2.5858   2.6738   2.7056   2.7455   2.8241   2.8278   2.8568
     4.7164   4.8036   5.0203   5.0571   5.0912   5.0922   5.4526   5.4534
     6.9770   6.9919   9.3635  10.6986  11.0566  11.6308  12.2447  12.2600
    12.2775  12.4434  12.5922  12.6113  12.8190  13.0309  13.0430  13.2284
    13.4855  13.6621  13.8027  13.9226  14.1854  14.2854  14.3247  14.4817
    14.5171  14.7355  14.7993  15.0211  15.5371  16.2484  16.6149  17.0584
    17.3570  17.4312  17.4823  17.6976  17.7483  18.0840  18.1809  18.6967
    18.7487  19.1510  19.3139  19.5092  19.6328  19.7125  19.9288  20.0146
    21.0529  21.1807  21.4839  21.5073  21.7291  21.9471  22.1488  22.1834
    22.3726  22.8210  22.8860  23.2178  23.7286  23.8550  24.5091  24.6691
    24.9311  24.9543  25.2232  25.3175  25.4626  25.5157  25.7293  25.8956
    25.9036  26.0795  26.2606  26.6101  26.8026  26.9048  26.9971  27.1510
    27.1931  27.4177  27.4800  27.6917  27.7151  27.7191  27.9219  28.1756
    28.1798  28.3904  28.5668  28.6627  28.7134  28.8051  29.0153  29.3710
    29.6271  29.7456  29.8318  29.9724  30.2196  30.4308  30.4930  30.7893
    30.8094  31.1130  31.3578  31.7788  31.9046  31.9482  32.0578  32.3389
    32.7161  32.8120  32.8657  33.1578  33.2451  33.2976  33.3686  33.3891
    33.7268  33.7764  34.4731  34.6301  34.6856  34.7499  34.7714  34.9508
    35.0582  35.3950  35.3971  35.8135  36.1973  36.2324  36.2981  36.4977
    36.5384  36.7074  36.7624  36.8036  36.9906  37.1568  37.2081  37.2872
    37.4764  37.6769  38.1165  38.2652  38.3259  38.3349  38.4507  38.5070
    38.5862  38.6720  38.8250  38.8260  38.8607  38.9791  39.1469  39.2663
    39.4641  39.6169  40.0711  40.0997  40.1061  40.1256  40.3335  40.5526
    40.7945  40.8262  40.9271  40.9557  41.4400  41.4452  41.4733  41.6798

     occupation numbers
     1.0000   1.0000   1.0000   1.0000   1.0000   1.0000   1.0000   1.0000
     1.0000   1.0000   1.0000   1.0000   1.0000   1.0000   1.0000   1.0000
     1.0000   1.0000   1.0000   1.0000   1.0000   1.0000   1.0000   1.0000
     1.0000   1.0000   1.0000   1.0000   1.0000   1.0000   1.0000   1.0000
     1.0000   1.0000   1.0000   1.0000   1.0000   1.0000   1.0000   1.0000
     1.0000   1.0000   1.0000   1.0000   1.0000   1.0000   1.0000   1.0000
     1.0000   1.0000   1.0000   1.0000   1.0000   1.0000   1.0000   1.0000
     1.0000   1.0000   1.0000   1.0000   1.0000   1.0000   1.0000   1.0000
     1.0000   1.0000   1.0000   1.0000   1.0000   1.0000   1.0000   1.0000
     1.0000   1.0000   1.0000   1.0000   1.0000   1.0000   1.0000   1.0000
     0.0000   0.0000   0.0000   0.0000   0.0000   0.0000   0.0000   0.0000
     0.0000   0.0000   0.0000   0.0000   0.0000   0.0000   0.0000   0.0000
     0.0000   0.0000   0.0000   0.0000   0.0000   0.0000   0.0000   0.0000
     0.0000   0.0000   0.0000   0.0000   0.0000   0.0000   0.0000   0.0000
     0.0000   0.0000   0.0000   0.0000   0.0000   0.0000   0.0000   0.0000
     0.0000   0.0000   0.0000   0.0000   0.0000   0.0000   0.0000   0.0000
     0.0000   0.0000   0.0000   0.0000   0.0000   0.0000   0.0000   0.0000
     0.0000   0.0000   0.0000   0.0000   0.0000   0.0000   0.0000   0.0000
     0.0000   0.0000   0.0000   0.0000   0.0000   0.0000   0.0000   0.0000
     0.0000   0.0000   0.0000   0.0000   0.0000   0.0000   0.0000   0.0000
     0.0000   0.0000   0.0000   0.0000   0.0000   0.0000   0.0000   0.0000
     0.0000   0.0000   0.0000   0.0000   0.0000   0.0000   0.0000   0.0000
     0.0000   0.0000   0.0000   0.0000   0.0000   0.0000   0.0000   0.0000
     0.0000   0.0000   0.0000   0.0000   0.0000   0.0000   0.0000   0.0000
     0.0000   0.0000   0.0000   0.0000   0.0000   0.0000   0.0000   0.0000
     0.0000   0.0000   0.0000   0.0000   0.0000   0.0000   0.0000   0.0000
     0.0000   0.0000   0.0000   0.0000   0.0000   0.0000   0.0000   0.0000
     0.0000   0.0000   0.0000   0.0000   0.0000   0.0000   0.0000   0.0000
     0.0000   0.0000   0.0000   0.0000   0.0000   0.0000   0.0000   0.0000
     0.0000   0.0000   0.0000   0.0000   0.0000   0.0000   0.0000   0.0000
     0.0000   0.0000   0.0000   0.0000   0.0000   0.0000   0.0000   0.0000
     0.0000   0.0000   0.0000   0.0000   0.0000   0.0000   0.0000   0.0000

[...]

          k = 0.3333-0.1183 0.5004 (  5922 PWs)   bands (ev):

   -79.1982 -79.1982 -45.0109 -45.0101 -44.9918 -44.9916 -43.7013 -43.7011
   -27.6386 -27.6282 -20.0668 -19.9815 -17.0766 -17.0337 -16.9107 -16.9057
   -16.8697 -16.8385 -16.8325 -16.8145 -16.2434 -16.2430 -16.1968 -16.1060
    -9.6955  -9.6076  -9.5881  -9.5858  -9.5298  -9.5174  -5.3288  -5.2833
    -5.2476  -5.2260  -5.2104  -5.0805  -0.3565  -0.3381  -0.1273   0.0090
     0.6538   0.7272   0.8516   1.0520   1.0935   1.1368   1.2127   1.3241
     1.3905   1.4385   1.5533   1.6328   1.6748   1.8463   1.8500   1.9643
     2.0037   2.0609   2.0815   2.1624   2.2302   2.2857   2.3519   2.4209
     2.4509   2.5222   2.5402   2.5719   2.6546   2.7194   2.8378   2.8440
     4.8307   4.8648   5.0195   5.0360   5.0692   5.0722   5.3736   5.3892
     6.9251   6.9256  10.2093  11.0200  11.1429  11.2613  11.7509  11.8158
    12.2702  12.4274  12.6387  12.6392  12.8577  13.0202  13.0352  13.2301
    13.4828  13.6239  13.7580  13.9927  14.0419  14.1012  14.2072  14.2335
    14.5552  14.5955  14.7315  14.8445  15.5241  15.6449  16.1261  16.9686
    17.3512  17.4464  17.8043  17.8502  18.1259  18.3338  18.3449  18.7613
    18.9499  19.0446  19.3743  19.6886  20.3562  20.4219  20.8113  20.8691
    21.3423  21.5167  21.7074  21.7645  21.8968  22.1186  22.2196  22.5696
    22.6440  22.7750  23.0176  23.2298  23.4173  24.0003  24.0501  24.1115
    24.2747  24.5133  24.6457  24.7395  25.0366  25.0909  25.2105  25.3234
    25.6499  25.6763  25.9023  26.0262  26.3037  26.5079  26.5918  26.6858
    26.7897  26.9066  27.3563  27.3806  27.7972  27.8428  28.0167  28.0317
    28.5353  28.5402  28.9408  29.0443  29.2750  29.3394  29.6230  29.8141
    30.0410  30.1923  30.3570  30.5555  30.5791  30.7012  30.9509  31.1027
    31.3093  31.3176  31.5070  31.6475  32.0416  32.0561  32.3931  32.4823
    32.6433  32.7283  32.8753  33.1215  33.1347  33.3066  33.6441  33.7033
    34.0064  34.0412  34.2307  34.3319  34.4223  34.6206  34.6503  34.9050
    35.0812  35.3647  35.3905  35.5612  35.6378  35.9221  36.2260  36.2811
    36.3998  36.4315  36.5779  36.5875  36.8766  36.9109  36.9874  37.2146
    37.2939  37.4365  37.5154  37.6176  37.9153  37.9712  38.0758  38.2630
    38.3075  38.4788  38.5316  38.7138  38.7450  39.0595  39.0636  39.1856
    39.2489  39.5161  39.6836  39.7423  39.7678  39.9830  40.0607  40.2991
    40.5995  40.6800  40.8100  41.0157  41.2693  41.2979  41.4815  41.6415

     occupation numbers
     1.0000   1.0000   1.0000   1.0000   1.0000   1.0000   1.0000   1.0000
     1.0000   1.0000   1.0000   1.0000   1.0000   1.0000   1.0000   1.0000
     1.0000   1.0000   1.0000   1.0000   1.0000   1.0000   1.0000   1.0000
     1.0000   1.0000   1.0000   1.0000   1.0000   1.0000   1.0000   1.0000
     1.0000   1.0000   1.0000   1.0000   1.0000   1.0000   1.0000   1.0000
     1.0000   1.0000   1.0000   1.0000   1.0000   1.0000   1.0000   1.0000
     1.0000   1.0000   1.0000   1.0000   1.0000   1.0000   1.0000   1.0000
     1.0000   1.0000   1.0000   1.0000   1.0000   1.0000   1.0000   1.0000
     1.0000   1.0000   1.0000   1.0000   1.0000   1.0000   1.0000   1.0000
     1.0000   1.0000   1.0000   1.0000   1.0000   1.0000   1.0000   1.0000
     0.0000   0.0000   0.0000   0.0000   0.0000   0.0000   0.0000   0.0000
     0.0000   0.0000   0.0000   0.0000   0.0000   0.0000   0.0000   0.0000
     0.0000   0.0000   0.0000   0.0000   0.0000   0.0000   0.0000   0.0000
     0.0000   0.0000   0.0000   0.0000   0.0000   0.0000   0.0000   0.0000
     0.0000   0.0000   0.0000   0.0000   0.0000   0.0000   0.0000   0.0000
     0.0000   0.0000   0.0000   0.0000   0.0000   0.0000   0.0000   0.0000
     0.0000   0.0000   0.0000   0.0000   0.0000   0.0000   0.0000   0.0000
     0.0000   0.0000   0.0000   0.0000   0.0000   0.0000   0.0000   0.0000
     0.0000   0.0000   0.0000   0.0000   0.0000   0.0000   0.0000   0.0000
     0.0000   0.0000   0.0000   0.0000   0.0000   0.0000   0.0000   0.0000
     0.0000   0.0000   0.0000   0.0000   0.0000   0.0000   0.0000   0.0000
     0.0000   0.0000   0.0000   0.0000   0.0000   0.0000   0.0000   0.0000
     0.0000   0.0000   0.0000   0.0000   0.0000   0.0000   0.0000   0.0000
     0.0000   0.0000   0.0000   0.0000   0.0000   0.0000   0.0000   0.0000
     0.0000   0.0000   0.0000   0.0000   0.0000   0.0000   0.0000   0.0000
     0.0000   0.0000   0.0000   0.0000   0.0000   0.0000   0.0000   0.0000
     0.0000   0.0000   0.0000   0.0000   0.0000   0.0000   0.0000   0.0000
     0.0000   0.0000   0.0000   0.0000   0.0000   0.0000   0.0000   0.0000
     0.0000   0.0000   0.0000   0.0000   0.0000   0.0000   0.0000   0.0000
     0.0000   0.0000   0.0000   0.0000   0.0000   0.0000   0.0000   0.0000
     0.0000   0.0000   0.0000   0.0000   0.0000   0.0000   0.0000   0.0000
     0.0000   0.0000   0.0000   0.0000   0.0000   0.0000   0.0000   0.0000

     highest occupied, lowest unoccupied level (ev):     5.4534    6.8795

!    total energy              =   -2103.92378211 Ry
     estimated scf accuracy    <       0.00000035 Ry

     The total energy is the sum of the following terms:
     one-electron contribution =    -755.92186464 Ry
     hartree contribution      =     455.71587096 Ry
     xc contribution           =    -239.19085416 Ry
     ewald contribution        =    -814.61105821 Ry
     one-center paw contrib.   =    -749.91587605 Ry
      -> PAW hartree energy AE =      57.42218972 Ry
      -> PAW hartree energy PS =     -57.19402287 Ry
      -> PAW xc energy AE      =    -788.46891387 Ry
      -> PAW xc energy PS      =      38.32487097 Ry
      -> total E_H with PAW    =     455.94403781 Ry
      -> total E_XC with PAW   =    -989.33489707 Ry

     convergence has been achieved in  12 iterations

     Writing all to output data dir bands_nm/myprefix.save/

     General routines

     Parallel routines

     PAW routines

   This run was terminated on:  18:58:16  15Jul2023

   JOB DONE.