     Program PWSCF v.7.1 starts on 16Jul2023 at 13: 8:13

     Reading input from espresso_1977.pwi
Warning: card &CELL ignored
Warning: card / ignored

     Current dimensions of program PWSCF are:
     Max number of different atomic species (ntypx) = 10
     Max number of k-points (npk) =  40000
     Max angular momentum in pseudopotentials (lmaxx) =  4
     Message from routine setup:
     using ibrav=0 with symmetry is DISCOURAGED, use correct ibrav instead

     K-points division:     npool     =       2
     R & G space division:  proc/nbgrp/npool/nimage =       4
     Subspace diagonalization in iterative solution of the eigenvalue problem:
     a serial algorithm will be used

     Using Slab Decomposition

     bravais-lattice index     =            0
     lattice parameter (alat)  =       6.6047  a.u.
     unit-cell volume          =    2899.0476 (a.u.)^3
     number of atoms/cell      =           12
     number of atomic types    =            4
     number of electrons       =       104.00
     number of Kohn-Sham states=           64
     kinetic-energy cutoff     =      30.0000  Ry
     charge density cutoff     =     240.0000  Ry
     scf convergence threshold =      1.0E-06
     mixing beta               =       0.7000
     number of iterations used =            8  plain     mixing
     Exchange-correlation= SLA  PW   PBE  PBE
                           (   1   4   3   4   0   0   0)

     celldm(1)=   6.604668  celldm(2)=   0.000000  celldm(3)=   0.000000
     celldm(4)=   0.000000  celldm(5)=   0.000000  celldm(6)=   0.000000

     crystal axes: (cart. coord. in units of alat)
               a(1) = (   1.000000   0.000000   0.000000 )
               a(2) = (  -0.500000   0.866025   0.000000 )
               a(3) = (   0.000000   0.000000  11.619081 )

     reciprocal axes: (cart. coord. in units 2 pi/alat)
               b(1) = (  1.000000  0.577350  0.000000 )
               b(2) = (  0.000000  1.154700  0.000000 )
               b(3) = (  0.000000  0.000000  0.086065 )

     PseudoPot. # 1 for Te read from file:
     /lustre07/scratch/pragov/crystal_structure_design/utils/SSSP/Te_pbe_v1.uspp.F.UPF
     MD5 check sum: c319670d6894cc26e93307826a071b75
     Pseudo is Ultrasoft + core correction, Zval =  6.0
     Generated by new atomic code, or converted to UPF format
     Using radial grid of  891 points,  5 beta functions with:
                l(1) =   0
                l(2) =   0
                l(3) =   1
                l(4) =   1
                l(5) =   2
     Q(r) pseudized with  6 coefficients,  rinner =    1.800   1.800   1.800
                                                       1.800   1.800

     PseudoPot. # 2 for Mo read from file:
     /lustre07/scratch/pragov/crystal_structure_design/utils/SSSP/Mo_ONCV_PBE-1.0.oncvpsp.upf
     MD5 check sum: 1b5d28e075c9ccadda658a603575cd1f
     Pseudo is Norm-conserving, Zval = 14.0
     Generated using ONCVPSP code by D. R. Hamann
     Using radial grid of 1526 points,  6 beta functions with:
                l(1) =   0
                l(2) =   0
                l(3) =   1
                l(4) =   1
                l(5) =   2
                l(6) =   2

     PseudoPot. # 3 for W  read from file:
     /lustre07/scratch/pragov/crystal_structure_design/utils/SSSP/W_pbe_v1.2.uspp.F.UPF
     MD5 check sum: 9c083fa34c2a2ea0f02f1f893e16e1c8
     Pseudo is Ultrasoft + core correction, Zval = 14.0
     Generated by new atomic code, or converted to UPF format
     Using radial grid of  923 points,  8 beta functions with:
                l(1) =   0
                l(2) =   0
                l(3) =   0
                l(4) =   1
                l(5) =   1
                l(6) =   2
                l(7) =   2
                l(8) =   3
     Q(r) pseudized with  6 coefficients,  rinner =    1.350   1.350   1.350
                                                       1.350   1.350   1.350
                                                       1.350

     PseudoPot. # 4 for Se read from file:
     /lustre07/scratch/pragov/crystal_structure_design/utils/SSSP/Se_pbe_v1.uspp.F.UPF
     MD5 check sum: 1b3568f3a8ae88f9a2a0ad0698632c85
     Pseudo is Ultrasoft + core correction, Zval =  6.0
     Generated by new atomic code, or converted to UPF format
     Using radial grid of  877 points,  6 beta functions with:
                l(1) =   0
                l(2) =   0
                l(3) =   1
                l(4) =   1
                l(5) =   2
                l(6) =   2
     Q(r) pseudized with  8 coefficients,  rinner =    1.300   1.300   1.300
                                                       1.300   1.300

     atomic species   valence    mass     pseudopotential
        Te             6.00   127.60000     Te( 1.00)
        Mo            14.00    95.95000     Mo( 1.00)
        W             14.00   183.84000     W ( 1.00)
        Se             6.00    78.97100     Se( 1.00)

      6 Sym. Ops. (no inversion) found

                                    s                        frac. trans.

      isym =  1     identity

 cryst.   s( 1) = (     1          0          0      )
                  (     0          1          0      )
                  (     0          0          1      )

 cart.    s( 1) = (  1.0000000  0.0000000  0.0000000 )
                  (  0.0000000  1.0000000  0.0000000 )
                  (  0.0000000  0.0000000  1.0000000 )

      isym =  2     120 deg rotation - cryst. axis [0,0,1]

[...]

      isym =  3     120 deg rotation - cryst. axis [0,0,-1]

[...]

      isym =  4     inv. 180 deg rotation - cart. axis [1,0,0]

[...]

      isym =  5     inv. 180 deg rotation - cryst. axis [0,1,0]

[...]

      isym =  6     inv. 180 deg rotation - cryst. axis [1,1,0]

 cryst.   s( 6) = (     0         -1          0      )
                  (    -1          0          0      )
                  (     0          0          1      )

 cart.    s( 6) = (  0.4999999 -0.8660255  0.0000000 )
                  ( -0.8660255 -0.4999999  0.0000000 )
                  (  0.0000000  0.0000000  1.0000000 )

   Cartesian axes

     site n.     atom                  positions (alat units)
         1           Te  tau(   1) = (   0.0000000   0.0000000   3.7990791  )
         2           Te  tau(   2) = (  -0.0000004   0.5773506   0.5670228  )
         3           Te  tau(   3) = (  -0.0000004   0.5773506   4.9298248  )
         4           Te  tau(   4) = (  -0.0000004   0.5773506   1.6161095  )
         5           Te  tau(   5) = (  -0.0000004   0.5773506   5.9843610  )
         6           Te  tau(   6) = (   0.0000000   0.0000000   2.7495044  )
         7           Mo  tau(   7) = (   0.0000000   0.0000000   1.0913105  )
         8           Mo  tau(   8) = (  -0.0000004   0.5773506   3.2742569  )
         9           W   tau(   9) = (   0.0000000   0.0000000   5.4571800  )
        10           W   tau(  10) = (  -0.0000004   0.5773506   7.6396849  )
        11           Se  tau(  11) = (   0.0000000   0.0000000   8.1042622  )
        12           Se  tau(  12) = (   0.0000000   0.0000000   7.1749101  )

   Crystallographic axes

     site n.     atom                  positions (cryst. coord.)
         1           Te  tau(   1) = (  0.0000000  0.0000000  0.3269690  )
         2           Te  tau(   2) = (  0.3333330  0.6666670  0.0488010  )
         3           Te  tau(   3) = (  0.3333330  0.6666670  0.4242870  )
         4           Te  tau(   4) = (  0.3333330  0.6666670  0.1390910  )
         5           Te  tau(   5) = (  0.3333330  0.6666670  0.5150460  )
         6           Te  tau(   6) = (  0.0000000  0.0000000  0.2366370  )
         7           Mo  tau(   7) = (  0.0000000  0.0000000  0.0939240  )
         8           Mo  tau(   8) = (  0.3333330  0.6666670  0.2818000  )
         9           W   tau(   9) = (  0.0000000  0.0000000  0.4696740  )
        10           W   tau(  10) = (  0.3333330  0.6666670  0.6575120  )
        11           Se  tau(  11) = (  0.0000000  0.0000000  0.6974960  )
        12           Se  tau(  12) = (  0.0000000  0.0000000  0.6175110  )

     number of k points=     7
                       cart. coord. in units 2pi/alat
        k(    1) = (   0.0000000   0.0000000   0.0000000), wk =   0.0740741
        k(    2) = (   0.0000000   0.0000000   0.0286884), wk =   0.1481481
        k(    3) = (   0.0000000   0.3849002   0.0000000), wk =   0.4444444
        k(    4) = (   0.0000000   0.3849002   0.0286884), wk =   0.4444444
        k(    5) = (   0.3333333   0.5773502   0.0000000), wk =   0.1481481
        k(    6) = (   0.3333333   0.5773502   0.0286884), wk =   0.2962963
        k(    7) = (   0.0000000  -0.3849002   0.0286884), wk =   0.4444444

                       cryst. coord.
        k(    1) = (   0.0000000   0.0000000   0.0000000), wk =   0.0740741
        k(    2) = (   0.0000000   0.0000000   0.3333333), wk =   0.1481481
        k(    3) = (   0.0000000   0.3333333   0.0000000), wk =   0.4444444
        k(    4) = (   0.0000000   0.3333333   0.3333333), wk =   0.4444444
        k(    5) = (   0.3333333   0.3333333   0.0000000), wk =   0.1481481
        k(    6) = (   0.3333333   0.3333333   0.3333333), wk =   0.2962963
        k(    7) = (   0.0000000  -0.3333333   0.3333333), wk =   0.4444444

     Initial potential from superposition of free atoms

     starting charge     103.7959, renormalised to     104.0000

     negative rho (up, down):  1.254E-01 0.000E+00
     Starting wfcs are   78 randomized atomic wfcs

     Self-consistent Calculation

     iteration #  1     ecut=    30.00 Ry     beta= 0.70
     Davidson diagonalization with overlap

     ethr =  1.00E-02,  avg # of iterations =  3.3

     negative rho (up, down):  1.354E-01 0.000E+00

     total energy              =       1.28508491 Ry
     estimated scf accuracy    <     930.43543521 Ry

[...]

     c_bands:  3 eigenvalues not converged
     ethr =  1.00E-02,  avg # of iterations = 38.6

[...]

     c_bands:  2 eigenvalues not converged
     c_bands:  1 eigenvalues not converged
     ethr =  1.37E-07,  avg # of iterations =  8.7

[...]

     total energy              =    -838.96428386 Ry
     estimated scf accuracy    <       0.00000224 Ry

     iteration # 72     ecut=    30.00 Ry     beta= 0.70
     Davidson diagonalization with overlap

     ethr =  2.15E-09,  avg # of iterations =  2.4

     negative rho (up, down):  1.237E-01 0.000E+00

     End of self-consistent calculation

          k = 0.0000 0.0000 0.0000 (  7993 PWs)   bands (ev):

   -69.4213 -68.3416 -55.2850 -55.2826 -33.6149 -33.5426 -33.5426 -32.6701
   -32.4651 -32.4651 -29.5285 -29.5243 -29.2587 -29.2587 -29.2571 -29.2571
    -9.5401  -8.2811  -7.7657  -7.5274  -7.4702  -6.7140  -6.6501  -6.5777
    -0.8875  -0.3725   0.0385   0.3594   2.1556   2.1556   2.6645   3.0101
     3.1750   3.1751   3.3472   3.8442   3.8492   3.8492   3.8526   3.8526
     3.8635   3.8635   4.5266   4.5588   4.5588   4.5648   4.5648   4.7259
     4.7259   4.8290   4.9601   5.0886   7.2489   7.2489   7.5249   7.5249
     8.4523   8.4525   8.4733   8.4736   8.6051   8.6438   8.6439   8.6983

     occupation numbers
     1.0000   1.0000   1.0000   1.0000   1.0000   1.0000   1.0000   1.0000
     1.0000   1.0000   1.0000   1.0000   1.0000   1.0000   1.0000   1.0000
     1.0000   1.0000   1.0000   1.0000   1.0000   1.0000   1.0000   1.0000
     1.0000   1.0000   1.0000   1.0000   1.0000   1.0000   1.0000   1.0000
     1.0000   1.0000   1.0000   1.0000   1.0000   1.0000   1.0000   1.0000
     1.0000   1.0000   1.0000   1.0000   1.0000   1.0000   1.0000   1.0000
     1.0000   1.0000   1.0000   1.0000   0.0000   0.0000   0.0000   0.0000
     0.0000   0.0000   0.0000   0.0000   0.0000   0.0000   0.0000   0.0000

[...]

          k = 0.0000-0.3849 0.0287 (  8061 PWs)   bands (ev):

   -69.4183 -68.3386 -55.2771 -55.2747 -33.6325 -33.5981 -33.5641 -32.6532
   -32.5539 -32.4866 -29.5068 -29.5025 -29.3624 -29.3609 -29.2833 -29.2818
    -8.5204  -7.8342  -6.2867  -6.1358  -6.0883  -5.7098  -5.6611  -5.6099
    -0.4076   0.4970   0.5458   0.7527   0.8351   0.8401   1.2811   1.3868
     1.4092   1.5087   1.6825   1.8589   1.9936   3.0561   3.1813   3.3594
     3.3729   3.4004   3.4517   3.6061   3.7852   3.8341   4.2737   4.3280
     4.3798   4.7790   4.8018   4.8217   6.6542   6.6961   6.8154   6.8638
     7.1096   7.1645   7.2067   7.5532   7.6605   7.7825   8.1305   8.4843

     occupation numbers
     1.0000   1.0000   1.0000   1.0000   1.0000   1.0000   1.0000   1.0000
     1.0000   1.0000   1.0000   1.0000   1.0000   1.0000   1.0000   1.0000
     1.0000   1.0000   1.0000   1.0000   1.0000   1.0000   1.0000   1.0000
     1.0000   1.0000   1.0000   1.0000   1.0000   1.0000   1.0000   1.0000
     1.0000   1.0000   1.0000   1.0000   1.0000   1.0000   1.0000   1.0000
     1.0000   1.0000   1.0000   1.0000   1.0000   1.0000   1.0000   1.0000
     1.0000   1.0000   1.0000   1.0000   0.0000   0.0000   0.0000   0.0000
     0.0000   0.0000   0.0000   0.0000   0.0000   0.0000   0.0000   0.0000

     highest occupied, lowest unoccupied level (ev):     5.5822    5.7472

!    total energy              =    -838.96428355 Ry
     estimated scf accuracy    <       0.00000065 Ry

     The total energy is the sum of the following terms:
     one-electron contribution =   -3686.65786286 Ry
     hartree contribution      =    1864.90831079 Ry
     xc contribution           =    -260.01925489 Ry
     ewald contribution        =    1242.80452340 Ry

     convergence has been achieved in  72 iterations

     Writing all to output data dir bands_nm/myprefix.save/

     General routines

     Parallel routines

   This run was terminated on:  13:11: 3  16Jul2023

   JOB DONE.