     Program PWSCF v.7.1 starts on 16Jul2023 at 12:36:41

     Reading input from espresso_1767.pwi
Warning: card &CELL ignored
Warning: card / ignored

     Current dimensions of program PWSCF are:
     Max number of different atomic species (ntypx) = 10
     Max number of k-points (npk) =  40000
     Max angular momentum in pseudopotentials (lmaxx) =  4
     file Cd.pbe-dn-rrkjus_psl.0.3.1.UPF: wavefunction(s)  4D renormalized
     file C.pbe-n-kjpaw_psl.1.0.0.UPF: wavefunction(s)  2S 2P renormalized
     file O.pbe-n-kjpaw_psl.0.1.UPF: wavefunction(s)  2P renormalized
     Message from routine setup:
     using ibrav=0 with symmetry is DISCOURAGED, use correct ibrav instead

     K-points division:     npool     =       2
     R & G space division:  proc/nbgrp/npool/nimage =       4
     Subspace diagonalization in iterative solution of the eigenvalue problem:
     a serial algorithm will be used

     Using Slab Decomposition

     bravais-lattice index     =            0
     lattice parameter (alat)  =       8.0805  a.u.
     unit-cell volume          =    1729.3580 (a.u.)^3
     number of atoms/cell      =           15
     number of atomic types    =            6
     number of electrons       =        62.00
     number of Kohn-Sham states=           64
     kinetic-energy cutoff     =      30.0000  Ry
     charge density cutoff     =     240.0000  Ry
     scf convergence threshold =      1.0E-06
     mixing beta               =       0.7000
     number of iterations used =            8  plain     mixing
     Exchange-correlation= SLA  PW   PBX  PBC
                           (   1   4   3   4   0   0   0)

     celldm(1)=   8.080494  celldm(2)=   0.000000  celldm(3)=   0.000000
     celldm(4)=   0.000000  celldm(5)=   0.000000  celldm(6)=   0.000000

     crystal axes: (cart. coord. in units of alat)
               a(1) = (   1.000000   0.000000   0.000000 )
               a(2) = (  -0.068775   1.846440   0.000000 )
               a(3) = (  -0.173805  -0.847972   1.775153 )

     reciprocal axes: (cart. coord. in units 2 pi/alat)
               b(1) = (  1.000000  0.037247  0.115702 )
               b(2) = (  0.000000  0.541583  0.258708 )
               b(3) = (  0.000000  0.000000  0.563332 )

     PseudoPot. # 1 for Cd read from file:
     /lustre07/scratch/pragov/crystal_structure_design/utils/SSSP/Cd.pbe-dn-rrkjus_psl.0.3.1.UPF
     MD5 check sum: 558e9f355611b531a870a69ef6ace9e2
     Pseudo is Ultrasoft + core correction, Zval = 12.0
     Generated using "atomic" code by A. Dal Corso  v.5.0.99 svn rev. 10869
     Using radial grid of 1239 points,  6 beta functions with:
                l(1) =   0
                l(2) =   0
                l(3) =   1
                l(4) =   1
                l(5) =   2
                l(6) =   2
     Q(r) pseudized with 0 coefficients

     PseudoPot. # 2 for H  read from file:
     /lustre07/scratch/pragov/crystal_structure_design/utils/SSSP/H.pbe-rrkjus_psl.1.0.0.UPF
     MD5 check sum: f52b6d4d1c606e5624b1dc7b2218f220
     Pseudo is Ultrasoft, Zval =  1.0
     Generated using "atomic" code by A. Dal Corso  v.5.1
     Using radial grid of  929 points,  2 beta functions with:
                l(1) =   0
                l(2) =   0
     Q(r) pseudized with 0 coefficients

     PseudoPot. # 3 for C  read from file:
     /lustre07/scratch/pragov/crystal_structure_design/utils/SSSP/C.pbe-n-kjpaw_psl.1.0.0.UPF
     MD5 check sum: 5d2aebdfa2cae82b50a7e79e9516da0f
     Pseudo is Projector augmented-wave + core cor, Zval =  4.0
     Generated using "atomic" code by A. Dal Corso  v.5.1
     Shape of augmentation charge: PSQ
     Using radial grid of 1073 points,  4 beta functions with:
                l(1) =   0
                l(2) =   0
                l(3) =   1
                l(4) =   1
     Q(r) pseudized with 0 coefficients

     PseudoPot. # 4 for I  read from file:
     /lustre07/scratch/pragov/crystal_structure_design/utils/SSSP/I.pbe-n-kjpaw_psl.0.2.UPF
     MD5 check sum: d4ef18d9c8f18dc85e5843bca1e50dc0
     Pseudo is Projector augmented-wave + core cor, Zval =  7.0
     Generated using "atomic" code by A. Dal Corso  v.5.0.99 svn rev. 10869
     Shape of augmentation charge: PSQ
     Using radial grid of 1247 points,  4 beta functions with:
                l(1) =   0
                l(2) =   0
                l(3) =   1
                l(4) =   1
     Q(r) pseudized with 0 coefficients

     PseudoPot. # 5 for N  read from file:
     /lustre07/scratch/pragov/crystal_structure_design/utils/SSSP/N.pbe-n-radius_5.UPF
     MD5 check sum: 16739722b17309cd8fe442a2ace49922
     Pseudo is Ultrasoft + core correction, Zval =  5.0
     Generated using "atomic" code by A. Dal Corso  v.5.1
     Using radial grid of 1085 points,  4 beta functions with:
                l(1) =   0
                l(2) =   0
                l(3) =   1
                l(4) =   1
     Q(r) pseudized with 0 coefficients

     PseudoPot. # 6 for O  read from file:
     /lustre07/scratch/pragov/crystal_structure_design/utils/SSSP/O.pbe-n-kjpaw_psl.0.1.UPF
     MD5 check sum: 0234752ac141de4415c5fc33072bef88
     Pseudo is Projector augmented-wave + core cor, Zval =  6.0
     Generated using "atomic" code by A. Dal Corso  v.5.0.99 svn rev. 10869
     Shape of augmentation charge: BESSEL
     Using radial grid of 1095 points,  4 beta functions with:
                l(1) =   0
                l(2) =   0
                l(3) =   1
                l(4) =   1
     Q(r) pseudized with 0 coefficients

     atomic species   valence    mass     pseudopotential
        Cd            12.00   112.41400     Cd( 1.00)
        H              1.00     1.00800     H ( 1.00)
        C              4.00    12.01100     C ( 1.00)
        I              7.00   126.90447     I ( 1.00)
        N              5.00    14.00700     N ( 1.00)
        O              6.00    15.99900     O ( 1.00)

      2 Sym. Ops., with inversion, found

                                    s                        frac. trans.

      isym =  1     identity

 cryst.   s( 1) = (     1          0          0      )
                  (     0          1          0      )
                  (     0          0          1      )

 cart.    s( 1) = (  1.0000000  0.0000000  0.0000000 )
                  (  0.0000000  1.0000000  0.0000000 )
                  (  0.0000000  0.0000000  1.0000000 )

      isym =  2     inversion

 cryst.   s( 2) = (    -1          0          0      )
                  (     0         -1          0      )
                  (     0          0         -1      )

 cart.    s( 2) = ( -1.0000000  0.0000000  0.0000000 )
                  (  0.0000000 -1.0000000  0.0000000 )
                  (  0.0000000  0.0000000 -1.0000000 )

   Cartesian axes

     site n.     atom                  positions (alat units)
         1           Cd  tau(   1) = (   0.3787101   0.4992339   0.8875767  )
         2           H   tau(   2) = (   0.6003338   0.6531508   0.0551079  )
         3           H   tau(   3) = (   0.1570864   0.3453171   1.7200455  )
         4           H   tau(   4) = (   0.6108950  -0.4872700   1.6060203  )
         5           H   tau(   5) = (   0.1465252   1.4857378   0.1691331  )
         6           H   tau(   6) = (   0.5793581  -0.2042792   1.1463177  )
         7           H   tau(   7) = (   0.1780621   1.2027470   0.6288356  )
         8           C   tau(   8) = (   0.4841145  -0.0991055   1.3620965  )
         9           C   tau(   9) = (   0.2733057   1.0975733   0.4130569  )
        10           I   tau(  10) = (   0.8813809   0.1150779   0.5877728  )
        11           I   tau(  11) = (  -0.1239607   0.8833899   1.1873806  )
        12           N   tau(  12) = (   0.5110768  -0.2718201   1.6182351  )
        13           N   tau(  13) = (   0.2463434   1.2702879   0.1569182  )
        14           O   tau(  14) = (   0.3619204   0.1695621   1.3569450  )
        15           O   tau(  15) = (   0.3954998   0.8289057   0.4182084  )

   Crystallographic axes

     site n.     atom                  positions (cryst. coord.)
         1           Cd  tau(   1) = (  0.5000000  0.5000000  0.5000000  )
         2           H   tau(   2) = (  0.6310380  0.3679920  0.0310440  )
         3           H   tau(   3) = (  0.3689620  0.6320080  0.9689560  )
         4           H   tau(   4) = (  0.7785660  0.1515940  0.9047220  )
         5           H   tau(   5) = (  0.2214340  0.8484060  0.0952780  )
         6           H   tau(   6) = (  0.7043810  0.1859280  0.6457570  )
         7           H   tau(   7) = (  0.2956190  0.8140720  0.3542430  )
         8           C   tau(   8) = (  0.6380210  0.2987120  0.7673120  )
         9           C   tau(   9) = (  0.3619790  0.7012880  0.2326880  )
        10           I   tau(  10) = (  0.9536740  0.2143860  0.3311110  )
        11           I   tau(  11) = (  0.0463260  0.7856140  0.6688890  )
        12           N   tau(  12) = (  0.6881860  0.2714380  0.9116030  )
        13           N   tau(  13) = (  0.3118140  0.7285620  0.0883970  )
        14           O   tau(  14) = (  0.5252380  0.4428850  0.7644100  )
        15           O   tau(  15) = (  0.4747620  0.5571150  0.2355900  )

     number of k points=    14
                       cart. coord. in units 2pi/alat
        k(    1) = (   0.0000000   0.0000000   0.0000000), wk =   0.0740741
        k(    2) = (   0.0000000   0.0000000   0.1877772), wk =   0.1481481
        k(    3) = (   0.0000000   0.1805276   0.0862361), wk =   0.1481481
        k(    4) = (   0.0000000   0.1805276   0.2740133), wk =   0.1481481
        k(    5) = (   0.0000000   0.1805276  -0.1015411), wk =   0.1481481
        k(    6) = (   0.3333333   0.0124158   0.0385675), wk =   0.1481481
        k(    7) = (   0.3333333   0.0124158   0.2263447), wk =   0.1481481
        k(    8) = (   0.3333333   0.0124158  -0.1492097), wk =   0.1481481
        k(    9) = (   0.3333333   0.1929433   0.1248036), wk =   0.1481481
        k(   10) = (   0.3333333   0.1929433   0.3125808), wk =   0.1481481
        k(   11) = (   0.3333333   0.1929433  -0.0629736), wk =   0.1481481
        k(   12) = (   0.3333333  -0.1681118  -0.0476687), wk =   0.1481481
        k(   13) = (   0.3333333  -0.1681118   0.1401085), wk =   0.1481481
        k(   14) = (   0.3333333  -0.1681118  -0.2354459), wk =   0.1481481

                       cryst. coord.
        k(    1) = (   0.0000000   0.0000000   0.0000000), wk =   0.0740741
        k(    2) = (   0.0000000   0.0000000   0.3333333), wk =   0.1481481
        k(    3) = (   0.0000000   0.3333333   0.0000000), wk =   0.1481481
        k(    4) = (   0.0000000   0.3333333   0.3333333), wk =   0.1481481
        k(    5) = (   0.0000000   0.3333333  -0.3333333), wk =   0.1481481
        k(    6) = (   0.3333333   0.0000000   0.0000000), wk =   0.1481481
        k(    7) = (   0.3333333   0.0000000   0.3333333), wk =   0.1481481
        k(    8) = (   0.3333333   0.0000000  -0.3333333), wk =   0.1481481
        k(    9) = (   0.3333333   0.3333333   0.0000000), wk =   0.1481481
        k(   10) = (   0.3333333   0.3333333   0.3333333), wk =   0.1481481
        k(   11) = (   0.3333333   0.3333333  -0.3333333), wk =   0.1481481
        k(   12) = (   0.3333333  -0.3333333  -0.0000000), wk =   0.1481481
        k(   13) = (   0.3333333  -0.3333333   0.3333333), wk =   0.1481481
        k(   14) = (   0.3333333  -0.3333333  -0.3333333), wk =   0.1481481

     Check: negative core charge=   -0.000008

     Initial potential from superposition of free atoms

     starting charge      61.9948, renormalised to      62.0000
     Starting wfcs are   47 randomized atomic wfcs +   17 random wfcs
     Checking if some PAW data can be deallocated...

     Self-consistent Calculation

     iteration #  1     ecut=    30.00 Ry     beta= 0.70
     Davidson diagonalization with overlap

     ethr =  1.00E-02,  avg # of iterations =  6.1

     total energy              =   -1047.34333543 Ry
     estimated scf accuracy    <       1.27069348 Ry

[...]

     total energy              =   -1047.77410327 Ry
     estimated scf accuracy    <       0.00000237 Ry

     iteration #  9     ecut=    30.00 Ry     beta= 0.70
     Davidson diagonalization with overlap

     ethr =  3.83E-09,  avg # of iterations =  2.0

     End of self-consistent calculation

          k = 0.0000 0.0000 0.0000 (  4763 PWs)   bands (ev):

   -19.9880 -19.8895 -16.5802 -16.4855 -10.2030  -9.9203  -9.4647  -9.0099
    -7.5396  -7.3172  -6.2156  -6.0646  -6.0275  -5.9098  -5.7971  -5.7758
    -5.1178  -4.3771  -4.1307  -3.7239  -3.6901  -1.9031  -0.5953  -0.4965
    -0.3753  -0.0153   0.2452   0.2802   0.2972   0.5177   1.1972   3.9330
     5.1626   5.3394   6.5401   6.8509   7.2614   7.7372   8.0438   8.2494
     8.2876   8.7440   9.6946   9.8132  10.3062  10.4210  10.4265  10.5776
    11.0506  11.4154  11.6376  12.0395  12.3707  12.5435  12.6926  12.9501
    13.1381  13.7194  13.9335  14.1758  14.5271  14.5491  14.7036  15.0492

     occupation numbers
     1.0000   1.0000   1.0000   1.0000   1.0000   1.0000   1.0000   1.0000
     1.0000   1.0000   1.0000   1.0000   1.0000   1.0000   1.0000   1.0000
     1.0000   1.0000   1.0000   1.0000   1.0000   1.0000   1.0000   1.0000
     1.0000   1.0000   1.0000   1.0000   1.0000   1.0000   1.0000   0.0000
     0.0000   0.0000   0.0000   0.0000   0.0000   0.0000   0.0000   0.0000
     0.0000   0.0000   0.0000   0.0000   0.0000   0.0000   0.0000   0.0000
     0.0000   0.0000   0.0000   0.0000   0.0000   0.0000   0.0000   0.0000
     0.0000   0.0000   0.0000   0.0000   0.0000   0.0000   0.0000   0.0000

[...]

          k = 0.3333-0.1681-0.2354 (  4809 PWs)   bands (ev):

   -19.9721 -19.8892 -16.5809 -16.4714  -9.9814  -9.9025  -9.4007  -9.0198
    -7.5046  -7.3860  -6.3859  -5.9499  -5.8433  -5.8405  -5.8145  -5.7089
    -5.2159  -4.5400  -4.0636  -3.9638  -3.8275  -1.5995  -0.8841  -0.8142
    -0.6083  -0.5032  -0.4808  -0.0345   0.4544   0.6246   0.7201   4.4012
     4.9890   5.3681   6.8812   7.1403   7.2304   7.6583   7.9314   8.6103
     8.8177   9.2799   9.3413   9.7820   9.8866  10.1903  10.4190  10.8592
    11.2080  11.4967  11.5650  12.0410  12.3094  12.5160  13.0120  13.2339
    13.3809  13.8870  14.1937  14.8145  14.9384  15.3745  15.5008  15.7235

     occupation numbers
     1.0000   1.0000   1.0000   1.0000   1.0000   1.0000   1.0000   1.0000
     1.0000   1.0000   1.0000   1.0000   1.0000   1.0000   1.0000   1.0000
     1.0000   1.0000   1.0000   1.0000   1.0000   1.0000   1.0000   1.0000
     1.0000   1.0000   1.0000   1.0000   1.0000   1.0000   1.0000   0.0000
     0.0000   0.0000   0.0000   0.0000   0.0000   0.0000   0.0000   0.0000
     0.0000   0.0000   0.0000   0.0000   0.0000   0.0000   0.0000   0.0000
     0.0000   0.0000   0.0000   0.0000   0.0000   0.0000   0.0000   0.0000
     0.0000   0.0000   0.0000   0.0000   0.0000   0.0000   0.0000   0.0000

     highest occupied, lowest unoccupied level (ev):     1.1972    3.9330

!    total energy              =   -1047.77410388 Ry
     estimated scf accuracy    <       0.00000010 Ry

     The total energy is the sum of the following terms:
     one-electron contribution =    -210.82301193 Ry
     hartree contribution      =     134.78342201 Ry
     xc contribution           =    -165.53174700 Ry
     ewald contribution        =    -133.77074148 Ry
     one-center paw contrib.   =    -672.43202548 Ry
      -> PAW hartree energy AE =       0.00000000 Ry
      -> PAW hartree energy PS =       0.00000000 Ry
      -> PAW xc energy AE      =       0.00000000 Ry
      -> PAW xc energy PS      =       0.00000000 Ry
      -> total E_H with PAW    =     134.78342201 Ry
      -> total E_XC with PAW   =    -165.53174700 Ry

     convergence has been achieved in   9 iterations

     Writing all to output data dir bands_nm/myprefix.save/

     General routines

     Parallel routines

     PAW routines

   This run was terminated on:  12:37: 1  16Jul2023

   JOB DONE.