     Program PWSCF v.7.1 starts on 15Jul2023 at 22:58:14

     Reading input from espresso_13782.pwi
Warning: card &CELL ignored
Warning: card / ignored

     Current dimensions of program PWSCF are:
     Max number of different atomic species (ntypx) = 10
     Max number of k-points (npk) =  40000
     Max angular momentum in pseudopotentials (lmaxx) =  4
     file O.pbe-n-kjpaw_psl.0.1.UPF: wavefunction(s)  2P renormalized

     K-points division:     npool     =       2
     R & G space division:  proc/nbgrp/npool/nimage =       4
     Subspace diagonalization in iterative solution of the eigenvalue problem:
     one sub-group per band group will be used

     Using Slab Decomposition

     bravais-lattice index     =            0
     lattice parameter (alat)  =      14.0524  a.u.
     unit-cell volume          =    1996.4292 (a.u.)^3
     number of atoms/cell      =           18
     number of atomic types    =            4
     number of electrons       =       144.00
     number of Kohn-Sham states=          256
     kinetic-energy cutoff     =      30.0000  Ry
     charge density cutoff     =     240.0000  Ry
     scf convergence threshold =      1.0E-06
     mixing beta               =       0.7000
     number of iterations used =            8  plain     mixing
     Exchange-correlation= SLA  PW   PBX  PBC
                           (   1   4   3   4   0   0   0)

     celldm(1)=  14.052364  celldm(2)=   0.000000  celldm(3)=   0.000000
     celldm(4)=   0.000000  celldm(5)=   0.000000  celldm(6)=   0.000000

     crystal axes: (cart. coord. in units of alat)
               a(1) = (   1.000000   0.000000   0.000000 )
               a(2) = (   0.500140   0.865944   0.000000 )
               a(3) = (   0.499470   0.288315   0.830837 )

     reciprocal axes: (cart. coord. in units 2 pi/alat)
               b(1) = (  1.000000 -0.577566 -0.400739 )
               b(2) = (  0.000000  1.154808 -0.400739 )
               b(3) = (  0.000000  0.000000  1.203606 )

     PseudoPot. # 1 for Cs read from file:
     /lustre07/scratch/pragov/crystal_structure_design/utils/SSSP/Cs_pbe_v1.uspp.F.UPF
     MD5 check sum: 3476d69cb178dfad3ffaa59df4e07ca4
     Pseudo is Ultrasoft + core correction, Zval =  9.0
     Generated by new atomic code, or converted to UPF format
     Using radial grid of  905 points,  6 beta functions with:
                l(1) =   0
                l(2) =   0
                l(3) =   1
                l(4) =   1
                l(5) =   2
                l(6) =   2
     Q(r) pseudized with  6 coefficients,  rinner =    1.500   1.500   1.500
                                                       1.500   1.500

     PseudoPot. # 2 for Hf read from file:
     /lustre07/scratch/pragov/crystal_structure_design/utils/SSSP/Hf-sp.oncvpsp.upf
     MD5 check sum: 417ed15784afe83d2e06dacf143de3f8
     Pseudo is Norm-conserving + core correction, Zval = 12.0
     Generated using ONCVPSP code by D. R. Hamann
     Using radial grid of 1656 points,  8 beta functions with:
                l(1) =   0
                l(2) =   0
                l(3) =   1
                l(4) =   1
                l(5) =   2
                l(6) =   2
                l(7) =   3
                l(8) =   3

     PseudoPot. # 3 for W  read from file:
     /lustre07/scratch/pragov/crystal_structure_design/utils/SSSP/W_pbe_v1.2.uspp.F.UPF
     MD5 check sum: 9c083fa34c2a2ea0f02f1f893e16e1c8
     Pseudo is Ultrasoft + core correction, Zval = 14.0
     Generated by new atomic code, or converted to UPF format
     Using radial grid of  923 points,  8 beta functions with:
                l(1) =   0
                l(2) =   0
                l(3) =   0
                l(4) =   1
                l(5) =   1
                l(6) =   2
                l(7) =   2
                l(8) =   3
     Q(r) pseudized with  6 coefficients,  rinner =    1.350   1.350   1.350
                                                       1.350   1.350   1.350
                                                       1.350

     PseudoPot. # 4 for O  read from file:
     /lustre07/scratch/pragov/crystal_structure_design/utils/SSSP/O.pbe-n-kjpaw_psl.0.1.UPF
     MD5 check sum: 0234752ac141de4415c5fc33072bef88
     Pseudo is Projector augmented-wave + core cor, Zval =  6.0
     Generated using "atomic" code by A. Dal Corso  v.5.0.99 svn rev. 10869
     Shape of augmentation charge: BESSEL
     Using radial grid of 1095 points,  4 beta functions with:
                l(1) =   0
                l(2) =   0
                l(3) =   1
                l(4) =   1
     Q(r) pseudized with 0 coefficients

     atomic species   valence    mass     pseudopotential
        Cs             9.00   132.90545     Cs( 1.00)
        Hf            12.00   178.49000     Hf( 1.00)
        W             14.00   183.84000     W ( 1.00)
        O              6.00    15.99900     O ( 1.00)

     No symmetry found

                                    s                        frac. trans.

      isym =  1     identity

 cryst.   s( 1) = (     1          0          0      )
                  (     0          1          0      )
                  (     0          0          1      )

 cart.    s( 1) = (  1.0000000  0.0000000  0.0000000 )
                  (  0.0000000  1.0000000  0.0000000 )
                  (  0.0000000  0.0000000  1.0000000 )

   Cartesian axes

     site n.     atom                  positions (alat units)
         1           Cs  tau(   1) = (   1.7521435   0.9792342   0.7387419  )
         2           Cs  tau(   2) = (   0.2753306   0.1267553   0.0920949  )
         3           Hf  tau(   3) = (   0.7513168   0.4308126   0.0000000  )
         4           W   tau(   4) = (   1.2509720   1.0073208   0.4151392  )
         5           W   tau(   5) = (   0.5016651   0.5747891   0.4156976  )
         6           W   tau(   6) = (   1.0008209   0.5753703   0.4154184  )
         7           O   tau(   7) = (   0.5651721   0.3254487   0.4613595  )
         8           O   tau(   8) = (   0.9432741   0.5462653   0.1662197  )
         9           O   tau(   9) = (   0.7480562   0.2078044   0.1664382  )
        10           O   tau(  10) = (   0.7502224   0.6457739   0.4607563  )
        11           O   tau(  11) = (   0.5566087   0.5441696   0.1663468  )
        12           O   tau(  12) = (   0.9345027   0.3258312   0.4620026  )
        13           O   tau(  13) = (   1.4351246   0.8276221   0.3694773  )
        14           O   tau(  14) = (   1.0548057   0.6106460   0.6646171  )
        15           O   tau(  15) = (   1.2500073   0.9444287   0.6644900  )
        16           O   tau(  16) = (   1.2500763   0.5079936   0.3688342  )
        17           O   tau(  17) = (   1.4455303   0.6104161   0.6643986  )
        18           O   tau(  18) = (   1.0651897   0.8275864   0.3700805  )

   Crystallographic axes

     site n.     atom                  positions (cryst. coord.)
         1           Cs  tau(   1) = (  0.8905280  0.8347850  0.8891540  )
         2           Cs  tau(   2) = (  0.1652150  0.1094720  0.1108460  )
         3           Hf  tau(   3) = (  0.5024940  0.4975060  0.0000000  )
         4           W   tau(   4) = (  0.5028150  0.9969000  0.4996640  )
         5           W   tau(   5) = (  0.0031000  0.4971850  0.5003360  )
         6           W   tau(   6) = (  0.5020320  0.4979680  0.5000000  )
         7           O   tau(   7) = (  0.1923190  0.1909460  0.5552950  )
         8           O   tau(   8) = (  0.5611590  0.5642210  0.2000630  )
         9           O   tau(   9) = (  0.5613370  0.1732760  0.2003260  )
        10           O   tau(  10) = (  0.1926020  0.5611020  0.5545690  )
        11           O   tau(  11) = (  0.1756530  0.5617500  0.2002160  )
        12           O   tau(  12) = (  0.5611710  0.1911300  0.5560690  )
        13           O   tau(  13) = (  0.8090540  0.8076810  0.4447050  )
        14           O   tau(  14) = (  0.4357790  0.4388410  0.7999370  )
        15           O   tau(  15) = (  0.4382500  0.8243470  0.7997840  )
        16           O   tau(  16) = (  0.8088700  0.4388290  0.4439310  )
        17           O   tau(  17) = (  0.8267240  0.4386630  0.7996740  )
        18           O   tau(  18) = (  0.4388980  0.8073980  0.4454310  )

     number of k points=    14
                       cart. coord. in units 2pi/alat
        k(    1) = (   0.0000000   0.0000000   0.0000000), wk =   0.0740741
        k(    2) = (   0.0000000   0.0000000   0.4012019), wk =   0.1481481
        k(    3) = (   0.0000000   0.3849362  -0.1335798), wk =   0.1481481
        k(    4) = (   0.0000000   0.3849362   0.2676221), wk =   0.1481481
        k(    5) = (   0.0000000   0.3849362  -0.5347817), wk =   0.1481481
        k(    6) = (   0.3333333  -0.1925221  -0.1335798), wk =   0.1481481
        k(    7) = (   0.3333333  -0.1925221   0.2676221), wk =   0.1481481
        k(    8) = (   0.3333333  -0.1925221  -0.5347817), wk =   0.1481481
        k(    9) = (   0.3333333   0.1924141  -0.2671596), wk =   0.1481481
        k(   10) = (   0.3333333   0.1924141   0.1340424), wk =   0.1481481
        k(   11) = (   0.3333333   0.1924141  -0.6683615), wk =   0.1481481
        k(   12) = (   0.3333333  -0.5774582  -0.0000000), wk =   0.1481481
        k(   13) = (   0.3333333  -0.5774582   0.4012019), wk =   0.1481481
        k(   14) = (   0.3333333  -0.5774582  -0.4012019), wk =   0.1481481

                       cryst. coord.
        k(    1) = (   0.0000000   0.0000000   0.0000000), wk =   0.0740741
        k(    2) = (   0.0000000   0.0000000   0.3333333), wk =   0.1481481
        k(    3) = (   0.0000000   0.3333333   0.0000000), wk =   0.1481481
        k(    4) = (   0.0000000   0.3333333   0.3333333), wk =   0.1481481
        k(    5) = (   0.0000000   0.3333333  -0.3333333), wk =   0.1481481
        k(    6) = (   0.3333333   0.0000000   0.0000000), wk =   0.1481481
        k(    7) = (   0.3333333   0.0000000   0.3333333), wk =   0.1481481
        k(    8) = (   0.3333333   0.0000000  -0.3333333), wk =   0.1481481
        k(    9) = (   0.3333333   0.3333333   0.0000000), wk =   0.1481481
        k(   10) = (   0.3333333   0.3333333   0.3333333), wk =   0.1481481
        k(   11) = (   0.3333333   0.3333333  -0.3333333), wk =   0.1481481
        k(   12) = (   0.3333333  -0.3333333   0.0000000), wk =   0.1481481
        k(   13) = (   0.3333333  -0.3333333   0.3333333), wk =   0.1481481
        k(   14) = (   0.3333333  -0.3333333  -0.3333333), wk =   0.1481481

     Check: negative core charge=   -0.000009

     Initial potential from superposition of free atoms

     starting charge     143.6183, renormalised to     144.0000

     negative rho (up, down):  1.901E-01 0.000E+00
     Starting wfcs are  123 randomized atomic wfcs +  133 random wfcs
     Checking if some PAW data can be deallocated...

     Self-consistent Calculation

     iteration #  1     ecut=    30.00 Ry     beta= 0.70
     Davidson diagonalization with overlap

     ethr =  1.00E-02,  avg # of iterations =  7.4

     negative rho (up, down):  1.767E-01 0.000E+00

     total energy              =   -1213.46006911 Ry
     estimated scf accuracy    <       6.60903158 Ry

[...]

     total energy              =   -1216.99837870 Ry
     estimated scf accuracy    <       0.00000115 Ry

     iteration # 13     ecut=    30.00 Ry     beta= 0.70
     Davidson diagonalization with overlap

     ethr =  7.99E-10,  avg # of iterations =  1.0

     negative rho (up, down):  1.805E-01 0.000E+00

     End of self-consistent calculation

          k = 0.0000 0.0000 0.0000 (  5617 PWs)   bands (ev):

   -68.4179 -68.3968 -68.3958 -53.7023 -32.6712 -32.6684 -32.6540 -32.6036
   -32.5823 -32.5689 -32.5349 -32.5116 -32.5040 -22.5850 -22.5778 -22.5660
   -13.2208 -13.1535 -11.8537 -11.3914 -11.3719 -10.8649 -10.6717 -10.6485
   -10.3262 -10.2692 -10.2447  -9.5545  -9.5076  -9.4832  -0.3209  -0.2717
    -0.2325  -0.0358  -0.0162  -0.0023   0.0113   0.0668   0.0934   0.9697
     1.1923   1.3350   1.3460   1.6877   1.9376   1.9496   3.5371   3.6139
     3.6352   3.6434   3.8926   3.8983   4.0348   4.1686   4.1926   4.2237
     4.4393   4.4414   4.7123   4.7249   4.8533   5.0199   5.0236   5.1248
     5.1292   5.1641   5.2633   5.2672   5.5256   5.6345   5.6486   5.6970
     8.5256   8.5274   9.0791   9.1108   9.4795   9.7788   9.9266   9.9376
    10.8004  11.7300  12.1363  12.6128  12.6177  13.0012  13.0137  13.3744
    13.5804  13.5895  14.3054  14.3500  14.5128  14.5600  14.6180  14.6895
    15.2026  15.2743  15.3682  15.7426  15.8236  16.8780  17.1957  17.4983
    17.8311  17.9228  18.0261  18.2789  18.2790  19.1242  19.1576  19.3592
    19.4616  19.5114  19.7498  20.1495  20.2510  20.4047  20.8903  20.9046
    21.0775  21.3022  21.4269  21.5719  21.6596  21.9210  22.0050  22.5025
    22.7813  22.9063  23.0373  23.1944  23.4156  23.4241  23.9574  23.9622
    24.0071  24.0723  24.0776  24.1980  24.3446  24.3929  24.4705  24.5959
    24.6110  24.7490  26.1623  26.2411  26.5424  26.8235  26.8343  26.8544
    27.0315  27.2062  27.2242  27.4501  27.4818  27.5035  27.5687  27.6861
    27.7181  27.9702  28.0961  28.1350  28.1934  28.3173  28.5099  28.6845
    28.6851  28.8047  30.1254  30.1514  30.3089  30.5064  30.5110  30.7415
    30.9287  31.0730  31.1040  31.2624  31.4250  31.4355  31.8382  32.5132
    32.9688  32.9763  33.2273  33.2851  33.6078  33.8140  33.8310  33.8700
    33.8702  33.8839  34.0367  34.8280  34.9514  34.9840  35.0737  35.0861
    36.1248  36.3535  36.3726  36.5119  36.6524  36.7445  36.7565  36.9016
    36.9763  37.2369  37.3776  37.4479  37.6692  37.7132  37.8299  38.1755
    38.2304  38.3987  38.5049  38.6885  38.8647  39.0479  39.1337  39.1667
    39.3584  39.6834  39.7723  39.9730  39.9800  40.3761  40.5184  40.6116
    40.6624  40.7275  40.9908  41.0422  41.1132  41.3513  41.4880  41.6629
    41.8127  41.9666  42.1026  42.1575  42.2869  42.2893  42.9039  42.9268
    42.9811  42.9966  43.0567  43.1758  43.5444  43.5540  43.7574  43.7728

     occupation numbers
     1.0000   1.0000   1.0000   1.0000   1.0000   1.0000   1.0000   1.0000
     1.0000   1.0000   1.0000   1.0000   1.0000   1.0000   1.0000   1.0000
     1.0000   1.0000   1.0000   1.0000   1.0000   1.0000   1.0000   1.0000
     1.0000   1.0000   1.0000   1.0000   1.0000   1.0000   1.0000   1.0000
     1.0000   1.0000   1.0000   1.0000   1.0000   1.0000   1.0000   1.0000
     1.0000   1.0000   1.0000   1.0000   1.0000   1.0000   1.0000   1.0000
     1.0000   1.0000   1.0000   1.0000   1.0000   1.0000   1.0000   1.0000
     1.0000   1.0000   1.0000   1.0000   1.0000   1.0000   1.0000   1.0000
     1.0000   1.0000   1.0000   1.0000   1.0000   1.0000   1.0000   1.0000
     0.0000   0.0000   0.0000   0.0000   0.0000   0.0000   0.0000   0.0000
     0.0000   0.0000   0.0000   0.0000   0.0000   0.0000   0.0000   0.0000
     0.0000   0.0000   0.0000   0.0000   0.0000   0.0000   0.0000   0.0000
     0.0000   0.0000   0.0000   0.0000   0.0000   0.0000   0.0000   0.0000
     0.0000   0.0000   0.0000   0.0000   0.0000   0.0000   0.0000   0.0000
     0.0000   0.0000   0.0000   0.0000   0.0000   0.0000   0.0000   0.0000
     0.0000   0.0000   0.0000   0.0000   0.0000   0.0000   0.0000   0.0000
     0.0000   0.0000   0.0000   0.0000   0.0000   0.0000   0.0000   0.0000
     0.0000   0.0000   0.0000   0.0000   0.0000   0.0000   0.0000   0.0000
     0.0000   0.0000   0.0000   0.0000   0.0000   0.0000   0.0000   0.0000
     0.0000   0.0000   0.0000   0.0000   0.0000   0.0000   0.0000   0.0000
     0.0000   0.0000   0.0000   0.0000   0.0000   0.0000   0.0000   0.0000
     0.0000   0.0000   0.0000   0.0000   0.0000   0.0000   0.0000   0.0000
     0.0000   0.0000   0.0000   0.0000   0.0000   0.0000   0.0000   0.0000
     0.0000   0.0000   0.0000   0.0000   0.0000   0.0000   0.0000   0.0000
     0.0000   0.0000   0.0000   0.0000   0.0000   0.0000   0.0000   0.0000
     0.0000   0.0000   0.0000   0.0000   0.0000   0.0000   0.0000   0.0000
     0.0000   0.0000   0.0000   0.0000   0.0000   0.0000   0.0000   0.0000
     0.0000   0.0000   0.0000   0.0000   0.0000   0.0000   0.0000   0.0000
     0.0000   0.0000   0.0000   0.0000   0.0000   0.0000   0.0000   0.0000
     0.0000   0.0000   0.0000   0.0000   0.0000   0.0000   0.0000   0.0000
     0.0000   0.0000   0.0000   0.0000   0.0000   0.0000   0.0000   0.0000
     0.0000   0.0000   0.0000   0.0000   0.0000   0.0000   0.0000   0.0000

[...]

          k = 0.3333-0.5775-0.4012 (  5536 PWs)   bands (ev):

   -68.4177 -68.3964 -68.3959 -53.6903 -32.6573 -32.6450 -32.6359 -32.6102
   -32.6097 -32.5842 -32.5352 -32.5126 -32.5073 -22.5828 -22.5749 -22.5655
   -13.1890 -13.1736 -11.4401 -11.4142 -11.0158 -10.7946 -10.7192 -10.5843
   -10.5597 -10.4520 -10.4194  -9.8622  -9.7762  -9.4979  -0.2296  -0.1793
    -0.0977  -0.0377   0.0225   0.0896   0.7686   0.7846   0.8264   1.2466
     1.8166   1.8619   1.9557   1.9587   2.0710   2.1162   2.2909   2.5471
     2.6236   2.7462   2.7937   2.9261   3.1267   3.5183   3.7343   3.9421
     4.2980   4.5353   4.7900   4.8834   5.0275   5.1156   5.1845   5.2151
     5.3764   5.4149   5.5504   5.5920   5.6375   5.7792   5.9026   5.9902
     8.5689   9.3267   9.4683   9.5436   9.7378   9.8372   9.8829  10.0305
    10.2370  12.2136  12.6368  12.9185  13.2166  13.2723  13.4329  13.5212
    13.5796  13.7940  14.0170  14.2740  14.5100  14.5723  14.8411  15.1216
    15.1628  15.3158  15.4133  15.4566  15.7532  15.7602  16.2059  16.6144
    17.2199  17.7391  18.0235  18.2170  18.5181  18.6688  18.8964  19.0711
    19.3878  19.5496  19.7359  20.0790  20.3023  20.3253  20.5478  20.7640
    21.0080  21.5894  21.7432  21.8745  21.9111  22.0030  22.0908  22.2590
    22.4377  22.5910  22.9251  23.1751  23.2784  23.5159  23.6893  23.8369
    24.1290  24.1930  24.3036  24.4161  24.4612  24.6476  24.7238  24.9052
    24.9985  25.3162  25.5186  25.6715  25.7543  25.8959  26.2154  26.4029
    26.5228  26.6597  26.8339  27.2577  27.5432  27.9248  28.0025  28.1283
    28.2883  28.4948  28.7857  29.0074  29.1706  29.3860  29.4336  29.6506
    29.7284  29.8670  30.1539  30.2944  30.4429  30.5143  30.5877  30.8135
    31.1521  31.3680  31.5581  31.7334  31.9535  32.0416  32.1150  32.3956
    32.5273  32.8532  32.9733  33.0270  33.1935  33.4439  33.6850  33.7486
    33.9010  34.1630  34.3639  34.5741  34.7946  34.8853  35.0406  35.2409
    35.3648  35.4582  35.8994  36.1307  36.1900  36.3156  36.6144  36.6369
    37.0115  37.0852  37.3185  37.4101  37.4915  37.6414  37.8757  37.9994
    38.0933  38.1830  38.2635  38.4217  38.6354  38.7989  39.0437  39.2660
    39.3688  39.4153  39.5496  39.7674  39.8818  39.9991  40.1201  40.2542
    40.3720  40.5914  40.7677  40.8364  40.9967  41.1236  41.2518  41.4462
    41.6675  41.9568  42.1117  42.3181  42.4755  42.5812  42.6174  42.8084
    42.9068  43.0007  43.1601  43.3289  43.4907  43.5477  43.6967  43.7840

     occupation numbers
     1.0000   1.0000   1.0000   1.0000   1.0000   1.0000   1.0000   1.0000
     1.0000   1.0000   1.0000   1.0000   1.0000   1.0000   1.0000   1.0000
     1.0000   1.0000   1.0000   1.0000   1.0000   1.0000   1.0000   1.0000
     1.0000   1.0000   1.0000   1.0000   1.0000   1.0000   1.0000   1.0000
     1.0000   1.0000   1.0000   1.0000   1.0000   1.0000   1.0000   1.0000
     1.0000   1.0000   1.0000   1.0000   1.0000   1.0000   1.0000   1.0000
     1.0000   1.0000   1.0000   1.0000   1.0000   1.0000   1.0000   1.0000
     1.0000   1.0000   1.0000   1.0000   1.0000   1.0000   1.0000   1.0000
     1.0000   1.0000   1.0000   1.0000   1.0000   1.0000   1.0000   1.0000
     0.0000   0.0000   0.0000   0.0000   0.0000   0.0000   0.0000   0.0000
     0.0000   0.0000   0.0000   0.0000   0.0000   0.0000   0.0000   0.0000
     0.0000   0.0000   0.0000   0.0000   0.0000   0.0000   0.0000   0.0000
     0.0000   0.0000   0.0000   0.0000   0.0000   0.0000   0.0000   0.0000
     0.0000   0.0000   0.0000   0.0000   0.0000   0.0000   0.0000   0.0000
     0.0000   0.0000   0.0000   0.0000   0.0000   0.0000   0.0000   0.0000
     0.0000   0.0000   0.0000   0.0000   0.0000   0.0000   0.0000   0.0000
     0.0000   0.0000   0.0000   0.0000   0.0000   0.0000   0.0000   0.0000
     0.0000   0.0000   0.0000   0.0000   0.0000   0.0000   0.0000   0.0000
     0.0000   0.0000   0.0000   0.0000   0.0000   0.0000   0.0000   0.0000
     0.0000   0.0000   0.0000   0.0000   0.0000   0.0000   0.0000   0.0000
     0.0000   0.0000   0.0000   0.0000   0.0000   0.0000   0.0000   0.0000
     0.0000   0.0000   0.0000   0.0000   0.0000   0.0000   0.0000   0.0000
     0.0000   0.0000   0.0000   0.0000   0.0000   0.0000   0.0000   0.0000
     0.0000   0.0000   0.0000   0.0000   0.0000   0.0000   0.0000   0.0000
     0.0000   0.0000   0.0000   0.0000   0.0000   0.0000   0.0000   0.0000
     0.0000   0.0000   0.0000   0.0000   0.0000   0.0000   0.0000   0.0000
     0.0000   0.0000   0.0000   0.0000   0.0000   0.0000   0.0000   0.0000
     0.0000   0.0000   0.0000   0.0000   0.0000   0.0000   0.0000   0.0000
     0.0000   0.0000   0.0000   0.0000   0.0000   0.0000   0.0000   0.0000
     0.0000   0.0000   0.0000   0.0000   0.0000   0.0000   0.0000   0.0000
     0.0000   0.0000   0.0000   0.0000   0.0000   0.0000   0.0000   0.0000
     0.0000   0.0000   0.0000   0.0000   0.0000   0.0000   0.0000   0.0000

     highest occupied, lowest unoccupied level (ev):     6.0318    8.5256

!    total energy              =   -1216.99837889 Ry
     estimated scf accuracy    <       0.00000006 Ry

     The total energy is the sum of the following terms:
     one-electron contribution =    -605.89731234 Ry
     hartree contribution      =     364.85918260 Ry
     xc contribution           =    -301.40215084 Ry
     ewald contribution        =    -560.28577532 Ry
     one-center paw contrib.   =    -114.27232298 Ry
      -> PAW hartree energy AE =       0.00000000 Ry
      -> PAW hartree energy PS =       0.00000000 Ry
      -> PAW xc energy AE      =       0.00000000 Ry
      -> PAW xc energy PS      =       0.00000000 Ry
      -> total E_H with PAW    =     364.85918260 Ry
      -> total E_XC with PAW   =    -301.40215084 Ry

     convergence has been achieved in  13 iterations

     Writing all to output data dir bands_nm/myprefix.save/

     General routines

     Parallel routines

     PAW routines

   This run was terminated on:  22:59:52  15Jul2023

   JOB DONE.