     Program PWSCF v.7.1 starts on 13Jul2023 at  4: 2:27

     Reading input from espresso_2673.pwi
Warning: card &CELL ignored
Warning: card / ignored

     Current dimensions of program PWSCF are:
     Max number of different atomic species (ntypx) = 10
     Max number of k-points (npk) =  40000
     Max angular momentum in pseudopotentials (lmaxx) =  4

     K-points division:     npool     =       2
     R & G space division:  proc/nbgrp/npool/nimage =       8
     Subspace diagonalization in iterative solution of the eigenvalue problem:
     a serial algorithm will be used

     Using Slab Decomposition

     bravais-lattice index     =            0
     lattice parameter (alat)  =      13.9230  a.u.
     unit-cell volume          =    1218.1928 (a.u.)^3
     number of atoms/cell      =            8
     number of atomic types    =            4
     number of electrons       =        64.00
     number of Kohn-Sham states=           64
     kinetic-energy cutoff     =      30.0000  Ry
     charge density cutoff     =     240.0000  Ry
     scf convergence threshold =      1.0E-06
     mixing beta               =       0.7000
     number of iterations used =            8  plain     mixing
     Exchange-correlation=  SLA  PW   PBX  PBC
                           (   1   4   3   4   0   0   0)

     celldm(1)=  13.922980  celldm(2)=   0.000000  celldm(3)=   0.000000
     celldm(4)=   0.000000  celldm(5)=   0.000000  celldm(6)=   0.000000

     crystal axes: (cart. coord. in units of alat)
               a(1) = (   1.000000   0.000000   0.000000 )
               a(2) = (   0.863406   0.504509   0.000000 )
               a(3) = (   0.136327   0.036910   0.894645 )

     reciprocal axes: (cart. coord. in units 2 pi/alat)
               b(1) = (  1.000000 -1.711380 -0.081775 )
               b(2) = (  0.000000  1.982126 -0.081775 )
               b(3) = (  0.000000  0.000000  1.117762 )

     PseudoPot. # 1 for Sr read from file:
     /lustre07/scratch/pragov/crystal_structure_design/utils/SSSP/Sr_pbe_v1.uspp.F.UPF
     MD5 check sum: 6b418c05fbe9db5448babca5e47b7a5b
     Pseudo is Ultrasoft + core correction, Zval = 10.0
     Generated by new atomic code, or converted to UPF format
     Using radial grid of  883 points,  6 beta functions with:
                l(1) =   0
                l(2) =   0
                l(3) =   1
                l(4) =   1
                l(5) =   2
                l(6) =   2
     Q(r) pseudized with  6 coefficients,  rinner =    1.400   1.400   1.400
                                                       1.400   1.400

     PseudoPot. # 2 for Ca read from file:
     /lustre07/scratch/pragov/crystal_structure_design/utils/SSSP/Ca_pbe_v1.uspp.F.UPF
     MD5 check sum: 403a4c14b9e4d4dfdc3024c9a3812218
     Pseudo is Ultrasoft + core correction, Zval = 10.0
     Generated by new atomic code, or converted to UPF format
     Using radial grid of  845 points,  6 beta functions with:
                l(1) =   0
                l(2) =   0
                l(3) =   1
                l(4) =   1
                l(5) =   2
                l(6) =   2
     Q(r) pseudized with  8 coefficients,  rinner =    1.500   1.500   1.500
                                                       1.500   1.500

     PseudoPot. # 3 for N  read from file:
     /lustre07/scratch/pragov/crystal_structure_design/utils/SSSP/N.pbe-n-radius_5.UPF
     MD5 check sum: 16739722b17309cd8fe442a2ace49922
     Pseudo is Ultrasoft + core correction, Zval =  5.0
     Generated using "atomic" code by A. Dal Corso  v.5.1
     Using radial grid of 1085 points,  4 beta functions with:
                l(1) =   0
                l(2) =   0
                l(3) =   1
                l(4) =   1
     Q(r) pseudized with 0 coefficients

     PseudoPot. # 4 for Cl read from file:
     /lustre07/scratch/pragov/crystal_structure_design/utils/SSSP/cl_pbe_v1.4.uspp.F.UPF
     MD5 check sum: fc6f6913ecf08c9257cb748ef0700058
     Pseudo is Ultrasoft + core correction, Zval =  7.0
     Generated by new atomic code, or converted to UPF format
     Using radial grid of  909 points,  6 beta functions with:
                l(1) =   0
                l(2) =   0
                l(3) =   1
                l(4) =   1
                l(5) =   2
                l(6) =   2
     Q(r) pseudized with  8 coefficients,  rinner =    1.300   1.300   1.300
                                                       1.300   1.300

     atomic species   valence    mass     pseudopotential
        Sr            10.00    87.62000     Sr( 1.00)
        Ca            10.00    40.07800     Ca( 1.00)
        N              5.00    14.00700     N ( 1.00)
        Cl             7.00    35.45000     Cl( 1.00)

     No symmetry found

                                    s                        frac. trans.

      isym =  1     identity

 cryst.   s( 1) = (     1          0          0      )
                  (     0          1          0      )
                  (     0          0          1      )

 cart.    s( 1) = (  1.0000000  0.0000000  0.0000000 )
                  (  0.0000000  1.0000000  0.0000000 )
                  (  0.0000000  0.0000000  1.0000000 )

   Cartesian axes

     site n.     atom                  positions (alat units)
         1           Sr  tau(   1) = (   1.6350816   0.4426910   0.3412774  )
         2           Sr  tau(   2) = (   0.3759823   0.1017955   0.5503550  )
         3           Sr  tau(   3) = (   1.2346544   0.3342771   0.1025639  )
         4           Ca  tau(   4) = (   0.7516904   0.2035168   0.7962892  )
         5           N   tau(   5) = (   1.5078343   0.4082393   0.6753583  )
         6           N   tau(   6) = (   0.5029171   0.1361625   0.2170122  )
         7           Cl  tau(   7) = (   1.0001171   0.2707772   0.4543838  )
         8           Cl  tau(   8) = (   1.9905236   0.5389253   0.8886613  )

   Crystallographic axes

     site n.     atom                  positions (cryst. coord.)
         1           Sr  tau(   1) = (  0.8495610  0.8495610  0.3814670  )
         2           Sr  tau(   2) = (  0.1567660  0.1567660  0.6151660  )
         3           Sr  tau(   3) = (  0.6541920  0.6541920  0.1146420  )
         4           Ca  tau(   4) = (  0.3382790  0.3382790  0.8900620  )
         5           N   tau(   5) = (  0.7539540  0.7539540  0.7548900  )
         6           N   tau(   6) = (  0.2521450  0.2521450  0.2425680  )
         7           Cl  tau(   7) = (  0.4995570  0.4995570  0.5078930  )
         8           Cl  tau(   8) = (  0.9955470  0.9955470  0.9933120  )

     number of k points=    14
                       cart. coord. in units 2pi/alat
        k(    1) = (   0.0000000   0.0000000   0.0000000), wk =   0.0740741
        k(    2) = (   0.0000000   0.0000000   0.3725874), wk =   0.1481481
        k(    3) = (   0.0000000   0.6607085  -0.0272584), wk =   0.1481481
        k(    4) = (   0.0000000   0.6607085   0.3453290), wk =   0.1481481
        k(    5) = (   0.0000000   0.6607085  -0.3998458), wk =   0.1481481
        k(    6) = (   0.3333333  -0.5704600  -0.0272584), wk =   0.1481481
        k(    7) = (   0.3333333  -0.5704600   0.3453290), wk =   0.1481481
        k(    8) = (   0.3333333  -0.5704600  -0.3998458), wk =   0.1481481
        k(    9) = (   0.3333333   0.0902485  -0.0545169), wk =   0.1481481
        k(   10) = (   0.3333333   0.0902485   0.3180705), wk =   0.1481481
        k(   11) = (   0.3333333   0.0902485  -0.4271043), wk =   0.1481481
        k(   12) = (   0.3333333  -1.2311686   0.0000000), wk =   0.1481481
        k(   13) = (   0.3333333  -1.2311686   0.3725874), wk =   0.1481481
        k(   14) = (   0.3333333  -1.2311686  -0.3725874), wk =   0.1481481

                       cryst. coord.
        k(    1) = (   0.0000000   0.0000000   0.0000000), wk =   0.0740741
        k(    2) = (   0.0000000   0.0000000   0.3333333), wk =   0.1481481
        k(    3) = (   0.0000000   0.3333333  -0.0000000), wk =   0.1481481
        k(    4) = (   0.0000000   0.3333333   0.3333333), wk =   0.1481481
        k(    5) = (   0.0000000   0.3333333  -0.3333333), wk =   0.1481481
        k(    6) = (   0.3333333   0.0000000   0.0000000), wk =   0.1481481
        k(    7) = (   0.3333333   0.0000000   0.3333333), wk =   0.1481481
        k(    8) = (   0.3333333   0.0000000  -0.3333333), wk =   0.1481481
        k(    9) = (   0.3333333   0.3333333   0.0000000), wk =   0.1481481
        k(   10) = (   0.3333333   0.3333333   0.3333333), wk =   0.1481481
        k(   11) = (   0.3333333   0.3333333  -0.3333333), wk =   0.1481481
        k(   12) = (   0.3333333  -0.3333333  -0.0000000), wk =   0.1481481
        k(   13) = (   0.3333333  -0.3333333   0.3333333), wk =   0.1481481
        k(   14) = (   0.3333333  -0.3333333  -0.3333333), wk =   0.1481481

     Check: negative core charge=   -0.000004

     Initial potential from superposition of free atoms

     starting charge      63.8936, renormalised to      64.0000

     negative rho (up, down):  2.208E-01 0.000E+00
     Starting wfcs are   65 randomized atomic wfcs

     Self-consistent Calculation

     iteration #  1     ecut=    30.00 Ry     beta= 0.70
     Davidson diagonalization with overlap

     ethr =  1.00E-02,  avg # of iterations =  6.1

     negative rho (up, down):  2.250E-01 0.000E+00

     total energy              =    -391.32078706 Ry
     estimated scf accuracy    <       3.29883351 Ry

[...]

     total energy              =    -393.15168955 Ry
     estimated scf accuracy    <       0.00000152 Ry

     iteration # 11     ecut=    30.00 Ry     beta= 0.70
     Davidson diagonalization with overlap

     ethr =  2.38E-09,  avg # of iterations =  2.0

     negative rho (up, down):  2.298E-01 0.000E+00

     End of self-consistent calculation

          k = 0.0000 0.0000 0.0000 (  3373 PWs)   bands (ev):

   -32.1260 -26.5729 -26.4504 -26.3987 -13.2781 -13.1784 -13.0846  -9.4621
    -9.1584  -8.8266  -8.6557  -8.5566  -8.4551  -8.3724  -8.3706  -8.3339
    -8.2655  -8.0287  -3.1997  -3.0202   2.2386   2.4529   2.8373   3.4265
     3.7599   3.7705   6.2081   6.4675   7.1842   7.2093   7.2332   7.3188
     9.4266  10.0651  11.0851  11.2073  11.6816  11.7293  12.0231  12.4041
    12.6836  12.8744  12.8803  13.2150  13.3590  13.4618  14.0721  14.1261
    14.2797  14.7105  15.0117  15.0468  15.2815  15.6189  15.7178  16.0629
    16.2228  16.7612  16.8651  17.1123  17.2664  18.0981  18.3612  18.8867

     occupation numbers
     1.0000   1.0000   1.0000   1.0000   1.0000   1.0000   1.0000   1.0000
     1.0000   1.0000   1.0000   1.0000   1.0000   1.0000   1.0000   1.0000
     1.0000   1.0000   1.0000   1.0000   1.0000   1.0000   1.0000   1.0000
     1.0000   1.0000   1.0000   1.0000   1.0000   1.0000   1.0000   1.0000
     0.0000   0.0000   0.0000   0.0000   0.0000   0.0000   0.0000   0.0000
     0.0000   0.0000   0.0000   0.0000   0.0000   0.0000   0.0000   0.0000
     0.0000   0.0000   0.0000   0.0000   0.0000   0.0000   0.0000   0.0000
     0.0000   0.0000   0.0000   0.0000   0.0000   0.0000   0.0000   0.0000

[...]

          k = 0.3333-1.2312-0.3726 (  3378 PWs)   bands (ev):

   -32.1210 -26.5483 -26.4412 -26.3846 -13.2577 -13.1825 -13.1638  -9.2685
    -9.1446  -8.8978  -8.8368  -8.6241  -8.5782  -8.5178  -8.4740  -8.3978
    -8.1347  -8.0725  -3.0803  -2.9910   2.3960   2.5389   2.6858   2.8177
     3.1882   3.5136   6.4405   6.6527   7.0220   7.1487   7.2311   7.3357
     9.7211  10.1223  11.1310  11.2272  12.1002  12.2384  12.4144  12.5041
    12.7505  12.9333  13.0212  13.5364  13.8840  14.1910  14.3872  14.5374
    14.6700  14.8552  14.9932  15.2872  15.4367  15.8184  16.0348  16.1373
    16.4623  16.6229  17.0980  17.2036  17.9893  18.2208  18.5360  18.8244

     occupation numbers
     1.0000   1.0000   1.0000   1.0000   1.0000   1.0000   1.0000   1.0000
     1.0000   1.0000   1.0000   1.0000   1.0000   1.0000   1.0000   1.0000
     1.0000   1.0000   1.0000   1.0000   1.0000   1.0000   1.0000   1.0000
     1.0000   1.0000   1.0000   1.0000   1.0000   1.0000   1.0000   1.0000
     0.0000   0.0000   0.0000   0.0000   0.0000   0.0000   0.0000   0.0000
     0.0000   0.0000   0.0000   0.0000   0.0000   0.0000   0.0000   0.0000
     0.0000   0.0000   0.0000   0.0000   0.0000   0.0000   0.0000   0.0000
     0.0000   0.0000   0.0000   0.0000   0.0000   0.0000   0.0000   0.0000

     highest occupied, lowest unoccupied level (ev):     7.3357    9.4266

!    total energy              =    -393.15168996 Ry
     estimated scf accuracy    <       0.00000025 Ry

     The total energy is the sum of the following terms:
     one-electron contribution =     -89.86948795 Ry
     hartree contribution      =      70.55727007 Ry
     xc contribution           =     -96.77977658 Ry
     ewald contribution        =    -277.05969549 Ry

     convergence has been achieved in  11 iterations

     Writing all to output data dir bands_nm/myprefix.save/

     General routines

     Parallel routines

   This run was terminated on:   4: 2:46  13Jul2023

   JOB DONE.