     Program PWSCF v.7.0 starts on 23Jun2023 at 15:20:17

     K-points division:     npool     =       2
     R & G space division:  proc/nbgrp/npool/nimage =       4

     Reading input from espresso_9845.pwi
Warning: card &CELL ignored
Warning: card / ignored

     Current dimensions of program PWSCF are:
     Max number of different atomic species (ntypx) = 10
     Max number of k-points (npk) =  40000
     Max angular momentum in pseudopotentials (lmaxx) =  4
     Message from routine setup:
     using ibrav=0 with symmetry is DISCOURAGED, use correct ibrav instead

     Using Slab Decomposition

     bravais-lattice index     =            0
     lattice parameter (alat)  =      14.3849  a.u.
     unit-cell volume          =    2559.6499 (a.u.)^3
     number of atoms/cell      =           18
     number of atomic types    =            3
     number of electrons       =       160.00
     number of Kohn-Sham states=           90
     kinetic-energy cutoff     =      30.0000  Ry
     charge density cutoff     =     240.0000  Ry
     scf convergence threshold =      1.0E-06
     mixing beta               =       0.7000
     number of iterations used =            8  plain     mixing
     Exchange-correlation=  SLA  PW   PBX  PBC
                           (   1   4   3   4   0   0   0)

     celldm(1)=  14.384934  celldm(2)=   0.000000  celldm(3)=   0.000000
     celldm(4)=   0.000000  celldm(5)=   0.000000  celldm(6)=   0.000000

     crystal axes: (cart. coord. in units of alat)
               a(1) = (   1.000000   0.000000   0.000000 )
               a(2) = (   0.000000   1.000000   0.000000 )
               a(3) = (   0.000000   0.000000   0.859918 )

     reciprocal axes: (cart. coord. in units 2 pi/alat)
               b(1) = (  1.000000  0.000000  0.000000 )
               b(2) = (  0.000000  1.000000  0.000000 )
               b(3) = (  0.000000  0.000000  1.162902 )

     PseudoPot. # 1 for Rb read from file:
     /home/pragov/projects/rrg-bengioy-ad/pragov/crystal_structure_design/SSSP/Rb_ONCV_PBE-1.0.oncvpsp.upf
     MD5 check sum: 55a5172d6bfbce6759a58e35d43f6aa9
     Pseudo is Norm-conserving, Zval =  9.0
     Generated using ONCVPSP code by D. R. Hamann
     Using radial grid of 2308 points,  6 beta functions with:
                l(1) =   0
                l(2) =   0
                l(3) =   1
                l(4) =   1
                l(5) =   2
                l(6) =   2

     PseudoPot. # 2 for Pd read from file:
     /home/pragov/projects/rrg-bengioy-ad/pragov/crystal_structure_design/SSSP/Pd_ONCV_PBE-1.0.oncvpsp.upf
     MD5 check sum: eb77f42b51d86fb18e25f68156a31cf1
     Pseudo is Norm-conserving, Zval = 18.0
     Generated using ONCVPSP code by D. R. Hamann
     Using radial grid of 1410 points,  6 beta functions with:
                l(1) =   0
                l(2) =   0
                l(3) =   1
                l(4) =   1
                l(5) =   2
                l(6) =   2

     PseudoPot. # 3 for F  read from file:
     /home/pragov/projects/rrg-bengioy-ad/pragov/crystal_structure_design/SSSP/f_pbe_v1.4.uspp.F.UPF
     MD5 check sum: 4c38b6a325caf53ec0e86aed9459de46
     Pseudo is Ultrasoft, Zval =  7.0
     Generated by new atomic code, or converted to UPF format
     Using radial grid of  799 points,  4 beta functions with:
                l(1) =   0
                l(2) =   0
                l(3) =   1
                l(4) =   1
     Q(r) pseudized with  8 coefficients,  rinner =    0.950   0.950   0.950

     atomic species   valence    mass     pseudopotential
        Rb             9.00    85.46780     Rb( 1.00)
        Pd            18.00   106.42000     Pd( 1.00)
        F              7.00    18.99840     F ( 1.00)

     16 Sym. Ops., with inversion, found ( 8 have fractional translation)

                                    s                        frac. trans.

      isym =  1     identity

 cryst.   s( 1) = (     1          0          0      )
                  (     0          1          0      )
                  (     0          0          1      )

 cart.    s( 1) = (  1.0000000  0.0000000  0.0000000 )
                  (  0.0000000  1.0000000  0.0000000 )
                  (  0.0000000  0.0000000  1.0000000 )

      isym =  2     180 deg rotation - cart. axis [0,0,1]

[...]

 cryst.   s( 3) = (    -1          0          0      )    f =(  0.5000000 )
                  (     0          1          0      )       ( -0.5000000 )
                  (     0          0         -1      )       (  0.0000000 )

 cart.    s( 3) = ( -1.0000000  0.0000000  0.0000000 )    f =(  0.5000000 )
                  (  0.0000000  1.0000000  0.0000000 )       ( -0.5000000 )
                  (  0.0000000  0.0000000 -1.0000000 )       (  0.0000000 )

[...]

 cryst.   s( 6) = (     0         -1          0      )    f =(  0.5000000 )
                  (    -1          0          0      )       (  0.5000000 )
                  (     0          0         -1      )       (  0.0000000 )

 cart.    s( 6) = (  0.0000000 -1.0000000  0.0000000 )    f =(  0.5000000 )
                  ( -1.0000000  0.0000000  0.0000000 )       (  0.5000000 )
                  (  0.0000000  0.0000000 -1.0000000 )       (  0.0000000 )

[...]

      isym =  8      90 deg rotation - cart. axis [0,0,1]

[...]

      isym =  9     inversion

 cryst.   s( 9) = (    -1          0          0      )
                  (     0         -1          0      )
                  (     0          0         -1      )

 cart.    s( 9) = ( -1.0000000  0.0000000  0.0000000 )
                  (  0.0000000 -1.0000000  0.0000000 )
                  (  0.0000000  0.0000000 -1.0000000 )

      isym = 10     inv. 180 deg rotation - cart. axis [0,0,1]

 cryst.   s(10) = (     1          0          0      )
                  (     0          1          0      )
                  (     0          0         -1      )

 cart.    s(10) = (  1.0000000  0.0000000  0.0000000 )
                  (  0.0000000  1.0000000  0.0000000 )
                  (  0.0000000  0.0000000 -1.0000000 )

[...]

 cryst.   s(11) = (     1          0          0      )    f =( -0.5000000 )
                  (     0         -1          0      )       (  0.5000000 )
                  (     0          0          1      )       (  0.0000000 )

 cart.    s(11) = (  1.0000000  0.0000000  0.0000000 )    f =( -0.5000000 )
                  (  0.0000000 -1.0000000  0.0000000 )       (  0.5000000 )
                  (  0.0000000  0.0000000  1.0000000 )       (  0.0000000 )

[...]

 cryst.   s(14) = (     0          1          0      )    f =( -0.5000000 )
                  (     1          0          0      )       ( -0.5000000 )
                  (     0          0          1      )       (  0.0000000 )

 cart.    s(14) = (  0.0000000  1.0000000  0.0000000 )    f =( -0.5000000 )
                  (  1.0000000  0.0000000  0.0000000 )       ( -0.5000000 )
                  (  0.0000000  0.0000000  1.0000000 )       (  0.0000000 )

[...]

      isym = 16     inv.  90 deg rotation - cart. axis [0,0,1]

 cryst.   s(16) = (     0         -1          0      )
                  (     1          0          0      )
                  (     0          0         -1      )

 cart.    s(16) = (  0.0000000  1.0000000  0.0000000 )
                  ( -1.0000000  0.0000000  0.0000000 )
                  (  0.0000000  0.0000000 -1.0000000 )

   Cartesian axes

     site n.     atom                  positions (alat units)
         1           Rb  tau(   1) = (   0.0000000   0.0000000   0.0000000  )
         2           Rb  tau(   2) = (   0.5000000   0.5000000   0.0000000  )
         3           Rb  tau(   3) = (   0.3237030   0.8237030   0.4299590  )
         4           Rb  tau(   4) = (   0.8237030   0.6762970   0.4299590  )
         5           Rb  tau(   5) = (   0.1762970   0.3237030   0.4299590  )
         6           Rb  tau(   6) = (   0.6762970   0.1762970   0.4299590  )
         7           Pd  tau(   7) = (   0.5000000   0.0000000   0.0000000  )
         8           Pd  tau(   8) = (   0.0000000   0.5000000   0.0000000  )
         9           F   tau(   9) = (   0.1321950   0.6321950   0.6768354  )
        10           F   tau(  10) = (   0.8678050   0.3678050   0.6768354  )
        11           F   tau(  11) = (   0.3678050   0.1321950   0.6768354  )
        12           F   tau(  12) = (   0.6321950   0.8678050   0.6768354  )
        13           F   tau(  13) = (   0.1321950   0.6321950   0.1830825  )
        14           F   tau(  14) = (   0.6321950   0.8678050   0.1830825  )
        15           F   tau(  15) = (   0.3678050   0.1321950   0.1830825  )
        16           F   tau(  16) = (   0.8678050   0.3678050   0.1830825  )
        17           F   tau(  17) = (   0.0000000   0.0000000   0.4299590  )
        18           F   tau(  18) = (   0.5000000   0.5000000   0.4299590  )

   Crystallographic axes

     site n.     atom                  positions (cryst. coord.)
         1           Rb  tau(   1) = (  0.0000000  0.0000000  0.0000000  )
         2           Rb  tau(   2) = (  0.5000000  0.5000000  0.0000000  )
         3           Rb  tau(   3) = (  0.3237030  0.8237030  0.5000000  )
         4           Rb  tau(   4) = (  0.8237030  0.6762970  0.5000000  )
         5           Rb  tau(   5) = (  0.1762970  0.3237030  0.5000000  )
         6           Rb  tau(   6) = (  0.6762970  0.1762970  0.5000000  )
         7           Pd  tau(   7) = (  0.5000000  0.0000000  0.0000000  )
         8           Pd  tau(   8) = (  0.0000000  0.5000000  0.0000000  )
         9           F   tau(   9) = (  0.1321950  0.6321950  0.7870930  )
        10           F   tau(  10) = (  0.8678050  0.3678050  0.7870930  )
        11           F   tau(  11) = (  0.3678050  0.1321950  0.7870930  )
        12           F   tau(  12) = (  0.6321950  0.8678050  0.7870930  )
        13           F   tau(  13) = (  0.1321950  0.6321950  0.2129070  )
        14           F   tau(  14) = (  0.6321950  0.8678050  0.2129070  )
        15           F   tau(  15) = (  0.3678050  0.1321950  0.2129070  )
        16           F   tau(  16) = (  0.8678050  0.3678050  0.2129070  )
        17           F   tau(  17) = (  0.0000000  0.0000000  0.5000000  )
        18           F   tau(  18) = (  0.5000000  0.5000000  0.5000000  )

     number of k points=     6
                       cart. coord. in units 2pi/alat
        k(    1) = (   0.0000000   0.0000000   0.0000000), wk =   0.0740741
        k(    2) = (   0.0000000   0.0000000   0.3876339), wk =   0.1481481
        k(    3) = (   0.0000000   0.3333333   0.0000000), wk =   0.2962963
        k(    4) = (   0.0000000   0.3333333   0.3876339), wk =   0.5925926
        k(    5) = (   0.3333333   0.3333333   0.0000000), wk =   0.2962963
        k(    6) = (   0.3333333   0.3333333   0.3876339), wk =   0.5925926

                       cryst. coord.
        k(    1) = (   0.0000000   0.0000000   0.0000000), wk =   0.0740741
        k(    2) = (   0.0000000   0.0000000   0.3333333), wk =   0.1481481
        k(    3) = (   0.0000000   0.3333333   0.0000000), wk =   0.2962963
        k(    4) = (   0.0000000   0.3333333   0.3333333), wk =   0.5925926
        k(    5) = (   0.3333333   0.3333333   0.0000000), wk =   0.2962963
        k(    6) = (   0.3333333   0.3333333   0.3333333), wk =   0.5925926

     Initial potential from superposition of free atoms

     starting charge     159.8507, renormalised to     160.0000
     Starting wfcs are   90 randomized atomic wfcs

     Self-consistent Calculation

     iteration #  1     ecut=    30.00 Ry     beta= 0.70
     Davidson diagonalization with overlap

     ethr =  1.00E-02,  avg # of iterations =  6.0

     total energy              =   -1285.98687756 Ry
     estimated scf accuracy    <       2.14125901 Ry

[...]

     total energy              =   -1286.94988201 Ry
     estimated scf accuracy    <       0.00002950 Ry

     iteration #  8     ecut=    30.00 Ry     beta= 0.70
     Davidson diagonalization with overlap

     ethr =  1.84E-08,  avg # of iterations =  2.7

     End of self-consistent calculation

          k = 0.0000 0.0000 0.0000 (  7101 PWs)   bands (ev):

   -81.1152 -81.1152 -46.8691 -46.8691 -46.8599 -46.8597 -45.7490 -45.7490
   -21.6690 -21.6651 -20.8683 -20.7821 -20.7821 -20.7711 -18.4380 -18.3942
   -18.2452 -18.2452 -18.1826 -18.1826 -18.1784 -18.1643 -15.8156 -15.7737
    -5.7940  -5.7940  -5.7666  -5.7666  -5.7210  -5.7078  -5.3926  -5.1149
    -5.1149  -5.0345  -5.0298  -5.0298  -5.0204  -4.9920  -4.8857  -4.6918
    -4.6918  -4.6131  -1.8568  -1.8568  -1.4751  -1.4386  -0.8340  -0.8261
    -0.2095  -0.1985  -0.1985  -0.1223  -0.0941  -0.0802   0.0056   0.0056
     0.3544   0.3544   0.6381   0.6798   0.6798   0.7362   0.7531   0.8409
     1.1227   1.1227   2.4605   2.4605   2.6539   2.6816   2.8413   2.8413
     2.9806   2.9959   3.2423   3.2497   3.2497   3.2635   3.2822   3.2883
     5.4648   5.4648   7.4034   9.4025   9.5823   9.5823  10.6023  10.8801
    11.0988  11.1222

     occupation numbers
     1.0000   1.0000   1.0000   1.0000   1.0000   1.0000   1.0000   1.0000
     1.0000   1.0000   1.0000   1.0000   1.0000   1.0000   1.0000   1.0000
     1.0000   1.0000   1.0000   1.0000   1.0000   1.0000   1.0000   1.0000
     1.0000   1.0000   1.0000   1.0000   1.0000   1.0000   1.0000   1.0000
     1.0000   1.0000   1.0000   1.0000   1.0000   1.0000   1.0000   1.0000
     1.0000   1.0000   1.0000   1.0000   1.0000   1.0000   1.0000   1.0000
     1.0000   1.0000   1.0000   1.0000   1.0000   1.0000   1.0000   1.0000
     1.0000   1.0000   1.0000   1.0000   1.0000   1.0000   1.0000   1.0000
     1.0000   1.0000   1.0000   1.0000   1.0000   1.0000   1.0000   1.0000
     1.0000   1.0000   1.0000   1.0000   1.0000   1.0000   1.0000   1.0000
     0.0000   0.0000   0.0000   0.0000   0.0000   0.0000   0.0000   0.0000
     0.0000   0.0000

[...]

          k = 0.3333 0.3333 0.3876 (  7095 PWs)   bands (ev):

   -81.1152 -81.1152 -46.8688 -46.8687 -46.8598 -46.8594 -45.7489 -45.7488
   -21.6669 -21.6660 -20.8343 -20.8089 -20.7859 -20.7746 -18.4290 -18.4282
   -18.2448 -18.2444 -18.1824 -18.1811 -18.1642 -18.1575 -15.8008 -15.7904
    -5.7956  -5.7885  -5.7850  -5.7776  -5.6974  -5.6946  -5.2836  -5.1853
    -5.0388  -5.0314  -5.0303  -5.0160  -5.0107  -4.8916  -4.8713  -4.8242
    -4.7668  -4.6833  -1.8649  -1.8510  -1.4163  -1.4102  -0.8207  -0.8045
    -0.2077  -0.2040  -0.1872  -0.1384  -0.0726  -0.0388  -0.0140  -0.0021
     0.3392   0.3439   0.6405   0.6609   0.7012   0.7037   0.7318   0.7684
     1.0831   1.0841   2.4638   2.5588   2.5591   2.5736   2.7210   2.8214
     3.0750   3.1182   3.2553   3.2631   3.2639   3.2770   3.2821   3.2942
     5.4404   5.4489   8.5307   9.0615   9.3664   9.5752  10.3923  10.6068
    10.7094  10.8224

     occupation numbers
     1.0000   1.0000   1.0000   1.0000   1.0000   1.0000   1.0000   1.0000
     1.0000   1.0000   1.0000   1.0000   1.0000   1.0000   1.0000   1.0000
     1.0000   1.0000   1.0000   1.0000   1.0000   1.0000   1.0000   1.0000
     1.0000   1.0000   1.0000   1.0000   1.0000   1.0000   1.0000   1.0000
     1.0000   1.0000   1.0000   1.0000   1.0000   1.0000   1.0000   1.0000
     1.0000   1.0000   1.0000   1.0000   1.0000   1.0000   1.0000   1.0000
     1.0000   1.0000   1.0000   1.0000   1.0000   1.0000   1.0000   1.0000
     1.0000   1.0000   1.0000   1.0000   1.0000   1.0000   1.0000   1.0000
     1.0000   1.0000   1.0000   1.0000   1.0000   1.0000   1.0000   1.0000
     1.0000   1.0000   1.0000   1.0000   1.0000   1.0000   1.0000   1.0000
     0.0000   0.0000   0.0000   0.0000   0.0000   0.0000   0.0000   0.0000
     0.0000   0.0000

     highest occupied, lowest unoccupied level (ev):     3.2942    5.4295

!    total energy              =   -1286.94988735 Ry
     estimated scf accuracy    <       0.00000069 Ry

     The total energy is the sum of the following terms:
     one-electron contribution =    -817.84912135 Ry
     hartree contribution      =     472.43517076 Ry
     xc contribution           =    -188.16274854 Ry
     ewald contribution        =    -753.37318821 Ry

     convergence has been achieved in   8 iterations

     Writing all to output data dir calculations_bands/myprefix.save/

     General routines

     Parallel routines

   This run was terminated on:  15:20:27  23Jun2023

   JOB DONE.