     Program PWSCF v.7.1 starts on 15Jul2023 at 22: 0:27

     Reading input from espresso_13217.pwi
Warning: card &CELL ignored
Warning: card / ignored

     Current dimensions of program PWSCF are:
     Max number of different atomic species (ntypx) = 10
     Max number of k-points (npk) =  40000
     Max angular momentum in pseudopotentials (lmaxx) =  4
     Message from routine setup:
     using ibrav=0 with symmetry is DISCOURAGED, use correct ibrav instead

     K-points division:     npool     =       2
     R & G space division:  proc/nbgrp/npool/nimage =       4
     Subspace diagonalization in iterative solution of the eigenvalue problem:
     one sub-group per band group will be used

     Using Slab Decomposition

     bravais-lattice index     =            0
     lattice parameter (alat)  =      13.1042  a.u.
     unit-cell volume          =    3468.8742 (a.u.)^3
     number of atoms/cell      =           16
     number of atomic types    =            4
     number of electrons       =       132.00
     number of Kohn-Sham states=          256
     kinetic-energy cutoff     =      30.0000  Ry
     charge density cutoff     =     240.0000  Ry
     scf convergence threshold =      1.0E-06
     mixing beta               =       0.7000
     number of iterations used =            8  plain     mixing
     Exchange-correlation=  SLA  PW   PBX  PBC
                           (   1   4   3   4   0   0   0)

     celldm(1)=  13.104206  celldm(2)=   0.000000  celldm(3)=   0.000000
     celldm(4)=   0.000000  celldm(5)=   0.000000  celldm(6)=   0.000000

     crystal axes: (cart. coord. in units of alat)
               a(1) = (   1.000000   0.000000   0.000000 )
               a(2) = (   0.343010   1.003394   0.000000 )
               a(3) = (   0.438851   0.350708   1.536331 )

     reciprocal axes: (cart. coord. in units 2 pi/alat)
               b(1) = (  1.000000 -0.341849 -0.207613 )
               b(2) = (  0.000000  0.996617 -0.227504 )
               b(3) = (  0.000000  0.000000  0.650901 )

     PseudoPot. # 1 for Cs read from file:
     /lustre07/scratch/pragov/crystal_structure_design/utils/SSSP/Cs_pbe_v1.uspp.F.UPF
     MD5 check sum: 3476d69cb178dfad3ffaa59df4e07ca4
     Pseudo is Ultrasoft + core correction, Zval =  9.0
     Generated by new atomic code, or converted to UPF format
     Using radial grid of  905 points,  6 beta functions with:
                l(1) =   0
                l(2) =   0
                l(3) =   1
                l(4) =   1
                l(5) =   2
                l(6) =   2
     Q(r) pseudized with  6 coefficients,  rinner =    1.500   1.500   1.500
                                                       1.500   1.500

     PseudoPot. # 2 for Ag read from file:
     /lustre07/scratch/pragov/crystal_structure_design/utils/SSSP/Ag_ONCV_PBE-1.0.oncvpsp.upf
     MD5 check sum: 94f47bd0669c641108e45594df92fabc
     Pseudo is Norm-conserving, Zval = 19.0
     Generated using ONCVPSP code by D. R. Hamann
     Using radial grid of 1398 points,  6 beta functions with:
                l(1) =   0
                l(2) =   0
                l(3) =   1
                l(4) =   1
                l(5) =   2
                l(6) =   2

     PseudoPot. # 3 for As read from file:
     /lustre07/scratch/pragov/crystal_structure_design/utils/SSSP/As.pbe-n-rrkjus_psl.0.2.UPF
     MD5 check sum: 767315de957beeeb34f87d97bf945c8f
     Pseudo is Ultrasoft + core correction, Zval =  5.0
     Generated using "atomic" code by A. Dal Corso  v.5.0.99 svn rev. 10869
     Using radial grid of 1209 points,  4 beta functions with:
                l(1) =   0
                l(2) =   0
                l(3) =   1
                l(4) =   1
     Q(r) pseudized with 0 coefficients

     PseudoPot. # 4 for S  read from file:
     /lustre07/scratch/pragov/crystal_structure_design/utils/SSSP/s_pbe_v1.4.uspp.F.UPF
     MD5 check sum: 88d86576ff6df21479756cfb9bdac1df
     Pseudo is Ultrasoft + core correction, Zval =  6.0
     Generated by new atomic code, or converted to UPF format
     Using radial grid of  907 points,  6 beta functions with:
                l(1) =   0
                l(2) =   0
                l(3) =   1
                l(4) =   1
                l(5) =   2
                l(6) =   2
     Q(r) pseudized with  8 coefficients,  rinner =    1.300   1.300   1.300
                                                       1.300   1.300

     atomic species   valence    mass     pseudopotential
        Cs             9.00   132.90545     Cs( 1.00)
        Ag            19.00   107.86820     Ag( 1.00)
        As             5.00    74.92159     As( 1.00)
        S              6.00    32.06000     S ( 1.00)

      2 Sym. Ops., with inversion, found

                                    s                        frac. trans.

      isym =  1     identity

 cryst.   s( 1) = (     1          0          0      )
                  (     0          1          0      )
                  (     0          0          1      )

 cart.    s( 1) = (  1.0000000 -0.0000000  0.0000000 )
                  (  0.0000000  1.0000000  0.0000000 )
                  (  0.0000000  0.0000000  1.0000000 )

      isym =  2     inversion

 cryst.   s( 2) = (    -1          0          0      )
                  (     0         -1          0      )
                  (     0          0         -1      )

 cart.    s( 2) = ( -1.0000000  0.0000000  0.0000000 )
                  (  0.0000000 -1.0000000  0.0000000 )
                  (  0.0000000  0.0000000 -1.0000000 )

   Cartesian axes

     site n.     atom                  positions (alat units)
         1           Cs  tau(   1) = (   1.0210830   0.5817200   0.2897721  )
         2           Cs  tau(   2) = (   0.5293451   0.3820836   0.6202800  )
         3           Cs  tau(   3) = (   0.7607780   0.7723818   1.2465594  )
         4           Cs  tau(   4) = (   1.2525159   0.9720182   0.9160515  )
         5           Ag  tau(   5) = (   0.7009572   0.1097699   0.1203608  )
         6           Ag  tau(   6) = (   1.0809038   1.2443319   1.4159706  )
         7           As  tau(   7) = (   0.5382147   0.9492747   0.3549817  )
         8           As  tau(   8) = (   1.2436463   0.4048271   1.1813498  )
         9           S   tau(   9) = (   1.2395492   1.0476660   0.4166178  )
        10           S   tau(  10) = (   0.6873153   0.8874112   0.6238550  )
        11           S   tau(  11) = (   0.5298361   0.6880200   0.1746901  )
        12           S   tau(  12) = (   1.2520249   0.6660818   1.3616413  )
        13           S   tau(  13) = (   1.4406358   1.1790348   1.3513203  )
        14           S   tau(  14) = (   0.5423119   0.3064358   1.1197137  )
        15           S   tau(  15) = (   1.0945457   0.4666906   0.9124764  )
        16           S   tau(  16) = (   0.3412252   0.1750669   0.1850112  )

   Crystallographic axes

     site n.     atom                  positions (cryst. coord.)
         1           Cs  tau(   1) = (  0.7620620  0.5138280  0.1886130  )
         2           Cs  tau(   2) = (  0.2699520  0.2396750  0.4037410  )
         3           Cs  tau(   3) = (  0.2379380  0.4861720  0.8113870  )
         4           Cs  tau(   4) = (  0.7300480  0.7603250  0.5962590  )
         5           Ag  tau(   5) = (  0.6384440  0.0820160  0.0783430  )
         6           Ag  tau(   6) = (  0.3615560  0.9179840  0.9216570  )
         7           As  tau(   7) = (  0.1400070  0.8653040  0.2310580  )
         8           As  tau(   8) = (  0.8599930  0.1346960  0.7689420  )
         9           S   tau(   9) = (  0.7949100  0.9493400  0.2711770  )
        10           S   tau(  10) = (  0.2544340  0.7424800  0.4060680  )
        11           S   tau(  11) = (  0.2583690  0.6459500  0.1137060  )
        12           S   tau(  12) = (  0.7416310  0.3540500  0.8862940  )
        13           S   tau(  13) = (  0.7570320  0.8676160  0.8795760  )
        14           S   tau(  14) = (  0.2050900  0.0506600  0.7288230  )
        15           S   tau(  15) = (  0.7455660  0.2575200  0.5939320  )
        16           S   tau(  16) = (  0.2429680  0.1323840  0.1204240  )

     number of k points=    14
                       cart. coord. in units 2pi/alat
        k(    1) = (   0.0000000   0.0000000   0.0000000), wk =   0.0740741
        k(    2) = (   0.0000000   0.0000000   0.2169671), wk =   0.1481481
        k(    3) = (   0.0000000   0.3322058  -0.0758346), wk =   0.1481481
        k(    4) = (   0.0000000   0.3322058   0.1411324), wk =   0.1481481
        k(    5) = (   0.0000000   0.3322058  -0.2928017), wk =   0.1481481
        k(    6) = (   0.3333333  -0.1139498  -0.0692043), wk =   0.1481481
        k(    7) = (   0.3333333  -0.1139498   0.1477628), wk =   0.1481481
        k(    8) = (   0.3333333  -0.1139498  -0.2861714), wk =   0.1481481
        k(    9) = (   0.3333333   0.2182560  -0.1450389), wk =   0.1481481
        k(   10) = (   0.3333333   0.2182560   0.0719281), wk =   0.1481481
        k(   11) = (   0.3333333   0.2182560  -0.3620060), wk =   0.1481481
        k(   12) = (   0.3333333  -0.4461556   0.0066303), wk =   0.1481481
        k(   13) = (   0.3333333  -0.4461556   0.2235974), wk =   0.1481481
        k(   14) = (   0.3333333  -0.4461556  -0.2103367), wk =   0.1481481

                       cryst. coord.
        k(    1) = (   0.0000000   0.0000000   0.0000000), wk =   0.0740741
        k(    2) = (   0.0000000   0.0000000   0.3333333), wk =   0.1481481
        k(    3) = (   0.0000000   0.3333333  -0.0000000), wk =   0.1481481
        k(    4) = (   0.0000000   0.3333333   0.3333333), wk =   0.1481481
        k(    5) = (   0.0000000   0.3333333  -0.3333333), wk =   0.1481481
        k(    6) = (   0.3333333  -0.0000000   0.0000000), wk =   0.1481481
        k(    7) = (   0.3333333  -0.0000000   0.3333333), wk =   0.1481481
        k(    8) = (   0.3333333  -0.0000000  -0.3333333), wk =   0.1481481
        k(    9) = (   0.3333333   0.3333333   0.0000000), wk =   0.1481481
        k(   10) = (   0.3333333   0.3333333   0.3333333), wk =   0.1481481
        k(   11) = (   0.3333333   0.3333333  -0.3333333), wk =   0.1481481
        k(   12) = (   0.3333333  -0.3333333  -0.0000000), wk =   0.1481481
        k(   13) = (   0.3333333  -0.3333333   0.3333333), wk =   0.1481481
        k(   14) = (   0.3333333  -0.3333333  -0.3333333), wk =   0.1481481

     Initial potential from superposition of free atoms

     starting charge     131.8411, renormalised to     132.0000
     Starting wfcs are  112 randomized atomic wfcs +  144 random wfcs

     Self-consistent Calculation

     iteration #  1     ecut=    30.00 Ry     beta= 0.70
     Davidson diagonalization with overlap

     ethr =  1.00E-02,  avg # of iterations =  7.0

     Threshold (ethr) on eigenvalues was too large:
     Diagonalizing with lowered threshold

     Davidson diagonalization with overlap

[...]

     total energy              =   -1056.11725672 Ry
     estimated scf accuracy    <       0.78454011 Ry

[...]

     total energy              =   -1056.37612909 Ry
     estimated scf accuracy    <       0.00000193 Ry

     iteration #  9     ecut=    30.00 Ry     beta= 0.70
     Davidson diagonalization with overlap

     ethr =  1.46E-09,  avg # of iterations =  2.0

     End of self-consistent calculation

          k = 0.0000 0.0000 0.0000 (  9623 PWs)   bands (ev):

   -87.1184 -87.1183 -50.1927 -50.1924 -50.1599 -50.1597 -50.1375 -50.1359
   -16.4868 -16.4669 -16.4446 -16.4319 -10.0726 -10.0403  -7.4747  -7.4485
    -7.3823  -7.3562  -7.2385  -7.1871  -4.0529  -4.0093  -3.6047  -3.4995
    -3.4673  -3.3723  -3.3683  -3.3209  -3.2732  -3.2552  -3.2035  -3.2010
    -3.1990  -3.1008  -0.2910  -0.0785   0.0640   0.0734   0.2626   0.2665
     0.9884   1.1940   1.1974   1.2974   1.3239   1.5694   1.6281   1.7313
     1.7348   1.9515   2.0961   2.1943   2.7623   3.0289   3.0958   3.2569
     3.4233   3.4631   3.5610   3.6056   3.7557   3.8779   4.0833   4.1780
     4.1812   4.2971   5.8607   6.2160   7.3436   7.7973   7.8362   8.3382
     8.3605   8.5777   8.6837   8.8943   9.0151   9.3225   9.4514   9.4890
     9.6886   9.9256   9.9622  10.0341  10.1015  10.2376  10.5371  10.6837
    10.7097  10.7847  10.9762  10.9782  11.2269  11.3536  11.4398  11.7248
    11.9332  11.9917  11.9997  12.1517  12.4694  12.5392  12.5678  12.6620
    12.8417  13.0931  13.6222  13.6403  13.7343  13.7757  13.8513  14.0804
    14.1498  14.1927  14.3455  14.4004  14.4188  14.7171  14.7730  15.1004
    15.3088  15.3107  15.4441  15.4467  15.8023  15.9134  15.9360  16.0558
    16.1638  16.3906  16.4148  16.6020  16.6753  16.8048  17.0048  17.1271
    17.2470  17.3180  17.4693  17.6093  17.7308  17.9603  18.0921  18.1626
    18.2135  18.3087  18.4211  18.4930  18.4933  18.6385  18.7309  19.0104
    19.0277  19.0703  19.1277  19.2094  19.3410  19.4774  19.5456  19.6128
    19.8024  19.8490  19.9451  20.0039  20.0335  20.0393  20.1255  20.1970
    20.4374  20.4747  20.6692  20.7235  20.7514  20.8517  20.8855  21.0078
    21.0945  21.1297  21.1561  21.1990  21.2479  21.3249  21.4568  21.6979
    21.7487  21.8940  21.9716  22.0014  22.1281  22.2337  22.3710  22.4418
    22.5825  22.8107  22.9555  23.0357  23.1007  23.1493  23.2377  23.4536
    23.5593  23.6549  23.7875  23.9842  24.0765  24.0973  24.3149  24.4130
    24.4203  24.4871  24.6028  24.6727  24.8454  25.1364  25.1705  25.2856
    25.3833  25.4825  25.4922  25.7174  25.7959  25.8023  25.9184  25.9752
    26.0520  26.1760  26.2387  26.3476  26.5464  26.5845  26.6643  26.7791
    26.9510  26.9634  27.0159  27.1081  27.2310  27.2347  27.4101  27.4988
    27.6870  27.6962  27.7656  27.8898  27.9122  28.0503  28.0902  28.3068
    28.4067  28.4193  28.4913  28.5606  28.6469  28.8423  28.8815  28.9134

     occupation numbers
     1.0000   1.0000   1.0000   1.0000   1.0000   1.0000   1.0000   1.0000
     1.0000   1.0000   1.0000   1.0000   1.0000   1.0000   1.0000   1.0000
     1.0000   1.0000   1.0000   1.0000   1.0000   1.0000   1.0000   1.0000
     1.0000   1.0000   1.0000   1.0000   1.0000   1.0000   1.0000   1.0000
     1.0000   1.0000   1.0000   1.0000   1.0000   1.0000   1.0000   1.0000
     1.0000   1.0000   1.0000   1.0000   1.0000   1.0000   1.0000   1.0000
     1.0000   1.0000   1.0000   1.0000   1.0000   1.0000   1.0000   1.0000
     1.0000   1.0000   1.0000   1.0000   1.0000   1.0000   1.0000   1.0000
     1.0000   1.0000   0.0000   0.0000   0.0000   0.0000   0.0000   0.0000
     0.0000   0.0000   0.0000   0.0000   0.0000   0.0000   0.0000   0.0000
     0.0000   0.0000   0.0000   0.0000   0.0000   0.0000   0.0000   0.0000
     0.0000   0.0000   0.0000   0.0000   0.0000   0.0000   0.0000   0.0000
     0.0000   0.0000   0.0000   0.0000   0.0000   0.0000   0.0000   0.0000
     0.0000   0.0000   0.0000   0.0000   0.0000   0.0000   0.0000   0.0000
     0.0000   0.0000   0.0000   0.0000   0.0000   0.0000   0.0000   0.0000
     0.0000   0.0000   0.0000   0.0000   0.0000   0.0000   0.0000   0.0000
     0.0000   0.0000   0.0000   0.0000   0.0000   0.0000   0.0000   0.0000
     0.0000   0.0000   0.0000   0.0000   0.0000   0.0000   0.0000   0.0000
     0.0000   0.0000   0.0000   0.0000   0.0000   0.0000   0.0000   0.0000
     0.0000   0.0000   0.0000   0.0000   0.0000   0.0000   0.0000   0.0000
     0.0000   0.0000   0.0000   0.0000   0.0000   0.0000   0.0000   0.0000
     0.0000   0.0000   0.0000   0.0000   0.0000   0.0000   0.0000   0.0000
     0.0000   0.0000   0.0000   0.0000   0.0000   0.0000   0.0000   0.0000
     0.0000   0.0000   0.0000   0.0000   0.0000   0.0000   0.0000   0.0000
     0.0000   0.0000   0.0000   0.0000   0.0000   0.0000   0.0000   0.0000
     0.0000   0.0000   0.0000   0.0000   0.0000   0.0000   0.0000   0.0000
     0.0000   0.0000   0.0000   0.0000   0.0000   0.0000   0.0000   0.0000
     0.0000   0.0000   0.0000   0.0000   0.0000   0.0000   0.0000   0.0000
     0.0000   0.0000   0.0000   0.0000   0.0000   0.0000   0.0000   0.0000
     0.0000   0.0000   0.0000   0.0000   0.0000   0.0000   0.0000   0.0000
     0.0000   0.0000   0.0000   0.0000   0.0000   0.0000   0.0000   0.0000
     0.0000   0.0000   0.0000   0.0000   0.0000   0.0000   0.0000   0.0000

[...]

          k = 0.3333-0.4462-0.2103 (  9630 PWs)   bands (ev):

   -87.1184 -87.1183 -50.1931 -50.1919 -50.1601 -50.1587 -50.1394 -50.1364
   -16.4728 -16.4613 -16.4533 -16.4412 -10.0547 -10.0409  -7.5389  -7.4868
    -7.4011  -7.3860  -7.2357  -7.2227  -3.9959  -3.9839  -3.5459  -3.4971
    -3.3775  -3.3479  -3.2930  -3.2779  -3.2584  -3.2085  -3.1844  -3.1464
    -3.1236  -3.0677  -0.2764  -0.1213  -0.1044   0.0734   0.2429   0.3186
     0.9926   1.1482   1.2313   1.2728   1.3286   1.4240   1.5880   1.7092
     1.7774   1.9522   2.1281   2.2043   2.7705   2.8827   3.0052   3.1117
     3.2030   3.3010   3.4702   3.5304   3.5891   3.6605   3.8968   4.0317
     4.1518   4.2657   6.4642   6.4904   7.6219   8.0399   8.2204   8.3387
     8.4108   8.5465   8.6728   9.0174   9.0723   9.3700   9.3820   9.5273
     9.7625  10.0444  10.2117  10.3540  10.4839  10.5346  10.7112  10.8379
    10.9001  11.0093  11.0508  11.1058  11.3271  11.4156  11.5261  11.6922
    11.7393  11.7907  11.9484  12.0260  12.1065  12.3634  12.5136  12.5493
    12.7485  12.9728  13.2188  13.3226  13.3495  13.6916  13.7631  13.9569
    13.9926  14.0317  14.1863  14.4536  14.5618  14.6482  14.6779  14.8984
    15.0487  15.2255  15.3421  15.4090  15.4878  15.8742  15.8791  15.9864
    16.0861  16.1848  16.3301  16.4134  16.6089  16.8271  16.9006  17.1026
    17.3456  17.4049  17.5026  17.6147  17.7227  17.8173  17.9086  18.0057
    18.0629  18.2728  18.3121  18.3972  18.5725  18.5904  18.7030  18.9391
    19.0248  19.1192  19.2506  19.3192  19.4227  19.5318  19.6037  19.7604
    19.8777  20.0262  20.1309  20.2763  20.3455  20.3675  20.5718  20.5849
    20.6858  20.7037  20.8769  20.9178  20.9834  21.0653  21.1374  21.1506
    21.2043  21.2282  21.2732  21.3892  21.4558  21.5110  21.6042  21.6710
    21.7696  21.9061  22.0407  22.2007  22.2588  22.3943  22.4855  22.6440
    22.6981  22.7610  22.8161  22.9878  23.1196  23.2357  23.3979  23.4537
    23.6033  23.6780  23.7407  23.7668  23.8630  23.9141  24.0511  24.1399
    24.2988  24.4035  24.5331  24.5769  24.6751  24.6973  24.8737  24.9292
    25.0669  25.1714  25.3021  25.4262  25.5187  25.6090  25.7213  25.7261
    25.9196  26.0173  26.0959  26.2152  26.3891  26.4712  26.5720  26.6810
    26.7680  26.9542  27.0325  27.0824  27.1355  27.2482  27.3230  27.3955
    27.5349  27.6583  27.8009  27.9115  27.9848  28.0703  28.1439  28.3375
    28.3975  28.4526  28.5110  28.6939  28.7293  28.8152  28.9436  29.0958

     occupation numbers
     1.0000   1.0000   1.0000   1.0000   1.0000   1.0000   1.0000   1.0000
     1.0000   1.0000   1.0000   1.0000   1.0000   1.0000   1.0000   1.0000
     1.0000   1.0000   1.0000   1.0000   1.0000   1.0000   1.0000   1.0000
     1.0000   1.0000   1.0000   1.0000   1.0000   1.0000   1.0000   1.0000
     1.0000   1.0000   1.0000   1.0000   1.0000   1.0000   1.0000   1.0000
     1.0000   1.0000   1.0000   1.0000   1.0000   1.0000   1.0000   1.0000
     1.0000   1.0000   1.0000   1.0000   1.0000   1.0000   1.0000   1.0000
     1.0000   1.0000   1.0000   1.0000   1.0000   1.0000   1.0000   1.0000
     1.0000   1.0000   0.0000   0.0000   0.0000   0.0000   0.0000   0.0000
     0.0000   0.0000   0.0000   0.0000   0.0000   0.0000   0.0000   0.0000
     0.0000   0.0000   0.0000   0.0000   0.0000   0.0000   0.0000   0.0000
     0.0000   0.0000   0.0000   0.0000   0.0000   0.0000   0.0000   0.0000
     0.0000   0.0000   0.0000   0.0000   0.0000   0.0000   0.0000   0.0000
     0.0000   0.0000   0.0000   0.0000   0.0000   0.0000   0.0000   0.0000
     0.0000   0.0000   0.0000   0.0000   0.0000   0.0000   0.0000   0.0000
     0.0000   0.0000   0.0000   0.0000   0.0000   0.0000   0.0000   0.0000
     0.0000   0.0000   0.0000   0.0000   0.0000   0.0000   0.0000   0.0000
     0.0000   0.0000   0.0000   0.0000   0.0000   0.0000   0.0000   0.0000
     0.0000   0.0000   0.0000   0.0000   0.0000   0.0000   0.0000   0.0000
     0.0000   0.0000   0.0000   0.0000   0.0000   0.0000   0.0000   0.0000
     0.0000   0.0000   0.0000   0.0000   0.0000   0.0000   0.0000   0.0000
     0.0000   0.0000   0.0000   0.0000   0.0000   0.0000   0.0000   0.0000
     0.0000   0.0000   0.0000   0.0000   0.0000   0.0000   0.0000   0.0000
     0.0000   0.0000   0.0000   0.0000   0.0000   0.0000   0.0000   0.0000
     0.0000   0.0000   0.0000   0.0000   0.0000   0.0000   0.0000   0.0000
     0.0000   0.0000   0.0000   0.0000   0.0000   0.0000   0.0000   0.0000
     0.0000   0.0000   0.0000   0.0000   0.0000   0.0000   0.0000   0.0000
     0.0000   0.0000   0.0000   0.0000   0.0000   0.0000   0.0000   0.0000
     0.0000   0.0000   0.0000   0.0000   0.0000   0.0000   0.0000   0.0000
     0.0000   0.0000   0.0000   0.0000   0.0000   0.0000   0.0000   0.0000
     0.0000   0.0000   0.0000   0.0000   0.0000   0.0000   0.0000   0.0000
     0.0000   0.0000   0.0000   0.0000   0.0000   0.0000   0.0000   0.0000

     highest occupied, lowest unoccupied level (ev):     4.3099    5.8607

!    total energy              =   -1056.37612966 Ry
     estimated scf accuracy    <       0.00000028 Ry

     The total energy is the sum of the following terms:
     one-electron contribution =    -691.63153861 Ry
     hartree contribution      =     386.38174609 Ry
     xc contribution           =    -261.11990709 Ry
     ewald contribution        =    -490.00643005 Ry

     convergence has been achieved in   9 iterations

     Writing all to output data dir bands_nm/myprefix.save/

     General routines

     Parallel routines

   This run was terminated on:  22: 2:29  15Jul2023

   JOB DONE.