     Program PWSCF v.7.1 starts on 16Jul2023 at 13: 8:13

     Reading input from espresso_26871.pwi
Warning: card &CELL ignored
Warning: card / ignored

     Current dimensions of program PWSCF are:
     Max number of different atomic species (ntypx) = 10
     Max number of k-points (npk) =  40000
     Max angular momentum in pseudopotentials (lmaxx) =  4
     Message from routine setup:
     using ibrav=0 with symmetry is DISCOURAGED, use correct ibrav instead

     K-points division:     npool     =       2
     R & G space division:  proc/nbgrp/npool/nimage =       4
     Subspace diagonalization in iterative solution of the eigenvalue problem:
     a serial algorithm will be used

     Using Slab Decomposition

     bravais-lattice index     =            0
     lattice parameter (alat)  =      16.4775  a.u.
     unit-cell volume          =    2318.6468 (a.u.)^3
     number of atoms/cell      =           10
     number of atomic types    =            3
     number of electrons       =        64.00
     number of Kohn-Sham states=           64
     kinetic-energy cutoff     =      30.0000  Ry
     charge density cutoff     =     240.0000  Ry
     scf convergence threshold =      1.0E-06
     mixing beta               =       0.7000
     number of iterations used =            8  plain     mixing
     Exchange-correlation= PBE
                           (   1   4   3   4   0   0   0)

     celldm(1)=  16.477478  celldm(2)=   0.000000  celldm(3)=   0.000000
     celldm(4)=   0.000000  celldm(5)=   0.000000  celldm(6)=   0.000000

     crystal axes: (cart. coord. in units of alat)
               a(1) = (   1.000000   0.000000   0.000000 )
               a(2) = (   0.357070   0.934078   0.000000 )
               a(3) = (  -0.612412  -0.563106   0.554855 )

     reciprocal axes: (cart. coord. in units 2 pi/alat)
               b(1) = (  1.000000 -0.382270  0.715779 )
               b(2) = (  0.000000  1.070575  1.086495 )
               b(3) = (  0.000000  0.000000  1.802273 )

     PseudoPot. # 1 for Cs read from file:
     /lustre07/scratch/pragov/crystal_structure_design/utils/SSSP/Cs_pbe_v1.uspp.F.UPF
     MD5 check sum: 3476d69cb178dfad3ffaa59df4e07ca4
     Pseudo is Ultrasoft + core correction, Zval =  9.0
     Generated by new atomic code, or converted to UPF format
     Using radial grid of  905 points,  6 beta functions with:
                l(1) =   0
                l(2) =   0
                l(3) =   1
                l(4) =   1
                l(5) =   2
                l(6) =   2
     Q(r) pseudized with  6 coefficients,  rinner =    1.500   1.500   1.500
                                                       1.500   1.500

     PseudoPot. # 2 for Si read from file:
     /lustre07/scratch/pragov/crystal_structure_design/utils/SSSP/Si.pbe-n-rrkjus_psl.1.0.0.UPF
     MD5 check sum: 0b0bb1205258b0d07b9f9672cf965d36
     Pseudo is Ultrasoft + core correction, Zval =  4.0
     Generated using "atomic" code by A. Dal Corso  v.5.1
     Using radial grid of 1141 points,  6 beta functions with:
                l(1) =   0
                l(2) =   0
                l(3) =   1
                l(4) =   1
                l(5) =   2
                l(6) =   2
     Q(r) pseudized with 0 coefficients

     PseudoPot. # 3 for P  read from file:
     /lustre07/scratch/pragov/crystal_structure_design/utils/SSSP/P.pbe-n-rrkjus_psl.1.0.0.UPF
     MD5 check sum: 8b930f418f0a4573dca56cd030ffe088
     Pseudo is Ultrasoft + core correction, Zval =  5.0
     Generated using "atomic" code by A. Dal Corso  v.5.1
     Using radial grid of 1147 points,  6 beta functions with:
                l(1) =   0
                l(2) =   0
                l(3) =   1
                l(4) =   1
                l(5) =   2
                l(6) =   2
     Q(r) pseudized with 0 coefficients

     atomic species   valence    mass     pseudopotential
        Cs             9.00   132.90545     Cs( 1.00)
        Si             4.00    28.08500     Si( 1.00)
        P              5.00    30.97376     P ( 1.00)

      2 Sym. Ops., with inversion, found

                                    s                        frac. trans.

      isym =  1     identity

 cryst.   s( 1) = (     1          0          0      )
                  (     0          1          0      )
                  (     0          0          1      )

 cart.    s( 1) = (  1.0000000  0.0000000  0.0000000 )
                  (  0.0000000  1.0000000 -0.0000000 )
                  (  0.0000000  0.0000000  1.0000000 )

      isym =  2     inversion

 cryst.   s( 2) = (    -1          0          0      )
                  (     0         -1          0      )
                  (     0          0         -1      )

 cart.    s( 2) = ( -1.0000000  0.0000000  0.0000000 )
                  (  0.0000000 -1.0000000  0.0000000 )
                  (  0.0000000  0.0000000 -1.0000000 )

   Cartesian axes

     site n.     atom                  positions (alat units)
         1           Cs  tau(   1) = (   0.5195532  -0.3296363   0.4594881  )
         2           Cs  tau(   2) = (   0.2251050   0.7006082   0.0953668  )
         3           Cs  tau(   3) = (   0.6071302   0.1455864   0.1820606  )
         4           Cs  tau(   4) = (   0.1375280   0.2253856   0.3727942  )
         5           Si  tau(   5) = (   0.6146995   0.5597818   0.1387137  )
         6           Si  tau(   6) = (   0.1299587  -0.1888099   0.4161411  )
         7           P   tau(   7) = (   0.8540039   0.4655904   0.0817185  )
         8           P   tau(   8) = (   0.4895624   0.4881060   0.3591459  )
         9           P   tau(   9) = (   0.2550959  -0.1171340   0.1957090  )
        10           P   tau(  10) = (  -0.1093457  -0.0946184   0.4731364  )

   Crystallographic axes

     site n.     atom                  positions (cryst. coord.)
         1           Cs  tau(   1) = (  0.9744550  0.1463310  0.8281230  )
         2           Cs  tau(   2) = (  0.0255450  0.8536690  0.1718770  )
         3           Cs  tau(   3) = (  0.6817920  0.3536690  0.3281230  )
         4           Cs  tau(   4) = (  0.3182080  0.6463310  0.6718770  )
         5           Si  tau(   5) = (  0.5000000  0.7500000  0.2500000  )
         6           Si  tau(   6) = (  0.5000000  0.2500000  0.7500000  )
         7           P   tau(   7) = (  0.7345150  0.5872360  0.1472790  )
         8           P   tau(   8) = (  0.5600430  0.9127640  0.6472790  )
         9           P   tau(   9) = (  0.4399570  0.0872360  0.3527210  )
        10           P   tau(  10) = (  0.2654850  0.4127640  0.8527210  )

     number of k points=    14
                       cart. coord. in units 2pi/alat
        k(    1) = (   0.0000000   0.0000000   0.0000000), wk =   0.0740741
        k(    2) = (   0.0000000   0.0000000   0.6007577), wk =   0.1481481
        k(    3) = (   0.0000000   0.3568583   0.3621649), wk =   0.1481481
        k(    4) = (   0.0000000   0.3568583   0.9629226), wk =   0.1481481
        k(    5) = (   0.0000000   0.3568583  -0.2385929), wk =   0.1481481
        k(    6) = (   0.3333333  -0.1274234   0.2385929), wk =   0.1481481
        k(    7) = (   0.3333333  -0.1274234   0.8393506), wk =   0.1481481
        k(    8) = (   0.3333333  -0.1274234  -0.3621649), wk =   0.1481481
        k(    9) = (   0.3333333   0.2294349   0.6007577), wk =   0.1481481
        k(   10) = (   0.3333333   0.2294349   1.2015154), wk =   0.1481481
        k(   11) = (   0.3333333   0.2294349  -0.0000000), wk =   0.1481481
        k(   12) = (   0.3333333  -0.4842816  -0.1235720), wk =   0.1481481
        k(   13) = (   0.3333333  -0.4842816   0.4771857), wk =   0.1481481
        k(   14) = (   0.3333333  -0.4842816  -0.7243297), wk =   0.1481481

                       cryst. coord.
        k(    1) = (   0.0000000   0.0000000   0.0000000), wk =   0.0740741
        k(    2) = (   0.0000000   0.0000000   0.3333333), wk =   0.1481481
        k(    3) = (   0.0000000   0.3333333   0.0000000), wk =   0.1481481
        k(    4) = (   0.0000000   0.3333333   0.3333333), wk =   0.1481481
        k(    5) = (   0.0000000   0.3333333  -0.3333333), wk =   0.1481481
        k(    6) = (   0.3333333   0.0000000   0.0000000), wk =   0.1481481
        k(    7) = (   0.3333333   0.0000000   0.3333333), wk =   0.1481481
        k(    8) = (   0.3333333   0.0000000  -0.3333333), wk =   0.1481481
        k(    9) = (   0.3333333   0.3333333  -0.0000000), wk =   0.1481481
        k(   10) = (   0.3333333   0.3333333   0.3333333), wk =   0.1481481
        k(   11) = (   0.3333333   0.3333333  -0.3333333), wk =   0.1481481
        k(   12) = (   0.3333333  -0.3333333  -0.0000000), wk =   0.1481481
        k(   13) = (   0.3333333  -0.3333333   0.3333333), wk =   0.1481481
        k(   14) = (   0.3333333  -0.3333333  -0.3333333), wk =   0.1481481

     Initial potential from superposition of free atoms

     starting charge      63.8407, renormalised to      64.0000
     Starting wfcs are   76 randomized atomic wfcs

     Self-consistent Calculation

     iteration #  1     ecut=    30.00 Ry     beta= 0.70
     Davidson diagonalization with overlap

     ethr =  1.00E-02,  avg # of iterations =  6.6

     total energy              =    -331.36394943 Ry
     estimated scf accuracy    <       0.71496596 Ry

[...]

     total energy              =    -331.65082285 Ry
     estimated scf accuracy    <       0.00000139 Ry

     iteration #  8     ecut=    30.00 Ry     beta= 0.70
     Davidson diagonalization with overlap

     ethr =  2.17E-09,  avg # of iterations =  9.2

     End of self-consistent calculation

          k = 0.0000 0.0000 0.0000 (  6413 PWs)   bands (ev):

   -16.8454 -16.7962 -16.7485 -16.7313  -6.7202  -4.5265  -4.2574  -4.2458
    -4.0739  -4.0057  -3.9234  -3.6678  -3.6338  -3.6020  -3.5350  -3.4203
    -3.4074  -3.3967  -3.3663  -2.8980  -1.8911   0.8170   1.8782   2.2936
     2.6195   3.1345   3.4912   4.2987   4.3203   4.7770   4.8435   5.4436
     7.2181   7.5391   7.6317   8.2388   8.4399   8.4875   8.6266   9.1532
     9.1575   9.2076   9.6817   9.6945   9.7369   9.9429   9.9445  10.0951
    10.4085  10.5784  10.9195  11.0259  11.4621  11.5832  11.9657  11.9933
    12.0717  12.3498  12.4974  12.5253  12.6638  12.9813  13.2001  13.2354

     occupation numbers
     1.0000   1.0000   1.0000   1.0000   1.0000   1.0000   1.0000   1.0000
     1.0000   1.0000   1.0000   1.0000   1.0000   1.0000   1.0000   1.0000
     1.0000   1.0000   1.0000   1.0000   1.0000   1.0000   1.0000   1.0000
     1.0000   1.0000   1.0000   1.0000   1.0000   1.0000   1.0000   1.0000
     0.0000   0.0000   0.0000   0.0000   0.0000   0.0000   0.0000   0.0000
     0.0000   0.0000   0.0000   0.0000   0.0000   0.0000   0.0000   0.0000
     0.0000   0.0000   0.0000   0.0000   0.0000   0.0000   0.0000   0.0000
     0.0000   0.0000   0.0000   0.0000   0.0000   0.0000   0.0000   0.0000

[...]

          k = 0.3333-0.4843-0.7243 (  6450 PWs)   bands (ev):

   -16.8091 -16.7912 -16.7608 -16.7589  -6.4350  -5.4570  -4.3365  -4.2980
    -4.0605  -4.0002  -3.8178  -3.6815  -3.5985  -3.5921  -3.5712  -3.4673
    -3.3419  -3.3176  -3.1400  -3.0069  -0.6804   0.7646   1.9387   1.9641
     2.1694   3.0505   4.1170   4.1669   4.2423   4.7159   5.0830   5.1057
     7.3988   7.4540   7.7445   7.8288   8.3528   8.3642   8.5814   8.6486
     8.6912   9.3590   9.4455   9.5006  10.1712  10.2474  10.2481  10.4571
    10.5108  10.6479  10.7387  10.7658  11.2032  11.4592  11.6370  11.8623
    11.9038  12.0314  12.6444  12.6955  12.7281  12.8839  13.2131  13.2132

     occupation numbers
     1.0000   1.0000   1.0000   1.0000   1.0000   1.0000   1.0000   1.0000
     1.0000   1.0000   1.0000   1.0000   1.0000   1.0000   1.0000   1.0000
     1.0000   1.0000   1.0000   1.0000   1.0000   1.0000   1.0000   1.0000
     1.0000   1.0000   1.0000   1.0000   1.0000   1.0000   1.0000   1.0000
     0.0000   0.0000   0.0000   0.0000   0.0000   0.0000   0.0000   0.0000
     0.0000   0.0000   0.0000   0.0000   0.0000   0.0000   0.0000   0.0000
     0.0000   0.0000   0.0000   0.0000   0.0000   0.0000   0.0000   0.0000
     0.0000   0.0000   0.0000   0.0000   0.0000   0.0000   0.0000   0.0000

     highest occupied, lowest unoccupied level (ev):     5.6239    7.0434

!    total energy              =    -331.65082545 Ry
     estimated scf accuracy    <       0.00000074 Ry

     The total energy is the sum of the following terms:
     one-electron contribution =     -24.79312658 Ry
     hartree contribution      =      37.01360518 Ry
     xc contribution           =    -150.95111488 Ry
     ewald contribution        =    -192.92018918 Ry

     convergence has been achieved in   8 iterations

     Writing all to output data dir bands_nm/myprefix.save/

     General routines

     Parallel routines

   This run was terminated on:  13: 8:43  16Jul2023

   JOB DONE.