     Program PWSCF v.7.1 starts on 15Jul2023 at 18:19:21

     Reading input from espresso_19187.pwi
Warning: card &CELL ignored
Warning: card / ignored

     Current dimensions of program PWSCF are:
     Max number of different atomic species (ntypx) = 10
     Max number of k-points (npk) =  40000
     Max angular momentum in pseudopotentials (lmaxx) =  4
     file Nb.pbe-spn-kjpaw_psl.0.3.0.UPF: wavefunction(s)  4S 4P renormalized
     file O.pbe-n-kjpaw_psl.0.1.UPF: wavefunction(s)  2P renormalized

     K-points division:     npool     =       2
     R & G space division:  proc/nbgrp/npool/nimage =       4
     Subspace diagonalization in iterative solution of the eigenvalue problem:
     one sub-group per band group will be used

     Using Slab Decomposition

     bravais-lattice index     =            0
     lattice parameter (alat)  =      10.6492  a.u.
     unit-cell volume          =    1735.4624 (a.u.)^3
     number of atoms/cell      =           20
     number of atomic types    =            4
     number of electrons       =       172.00
     number of Kohn-Sham states=          256
     kinetic-energy cutoff     =      30.0000  Ry
     charge density cutoff     =     240.0000  Ry
     scf convergence threshold =      1.0E-06
     mixing beta               =       0.7000
     number of iterations used =            8  plain     mixing
     Exchange-correlation= SLA  PW   PBX  PBC
                           (   1   4   3   4   0   0   0)

     celldm(1)=  10.649247  celldm(2)=   0.000000  celldm(3)=   0.000000
     celldm(4)=   0.000000  celldm(5)=   0.000000  celldm(6)=   0.000000

     crystal axes: (cart. coord. in units of alat)
               a(1) = (   1.000000   0.000000   0.000000 )
               a(2) = (   0.484506   0.874942   0.000000 )
               a(3) = (   0.456329   0.268890   1.642400 )

     reciprocal axes: (cart. coord. in units 2 pi/alat)
               b(1) = (  1.000000 -0.553757 -0.187183 )
               b(2) = (  0.000000  1.142933 -0.187118 )
               b(3) = (  0.000000  0.000000  0.608865 )

     PseudoPot. # 1 for Sr read from file:
     /lustre07/scratch/pragov/crystal_structure_design/utils/SSSP/Sr_pbe_v1.uspp.F.UPF
     MD5 check sum: 6b418c05fbe9db5448babca5e47b7a5b
     Pseudo is Ultrasoft + core correction, Zval = 10.0
     Generated by new atomic code, or converted to UPF format
     Using radial grid of  883 points,  6 beta functions with:
                l(1) =   0
                l(2) =   0
                l(3) =   1
                l(4) =   1
                l(5) =   2
                l(6) =   2
     Q(r) pseudized with  6 coefficients,  rinner =    1.400   1.400   1.400
                                                       1.400   1.400

     PseudoPot. # 2 for Nb read from file:
     /lustre07/scratch/pragov/crystal_structure_design/utils/SSSP/Nb.pbe-spn-kjpaw_psl.0.3.0.UPF
     MD5 check sum: 411d72ad547312f8017e2943ceca08cc
     Pseudo is Projector augmented-wave + core cor, Zval = 13.0
     Generated using "atomic" code by A. Dal Corso  v.5.0.99 svn rev. 10869
     Shape of augmentation charge: PSQ
     Using radial grid of 1227 points,  6 beta functions with:
                l(1) =   0
                l(2) =   0
                l(3) =   1
                l(4) =   1
                l(5) =   2
                l(6) =   2
     Q(r) pseudized with 0 coefficients

     PseudoPot. # 3 for Co read from file:
     /lustre07/scratch/pragov/crystal_structure_design/utils/SSSP/Co_pbe_v1.2.uspp.F.UPF
     MD5 check sum: 5f91765df6ddd3222702df6e7b74a16d
     Pseudo is Ultrasoft + core correction, Zval = 17.0
     Generated by new atomic code, or converted to UPF format
     Using radial grid of  863 points,  6 beta functions with:
                l(1) =   0
                l(2) =   0
                l(3) =   1
                l(4) =   1
                l(5) =   2
                l(6) =   2
     Q(r) pseudized with  8 coefficients,  rinner =    1.200   1.200   1.200
                                                       1.200   1.200

     PseudoPot. # 4 for O  read from file:
     /lustre07/scratch/pragov/crystal_structure_design/utils/SSSP/O.pbe-n-kjpaw_psl.0.1.UPF
     MD5 check sum: 0234752ac141de4415c5fc33072bef88
     Pseudo is Projector augmented-wave + core cor, Zval =  6.0
     Generated using "atomic" code by A. Dal Corso  v.5.0.99 svn rev. 10869
     Shape of augmentation charge: BESSEL
     Using radial grid of 1095 points,  4 beta functions with:
                l(1) =   0
                l(2) =   0
                l(3) =   1
                l(4) =   1
     Q(r) pseudized with 0 coefficients

     atomic species   valence    mass     pseudopotential
        Sr            10.00    87.62000     Sr( 1.00)
        Nb            13.00    92.90637     Nb( 1.00)
        Co            17.00    58.93319     Co( 1.00)
        O              6.00    15.99900     O ( 1.00)

     No symmetry found

                                    s                        frac. trans.

      isym =  1     identity

 cryst.   s( 1) = (     1          0          0      )
                  (     0          1          0      )
                  (     0          0          1      )

 cart.    s( 1) = (  1.0000000  0.0000000  0.0000000 )
                  (  0.0000000  1.0000000  0.0000000 )
                  (  0.0000000  0.0000000  1.0000000 )

   Cartesian axes

     site n.     atom                  positions (alat units)
         1           Sr  tau(   1) = (   1.4845351   0.8749766   0.0007440  )
         2           Sr  tau(   2) = (   0.9705025   0.5719618   0.8203265  )
         3           Sr  tau(   3) = (   0.4851312   0.2859163   0.4114788  )
         4           Sr  tau(   4) = (   1.4556044   0.8578432   1.2310629  )
         5           Nb  tau(   5) = (   0.9849325   0.5804950   0.2056597  )
         6           Nb  tau(   6) = (   0.4707075   0.2773875   1.0261291  )
         7           Co  tau(   7) = (   0.9559828   0.5633846   1.4371020  )
         8           Co  tau(   8) = (   1.4700710   0.8664110   0.6159018  )
         9           O   tau(   9) = (   1.2339955   0.7272933   0.4171549  )
        10           O   tau(  10) = (   0.7204258   0.4245113   1.2363366  )
        11           O   tau(  11) = (   1.1915154   0.7022435   1.6378756  )
        12           O   tau(  12) = (   1.7061251   1.0055160   0.8146569  )
        13           O   tau(  13) = (   0.9852145   0.8715748   0.0030795  )
        14           O   tau(  14) = (   0.4700915   0.5679062   0.8233386  )
        15           O   tau(  15) = (   0.9855420   0.2899447   0.4084551  )
        16           O   tau(  16) = (   0.9549282   0.8612204   1.2287159  )
        17           O   tau(  17) = (   1.2397323   0.4397298   0.0031074  )
        18           O   tau(  18) = (   0.7244966   0.1360908   0.8233074  )
        19           O   tau(  19) = (   0.7311136   0.7217995   0.4084863  )
        20           O   tau(  20) = (   1.2158804   0.4181643   1.2286880  )

   Crystallographic axes

     site n.     atom                  positions (cryst. coord.)
         1           Sr  tau(   1) = (  0.9998710  0.9999000  0.0004530  )
         2           Sr  tau(   2) = (  0.5002230  0.5002160  0.4994680  )
         3           Sr  tau(   3) = (  0.2497810  0.2497880  0.2505350  )
         4           Sr  tau(   4) = (  0.7501330  0.7501030  0.7495510  )
         5           Nb  tau(   5) = (  0.6249830  0.6249840  0.1252190  )
         6           Nb  tau(   6) = (  0.1250280  0.1250280  0.6247740  )
         7           Co  tau(   7) = (  0.3750030  0.3750030  0.8750010  )
         8           Co  tau(   8) = (  0.8750030  0.8750030  0.3750010  )
         9           O   tau(   9) = (  0.7531670  0.7531900  0.2539910  )
        10           O   tau(  10) = (  0.2539280  0.2538470  0.7527620  )
        11           O   tau(  11) = (  0.4960600  0.4961410  0.9972450  )
        12           O   tau(  12) = (  0.9968230  0.9968000  0.4960160  )
        13           O   tau(  13) = (  0.5019970  0.9955750  0.0018750  )
        14           O   tau(  14) = (  0.0014940  0.4950170  0.5013020  )
        15           O   tau(  15) = (  0.7485270  0.2549580  0.2486940  )
        16           O   tau(  16) = (  0.2480260  0.7544020  0.7481220  )
        17           O   tau(  17) = (  0.9956470  0.5020000  0.0018920  )
        18           O   tau(  18) = (  0.4950260  0.0014870  0.5012830  )
        19           O   tau(  19) = (  0.2549500  0.7485330  0.2487130  )
        20           O   tau(  20) = (  0.7543290  0.2480240  0.7481050  )

     number of k points=    14
                       cart. coord. in units 2pi/alat
        k(    1) = (   0.0000000   0.0000000   0.0000000), wk =   0.0740741
        k(    2) = (   0.0000000   0.0000000   0.2029550), wk =   0.1481481
        k(    3) = (   0.0000000   0.3809775  -0.0623726), wk =   0.1481481
        k(    4) = (   0.0000000   0.3809775   0.1405823), wk =   0.1481481
        k(    5) = (   0.0000000   0.3809775  -0.2653276), wk =   0.1481481
        k(    6) = (   0.3333333  -0.1845858  -0.0623944), wk =   0.1481481
        k(    7) = (   0.3333333  -0.1845858   0.1405606), wk =   0.1481481
        k(    8) = (   0.3333333  -0.1845858  -0.2653494), wk =   0.1481481
        k(    9) = (   0.3333333   0.1963917  -0.1247671), wk =   0.1481481
        k(   10) = (   0.3333333   0.1963917   0.0781879), wk =   0.1481481
        k(   11) = (   0.3333333   0.1963917  -0.3277220), wk =   0.1481481
        k(   12) = (   0.3333333  -0.5655633  -0.0000218), wk =   0.1481481
        k(   13) = (   0.3333333  -0.5655633   0.2029332), wk =   0.1481481
        k(   14) = (   0.3333333  -0.5655633  -0.2029767), wk =   0.1481481

                       cryst. coord.
        k(    1) = (   0.0000000   0.0000000   0.0000000), wk =   0.0740741
        k(    2) = (   0.0000000   0.0000000   0.3333333), wk =   0.1481481
        k(    3) = (   0.0000000   0.3333333  -0.0000000), wk =   0.1481481
        k(    4) = (   0.0000000   0.3333333   0.3333333), wk =   0.1481481
        k(    5) = (   0.0000000   0.3333333  -0.3333333), wk =   0.1481481
        k(    6) = (   0.3333333   0.0000000  -0.0000000), wk =   0.1481481
        k(    7) = (   0.3333333   0.0000000   0.3333333), wk =   0.1481481
        k(    8) = (   0.3333333   0.0000000  -0.3333333), wk =   0.1481481
        k(    9) = (   0.3333333   0.3333333  -0.0000000), wk =   0.1481481
        k(   10) = (   0.3333333   0.3333333   0.3333333), wk =   0.1481481
        k(   11) = (   0.3333333   0.3333333  -0.3333333), wk =   0.1481481
        k(   12) = (   0.3333333  -0.3333333  -0.0000000), wk =   0.1481481
        k(   13) = (   0.3333333  -0.3333333   0.3333333), wk =   0.1481481
        k(   14) = (   0.3333333  -0.3333333  -0.3333333), wk =   0.1481481

     Check: negative core charge=   -0.000019

     Initial potential from superposition of free atoms

     starting charge     169.8611, renormalised to     172.0000

     negative rho (up, down):  2.576E-01 0.000E+00
     Starting wfcs are  146 randomized atomic wfcs +  110 random wfcs
     Checking if some PAW data can be deallocated...

     Self-consistent Calculation

     iteration #  1     ecut=    30.00 Ry     beta= 0.70
     Davidson diagonalization with overlap

     ethr =  1.00E-02,  avg # of iterations =  6.1

     negative rho (up, down):  2.573E-01 0.000E+00

     total energy              =   -2042.23038686 Ry
     estimated scf accuracy    <       8.98559132 Ry

[...]

     c_bands:  1 eigenvalues not converged
     ethr =  2.32E-06,  avg # of iterations =  4.6

[...]

     total energy              =   -2047.09340413 Ry
     estimated scf accuracy    <       0.00000251 Ry

     iteration # 17     ecut=    30.00 Ry     beta= 0.70
     Davidson diagonalization with overlap

     ethr =  1.46E-09,  avg # of iterations =  1.1

     negative rho (up, down):  2.681E-01 0.000E+00

     End of self-consistent calculation

          k = 0.0000 0.0000 0.0000 (  4809 PWs)   bands (ev):

   -85.0907 -85.0874 -48.3181 -48.3153 -48.3120 -48.3115 -48.2775 -48.2742
   -45.4854 -45.4846 -23.4283 -23.4064 -23.4004 -23.3770 -21.6666 -21.6663
   -21.6657 -21.6641 -21.6162 -21.6152  -7.9971  -7.7602  -7.5580  -7.3456
    -7.2972  -7.1776  -7.1272  -6.7573  -6.7492  -6.7417  -6.7402  -6.7274
    -5.6309  -5.5746  -5.5745  -5.4045  -5.4010  -5.3919  -5.3750  -5.3643
    -5.3614  -5.3175  -5.1087  -5.1013   4.3662   4.8707   5.0043   5.1706
     5.1877   5.2617   5.4788   5.6058   5.6073   5.7015   6.1566   6.1649
     6.2338   6.4012   6.4070   6.4256   6.5798   6.5809   6.6274   6.6354
     6.7411   8.3066   8.3239   8.3267   8.3281   8.4518   8.5334   8.6530
     8.7614   8.8378   8.8609   8.8627   8.8957   9.0738   9.0754   9.1387
     9.3186   9.6527   9.6528   9.6738   9.9051   9.9699  10.4941  10.9238
    11.5813  12.1622  13.0050  13.0528  13.0859  13.0940  13.0944  13.1067
    14.7348  14.9575  15.0203  16.1219  16.1757  16.1782  16.6474  16.6792
    16.7393  16.7757  16.8219  16.9369  17.3678  17.4544  17.7307  17.8020
    17.8024  17.9236  18.1344  18.2504  18.2676  18.3338  18.3590  18.7410
    18.7685  19.0945  19.2449  19.2702  21.3096  21.3959  22.7233  22.8750
    23.0775  23.0801  23.2469  23.7007  23.7777  23.9383  23.9637  24.6004
    24.6064  25.1361  25.1412  25.2017  25.4888  25.5022  25.5081  25.8029
    25.9900  26.2547  26.3318  26.4455  26.5141  27.9157  28.1684  28.1868
    28.4328  28.4373  29.0828  29.1058  29.1782  29.5069  29.5890  29.6240
    29.6294  29.9692  29.9726  30.4846  30.8739  30.8789  31.0435  31.1401
    31.2394  31.3274  31.3466  31.4817  31.7820  31.8343  31.8358  31.9309
    32.5373  33.0074  33.0150  33.3946  33.8008  35.0802  35.2205  35.4434
    35.4488  35.8220  35.8600  35.9754  35.9787  36.1091  36.1524  36.1682
    36.9077  37.1389  37.1868  37.2033  37.7161  37.7397  37.7489  37.7580
    37.9405  38.2852  38.3179  38.3559  38.4404  38.5006  38.5031  38.8031
    38.9222  39.4233  39.4354  39.4943  39.5871  39.6727  39.8724  39.8865
    40.0826  40.1728  40.2517  40.4240  40.9954  41.0893  41.1478  41.1543
    41.3716  41.3830  41.9352  42.4199  42.5920  42.5961  42.7736  43.0715
    43.3705  43.5222  43.6070  43.6378  43.7751  43.8259  43.8348  44.0727
    44.2856  44.4746  44.8338  44.8567  44.8573  45.0864  45.2355  45.4323
    45.4953  45.5157  45.5645  45.6354  45.6366  45.8280  46.5561  46.5595

     occupation numbers
     1.0000   1.0000   1.0000   1.0000   1.0000   1.0000   1.0000   1.0000
     1.0000   1.0000   1.0000   1.0000   1.0000   1.0000   1.0000   1.0000
     1.0000   1.0000   1.0000   1.0000   1.0000   1.0000   1.0000   1.0000
     1.0000   1.0000   1.0000   1.0000   1.0000   1.0000   1.0000   1.0000
     1.0000   1.0000   1.0000   1.0000   1.0000   1.0000   1.0000   1.0000
     1.0000   1.0000   1.0000   1.0000   1.0000   1.0000   1.0000   1.0000
     1.0000   1.0000   1.0000   1.0000   1.0000   1.0000   1.0000   1.0000
     1.0000   1.0000   1.0000   1.0000   1.0000   1.0000   1.0000   1.0000
     1.0000   1.0000   1.0000   1.0000   1.0000   1.0000   1.0000   1.0000
     1.0000   1.0000   1.0000   1.0000   1.0000   1.0000   1.0000   1.0000
     1.0000   1.0000   1.0000   1.0000   1.0000   1.0000   0.0000   0.0000
     0.0000   0.0000   0.0000   0.0000   0.0000   0.0000   0.0000   0.0000
     0.0000   0.0000   0.0000   0.0000   0.0000   0.0000   0.0000   0.0000
     0.0000   0.0000   0.0000   0.0000   0.0000   0.0000   0.0000   0.0000
     0.0000   0.0000   0.0000   0.0000   0.0000   0.0000   0.0000   0.0000
     0.0000   0.0000   0.0000   0.0000   0.0000   0.0000   0.0000   0.0000
     0.0000   0.0000   0.0000   0.0000   0.0000   0.0000   0.0000   0.0000
     0.0000   0.0000   0.0000   0.0000   0.0000   0.0000   0.0000   0.0000
     0.0000   0.0000   0.0000   0.0000   0.0000   0.0000   0.0000   0.0000
     0.0000   0.0000   0.0000   0.0000   0.0000   0.0000   0.0000   0.0000
     0.0000   0.0000   0.0000   0.0000   0.0000   0.0000   0.0000   0.0000
     0.0000   0.0000   0.0000   0.0000   0.0000   0.0000   0.0000   0.0000
     0.0000   0.0000   0.0000   0.0000   0.0000   0.0000   0.0000   0.0000
     0.0000   0.0000   0.0000   0.0000   0.0000   0.0000   0.0000   0.0000
     0.0000   0.0000   0.0000   0.0000   0.0000   0.0000   0.0000   0.0000
     0.0000   0.0000   0.0000   0.0000   0.0000   0.0000   0.0000   0.0000
     0.0000   0.0000   0.0000   0.0000   0.0000   0.0000   0.0000   0.0000
     0.0000   0.0000   0.0000   0.0000   0.0000   0.0000   0.0000   0.0000
     0.0000   0.0000   0.0000   0.0000   0.0000   0.0000   0.0000   0.0000
     0.0000   0.0000   0.0000   0.0000   0.0000   0.0000   0.0000   0.0000
     0.0000   0.0000   0.0000   0.0000   0.0000   0.0000   0.0000   0.0000
     0.0000   0.0000   0.0000   0.0000   0.0000   0.0000   0.0000   0.0000

[...]

          k = 0.3333-0.5656-0.2030 (  4815 PWs)   bands (ev):

   -85.0908 -85.0876 -48.3176 -48.3165 -48.3136 -48.3125 -48.2779 -48.2751
   -45.4854 -45.4846 -23.4153 -23.4127 -23.3942 -23.3915 -21.6667 -21.6658
   -21.6640 -21.6634 -21.6159 -21.6144  -7.8762  -7.8366  -7.8047  -7.7295
    -7.3058  -7.2636  -7.0150  -6.9553  -6.9098  -6.8671  -6.8265  -6.8130
    -5.4221  -5.3707  -5.3666  -5.3413  -5.2361  -5.2029  -5.2015  -5.1906
    -5.1273  -5.0935  -5.0726  -5.0667   4.3143   4.3931   5.0526   5.0965
     5.2854   5.3059   5.5909   5.6109   5.6758   5.7379   6.1811   6.2027
     6.2115   6.3369   6.4463   6.5902   6.6300   6.6786   6.8193   6.9346
     7.2827   7.3402   7.5194   7.6131   7.7201   7.8771   7.9586   8.0316
     8.1261   8.2049   8.2661   8.3182   8.5545   8.7228   8.7252   9.0068
     9.7218   9.8422   9.8928   9.9658  10.1220  10.1938  10.9961  11.1663
    11.6546  11.7810  13.0514  13.1542  13.1905  13.3385  13.4201  13.4942
    16.5261  16.6379  16.7806  16.9019  16.9045  17.0256  17.0523  17.2253
    17.2731  17.3267  17.4369  17.4817  17.5811  17.6355  17.8395  17.9708
    17.9926  18.0222  18.1382  18.1506  18.2038  18.3480  18.4138  18.4676
    18.9346  19.3704  19.4993  20.1584  20.3461  21.2412  21.4891  22.1815
    22.4275  22.5587  23.0296  23.3003  23.3985  23.4676  23.6446  23.9385
    23.9502  24.0859  24.7986  24.8501  24.8707  25.0661  25.1852  25.4106
    25.5554  25.8922  26.0482  26.1849  26.3260  26.5316  26.7517  27.5991
    28.1606  28.4283  28.7079  28.8055  29.0647  29.2679  29.7043  29.9657
    30.0370  30.2918  30.3149  31.0715  31.0765  31.2255  31.3867  31.5386
    31.6649  31.6870  31.7491  32.1201  32.1657  32.3105  32.4633  32.6043
    32.6596  32.8307  33.2247  33.2585  33.3830  33.4986  33.6278  33.7120
    33.8768  34.0098  34.3117  34.5741  34.6283  34.8315  35.1764  35.9319
    36.6396  36.7879  36.9764  36.9964  37.6012  37.7495  37.7637  38.1428
    38.4051  38.8062  38.8920  38.9847  39.3716  39.5858  39.6237  39.7528
    40.0432  40.1050  40.2116  40.2936  40.4059  40.8314  40.9132  41.0299
    41.3019  41.3896  41.5078  41.7501  41.7706  41.9467  42.1224  42.2653
    42.4053  42.5195  42.5294  43.0124  43.0726  43.4941  43.6494  43.7024
    43.7903  43.7990  43.8260  43.9280  43.9510  44.0725  44.1946  44.2469
    44.4184  44.4371  44.6267  44.6592  44.7695  44.9121  45.1246  45.4089
    45.4973  45.5818  45.8011  45.8515  46.1019  46.3107  46.4295  46.6052

     occupation numbers
     1.0000   1.0000   1.0000   1.0000   1.0000   1.0000   1.0000   1.0000
     1.0000   1.0000   1.0000   1.0000   1.0000   1.0000   1.0000   1.0000
     1.0000   1.0000   1.0000   1.0000   1.0000   1.0000   1.0000   1.0000
     1.0000   1.0000   1.0000   1.0000   1.0000   1.0000   1.0000   1.0000
     1.0000   1.0000   1.0000   1.0000   1.0000   1.0000   1.0000   1.0000
     1.0000   1.0000   1.0000   1.0000   1.0000   1.0000   1.0000   1.0000
     1.0000   1.0000   1.0000   1.0000   1.0000   1.0000   1.0000   1.0000
     1.0000   1.0000   1.0000   1.0000   1.0000   1.0000   1.0000   1.0000
     1.0000   1.0000   1.0000   1.0000   1.0000   1.0000   1.0000   1.0000
     1.0000   1.0000   1.0000   1.0000   1.0000   1.0000   1.0000   1.0000
     1.0000   1.0000   1.0000   1.0000   1.0000   1.0000   0.0000   0.0000
     0.0000   0.0000   0.0000   0.0000   0.0000   0.0000   0.0000   0.0000
     0.0000   0.0000   0.0000   0.0000   0.0000   0.0000   0.0000   0.0000
     0.0000   0.0000   0.0000   0.0000   0.0000   0.0000   0.0000   0.0000
     0.0000   0.0000   0.0000   0.0000   0.0000   0.0000   0.0000   0.0000
     0.0000   0.0000   0.0000   0.0000   0.0000   0.0000   0.0000   0.0000
     0.0000   0.0000   0.0000   0.0000   0.0000   0.0000   0.0000   0.0000
     0.0000   0.0000   0.0000   0.0000   0.0000   0.0000   0.0000   0.0000
     0.0000   0.0000   0.0000   0.0000   0.0000   0.0000   0.0000   0.0000
     0.0000   0.0000   0.0000   0.0000   0.0000   0.0000   0.0000   0.0000
     0.0000   0.0000   0.0000   0.0000   0.0000   0.0000   0.0000   0.0000
     0.0000   0.0000   0.0000   0.0000   0.0000   0.0000   0.0000   0.0000
     0.0000   0.0000   0.0000   0.0000   0.0000   0.0000   0.0000   0.0000
     0.0000   0.0000   0.0000   0.0000   0.0000   0.0000   0.0000   0.0000
     0.0000   0.0000   0.0000   0.0000   0.0000   0.0000   0.0000   0.0000
     0.0000   0.0000   0.0000   0.0000   0.0000   0.0000   0.0000   0.0000
     0.0000   0.0000   0.0000   0.0000   0.0000   0.0000   0.0000   0.0000
     0.0000   0.0000   0.0000   0.0000   0.0000   0.0000   0.0000   0.0000
     0.0000   0.0000   0.0000   0.0000   0.0000   0.0000   0.0000   0.0000
     0.0000   0.0000   0.0000   0.0000   0.0000   0.0000   0.0000   0.0000
     0.0000   0.0000   0.0000   0.0000   0.0000   0.0000   0.0000   0.0000
     0.0000   0.0000   0.0000   0.0000   0.0000   0.0000   0.0000   0.0000

     highest occupied, lowest unoccupied level (ev):    10.2063   10.4941

!    total energy              =   -2047.09340437 Ry
     estimated scf accuracy    <       0.00000016 Ry

     The total energy is the sum of the following terms:
     one-electron contribution =    -687.75638623 Ry
     hartree contribution      =     440.87866413 Ry
     xc contribution           =    -285.18806200 Ry
     ewald contribution        =    -983.77815640 Ry
     one-center paw contrib.   =    -531.24946386 Ry
      -> PAW hartree energy AE =       0.00000000 Ry
      -> PAW hartree energy PS =       0.00000000 Ry
      -> PAW xc energy AE      =       0.00000000 Ry
      -> PAW xc energy PS      =       0.00000000 Ry
      -> total E_H with PAW    =     440.87866413 Ry
      -> total E_XC with PAW   =    -285.18806200 Ry

     convergence has been achieved in  17 iterations

     Writing all to output data dir bands_nm/myprefix.save/

     General routines

     Parallel routines

     PAW routines

   This run was terminated on:  18:21: 5  15Jul2023

   JOB DONE.