     Program PWSCF v.7.1 starts on 16Jul2023 at 12:55: 0

     Reading input from espresso_23908.pwi
Warning: card &CELL ignored
Warning: card / ignored

     Current dimensions of program PWSCF are:
     Max number of different atomic species (ntypx) = 10
     Max number of k-points (npk) =  40000
     Max angular momentum in pseudopotentials (lmaxx) =  4
     file O.pbe-n-kjpaw_psl.0.1.UPF: wavefunction(s)  2P renormalized

     K-points division:     npool     =       2
     R & G space division:  proc/nbgrp/npool/nimage =       4
     Subspace diagonalization in iterative solution of the eigenvalue problem:
     a serial algorithm will be used

     Using Slab Decomposition

     bravais-lattice index     =            0
     lattice parameter (alat)  =      10.2795  a.u.
     unit-cell volume          =     682.4083 (a.u.)^3
     number of atoms/cell      =            6
     number of atomic types    =            3
     number of electrons       =        48.00
     number of Kohn-Sham states=           64
     kinetic-energy cutoff     =      30.0000  Ry
     charge density cutoff     =     240.0000  Ry
     scf convergence threshold =      1.0E-06
     mixing beta               =       0.7000
     number of iterations used =            8  plain     mixing
     Exchange-correlation=  SLA  PW   PBX  PBC
                           (   1   4   3   4   0   0   0)

     celldm(1)=  10.279540  celldm(2)=   0.000000  celldm(3)=   0.000000
     celldm(4)=   0.000000  celldm(5)=   0.000000  celldm(6)=   0.000000

     crystal axes: (cart. coord. in units of alat)
               a(1) = (   1.000000   0.000000   0.000000 )
               a(2) = (  -0.738968   0.673740   0.000000 )
               a(3) = (  -0.130516  -0.336870   0.932461 )

     reciprocal axes: (cart. coord. in units 2 pi/alat)
               b(1) = (  1.000000  1.096816  0.536215 )
               b(2) = (  0.000000  1.484252  0.536215 )
               b(3) = (  0.000000  0.000000  1.072430 )

     PseudoPot. # 1 for W  read from file:
     /lustre07/scratch/pragov/crystal_structure_design/utils/SSSP/W_pbe_v1.2.uspp.F.UPF
     MD5 check sum: 9c083fa34c2a2ea0f02f1f893e16e1c8
     Pseudo is Ultrasoft + core correction, Zval = 14.0
     Generated by new atomic code, or converted to UPF format
     Using radial grid of  923 points,  8 beta functions with:
                l(1) =   0
                l(2) =   0
                l(3) =   0
                l(4) =   1
                l(5) =   1
                l(6) =   2
                l(7) =   2
                l(8) =   3
     Q(r) pseudized with  6 coefficients,  rinner =    1.350   1.350   1.350
                                                       1.350   1.350   1.350
                                                       1.350

     PseudoPot. # 2 for O  read from file:
     /lustre07/scratch/pragov/crystal_structure_design/utils/SSSP/O.pbe-n-kjpaw_psl.0.1.UPF
     MD5 check sum: 0234752ac141de4415c5fc33072bef88
     Pseudo is Projector augmented-wave + core cor, Zval =  6.0
     Generated using "atomic" code by A. Dal Corso  v.5.0.99 svn rev. 10869
     Shape of augmentation charge: BESSEL
     Using radial grid of 1095 points,  4 beta functions with:
                l(1) =   0
                l(2) =   0
                l(3) =   1
                l(4) =   1
     Q(r) pseudized with 0 coefficients

     PseudoPot. # 3 for F  read from file:
     /lustre07/scratch/pragov/crystal_structure_design/utils/SSSP/f_pbe_v1.4.uspp.F.UPF
     MD5 check sum: 4c38b6a325caf53ec0e86aed9459de46
     Pseudo is Ultrasoft, Zval =  7.0
     Generated by new atomic code, or converted to UPF format
     Using radial grid of  799 points,  4 beta functions with:
                l(1) =   0
                l(2) =   0
                l(3) =   1
                l(4) =   1
     Q(r) pseudized with  8 coefficients,  rinner =    0.950   0.950   0.950

     atomic species   valence    mass     pseudopotential
        W             14.00   183.84000     W ( 1.00)
        O              6.00    15.99900     O ( 1.00)
        F              7.00    18.99840     F ( 1.00)

     No symmetry found

                                    s                        frac. trans.

      isym =  1     identity

 cryst.   s( 1) = (     1          0          0      )
                  (     0          1          0      )
                  (     0          0          1      )

 cart.    s( 1) = (  1.0000000  0.0000000  0.0000000 )
                  (  0.0000000  1.0000000  0.0000000 )
                  (  0.0000000  0.0000000  1.0000000 )

   Cartesian axes

     site n.     atom                  positions (alat units)
         1           W   tau(   1) = (   0.0030217   0.0077992   0.0000000  )
         2           O   tau(   2) = (   0.1454964   0.3755359   0.0000000  )
         3           F   tau(   3) = (   0.2972898  -0.0586268   0.1712148  )
         4           F   tau(   4) = (  -0.6907816   0.3241882   0.6340700  )
         5           F   tau(   5) = (  -0.1405998   0.1110276   0.2983914  )
         6           F   tau(   6) = (   0.6102972  -0.1798973   0.7612466  )

   Crystallographic axes

     site n.     atom                  positions (cryst. coord.)
         1           W   tau(   1) = (  0.0115760  0.0115760  0.0000000  )
         2           O   tau(   2) = (  0.5573900  0.5573900  0.0000000  )
         3           F   tau(   3) = (  0.3247950  0.0047910  0.1836160  )
         4           F   tau(   4) = (  0.0047910  0.8211750  0.6799960  )
         5           F   tau(   5) = (  0.1411790  0.3247950  0.3200040  )
         6           F   tau(   6) = (  0.8211750  0.1411790  0.8163840  )

     number of k points=    14
                       cart. coord. in units 2pi/alat
        k(    1) = (   0.0000000   0.0000000   0.0000000), wk =   0.0740741
        k(    2) = (   0.0000000   0.0000000   0.3574768), wk =   0.1481481
        k(    3) = (   0.0000000   0.4947507   0.1787384), wk =   0.1481481
        k(    4) = (   0.0000000   0.4947507   0.5362152), wk =   0.1481481
        k(    5) = (   0.3333333   0.3656052   0.1787384), wk =   0.1481481
        k(    6) = (   0.3333333   0.3656052   0.5362152), wk =   0.1481481
        k(    7) = (   0.3333333   0.8603559   0.3574768), wk =   0.1481481
        k(    8) = (   0.3333333   0.8603559   0.0000000), wk =   0.1481481
        k(    9) = (   0.3333333  -0.1291455  -0.0000000), wk =   0.1481481
        k(   10) = (   0.3333333  -0.1291455   0.3574768), wk =   0.1481481
        k(   11) = (   0.0000000  -0.4947507   0.1787384), wk =   0.1481481
        k(   12) = (  -0.3333333  -0.3656052   0.1787384), wk =   0.1481481
        k(   13) = (  -0.3333333  -0.8603559   0.3574768), wk =   0.1481481
        k(   14) = (  -0.3333333   0.1291455   0.3574768), wk =   0.1481481

                       cryst. coord.
        k(    1) = (   0.0000000   0.0000000   0.0000000), wk =   0.0740741
        k(    2) = (   0.0000000   0.0000000   0.3333333), wk =   0.1481481
        k(    3) = (   0.0000000   0.3333333  -0.0000000), wk =   0.1481481
        k(    4) = (   0.0000000   0.3333333   0.3333333), wk =   0.1481481
        k(    5) = (   0.3333333  -0.0000000   0.0000000), wk =   0.1481481
        k(    6) = (   0.3333333  -0.0000000   0.3333333), wk =   0.1481481
        k(    7) = (   0.3333333   0.3333333  -0.0000000), wk =   0.1481481
        k(    8) = (   0.3333333   0.3333333  -0.3333333), wk =   0.1481481
        k(    9) = (   0.3333333  -0.3333333   0.0000000), wk =   0.1481481
        k(   10) = (   0.3333333  -0.3333333   0.3333333), wk =   0.1481481
        k(   11) = (   0.0000000  -0.3333333   0.3333333), wk =   0.1481481
        k(   12) = (  -0.3333333   0.0000000   0.3333333), wk =   0.1481481
        k(   13) = (  -0.3333333  -0.3333333   0.6666667), wk =   0.1481481
        k(   14) = (  -0.3333333   0.3333333   0.3333333), wk =   0.1481481

     Check: negative core charge=   -0.000005

     Initial potential from superposition of free atoms

     starting charge      47.8997, renormalised to      48.0000

     negative rho (up, down):  6.320E-02 0.000E+00
     Starting wfcs are   33 randomized atomic wfcs +   31 random wfcs
     Checking if some PAW data can be deallocated...

     Self-consistent Calculation

     iteration #  1     ecut=    30.00 Ry     beta= 0.70
     Davidson diagonalization with overlap

     ethr =  1.00E-02,  avg # of iterations =  6.0

     negative rho (up, down):  5.925E-02 0.000E+00

     total energy              =    -394.58707471 Ry
     estimated scf accuracy    <       1.67613008 Ry

[...]

     total energy              =    -395.49444129 Ry
     estimated scf accuracy    <       0.00000598 Ry

     iteration #  8     ecut=    30.00 Ry     beta= 0.70
     Davidson diagonalization with overlap

     ethr =  1.25E-08,  avg # of iterations =  3.0

     negative rho (up, down):  6.041E-02 0.000E+00

     End of self-consistent calculation

          k = 0.0000 0.0000 0.0000 (  1875 PWs)   bands (ev):

   -74.4369 -38.6826 -38.6826 -38.6187 -21.4306 -21.1968 -20.5513 -20.5512
   -16.9891  -4.5400  -4.2257  -3.9607  -3.0009  -3.0008  -2.2909  -2.2908
    -2.2790  -1.6419  -1.4634  -1.4634  -1.1873  -1.1094  -1.0906  -1.0906
     3.6097   3.6098   3.9208   6.3057   7.7688   8.5589  13.5835  13.5835
    13.6688  14.3769  16.4020  16.9716  17.5469  17.5469  18.3256  18.5824
    18.9877  18.9878  20.8530  21.4009  21.4010  22.8335  23.1369  25.9548
    26.7269  26.7269  26.8236  27.4917  27.4917  28.3197  28.3653  28.3653
    28.9890  29.8814  30.1929  30.5639  30.5639  31.5563  31.9435  32.2172

     occupation numbers
     1.0000   1.0000   1.0000   1.0000   1.0000   1.0000   1.0000   1.0000
     1.0000   1.0000   1.0000   1.0000   1.0000   1.0000   1.0000   1.0000
     1.0000   1.0000   1.0000   1.0000   1.0000   1.0000   1.0000   1.0000
     0.0000   0.0000   0.0000   0.0000   0.0000   0.0000   0.0000   0.0000
     0.0000   0.0000   0.0000   0.0000   0.0000   0.0000   0.0000   0.0000
     0.0000   0.0000   0.0000   0.0000   0.0000   0.0000   0.0000   0.0000
     0.0000   0.0000   0.0000   0.0000   0.0000   0.0000   0.0000   0.0000
     0.0000   0.0000   0.0000   0.0000   0.0000   0.0000   0.0000   0.0000

[...]

          k = 0.0000-0.4948 0.1787 (  1888 PWs)   bands (ev):

[...]

          k =-0.3333-0.3656 0.1787 (  1888 PWs)   bands (ev):

[...]

          k =-0.3333 0.1291 0.3575 (  1912 PWs)   bands (ev):

   -74.4371 -38.6831 -38.6831 -38.6189 -21.3435 -21.2186 -20.5879 -20.5851
   -16.9916  -4.6155  -4.1338  -3.7714  -2.9427  -2.9223  -2.4740  -2.2263
    -2.1928  -1.8469  -1.7975  -1.5522  -1.2008  -1.1041  -1.0726  -1.0331
     3.5796   3.5895   3.9000   6.4082   8.1923   9.5831  11.5882  11.8877
    13.3108  15.4991  16.8980  17.4347  17.6979  18.0385  18.3393  19.3347
    19.5965  20.9481  21.2996  21.6371  22.5134  22.7704  23.2624  23.5177
    24.2860  24.8035  25.4395  26.2562  26.4076  27.1912  28.0585  28.3969
    28.6416  28.8429  30.3910  31.0155  31.3876  31.7099  32.5197  33.4035

     occupation numbers
     1.0000   1.0000   1.0000   1.0000   1.0000   1.0000   1.0000   1.0000
     1.0000   1.0000   1.0000   1.0000   1.0000   1.0000   1.0000   1.0000
     1.0000   1.0000   1.0000   1.0000   1.0000   1.0000   1.0000   1.0000
     0.0000   0.0000   0.0000   0.0000   0.0000   0.0000   0.0000   0.0000
     0.0000   0.0000   0.0000   0.0000   0.0000   0.0000   0.0000   0.0000
     0.0000   0.0000   0.0000   0.0000   0.0000   0.0000   0.0000   0.0000
     0.0000   0.0000   0.0000   0.0000   0.0000   0.0000   0.0000   0.0000
     0.0000   0.0000   0.0000   0.0000   0.0000   0.0000   0.0000   0.0000

     highest occupied, lowest unoccupied level (ev):    -0.5413    3.5779

!    total energy              =    -395.49444258 Ry
     estimated scf accuracy    <       0.00000004 Ry

     The total energy is the sum of the following terms:
     one-electron contribution =    -259.70833621 Ry
     hartree contribution      =     145.86477079 Ry
     xc contribution           =     -85.54973123 Ry
     ewald contribution        =    -186.57641279 Ry
     one-center paw contrib.   =      -9.52473314 Ry
      -> PAW hartree energy AE =       0.00000000 Ry
      -> PAW hartree energy PS =       0.00000000 Ry
      -> PAW xc energy AE      =       0.00000000 Ry
      -> PAW xc energy PS      =       0.00000000 Ry
      -> total E_H with PAW    =     145.86477079 Ry
      -> total E_XC with PAW   =     -85.54973123 Ry

     convergence has been achieved in   8 iterations

     Writing all to output data dir bands_nm/myprefix.save/

     General routines

     Parallel routines

     PAW routines

   This run was terminated on:  12:55: 5  16Jul2023

   JOB DONE.