     Program PWSCF v.7.1 starts on 13Jul2023 at  3:43:12

     Reading input from espresso_7804.pwi
Warning: card &CELL ignored
Warning: card / ignored

     Current dimensions of program PWSCF are:
     Max number of different atomic species (ntypx) = 10
     Max number of k-points (npk) =  40000
     Max angular momentum in pseudopotentials (lmaxx) =  4
     file Al.pbe-n-kjpaw_psl.1.0.0.UPF: wavefunction(s)  3S 3P renormalized
     file O.pbe-n-kjpaw_psl.0.1.UPF: wavefunction(s)  2P renormalized
     Message from routine setup:
     using ibrav=0 with symmetry is DISCOURAGED, use correct ibrav instead

     K-points division:     npool     =       2
     R & G space division:  proc/nbgrp/npool/nimage =       8
     Subspace diagonalization in iterative solution of the eigenvalue problem:
     a serial algorithm will be used

     Using Slab Decomposition

     bravais-lattice index     =            0
     lattice parameter (alat)  =      20.1721  a.u.
     unit-cell volume          =     998.2627 (a.u.)^3
     number of atoms/cell      =           12
     number of atomic types    =            4
     number of electrons       =        80.00
     number of Kohn-Sham states=           64
     kinetic-energy cutoff     =      30.0000  Ry
     charge density cutoff     =     240.0000  Ry
     scf convergence threshold =      1.0E-06
     mixing beta               =       0.7000
     number of iterations used =            8  plain     mixing
     Exchange-correlation= SLA  PW   PBX  PBC
                           (   1   4   3   4   0   0   0)

     celldm(1)=  20.172058  celldm(2)=   0.000000  celldm(3)=   0.000000
     celldm(4)=   0.000000  celldm(5)=   0.000000  celldm(6)=   0.000000

     crystal axes: (cart. coord. in units of alat)
               a(1) = (   1.000000   0.000000   0.000000 )
               a(2) = (   0.874374   0.485253   0.000000 )
               a(3) = (  -0.937187  -0.242627   0.250626 )

     reciprocal axes: (cart. coord. in units 2 pi/alat)
               b(1) = (  1.000000 -1.801890  1.995007 )
               b(2) = (  0.000000  2.060779  1.995007 )
               b(3) = (  0.000000  0.000000  3.990014 )

     PseudoPot. # 1 for Sr read from file:
     /lustre07/scratch/pragov/crystal_structure_design/utils/SSSP/Sr_pbe_v1.uspp.F.UPF
     MD5 check sum: 6b418c05fbe9db5448babca5e47b7a5b
     Pseudo is Ultrasoft + core correction, Zval = 10.0
     Generated by new atomic code, or converted to UPF format
     Using radial grid of  883 points,  6 beta functions with:
                l(1) =   0
                l(2) =   0
                l(3) =   1
                l(4) =   1
                l(5) =   2
                l(6) =   2
     Q(r) pseudized with  6 coefficients,  rinner =    1.400   1.400   1.400
                                                       1.400   1.400

     PseudoPot. # 2 for La read from file:
     /lustre07/scratch/pragov/crystal_structure_design/utils/SSSP/La.GGA-PBE-paw-v1.0.UPF
     MD5 check sum: 436541e95c1ad8901025bd0b0ed42ae2
     Pseudo is Projector augmented-wave + core cor, Zval = 11.0
     Generated using ATOMPAW code
     Shape of augmentation charge: BESSEL
     Using radial grid of 1101 points,  8 beta functions with:
                l(1) =   0
                l(2) =   0
                l(3) =   1
                l(4) =   1
                l(5) =   2
                l(6) =   2
                l(7) =   3
                l(8) =   3
     Q(r) pseudized with 0 coefficients

     PseudoPot. # 3 for Al read from file:
     /lustre07/scratch/pragov/crystal_structure_design/utils/SSSP/Al.pbe-n-kjpaw_psl.1.0.0.UPF
     MD5 check sum: cfc449ca30b5f3223ec38ddd88ac046d
     Pseudo is Projector augmented-wave + core cor, Zval =  3.0
     Generated using "atomic" code by A. Dal Corso  v.5.1
     Shape of augmentation charge: PSQ
     Using radial grid of 1135 points,  6 beta functions with:
                l(1) =   0
                l(2) =   0
                l(3) =   1
                l(4) =   1
                l(5) =   2
                l(6) =   2
     Q(r) pseudized with 0 coefficients

     PseudoPot. # 4 for O  read from file:
     /lustre07/scratch/pragov/crystal_structure_design/utils/SSSP/O.pbe-n-kjpaw_psl.0.1.UPF
     MD5 check sum: 0234752ac141de4415c5fc33072bef88
     Pseudo is Projector augmented-wave + core cor, Zval =  6.0
     Generated using "atomic" code by A. Dal Corso  v.5.0.99 svn rev. 10869
     Shape of augmentation charge: BESSEL
     Using radial grid of 1095 points,  4 beta functions with:
                l(1) =   0
                l(2) =   0
                l(3) =   1
                l(4) =   1
     Q(r) pseudized with 0 coefficients

     atomic species   valence    mass     pseudopotential
        Sr            10.00    87.62000     Sr( 1.00)
        La            11.00   138.90547     La( 1.00)
        Al             3.00    26.98154     Al( 1.00)
        O              6.00    15.99900     O ( 1.00)

      4 Sym. Ops., with inversion, found

                                    s                        frac. trans.

      isym =  1     identity

 cryst.   s( 1) = (     1          0          0      )
                  (     0          1          0      )
                  (     0          0          1      )

 cart.    s( 1) = (  1.0000000 -0.0000000  0.0000000 )
                  (  0.0000000  1.0000000  0.0000000 )
                  (  0.0000000  0.0000000  1.0000000 )

      isym =  2     180 deg rotation - cart. axis [0,0,1]

[...]

      isym =  3     inversion

[...]

      isym =  4     inv. 180 deg rotation - cart. axis [0,0,1]

 cryst.   s( 4) = (     1          0          0      )
                  (     0          1          0      )
                  (    -1         -1         -1      )

 cart.    s( 4) = (  1.0000000 -0.0000000  0.0000000 )
                  (  0.0000000  1.0000000  0.0000000 )
                  (  0.0000000  0.0000000 -1.0000000 )

   Cartesian axes

     site n.     atom                  positions (alat units)
         1           Sr  tau(   1) = (   0.9371868   0.2426267   0.0000000  )
         2           La  tau(   2) = (   1.2754437   0.3301975   0.0000000  )
         3           La  tau(   3) = (   0.5989298   0.1550559   0.0000000  )
         4           Al  tau(   4) = (   1.7058899   0.4416350   0.0000000  )
         5           Al  tau(   5) = (   0.1684837   0.0436185   0.0000000  )
         6           O   tau(   6) = (   0.7817877   0.0729515   0.1253128  )
         7           O   tau(   7) = (   0.7189745   0.3155783   0.1253128  )
         8           O   tau(   8) = (   0.1553991   0.1696752   0.1253128  )
         9           O   tau(   9) = (   0.2182123  -0.0729515   0.1253128  )
        10           O   tau(  10) = (   1.4966798   0.3874729   0.0000000  )
        11           O   tau(  11) = (   0.3776938   0.0977805   0.0000000  )
        12           O   tau(  12) = (   0.0000000   0.0000000   0.0000000  )

   Crystallographic axes

     site n.     atom                  positions (cryst. coord.)
         1           Sr  tau(   1) = (  0.5000000  0.5000000  0.0000000  )
         2           La  tau(   2) = (  0.6804640  0.6804640  0.0000000  )
         3           La  tau(   3) = (  0.3195360  0.3195360  0.0000000  )
         4           Al  tau(   4) = (  0.9101120  0.9101120  0.0000000  )
         5           Al  tau(   5) = (  0.0898880  0.0898880  0.0000000  )
         6           O   tau(   6) = (  0.9003370  0.4003370  0.5000000  )
         7           O   tau(   7) = (  0.4003370  0.9003370  0.5000000  )
         8           O   tau(   8) = (  0.0996630  0.5996630  0.5000000  )
         9           O   tau(   9) = (  0.5996630  0.0996630  0.5000000  )
        10           O   tau(  10) = (  0.7984960  0.7984960  0.0000000  )
        11           O   tau(  11) = (  0.2015040  0.2015040  0.0000000  )
        12           O   tau(  12) = (  0.0000000  0.0000000  0.0000000  )

     number of k points=    10
                       cart. coord. in units 2pi/alat
        k(    1) = (   0.0000000   0.0000000   0.0000000), wk =   0.0740741
        k(    2) = (   0.0000000   0.0000000   1.3300047), wk =   0.1481481
        k(    3) = (   0.0000000   0.6869263   0.6650024), wk =   0.2962963
        k(    4) = (   0.0000000   0.6869263   1.9950071), wk =   0.1481481
        k(    5) = (   0.3333333  -0.6006301   0.6650024), wk =   0.2962963
        k(    6) = (   0.3333333  -0.6006301   1.9950071), wk =   0.1481481
        k(    7) = (   0.3333333   0.0862961   1.3300047), wk =   0.2962963
        k(    8) = (   0.3333333   0.0862961   0.0000000), wk =   0.1481481
        k(    9) = (   0.3333333  -1.2875564  -0.0000000), wk =   0.1481481
        k(   10) = (   0.3333333  -1.2875564   1.3300047), wk =   0.2962963

                       cryst. coord.
        k(    1) = (   0.0000000   0.0000000   0.0000000), wk =   0.0740741
        k(    2) = (   0.0000000   0.0000000   0.3333333), wk =   0.1481481
        k(    3) = (   0.0000000   0.3333333   0.0000000), wk =   0.2962963
        k(    4) = (   0.0000000   0.3333333   0.3333333), wk =   0.1481481
        k(    5) = (   0.3333333   0.0000000   0.0000000), wk =   0.2962963
        k(    6) = (   0.3333333   0.0000000   0.3333333), wk =   0.1481481
        k(    7) = (   0.3333333   0.3333333   0.0000000), wk =   0.2962963
        k(    8) = (   0.3333333   0.3333333  -0.3333333), wk =   0.1481481
        k(    9) = (   0.3333333  -0.3333333  -0.0000000), wk =   0.1481481
        k(   10) = (   0.3333333  -0.3333333   0.3333333), wk =   0.2962963

     Check: negative core charge=   -0.000009

     Initial potential from superposition of free atoms

     starting charge      79.9447, renormalised to      80.0000

     negative rho (up, down):  6.284E-02 0.000E+00
     Starting wfcs are  113 randomized atomic wfcs
     Checking if some PAW data can be deallocated...

     Self-consistent Calculation

     iteration #  1     ecut=    30.00 Ry     beta= 0.70
     Davidson diagonalization with overlap

     ethr =  1.00E-02,  avg # of iterations =  2.0

     negative rho (up, down):  6.408E-02 0.000E+00

     total energy              =   -1357.31552585 Ry
     estimated scf accuracy    <       2.67819381 Ry

[...]

     total energy              =   -1358.64926007 Ry
     estimated scf accuracy    <       0.00000464 Ry

     iteration # 13     ecut=    30.00 Ry     beta= 0.70
     Davidson diagonalization with overlap

     ethr =  5.80E-09,  avg # of iterations =  3.6

     negative rho (up, down):  6.660E-02 0.000E+00

     End of self-consistent calculation

          k = 0.0000 0.0000 0.0000 (  2791 PWs)   bands (ev):

   -22.3078 -19.9825 -19.8744  -8.1136  -8.0600  -6.4211  -6.1785  -5.9967
    -5.9851  -5.8153  -4.2630  -4.2630  -4.2012  -3.5692  -3.5692  -3.3703
    -3.3703  -2.7389  -2.6355   5.7790   5.7790   5.7970   5.7970   5.8315
     7.1261   7.6917   8.0749   8.2781   8.5310   8.5310   8.5888   8.9523
     8.9523   9.0843   9.0843   9.7450   9.7450   9.8336   9.8336   9.9050
    13.2051  14.6091  14.6966  15.0083  15.0180  15.0181  15.1784  15.3301
    15.3547  15.3547  15.3709  15.4133  15.4133  15.4226  15.5721  15.5721
    15.9078  15.9489  15.9958  16.5283  16.9566  16.9566  17.0083  17.2527

     occupation numbers
     1.0000   1.0000   1.0000   1.0000   1.0000   1.0000   1.0000   1.0000
     1.0000   1.0000   1.0000   1.0000   1.0000   1.0000   1.0000   1.0000
     1.0000   1.0000   1.0000   1.0000   1.0000   1.0000   1.0000   1.0000
     1.0000   1.0000   1.0000   1.0000   1.0000   1.0000   1.0000   1.0000
     1.0000   1.0000   1.0000   1.0000   1.0000   1.0000   1.0000   1.0000
     0.0000   0.0000   0.0000   0.0000   0.0000   0.0000   0.0000   0.0000
     0.0000   0.0000   0.0000   0.0000   0.0000   0.0000   0.0000   0.0000
     0.0000   0.0000   0.0000   0.0000   0.0000   0.0000   0.0000   0.0000

[...]

          k = 0.3333-1.2876 1.3300 (  2774 PWs)   bands (ev):

   -22.2835 -19.8910 -19.8352  -7.9544  -7.6750  -7.0376  -6.8251  -6.6323
    -6.1351  -5.8952  -4.2569  -4.2022  -3.9041  -3.4101  -3.3121  -3.2747
    -3.1294  -2.6028  -2.5734   4.9974   5.7436   6.0087   6.1258   6.4792
     6.7169   7.4596   7.6207   7.9860   8.2356   8.2504   8.3785   8.5463
     8.5547   8.6342   8.7537   9.2135   9.2750   9.3243   9.4053  10.0509
    14.2087  14.8745  15.0391  15.0684  15.0750  15.0834  15.1333  15.2677
    15.2695  15.2848  15.3176  15.3491  15.3737  15.4223  16.1405  16.4304
    16.6318  16.7668  17.5494  17.6361  17.7294  18.0066  18.0483  18.4406

     occupation numbers
     1.0000   1.0000   1.0000   1.0000   1.0000   1.0000   1.0000   1.0000
     1.0000   1.0000   1.0000   1.0000   1.0000   1.0000   1.0000   1.0000
     1.0000   1.0000   1.0000   1.0000   1.0000   1.0000   1.0000   1.0000
     1.0000   1.0000   1.0000   1.0000   1.0000   1.0000   1.0000   1.0000
     1.0000   1.0000   1.0000   1.0000   1.0000   1.0000   1.0000   1.0000
     0.0000   0.0000   0.0000   0.0000   0.0000   0.0000   0.0000   0.0000
     0.0000   0.0000   0.0000   0.0000   0.0000   0.0000   0.0000   0.0000
     0.0000   0.0000   0.0000   0.0000   0.0000   0.0000   0.0000   0.0000

     highest occupied, lowest unoccupied level (ev):    10.0509   13.1231

!    total energy              =   -1358.64926101 Ry
     estimated scf accuracy    <       0.00000064 Ry

     The total energy is the sum of the following terms:
     one-electron contribution =     -33.52460390 Ry
     hartree contribution      =      75.72760418 Ry
     xc contribution           =     -94.22888030 Ry
     ewald contribution        =    -374.49919253 Ry
     one-center paw contrib.   =    -932.12418846 Ry
      -> PAW hartree energy AE =       0.00000000 Ry
      -> PAW hartree energy PS =       0.00000000 Ry
      -> PAW xc energy AE      =       0.00000000 Ry
      -> PAW xc energy PS      =       0.00000000 Ry
      -> total E_H with PAW    =      75.72760418 Ry
      -> total E_XC with PAW   =     -94.22888030 Ry

     convergence has been achieved in  13 iterations

     Writing all to output data dir bands_nm/myprefix.save/

     General routines

     Parallel routines

     PAW routines

   This run was terminated on:   3:43:44  13Jul2023

   JOB DONE.