     Program PWSCF v.7.1 starts on 13Jul2023 at  9:26: 0

     Reading input from espresso_14208.pwi
Warning: card &CELL ignored
Warning: card / ignored

     Current dimensions of program PWSCF are:
     Max number of different atomic species (ntypx) = 10
     Max number of k-points (npk) =  40000
     Max angular momentum in pseudopotentials (lmaxx) =  4
     file K.pbe-spn-kjpaw_psl.1.0.0.UPF: wavefunction(s)  3S renormalized
     file O.pbe-n-kjpaw_psl.0.1.UPF: wavefunction(s)  2P renormalized
     Message from routine setup:
     using ibrav=0 with symmetry is DISCOURAGED, use correct ibrav instead

     K-points division:     npool     =       2
     R & G space division:  proc/nbgrp/npool/nimage =       8
     Subspace diagonalization in iterative solution of the eigenvalue problem:
     a serial algorithm will be used

     Using Slab Decomposition

     bravais-lattice index     =            0
     lattice parameter (alat)  =      17.1207  a.u.
     unit-cell volume          =    1186.3328 (a.u.)^3
     number of atoms/cell      =           12
     number of atomic types    =            4
     number of electrons       =        82.00
     number of Kohn-Sham states=           64
     kinetic-energy cutoff     =      30.0000  Ry
     charge density cutoff     =     240.0000  Ry
     scf convergence threshold =      1.0E-06
     mixing beta               =       0.7000
     number of iterations used =            8  plain     mixing
     Exchange-correlation= SLA  PW   PBX  PBC
                           (   1   4   3   4   0   0   0)

     celldm(1)=  17.120664  celldm(2)=   0.000000  celldm(3)=   0.000000
     celldm(4)=   0.000000  celldm(5)=   0.000000  celldm(6)=   0.000000

     crystal axes: (cart. coord. in units of alat)
               a(1) = (   1.000000   0.000000   0.000000 )
               a(2) = (   0.856476   0.516186   0.000000 )
               a(3) = (   0.856476   0.238140   0.457971 )

     reciprocal axes: (cart. coord. in units 2 pi/alat)
               b(1) = (  1.000000 -1.659239 -1.007367 )
               b(2) = (  0.000000  1.937285 -1.007367 )
               b(3) = (  0.000000  0.000000  2.183543 )

     PseudoPot. # 1 for K  read from file:
     /lustre07/scratch/pragov/crystal_structure_design/utils/SSSP/K.pbe-spn-kjpaw_psl.1.0.0.UPF
     MD5 check sum: 7d58810084cac21f60fbe77ea2b688fd
     Pseudo is Projector augmented-wave + core cor, Zval =  9.0
     Generated using "atomic" code by A. Dal Corso  v.5.1
     Shape of augmentation charge: PSQ
     Using radial grid of 1165 points,  6 beta functions with:
                l(1) =   0
                l(2) =   0
                l(3) =   1
                l(4) =   1
                l(5) =   2
                l(6) =   2
     Q(r) pseudized with 0 coefficients

     PseudoPot. # 2 for Sb read from file:
     /lustre07/scratch/pragov/crystal_structure_design/utils/SSSP/sb_pbe_v1.4.uspp.F.UPF
     MD5 check sum: 9bc50dfb53373b713f5709b9110fe27f
     Pseudo is Ultrasoft + core correction, Zval = 15.0
     Generated by new atomic code, or converted to UPF format
     Using radial grid of  891 points,  6 beta functions with:
                l(1) =   0
                l(2) =   0
                l(3) =   1
                l(4) =   1
                l(5) =   2
                l(6) =   2
     Q(r) pseudized with  8 coefficients,  rinner =    1.350   1.350   1.350
                                                       1.350   1.350

     PseudoPot. # 3 for P  read from file:
     /lustre07/scratch/pragov/crystal_structure_design/utils/SSSP/P.pbe-n-rrkjus_psl.1.0.0.UPF
     MD5 check sum: 8b930f418f0a4573dca56cd030ffe088
     Pseudo is Ultrasoft + core correction, Zval =  5.0
     Generated using "atomic" code by A. Dal Corso  v.5.1
     Using radial grid of 1147 points,  6 beta functions with:
                l(1) =   0
                l(2) =   0
                l(3) =   1
                l(4) =   1
                l(5) =   2
                l(6) =   2
     Q(r) pseudized with 0 coefficients

     PseudoPot. # 4 for O  read from file:
     /lustre07/scratch/pragov/crystal_structure_design/utils/SSSP/O.pbe-n-kjpaw_psl.0.1.UPF
     MD5 check sum: 0234752ac141de4415c5fc33072bef88
     Pseudo is Projector augmented-wave + core cor, Zval =  6.0
     Generated using "atomic" code by A. Dal Corso  v.5.0.99 svn rev. 10869
     Shape of augmentation charge: BESSEL
     Using radial grid of 1095 points,  4 beta functions with:
                l(1) =   0
                l(2) =   0
                l(3) =   1
                l(4) =   1
     Q(r) pseudized with 0 coefficients

     atomic species   valence    mass     pseudopotential
        K              9.00    39.09830     K ( 1.00)
        Sb            15.00   121.76000     Sb( 1.00)
        P              5.00    30.97376     P ( 1.00)
        O              6.00    15.99900     O ( 1.00)

      2 Sym. Ops., with inversion, found

                                    s                        frac. trans.

      isym =  1     identity

 cryst.   s( 1) = (     1          0          0      )
                  (     0          1          0      )
                  (     0          0          1      )

 cart.    s( 1) = (  1.0000000  0.0000000 -0.0000000 )
                  (  0.0000000  1.0000000 -0.0000000 )
                  (  0.0000000  0.0000000  1.0000000 )

      isym =  2     inversion

 cryst.   s( 2) = (    -1          0          0      )
                  (     0         -1          0      )
                  (     0          0         -1      )

 cart.    s( 2) = ( -1.0000000  0.0000000  0.0000000 )
                  (  0.0000000 -1.0000000  0.0000000 )
                  (  0.0000000  0.0000000 -1.0000000 )

   Cartesian axes

     site n.     atom                  positions (alat units)
         1           K   tau(   1) = (   1.3564763   0.3771632   0.2289856  )
         2           Sb  tau(   2) = (   0.0000000   0.0000000   0.0000000  )
         3           P   tau(   3) = (   1.9944706   0.5545551   0.3366849  )
         4           P   tau(   4) = (   0.7184821   0.1997713   0.1212864  )
         5           O   tau(   5) = (   2.1509049   0.5980511   0.3630924  )
         6           O   tau(   6) = (   1.8881419   0.6923774   0.3403084  )
         7           O   tau(   7) = (   0.5620478   0.1562753   0.0948788  )
         8           O   tau(   8) = (   1.9745454   0.4779911   0.1815893  )
         9           O   tau(   9) = (   0.7384081   0.2763355   0.2763824  )
        10           O   tau(  10) = (   1.9378839   0.4424589   0.4572921  )
        11           O   tau(  11) = (   0.7750688   0.3118675   0.0006792  )
        12           O   tau(  12) = (   0.8248098   0.0619489   0.1176629  )

   Crystallographic axes

     site n.     atom                  positions (cryst. coord.)
         1           K   tau(   1) = (  0.5000000  0.5000000  0.5000000  )
         2           Sb  tau(   2) = (  0.0000000  0.0000000  0.0000000  )
         3           P   tau(   3) = (  0.7351660  0.7351660  0.7351660  )
         4           P   tau(   4) = (  0.2648340  0.2648340  0.2648340  )
         5           O   tau(   5) = (  0.7928280  0.7928280  0.7928280  )
         6           O   tau(   6) = (  0.3965070  0.9985170  0.7430780  )
         7           O   tau(   7) = (  0.2071720  0.2071720  0.2071720  )
         8           O   tau(   8) = (  0.9985170  0.7430780  0.3965080  )
         9           O   tau(   9) = (  0.0014830  0.2569220  0.6034930  )
        10           O   tau(  10) = (  0.7430780  0.3965080  0.9985170  )
        11           O   tau(  11) = (  0.2569220  0.6034920  0.0014830  )
        12           O   tau(  12) = (  0.6034920  0.0014830  0.2569220  )

     number of k points=    14
                       cart. coord. in units 2pi/alat
        k(    1) = (   0.0000000   0.0000000   0.0000000), wk =   0.0740741
        k(    2) = (   0.0000000   0.0000000   0.7278477), wk =   0.1481481
        k(    3) = (   0.0000000   0.6457617  -0.3357890), wk =   0.1481481
        k(    4) = (   0.0000000   0.6457617   0.3920587), wk =   0.1481481
        k(    5) = (   0.0000000   0.6457617  -1.0636367), wk =   0.1481481
        k(    6) = (   0.3333333  -0.5530796  -0.3357890), wk =   0.1481481
        k(    7) = (   0.3333333  -0.5530796   0.3920587), wk =   0.1481481
        k(    8) = (   0.3333333  -0.5530796  -1.0636367), wk =   0.1481481
        k(    9) = (   0.3333333   0.0926821  -0.6715780), wk =   0.1481481
        k(   10) = (   0.3333333   0.0926821   0.0562697), wk =   0.1481481
        k(   11) = (   0.3333333   0.0926821  -1.3994257), wk =   0.1481481
        k(   12) = (   0.3333333  -1.1988413   0.0000000), wk =   0.1481481
        k(   13) = (   0.3333333  -1.1988413   0.7278477), wk =   0.1481481
        k(   14) = (   0.3333333  -1.1988413  -0.7278477), wk =   0.1481481

                       cryst. coord.
        k(    1) = (   0.0000000   0.0000000   0.0000000), wk =   0.0740741
        k(    2) = (   0.0000000   0.0000000   0.3333333), wk =   0.1481481
        k(    3) = (   0.0000000   0.3333333   0.0000000), wk =   0.1481481
        k(    4) = (   0.0000000   0.3333333   0.3333333), wk =   0.1481481
        k(    5) = (   0.0000000   0.3333333  -0.3333333), wk =   0.1481481
        k(    6) = (   0.3333333   0.0000000   0.0000000), wk =   0.1481481
        k(    7) = (   0.3333333   0.0000000   0.3333333), wk =   0.1481481
        k(    8) = (   0.3333333   0.0000000  -0.3333333), wk =   0.1481481
        k(    9) = (   0.3333333   0.3333333   0.0000000), wk =   0.1481481
        k(   10) = (   0.3333333   0.3333333   0.3333333), wk =   0.1481481
        k(   11) = (   0.3333333   0.3333333  -0.3333333), wk =   0.1481481
        k(   12) = (   0.3333333  -0.3333333   0.0000000), wk =   0.1481481
        k(   13) = (   0.3333333  -0.3333333   0.3333333), wk =   0.1481481
        k(   14) = (   0.3333333  -0.3333333  -0.3333333), wk =   0.1481481

     Check: negative core charge=   -0.000012

     Initial potential from superposition of free atoms

     starting charge      80.9808, renormalised to      82.0000
     Starting wfcs are   57 randomized atomic wfcs +    7 random wfcs
     Checking if some PAW data can be deallocated...

     Self-consistent Calculation

     iteration #  1     ecut=    30.00 Ry     beta= 0.70
     Davidson diagonalization with overlap

     ethr =  1.00E-02,  avg # of iterations =  8.6

     total energy              =    -658.59887744 Ry
     estimated scf accuracy    <       1.95095036 Ry

[...]

     total energy              =    -659.40648324 Ry
     estimated scf accuracy    <       0.00000180 Ry

     iteration #  8     ecut=    30.00 Ry     beta= 0.70
     Davidson diagonalization with overlap

     ethr =  2.20E-09,  avg # of iterations =  2.0

     End of self-consistent calculation

          k = 0.0000 0.0000 0.0000 (  3251 PWs)   bands (ev):

   -25.9172 -25.9171 -25.7152 -25.7152 -25.6863 -23.4603 -17.5338 -16.9757
   -14.8204 -14.8198 -14.4241 -14.4236 -14.0679 -13.8310  -7.7583  -7.0087
    -6.8920  -6.8920  -5.3639  -3.6326  -3.6323  -2.0070  -2.0067  -1.0223
    -0.5124  -0.4101   0.4650   0.4650   0.9034   0.9263   0.9264   1.3192
     1.9634   1.9635   2.0260   2.0262   2.0556   3.1751   3.1752   3.3030
     3.3032   6.3992  10.3189  10.4211  11.2313  11.2314  12.7535  12.8267
    12.9780  12.9780  13.7399  13.8028  14.4134  14.4134  14.6370  14.6370
    15.0185  15.0185  15.3708  15.5522  16.4688  16.8730  17.3486  17.3487

     occupation numbers
     1.0000   1.0000   1.0000   1.0000   1.0000   1.0000   1.0000   1.0000
     1.0000   1.0000   1.0000   1.0000   1.0000   1.0000   1.0000   1.0000
     1.0000   1.0000   1.0000   1.0000   1.0000   1.0000   1.0000   1.0000
     1.0000   1.0000   1.0000   1.0000   1.0000   1.0000   1.0000   1.0000
     1.0000   1.0000   1.0000   1.0000   1.0000   1.0000   1.0000   1.0000
     1.0000   0.0000   0.0000   0.0000   0.0000   0.0000   0.0000   0.0000
     0.0000   0.0000   0.0000   0.0000   0.0000   0.0000   0.0000   0.0000
     0.0000   0.0000   0.0000   0.0000   0.0000   0.0000   0.0000   0.0000

[...]

          k = 0.3333-1.1988-0.7278 (  3291 PWs)   bands (ev):

   -25.9206 -25.9174 -25.7199 -25.7163 -25.6963 -23.4582 -17.1932 -16.7996
   -15.4161 -14.9231 -14.8599 -14.4199 -13.8848 -13.7750  -7.0539  -7.0025
    -6.9051  -6.8988  -4.9977  -4.0980  -3.2905  -2.7152  -1.8449  -0.7182
    -0.7088  -0.0313   0.0460   0.3543   0.6816   1.1124   1.2405   1.2667
     1.4919   1.7182   1.8436   2.1828   2.4202   2.9323   3.0889   3.2429
     3.3322   6.8598  10.6984  10.9594  11.1608  11.9629  12.3234  12.8720
    13.0481  13.2447  13.5027  13.6504  13.8898  14.2803  14.5897  14.6936
    14.9154  15.0684  15.3424  15.5393  15.7689  16.5273  16.6989  17.0900

     occupation numbers
     1.0000   1.0000   1.0000   1.0000   1.0000   1.0000   1.0000   1.0000
     1.0000   1.0000   1.0000   1.0000   1.0000   1.0000   1.0000   1.0000
     1.0000   1.0000   1.0000   1.0000   1.0000   1.0000   1.0000   1.0000
     1.0000   1.0000   1.0000   1.0000   1.0000   1.0000   1.0000   1.0000
     1.0000   1.0000   1.0000   1.0000   1.0000   1.0000   1.0000   1.0000
     1.0000   0.0000   0.0000   0.0000   0.0000   0.0000   0.0000   0.0000
     0.0000   0.0000   0.0000   0.0000   0.0000   0.0000   0.0000   0.0000
     0.0000   0.0000   0.0000   0.0000   0.0000   0.0000   0.0000   0.0000

     highest occupied, lowest unoccupied level (ev):     3.4415    6.3992

!    total energy              =    -659.40648360 Ry
     estimated scf accuracy    <       0.00000016 Ry

     The total energy is the sum of the following terms:
     one-electron contribution =    -362.65189444 Ry
     hartree contribution      =     223.64693506 Ry
     xc contribution           =    -124.65880980 Ry
     ewald contribution        =    -264.17800658 Ry
     one-center paw contrib.   =    -131.56470785 Ry
      -> PAW hartree energy AE =      37.60335148 Ry
      -> PAW hartree energy PS =     -37.39340601 Ry
      -> PAW xc energy AE      =     -66.20564074 Ry
      -> PAW xc energy PS      =      10.57911623 Ry
      -> total E_H with PAW    =     223.85688053 Ry
      -> total E_XC with PAW   =    -180.28533431 Ry

     convergence has been achieved in   8 iterations

     Writing all to output data dir bands_nm/myprefix.save/

     General routines

     Parallel routines

     PAW routines

   This run was terminated on:   9:26: 9  13Jul2023

   JOB DONE.