     Program PWSCF v.7.1 starts on 14Jul2023 at  1:56:18

     Reading input from espresso_6366.pwi
Warning: card &CELL ignored
Warning: card / ignored

     Current dimensions of program PWSCF are:
     Max number of different atomic species (ntypx) = 10
     Max number of k-points (npk) =  40000
     Max angular momentum in pseudopotentials (lmaxx) =  4
     file Ba.pbe-spn-kjpaw_psl.1.0.0.UPF: wavefunction(s)  5S 6S renormalized
     Message from routine setup:
     using ibrav=0 with symmetry is DISCOURAGED, use correct ibrav instead

     K-points division:     npool     =       2
     R & G space division:  proc/nbgrp/npool/nimage =       4
     Subspace diagonalization in iterative solution of the eigenvalue problem:
     a serial algorithm will be used

     Using Slab Decomposition

     bravais-lattice index     =            0
     lattice parameter (alat)  =       7.7676  a.u.
     unit-cell volume          =    1517.4882 (a.u.)^3
     number of atoms/cell      =           12
     number of atomic types    =            2
     number of electrons       =        96.00
     number of Kohn-Sham states=           64
     kinetic-energy cutoff     =      30.0000  Ry
     charge density cutoff     =     240.0000  Ry
     scf convergence threshold =      1.0E-06
     mixing beta               =       0.7000
     number of iterations used =            8  plain     mixing
     Exchange-correlation=  SLA  PW   PBX  PBC
                           (   1   4   3   4   0   0   0)

     celldm(1)=   7.767646  celldm(2)=   0.000000  celldm(3)=   0.000000
     celldm(4)=   0.000000  celldm(5)=   0.000000  celldm(6)=   0.000000

     crystal axes: (cart. coord. in units of alat)
               a(1) = (   1.000000   0.000000   0.000000 )
               a(2) = (   0.000000   1.654209   0.000000 )
               a(3) = (   0.000000   0.000000   1.957342 )

     reciprocal axes: (cart. coord. in units 2 pi/alat)
               b(1) = (  1.000000  0.000000  0.000000 )
               b(2) = (  0.000000  0.604518  0.000000 )
               b(3) = (  0.000000  0.000000  0.510897 )

     PseudoPot. # 1 for Ba read from file:
     /lustre07/scratch/pragov/crystal_structure_design/utils/SSSP/Ba.pbe-spn-kjpaw_psl.1.0.0.UPF
     MD5 check sum: c432291d3e53af55f19d5e8866385beb
     Pseudo is Projector augmented-wave + core cor, Zval = 10.0
     Generated using "atomic" code by A. Dal Corso  v.5.1
     Shape of augmentation charge: PSQ
     Using radial grid of 1251 points,  7 beta functions with:
                l(1) =   0
                l(2) =   0
                l(3) =   0
                l(4) =   1
                l(5) =   1
                l(6) =   2
                l(7) =   2
     Q(r) pseudized with 0 coefficients

     PseudoPot. # 2 for F  read from file:
     /lustre07/scratch/pragov/crystal_structure_design/utils/SSSP/f_pbe_v1.4.uspp.F.UPF
     MD5 check sum: 4c38b6a325caf53ec0e86aed9459de46
     Pseudo is Ultrasoft, Zval =  7.0
     Generated by new atomic code, or converted to UPF format
     Using radial grid of  799 points,  4 beta functions with:
                l(1) =   0
                l(2) =   0
                l(3) =   1
                l(4) =   1
     Q(r) pseudized with  8 coefficients,  rinner =    0.950   0.950   0.950

     atomic species   valence    mass     pseudopotential
        Ba            10.00   137.32700     Ba( 1.00)
        F              7.00    18.99840     F ( 1.00)

      8 Sym. Ops., with inversion, found ( 6 have fractional translation)

                                    s                        frac. trans.

      isym =  1     identity

 cryst.   s( 1) = (     1          0          0      )
                  (     0          1          0      )
                  (     0          0          1      )

 cart.    s( 1) = (  1.0000000  0.0000000  0.0000000 )
                  (  0.0000000  1.0000000  0.0000000 )
                  (  0.0000000  0.0000000  1.0000000 )

      isym =  2     180 deg rotation - cart. axis [0,0,1]

 cryst.   s( 2) = (    -1          0          0      )    f =(  0.0000000 )
                  (     0         -1          0      )       (  0.5000000 )
                  (     0          0          1      )       ( -0.5000000 )

 cart.    s( 2) = ( -1.0000000  0.0000000  0.0000000 )    f =(  0.0000000 )
                  (  0.0000000 -1.0000000  0.0000000 )       (  0.8271047 )
                  (  0.0000000  0.0000000  1.0000000 )       ( -0.9786709 )

[...]

      isym =  4     180 deg rotation - cart. axis [1,0,0]

[...]

      isym =  5     inversion

 cryst.   s( 5) = (    -1          0          0      )
                  (     0         -1          0      )
                  (     0          0         -1      )

 cart.    s( 5) = ( -1.0000000  0.0000000  0.0000000 )
                  (  0.0000000 -1.0000000  0.0000000 )
                  (  0.0000000  0.0000000 -1.0000000 )

      isym =  6     inv. 180 deg rotation - cart. axis [0,0,1]

[...]

      isym =  8     inv. 180 deg rotation - cart. axis [1,0,0]

 cryst.   s( 8) = (    -1          0          0      )    f =(  0.5000000 )
                  (     0          1          0      )       (  0.0000000 )
                  (     0          0          1      )       (  0.0000000 )

 cart.    s( 8) = ( -1.0000000  0.0000000  0.0000000 )    f =(  0.5000000 )
                  (  0.0000000  1.0000000  0.0000000 )       (  0.0000000 )
                  (  0.0000000  0.0000000  1.0000000 )       (  0.0000000 )

   Cartesian axes

     site n.     atom                  positions (alat units)
         1           Ba  tau(   1) = (   0.7500000   1.2398266   0.7558412  )
         2           Ba  tau(   2) = (   0.2500000   1.2414874   1.7345121  )
         3           Ba  tau(   3) = (   0.2500000   0.4143827   1.2015005  )
         4           Ba  tau(   4) = (   0.7500000   0.4127219   0.2228297  )
         5           F   tau(   5) = (   0.2500000   0.8726897   0.3275200  )
         6           F   tau(   6) = (   0.2500000   0.2361020   1.8191319  )
         7           F   tau(   7) = (   0.7500000   0.7815196   1.6298217  )
         8           F   tau(   8) = (   0.7500000   1.4181074   0.1382099  )
         9           F   tau(   9) = (   0.7500000   1.6086243   1.3061909  )
        10           F   tau(  10) = (   0.7500000   0.5910027   0.8404610  )
        11           F   tau(  11) = (   0.2500000   1.0632067   1.1168807  )
        12           F   tau(  12) = (   0.2500000   0.0455850   0.6511508  )

   Crystallographic axes

     site n.     atom                  positions (cryst. coord.)
         1           Ba  tau(   1) = (  0.7500000  0.7494980  0.3861570  )
         2           Ba  tau(   2) = (  0.2500000  0.7505020  0.8861570  )
         3           Ba  tau(   3) = (  0.2500000  0.2505020  0.6138430  )
         4           Ba  tau(   4) = (  0.7500000  0.2494980  0.1138430  )
         5           F   tau(   5) = (  0.2500000  0.5275570  0.1673290  )
         6           F   tau(   6) = (  0.2500000  0.1427280  0.9293890  )
         7           F   tau(   7) = (  0.7500000  0.4724430  0.8326710  )
         8           F   tau(   8) = (  0.7500000  0.8572720  0.0706110  )
         9           F   tau(   9) = (  0.7500000  0.9724430  0.6673290  )
        10           F   tau(  10) = (  0.7500000  0.3572720  0.4293890  )
        11           F   tau(  11) = (  0.2500000  0.6427280  0.5706110  )
        12           F   tau(  12) = (  0.2500000  0.0275570  0.3326710  )

     number of k points=     8
                       cart. coord. in units 2pi/alat
        k(    1) = (   0.0000000   0.0000000   0.0000000), wk =   0.0740741
        k(    2) = (   0.0000000   0.0000000   0.1702990), wk =   0.1481481
        k(    3) = (   0.0000000   0.2015061   0.0000000), wk =   0.1481481
        k(    4) = (   0.0000000   0.2015061   0.1702990), wk =   0.2962963
        k(    5) = (   0.3333333   0.0000000   0.0000000), wk =   0.1481481
        k(    6) = (   0.3333333   0.0000000   0.1702990), wk =   0.2962963
        k(    7) = (   0.3333333   0.2015061   0.0000000), wk =   0.2962963
        k(    8) = (   0.3333333   0.2015061   0.1702990), wk =   0.5925926

                       cryst. coord.
        k(    1) = (   0.0000000   0.0000000   0.0000000), wk =   0.0740741
        k(    2) = (   0.0000000   0.0000000   0.3333333), wk =   0.1481481
        k(    3) = (   0.0000000   0.3333333   0.0000000), wk =   0.1481481
        k(    4) = (   0.0000000   0.3333333   0.3333333), wk =   0.2962963
        k(    5) = (   0.3333333   0.0000000   0.0000000), wk =   0.1481481
        k(    6) = (   0.3333333   0.0000000   0.3333333), wk =   0.2962963
        k(    7) = (   0.3333333   0.3333333   0.0000000), wk =   0.2962963
        k(    8) = (   0.3333333   0.3333333   0.3333333), wk =   0.5925926

     Initial potential from superposition of free atoms

     starting charge      95.9320, renormalised to      96.0000
     Starting wfcs are   52 randomized atomic wfcs +   12 random wfcs
     Checking if some PAW data can be deallocated...

     Self-consistent Calculation

     iteration #  1     ecut=    30.00 Ry     beta= 0.70
     Davidson diagonalization with overlap

     ethr =  1.00E-02,  avg # of iterations =  5.4

     negative rho (up, down):  2.347E-03 0.000E+00

     total energy              =   -2134.97241337 Ry
     estimated scf accuracy    <       1.54478044 Ry

[...]

     negative rho (up, down):  7.932E-04 0.000E+00

[...]

     total energy              =   -2135.64805857 Ry
     estimated scf accuracy    <       0.00000136 Ry

     iteration # 15     ecut=    30.00 Ry     beta= 0.70
     Davidson diagonalization with overlap

     ethr =  1.41E-09,  avg # of iterations =  1.1

     End of self-consistent calculation

          k = 0.0000 0.0000 0.0000 (  4209 PWs)   bands (ev):

   -19.4935 -19.2965 -19.2747 -19.2646 -15.6064 -15.5118 -15.3867 -15.3616
   -15.0046 -14.9608 -14.9574 -14.9321  -4.6904  -4.5999  -4.5809  -4.5263
    -4.4598  -4.3770  -4.3161  -4.3048  -4.2673  -4.2559  -4.2447  -4.2237
     2.6006   2.6171   2.6397   2.6743   2.6793   2.7421   2.8270   2.9080
     2.9406   3.0620   3.1891   3.2254   3.2722   3.3133   3.4582   3.5072
     3.5233   3.5686   3.6509   3.6649   3.7947   3.9315   3.9414   3.9901
    10.8344  11.0227  11.7434  12.2901  12.3634  12.3785  12.6268  12.7489
    13.1400  13.1576  13.4214  13.6177  13.6666  14.0335  14.4072  14.6524

     occupation numbers
     1.0000   1.0000   1.0000   1.0000   1.0000   1.0000   1.0000   1.0000
     1.0000   1.0000   1.0000   1.0000   1.0000   1.0000   1.0000   1.0000
     1.0000   1.0000   1.0000   1.0000   1.0000   1.0000   1.0000   1.0000
     1.0000   1.0000   1.0000   1.0000   1.0000   1.0000   1.0000   1.0000
     1.0000   1.0000   1.0000   1.0000   1.0000   1.0000   1.0000   1.0000
     1.0000   1.0000   1.0000   1.0000   1.0000   1.0000   1.0000   1.0000
     0.0000   0.0000   0.0000   0.0000   0.0000   0.0000   0.0000   0.0000
     0.0000   0.0000   0.0000   0.0000   0.0000   0.0000   0.0000   0.0000

[...]

          k = 0.3333 0.2015 0.1703 (  4209 PWs)   bands (ev):

   -19.3154 -19.2756 -19.2482 -19.2342 -15.5621 -15.5253 -15.5098 -15.4789
   -14.9920 -14.9808 -14.9790 -14.9709  -4.7176  -4.7115  -4.6882  -4.6335
    -4.5648  -4.4978  -4.4817  -4.4693  -4.3987  -4.3607  -4.3291  -4.2728
     2.4187   2.5313   2.6283   2.7192   2.7860   2.8623   2.9273   2.9843
     3.1214   3.1444   3.2137   3.2723   3.4688   3.5039   3.5500   3.5901
     3.6113   3.6492   3.6827   3.7057   3.7302   3.7926   3.8490   3.8882
    11.9378  12.0845  12.2775  12.3689  12.6103  12.7335  12.8881  13.1730
    13.2110  13.3216  13.4872  13.7837  14.1143  14.2806  14.4437  14.4710

     occupation numbers
     1.0000   1.0000   1.0000   1.0000   1.0000   1.0000   1.0000   1.0000
     1.0000   1.0000   1.0000   1.0000   1.0000   1.0000   1.0000   1.0000
     1.0000   1.0000   1.0000   1.0000   1.0000   1.0000   1.0000   1.0000
     1.0000   1.0000   1.0000   1.0000   1.0000   1.0000   1.0000   1.0000
     1.0000   1.0000   1.0000   1.0000   1.0000   1.0000   1.0000   1.0000
     1.0000   1.0000   1.0000   1.0000   1.0000   1.0000   1.0000   1.0000
     0.0000   0.0000   0.0000   0.0000   0.0000   0.0000   0.0000   0.0000
     0.0000   0.0000   0.0000   0.0000   0.0000   0.0000   0.0000   0.0000

     highest occupied, lowest unoccupied level (ev):     3.9901   10.8344

!    total energy              =   -2135.64805860 Ry
     estimated scf accuracy    <       0.00000008 Ry

     The total energy is the sum of the following terms:
     one-electron contribution =    -195.10722564 Ry
     hartree contribution      =     158.57111946 Ry
     xc contribution           =    -156.61542945 Ry
     ewald contribution        =    -442.67073637 Ry
     one-center paw contrib.   =   -1499.82578659 Ry
      -> PAW hartree energy AE =      57.31775160 Ry
      -> PAW hartree energy PS =     -57.09059058 Ry
      -> PAW xc energy AE      =    -788.44848004 Ry
      -> PAW xc energy PS      =      38.30842572 Ry
      -> total E_H with PAW    =     158.79828048 Ry
      -> total E_XC with PAW   =    -906.75548377 Ry

     convergence has been achieved in  15 iterations

     Writing all to output data dir bands_nm/myprefix.save/

     General routines

     Parallel routines

     PAW routines

   This run was terminated on:   1:56:28  14Jul2023

   JOB DONE.