     Program PWSCF v.7.0 starts on  7Jun2023 at 10:35: 6

     K-points division:     npool     =       2
     R & G space division:  proc/nbgrp/npool/nimage =       4

     Reading input from espresso_9890.pwi
Warning: card &CELL ignored
Warning: card / ignored

     Current dimensions of program PWSCF are:
     Max number of different atomic species (ntypx) = 10
     Max number of k-points (npk) =  40000
     Max angular momentum in pseudopotentials (lmaxx) =  4
     file O.pbe-n-kjpaw_psl.0.1.UPF: wavefunction(s)  2P renormalized
     Message from routine setup:
     using ibrav=0 with symmetry is DISCOURAGED, use correct ibrav instead

     Using Slab Decomposition

     bravais-lattice index     =            0
     lattice parameter (alat)  =      14.0739  a.u.
     unit-cell volume          =    1072.0527 (a.u.)^3
     number of atoms/cell      =           12
     number of atomic types    =            2
     number of electrons       =        96.00
     number of Kohn-Sham states=           64
     kinetic-energy cutoff     =      30.0000  Ry
     charge density cutoff     =     240.0000  Ry
     scf convergence threshold =      1.0E-06
     mixing beta               =       0.7000
     number of iterations used =            8  plain     mixing
     Exchange-correlation= SLA  PW   PBX  PBC
                           (   1   4   3   4   0   0   0)

     celldm(1)=  14.073850  celldm(2)=   0.000000  celldm(3)=   0.000000
     celldm(4)=   0.000000  celldm(5)=   0.000000  celldm(6)=   0.000000

     crystal axes: (cart. coord. in units of alat)
               a(1) = (   1.000000   0.000000   0.000000 )
               a(2) = (  -0.919740   0.392528   0.000000 )
               a(3) = (  -0.040130  -0.196264   0.979730 )

     reciprocal axes: (cart. coord. in units 2 pi/alat)
               b(1) = (  1.000000  2.343116  0.510345 )
               b(2) = (  0.000000  2.547586  0.510345 )
               b(3) = (  0.000000  0.000000  1.020690 )

     PseudoPot. # 1 for Ti read from file:
     /home/pragov/projects/rrg-bengioy-ad/pragov/crystal_structure_design/SSSP/ti_pbe_v1.4.uspp.F.UPF
     MD5 check sum: 88a00a6731bd790ddea75d31a80cb452
     Pseudo is Ultrasoft + core correction, Zval = 12.0
     Generated by new atomic code, or converted to UPF format
     Using radial grid of  851 points,  6 beta functions with:
                l(1) =   0
                l(2) =   0
                l(3) =   1
                l(4) =   1
                l(5) =   2
                l(6) =   2
     Q(r) pseudized with  6 coefficients,  rinner =    1.000   1.000   1.000
                                                       1.000   1.000

     PseudoPot. # 2 for O  read from file:
     /home/pragov/projects/rrg-bengioy-ad/pragov/crystal_structure_design/SSSP/O.pbe-n-kjpaw_psl.0.1.UPF
     MD5 check sum: 0234752ac141de4415c5fc33072bef88
     Pseudo is Projector augmented-wave + core cor, Zval =  6.0
     Generated using "atomic" code by A. Dal Corso  v.5.0.99 svn rev. 10869
     Shape of augmentation charge: BESSEL
     Using radial grid of 1095 points,  4 beta functions with:
                l(1) =   0
                l(2) =   0
                l(3) =   1
                l(4) =   1
     Q(r) pseudized with 0 coefficients

     atomic species   valence    mass     pseudopotential
        Ti            12.00    47.86700     Ti( 1.00)
        O              6.00    15.99900     O ( 1.00)

      2 Sym. Ops., with inversion, found

                                    s                        frac. trans.

      isym =  1     identity

 cryst.   s( 1) = (     1          0          0      )
                  (     0          1          0      )
                  (     0          0          1      )

 cart.    s( 1) = (  1.0000000  0.0000000  0.0000000 )
                  (  0.0000000  1.0000000 -0.0000000 )
                  (  0.0000000  0.0000000  1.0000000 )

      isym =  2     inversion

 cryst.   s( 2) = (    -1          0          0      )
                  (     0         -1          0      )
                  (     0          0         -1      )

 cart.    s( 2) = ( -1.0000000 -0.0000000 -0.0000000 )
                  (  0.0000000 -1.0000000  0.0000000 )
                  (  0.0000000  0.0000000 -1.0000000 )

   Cartesian axes

     site n.     atom                  positions (alat units)
         1           Ti  tau(   1) = (   0.4524367  -0.0925093   0.7999247  )
         2           Ti  tau(   2) = (  -0.1761592   0.0360192   0.5179321  )
         3           Ti  tau(   3) = (   0.2162892   0.1602450   0.4617975  )
         4           Ti  tau(   4) = (  -0.4123066   0.2887736   0.1798049  )
         5           O   tau(   5) = (   0.4004806   0.1225835   0.2900646  )
         6           O   tau(   6) = (   0.2841849  -0.0581072   0.6119234  )
         7           O   tau(   7) = (  -0.2440548   0.2543714   0.3678061  )
         8           O   tau(   8) = (  -0.3603505   0.0736807   0.6896649  )
         9           O   tau(   9) = (  -0.6070294   0.1241191   0.9260932  )
        10           O   tau(  10) = (  -0.0124190   0.2070089   0.6195888  )
        11           O   tau(  11) = (   0.6471595   0.0721452   0.0536363  )
        12           O   tau(  12) = (   0.0525490  -0.0107447   0.3601407  )

   Crystallographic axes

     site n.     atom                  positions (cryst. coord.)
         1           Ti  tau(   1) = (  0.6439140  0.1725620  0.8164750  )
         2           Ti  tau(   2) = (  0.1725620  0.3560860  0.5286480  )
         3           Ti  tau(   3) = (  0.8274380  0.6439140  0.4713520  )
         4           Ti  tau(   4) = (  0.3560860  0.8274380  0.1835250  )
         5           O   tau(   5) = (  0.8357410  0.4603250  0.2960660  )
         6           O   tau(   6) = (  0.4603250  0.1642590  0.6245840  )
         7           O   tau(   7) = (  0.5396750  0.8357410  0.3754160  )
         8           O   tau(   8) = (  0.1642590  0.5396750  0.7039340  )
         9           O   tau(   9) = (  0.1564230  0.7888310  0.9452540  )
        10           O   tau(  10) = (  0.7888310  0.8435770  0.6324080  )
        11           O   tau(  11) = (  0.8435770  0.2111690  0.0547460  )
        12           O   tau(  12) = (  0.2111690  0.1564230  0.3675920  )

     number of k points=    14
                       cart. coord. in units 2pi/alat
        k(    1) = (   0.0000000   0.0000000   0.0000000), wk =   0.0740741
        k(    2) = (   0.0000000   0.0000000   0.3402300), wk =   0.1481481
        k(    3) = (   0.0000000   0.8491953   0.1701150), wk =   0.1481481
        k(    4) = (   0.0000000   0.8491953   0.5103449), wk =   0.1481481
        k(    5) = (   0.3333333   0.7810388   0.1701150), wk =   0.1481481
        k(    6) = (   0.3333333   0.7810388   0.5103449), wk =   0.1481481
        k(    7) = (   0.3333333   1.6302341   0.3402300), wk =   0.1481481
        k(    8) = (   0.3333333   1.6302341   0.0000000), wk =   0.1481481
        k(    9) = (   0.3333333  -0.0681565  -0.0000000), wk =   0.1481481
        k(   10) = (   0.3333333  -0.0681565   0.3402300), wk =   0.1481481
        k(   11) = (   0.0000000  -0.8491953   0.1701150), wk =   0.1481481
        k(   12) = (  -0.3333333  -0.7810388   0.1701150), wk =   0.1481481
        k(   13) = (  -0.3333333  -1.6302341   0.3402300), wk =   0.1481481
        k(   14) = (  -0.3333333   0.0681565   0.3402300), wk =   0.1481481

                       cryst. coord.
        k(    1) = (   0.0000000   0.0000000   0.0000000), wk =   0.0740741
        k(    2) = (   0.0000000   0.0000000   0.3333333), wk =   0.1481481
        k(    3) = (   0.0000000   0.3333333  -0.0000000), wk =   0.1481481
        k(    4) = (   0.0000000   0.3333333   0.3333333), wk =   0.1481481
        k(    5) = (   0.3333333  -0.0000000  -0.0000000), wk =   0.1481481
        k(    6) = (   0.3333333  -0.0000000   0.3333333), wk =   0.1481481
        k(    7) = (   0.3333333   0.3333333   0.0000000), wk =   0.1481481
        k(    8) = (   0.3333333   0.3333333  -0.3333333), wk =   0.1481481
        k(    9) = (   0.3333333  -0.3333333   0.0000000), wk =   0.1481481
        k(   10) = (   0.3333333  -0.3333333   0.3333333), wk =   0.1481481
        k(   11) = (   0.0000000  -0.3333333   0.3333333), wk =   0.1481481
        k(   12) = (  -0.3333333   0.0000000   0.3333333), wk =   0.1481481
        k(   13) = (  -0.3333333  -0.3333333   0.6666667), wk =   0.1481481
        k(   14) = (  -0.3333333   0.3333333   0.3333333), wk =   0.1481481

     Check: negative core charge=   -0.000016

     Initial potential from superposition of free atoms

     starting charge      91.9998, renormalised to      96.0000

     negative rho (up, down):  6.558E-03 0.000E+00
     Starting wfcs are   72 randomized atomic wfcs
     Checking if some PAW data can be deallocated...

     Self-consistent Calculation

     iteration #  1     ecut=    30.00 Ry     beta= 0.70
     Davidson diagonalization with overlap

     ethr =  1.00E-02,  avg # of iterations =  2.0

     negative rho (up, down):  8.509E-03 0.000E+00

     total energy              =    -810.14281969 Ry
     estimated scf accuracy    <       2.11357520 Ry

[...]

     total energy              =    -811.33213189 Ry
     estimated scf accuracy    <       0.00000163 Ry

     iteration # 12     ecut=    30.00 Ry     beta= 0.70
     Davidson diagonalization with overlap

     ethr =  1.70E-09,  avg # of iterations =  4.1

     negative rho (up, down):  5.914E-03 0.000E+00

     End of self-consistent calculation

          k = 0.0000 0.0000 0.0000 (  2909 PWs)   bands (ev):

   -51.2652 -51.2576 -51.2378 -51.2375 -27.6988 -27.6232 -27.5315 -27.5314
   -27.5111 -27.4249 -27.4207 -27.4205 -27.3626 -27.3624 -27.3321 -27.3165
   -12.5240 -11.9392 -11.6810 -11.6802 -11.1095 -10.9835 -10.9831 -10.9668
     0.6764   0.6768   0.8258   1.2108   1.4114   1.5254   1.7506   1.7507
     2.0990   2.1631   2.4809   2.6800   2.6807   3.3472   3.7893   3.7902
     3.9965   4.0251   4.0257   4.2097   4.5980   4.8234   4.8238   4.9246
     8.0656   8.1564   8.2272   8.2273   8.3551   8.3553   8.5106   8.7013
     8.7566   8.9407   8.9409   9.8152  10.8602  11.0146  11.0149  11.7877

     occupation numbers
     1.0000   1.0000   1.0000   1.0000   1.0000   1.0000   1.0000   1.0000
     1.0000   1.0000   1.0000   1.0000   1.0000   1.0000   1.0000   1.0000
     1.0000   1.0000   1.0000   1.0000   1.0000   1.0000   1.0000   1.0000
     1.0000   1.0000   1.0000   1.0000   1.0000   1.0000   1.0000   1.0000
     1.0000   1.0000   1.0000   1.0000   1.0000   1.0000   1.0000   1.0000
     1.0000   1.0000   1.0000   1.0000   1.0000   1.0000   1.0000   1.0000
     0.0000   0.0000   0.0000   0.0000   0.0000   0.0000   0.0000   0.0000
     0.0000   0.0000   0.0000   0.0000   0.0000   0.0000   0.0000   0.0000

[...]

          k = 0.0000-0.8492 0.1701 (  2992 PWs)   bands (ev):

[...]

          k =-0.3333-0.7810 0.1701 (  2992 PWs)   bands (ev):

[...]

          k =-0.3333 0.0682 0.3402 (  2961 PWs)   bands (ev):

   -51.2627 -51.2608 -51.2406 -51.2351 -27.6756 -27.6578 -27.5495 -27.5057
   -27.4813 -27.4545 -27.4341 -27.4038 -27.3687 -27.3571 -27.3260 -27.3220
   -12.3396 -12.1870 -11.7954 -11.5705 -11.0971 -11.0042 -10.9837 -10.8885
     0.4343   0.7457   0.9244   1.0515   1.5222   1.6715   1.6769   1.7956
     1.9432   2.1180   2.1366   2.9537   3.2531   3.5438   3.6331   3.6876
     3.7079   3.8006   4.0859   4.3596   4.4576   4.6834   4.7936   4.9062
     7.9916   8.0012   8.0589   8.2111   8.2535   8.4302   8.5246   8.5874
     8.8435   9.2341   9.3220   9.6518  10.3112  11.3054  11.4838  11.6583

     occupation numbers
     1.0000   1.0000   1.0000   1.0000   1.0000   1.0000   1.0000   1.0000
     1.0000   1.0000   1.0000   1.0000   1.0000   1.0000   1.0000   1.0000
     1.0000   1.0000   1.0000   1.0000   1.0000   1.0000   1.0000   1.0000
     1.0000   1.0000   1.0000   1.0000   1.0000   1.0000   1.0000   1.0000
     1.0000   1.0000   1.0000   1.0000   1.0000   1.0000   1.0000   1.0000
     1.0000   1.0000   1.0000   1.0000   1.0000   1.0000   1.0000   1.0000
     0.0000   0.0000   0.0000   0.0000   0.0000   0.0000   0.0000   0.0000
     0.0000   0.0000   0.0000   0.0000   0.0000   0.0000   0.0000   0.0000

     highest occupied, lowest unoccupied level (ev):     5.0886    7.8274

!    total energy              =    -811.33213242 Ry
     estimated scf accuracy    <       0.00000035 Ry

     The total energy is the sum of the following terms:
     one-electron contribution =    -550.24463745 Ry
     hartree contribution      =     310.66603173 Ry
     xc contribution           =    -131.39384646 Ry
     ewald contribution        =    -364.16757671 Ry
     one-center paw contrib.   =     -76.19210353 Ry
      -> PAW hartree energy AE =       0.00000000 Ry
      -> PAW hartree energy PS =       0.00000000 Ry
      -> PAW xc energy AE      =       0.00000000 Ry
      -> PAW xc energy PS      =       0.00000000 Ry
      -> total E_H with PAW    =     310.66603173 Ry
      -> total E_XC with PAW   =    -131.39384646 Ry

     convergence has been achieved in  12 iterations

     Writing all to output data dir calculations_bands/myprefix.save/

     General routines

     Parallel routines

     PAW routines

   This run was terminated on:  10:35:24   7Jun2023

   JOB DONE.