     Program PWSCF v.7.0 starts on  6Jun2023 at 18:43:12

     K-points division:     npool     =       2
     R & G space division:  proc/nbgrp/npool/nimage =       4

     Reading input from espresso_19786.pwi
Warning: card &CELL ignored
Warning: card / ignored

     Current dimensions of program PWSCF are:
     Max number of different atomic species (ntypx) = 10
     Max number of k-points (npk) =  40000
     Max angular momentum in pseudopotentials (lmaxx) =  4
     file Ba.pbe-spn-kjpaw_psl.1.0.0.UPF: wavefunction(s)  5S 6S renormalized
     file In.pbe-dn-rrkjus_psl.0.2.2.UPF: wavefunction(s)  5S renormalized
     file O.pbe-n-kjpaw_psl.0.1.UPF: wavefunction(s)  2P renormalized
     Message from routine setup:
     using ibrav=0 with symmetry is DISCOURAGED, use correct ibrav instead

     Using Slab Decomposition

     bravais-lattice index     =            0
     lattice parameter (alat)  =      13.8926  a.u.
     unit-cell volume          =    1630.8528 (a.u.)^3
     number of atoms/cell      =           14
     number of atomic types    =            4
     number of electrons       =       116.00
     number of Kohn-Sham states=           64
     kinetic-energy cutoff     =      30.0000  Ry
     charge density cutoff     =     240.0000  Ry
     scf convergence threshold =      1.0E-06
     mixing beta               =       0.7000
     number of iterations used =            8  plain     mixing
     Exchange-correlation= SLA  PW   PBX  PBC
                           (   1   4   3   4   0   0   0)

     celldm(1)=  13.892559  celldm(2)=   0.000000  celldm(3)=   0.000000
     celldm(4)=   0.000000  celldm(5)=   0.000000  celldm(6)=   0.000000

     crystal axes: (cart. coord. in units of alat)
               a(1) = (   1.000000   0.000000   0.000000 )
               a(2) = (  -0.667463   0.744643   0.000000 )
               a(3) = (   0.000000   0.000000   0.816808 )

     reciprocal axes: (cart. coord. in units 2 pi/alat)
               b(1) = (  1.000000  0.896354  0.000000 )
               b(2) = (  0.000000  1.342926  0.000000 )
               b(3) = (  0.000000  0.000000  1.224278 )

     PseudoPot. # 1 for Ba read from file:
     /home/pragov/projects/rrg-bengioy-ad/pragov/crystal_structure_design/SSSP/Ba.pbe-spn-kjpaw_psl.1.0.0.UPF
     MD5 check sum: c432291d3e53af55f19d5e8866385beb
     Pseudo is Projector augmented-wave + core cor, Zval = 10.0
     Generated using "atomic" code by A. Dal Corso  v.5.1
     Shape of augmentation charge: PSQ
     Using radial grid of 1251 points,  7 beta functions with:
                l(1) =   0
                l(2) =   0
                l(3) =   0
                l(4) =   1
                l(5) =   1
                l(6) =   2
                l(7) =   2
     Q(r) pseudized with 0 coefficients

     PseudoPot. # 2 for In read from file:
     /home/pragov/projects/rrg-bengioy-ad/pragov/crystal_structure_design/SSSP/In.pbe-dn-rrkjus_psl.0.2.2.UPF
     MD5 check sum: 25e7c42c3b55b68f4bf926be2e7201a4
     Pseudo is Ultrasoft + core correction, Zval = 13.0
     Generated using "atomic" code by A. Dal Corso  v.5.0.99 svn rev. 10869
     Using radial grid of 1241 points,  6 beta functions with:
                l(1) =   0
                l(2) =   0
                l(3) =   1
                l(4) =   1
                l(5) =   2
                l(6) =   2
     Q(r) pseudized with 0 coefficients

     PseudoPot. # 3 for Sb read from file:
     /home/pragov/projects/rrg-bengioy-ad/pragov/crystal_structure_design/SSSP/sb_pbe_v1.4.uspp.F.UPF
     MD5 check sum: 9bc50dfb53373b713f5709b9110fe27f
     Pseudo is Ultrasoft + core correction, Zval = 15.0
     Generated by new atomic code, or converted to UPF format
     Using radial grid of  891 points,  6 beta functions with:
                l(1) =   0
                l(2) =   0
                l(3) =   1
                l(4) =   1
                l(5) =   2
                l(6) =   2
     Q(r) pseudized with  8 coefficients,  rinner =    1.350   1.350   1.350
                                                       1.350   1.350

     PseudoPot. # 4 for O  read from file:
     /home/pragov/projects/rrg-bengioy-ad/pragov/crystal_structure_design/SSSP/O.pbe-n-kjpaw_psl.0.1.UPF
     MD5 check sum: 0234752ac141de4415c5fc33072bef88
     Pseudo is Projector augmented-wave + core cor, Zval =  6.0
     Generated using "atomic" code by A. Dal Corso  v.5.0.99 svn rev. 10869
     Shape of augmentation charge: BESSEL
     Using radial grid of 1095 points,  4 beta functions with:
                l(1) =   0
                l(2) =   0
                l(3) =   1
                l(4) =   1
     Q(r) pseudized with 0 coefficients

     atomic species   valence    mass     pseudopotential
        Ba            10.00   137.32700     Ba( 1.00)
        In            13.00   114.81800     In( 1.00)
        Sb            15.00   121.76000     Sb( 1.00)
        O              6.00    15.99900     O ( 1.00)

      4 Sym. Ops., with inversion, found

                                    s                        frac. trans.

      isym =  1     identity

 cryst.   s( 1) = (     1          0          0      )
                  (     0          1          0      )
                  (     0          0          1      )

 cart.    s( 1) = (  1.0000000  0.0000000  0.0000000 )
                  (  0.0000000  1.0000000  0.0000000 )
                  (  0.0000000  0.0000000  1.0000000 )

      isym =  2     180 deg rotation - cart. axis [0,0,1]

[...]

      isym =  3     inversion

[...]

      isym =  4     inv. 180 deg rotation - cart. axis [0,0,1]

 cryst.   s( 4) = (     1          0          0      )
                  (     0          1          0      )
                  (     0          0         -1      )

 cart.    s( 4) = (  1.0000000  0.0000000  0.0000000 )
                  (  0.0000000  1.0000000  0.0000000 )
                  (  0.0000000  0.0000000 -1.0000000 )

   Cartesian axes

     site n.     atom                  positions (alat units)
         1           Ba  tau(   1) = (  -0.0766861   0.4808180   0.0000000  )
         2           Ba  tau(   2) = (   0.7579827   0.1080782   0.4084041  )
         3           Ba  tau(   3) = (  -0.4254460   0.6365645   0.4084041  )
         4           Ba  tau(   4) = (   0.4092228   0.2638247   0.0000000  )
         5           In  tau(   5) = (   0.0000000   0.0000000   0.0000000  )
         6           Sb  tau(   6) = (   0.1662683   0.3723213   0.4084041  )
         7           O   tau(   7) = (   0.0869048   0.1946042   0.6012190  )
         8           O   tau(   8) = (   0.2456319   0.5500385   0.2155892  )
         9           O   tau(   9) = (   0.2456319   0.5500385   0.6012190  )
        10           O   tau(  10) = (   0.0869048   0.1946042   0.2155892  )
        11           O   tau(  11) = (  -0.4011711   0.6257240   0.0000000  )
        12           O   tau(  12) = (   0.4208516   0.2586315   0.4084041  )
        13           O   tau(  13) = (  -0.0883150   0.4860112   0.4084041  )
        14           O   tau(  14) = (   0.7337078   0.1189187   0.0000000  )

   Crystallographic axes

     site n.     atom                  positions (cryst. coord.)
         1           Ba  tau(   1) = (  0.3542970  0.6457030  0.0000000  )
         2           Ba  tau(   2) = (  0.8548590  0.1451410  0.5000000  )
         3           Ba  tau(   3) = (  0.1451410  0.8548590  0.5000000  )
         4           Ba  tau(   4) = (  0.6457030  0.3542970  0.0000000  )
         5           In  tau(   5) = (  0.0000000  0.0000000  0.0000000  )
         6           Sb  tau(   6) = (  0.5000000  0.5000000  0.5000000  )
         7           O   tau(   7) = (  0.2613390  0.2613390  0.7360590  )
         8           O   tau(   8) = (  0.7386610  0.7386610  0.2639410  )
         9           O   tau(   9) = (  0.7386610  0.7386610  0.7360590  )
        10           O   tau(  10) = (  0.2613390  0.2613390  0.2639410  )
        11           O   tau(  11) = (  0.1596990  0.8403010  0.0000000  )
        12           O   tau(  12) = (  0.6526770  0.3473230  0.5000000  )
        13           O   tau(  13) = (  0.3473230  0.6526770  0.5000000  )
        14           O   tau(  14) = (  0.8403010  0.1596990  0.0000000  )

     number of k points=    10
                       cart. coord. in units 2pi/alat
        k(    1) = (   0.0000000   0.0000000   0.0000000), wk =   0.0740741
        k(    2) = (   0.0000000   0.0000000   0.4080925), wk =   0.1481481
        k(    3) = (   0.0000000   0.4476420   0.0000000), wk =   0.1481481
        k(    4) = (   0.0000000   0.4476420   0.4080925), wk =   0.2962963
        k(    5) = (   0.3333333   0.2987846   0.0000000), wk =   0.1481481
        k(    6) = (   0.3333333   0.2987846   0.4080925), wk =   0.2962963
        k(    7) = (   0.3333333   0.7464266   0.0000000), wk =   0.1481481
        k(    8) = (   0.3333333   0.7464266   0.4080925), wk =   0.2962963
        k(    9) = (   0.3333333  -0.1488574   0.0000000), wk =   0.1481481
        k(   10) = (   0.3333333  -0.1488574   0.4080925), wk =   0.2962963

                       cryst. coord.
        k(    1) = (   0.0000000   0.0000000   0.0000000), wk =   0.0740741
        k(    2) = (   0.0000000   0.0000000   0.3333333), wk =   0.1481481
        k(    3) = (   0.0000000   0.3333333   0.0000000), wk =   0.1481481
        k(    4) = (   0.0000000   0.3333333   0.3333333), wk =   0.2962963
        k(    5) = (   0.3333333   0.0000000   0.0000000), wk =   0.1481481
        k(    6) = (   0.3333333   0.0000000   0.3333333), wk =   0.2962963
        k(    7) = (   0.3333333   0.3333333   0.0000000), wk =   0.1481481
        k(    8) = (   0.3333333   0.3333333   0.3333333), wk =   0.2962963
        k(    9) = (   0.3333333  -0.3333333   0.0000000), wk =   0.1481481
        k(   10) = (   0.3333333  -0.3333333   0.3333333), wk =   0.2962963

     Check: negative core charge=   -0.000008

     Initial potential from superposition of free atoms

     starting charge     114.9282, renormalised to     116.0000
     Starting wfcs are   70 randomized atomic wfcs
     Checking if some PAW data can be deallocated...

     Self-consistent Calculation

     iteration #  1     ecut=    30.00 Ry     beta= 0.70
     Davidson diagonalization with overlap

     ethr =  1.00E-02,  avg # of iterations =  5.8

     negative rho (up, down):  4.075E-02 0.000E+00

     total energy              =   -2406.82778800 Ry
     estimated scf accuracy    <       3.41497665 Ry

[...]

     negative rho (up, down):  2.173E-04 0.000E+00

[...]

     c_bands:  2 eigenvalues not converged
     ethr =  4.14E-06,  avg # of iterations =  6.6

[...]

     total energy              =   -2408.48273862 Ry
     estimated scf accuracy    <       0.00000870 Ry

     iteration # 13     ecut=    30.00 Ry     beta= 0.70
     Davidson diagonalization with overlap

     ethr =  7.50E-09,  avg # of iterations =  1.3

     End of self-consistent calculation

          k = 0.0000 0.0000 0.0000 (  4489 PWs)   bands (ev):

   -19.8548 -19.7852 -19.6872 -19.6565 -19.6527 -16.9146 -16.7990 -16.6777
   -16.6014  -9.2705  -8.2568  -8.2460  -7.6052  -7.6048  -7.2588  -7.1294
    -6.7642  -3.8306  -3.7561  -3.7519  -3.4989  -3.4579  -2.4435  -2.2650
    -2.2504  -2.0834  -1.9612  -1.9363  -1.9057  -1.8981  -1.8512  -1.8115
    -1.7909  -1.5338   0.7064   4.0165   4.0264   4.9128   5.7850   6.2826
     6.7515   6.9267   7.0329   7.0410   7.3988   7.4088   7.7149   7.8488
     7.8506   7.9872   8.0219   8.1358   8.1492   8.2544   8.3329   8.3526
     8.4025   8.5829  10.9719  12.6619  13.0229  13.3381  13.8356  13.9519

     occupation numbers
     1.0000   1.0000   1.0000   1.0000   1.0000   1.0000   1.0000   1.0000
     1.0000   1.0000   1.0000   1.0000   1.0000   1.0000   1.0000   1.0000
     1.0000   1.0000   1.0000   1.0000   1.0000   1.0000   1.0000   1.0000
     1.0000   1.0000   1.0000   1.0000   1.0000   1.0000   1.0000   1.0000
     1.0000   1.0000   1.0000   1.0000   1.0000   1.0000   1.0000   1.0000
     1.0000   1.0000   1.0000   1.0000   1.0000   1.0000   1.0000   1.0000
     1.0000   1.0000   1.0000   1.0000   1.0000   1.0000   1.0000   1.0000
     1.0000   1.0000   0.0000   0.0000   0.0000   0.0000   0.0000   0.0000

[...]

          k = 0.3333-0.1489 0.4081 (  4538 PWs)   bands (ev):

   -19.8610 -19.7923 -19.6895 -19.6581 -19.6550 -16.8734 -16.8228 -16.6690
   -16.6232  -9.2725  -8.4110  -8.3007  -7.6245  -7.5252  -7.1677  -7.1102
    -6.7979  -3.8270  -3.7455  -3.7263  -3.6412  -3.3593  -2.2766  -2.2656
    -2.1135  -2.0524  -2.0444  -2.0145  -1.9640  -1.8221  -1.7826  -1.7557
    -1.7449  -1.5969   0.9696   3.2046   4.7147   5.0834   6.2109   6.3294
     6.5579   6.6690   6.8037   7.0163   7.1544   7.1590   7.3456   7.3987
     7.4476   7.8222   7.8966   8.0544   8.0867   8.1097   8.1928   8.1981
     8.3840   8.5430  12.0926  13.1289  13.4614  13.6128  13.9173  13.9707

     occupation numbers
     1.0000   1.0000   1.0000   1.0000   1.0000   1.0000   1.0000   1.0000
     1.0000   1.0000   1.0000   1.0000   1.0000   1.0000   1.0000   1.0000
     1.0000   1.0000   1.0000   1.0000   1.0000   1.0000   1.0000   1.0000
     1.0000   1.0000   1.0000   1.0000   1.0000   1.0000   1.0000   1.0000
     1.0000   1.0000   1.0000   1.0000   1.0000   1.0000   1.0000   1.0000
     1.0000   1.0000   1.0000   1.0000   1.0000   1.0000   1.0000   1.0000
     1.0000   1.0000   1.0000   1.0000   1.0000   1.0000   1.0000   1.0000
     1.0000   1.0000   0.0000   0.0000   0.0000   0.0000   0.0000   0.0000

     highest occupied, lowest unoccupied level (ev):     8.5829   10.9719

!    total energy              =   -2408.48273863 Ry
     estimated scf accuracy    <       0.00000043 Ry

     The total energy is the sum of the following terms:
     one-electron contribution =    -293.63791329 Ry
     hartree contribution      =     229.30722139 Ry
     xc contribution           =    -233.15034462 Ry
     ewald contribution        =    -534.96939046 Ry
     one-center paw contrib.   =   -1576.03231165 Ry
      -> PAW hartree energy AE =      57.55469154 Ry
      -> PAW hartree energy PS =     -57.33174763 Ry
      -> PAW xc energy AE      =    -788.47794923 Ry
      -> PAW xc energy PS      =      38.34190618 Ry
      -> total E_H with PAW    =     229.53016531 Ry
      -> total E_XC with PAW   =    -983.28638767 Ry

     convergence has been achieved in  13 iterations

     Writing all to output data dir calculations_bands/myprefix.save/

     General routines

     Parallel routines

     PAW routines

   This run was terminated on:  18:43:36   6Jun2023

   JOB DONE.