     Program PWSCF v.7.1 starts on 15Jul2023 at 13:58:28

     Reading input from espresso_4865.pwi
Warning: card &CELL ignored
Warning: card / ignored

     Current dimensions of program PWSCF are:
     Max number of different atomic species (ntypx) = 10
     Max number of k-points (npk) =  40000
     Max angular momentum in pseudopotentials (lmaxx) =  4
     file In.pbe-dn-rrkjus_psl.0.2.2.UPF: wavefunction(s)  5S renormalized
     Message from routine setup:
     the system is metallic, specify occupations
     Message from routine setup:
     using ibrav=0 with symmetry is DISCOURAGED, use correct ibrav instead

     K-points division:     npool     =       2
     R & G space division:  proc/nbgrp/npool/nimage =       4
     Subspace diagonalization in iterative solution of the eigenvalue problem:
     a serial algorithm will be used

     Using Slab Decomposition

     bravais-lattice index     =            0
     lattice parameter (alat)  =      14.5617  a.u.
     unit-cell volume          =    1689.6681 (a.u.)^3
     number of atoms/cell      =            7
     number of atomic types    =            3
     number of electrons       =        65.00 (up:  35.00, down:  30.00)
     number of Kohn-Sham states=           64
     kinetic-energy cutoff     =      30.0000  Ry
     charge density cutoff     =     240.0000  Ry
     scf convergence threshold =      1.0E-06
     mixing beta               =       0.7000
     number of iterations used =            8  plain     mixing
     Exchange-correlation= SLA  PW   PBE  PBE
                           (   1   4   3   4   0   0   0)

     celldm(1)=  14.561651  celldm(2)=   0.000000  celldm(3)=   0.000000
     celldm(4)=   0.000000  celldm(5)=   0.000000  celldm(6)=   0.000000

     crystal axes: (cart. coord. in units of alat)
               a(1) = (   1.000000   0.000000   0.000000 )
               a(2) = (   0.328587   0.944474   0.000000 )
               a(3) = (  -0.664294  -0.472237   0.579402 )

     reciprocal axes: (cart. coord. in units 2 pi/alat)
               b(1) = (  1.000000 -0.347905  0.862959 )
               b(2) = (  0.000000  1.058791  0.862959 )
               b(3) = (  0.000000  0.000000  1.725918 )

     PseudoPot. # 1 for Mn read from file:
     /lustre07/scratch/pragov/crystal_structure_design/utils/SSSP/mn_pbe_v1.5.uspp.F.UPF
     MD5 check sum: 82ef2b46521d7a7d9e736dc3972e4928
     Pseudo is Ultrasoft + core correction, Zval = 15.0
     Generated by new atomic code, or converted to UPF format
     Using radial grid of  859 points,  6 beta functions with:
                l(1) =   0
                l(2) =   0
                l(3) =   1
                l(4) =   1
                l(5) =   2
                l(6) =   2
     Q(r) pseudized with  8 coefficients,  rinner =    0.950   0.950   0.950
                                                       0.950   0.950

     PseudoPot. # 2 for In read from file:
     /lustre07/scratch/pragov/crystal_structure_design/utils/SSSP/In.pbe-dn-rrkjus_psl.0.2.2.UPF
     MD5 check sum: 25e7c42c3b55b68f4bf926be2e7201a4
     Pseudo is Ultrasoft + core correction, Zval = 13.0
     Generated using "atomic" code by A. Dal Corso  v.5.0.99 svn rev. 10869
     Using radial grid of 1241 points,  6 beta functions with:
                l(1) =   0
                l(2) =   0
                l(3) =   1
                l(4) =   1
                l(5) =   2
                l(6) =   2
     Q(r) pseudized with 0 coefficients

     PseudoPot. # 3 for Te read from file:
     /lustre07/scratch/pragov/crystal_structure_design/utils/SSSP/Te_pbe_v1.uspp.F.UPF
     MD5 check sum: c319670d6894cc26e93307826a071b75
     Pseudo is Ultrasoft + core correction, Zval =  6.0
     Generated by new atomic code, or converted to UPF format
     Using radial grid of  891 points,  5 beta functions with:
                l(1) =   0
                l(2) =   0
                l(3) =   1
                l(4) =   1
                l(5) =   2
     Q(r) pseudized with  6 coefficients,  rinner =    1.800   1.800   1.800
                                                       1.800   1.800

     atomic species   valence    mass     pseudopotential
        Mn            15.00    54.93804     Mn( 1.00)
        In            13.00   114.81800     In( 1.00)
        Te             6.00   127.60000     Te( 1.00)

     Starting magnetic structure
     atomic species   magnetization
        Mn           0.000
        In           0.000
        Te           0.000

      2 Sym. Ops. (no inversion) found

                                    s                        frac. trans.

      isym =  1     identity

 cryst.   s( 1) = (     1          0          0      )
                  (     0          1          0      )
                  (     0          0          1      )

 cart.    s( 1) = (  1.0000000  0.0000000 -0.0000000 )
                  (  0.0000000  1.0000000 -0.0000000 )
                  (  0.0000000  0.0000000  1.0000000 )

      isym =  2     inv. 180 deg rotation - cart. axis [0,0,1]

 cryst.   s( 2) = (     1          0          0      )
                  (     0          1          0      )
                  (    -1         -1         -1      )

 cart.    s( 2) = (  1.0000000  0.0000000  0.0000000 )
                  (  0.0000000  1.0000000  0.0000000 )
                  (  0.0000000  0.0000000 -1.0000000 )

   Cartesian axes

     site n.     atom                  positions (alat units)
         1           Mn  tau(   1) = (   0.6642937   0.4722368   0.0000000  )
         2           In  tau(   2) = (   0.5000000  -0.0000000   0.2897008  )
         3           In  tau(   3) = (   0.1642937   0.4722368   0.2897008  )
         4           Te  tau(   4) = (   0.5173772   0.3677960   0.3074954  )
         5           Te  tau(   5) = (   0.9893746   0.3260559   0.0000000  )
         6           Te  tau(   6) = (  -0.1469178  -0.1044418   0.2719063  )
         7           Te  tau(   7) = (   0.6330471   0.8273003   0.0000000  )

   Crystallographic axes

     site n.     atom                  positions (cryst. coord.)
         1           Mn  tau(   1) = (  0.5000000  0.5000000  0.0000000  )
         2           In  tau(   2) = (  0.7500000  0.2500000  0.5000000  )
         3           In  tau(   3) = (  0.2500000  0.7500000  0.5000000  )
         4           Te  tau(   4) = (  0.6547750  0.6547750  0.5307120  )
         5           Te  tau(   5) = (  0.8759380  0.3452250  0.0000000  )
         6           Te  tau(   6) = (  0.1240620  0.1240620  0.4692880  )
         7           Te  tau(   7) = (  0.3452250  0.8759380  0.0000000  )

     number of k points=    10
                       cart. coord. in units 2pi/alat
        k(    1) = (   0.0000000   0.0000000   0.0000000), wk =   0.0370370
        k(    2) = (   0.0000000   0.0000000   0.5753061), wk =   0.0740741
        k(    3) = (   0.0000000   0.3529303   0.2876531), wk =   0.1481481
        k(    4) = (   0.0000000   0.3529303   0.8629592), wk =   0.0740741
        k(    5) = (   0.3333333  -0.1159684   0.2876531), wk =   0.1481481
        k(    6) = (   0.3333333  -0.1159684   0.8629592), wk =   0.0740741
        k(    7) = (   0.3333333   0.2369619   0.5753061), wk =   0.1481481
        k(    8) = (   0.3333333   0.2369619   0.0000000), wk =   0.0740741
        k(    9) = (   0.3333333  -0.4688987  -0.0000000), wk =   0.0740741
        k(   10) = (   0.3333333  -0.4688987   0.5753061), wk =   0.1481481

                       cryst. coord.
        k(    1) = (   0.0000000   0.0000000   0.0000000), wk =   0.0370370
        k(    2) = (   0.0000000   0.0000000   0.3333333), wk =   0.0740741
        k(    3) = (   0.0000000   0.3333333   0.0000000), wk =   0.1481481
        k(    4) = (   0.0000000   0.3333333   0.3333333), wk =   0.0740741
        k(    5) = (   0.3333333   0.0000000   0.0000000), wk =   0.1481481
        k(    6) = (   0.3333333   0.0000000   0.3333333), wk =   0.0740741
        k(    7) = (   0.3333333   0.3333333   0.0000000), wk =   0.1481481
        k(    8) = (   0.3333333   0.3333333  -0.3333333), wk =   0.0740741
        k(    9) = (   0.3333333  -0.3333333   0.0000000), wk =   0.0740741
        k(   10) = (   0.3333333  -0.3333333   0.3333333), wk =   0.1481481

     Check: negative core charge=   -0.000003
     Generating pointlists ...
     new r_m :   0.1470 (alat units)  2.1410 (a.u.) for type    1
     new r_m :   0.1521 (alat units)  2.2143 (a.u.) for type    2
     new r_m :   0.1470 (alat units)  2.1410 (a.u.) for type    3

     Initial potential from superposition of free atoms

     starting charge      64.4916, renormalised to      65.0000
     Starting wfcs are   47 randomized atomic wfcs +   17 random wfcs

     Self-consistent Calculation

     iteration #  1     ecut=    30.00 Ry     beta= 0.70
     Davidson diagonalization with overlap

     ethr =  1.00E-02,  avg # of iterations =  7.3

     total energy              =    -605.10475626 Ry
     estimated scf accuracy    <       2.32069443 Ry

     total magnetization       =     5.00 Bohr mag/cell
     absolute magnetization    =     5.00 Bohr mag/cell

[...]

     negative rho (up, down):  0.000E+00 3.846E-04

[...]

     total energy              =    -606.99146040 Ry
     estimated scf accuracy    <       0.00000699 Ry

[...]

     iteration # 15     ecut=    30.00 Ry     beta= 0.70
     Davidson diagonalization with overlap

     ethr =  7.54E-09,  avg # of iterations =  1.1

     negative rho (up, down):  0.000E+00 4.227E-04

     Magnetic moment per site  (integrated on atomic sphere of radius R)
     atom   1 (R=0.147)  charge= 13.4459  magn=  4.2293
     atom   2 (R=0.152)  charge= 10.9523  magn=  0.0268
     atom   3 (R=0.152)  charge= 10.9523  magn=  0.0268
     atom   4 (R=0.147)  charge=  3.2727  magn=  0.0274
     atom   5 (R=0.147)  charge=  3.2727  magn=  0.0274
     atom   6 (R=0.147)  charge=  3.2727  magn=  0.0274
     atom   7 (R=0.147)  charge=  3.2727  magn=  0.0274

     End of self-consistent calculation

 ------ SPIN UP ------------

          k = 0.0000 0.0000 0.0000 (  4725 PWs)   bands (ev):

   -76.5192 -45.2379 -45.2379 -45.2064  -9.6391  -9.6391  -9.6330  -9.5733
    -9.5733  -9.5303  -9.5275  -9.5126  -9.5087  -9.4899  -6.5167  -5.2941
    -5.2626  -5.2625  -0.7489  -0.1319   1.1561   1.7752   1.8616   2.0314
     2.0314   2.5075   2.5681   2.5681   2.7498   2.8905   2.8905   3.2914
     4.9567   5.1337   5.1338   5.4896   7.1080   7.7667   7.9802   8.9774
     8.9774   9.1571   9.1571   9.6892  10.3287  10.8757  10.8757  11.5272
    11.6993  12.5696  13.7652  13.9698  14.7012  14.7012  14.8388  15.3359
    15.4649  15.4649  15.6470  15.9859  16.1580  16.1666  16.1666  16.7593

     occupation numbers
     1.0000   1.0000   1.0000   1.0000   1.0000   1.0000   1.0000   1.0000
     1.0000   1.0000   1.0000   1.0000   1.0000   1.0000   1.0000   1.0000
     1.0000   1.0000   1.0000   1.0000   1.0000   1.0000   1.0000   1.0000
     1.0000   1.0000   1.0000   1.0000   1.0000   1.0000   1.0000   1.0000
     1.0000   1.0000   1.0000   0.0000   0.0000   0.0000   0.0000   0.0000
     0.0000   0.0000   0.0000   0.0000   0.0000   0.0000   0.0000   0.0000
     0.0000   0.0000   0.0000   0.0000   0.0000   0.0000   0.0000   0.0000
     0.0000   0.0000   0.0000   0.0000   0.0000   0.0000   0.0000   0.0000

[...]

 ------ SPIN DOWN ----------

[...]

          k = 0.3333-0.4689 0.5753 (  4692 PWs)   bands (ev):

   -71.8024 -40.6261 -40.6258 -40.5827  -9.6207  -9.6183  -9.6109  -9.5795
    -9.5572  -9.5333  -9.5124  -9.5067  -9.4928  -9.4833  -5.8540  -5.6620
    -5.6018  -5.2227  -0.4387   0.2533   1.8841   2.2651   2.3428   2.4240
     2.7591   3.0015   3.0998   3.7314   3.8126   4.1035   5.7392   6.2210
     6.4446   6.4724   6.6217   7.3547   7.5843   7.9841   8.5881   8.7366
     9.2207   9.9625  10.1716  10.4836  10.8377  11.0644  11.1401  11.9447
    12.4459  12.4581  13.1524  13.3819  13.6700  13.8127  15.0180  15.1059
    15.7307  16.0785  16.2248  16.3660  16.6883  16.6888  16.8450  17.1047

     occupation numbers
     1.0000   1.0000   1.0000   1.0000   1.0000   1.0000   1.0000   1.0000
     1.0000   1.0000   1.0000   1.0000   1.0000   1.0000   1.0000   1.0000
     1.0000   1.0000   1.0000   1.0000   1.0000   1.0000   1.0000   1.0000
     1.0000   1.0000   1.0000   1.0000   1.0000   1.0000   0.0000   0.0000
     0.0000   0.0000   0.0000   0.0000   0.0000   0.0000   0.0000   0.0000
     0.0000   0.0000   0.0000   0.0000   0.0000   0.0000   0.0000   0.0000
     0.0000   0.0000   0.0000   0.0000   0.0000   0.0000   0.0000   0.0000
     0.0000   0.0000   0.0000   0.0000   0.0000   0.0000   0.0000   0.0000

     highest occupied, lowest unoccupied level (ev):     5.1338    5.2441

!    total energy              =    -606.99146109 Ry
     estimated scf accuracy    <       0.00000021 Ry

     The total energy is the sum of the following terms:
     one-electron contribution =    -346.92998751 Ry
     hartree contribution      =     204.22632559 Ry
     xc contribution           =    -179.66966900 Ry
     ewald contribution        =    -284.61813016 Ry

     total magnetization       =     5.00 Bohr mag/cell
     absolute magnetization    =     5.04 Bohr mag/cell

     convergence has been achieved in  15 iterations

     Writing all to output data dir bands_nm/myprefix.save/

     General routines

     Parallel routines

   This run was terminated on:  14: 0:30  15Jul2023

   JOB DONE.