     Program PWSCF v.7.1 starts on 14Jul2023 at 18:22:14

     Reading input from espresso_20570.pwi
Warning: card &CELL ignored
Warning: card / ignored

     Current dimensions of program PWSCF are:
     Max number of different atomic species (ntypx) = 10
     Max number of k-points (npk) =  40000
     Max angular momentum in pseudopotentials (lmaxx) =  4
     Message from routine setup:
     using ibrav=0 with symmetry is DISCOURAGED, use correct ibrav instead

     K-points division:     npool     =       2
     R & G space division:  proc/nbgrp/npool/nimage =       4
     Subspace diagonalization in iterative solution of the eigenvalue problem:
     a serial algorithm will be used

     Using Slab Decomposition

     bravais-lattice index     =            0
     lattice parameter (alat)  =      13.8453  a.u.
     unit-cell volume          =    1444.9496 (a.u.)^3
     number of atoms/cell      =            8
     number of atomic types    =            3
     number of electrons       =        64.00
     number of Kohn-Sham states=           64
     kinetic-energy cutoff     =      30.0000  Ry
     charge density cutoff     =     240.0000  Ry
     scf convergence threshold =      1.0E-06
     mixing beta               =       0.7000
     number of iterations used =            8  plain     mixing
     Exchange-correlation=  SLA  PW   PBX  PBC
                           (   1   4   3   4   0   0   0)

     celldm(1)=  13.845308  celldm(2)=   0.000000  celldm(3)=   0.000000
     celldm(4)=   0.000000  celldm(5)=   0.000000  celldm(6)=   0.000000

     crystal axes: (cart. coord. in units of alat)
               a(1) = (   1.000000   0.000000   0.000000 )
               a(2) = (  -0.333068   0.942903   0.000000 )
               a(3) = (   0.000000   0.000000   0.577401 )

     reciprocal axes: (cart. coord. in units 2 pi/alat)
               b(1) = (  1.000000  0.353237  0.000000 )
               b(2) = (  0.000000  1.060555  0.000000 )
               b(3) = (  0.000000  0.000000  1.731897 )

     PseudoPot. # 1 for Sr read from file:
     /lustre07/scratch/pragov/crystal_structure_design/utils/SSSP/Sr_pbe_v1.uspp.F.UPF
     MD5 check sum: 6b418c05fbe9db5448babca5e47b7a5b
     Pseudo is Ultrasoft + core correction, Zval = 10.0
     Generated by new atomic code, or converted to UPF format
     Using radial grid of  883 points,  6 beta functions with:
                l(1) =   0
                l(2) =   0
                l(3) =   1
                l(4) =   1
                l(5) =   2
                l(6) =   2
     Q(r) pseudized with  6 coefficients,  rinner =    1.400   1.400   1.400
                                                       1.400   1.400

     PseudoPot. # 2 for Ca read from file:
     /lustre07/scratch/pragov/crystal_structure_design/utils/SSSP/Ca_pbe_v1.uspp.F.UPF
     MD5 check sum: 403a4c14b9e4d4dfdc3024c9a3812218
     Pseudo is Ultrasoft + core correction, Zval = 10.0
     Generated by new atomic code, or converted to UPF format
     Using radial grid of  845 points,  6 beta functions with:
                l(1) =   0
                l(2) =   0
                l(3) =   1
                l(4) =   1
                l(5) =   2
                l(6) =   2
     Q(r) pseudized with  8 coefficients,  rinner =    1.500   1.500   1.500
                                                       1.500   1.500

     PseudoPot. # 3 for S  read from file:
     /lustre07/scratch/pragov/crystal_structure_design/utils/SSSP/s_pbe_v1.4.uspp.F.UPF
     MD5 check sum: 88d86576ff6df21479756cfb9bdac1df
     Pseudo is Ultrasoft + core correction, Zval =  6.0
     Generated by new atomic code, or converted to UPF format
     Using radial grid of  907 points,  6 beta functions with:
                l(1) =   0
                l(2) =   0
                l(3) =   1
                l(4) =   1
                l(5) =   2
                l(6) =   2
     Q(r) pseudized with  8 coefficients,  rinner =    1.300   1.300   1.300
                                                       1.300   1.300

     atomic species   valence    mass     pseudopotential
        Sr            10.00    87.62000     Sr( 1.00)
        Ca            10.00    40.07800     Ca( 1.00)
        S              6.00    32.06000     S ( 1.00)

      4 Sym. Ops., with inversion, found

                                    s                        frac. trans.

      isym =  1     identity

 cryst.   s( 1) = (     1          0          0      )
                  (     0          1          0      )
                  (     0          0          1      )

 cart.    s( 1) = (  1.0000000  0.0000000  0.0000000 )
                  (  0.0000000  1.0000000  0.0000000 )
                  (  0.0000000  0.0000000  1.0000000 )

      isym =  2     180 deg rotation - cart. axis [0,0,1]

[...]

      isym =  3     inversion

[...]

      isym =  4     inv. 180 deg rotation - cart. axis [0,0,1]

 cryst.   s( 4) = (     1          0          0      )
                  (     0          1          0      )
                  (     0          0         -1      )

 cart.    s( 4) = (  1.0000000  0.0000000  0.0000000 )
                  (  0.0000000  1.0000000  0.0000000 )
                  (  0.0000000  0.0000000 -1.0000000 )

   Cartesian axes

     site n.     atom                  positions (alat units)
         1           Sr  tau(   1) = (  -0.1665339   0.4714514   0.2887007  )
         2           Sr  tau(   2) = (   0.5000000   0.0000000   0.2887007  )
         3           Sr  tau(   3) = (   0.3334661   0.4714514   0.0000000  )
         4           Ca  tau(   4) = (   0.0000000   0.0000000   0.0000000  )
         5           S   tau(   5) = (  -0.0059824   0.7115494   0.0000000  )
         6           S   tau(   6) = (   0.6729145   0.2313535   0.0000000  )
         7           S   tau(   7) = (   0.5063035   0.7158075   0.2887007  )
         8           S   tau(   8) = (   0.1606286   0.2270953   0.2887007  )

   Crystallographic axes

     site n.     atom                  positions (cryst. coord.)
         1           Sr  tau(   1) = ( -0.0000000  0.5000000  0.5000000  )
         2           Sr  tau(   2) = (  0.5000000  0.0000000  0.5000000  )
         3           Sr  tau(   3) = (  0.5000000  0.5000000  0.0000000  )
         4           Ca  tau(   4) = (  0.0000000  0.0000000  0.0000000  )
         5           S   tau(   5) = (  0.2453630  0.7546370  0.0000000  )
         6           S   tau(   6) = (  0.7546370  0.2453630  0.0000000  )
         7           S   tau(   7) = (  0.7591530  0.7591530  0.5000000  )
         8           S   tau(   8) = (  0.2408470  0.2408470  0.5000000  )

     number of k points=    10
                       cart. coord. in units 2pi/alat
        k(    1) = (   0.0000000   0.0000000   0.0000000), wk =   0.0740741
        k(    2) = (   0.0000000   0.0000000   0.5772991), wk =   0.1481481
        k(    3) = (   0.0000000   0.3535182   0.0000000), wk =   0.1481481
        k(    4) = (   0.0000000   0.3535182   0.5772991), wk =   0.2962963
        k(    5) = (   0.3333333   0.1177456   0.0000000), wk =   0.1481481
        k(    6) = (   0.3333333   0.1177456   0.5772991), wk =   0.2962963
        k(    7) = (   0.3333333   0.4712638   0.0000000), wk =   0.1481481
        k(    8) = (   0.3333333   0.4712638   0.5772991), wk =   0.2962963
        k(    9) = (   0.3333333  -0.2357726   0.0000000), wk =   0.1481481
        k(   10) = (   0.3333333  -0.2357726   0.5772991), wk =   0.2962963

                       cryst. coord.
        k(    1) = (   0.0000000   0.0000000   0.0000000), wk =   0.0740741
        k(    2) = (   0.0000000   0.0000000   0.3333333), wk =   0.1481481
        k(    3) = (   0.0000000   0.3333333   0.0000000), wk =   0.1481481
        k(    4) = (   0.0000000   0.3333333   0.3333333), wk =   0.2962963
        k(    5) = (   0.3333333  -0.0000000   0.0000000), wk =   0.1481481
        k(    6) = (   0.3333333  -0.0000000   0.3333333), wk =   0.2962963
        k(    7) = (   0.3333333   0.3333333   0.0000000), wk =   0.1481481
        k(    8) = (   0.3333333   0.3333333   0.3333333), wk =   0.2962963
        k(    9) = (   0.3333333  -0.3333333   0.0000000), wk =   0.1481481
        k(   10) = (   0.3333333  -0.3333333   0.3333333), wk =   0.2962963

     Check: negative core charge=   -0.000003

     Initial potential from superposition of free atoms

     starting charge      63.8934, renormalised to      64.0000

     negative rho (up, down):  1.913E-01 0.000E+00
     Starting wfcs are   65 randomized atomic wfcs

     Self-consistent Calculation

     iteration #  1     ecut=    30.00 Ry     beta= 0.70
     Davidson diagonalization with overlap

     ethr =  1.00E-02,  avg # of iterations =  5.8

     Threshold (ethr) on eigenvalues was too large:
     Diagonalizing with lowered threshold

     Davidson diagonalization with overlap

[...]

     negative rho (up, down):  1.955E-01 0.000E+00

     total energy              =    -382.77943641 Ry
     estimated scf accuracy    <       0.63276182 Ry

[...]

     total energy              =    -383.01546633 Ry
     estimated scf accuracy    <       0.00000432 Ry

     iteration #  7     ecut=    30.00 Ry     beta= 0.70
     Davidson diagonalization with overlap

     ethr =  6.75E-09,  avg # of iterations =  2.5

     negative rho (up, down):  2.011E-01 0.000E+00

     End of self-consistent calculation

          k = 0.0000 0.0000 0.0000 (  3979 PWs)   bands (ev):

   -33.7515 -27.9272 -27.5968 -27.5901 -14.7736 -14.7607 -14.7286 -10.0979
   -10.0743  -9.9274  -9.8034  -9.6824  -9.6728  -9.6188  -9.6154  -9.5922
    -5.1316  -4.7378  -4.4043  -4.3231   3.0837   3.2166   4.1412   4.6551
     4.6595   4.7091   4.7101   5.1777   5.1972   5.7327   5.7338   5.7368
     8.2148   9.3439  10.0636  10.0684  10.0795  10.7932  10.8164  10.9247
    11.0615  11.6712  11.7141  11.9216  11.9728  11.9781  12.5534  12.7048
    12.9295  12.9850  13.5478  13.5832  14.1685  14.3240  14.3321  14.5061
    14.7264  14.8736  15.1592  15.5097  15.5243  15.6670  16.1808  16.6503

     occupation numbers
     1.0000   1.0000   1.0000   1.0000   1.0000   1.0000   1.0000   1.0000
     1.0000   1.0000   1.0000   1.0000   1.0000   1.0000   1.0000   1.0000
     1.0000   1.0000   1.0000   1.0000   1.0000   1.0000   1.0000   1.0000
     1.0000   1.0000   1.0000   1.0000   1.0000   1.0000   1.0000   1.0000
     0.0000   0.0000   0.0000   0.0000   0.0000   0.0000   0.0000   0.0000
     0.0000   0.0000   0.0000   0.0000   0.0000   0.0000   0.0000   0.0000
     0.0000   0.0000   0.0000   0.0000   0.0000   0.0000   0.0000   0.0000
     0.0000   0.0000   0.0000   0.0000   0.0000   0.0000   0.0000   0.0000

[...]

          k = 0.3333-0.2358 0.5773 (  4012 PWs)   bands (ev):

   -33.7501 -27.9223 -27.5918 -27.5854 -14.7649 -14.7634 -14.7578 -10.0902
   -10.0417  -9.9934  -9.7842  -9.7593  -9.7069  -9.6960  -9.6838  -9.5995
    -4.6517  -4.6412  -4.5780  -4.4459   3.4534   3.6649   3.9919   4.0932
     4.5623   4.7191   4.7920   4.8451   4.8971   4.8990   5.0502   5.0972
     8.9041   8.9252  10.2660  10.4203  11.4177  11.4437  11.7463  11.8722
    11.9456  12.0202  12.1955  12.5522  12.5577  12.6548  12.8461  12.9409
    13.0747  13.1931  13.2272  13.4046  13.5036  13.5693  13.8096  14.2710
    14.7441  15.1838  15.2058  15.7048  16.0902  16.4951  16.6789  16.8890

     occupation numbers
     1.0000   1.0000   1.0000   1.0000   1.0000   1.0000   1.0000   1.0000
     1.0000   1.0000   1.0000   1.0000   1.0000   1.0000   1.0000   1.0000
     1.0000   1.0000   1.0000   1.0000   1.0000   1.0000   1.0000   1.0000
     1.0000   1.0000   1.0000   1.0000   1.0000   1.0000   1.0000   1.0000
     0.0000   0.0000   0.0000   0.0000   0.0000   0.0000   0.0000   0.0000
     0.0000   0.0000   0.0000   0.0000   0.0000   0.0000   0.0000   0.0000
     0.0000   0.0000   0.0000   0.0000   0.0000   0.0000   0.0000   0.0000
     0.0000   0.0000   0.0000   0.0000   0.0000   0.0000   0.0000   0.0000

     highest occupied, lowest unoccupied level (ev):     5.7368    8.2148

!    total energy              =    -383.01546758 Ry
     estimated scf accuracy    <       0.00000032 Ry

     The total energy is the sum of the following terms:
     one-electron contribution =     -74.63972594 Ry
     hartree contribution      =      59.27750766 Ry
     xc contribution           =    -100.88654859 Ry
     ewald contribution        =    -266.76670072 Ry

     convergence has been achieved in   7 iterations

     Writing all to output data dir bands_nm/myprefix.save/

     General routines

     Parallel routines

   This run was terminated on:  18:22:23  14Jul2023

   JOB DONE.