     Program PWSCF v.7.1 starts on 16Jul2023 at 13:48:20

     Reading input from espresso_26943.pwi
Warning: card &CELL ignored
Warning: card / ignored

     Current dimensions of program PWSCF are:
     Max number of different atomic species (ntypx) = 10
     Max number of k-points (npk) =  40000
     Max angular momentum in pseudopotentials (lmaxx) =  4
     file Ba.pbe-spn-kjpaw_psl.1.0.0.UPF: wavefunction(s)  5S 6S renormalized
     Message from routine setup:
     using ibrav=0 with symmetry is DISCOURAGED, use correct ibrav instead

     K-points division:     npool     =       2
     R & G space division:  proc/nbgrp/npool/nimage =       4
     Subspace diagonalization in iterative solution of the eigenvalue problem:
     a serial algorithm will be used

     Using Slab Decomposition

     bravais-lattice index     =            0
     lattice parameter (alat)  =       8.3945  a.u.
     unit-cell volume          =    1604.7315 (a.u.)^3
     number of atoms/cell      =           14
     number of atomic types    =            2
     number of electrons       =        80.00
     number of Kohn-Sham states=           64
     kinetic-energy cutoff     =      30.0000  Ry
     charge density cutoff     =     240.0000  Ry
     scf convergence threshold =      1.0E-06
     mixing beta               =       0.7000
     number of iterations used =            8  plain     mixing
     Exchange-correlation= PBE
                           (   1   4   3   4   0   0   0)

     celldm(1)=   8.394509  celldm(2)=   0.000000  celldm(3)=   0.000000
     celldm(4)=   0.000000  celldm(5)=   0.000000  celldm(6)=   0.000000

     crystal axes: (cart. coord. in units of alat)
               a(1) = (   1.000000   0.000000   0.000000 )
               a(2) = (   0.000000   1.244382   0.000000 )
               a(3) = (   0.000000   0.347741   2.180031 )

     reciprocal axes: (cart. coord. in units 2 pi/alat)
               b(1) = (  1.000000  0.000000  0.000000 )
               b(2) = (  0.000000  0.803612 -0.128186 )
               b(3) = (  0.000000  0.000000  0.458709 )

     PseudoPot. # 1 for Ba read from file:
     /lustre07/scratch/pragov/crystal_structure_design/utils/SSSP/Ba.pbe-spn-kjpaw_psl.1.0.0.UPF
     MD5 check sum: c432291d3e53af55f19d5e8866385beb
     Pseudo is Projector augmented-wave + core cor, Zval = 10.0
     Generated using "atomic" code by A. Dal Corso  v.5.1
     Shape of augmentation charge: PSQ
     Using radial grid of 1251 points,  7 beta functions with:
                l(1) =   0
                l(2) =   0
                l(3) =   0
                l(4) =   1
                l(5) =   1
                l(6) =   2
                l(7) =   2
     Q(r) pseudized with 0 coefficients

     PseudoPot. # 2 for N  read from file:
     /lustre07/scratch/pragov/crystal_structure_design/utils/SSSP/N.pbe-n-radius_5.UPF
     MD5 check sum: 16739722b17309cd8fe442a2ace49922
     Pseudo is Ultrasoft + core correction, Zval =  5.0
     Generated using "atomic" code by A. Dal Corso  v.5.1
     Using radial grid of 1085 points,  4 beta functions with:
                l(1) =   0
                l(2) =   0
                l(3) =   1
                l(4) =   1
     Q(r) pseudized with 0 coefficients

     atomic species   valence    mass     pseudopotential
        Ba            10.00   137.32700     Ba( 1.00)
        N              5.00    14.00700     N ( 1.00)

      4 Sym. Ops., with inversion, found ( 2 have fractional translation)

                                    s                        frac. trans.

      isym =  1     identity

 cryst.   s( 1) = (     1          0          0      )
                  (     0          1          0      )
                  (     0          0          1      )

 cart.    s( 1) = (  1.0000000  0.0000000  0.0000000 )
                  (  0.0000000  1.0000000  0.0000000 )
                  (  0.0000000  0.0000000  1.0000000 )

      isym =  2     180 deg rotation - cart. axis [1,0,0]

 cryst.   s( 2) = (     1          0          0      )    f =( -0.5000000 )
                  (     0         -1          0      )       ( -0.0000000 )
                  (     0          0         -1      )       ( -0.0000000 )

 cart.    s( 2) = (  1.0000000  0.0000000  0.0000000 )    f =( -0.5000000 )
                  (  0.0000000 -1.0000000 -0.0000000 )       ( -0.0000000 )
                  (  0.0000000  0.0000000 -1.0000000 )       ( -0.0000000 )

      isym =  3     inversion

 cryst.   s( 3) = (    -1          0          0      )
                  (     0         -1          0      )
                  (     0          0         -1      )

 cart.    s( 3) = ( -1.0000000  0.0000000  0.0000000 )
                  (  0.0000000 -1.0000000 -0.0000000 )
                  (  0.0000000  0.0000000 -1.0000000 )

      isym =  4     inv. 180 deg rotation - cart. axis [1,0,0]

 cryst.   s( 4) = (    -1          0          0      )    f =(  0.5000000 )
                  (     0          1          0      )       (  0.0000000 )
                  (     0          0          1      )       (  0.0000000 )

 cart.    s( 4) = ( -1.0000000  0.0000000  0.0000000 )    f =(  0.5000000 )
                  (  0.0000000  1.0000000  0.0000000 )       (  0.0000000 )
                  (  0.0000000  0.0000000  1.0000000 )       (  0.0000000 )

   Cartesian axes

     site n.     atom                  positions (alat units)
         1           Ba  tau(   1) = (   0.7500000   0.4840124   1.7031013  )
         2           Ba  tau(   2) = (   0.2500000   1.1081105   0.4769298  )
         3           N   tau(   3) = (   0.7500000   1.1113017   1.4429473  )
         4           N   tau(   4) = (   0.2500000   0.4808212   0.7370838  )
         5           N   tau(   5) = (   0.2500000   1.3833656   1.9701965  )
         6           N   tau(   6) = (   0.7500000   0.2087572   0.2098345  )
         7           N   tau(   7) = (   0.2500000   1.1170325   1.9402211  )
         8           N   tau(   8) = (   0.7500000   0.4750904   0.2398100  )
         9           N   tau(   9) = (   0.2500000   0.8531979   1.9150657  )
        10           N   tau(  10) = (   0.7500000   0.7389250   0.2649653  )
        11           N   tau(  11) = (   0.2500000   0.4779835   1.2712829  )
        12           N   tau(  12) = (   0.7500000   1.1141393   0.9087481  )
        13           N   tau(  13) = (   0.2500000   0.4792729   1.0040002  )
        14           N   tau(  14) = (   0.7500000   1.1128499   1.1760308  )

   Crystallographic axes

     site n.     atom                  positions (cryst. coord.)
         1           Ba  tau(   1) = (  0.7500000  0.1706450  0.7812280  )
         2           Ba  tau(   2) = (  0.2500000  0.8293550  0.2187720  )
         3           N   tau(   3) = (  0.7500000  0.7080900  0.6618930  )
         4           N   tau(   4) = (  0.2500000  0.2919100  0.3381070  )
         5           N   tau(   5) = (  0.2500000  0.8591380  0.9037470  )
         6           N   tau(   6) = (  0.7500000  0.1408620  0.0962530  )
         7           N   tau(   7) = (  0.2500000  0.6489520  0.8899970  )
         8           N   tau(   8) = (  0.7500000  0.3510480  0.1100030  )
         9           N   tau(   9) = (  0.2500000  0.4401560  0.8784580  )
        10           N   tau(  10) = (  0.7500000  0.5598440  0.1215420  )
        11           N   tau(  11) = (  0.2500000  0.2211530  0.5831490  )
        12           N   tau(  12) = (  0.7500000  0.7788470  0.4168510  )
        13           N   tau(  13) = (  0.2500000  0.2564510  0.4605440  )
        14           N   tau(  14) = (  0.7500000  0.7435490  0.5394560  )

     number of k points=    10
                       cart. coord. in units 2pi/alat
        k(    1) = (   0.0000000   0.0000000   0.0000000), wk =   0.0740741
        k(    2) = (   0.0000000   0.0000000   0.1529030), wk =   0.1481481
        k(    3) = (   0.0000000   0.2678706  -0.0427285), wk =   0.1481481
        k(    4) = (   0.0000000   0.2678706   0.1101745), wk =   0.1481481
        k(    5) = (   0.0000000   0.2678706  -0.1956315), wk =   0.1481481
        k(    6) = (   0.3333333   0.0000000   0.0000000), wk =   0.1481481
        k(    7) = (   0.3333333   0.0000000   0.1529030), wk =   0.2962963
        k(    8) = (   0.3333333   0.2678706  -0.0427285), wk =   0.2962963
        k(    9) = (   0.3333333   0.2678706   0.1101745), wk =   0.2962963
        k(   10) = (   0.3333333   0.2678706  -0.1956315), wk =   0.2962963

                       cryst. coord.
        k(    1) = (   0.0000000   0.0000000   0.0000000), wk =   0.0740741
        k(    2) = (   0.0000000   0.0000000   0.3333333), wk =   0.1481481
        k(    3) = (   0.0000000   0.3333333   0.0000000), wk =   0.1481481
        k(    4) = (   0.0000000   0.3333333   0.3333333), wk =   0.1481481
        k(    5) = (   0.0000000   0.3333333  -0.3333333), wk =   0.1481481
        k(    6) = (   0.3333333   0.0000000   0.0000000), wk =   0.1481481
        k(    7) = (   0.3333333   0.0000000   0.3333333), wk =   0.2962963
        k(    8) = (   0.3333333   0.3333333   0.0000000), wk =   0.2962963
        k(    9) = (   0.3333333   0.3333333   0.3333333), wk =   0.2962963
        k(   10) = (   0.3333333   0.3333333  -0.3333333), wk =   0.2962963

     Check: negative core charge=   -0.000003

     Initial potential from superposition of free atoms

     starting charge      79.9659, renormalised to      80.0000
     Starting wfcs are   58 randomized atomic wfcs +    6 random wfcs
     Checking if some PAW data can be deallocated...

     Self-consistent Calculation

     iteration #  1     ecut=    30.00 Ry     beta= 0.70
     Davidson diagonalization with overlap

     ethr =  1.00E-02,  avg # of iterations =  7.8

     total energy              =   -1114.03232309 Ry
     estimated scf accuracy    <       1.72131989 Ry

[...]

     total energy              =   -1114.67265288 Ry
     estimated scf accuracy    <       0.00000527 Ry

     iteration # 12     ecut=    30.00 Ry     beta= 0.70
     Davidson diagonalization with overlap

     ethr =  6.58E-09,  avg # of iterations =  2.0

     End of self-consistent calculation

          k = 0.0000 0.0000 0.0000 (  4459 PWs)   bands (ev):

   -22.3795 -22.3691 -18.8591 -18.7376 -18.5847 -18.4917 -14.5515 -14.5284
   -14.2888 -14.2403  -7.7595  -7.6224  -7.6216  -7.5859  -7.4885  -7.4516
    -3.3115  -3.1889  -3.1252  -3.1089  -3.0220  -2.8079  -2.7359  -2.7121
    -2.3978  -2.3946  -2.2670  -2.1726  -0.9895  -0.9413  -0.8591  -0.7642
     2.5840   2.5843   2.6716   2.9866   3.0405   3.1214   3.3945   3.4981
     7.3077   7.5331   8.0775   8.1884   8.3061   8.5118   8.8581   9.1178
     9.1547   9.2183   9.5112   9.6897  10.1638  10.5418  10.8837  10.9063
    10.9973  11.8445  11.9226  12.1488  12.1983  12.5345  13.7058  14.3068

     occupation numbers
     1.0000   1.0000   1.0000   1.0000   1.0000   1.0000   1.0000   1.0000
     1.0000   1.0000   1.0000   1.0000   1.0000   1.0000   1.0000   1.0000
     1.0000   1.0000   1.0000   1.0000   1.0000   1.0000   1.0000   1.0000
     1.0000   1.0000   1.0000   1.0000   1.0000   1.0000   1.0000   1.0000
     1.0000   1.0000   1.0000   1.0000   1.0000   1.0000   1.0000   1.0000
     0.0000   0.0000   0.0000   0.0000   0.0000   0.0000   0.0000   0.0000
     0.0000   0.0000   0.0000   0.0000   0.0000   0.0000   0.0000   0.0000
     0.0000   0.0000   0.0000   0.0000   0.0000   0.0000   0.0000   0.0000

[...]

          k = 0.3333 0.2679-0.1956 (  4453 PWs)   bands (ev):

   -22.3568 -22.3536 -18.8282 -18.7687 -18.5492 -18.5257 -14.5564 -14.5370
   -14.2748 -14.2621  -7.7745  -7.7590  -7.6835  -7.6504  -7.6235  -7.6055
    -3.3255  -3.2981  -2.9879  -2.9376  -2.7876  -2.6824  -2.5582  -2.5191
    -2.4542  -2.3800  -2.2312  -2.2239  -1.3266  -1.2013  -0.8719  -0.8629
     2.4645   2.5781   2.8419   2.9083   3.0634   3.2012   3.2426   3.3854
     7.6649   7.8629   8.1205   8.3596   8.4735   8.5961   8.7880   8.9439
     9.5396   9.8296  10.2036  10.3903  10.4963  10.9772  11.1588  11.3024
    11.4517  11.6416  11.6724  12.4253  13.0584  13.1223  13.6061  14.2252

     occupation numbers
     1.0000   1.0000   1.0000   1.0000   1.0000   1.0000   1.0000   1.0000
     1.0000   1.0000   1.0000   1.0000   1.0000   1.0000   1.0000   1.0000
     1.0000   1.0000   1.0000   1.0000   1.0000   1.0000   1.0000   1.0000
     1.0000   1.0000   1.0000   1.0000   1.0000   1.0000   1.0000   1.0000
     1.0000   1.0000   1.0000   1.0000   1.0000   1.0000   1.0000   1.0000
     0.0000   0.0000   0.0000   0.0000   0.0000   0.0000   0.0000   0.0000
     0.0000   0.0000   0.0000   0.0000   0.0000   0.0000   0.0000   0.0000
     0.0000   0.0000   0.0000   0.0000   0.0000   0.0000   0.0000   0.0000

     highest occupied, lowest unoccupied level (ev):     3.4981    7.3077

!    total energy              =   -1114.67265307 Ry
     estimated scf accuracy    <       0.00000096 Ry

     The total energy is the sum of the following terms:
     one-electron contribution =    -139.67878716 Ry
     hartree contribution      =     104.55218776 Ry
     xc contribution           =    -105.14227968 Ry
     ewald contribution        =    -224.49664573 Ry
     one-center paw contrib.   =    -749.90712826 Ry
      -> PAW hartree energy AE =      57.06899969 Ry
      -> PAW hartree energy PS =     -56.84324411 Ry
      -> PAW xc energy AE      =    -788.40270799 Ry
      -> PAW xc energy PS      =      38.26982414 Ry
      -> total E_H with PAW    =     104.77794335 Ry
      -> total E_XC with PAW   =    -855.27516352 Ry

     convergence has been achieved in  12 iterations

     Writing all to output data dir bands_nm/myprefix.save/

     General routines

     Parallel routines

     PAW routines

   This run was terminated on:  13:48:30  16Jul2023

   JOB DONE.