     Program PWSCF v.7.1 starts on 13Jul2023 at  6:47:51

     Reading input from espresso_15677.pwi
Warning: card &CELL ignored
Warning: card / ignored

     Current dimensions of program PWSCF are:
     Max number of different atomic species (ntypx) = 10
     Max number of k-points (npk) =  40000
     Max angular momentum in pseudopotentials (lmaxx) =  4
     Message from routine setup:
     using ibrav=0 with symmetry is DISCOURAGED, use correct ibrav instead

     K-points division:     npool     =       2
     R & G space division:  proc/nbgrp/npool/nimage =       8
     Subspace diagonalization in iterative solution of the eigenvalue problem:
     a serial algorithm will be used

     Using Slab Decomposition

     bravais-lattice index     =            0
     lattice parameter (alat)  =       7.4902  a.u.
     unit-cell volume          =     677.9734 (a.u.)^3
     number of atoms/cell      =           12
     number of atomic types    =            3
     number of electrons       =        20.00
     number of Kohn-Sham states=           64
     kinetic-energy cutoff     =      30.0000  Ry
     charge density cutoff     =     240.0000  Ry
     scf convergence threshold =      1.0E-06
     mixing beta               =       0.7000
     number of iterations used =            8  plain     mixing
     Exchange-correlation= PBE
                           (   1   4   3   4   0   0   0)

     celldm(1)=   7.490151  celldm(2)=   0.000000  celldm(3)=   0.000000
     celldm(4)=   0.000000  celldm(5)=   0.000000  celldm(6)=   0.000000

     crystal axes: (cart. coord. in units of alat)
               a(1) = (   1.000000   0.000000   0.000000 )
               a(2) = (  -0.009400   0.999956   0.000000 )
               a(3) = (   0.000000   0.000000   1.613467 )

     reciprocal axes: (cart. coord. in units 2 pi/alat)
               b(1) = (  1.000000  0.009401  0.000000 )
               b(2) = (  0.000000  1.000044  0.000000 )
               b(3) = (  0.000000  0.000000  0.619783 )

     PseudoPot. # 1 for Li read from file:
     /lustre07/scratch/pragov/crystal_structure_design/utils/SSSP/li_pbe_v1.4.uspp.F.UPF
     MD5 check sum: e912e257baa3777c20ea3d68f190483c
     Pseudo is Ultrasoft, Zval =  3.0
     Generated by new atomic code, or converted to UPF format
     Using radial grid of  751 points,  5 beta functions with:
                l(1) =   0
                l(2) =   0
                l(3) =   0
                l(4) =   1
                l(5) =   1
     Q(r) pseudized with 10 coefficients,  rinner =    1.150   1.150   1.150

     PseudoPot. # 2 for B  read from file:
     /lustre07/scratch/pragov/crystal_structure_design/utils/SSSP/b_pbe_v1.4.uspp.F.UPF
     MD5 check sum: cc6de2960df11db49a60e589f9ebb39b
     Pseudo is Ultrasoft + core correction, Zval =  3.0
     Generated by new atomic code, or converted to UPF format
     Using radial grid of  781 points,  4 beta functions with:
                l(1) =   0
                l(2) =   0
                l(3) =   1
                l(4) =   1
     Q(r) pseudized with  8 coefficients,  rinner =    1.100   1.100   1.100

     PseudoPot. # 3 for H  read from file:
     /lustre07/scratch/pragov/crystal_structure_design/utils/SSSP/H.pbe-rrkjus_psl.1.0.0.UPF
     MD5 check sum: f52b6d4d1c606e5624b1dc7b2218f220
     Pseudo is Ultrasoft, Zval =  1.0
     Generated using "atomic" code by A. Dal Corso  v.5.1
     Using radial grid of  929 points,  2 beta functions with:
                l(1) =   0
                l(2) =   0
     Q(r) pseudized with 0 coefficients

     atomic species   valence    mass     pseudopotential
        Li             3.00     6.94000     Li( 1.00)
        B              3.00    10.81000     B ( 1.00)
        H              1.00     1.00800     H ( 1.00)

      2 Sym. Ops. (no inversion) found ( 1 have fractional translation)

                                    s                        frac. trans.

      isym =  1     identity

 cryst.   s( 1) = (     1          0          0      )
                  (     0          1          0      )
                  (     0          0          1      )

 cart.    s( 1) = (  1.0000000  0.0000000  0.0000000 )
                  (  0.0000000  1.0000000  0.0000000 )
                  (  0.0000000  0.0000000  1.0000000 )

      isym =  2     inv. 180 deg rotation - cart. axis [0,0,1]

 cryst.   s( 2) = (     1          0          0      )    f =(  0.0000000 )
                  (     0          1          0      )       (  0.0000000 )
                  (     0          0         -1      )       (  0.5000000 )

 cart.    s( 2) = (  1.0000000  0.0000000  0.0000000 )    f =(  0.0000000 )
                  (  0.0000000  1.0000000  0.0000000 )       (  0.0000000 )
                  (  0.0000000  0.0000000 -1.0000000 )       (  0.8067337 )

   Cartesian axes

     site n.     atom                  positions (alat units)
         1           Li  tau(   1) = (   0.0054295   0.0054808   0.8067337  )
         2           Li  tau(   2) = (   0.0054295   0.0054808   0.0000000  )
         3           B   tau(   3) = (   0.5055247   0.9812206   1.2101006  )
         4           B   tau(   4) = (   0.9764251   0.5147263   0.4033669  )
         5           H   tau(   5) = (   0.5257956   0.1632178   0.9597485  )
         6           H   tau(   6) = (   0.1582678   0.5273067   0.6537189  )
         7           H   tau(   7) = (   0.5257956   0.1632178   1.4604526  )
         8           H   tau(   8) = (   0.1582678   0.5273067   0.1530148  )
         9           H   tau(   9) = (   0.7316421   0.7732108   1.2101006  )
        10           H   tau(  10) = (   0.7662989   0.7388784   0.4033669  )
        11           H   tau(  11) = (   0.2487907   0.8109102   1.2101006  )
        12           H   tau(  12) = (   0.8085356   0.2564027   0.4033669  )

   Crystallographic axes

     site n.     atom                  positions (cryst. coord.)
         1           Li  tau(   1) = (  0.0054810  0.0054810  0.5000000  )
         2           Li  tau(   2) = (  0.0054810  0.0054810  0.0000000  )
         3           B   tau(   3) = (  0.5147490  0.9812640  0.7500000  )
         4           B   tau(   4) = (  0.9812640  0.5147490  0.2500000  )
         5           H   tau(   5) = (  0.5273300  0.1632250  0.5948360  )
         6           H   tau(   6) = (  0.1632250  0.5273300  0.4051640  )
         7           H   tau(   7) = (  0.5273300  0.1632250  0.9051640  )
         8           H   tau(   8) = (  0.1632250  0.5273300  0.0948360  )
         9           H   tau(   9) = (  0.7389110  0.7732450  0.7500000  )
        10           H   tau(  10) = (  0.7732450  0.7389110  0.2500000  )
        11           H   tau(  11) = (  0.2564140  0.8109460  0.7500000  )
        12           H   tau(  12) = (  0.8109460  0.2564140  0.2500000  )

     number of k points=    10
                       cart. coord. in units 2pi/alat
        k(    1) = (   0.0000000   0.0000000   0.0000000), wk =   0.0740741
        k(    2) = (   0.0000000   0.0000000   0.2065944), wk =   0.1481481
        k(    3) = (   0.0000000   0.3333481   0.0000000), wk =   0.1481481
        k(    4) = (   0.0000000   0.3333481   0.2065944), wk =   0.2962963
        k(    5) = (   0.3333333   0.0031336   0.0000000), wk =   0.1481481
        k(    6) = (   0.3333333   0.0031336   0.2065944), wk =   0.2962963
        k(    7) = (   0.3333333   0.3364817   0.0000000), wk =   0.1481481
        k(    8) = (   0.3333333   0.3364817   0.2065944), wk =   0.2962963
        k(    9) = (   0.3333333  -0.3302144   0.0000000), wk =   0.1481481
        k(   10) = (   0.3333333  -0.3302144   0.2065944), wk =   0.2962963

                       cryst. coord.
        k(    1) = (   0.0000000   0.0000000   0.0000000), wk =   0.0740741
        k(    2) = (   0.0000000   0.0000000   0.3333333), wk =   0.1481481
        k(    3) = (   0.0000000   0.3333333   0.0000000), wk =   0.1481481
        k(    4) = (   0.0000000   0.3333333   0.3333333), wk =   0.2962963
        k(    5) = (   0.3333333   0.0000000   0.0000000), wk =   0.1481481
        k(    6) = (   0.3333333   0.0000000   0.3333333), wk =   0.2962963
        k(    7) = (   0.3333333   0.3333333   0.0000000), wk =   0.1481481
        k(    8) = (   0.3333333   0.3333333   0.3333333), wk =   0.2962963
        k(    9) = (   0.3333333  -0.3333333   0.0000000), wk =   0.1481481
        k(   10) = (   0.3333333  -0.3333333   0.3333333), wk =   0.2962963

     Initial potential from superposition of free atoms

     starting charge      19.0979, renormalised to      20.0000
     Starting wfcs are   26 randomized atomic wfcs +   38 random wfcs

     Self-consistent Calculation

     iteration #  1     ecut=    30.00 Ry     beta= 0.70
     Davidson diagonalization with overlap

     ethr =  1.00E-02,  avg # of iterations =  7.1

     total energy              =     -51.13815348 Ry
     estimated scf accuracy    <       0.82449646 Ry

[...]

     total energy              =     -51.32215193 Ry
     estimated scf accuracy    <       0.00000139 Ry

     iteration #  6     ecut=    30.00 Ry     beta= 0.70
     Davidson diagonalization with overlap

     ethr =  6.93E-09,  avg # of iterations =  2.1

     End of self-consistent calculation

          k = 0.0000 0.0000 0.0000 (  1881 PWs)   bands (ev):

   -45.5943 -45.5900  -9.2780  -8.3241  -4.3346  -3.2858  -2.9425  -2.3627
    -2.2858  -2.2108   4.1728   5.1765   6.4302   6.6110   6.9798   8.1236
     8.9875   9.3001   9.7964  10.1760  10.3670  11.7043  11.8874  11.9907
    12.6132  13.2630  13.6670  14.4607  15.2727  16.5877  16.7513  17.4859
    18.0880  18.1162  19.1468  19.4843  19.6113  20.9096  21.3410  21.9786
    22.1355  23.8686  23.9551  25.3430  25.8864  26.0540  27.1501  27.8687
    27.8844  28.3206  28.6756  29.6105  29.9693  31.4189  31.9785  32.0779
    32.1700  32.1861  32.8430  33.7296  33.9947  35.0089  35.2044  35.5519

     occupation numbers
     1.0000   1.0000   1.0000   1.0000   1.0000   1.0000   1.0000   1.0000
     1.0000   1.0000   0.0000   0.0000   0.0000   0.0000   0.0000   0.0000
     0.0000   0.0000   0.0000   0.0000   0.0000   0.0000   0.0000   0.0000
     0.0000   0.0000   0.0000   0.0000   0.0000   0.0000   0.0000   0.0000
     0.0000   0.0000   0.0000   0.0000   0.0000   0.0000   0.0000   0.0000
     0.0000   0.0000   0.0000   0.0000   0.0000   0.0000   0.0000   0.0000
     0.0000   0.0000   0.0000   0.0000   0.0000   0.0000   0.0000   0.0000
     0.0000   0.0000   0.0000   0.0000   0.0000   0.0000   0.0000   0.0000

[...]

          k = 0.3333-0.3302 0.2066 (  1872 PWs)   bands (ev):

   -45.5924 -45.5908  -8.2405  -8.0298  -4.4453  -4.1649  -3.4426  -3.2935
    -2.8577  -2.8277   4.2809   4.9154   6.0028   6.4676   7.4156   8.3156
     8.5338   9.0834   9.4092  10.3125  11.0059  11.8186  13.0856  13.4757
    13.9492  14.2964  14.8906  15.5445  16.6864  17.0460  17.7885  18.3435
    18.9744  19.2633  19.8709  20.3924  20.9311  21.9448  22.0213  22.3226
    22.6328  23.0972  23.8601  24.1939  24.9772  25.2283  25.7821  25.9413
    26.8465  27.3729  27.5175  28.0487  28.5926  28.8968  29.1181  29.6228
    29.9388  30.7873  30.9696  31.8893  32.6162  32.6612  33.7922  34.3266

     occupation numbers
     1.0000   1.0000   1.0000   1.0000   1.0000   1.0000   1.0000   1.0000
     1.0000   1.0000   0.0000   0.0000   0.0000   0.0000   0.0000   0.0000
     0.0000   0.0000   0.0000   0.0000   0.0000   0.0000   0.0000   0.0000
     0.0000   0.0000   0.0000   0.0000   0.0000   0.0000   0.0000   0.0000
     0.0000   0.0000   0.0000   0.0000   0.0000   0.0000   0.0000   0.0000
     0.0000   0.0000   0.0000   0.0000   0.0000   0.0000   0.0000   0.0000
     0.0000   0.0000   0.0000   0.0000   0.0000   0.0000   0.0000   0.0000
     0.0000   0.0000   0.0000   0.0000   0.0000   0.0000   0.0000   0.0000

     highest occupied, lowest unoccupied level (ev):    -2.1235    3.8384

!    total energy              =     -51.32215232 Ry
     estimated scf accuracy    <       0.00000005 Ry

     The total energy is the sum of the following terms:
     one-electron contribution =     -23.71251464 Ry
     hartree contribution      =      13.48147148 Ry
     xc contribution           =     -18.55895777 Ry
     ewald contribution        =     -22.53215140 Ry

     convergence has been achieved in   6 iterations

     Writing all to output data dir bands_nm/myprefix.save/

     General routines

     Parallel routines

   This run was terminated on:   6:50:18  13Jul2023

   JOB DONE.