     Program PWSCF v.7.1 starts on 14Jul2023 at 13:16:42

     Reading input from espresso_18300.pwi
Warning: card &CELL ignored
Warning: card / ignored

     Current dimensions of program PWSCF are:
     Max number of different atomic species (ntypx) = 10
     Max number of k-points (npk) =  40000
     Max angular momentum in pseudopotentials (lmaxx) =  4
     file K.pbe-spn-kjpaw_psl.1.0.0.UPF: wavefunction(s)  3S renormalized
     Message from routine setup:
     using ibrav=0 with symmetry is DISCOURAGED, use correct ibrav instead

     K-points division:     npool     =       2
     R & G space division:  proc/nbgrp/npool/nimage =       4
     Subspace diagonalization in iterative solution of the eigenvalue problem:
     a serial algorithm will be used

     Using Slab Decomposition

     bravais-lattice index     =            0
     lattice parameter (alat)  =      15.7527  a.u.
     unit-cell volume          =    2161.9688 (a.u.)^3
     number of atoms/cell      =           10
     number of atomic types    =            3
     number of electrons       =        84.00
     number of Kohn-Sham states=           64
     kinetic-energy cutoff     =      30.0000  Ry
     charge density cutoff     =     240.0000  Ry
     scf convergence threshold =      1.0E-06
     mixing beta               =       0.7000
     number of iterations used =            8  plain     mixing
     Exchange-correlation= PBE
                           (   1   4   3   4   0   0   0)

     celldm(1)=  15.752673  celldm(2)=   0.000000  celldm(3)=   0.000000
     celldm(4)=   0.000000  celldm(5)=   0.000000  celldm(6)=   0.000000

     crystal axes: (cart. coord. in units of alat)
               a(1) = (   1.000000   0.000000   0.000000 )
               a(2) = (   0.317173   0.948368   0.000000 )
               a(3) = (  -0.637493  -0.503481   0.583190 )

     reciprocal axes: (cart. coord. in units 2 pi/alat)
               b(1) = (  1.000000 -0.334441  0.804383 )
               b(2) = (  0.000000  1.054443  0.910324 )
               b(3) = (  0.000000  0.000000  1.714708 )

     PseudoPot. # 1 for K  read from file:
     /lustre07/scratch/pragov/crystal_structure_design/utils/SSSP/K.pbe-spn-kjpaw_psl.1.0.0.UPF
     MD5 check sum: 7d58810084cac21f60fbe77ea2b688fd
     Pseudo is Projector augmented-wave + core cor, Zval =  9.0
     Generated using "atomic" code by A. Dal Corso  v.5.1
     Shape of augmentation charge: PSQ
     Using radial grid of 1165 points,  6 beta functions with:
                l(1) =   0
                l(2) =   0
                l(3) =   1
                l(4) =   1
                l(5) =   2
                l(6) =   2
     Q(r) pseudized with 0 coefficients

     PseudoPot. # 2 for Ge read from file:
     /lustre07/scratch/pragov/crystal_structure_design/utils/SSSP/ge_pbe_v1.4.uspp.F.UPF
     MD5 check sum: 9c9eaa91e581c3f09632fb3098b2c6b2
     Pseudo is Ultrasoft + core correction, Zval = 14.0
     Generated by new atomic code, or converted to UPF format
     Using radial grid of  873 points,  6 beta functions with:
                l(1) =   0
                l(2) =   0
                l(3) =   1
                l(4) =   1
                l(5) =   2
                l(6) =   2
     Q(r) pseudized with  8 coefficients,  rinner =    1.400   1.400   1.400
                                                       1.400   1.400

     PseudoPot. # 3 for As read from file:
     /lustre07/scratch/pragov/crystal_structure_design/utils/SSSP/As.pbe-n-rrkjus_psl.0.2.UPF
     MD5 check sum: 767315de957beeeb34f87d97bf945c8f
     Pseudo is Ultrasoft + core correction, Zval =  5.0
     Generated using "atomic" code by A. Dal Corso  v.5.0.99 svn rev. 10869
     Using radial grid of 1209 points,  4 beta functions with:
                l(1) =   0
                l(2) =   0
                l(3) =   1
                l(4) =   1
     Q(r) pseudized with 0 coefficients

     atomic species   valence    mass     pseudopotential
        K              9.00    39.09830     K ( 1.00)
        Ge            14.00    72.63000     Ge( 1.00)
        As             5.00    74.92159     As( 1.00)

      2 Sym. Ops., with inversion, found

                                    s                        frac. trans.

      isym =  1     identity

 cryst.   s( 1) = (     1          0          0      )
                  (     0          1          0      )
                  (     0          0          1      )

 cart.    s( 1) = (  1.0000000  0.0000000  0.0000000 )
                  (  0.0000000  1.0000000 -0.0000000 )
                  (  0.0000000  0.0000000  1.0000000 )

      isym =  2     inversion

 cryst.   s( 2) = (    -1          0          0      )
                  (     0         -1          0      )
                  (     0          0         -1      )

 cart.    s( 2) = ( -1.0000000  0.0000000  0.0000000 )
                  (  0.0000000 -1.0000000  0.0000000 )
                  (  0.0000000  0.0000000 -1.0000000 )

   Cartesian axes

     site n.     atom                  positions (alat units)
         1           K   tau(   1) = (   0.0870846   0.2737954   0.3882213  )
         2           K   tau(   2) = (   0.5925956   0.1710917   0.1949685  )
         3           K   tau(   3) = (   0.1900531   0.7301765   0.0966264  )
         4           K   tau(   4) = (   0.4896271  -0.2852894   0.4865634  )
         5           Ge  tau(   5) = (   0.1011737  -0.1405186   0.4373923  )
         6           Ge  tau(   6) = (   0.5785065   0.5854056   0.1457974  )
         7           As  tau(   7) = (   0.4235260   0.5122079   0.3911396  )
         8           As  tau(   8) = (   0.2561542  -0.0673208   0.1920502  )
         9           As  tau(   9) = (   0.8572407   0.4867252   0.0995447  )
        10           As  tau(  10) = (  -0.1775605  -0.0418381   0.4836451  )

   Crystallographic axes

     site n.     atom                  positions (cryst. coord.)
         1           K   tau(   1) = (  0.3077950  0.6421090  0.6656860  )
         2           K   tau(   2) = (  0.6922050  0.3578910  0.3343140  )
         3           K   tau(   3) = (  0.0235770  0.8578910  0.1656860  )
         4           K   tau(   4) = (  0.9764230  0.1421090  0.8343140  )
         5           Ge  tau(   5) = (  0.5000000  0.2500000  0.7500000  )
         6           Ge  tau(   6) = (  0.5000000  0.7500000  0.2500000  )
         7           As  tau(   7) = (  0.5668490  0.8961580  0.6706900  )
         8           As  tau(   8) = (  0.4331510  0.1038420  0.3293100  )
         9           As  tau(   9) = (  0.7745320  0.6038420  0.1706900  )
        10           As  tau(  10) = (  0.2254680  0.3961580  0.8293100  )

     number of k points=    14
                       cart. coord. in units 2pi/alat
        k(    1) = (   0.0000000   0.0000000   0.0000000), wk =   0.0740741
        k(    2) = (   0.0000000   0.0000000   0.5715692), wk =   0.1481481
        k(    3) = (   0.0000000   0.3514811   0.3034414), wk =   0.1481481
        k(    4) = (   0.0000000   0.3514811   0.8750106), wk =   0.1481481
        k(    5) = (   0.0000000   0.3514811  -0.2681278), wk =   0.1481481
        k(    6) = (   0.3333333  -0.1114803   0.2681278), wk =   0.1481481
        k(    7) = (   0.3333333  -0.1114803   0.8396970), wk =   0.1481481
        k(    8) = (   0.3333333  -0.1114803  -0.3034414), wk =   0.1481481
        k(    9) = (   0.3333333   0.2400008   0.5715692), wk =   0.1481481
        k(   10) = (   0.3333333   0.2400008   1.1431384), wk =   0.1481481
        k(   11) = (   0.3333333   0.2400008   0.0000000), wk =   0.1481481
        k(   12) = (   0.3333333  -0.4629614  -0.0353136), wk =   0.1481481
        k(   13) = (   0.3333333  -0.4629614   0.5362556), wk =   0.1481481
        k(   14) = (   0.3333333  -0.4629614  -0.6068828), wk =   0.1481481

                       cryst. coord.
        k(    1) = (   0.0000000   0.0000000   0.0000000), wk =   0.0740741
        k(    2) = (   0.0000000   0.0000000   0.3333333), wk =   0.1481481
        k(    3) = (   0.0000000   0.3333333   0.0000000), wk =   0.1481481
        k(    4) = (   0.0000000   0.3333333   0.3333333), wk =   0.1481481
        k(    5) = (   0.0000000   0.3333333  -0.3333333), wk =   0.1481481
        k(    6) = (   0.3333333   0.0000000   0.0000000), wk =   0.1481481
        k(    7) = (   0.3333333   0.0000000   0.3333333), wk =   0.1481481
        k(    8) = (   0.3333333   0.0000000  -0.3333333), wk =   0.1481481
        k(    9) = (   0.3333333   0.3333333  -0.0000000), wk =   0.1481481
        k(   10) = (   0.3333333   0.3333333   0.3333333), wk =   0.1481481
        k(   11) = (   0.3333333   0.3333333  -0.3333333), wk =   0.1481481
        k(   12) = (   0.3333333  -0.3333333   0.0000000), wk =   0.1481481
        k(   13) = (   0.3333333  -0.3333333   0.3333333), wk =   0.1481481
        k(   14) = (   0.3333333  -0.3333333  -0.3333333), wk =   0.1481481

     Check: negative core charge=   -0.000002

     Initial potential from superposition of free atoms

     starting charge      83.9220, renormalised to      84.0000
     Starting wfcs are   66 randomized atomic wfcs
     Checking if some PAW data can be deallocated...

     Self-consistent Calculation

     iteration #  1     ecut=    30.00 Ry     beta= 0.70
     Davidson diagonalization with overlap

     ethr =  1.00E-02,  avg # of iterations =  6.8

     Threshold (ethr) on eigenvalues was too large:
     Diagonalizing with lowered threshold

     Davidson diagonalization with overlap

[...]

     total energy              =    -952.28958731 Ry
     estimated scf accuracy    <       0.35476456 Ry

[...]

     total energy              =    -952.39498138 Ry
     estimated scf accuracy    <       0.00000163 Ry

     iteration #  7     ecut=    30.00 Ry     beta= 0.70
     Davidson diagonalization with overlap

     ethr =  1.94E-09,  avg # of iterations =  2.6

     End of self-consistent calculation

          k = 0.0000 0.0000 0.0000 (  6027 PWs)   bands (ev):

   -26.1958 -26.1902 -26.1846 -26.1839 -20.2248 -20.2234 -20.2227 -20.2134
   -20.2090 -20.2084 -20.2060 -20.1925 -20.1905 -20.1739  -9.8094  -9.7956
    -9.7325  -9.7229  -9.7228  -9.7064  -9.6981  -9.6879  -9.6869  -9.6711
    -9.6390  -9.6346  -7.6232  -5.6240  -5.3529  -5.1448  -3.7242  -1.3766
     0.8199   1.4081   1.8525   2.1674   2.4569   3.2269   3.4806   4.0976
     4.1440   4.2822   5.3433   5.9792   6.5260   7.5550   7.7319   7.7809
     7.8990   8.0162   8.1053   8.2849   9.0269   9.1432   9.5626   9.7203
     9.7821  10.1169  10.3125  10.7360  10.9516  10.9827  11.0663  11.2918

     occupation numbers
     1.0000   1.0000   1.0000   1.0000   1.0000   1.0000   1.0000   1.0000
     1.0000   1.0000   1.0000   1.0000   1.0000   1.0000   1.0000   1.0000
     1.0000   1.0000   1.0000   1.0000   1.0000   1.0000   1.0000   1.0000
     1.0000   1.0000   1.0000   1.0000   1.0000   1.0000   1.0000   1.0000
     1.0000   1.0000   1.0000   1.0000   1.0000   1.0000   1.0000   1.0000
     1.0000   1.0000   0.0000   0.0000   0.0000   0.0000   0.0000   0.0000
     0.0000   0.0000   0.0000   0.0000   0.0000   0.0000   0.0000   0.0000
     0.0000   0.0000   0.0000   0.0000   0.0000   0.0000   0.0000   0.0000

[...]

          k = 0.3333-0.4630-0.6069 (  6015 PWs)   bands (ev):

   -26.1915 -26.1901 -26.1874 -26.1855 -20.2209 -20.2189 -20.2113 -20.2102
   -20.2092 -20.2085 -20.2080 -20.1948 -20.1892 -20.1861  -9.8036  -9.7872
    -9.7683  -9.7551  -9.7419  -9.6828  -9.6792  -9.6697  -9.6668  -9.6661
    -9.6649  -9.6441  -7.2511  -6.4574  -5.3075  -5.2089  -2.6769  -1.5459
     1.1039   1.1635   1.1821   2.3821   2.9126   2.9983   3.2234   3.8982
     4.0091   4.1428   5.3070   5.7716   6.7998   6.8435   7.6341   7.8116
     8.1424   8.2067   8.3042   8.3250   8.9643   9.1142   9.7524  10.0755
    10.3644  10.3992  10.6317  10.7256  10.7684  10.8071  11.1272  11.2434

     occupation numbers
     1.0000   1.0000   1.0000   1.0000   1.0000   1.0000   1.0000   1.0000
     1.0000   1.0000   1.0000   1.0000   1.0000   1.0000   1.0000   1.0000
     1.0000   1.0000   1.0000   1.0000   1.0000   1.0000   1.0000   1.0000
     1.0000   1.0000   1.0000   1.0000   1.0000   1.0000   1.0000   1.0000
     1.0000   1.0000   1.0000   1.0000   1.0000   1.0000   1.0000   1.0000
     1.0000   1.0000   0.0000   0.0000   0.0000   0.0000   0.0000   0.0000
     0.0000   0.0000   0.0000   0.0000   0.0000   0.0000   0.0000   0.0000
     0.0000   0.0000   0.0000   0.0000   0.0000   0.0000   0.0000   0.0000

     highest occupied, lowest unoccupied level (ev):     4.4298    5.3070

!    total energy              =    -952.39498213 Ry
     estimated scf accuracy    <       0.00000014 Ry

     The total energy is the sum of the following terms:
     one-electron contribution =    -501.31826029 Ry
     hartree contribution      =     291.36632735 Ry
     xc contribution           =    -198.44713050 Ry
     ewald contribution        =    -322.32799312 Ry
     one-center paw contrib.   =    -221.66792556 Ry
      -> PAW hartree energy AE =      75.42004236 Ry
      -> PAW hartree energy PS =     -74.99976408 Ry
      -> PAW xc energy AE      =    -132.43639934 Ry
      -> PAW xc energy PS      =      21.18215841 Ry
      -> total E_H with PAW    =     291.78660562 Ry
      -> total E_XC with PAW   =    -309.70137144 Ry

     convergence has been achieved in   7 iterations

     Writing all to output data dir bands_nm/myprefix.save/

     General routines

     Parallel routines

     PAW routines

   This run was terminated on:  13:18:52  14Jul2023

   JOB DONE.