     Program PWSCF v.7.1 starts on 16Jul2023 at 13:53:18

     Reading input from espresso_26432.pwi
Warning: card &CELL ignored
Warning: card / ignored

     Current dimensions of program PWSCF are:
     Max number of different atomic species (ntypx) = 10
     Max number of k-points (npk) =  40000
     Max angular momentum in pseudopotentials (lmaxx) =  4
     file O.pbe-n-kjpaw_psl.0.1.UPF: wavefunction(s)  2P renormalized

     K-points division:     npool     =       2
     R & G space division:  proc/nbgrp/npool/nimage =       4
     Subspace diagonalization in iterative solution of the eigenvalue problem:
     a serial algorithm will be used

     Using Slab Decomposition

     bravais-lattice index     =            0
     lattice parameter (alat)  =       9.1954  a.u.
     unit-cell volume          =    1073.1131 (a.u.)^3
     number of atoms/cell      =           15
     number of atomic types    =            4
     number of electrons       =        84.00
     number of Kohn-Sham states=           64
     kinetic-energy cutoff     =      30.0000  Ry
     charge density cutoff     =     240.0000  Ry
     scf convergence threshold =      1.0E-06
     mixing beta               =       0.7000
     number of iterations used =            8  plain     mixing
     Exchange-correlation= SLA  PW   PBX  PBC
                           (   1   4   3   4   0   0   0)

     celldm(1)=   9.195353  celldm(2)=   0.000000  celldm(3)=   0.000000
     celldm(4)=   0.000000  celldm(5)=   0.000000  celldm(6)=   0.000000

     crystal axes: (cart. coord. in units of alat)
               a(1) = (   1.000000   0.000000   0.000000 )
               a(2) = (  -0.158804   1.121592   0.000000 )
               a(3) = (  -0.132918  -0.163855   1.230567 )

     reciprocal axes: (cart. coord. in units 2 pi/alat)
               b(1) = (  1.000000  0.141588  0.126867 )
               b(2) = (  0.000000  0.891590  0.118719 )
               b(3) = (  0.000000  0.000000  0.812633 )

     PseudoPot. # 1 for Li read from file:
     /lustre07/scratch/pragov/crystal_structure_design/utils/SSSP/li_pbe_v1.4.uspp.F.UPF
     MD5 check sum: e912e257baa3777c20ea3d68f190483c
     Pseudo is Ultrasoft, Zval =  3.0
     Generated by new atomic code, or converted to UPF format
     Using radial grid of  751 points,  5 beta functions with:
                l(1) =   0
                l(2) =   0
                l(3) =   0
                l(4) =   1
                l(5) =   1
     Q(r) pseudized with 10 coefficients,  rinner =    1.150   1.150   1.150

     PseudoPot. # 2 for Cr read from file:
     /lustre07/scratch/pragov/crystal_structure_design/utils/SSSP/cr_pbe_v1.5.uspp.F.UPF
     MD5 check sum: 0d52af634a40206e4dee301ad30da4bf
     Pseudo is Ultrasoft + core correction, Zval = 14.0
     Generated by new atomic code, or converted to UPF format
     Using radial grid of  857 points,  6 beta functions with:
                l(1) =   0
                l(2) =   0
                l(3) =   1
                l(4) =   1
                l(5) =   2
                l(6) =   2
     Q(r) pseudized with  8 coefficients,  rinner =    0.950   0.950   0.950
                                                       0.950   0.950

     PseudoPot. # 3 for P  read from file:
     /lustre07/scratch/pragov/crystal_structure_design/utils/SSSP/P.pbe-n-rrkjus_psl.1.0.0.UPF
     MD5 check sum: 8b930f418f0a4573dca56cd030ffe088
     Pseudo is Ultrasoft + core correction, Zval =  5.0
     Generated using "atomic" code by A. Dal Corso  v.5.1
     Using radial grid of 1147 points,  6 beta functions with:
                l(1) =   0
                l(2) =   0
                l(3) =   1
                l(4) =   1
                l(5) =   2
                l(6) =   2
     Q(r) pseudized with 0 coefficients

     PseudoPot. # 4 for O  read from file:
     /lustre07/scratch/pragov/crystal_structure_design/utils/SSSP/O.pbe-n-kjpaw_psl.0.1.UPF
     MD5 check sum: 0234752ac141de4415c5fc33072bef88
     Pseudo is Projector augmented-wave + core cor, Zval =  6.0
     Generated using "atomic" code by A. Dal Corso  v.5.0.99 svn rev. 10869
     Shape of augmentation charge: BESSEL
     Using radial grid of 1095 points,  4 beta functions with:
                l(1) =   0
                l(2) =   0
                l(3) =   1
                l(4) =   1
     Q(r) pseudized with 0 coefficients

     atomic species   valence    mass     pseudopotential
        Li             3.00     6.94000     Li( 1.00)
        Cr            14.00    51.99610     Cr( 1.00)
        P              5.00    30.97376     P ( 1.00)
        O              6.00    15.99900     O ( 1.00)

     No symmetry found

                                    s                        frac. trans.

      isym =  1     identity

 cryst.   s( 1) = (     1          0          0      )
                  (     0          1          0      )
                  (     0          0          1      )

 cart.    s( 1) = (  1.0000000  0.0000000  0.0000000 )
                  (  0.0000000  1.0000000  0.0000000 )
                  (  0.0000000  0.0000000  1.0000000 )

   Cartesian axes

     site n.     atom                  positions (alat units)
         1           Li  tau(   1) = (   0.0327001   0.2404525   0.6979186  )
         2           Li  tau(   2) = (   0.2171632   0.5998409   0.2103888  )
         3           Li  tau(   3) = (   0.4917250   0.3579726   1.0203801  )
         4           Li  tau(   4) = (   0.6755164   0.7171240   0.5326005  )
         5           Cr  tau(   5) = (   0.0005055   0.0000897   0.0002190  )
         6           P   tau(   6) = (   0.1577920   0.7718121   0.8723835  )
         7           P   tau(   7) = (   0.5502873   0.1859184   0.3580987  )
         8           O   tau(   8) = (   0.0552248   0.5339422   1.0609581  )
         9           O   tau(   9) = (   0.0879454   0.6910693   0.5740694  )
        10           O   tau(  10) = (   0.2310067   0.1635140   0.3225403  )
        11           O   tau(  11) = (   0.1708936  -0.0743189   0.9508174  )
        12           O   tau(  12) = (   0.5373004   1.0321693   0.2796833  )
        13           O   tau(  13) = (   0.4770188   0.7941722   0.9076429  )
        14           O   tau(  14) = (   0.6201581   0.2663543   0.6564780  )
        15           O   tau(  15) = (   0.6527058   0.4240464   0.1697937  )

   Crystallographic axes

     site n.     atom                  positions (cryst. coord.)
         1           Li  tau(   1) = (  0.1552880  0.2972410  0.5671520  )
         2           Li  tau(   2) = (  0.3287850  0.5597890  0.1709690  )
         3           Li  tau(   3) = (  0.6718620  0.4403030  0.8291950  )
         4           Li  tau(   4) = (  0.8446220  0.7026100  0.4328090  )
         5           Cr  tau(   5) = (  0.0005460  0.0001060  0.0001780  )
         6           P   tau(   6) = (  0.3777480  0.7917080  0.7089280  )
         7           P   tau(   7) = (  0.6220420  0.2082760  0.2910030  )
         8           O   tau(   8) = (  0.2654250  0.6020130  0.8621700  )
         9           O   tau(   9) = (  0.2586230  0.6843030  0.4665080  )
        10           O   tau(  10) = (  0.2950780  0.1840790  0.2621070  )
        11           O   tau(  11) = (  0.2809980  0.0466180  0.7726660  )
        12           O   tau(  12) = (  0.7189260  0.9534750  0.2272800  )
        13           O   tau(  13) = (  0.7046140  0.8158300  0.7375810  )
        14           O   tau(  14) = (  0.7411560  0.3154150  0.5334760  )
        15           O   tau(  15) = (  0.7342870  0.3982330  0.1379800  )

     number of k points=    14
                       cart. coord. in units 2pi/alat
        k(    1) = (   0.0000000   0.0000000   0.0000000), wk =   0.0740741
        k(    2) = (   0.0000000   0.0000000   0.2708778), wk =   0.1481481
        k(    3) = (   0.0000000   0.2971965   0.0395730), wk =   0.1481481
        k(    4) = (   0.0000000   0.2971965   0.3104508), wk =   0.1481481
        k(    5) = (   0.0000000   0.2971965  -0.2313049), wk =   0.1481481
        k(    6) = (   0.3333333   0.0471961   0.0422889), wk =   0.1481481
        k(    7) = (   0.3333333   0.0471961   0.3131667), wk =   0.1481481
        k(    8) = (   0.3333333   0.0471961  -0.2285889), wk =   0.1481481
        k(    9) = (   0.3333333   0.3443926   0.0818619), wk =   0.1481481
        k(   10) = (   0.3333333   0.3443926   0.3527397), wk =   0.1481481
        k(   11) = (   0.3333333   0.3443926  -0.1890159), wk =   0.1481481
        k(   12) = (   0.3333333  -0.2500004   0.0027159), wk =   0.1481481
        k(   13) = (   0.3333333  -0.2500004   0.2735938), wk =   0.1481481
        k(   14) = (   0.3333333  -0.2500004  -0.2681619), wk =   0.1481481

                       cryst. coord.
        k(    1) = (   0.0000000   0.0000000   0.0000000), wk =   0.0740741
        k(    2) = (   0.0000000   0.0000000   0.3333333), wk =   0.1481481
        k(    3) = (   0.0000000   0.3333333   0.0000000), wk =   0.1481481
        k(    4) = (   0.0000000   0.3333333   0.3333333), wk =   0.1481481
        k(    5) = (   0.0000000   0.3333333  -0.3333333), wk =   0.1481481
        k(    6) = (   0.3333333   0.0000000   0.0000000), wk =   0.1481481
        k(    7) = (   0.3333333   0.0000000   0.3333333), wk =   0.1481481
        k(    8) = (   0.3333333   0.0000000  -0.3333333), wk =   0.1481481
        k(    9) = (   0.3333333   0.3333333   0.0000000), wk =   0.1481481
        k(   10) = (   0.3333333   0.3333333   0.3333333), wk =   0.1481481
        k(   11) = (   0.3333333   0.3333333  -0.3333333), wk =   0.1481481
        k(   12) = (   0.3333333  -0.3333333  -0.0000000), wk =   0.1481481
        k(   13) = (   0.3333333  -0.3333333   0.3333333), wk =   0.1481481
        k(   14) = (   0.3333333  -0.3333333  -0.3333333), wk =   0.1481481

     Check: negative core charge=   -0.000014

     Initial potential from superposition of free atoms

     starting charge      81.1967, renormalised to      84.0000

     negative rho (up, down):  2.440E-03 0.000E+00
     Starting wfcs are   70 randomized atomic wfcs
     Checking if some PAW data can be deallocated...

     Self-consistent Calculation

     iteration #  1     ecut=    30.00 Ry     beta= 0.70
     Davidson diagonalization with overlap

     ethr =  1.00E-02,  avg # of iterations =  3.2

     negative rho (up, down):  2.858E-03 0.000E+00

     total energy              =    -594.35991670 Ry
     estimated scf accuracy    <       1.92340905 Ry

[...]

     c_bands:  1 eigenvalues not converged
     ethr =  2.78E-06,  avg # of iterations =  9.6

[...]

     total energy              =    -595.31846883 Ry
     estimated scf accuracy    <       0.00000106 Ry

     iteration # 39     ecut=    30.00 Ry     beta= 0.70
     Davidson diagonalization with overlap

     ethr =  1.26E-09,  avg # of iterations =  1.0

     negative rho (up, down):  2.082E-03 0.000E+00

     End of self-consistent calculation

          k = 0.0000 0.0000 0.0000 (  2959 PWs)   bands (ev):

   -64.7295 -38.8962 -38.8888 -38.8477 -38.8409 -36.3102 -36.2981 -35.6570
   -16.2202 -15.9287 -13.7236 -13.7008 -13.5554 -13.5280 -13.3930 -13.3030
    -3.5331  -2.9416  -1.5894  -1.0887  -1.0062  -0.9246  -0.7282  -0.1603
     0.8914   1.0054   1.1702   1.4697   1.5209   1.7387   1.9552   2.4600
     2.6200   2.8124   2.9822   3.1151   3.3281   3.4128   3.7051   3.7849
     7.0428   7.1570   7.1850   7.5136   8.8460   9.6464  11.7920  12.8263
    12.9969  13.5004  13.5119  13.5884  13.9731  14.0077  14.4602  14.9625
    15.0959  15.3786  15.3837  16.0556  16.4538  16.8502  17.0464  17.7341

     occupation numbers
     1.0000   1.0000   1.0000   1.0000   1.0000   1.0000   1.0000   1.0000
     1.0000   1.0000   1.0000   1.0000   1.0000   1.0000   1.0000   1.0000
     1.0000   1.0000   1.0000   1.0000   1.0000   1.0000   1.0000   1.0000
     1.0000   1.0000   1.0000   1.0000   1.0000   1.0000   1.0000   1.0000
     1.0000   1.0000   1.0000   1.0000   1.0000   1.0000   1.0000   1.0000
     1.0000   1.0000   0.0000   0.0000   0.0000   0.0000   0.0000   0.0000
     0.0000   0.0000   0.0000   0.0000   0.0000   0.0000   0.0000   0.0000
     0.0000   0.0000   0.0000   0.0000   0.0000   0.0000   0.0000   0.0000

[...]

          k = 0.3333-0.2500-0.2682 (  2983 PWs)   bands (ev):

   -64.7297 -38.8948 -38.8899 -38.8490 -38.8414 -36.3118 -36.2986 -35.6581
   -16.0413 -15.9922 -13.8776 -13.7512 -13.5821 -13.5451 -13.3521 -13.3328
    -3.1705  -3.0338  -1.1491  -0.9198  -0.8685  -0.7779  -0.5504  -0.2979
     0.8487   0.9721   1.1544   1.3599   1.3730   1.4893   1.9266   2.0368
     2.2282   2.3751   3.0534   3.1900   3.2721   3.4911   3.6523   3.7954
     7.0741   7.2006   7.2414   7.4854   8.6460  11.0625  11.7683  12.2212
    12.7659  13.1761  13.3640  13.5643  13.8480  14.3538  14.4966  14.5437
    15.1647  15.5880  15.8575  16.0116  16.4306  16.9609  17.3211  17.4317

     occupation numbers
     1.0000   1.0000   1.0000   1.0000   1.0000   1.0000   1.0000   1.0000
     1.0000   1.0000   1.0000   1.0000   1.0000   1.0000   1.0000   1.0000
     1.0000   1.0000   1.0000   1.0000   1.0000   1.0000   1.0000   1.0000
     1.0000   1.0000   1.0000   1.0000   1.0000   1.0000   1.0000   1.0000
     1.0000   1.0000   1.0000   1.0000   1.0000   1.0000   1.0000   1.0000
     1.0000   1.0000   0.0000   0.0000   0.0000   0.0000   0.0000   0.0000
     0.0000   0.0000   0.0000   0.0000   0.0000   0.0000   0.0000   0.0000
     0.0000   0.0000   0.0000   0.0000   0.0000   0.0000   0.0000   0.0000

     highest occupied, lowest unoccupied level (ev):     7.2172    7.1729

!    total energy              =    -595.31846942 Ry
     estimated scf accuracy    <       0.00000012 Ry

     The total energy is the sum of the following terms:
     one-electron contribution =    -254.94684689 Ry
     hartree contribution      =     162.97384219 Ry
     xc contribution           =    -105.50141180 Ry
     ewald contribution        =    -321.70494549 Ry
     one-center paw contrib.   =     -76.13910743 Ry
      -> PAW hartree energy AE =       0.00000000 Ry
      -> PAW hartree energy PS =       0.00000000 Ry
      -> PAW xc energy AE      =       0.00000000 Ry
      -> PAW xc energy PS      =       0.00000000 Ry
      -> total E_H with PAW    =     162.97384219 Ry
      -> total E_XC with PAW   =    -105.50141180 Ry

     convergence has been achieved in  39 iterations

     Writing all to output data dir bands_nm/myprefix.save/

     General routines

     Parallel routines

     PAW routines

   This run was terminated on:  13:53:41  16Jul2023

   JOB DONE.