     Program PWSCF v.7.0 starts on  6Jun2023 at 19:25: 6

     K-points division:     npool     =       2
     R & G space division:  proc/nbgrp/npool/nimage =       4

     Reading input from espresso_19890.pwi
Warning: card &CELL ignored
Warning: card / ignored

     Current dimensions of program PWSCF are:
     Max number of different atomic species (ntypx) = 10
     Max number of k-points (npk) =  40000
     Max angular momentum in pseudopotentials (lmaxx) =  4
     Message from routine setup:
     using ibrav=0 with symmetry is DISCOURAGED, use correct ibrav instead

     Using Slab Decomposition

     bravais-lattice index     =            0
     lattice parameter (alat)  =      11.5922  a.u.
     unit-cell volume          =    1037.5388 (a.u.)^3
     number of atoms/cell      =            4
     number of atomic types    =            2
     number of electrons       =        30.00
     number of Kohn-Sham states=           64
     kinetic-energy cutoff     =      30.0000  Ry
     charge density cutoff     =     240.0000  Ry
     scf convergence threshold =      1.0E-06
     mixing beta               =       0.7000
     number of iterations used =            8  plain     mixing
     Exchange-correlation=  SLA  PW   PBX  PBC
                           (   1   4   3   4   0   0   0)

     celldm(1)=  11.592245  celldm(2)=   0.000000  celldm(3)=   0.000000
     celldm(4)=   0.000000  celldm(5)=   0.000000  celldm(6)=   0.000000

     crystal axes: (cart. coord. in units of alat)
               a(1) = (   1.000000   0.000000   0.000000 )
               a(2) = (   0.026689   0.999644   0.000000 )
               a(3) = (  -0.369146  -0.647922   0.666280 )

     reciprocal axes: (cart. coord. in units 2 pi/alat)
               b(1) = (  1.000000 -0.026699  0.528077 )
               b(2) = (  0.000000  1.000356  0.972794 )
               b(3) = (  0.000000  0.000000  1.500872 )

     PseudoPot. # 1 for Rb read from file:
     /home/pragov/projects/rrg-bengioy-ad/pragov/crystal_structure_design/SSSP/Rb_ONCV_PBE-1.0.oncvpsp.upf
     MD5 check sum: 55a5172d6bfbce6759a58e35d43f6aa9
     Pseudo is Norm-conserving, Zval =  9.0
     Generated using ONCVPSP code by D. R. Hamann
     Using radial grid of 2308 points,  6 beta functions with:
                l(1) =   0
                l(2) =   0
                l(3) =   1
                l(4) =   1
                l(5) =   2
                l(6) =   2

     PseudoPot. # 2 for S  read from file:
     /home/pragov/projects/rrg-bengioy-ad/pragov/crystal_structure_design/SSSP/s_pbe_v1.4.uspp.F.UPF
     MD5 check sum: 88d86576ff6df21479756cfb9bdac1df
     Pseudo is Ultrasoft + core correction, Zval =  6.0
     Generated by new atomic code, or converted to UPF format
     Using radial grid of  907 points,  6 beta functions with:
                l(1) =   0
                l(2) =   0
                l(3) =   1
                l(4) =   1
                l(5) =   2
                l(6) =   2
     Q(r) pseudized with  8 coefficients,  rinner =    1.300   1.300   1.300
                                                       1.300   1.300

     atomic species   valence    mass     pseudopotential
        Rb             9.00    85.46780     Rb( 1.00)
        S              6.00    32.06000     S ( 1.00)

      2 Sym. Ops., with inversion, found

                                    s                        frac. trans.

      isym =  1     identity

 cryst.   s( 1) = (     1          0          0      )
                  (     0          1          0      )
                  (     0          0          1      )

 cart.    s( 1) = (  1.0000000  0.0000000 -0.0000000 )
                  (  0.0000000  1.0000000 -0.0000000 )
                  (  0.0000000  0.0000000  1.0000000 )

      isym =  2     inversion

 cryst.   s( 2) = (    -1          0          0      )
                  (     0         -1          0      )
                  (     0          0         -1      )

 cart.    s( 2) = ( -1.0000000 -0.0000000  0.0000000 )
                  (  0.0000000 -1.0000000  0.0000000 )
                  (  0.0000000  0.0000000 -1.0000000 )

   Cartesian axes

     site n.     atom                  positions (alat units)
         1           Rb  tau(   1) = (   0.6002501  -0.0466408   0.3331398  )
         2           Rb  tau(   2) = (   0.0572932   0.3983627   0.3331398  )
         3           S   tau(   3) = (   0.1243090   0.8993830   0.1031014  )
         4           S   tau(   4) = (   0.5332344  -0.5476612   0.5631781  )

   Crystallographic axes

     site n.     atom                  positions (cryst. coord.)
         1           Rb  tau(   1) = (  0.7774190  0.2774190  0.5000000  )
         2           Rb  tau(   2) = (  0.2225810  0.7225810  0.5000000  )
         3           S   tau(   3) = (  0.1547420  1.0000000  0.1547420  )
         4           S   tau(   4) = (  0.8452580 -0.0000000  0.8452580  )

     number of k points=    14
                       cart. coord. in units 2pi/alat
        k(    1) = (   0.0000000   0.0000000   0.0000000), wk =   0.0740741
        k(    2) = (   0.0000000   0.0000000   0.5002905), wk =   0.1481481
        k(    3) = (   0.0000000   0.3334521   0.3242647), wk =   0.1481481
        k(    4) = (   0.0000000   0.3334521   0.8245552), wk =   0.1481481
        k(    5) = (   0.0000000   0.3334521  -0.1760258), wk =   0.1481481
        k(    6) = (   0.3333333  -0.0088996   0.1760258), wk =   0.1481481
        k(    7) = (   0.3333333  -0.0088996   0.6763163), wk =   0.1481481
        k(    8) = (   0.3333333  -0.0088996  -0.3242647), wk =   0.1481481
        k(    9) = (   0.3333333   0.3245525   0.5002905), wk =   0.1481481
        k(   10) = (   0.3333333   0.3245525   1.0005810), wk =   0.1481481
        k(   11) = (   0.3333333   0.3245525   0.0000000), wk =   0.1481481
        k(   12) = (   0.3333333  -0.3423517  -0.1482389), wk =   0.1481481
        k(   13) = (   0.3333333  -0.3423517   0.3520517), wk =   0.1481481
        k(   14) = (   0.3333333  -0.3423517  -0.6485294), wk =   0.1481481

                       cryst. coord.
        k(    1) = (   0.0000000   0.0000000   0.0000000), wk =   0.0740741
        k(    2) = (   0.0000000   0.0000000   0.3333333), wk =   0.1481481
        k(    3) = (   0.0000000   0.3333333  -0.0000000), wk =   0.1481481
        k(    4) = (   0.0000000   0.3333333   0.3333333), wk =   0.1481481
        k(    5) = (   0.0000000   0.3333333  -0.3333333), wk =   0.1481481
        k(    6) = (   0.3333333   0.0000000   0.0000000), wk =   0.1481481
        k(    7) = (   0.3333333   0.0000000   0.3333333), wk =   0.1481481
        k(    8) = (   0.3333333   0.0000000  -0.3333333), wk =   0.1481481
        k(    9) = (   0.3333333   0.3333333  -0.0000000), wk =   0.1481481
        k(   10) = (   0.3333333   0.3333333   0.3333333), wk =   0.1481481
        k(   11) = (   0.3333333   0.3333333  -0.3333333), wk =   0.1481481
        k(   12) = (   0.3333333  -0.3333333   0.0000000), wk =   0.1481481
        k(   13) = (   0.3333333  -0.3333333   0.3333333), wk =   0.1481481
        k(   14) = (   0.3333333  -0.3333333  -0.3333333), wk =   0.1481481

     Initial potential from superposition of free atoms

     starting charge      29.9504, renormalised to      30.0000
     Starting wfcs are   18 randomized atomic wfcs +   46 random wfcs

     Self-consistent Calculation

     iteration #  1     ecut=    30.00 Ry     beta= 0.70
     Davidson diagonalization with overlap

     ethr =  1.00E-02,  avg # of iterations =  8.1

     Threshold (ethr) on eigenvalues was too large:
     Diagonalizing with lowered threshold

     Davidson diagonalization with overlap

[...]

     total energy              =    -146.23725873 Ry
     estimated scf accuracy    <       0.24390409 Ry

[...]

     total energy              =    -146.31565792 Ry
     estimated scf accuracy    <       0.00000855 Ry

     iteration #  6     ecut=    30.00 Ry     beta= 0.70
     Davidson diagonalization with overlap

     ethr =  2.85E-08,  avg # of iterations =  2.1

     End of self-consistent calculation

          k = 0.0000 0.0000 0.0000 (  2861 PWs)   bands (ev):

   -23.5172 -23.4748 -10.4072  -7.7486  -7.7481  -7.6387  -7.5746  -7.5474
    -7.4962  -6.6745  -0.7682   0.5155   0.5318   2.8502   2.9545   5.4299
     6.2010   7.4837   8.3362   8.7496   9.7414   9.8797  10.0350  10.7472
    11.1121  11.1340  11.2506  11.3963  12.1100  12.2964  12.3053  12.4441
    12.7753  12.8032  15.2254  15.6057  16.0562  16.3511  16.9057  16.9751
    17.7328  17.8426  18.8451  19.1643  19.7336  19.8752  19.9046  20.1016
    20.6118  21.0122  21.7131  22.2057  22.3636  22.8062  23.2482  23.3785
    23.5502  23.5811  23.5958  24.1639  24.3282  24.8201  24.8697  25.8179

     occupation numbers
     1.0000   1.0000   1.0000   1.0000   1.0000   1.0000   1.0000   1.0000
     1.0000   1.0000   1.0000   1.0000   1.0000   1.0000   1.0000   0.0000
     0.0000   0.0000   0.0000   0.0000   0.0000   0.0000   0.0000   0.0000
     0.0000   0.0000   0.0000   0.0000   0.0000   0.0000   0.0000   0.0000
     0.0000   0.0000   0.0000   0.0000   0.0000   0.0000   0.0000   0.0000
     0.0000   0.0000   0.0000   0.0000   0.0000   0.0000   0.0000   0.0000
     0.0000   0.0000   0.0000   0.0000   0.0000   0.0000   0.0000   0.0000
     0.0000   0.0000   0.0000   0.0000   0.0000   0.0000   0.0000   0.0000

[...]

          k = 0.3333-0.3424-0.6485 (  2904 PWs)   bands (ev):

   -23.4977 -23.4905 -10.5144  -7.8935  -7.7960  -7.6106  -7.5297  -7.5029
    -7.4912  -6.4179  -0.7204   0.4197   0.5065   2.8208   2.8510   6.2127
     6.2676   7.3118   8.1381   8.8920   9.0019   9.5007  10.2470  10.3587
    10.5420  11.4002  11.4505  11.4755  11.6797  12.1368  12.9312  13.0419
    13.8916  14.2600  14.6417  15.0529  15.5200  15.5554  15.6535  16.4605
    17.8267  18.5032  18.9939  19.3003  19.5396  19.6600  20.0407  20.6932
    20.9538  21.3273  21.9301  22.1694  22.1823  22.4049  22.5418  22.9832
    23.0206  23.9231  24.0145  24.2405  24.9891  25.0153  25.4767  26.0880

     occupation numbers
     1.0000   1.0000   1.0000   1.0000   1.0000   1.0000   1.0000   1.0000
     1.0000   1.0000   1.0000   1.0000   1.0000   1.0000   1.0000   0.0000
     0.0000   0.0000   0.0000   0.0000   0.0000   0.0000   0.0000   0.0000
     0.0000   0.0000   0.0000   0.0000   0.0000   0.0000   0.0000   0.0000
     0.0000   0.0000   0.0000   0.0000   0.0000   0.0000   0.0000   0.0000
     0.0000   0.0000   0.0000   0.0000   0.0000   0.0000   0.0000   0.0000
     0.0000   0.0000   0.0000   0.0000   0.0000   0.0000   0.0000   0.0000
     0.0000   0.0000   0.0000   0.0000   0.0000   0.0000   0.0000   0.0000

     highest occupied, lowest unoccupied level (ev):     3.0370    5.0817

!    total energy              =    -146.31566091 Ry
     estimated scf accuracy    <       0.00000054 Ry

     The total energy is the sum of the following terms:
     one-electron contribution =     -51.91804675 Ry
     hartree contribution      =      34.24552438 Ry
     xc contribution           =     -31.93572097 Ry
     ewald contribution        =     -96.70741757 Ry

     convergence has been achieved in   6 iterations

     Writing all to output data dir calculations_bands/myprefix.save/

     General routines

     Parallel routines

   This run was terminated on:  19:25:15   6Jun2023

   JOB DONE.