     Program PWSCF v.7.1 starts on 14Jul2023 at 17:48:46

     Reading input from espresso_14316.pwi
Warning: card &CELL ignored
Warning: card / ignored

     Current dimensions of program PWSCF are:
     Max number of different atomic species (ntypx) = 10
     Max number of k-points (npk) =  40000
     Max angular momentum in pseudopotentials (lmaxx) =  4
     file Nd.paw.z_14.atompaw.wentzcovitch.v1.2.upf: wavefunction(s)  6S 0P 5D 0D 0F renormalized
     Message from routine setup:
     using ibrav=0 with symmetry is DISCOURAGED, use correct ibrav instead

     K-points division:     npool     =       2
     R & G space division:  proc/nbgrp/npool/nimage =       4
     Subspace diagonalization in iterative solution of the eigenvalue problem:
     a serial algorithm will be used

     Using Slab Decomposition

     bravais-lattice index     =            0
     lattice parameter (alat)  =       7.6510  a.u.
     unit-cell volume          =    1795.4811 (a.u.)^3
     number of atoms/cell      =           12
     number of atomic types    =            2
     number of electrons       =       104.00
     number of Kohn-Sham states=           64
     kinetic-energy cutoff     =      30.0000  Ry
     charge density cutoff     =     240.0000  Ry
     scf convergence threshold =      1.0E-06
     mixing beta               =       0.7000
     number of iterations used =            8  plain     mixing
     Exchange-correlation=  SLA  PW   PBX  PBC
                           (   1   4   3   4   0   0   0)

     celldm(1)=   7.650964  celldm(2)=   0.000000  celldm(3)=   0.000000
     celldm(4)=   0.000000  celldm(5)=   0.000000  celldm(6)=   0.000000

     crystal axes: (cart. coord. in units of alat)
               a(1) = (   1.000000   0.000000   0.000000 )
               a(2) = (   0.000000   1.992542   0.000000 )
               a(3) = (   0.000000   0.004533   2.011985 )

     reciprocal axes: (cart. coord. in units 2 pi/alat)
               b(1) = (  1.000000  0.000000  0.000000 )
               b(2) = (  0.000000  0.501871 -0.001131 )
               b(3) = (  0.000000  0.000000  0.497022 )

     PseudoPot. # 1 for Nd read from file:
     /lustre07/scratch/pragov/crystal_structure_design/utils/SSSP/Nd.paw.z_14.atompaw.wentzcovitch.v1.2.upf
     MD5 check sum: 8a77231a7dfbac907351543c5ef6bfc9
     Pseudo is Projector augmented-wave + core cor, Zval = 14.0
     Generated using ATOMPAW code
     Shape of augmentation charge: BESSEL
     Using radial grid of 1105 points,  8 beta functions with:
                l(1) =   0
                l(2) =   0
                l(3) =   1
                l(4) =   1
                l(5) =   2
                l(6) =   2
                l(7) =   3
                l(8) =   3
     Q(r) pseudized with 0 coefficients

     PseudoPot. # 2 for S  read from file:
     /lustre07/scratch/pragov/crystal_structure_design/utils/SSSP/s_pbe_v1.4.uspp.F.UPF
     MD5 check sum: 88d86576ff6df21479756cfb9bdac1df
     Pseudo is Ultrasoft + core correction, Zval =  6.0
     Generated by new atomic code, or converted to UPF format
     Using radial grid of  907 points,  6 beta functions with:
                l(1) =   0
                l(2) =   0
                l(3) =   1
                l(4) =   1
                l(5) =   2
                l(6) =   2
     Q(r) pseudized with  8 coefficients,  rinner =    1.300   1.300   1.300
                                                       1.300   1.300

     atomic species   valence    mass     pseudopotential
        Nd            14.00   144.24200     Nd( 1.00)
        S              6.00    32.06000     S ( 1.00)

      4 Sym. Ops., with inversion, found ( 2 have fractional translation)

                                    s                        frac. trans.

      isym =  1     identity

 cryst.   s( 1) = (     1          0          0      )
                  (     0          1          0      )
                  (     0          0          1      )

 cart.    s( 1) = (  1.0000000  0.0000000  0.0000000 )
                  (  0.0000000  1.0000000  0.0000000 )
                  (  0.0000000  0.0000000  1.0000000 )

      isym =  2     180 deg rotation - cart. axis [1,0,0]

 cryst.   s( 2) = (     1          0          0      )    f =( -0.5000000 )
                  (     0         -1          0      )       ( -0.5000000 )
                  (     0          0         -1      )       ( -0.0000000 )

 cart.    s( 2) = (  1.0000000  0.0000000  0.0000000 )    f =( -0.5000000 )
                  (  0.0000000 -1.0000000  0.0000000 )       ( -0.9962712 )
                  (  0.0000000  0.0000000 -1.0000000 )       ( -0.0000000 )

      isym =  3     inversion

 cryst.   s( 3) = (    -1          0          0      )
                  (     0         -1          0      )
                  (     0          0         -1      )

 cart.    s( 3) = ( -1.0000000  0.0000000  0.0000000 )
                  (  0.0000000 -1.0000000  0.0000000 )
                  (  0.0000000  0.0000000 -1.0000000 )

      isym =  4     inv. 180 deg rotation - cart. axis [1,0,0]

 cryst.   s( 4) = (    -1          0          0      )    f =(  0.5000000 )
                  (     0          1          0      )       ( -0.5000000 )
                  (     0          0          1      )       (  0.0000000 )

 cart.    s( 4) = ( -1.0000000  0.0000000  0.0000000 )    f =(  0.5000000 )
                  (  0.0000000  1.0000000  0.0000000 )       ( -0.9962712 )
                  (  0.0000000  0.0000000  1.0000000 )       (  0.0000000 )

   Cartesian axes

     site n.     atom                  positions (alat units)
         1           Nd  tau(   1) = (   0.2888150   0.7408479   0.5548109  )
         2           Nd  tau(   2) = (   0.7888150   0.2599565   1.4571741  )
         3           Nd  tau(   3) = (   0.7111850   1.2562277   1.4571741  )
         4           Nd  tau(   4) = (   0.2111850   1.7371191   0.5548109  )
         5           S   tau(   5) = (   0.8440580   0.7809892   0.0054505  )
         6           S   tau(   6) = (   0.3440580   0.2198152   2.0065346  )
         7           S   tau(   7) = (   0.1559420   1.2160864   2.0065346  )
         8           S   tau(   8) = (   0.6559420   1.7772604   0.0054505  )
         9           S   tau(   9) = (   0.2391620   1.7450841   1.2732847  )
        10           S   tau(  10) = (   0.7391620   1.2482626   0.7387003  )
        11           S   tau(  11) = (   0.7608380   0.2519915   0.7387003  )
        12           S   tau(  12) = (   0.2608380   0.7488130   1.2732847  )

   Crystallographic axes

     site n.     atom                  positions (cryst. coord.)
         1           Nd  tau(   1) = (  0.2888150  0.3711830  0.2757530  )
         2           Nd  tau(   2) = (  0.7888150  0.1288170  0.7242470  )
         3           Nd  tau(   3) = (  0.7111850  0.6288170  0.7242470  )
         4           Nd  tau(   4) = (  0.2111850  0.8711830  0.2757530  )
         5           S   tau(   5) = (  0.8440580  0.3919500  0.0027090  )
         6           S   tau(   6) = (  0.3440580  0.1080500  0.9972910  )
         7           S   tau(   7) = (  0.1559420  0.6080500  0.9972910  )
         8           S   tau(   8) = (  0.6559420  0.8919500  0.0027090  )
         9           S   tau(   9) = (  0.2391620  0.8743680  0.6328500  )
        10           S   tau(  10) = (  0.7391620  0.6256320  0.3671500  )
        11           S   tau(  11) = (  0.7608380  0.1256320  0.3671500  )
        12           S   tau(  12) = (  0.2608380  0.3743680  0.6328500  )

     number of k points=    10
                       cart. coord. in units 2pi/alat
        k(    1) = (   0.0000000   0.0000000   0.0000000), wk =   0.0740741
        k(    2) = (   0.0000000   0.0000000   0.1656739), wk =   0.1481481
        k(    3) = (   0.0000000   0.1672905  -0.0003769), wk =   0.1481481
        k(    4) = (   0.0000000   0.1672905   0.1652969), wk =   0.1481481
        k(    5) = (   0.0000000   0.1672905  -0.1660508), wk =   0.1481481
        k(    6) = (   0.3333333   0.0000000   0.0000000), wk =   0.1481481
        k(    7) = (   0.3333333   0.0000000   0.1656739), wk =   0.2962963
        k(    8) = (   0.3333333   0.1672905  -0.0003769), wk =   0.2962963
        k(    9) = (   0.3333333   0.1672905   0.1652969), wk =   0.2962963
        k(   10) = (   0.3333333   0.1672905  -0.1660508), wk =   0.2962963

                       cryst. coord.
        k(    1) = (   0.0000000   0.0000000   0.0000000), wk =   0.0740741
        k(    2) = (   0.0000000   0.0000000   0.3333333), wk =   0.1481481
        k(    3) = (   0.0000000   0.3333333   0.0000000), wk =   0.1481481
        k(    4) = (   0.0000000   0.3333333   0.3333333), wk =   0.1481481
        k(    5) = (   0.0000000   0.3333333  -0.3333333), wk =   0.1481481
        k(    6) = (   0.3333333   0.0000000   0.0000000), wk =   0.1481481
        k(    7) = (   0.3333333   0.0000000   0.3333333), wk =   0.2962963
        k(    8) = (   0.3333333   0.3333333   0.0000000), wk =   0.2962963
        k(    9) = (   0.3333333   0.3333333   0.3333333), wk =   0.2962963
        k(   10) = (   0.3333333   0.3333333  -0.3333333), wk =   0.2962963

     Initial potential from superposition of free atoms

     starting charge     103.9750, renormalised to     104.0000
     Starting wfcs are  160 randomized atomic wfcs
     Checking if some PAW data can be deallocated...

     Self-consistent Calculation

     iteration #  1     ecut=    30.00 Ry     beta= 0.70
     Davidson diagonalization with overlap

     ethr =  1.00E-02,  avg # of iterations =  1.7

     Threshold (ethr) on eigenvalues was too large:
     Diagonalizing with lowered threshold

     Davidson diagonalization with overlap

[...]

     total energy              =   -2342.73822598 Ry
     estimated scf accuracy    <       0.56837365 Ry

[...]

     c_bands:  1 eigenvalues not converged
     ethr =  2.88E-04,  avg # of iterations =  7.4

[...]

     c_bands:  1 eigenvalues not converged
     c_bands:  1 eigenvalues not converged
     ethr =  2.24E-09,  avg # of iterations = 18.9

[...]

     total energy              =   -2343.27262174 Ry
     estimated scf accuracy    <       0.00000448 Ry

     iteration # 79     ecut=    30.00 Ry     beta= 0.70
     Davidson diagonalization with overlap

     ethr =  1.41E-09,  avg # of iterations =  8.5

     End of self-consistent calculation

          k = 0.0000 0.0000 0.0000 (  4949 PWs)   bands (ev):

   -27.0804 -27.0736 -27.0625 -27.0623  -8.7292  -8.6492  -8.6397  -8.4884
    -8.4189  -8.3635  -8.2452  -8.2395  -8.2206  -8.2191  -8.1921  -8.1911
    -5.1069  -4.5273  -2.3479  -2.0482  -1.9746  -1.7367  -1.6833  -0.5152
     4.1321   4.9522   4.9808   5.3470   5.6059   6.4181   6.6198   6.7445
     7.0013   7.0725   7.1265   7.2925   7.4339   7.5226   7.6393   7.6798
     7.7747   8.0347   8.2030   8.3361   8.3654   8.9980   9.9854   9.9944
    10.0136  10.0295  10.0300  10.0660  10.0749  10.0822  10.1206  10.1347
    10.1422  10.1931  10.2252  10.2479  10.2511  10.2552  10.2793  10.2821

     occupation numbers
     1.0000   1.0000   1.0000   1.0000   1.0000   1.0000   1.0000   1.0000
     1.0000   1.0000   1.0000   1.0000   1.0000   1.0000   1.0000   1.0000
     1.0000   1.0000   1.0000   1.0000   1.0000   1.0000   1.0000   1.0000
     1.0000   1.0000   1.0000   1.0000   1.0000   1.0000   1.0000   1.0000
     1.0000   1.0000   1.0000   1.0000   1.0000   1.0000   1.0000   1.0000
     1.0000   1.0000   1.0000   1.0000   1.0000   1.0000   1.0000   1.0000
     1.0000   1.0000   1.0000   1.0000   0.0000   0.0000   0.0000   0.0000
     0.0000   0.0000   0.0000   0.0000   0.0000   0.0000   0.0000   0.0000

[...]

          k = 0.3333 0.1673-0.1661 (  4960 PWs)   bands (ev):

   -27.0638 -27.0616 -27.0564 -27.0550  -8.6433  -8.6211  -8.5154  -8.5056
    -8.4655  -8.4277  -8.3979  -8.3706  -8.3578  -8.3472  -8.2868  -8.2717
    -4.6885  -4.5600  -2.0327  -2.0075  -1.9089  -1.7917  -1.5868  -1.2835
     3.9411   4.5447   5.1740   5.3114   5.4913   5.9444   6.2404   6.3980
     6.4936   6.5638   6.9714   7.1869   7.3158   7.3856   7.5355   7.7760
     7.8370   8.0416   8.0744   8.3162   8.6165   9.2332  10.0024  10.0081
    10.0175  10.0425  10.0552  10.0592  10.0796  10.0911  10.1026  10.1129
    10.1351  10.1572  10.1928  10.2069  10.2325  10.2423  10.2689  10.2720

     occupation numbers
     1.0000   1.0000   1.0000   1.0000   1.0000   1.0000   1.0000   1.0000
     1.0000   1.0000   1.0000   1.0000   1.0000   1.0000   1.0000   1.0000
     1.0000   1.0000   1.0000   1.0000   1.0000   1.0000   1.0000   1.0000
     1.0000   1.0000   1.0000   1.0000   1.0000   1.0000   1.0000   1.0000
     1.0000   1.0000   1.0000   1.0000   1.0000   1.0000   1.0000   1.0000
     1.0000   1.0000   1.0000   1.0000   1.0000   1.0000   1.0000   1.0000
     1.0000   1.0000   1.0000   1.0000   0.0000   0.0000   0.0000   0.0000
     0.0000   0.0000   0.0000   0.0000   0.0000   0.0000   0.0000   0.0000

     highest occupied, lowest unoccupied level (ev):    10.0803   10.0749

!    total energy              =   -2343.27262244 Ry
     estimated scf accuracy    <       0.00000015 Ry

     The total energy is the sum of the following terms:
     one-electron contribution =     -81.46769995 Ry
     hartree contribution      =     112.59236152 Ry
     xc contribution           =    -123.13311423 Ry
     ewald contribution        =    -531.58084956 Ry
     one-center paw contrib.   =   -1719.68332022 Ry
      -> PAW hartree energy AE =     159.96288105 Ry
      -> PAW hartree energy PS =    -158.90268117 Ry
      -> PAW xc energy AE      =    -885.83026175 Ry
      -> PAW xc energy PS      =      24.92840171 Ry
      -> total E_H with PAW    =     113.65256141 Ry
      -> total E_XC with PAW   =    -984.03497427 Ry

     convergence has been achieved in  79 iterations

     Writing all to output data dir bands_nm/myprefix.save/

     General routines

     Parallel routines

     PAW routines

   This run was terminated on:  17:51:12  14Jul2023

   JOB DONE.