     Program PWSCF v.7.1 starts on 15Jul2023 at 22:49:54

     Reading input from espresso_15049.pwi
Warning: card &CELL ignored
Warning: card / ignored

     Current dimensions of program PWSCF are:
     Max number of different atomic species (ntypx) = 10
     Max number of k-points (npk) =  40000
     Max angular momentum in pseudopotentials (lmaxx) =  4
     file Tm.paw.z_23.atompaw.wentzcovitch.v1.2.upf: wavefunction(s)  6S 0P 5D 0D 4F 0F renormalized
     file Cd.pbe-dn-rrkjus_psl.0.3.1.UPF: wavefunction(s)  4D renormalized
     Message from routine setup:
     using ibrav=0 with symmetry is DISCOURAGED, use correct ibrav instead

     K-points division:     npool     =       2
     R & G space division:  proc/nbgrp/npool/nimage =       4
     Subspace diagonalization in iterative solution of the eigenvalue problem:
     one sub-group per band group will be used

     Using Slab Decomposition

     bravais-lattice index     =            0
     lattice parameter (alat)  =      14.9468  a.u.
     unit-cell volume          =    2361.1650 (a.u.)^3
     number of atoms/cell      =           14
     number of atomic types    =            3
     number of electrons       =       164.00
     number of Kohn-Sham states=          256
     kinetic-energy cutoff     =      30.0000  Ry
     charge density cutoff     =     240.0000  Ry
     scf convergence threshold =      1.0E-06
     mixing beta               =       0.7000
     number of iterations used =            8  plain     mixing
     Exchange-correlation=  SLA  PW   PBX  PBC
                           (   1   4   3   4   0   0   0)

     celldm(1)=  14.946762  celldm(2)=   0.000000  celldm(3)=   0.000000
     celldm(4)=   0.000000  celldm(5)=   0.000000  celldm(6)=   0.000000

     crystal axes: (cart. coord. in units of alat)
               a(1) = (   1.000000   0.000000   0.000000 )
               a(2) = (   0.500000   0.866025   0.000000 )
               a(3) = (   0.500000   0.288675   0.816497 )

     reciprocal axes: (cart. coord. in units 2 pi/alat)
               b(1) = (  1.000000 -0.577350 -0.408248 )
               b(2) = (  0.000000  1.154701 -0.408248 )
               b(3) = (  0.000000  0.000000  1.224745 )

     PseudoPot. # 1 for Tm read from file:
     /lustre07/scratch/pragov/crystal_structure_design/utils/SSSP/Tm.paw.z_23.atompaw.wentzcovitch.v1.2.upf
     MD5 check sum: 65ac1a59d66520b67f41930ed0a84655
     Pseudo is Projector augmented-wave + core cor, Zval = 23.0
     Generated using ATOMPAW code
     Shape of augmentation charge: BESSEL
     Using radial grid of 1116 points,  8 beta functions with:
                l(1) =   0
                l(2) =   0
                l(3) =   1
                l(4) =   1
                l(5) =   2
                l(6) =   2
                l(7) =   3
                l(8) =   3
     Q(r) pseudized with 0 coefficients

     PseudoPot. # 2 for Cd read from file:
     /lustre07/scratch/pragov/crystal_structure_design/utils/SSSP/Cd.pbe-dn-rrkjus_psl.0.3.1.UPF
     MD5 check sum: 558e9f355611b531a870a69ef6ace9e2
     Pseudo is Ultrasoft + core correction, Zval = 12.0
     Generated using "atomic" code by A. Dal Corso  v.5.0.99 svn rev. 10869
     Using radial grid of 1239 points,  6 beta functions with:
                l(1) =   0
                l(2) =   0
                l(3) =   1
                l(4) =   1
                l(5) =   2
                l(6) =   2
     Q(r) pseudized with 0 coefficients

     PseudoPot. # 3 for S  read from file:
     /lustre07/scratch/pragov/crystal_structure_design/utils/SSSP/s_pbe_v1.4.uspp.F.UPF
     MD5 check sum: 88d86576ff6df21479756cfb9bdac1df
     Pseudo is Ultrasoft + core correction, Zval =  6.0
     Generated by new atomic code, or converted to UPF format
     Using radial grid of  907 points,  6 beta functions with:
                l(1) =   0
                l(2) =   0
                l(3) =   1
                l(4) =   1
                l(5) =   2
                l(6) =   2
     Q(r) pseudized with  8 coefficients,  rinner =    1.300   1.300   1.300
                                                       1.300   1.300

     atomic species   valence    mass     pseudopotential
        Tm            23.00   168.93422     Tm( 1.00)
        Cd            12.00   112.41400     Cd( 1.00)
        S              6.00    32.06000     S ( 1.00)

     12 Sym. Ops., with inversion, found ( 6 have fractional translation)

                                    s                        frac. trans.

      isym =  1     identity

 cryst.   s( 1) = (     1          0          0      )
                  (     0          1          0      )
                  (     0          0          1      )

 cart.    s( 1) = (  1.0000000  0.0000000  0.0000000 )
                  (  0.0000000  1.0000000  0.0000000 )
                  (  0.0000000  0.0000000  1.0000000 )

      isym =  2     180 deg rotation - cart. axis [1,0,0]

 cryst.   s( 2) = (     1          0          0      )    f =( -0.2500000 )
                  (     1         -1          0      )       ( -0.2500000 )
                  (     1          0         -1      )       ( -0.2500000 )

 cart.    s( 2) = (  1.0000000  0.0000000  0.0000000 )    f =( -0.5000000 )
                  (  0.0000000 -1.0000000  0.0000000 )       ( -0.2886751 )
                  (  0.0000000  0.0000000 -1.0000000 )       ( -0.2041241 )

      isym =  3     120 deg rotation - cryst. axis [0,0,1]

[...]

      isym =  6     180 deg rotation - cryst. axis [1,1,0]

[...]

      isym =  7     inversion

[...]

      isym =  8     inv. 180 deg rotation - cart. axis [1,0,0]

 cryst.   s( 8) = (    -1          0          0      )
                  (    -1          1          0      )
                  (    -1          0          1      )

 cart.    s( 8) = ( -1.0000000  0.0000000  0.0000000 )
                  (  0.0000000  1.0000000  0.0000000 )
                  (  0.0000000  0.0000000  1.0000000 )

      isym =  9     inv. 120 deg rotation - cryst. axis [0,0,1]

 cryst.   s( 9) = (     1         -1          0      )    f =( -0.2500000 )
                  (     1          0          0      )       ( -0.2500000 )
                  (     1          0         -1      )       ( -0.2500000 )

 cart.    s( 9) = (  0.5000000  0.8660254  0.0000000 )    f =( -0.5000000 )
                  ( -0.8660254  0.5000000  0.0000000 )       ( -0.2886751 )
                  (  0.0000000  0.0000000 -1.0000000 )       ( -0.2041241 )

[...]

 cryst.   s(10) = (     0          1          0      )    f =( -0.2500000 )
                  (    -1          1          0      )       ( -0.2500000 )
                  (     0          1         -1      )       ( -0.2500000 )

 cart.    s(10) = (  0.5000000 -0.8660254 -0.0000000 )    f =( -0.5000000 )
                  (  0.8660254  0.5000000  0.0000000 )       ( -0.2886751 )
                  (  0.0000000  0.0000000 -1.0000000 )       ( -0.2041241 )

[...]

 cryst.   s(11) = (     0          1          0      )
                  (     1          0          0      )
                  (     0          0          1      )

 cart.    s(11) = (  0.5000000  0.8660254  0.0000000 )
                  (  0.8660254 -0.5000000 -0.0000000 )
                  (  0.0000000  0.0000000  1.0000000 )

      isym = 12     inv. 180 deg rotation - cryst. axis [1,1,0]

 cryst.   s(12) = (     1         -1          0      )
                  (     0         -1          0      )
                  (     0         -1          1      )

 cart.    s(12) = (  0.5000000 -0.8660254 -0.0000000 )
                  ( -0.8660254 -0.5000000 -0.0000000 )
                  (  0.0000000  0.0000000  1.0000000 )

   Cartesian axes

     site n.     atom                  positions (alat units)
         1           Tm  tau(   1) = (   0.7500000   0.1443376   0.1020621  )
         2           Tm  tau(   2) = (   0.2500000   0.1443376   0.1020621  )
         3           Tm  tau(   3) = (   0.5000000   0.5773503   0.1020621  )
         4           Tm  tau(   4) = (   0.5000000   0.2886751   0.5103104  )
         5           Cd  tau(   5) = (   1.5000000   0.8660254   0.6123724  )
         6           Cd  tau(   6) = (   1.0000000   0.5773503   0.4082483  )
         7           S   tau(   7) = (   0.7334560   0.4234610   0.2994322  )
         8           S   tau(   8) = (   1.2334550   1.0199147   0.7211886  )
         9           S   tau(   9) = (   1.4999995   0.8660251   0.2859232  )
        10           S   tau(  10) = (   1.4999995   0.5582460   0.7211886  )
        11           S   tau(  11) = (   1.0000005   0.5773506   0.7346975  )
        12           S   tau(  12) = (   1.0000005   0.8851296   0.2994322  )
        13           S   tau(  13) = (   1.7665440   1.0199147   0.7211886  )
        14           S   tau(  14) = (   1.2665450   0.4234610   0.2994322  )

   Crystallographic axes

     site n.     atom                  positions (cryst. coord.)
         1           Tm  tau(   1) = (  0.6250000  0.1250000  0.1250000  )
         2           Tm  tau(   2) = (  0.1250000  0.1250000  0.1250000  )
         3           Tm  tau(   3) = (  0.1250000  0.6250000  0.1250000  )
         4           Tm  tau(   4) = (  0.1250000  0.1250000  0.6250000  )
         5           Cd  tau(   5) = (  0.7500000  0.7500000  0.7500000  )
         6           Cd  tau(   6) = (  0.5000000  0.5000000  0.5000000  )
         7           S   tau(   7) = (  0.3667280  0.3667280  0.3667280  )
         8           S   tau(   8) = (  0.3501830  0.8832720  0.8832720  )
         9           S   tau(   9) = (  0.8832720  0.8832720  0.3501830  )
        10           S   tau(  10) = (  0.8832720  0.3501830  0.8832720  )
        11           S   tau(  11) = (  0.3667280  0.3667280  0.8998170  )
        12           S   tau(  12) = (  0.3667280  0.8998170  0.3667280  )
        13           S   tau(  13) = (  0.8832720  0.8832720  0.8832720  )
        14           S   tau(  14) = (  0.8998170  0.3667280  0.3667280  )

     number of k points=     6
                       cart. coord. in units 2pi/alat
        k(    1) = (   0.0000000   0.0000000   0.0000000), wk =   0.0740741
        k(    2) = (   0.0000000   0.0000000   0.4082483), wk =   0.1481481
        k(    3) = (   0.0000000   0.3849002  -0.1360828), wk =   0.4444444
        k(    4) = (   0.0000000   0.3849002   0.2721655), wk =   0.4444444
        k(    5) = (   0.0000000   0.3849002  -0.5443311), wk =   0.4444444
        k(    6) = (   0.3333333  -0.5773503  -0.0000000), wk =   0.4444444

                       cryst. coord.
        k(    1) = (   0.0000000   0.0000000   0.0000000), wk =   0.0740741
        k(    2) = (   0.0000000   0.0000000   0.3333333), wk =   0.1481481
        k(    3) = (   0.0000000   0.3333333   0.0000000), wk =   0.4444444
        k(    4) = (   0.0000000   0.3333333   0.3333333), wk =   0.4444444
        k(    5) = (   0.0000000   0.3333333  -0.3333333), wk =   0.4444444
        k(    6) = (   0.3333333  -0.3333333   0.0000000), wk =   0.4444444

     Check: negative core charge=   -0.000001

     Initial potential from superposition of free atoms

     starting charge     163.9725, renormalised to     164.0000
     Starting wfcs are  178 randomized atomic wfcs +   78 random wfcs
     Checking if some PAW data can be deallocated...

     Self-consistent Calculation

     iteration #  1     ecut=    30.00 Ry     beta= 0.70
     Davidson diagonalization with overlap

     ethr =  1.00E-02,  avg # of iterations =  7.0

     total energy              =   -4216.14562471 Ry
     estimated scf accuracy    <       6.30102545 Ry

[...]

     c_bands:  1 eigenvalues not converged
     ethr =  3.70E-07,  avg # of iterations = 12.7

[...]

     total energy              =   -4223.91141774 Ry
     estimated scf accuracy    <       0.00000631 Ry

     iteration #154     ecut=    30.00 Ry     beta= 0.70
     Davidson diagonalization with overlap

     ethr =  1.40E-09,  avg # of iterations =  1.0

     End of self-consistent calculation

          k = 0.0000 0.0000 0.0000 (  6567 PWs)   bands (ev):

   -42.1930 -42.1872 -42.1872 -42.1870 -15.5861 -15.4676 -15.4676 -15.4676
   -15.3955 -15.3955 -15.3315 -15.3314 -15.3314 -15.3260 -15.3259 -15.3258
    -5.0366  -4.3149  -4.3146  -4.3146  -4.0894  -4.0599  -4.0597  -4.0597
    -0.3183  -0.3182  -0.3182  -0.2903  -0.2903  -0.2624  -0.2624  -0.2558
    -0.2557  -0.2557   2.2844   3.1769   3.5059   3.5059   3.5059   4.8765
     4.8765   5.3681   5.3681   5.4770   5.4772   5.4772   5.6513   5.6513
     5.6514   5.7083   5.7086   5.7086   5.9487   5.9487   5.9487   6.2973
     6.2973   6.2974   6.9439   6.9439   6.9651   6.9835   6.9836   6.9836
     7.0261   7.0261   7.0300   7.0301   7.0302   7.0751   7.0751   7.0752
     7.0810   7.1473   7.1884   7.1885   7.1886   7.2159   7.2159   7.2160
     7.2828   7.2828   7.2828   7.6657   7.6657   7.6657   8.4081   9.9819
    10.0132  10.0132  10.8262  11.2538  11.2538  11.2539  12.1806  12.1806
    12.1807  12.7953  12.7953  12.7953  13.7082  13.7082  13.7083  13.8080
    13.8081  13.8081  13.9713  13.9713  14.8735  14.8735  14.8736  14.9005
    14.9006  14.9006  15.6763  16.0130  16.0130  16.0141  16.0142  16.0142
    16.6011  16.6011  16.6012  17.0130  17.1157  17.1157  17.1157  18.2435
    18.2435  18.2722  18.8111  18.8111  18.8990  19.0181  19.0181  19.0181
    19.8968  19.8969  19.8969  20.0383  20.0383  20.0384  20.6992  20.6992
    20.6993  20.8353  20.8354  20.8354  21.1090  21.1090  21.4120  21.4121
    21.4121  22.6882  22.6882  22.6882  22.7993  22.7993  22.7993  23.1269
    23.2241  23.2241  23.2241  23.6646  23.6646  23.6983  23.8756  23.8756
    23.8757  24.5930  24.5930  24.5930  25.0279  25.0280  25.0280  25.9719
    25.9719  26.5137  26.9509  26.9509  27.2820  27.2821  27.2821  27.3480
    27.3480  27.3481  27.4155  28.3758  28.3759  28.3759  28.7046  28.7046
    28.7047  28.7372  28.7372  28.7373  29.2115  29.6883  29.6883  29.8165
    29.8165  29.8386  30.4484  30.4484  30.4484  31.1552  31.1553  31.1553
    31.5522  31.6334  31.6334  31.6335  32.4443  32.4443  32.4443  32.8679
    33.2171  33.2171  33.2171  33.6833  33.6833  34.0571  34.0571  34.0572
    34.0806  34.0806  34.1062  34.1063  34.1063  34.4119  34.4119  34.4119
    34.5656  34.5656  34.5656  35.1745  35.1745  35.1745  35.2599  35.2600
    35.2600  36.2247  36.2247  36.3055  36.3055  36.3882  36.3883  36.3883
    36.5962  36.5962  36.5962  36.7289  36.7290  36.7290  37.4452  37.5584

     occupation numbers
     1.0000   1.0000   1.0000   1.0000   1.0000   1.0000   1.0000   1.0000
     1.0000   1.0000   1.0000   1.0000   1.0000   1.0000   1.0000   1.0000
     1.0000   1.0000   1.0000   1.0000   1.0000   1.0000   1.0000   1.0000
     1.0000   1.0000   1.0000   1.0000   1.0000   1.0000   1.0000   1.0000
     1.0000   1.0000   1.0000   1.0000   1.0000   1.0000   1.0000   1.0000
     1.0000   1.0000   1.0000   1.0000   1.0000   1.0000   1.0000   1.0000
     1.0000   1.0000   1.0000   1.0000   1.0000   1.0000   1.0000   1.0000
     1.0000   1.0000   1.0000   1.0000   1.0000   1.0000   1.0000   1.0000
     1.0000   1.0000   1.0000   1.0000   1.0000   1.0000   1.0000   1.0000
     1.0000   1.0000   1.0000   1.0000   1.0000   1.0000   1.0000   1.0000
     1.0000   1.0000   0.0000   0.0000   0.0000   0.0000   0.0000   0.0000
     0.0000   0.0000   0.0000   0.0000   0.0000   0.0000   0.0000   0.0000
     0.0000   0.0000   0.0000   0.0000   0.0000   0.0000   0.0000   0.0000
     0.0000   0.0000   0.0000   0.0000   0.0000   0.0000   0.0000   0.0000
     0.0000   0.0000   0.0000   0.0000   0.0000   0.0000   0.0000   0.0000
     0.0000   0.0000   0.0000   0.0000   0.0000   0.0000   0.0000   0.0000
     0.0000   0.0000   0.0000   0.0000   0.0000   0.0000   0.0000   0.0000
     0.0000   0.0000   0.0000   0.0000   0.0000   0.0000   0.0000   0.0000
     0.0000   0.0000   0.0000   0.0000   0.0000   0.0000   0.0000   0.0000
     0.0000   0.0000   0.0000   0.0000   0.0000   0.0000   0.0000   0.0000
     0.0000   0.0000   0.0000   0.0000   0.0000   0.0000   0.0000   0.0000
     0.0000   0.0000   0.0000   0.0000   0.0000   0.0000   0.0000   0.0000
     0.0000   0.0000   0.0000   0.0000   0.0000   0.0000   0.0000   0.0000
     0.0000   0.0000   0.0000   0.0000   0.0000   0.0000   0.0000   0.0000
     0.0000   0.0000   0.0000   0.0000   0.0000   0.0000   0.0000   0.0000
     0.0000   0.0000   0.0000   0.0000   0.0000   0.0000   0.0000   0.0000
     0.0000   0.0000   0.0000   0.0000   0.0000   0.0000   0.0000   0.0000
     0.0000   0.0000   0.0000   0.0000   0.0000   0.0000   0.0000   0.0000
     0.0000   0.0000   0.0000   0.0000   0.0000   0.0000   0.0000   0.0000
     0.0000   0.0000   0.0000   0.0000   0.0000   0.0000   0.0000   0.0000
     0.0000   0.0000   0.0000   0.0000   0.0000   0.0000   0.0000   0.0000
     0.0000   0.0000   0.0000   0.0000   0.0000   0.0000   0.0000   0.0000

[...]

          k = 0.3333-0.5774-0.0000 (  6557 PWs)   bands (ev):

   -42.1908 -42.1894 -42.1872 -42.1871 -15.5151 -15.4663 -15.4215 -15.4214
   -15.4173 -15.3992 -15.3696 -15.3670 -15.3563 -15.3497 -15.3481 -15.3283
    -4.6421  -4.4594  -4.3328  -4.2836  -4.2329  -4.1438  -4.1276  -4.0894
    -0.3753  -0.3363  -0.3089  -0.2865  -0.2851  -0.2796  -0.2795  -0.2782
    -0.2704  -0.2698   3.2786   3.2884   4.0027   4.2426   4.3304   4.4723
     4.5215   4.8400   4.8773   4.9113   5.0903   5.2926   5.3885   5.4050
     5.4368   5.4663   5.6626   5.7130   5.8062   5.8240   5.9806   6.0723
     6.0898   6.1667   6.9678   6.9740   6.9921   6.9946   7.0143   7.0256
     7.0413   7.0449   7.0539   7.0550   7.0686   7.0804   7.0850   7.0965
     7.0991   7.1177   7.1184   7.1367   7.1370   7.1426   7.1505   7.1730
     7.2006   7.2040   7.2161   7.2172   7.2597   7.3952  10.3083  10.4690
    10.7363  11.3079  11.3864  11.5556  11.6525  11.8236  12.2048  12.4390
    12.6101  12.7002  12.7456  12.7966  13.0494  13.1554  13.6311  13.6339
    13.7366  13.8204  13.9346  14.3804  14.5943  14.7569  14.8396  15.1765
    15.2152  15.3678  15.3802  15.5282  15.6656  15.7091  15.8774  15.9348
    15.9677  16.2456  16.3443  16.7322  16.9456  17.0827  17.2730  17.7131
    17.7307  18.0056  18.0360  18.3872  18.4879  18.7692  18.8359  18.9400
    18.9953  19.2336  19.2381  19.7200  19.9202  19.9381  19.9604  20.4623
    20.8436  21.0875  21.2512  21.3962  21.4531  21.8226  22.0782  22.1193
    22.1471  22.2692  22.6552  22.7329  22.7425  22.9692  23.0059  23.0506
    23.7822  23.8497  24.0533  24.3474  24.4944  24.5278  24.7253  24.7827
    24.9986  25.0421  25.1531  25.2178  25.4621  25.5576  25.7761  25.9146
    26.1593  26.2658  26.3807  26.4178  26.4354  26.5103  27.1476  27.2154
    27.3480  27.5436  27.6333  27.6674  27.7433  28.2378  28.4776  28.5008
    28.5186  28.6830  28.9595  29.0966  29.5954  29.6786  29.6885  30.0330
    30.0573  30.3069  30.3414  30.5345  30.5679  30.7263  30.9135  30.9140
    31.0676  31.1373  31.2052  31.4931  31.5108  31.5288  31.9739  31.9873
    32.0016  32.1063  32.2360  32.5857  32.6167  32.9251  33.0664  33.2171
    33.3682  33.4381  33.4608  33.7987  33.9233  34.0275  34.0506  34.2957
    34.3564  34.5441  34.8725  34.9242  35.1004  35.1667  35.2244  35.2938
    35.4908  35.5231  35.6807  35.8424  36.0772  36.3381  36.5623  36.8815
    36.9404  37.0243  37.0419  37.2281  37.2637  37.4601  37.8193  37.9510

     occupation numbers
     1.0000   1.0000   1.0000   1.0000   1.0000   1.0000   1.0000   1.0000
     1.0000   1.0000   1.0000   1.0000   1.0000   1.0000   1.0000   1.0000
     1.0000   1.0000   1.0000   1.0000   1.0000   1.0000   1.0000   1.0000
     1.0000   1.0000   1.0000   1.0000   1.0000   1.0000   1.0000   1.0000
     1.0000   1.0000   1.0000   1.0000   1.0000   1.0000   1.0000   1.0000
     1.0000   1.0000   1.0000   1.0000   1.0000   1.0000   1.0000   1.0000
     1.0000   1.0000   1.0000   1.0000   1.0000   1.0000   1.0000   1.0000
     1.0000   1.0000   1.0000   1.0000   1.0000   1.0000   1.0000   1.0000
     1.0000   1.0000   1.0000   1.0000   1.0000   1.0000   1.0000   1.0000
     1.0000   1.0000   1.0000   1.0000   1.0000   1.0000   1.0000   1.0000
     1.0000   1.0000   0.0000   0.0000   0.0000   0.0000   0.0000   0.0000
     0.0000   0.0000   0.0000   0.0000   0.0000   0.0000   0.0000   0.0000
     0.0000   0.0000   0.0000   0.0000   0.0000   0.0000   0.0000   0.0000
     0.0000   0.0000   0.0000   0.0000   0.0000   0.0000   0.0000   0.0000
     0.0000   0.0000   0.0000   0.0000   0.0000   0.0000   0.0000   0.0000
     0.0000   0.0000   0.0000   0.0000   0.0000   0.0000   0.0000   0.0000
     0.0000   0.0000   0.0000   0.0000   0.0000   0.0000   0.0000   0.0000
     0.0000   0.0000   0.0000   0.0000   0.0000   0.0000   0.0000   0.0000
     0.0000   0.0000   0.0000   0.0000   0.0000   0.0000   0.0000   0.0000
     0.0000   0.0000   0.0000   0.0000   0.0000   0.0000   0.0000   0.0000
     0.0000   0.0000   0.0000   0.0000   0.0000   0.0000   0.0000   0.0000
     0.0000   0.0000   0.0000   0.0000   0.0000   0.0000   0.0000   0.0000
     0.0000   0.0000   0.0000   0.0000   0.0000   0.0000   0.0000   0.0000
     0.0000   0.0000   0.0000   0.0000   0.0000   0.0000   0.0000   0.0000
     0.0000   0.0000   0.0000   0.0000   0.0000   0.0000   0.0000   0.0000
     0.0000   0.0000   0.0000   0.0000   0.0000   0.0000   0.0000   0.0000
     0.0000   0.0000   0.0000   0.0000   0.0000   0.0000   0.0000   0.0000
     0.0000   0.0000   0.0000   0.0000   0.0000   0.0000   0.0000   0.0000
     0.0000   0.0000   0.0000   0.0000   0.0000   0.0000   0.0000   0.0000
     0.0000   0.0000   0.0000   0.0000   0.0000   0.0000   0.0000   0.0000
     0.0000   0.0000   0.0000   0.0000   0.0000   0.0000   0.0000   0.0000
     0.0000   0.0000   0.0000   0.0000   0.0000   0.0000   0.0000   0.0000

     highest occupied, lowest unoccupied level (ev):     7.2828    7.2160

!    total energy              =   -4223.91141557 Ry
     estimated scf accuracy    <       0.00000069 Ry

     The total energy is the sum of the following terms:
     one-electron contribution =   -1700.26804245 Ry
     hartree contribution      =     846.06013005 Ry
     xc contribution           =    -295.86542849 Ry
     ewald contribution        =   -1122.02600834 Ry
     one-center paw contrib.   =   -1951.81206635 Ry
      -> PAW hartree energy AE =     782.31888805 Ry
      -> PAW hartree energy PS =    -688.65934024 Ry
      -> PAW xc energy AE      =   -1138.40960455 Ry
      -> PAW xc energy PS      =      68.84596692 Ry
      -> total E_H with PAW    =     939.71967787 Ry
      -> total E_XC with PAW   =   -1365.42906612 Ry

     convergence has been achieved in 154 iterations

     Writing all to output data dir bands_nm/myprefix.save/

     General routines

     Parallel routines

     PAW routines

   This run was terminated on:  22:58:25  15Jul2023

   JOB DONE.