     Program PWSCF v.7.1 starts on 16Jul2023 at 21: 6:22

     Reading input from espresso_15916.pwi
Warning: card &CELL ignored
Warning: card / ignored

     Current dimensions of program PWSCF are:
     Max number of different atomic species (ntypx) = 10
     Max number of k-points (npk) =  40000
     Max angular momentum in pseudopotentials (lmaxx) =  4
     file K.pbe-spn-kjpaw_psl.1.0.0.UPF: wavefunction(s)  3S renormalized
     file Dy.paw.z_20.atompaw.wentzcovitch.v1.2.upf: wavefunction(s)  6S 0P 5D 0D 4F 0F renormalized
     Message from routine setup:
     using ibrav=0 with symmetry is DISCOURAGED, use correct ibrav instead

     K-points division:     npool     =       2
     R & G space division:  proc/nbgrp/npool/nimage =       4
     Subspace diagonalization in iterative solution of the eigenvalue problem:
     one sub-group per band group will be used

     Using Slab Decomposition

     bravais-lattice index     =            0
     lattice parameter (alat)  =      11.0743  a.u.
     unit-cell volume          =    1666.1128 (a.u.)^3
     number of atoms/cell      =           18
     number of atomic types    =            4
     number of electrons       =       150.00
     number of Kohn-Sham states=          256
     kinetic-energy cutoff     =      30.0000  Ry
     charge density cutoff     =     240.0000  Ry
     scf convergence threshold =      1.0E-06
     mixing beta               =       0.7000
     number of iterations used =            8  plain     mixing
     Exchange-correlation=  SLA  PW   PBX  PBC
                           (   1   4   3   4   0   0   0)

     celldm(1)=  11.074288  celldm(2)=   0.000000  celldm(3)=   0.000000
     celldm(4)=   0.000000  celldm(5)=   0.000000  celldm(6)=   0.000000

     crystal axes: (cart. coord. in units of alat)
               a(1) = (   1.000000   0.000000   0.000000 )
               a(2) = (   0.000000   1.097968   0.000000 )
               a(3) = (   0.000000  -0.475491   1.117293 )

     reciprocal axes: (cart. coord. in units 2 pi/alat)
               b(1) = (  1.000000  0.000000  0.000000 )
               b(2) = (  0.000000  0.910773  0.387601 )
               b(3) = (  0.000000  0.000000  0.895020 )

     PseudoPot. # 1 for K  read from file:
     /lustre07/scratch/pragov/crystal_structure_design/utils/SSSP/K.pbe-spn-kjpaw_psl.1.0.0.UPF
     MD5 check sum: 7d58810084cac21f60fbe77ea2b688fd
     Pseudo is Projector augmented-wave + core cor, Zval =  9.0
     Generated using "atomic" code by A. Dal Corso  v.5.1
     Shape of augmentation charge: PSQ
     Using radial grid of 1165 points,  6 beta functions with:
                l(1) =   0
                l(2) =   0
                l(3) =   1
                l(4) =   1
                l(5) =   2
                l(6) =   2
     Q(r) pseudized with 0 coefficients

     PseudoPot. # 2 for Dy read from file:
     /lustre07/scratch/pragov/crystal_structure_design/utils/SSSP/Dy.paw.z_20.atompaw.wentzcovitch.v1.2.upf
     MD5 check sum: fad4f994dc38884d1fc17fd7bf5e13bf
     Pseudo is Projector augmented-wave + core cor, Zval = 20.0
     Generated using ATOMPAW code
     Shape of augmentation charge: BESSEL
     Using radial grid of 1112 points,  8 beta functions with:
                l(1) =   0
                l(2) =   0
                l(3) =   1
                l(4) =   1
                l(5) =   2
                l(6) =   2
                l(7) =   3
                l(8) =   3
     Q(r) pseudized with 0 coefficients

     PseudoPot. # 3 for Be read from file:
     /lustre07/scratch/pragov/crystal_structure_design/utils/SSSP/be_pbe_v1.4.uspp.F.UPF
     MD5 check sum: 5ecff1440924c7c98ad504bef30f5264
     Pseudo is Ultrasoft, Zval =  4.0
     Generated by new atomic code, or converted to UPF format
     Using radial grid of  769 points,  6 beta functions with:
                l(1) =   0
                l(2) =   0
                l(3) =   0
                l(4) =   1
                l(5) =   1
                l(6) =   2
     Q(r) pseudized with 10 coefficients,  rinner =    1.000   1.000   1.000
                                                       1.000   1.000

     PseudoPot. # 4 for F  read from file:
     /lustre07/scratch/pragov/crystal_structure_design/utils/SSSP/f_pbe_v1.4.uspp.F.UPF
     MD5 check sum: 4c38b6a325caf53ec0e86aed9459de46
     Pseudo is Ultrasoft, Zval =  7.0
     Generated by new atomic code, or converted to UPF format
     Using radial grid of  799 points,  4 beta functions with:
                l(1) =   0
                l(2) =   0
                l(3) =   1
                l(4) =   1
     Q(r) pseudized with  8 coefficients,  rinner =    0.950   0.950   0.950

     atomic species   valence    mass     pseudopotential
        K              9.00    39.09830     K ( 1.00)
        Dy            20.00   162.50000     Dy( 1.00)
        Be             4.00     9.01218     Be( 1.00)
        F              7.00    18.99840     F ( 1.00)

      4 Sym. Ops., with inversion, found ( 2 have fractional translation)

                                    s                        frac. trans.

      isym =  1     identity

 cryst.   s( 1) = (     1          0          0      )
                  (     0          1          0      )
                  (     0          0          1      )

 cart.    s( 1) = (  1.0000000  0.0000000  0.0000000 )
                  (  0.0000000  1.0000000 -0.0000000 )
                  (  0.0000000  0.0000000  1.0000000 )

      isym =  2     180 deg rotation - cart. axis [1,0,0]

 cryst.   s( 2) = (     1          0          0      )    f =(  0.5000000 )
                  (     0         -1          0      )       ( -0.0000000 )
                  (     0          0         -1      )       ( -0.0000000 )

 cart.    s( 2) = (  1.0000000  0.0000000  0.0000000 )    f =(  0.5000000 )
                  (  0.0000000 -1.0000000  0.0000000 )       ( -0.0000000 )
                  (  0.0000000  0.0000000 -1.0000000 )       ( -0.0000000 )

      isym =  3     inversion

 cryst.   s( 3) = (    -1          0          0      )
                  (     0         -1          0      )
                  (     0          0         -1      )

 cart.    s( 3) = ( -1.0000000  0.0000000  0.0000000 )
                  (  0.0000000 -1.0000000  0.0000000 )
                  (  0.0000000  0.0000000 -1.0000000 )

      isym =  4     inv. 180 deg rotation - cart. axis [1,0,0]

 cryst.   s( 4) = (    -1          0          0      )    f =(  0.5000000 )
                  (     0          1          0      )       (  0.0000000 )
                  (     0          0          1      )       (  0.0000000 )

 cart.    s( 4) = ( -1.0000000  0.0000000  0.0000000 )    f =(  0.5000000 )
                  (  0.0000000  1.0000000 -0.0000000 )       (  0.0000000 )
                  (  0.0000000  0.0000000  1.0000000 )       (  0.0000000 )

   Cartesian axes

     site n.     atom                  positions (alat units)
         1           K   tau(   1) = (   0.7500000  -0.0184324   0.2272664  )
         2           K   tau(   2) = (   0.2500000   0.6409099   0.8900268  )
         3           Dy  tau(   3) = (   0.7500000   0.0365484   0.9158709  )
         4           Dy  tau(   4) = (   0.2500000   0.5859291   0.2014223  )
         5           Be  tau(   5) = (   0.7500000   0.5874574   0.5985909  )
         6           Be  tau(   6) = (   0.2500000   0.0350201   0.5187022  )
         7           F   tau(   7) = (   0.9652100   0.6497531   0.4525563  )
         8           F   tau(   8) = (   0.0347900  -0.0272756   0.6647369  )
         9           F   tau(   9) = (   0.4652100  -0.0272756   0.6647369  )
        10           F   tau(  10) = (   0.5347900   0.6497531   0.4525563  )
        11           F   tau(  11) = (   0.7500000   0.3319814   0.6612756  )
        12           F   tau(  12) = (   0.2500000   0.2904960   0.4560176  )
        13           F   tau(  13) = (   0.9986040   0.2872381   1.0789756  )
        14           F   tau(  14) = (   0.0013960   0.3352394   0.0383176  )
        15           F   tau(  15) = (   0.4986040   0.3352394   0.0383176  )
        16           F   tau(  16) = (   0.5013960   0.2872381   1.0789756  )
        17           F   tau(  17) = (   0.7500000   0.7352260   0.8225255  )
        18           F   tau(  18) = (   0.2500000  -0.1127485   0.2947676  )

   Crystallographic axes

     site n.     atom                  positions (cryst. coord.)
         1           K   tau(   1) = (  0.7500000  0.0713010  0.2034080  )
         2           K   tau(   2) = (  0.2500000  0.9286990  0.7965920  )
         3           Dy  tau(   3) = (  0.7500000  0.3882800  0.8197230  )
         4           Dy  tau(   4) = (  0.2500000  0.6117200  0.1802770  )
         5           Be  tau(   5) = (  0.7500000  0.7670550  0.5357510  )
         6           Be  tau(   6) = (  0.2500000  0.2329450  0.4642490  )
         7           F   tau(   7) = (  0.9652100  0.7671890  0.4050470  )
         8           F   tau(   8) = (  0.0347900  0.2328110  0.5949530  )
         9           F   tau(   9) = (  0.4652100  0.2328110  0.5949530  )
        10           F   tau(  10) = (  0.5347900  0.7671890  0.4050470  )
        11           F   tau(  11) = (  0.7500000  0.5586710  0.5918550  )
        12           F   tau(  12) = (  0.2500000  0.4413290  0.4081450  )
        13           F   tau(  13) = (  0.9986040  0.6798210  0.9657050  )
        14           F   tau(  14) = (  0.0013960  0.3201790  0.0342950  )
        15           F   tau(  15) = (  0.4986040  0.3201790  0.0342950  )
        16           F   tau(  16) = (  0.5013960  0.6798210  0.9657050  )
        17           F   tau(  17) = (  0.7500000  0.9884360  0.7361770  )
        18           F   tau(  18) = (  0.2500000  0.0115640  0.2638230  )

     number of k points=    10
                       cart. coord. in units 2pi/alat
        k(    1) = (   0.0000000   0.0000000   0.0000000), wk =   0.0740741
        k(    2) = (   0.0000000   0.0000000   0.2983401), wk =   0.1481481
        k(    3) = (   0.0000000   0.3035910   0.1292004), wk =   0.1481481
        k(    4) = (   0.0000000   0.3035910   0.4275405), wk =   0.1481481
        k(    5) = (   0.0000000   0.3035910  -0.1691397), wk =   0.1481481
        k(    6) = (   0.3333333   0.0000000   0.0000000), wk =   0.1481481
        k(    7) = (   0.3333333   0.0000000   0.2983401), wk =   0.2962963
        k(    8) = (   0.3333333   0.3035910   0.1292004), wk =   0.2962963
        k(    9) = (   0.3333333   0.3035910   0.4275405), wk =   0.2962963
        k(   10) = (   0.3333333   0.3035910  -0.1691397), wk =   0.2962963

                       cryst. coord.
        k(    1) = (   0.0000000   0.0000000   0.0000000), wk =   0.0740741
        k(    2) = (   0.0000000   0.0000000   0.3333333), wk =   0.1481481
        k(    3) = (   0.0000000   0.3333333   0.0000000), wk =   0.1481481
        k(    4) = (   0.0000000   0.3333333   0.3333333), wk =   0.1481481
        k(    5) = (   0.0000000   0.3333333  -0.3333333), wk =   0.1481481
        k(    6) = (   0.3333333   0.0000000   0.0000000), wk =   0.1481481
        k(    7) = (   0.3333333   0.0000000   0.3333333), wk =   0.2962963
        k(    8) = (   0.3333333   0.3333333   0.0000000), wk =   0.2962963
        k(    9) = (   0.3333333   0.3333333   0.3333333), wk =   0.2962963
        k(   10) = (   0.3333333   0.3333333  -0.3333333), wk =   0.2962963

     Check: negative core charge=   -0.000002

     Initial potential from superposition of free atoms

     starting charge     149.9544, renormalised to     150.0000
     Starting wfcs are  138 randomized atomic wfcs +  118 random wfcs
     Checking if some PAW data can be deallocated...

     Self-consistent Calculation

     iteration #  1     ecut=    30.00 Ry     beta= 0.70
     Davidson diagonalization with overlap

     ethr =  1.00E-02,  avg # of iterations =  7.3

     total energy              =   -2420.64016092 Ry
     estimated scf accuracy    <       2.01833600 Ry

[...]

     total energy              =   -2422.27228046 Ry
     estimated scf accuracy    <       0.00000726 Ry

     iteration # 52     ecut=    30.00 Ry     beta= 0.70
     Davidson diagonalization with overlap

     ethr =  3.40E-09,  avg # of iterations =  1.0

     End of self-consistent calculation

          k = 0.0000 0.0000 0.0000 (  4651 PWs)   bands (ev):

   -92.8559 -92.8540 -39.6414 -39.6267 -23.1237 -23.1064 -18.2756 -18.1850
   -17.8903 -17.8847 -17.7132 -17.6111 -17.5153 -17.4850 -17.3524 -17.2115
   -17.0349 -16.8238 -15.2559 -15.2549 -15.2538 -14.7286 -14.5706 -14.4893
    -6.6628  -6.6582  -6.6107  -6.6045  -6.5934  -6.5806  -0.9696  -0.9503
    -0.6080  -0.3529  -0.1344  -0.0124   0.0523   0.0772   0.3675   0.4188
     0.5829   0.6929   0.7952   0.8405   1.0680   1.1973   1.2185   1.2338
     1.4829   1.5663   1.7301   1.7845   1.8175   1.8219   1.9071   1.9968
     2.0447   2.0979   2.1914   2.1978   2.3051   2.3523   2.3702   2.3838
     2.3864   2.5340   4.5063   4.5267   4.5552   4.5664   4.5698   4.5970
     4.6112   4.6125   4.8126   4.8259   4.8323   4.8504   4.8655   4.8890
    10.0875  11.3295  11.5685  12.2687  12.2922  12.6255  12.6589  13.1981
    13.3356  13.5298  13.7707  13.8780  14.0975  14.1869  14.3581  14.5766
    14.5982  14.6497  14.6700  14.8477  15.1320  15.3944  15.5645  15.5696
    15.7743  16.8302  16.9118  17.1606  17.6752  18.2351  18.3599  18.4950
    18.8082  19.1107  19.3198  19.3839  19.4669  19.6920  20.2991  20.3378
    20.8181  20.8486  21.2168  21.5688  21.6721  21.9506  22.2478  22.6239
    22.7707  23.1248  23.2927  23.7418  24.1471  24.1781  24.4408  24.7275
    25.1375  25.3951  25.4253  25.6693  26.1730  26.4836  26.5137  26.9663
    27.0172  27.2473  27.3045  27.3833  27.7179  27.8318  28.2129  28.2211
    28.5526  28.5908  28.7550  29.5074  29.5976  29.7851  29.9676  30.0165
    30.4129  30.7221  30.7811  30.9502  31.2191  31.2873  31.3767  32.0020
    32.0982  32.2538  32.5080  32.6750  33.0101  33.0499  33.5317  33.7187
    33.8014  33.9649  34.1165  34.3421  34.8061  34.9216  35.0038  35.1669
    35.6549  35.8561  35.8912  36.1181  36.1425  36.9251  36.9994  37.0209
    37.0465  37.0602  37.8956  37.9193  38.0326  38.3772  38.4119  38.5537
    38.6610  38.7440  38.7449  39.0648  39.4935  39.5546  39.5548  39.6253
    39.8791  40.3869  40.4721  40.5970  40.6759  40.9183  41.1136  41.1420
    41.2358  41.3639  41.9105  42.0118  42.0267  42.4865  42.4991  42.5371
    42.6855  42.7212  42.9525  43.4445  43.6504  44.0781  44.1136  44.2508
    44.3572  44.3677  44.7713  44.9263  44.9738  44.9986  45.0384  45.2029
    45.2633  45.5848  45.6778  45.7499  45.7680  45.8947  46.2109  46.3687
    46.9310  46.9668  47.1432  47.1433  47.1873  47.3025  47.4479  47.5071

     occupation numbers
     1.0000   1.0000   1.0000   1.0000   1.0000   1.0000   1.0000   1.0000
     1.0000   1.0000   1.0000   1.0000   1.0000   1.0000   1.0000   1.0000
     1.0000   1.0000   1.0000   1.0000   1.0000   1.0000   1.0000   1.0000
     1.0000   1.0000   1.0000   1.0000   1.0000   1.0000   1.0000   1.0000
     1.0000   1.0000   1.0000   1.0000   1.0000   1.0000   1.0000   1.0000
     1.0000   1.0000   1.0000   1.0000   1.0000   1.0000   1.0000   1.0000
     1.0000   1.0000   1.0000   1.0000   1.0000   1.0000   1.0000   1.0000
     1.0000   1.0000   1.0000   1.0000   1.0000   1.0000   1.0000   1.0000
     1.0000   1.0000   1.0000   1.0000   1.0000   1.0000   1.0000   1.0000
     1.0000   1.0000   1.0000   0.0000   0.0000   0.0000   0.0000   0.0000
     0.0000   0.0000   0.0000   0.0000   0.0000   0.0000   0.0000   0.0000
     0.0000   0.0000   0.0000   0.0000   0.0000   0.0000   0.0000   0.0000
     0.0000   0.0000   0.0000   0.0000   0.0000   0.0000   0.0000   0.0000
     0.0000   0.0000   0.0000   0.0000   0.0000   0.0000   0.0000   0.0000
     0.0000   0.0000   0.0000   0.0000   0.0000   0.0000   0.0000   0.0000
     0.0000   0.0000   0.0000   0.0000   0.0000   0.0000   0.0000   0.0000
     0.0000   0.0000   0.0000   0.0000   0.0000   0.0000   0.0000   0.0000
     0.0000   0.0000   0.0000   0.0000   0.0000   0.0000   0.0000   0.0000
     0.0000   0.0000   0.0000   0.0000   0.0000   0.0000   0.0000   0.0000
     0.0000   0.0000   0.0000   0.0000   0.0000   0.0000   0.0000   0.0000
     0.0000   0.0000   0.0000   0.0000   0.0000   0.0000   0.0000   0.0000
     0.0000   0.0000   0.0000   0.0000   0.0000   0.0000   0.0000   0.0000
     0.0000   0.0000   0.0000   0.0000   0.0000   0.0000   0.0000   0.0000
     0.0000   0.0000   0.0000   0.0000   0.0000   0.0000   0.0000   0.0000
     0.0000   0.0000   0.0000   0.0000   0.0000   0.0000   0.0000   0.0000
     0.0000   0.0000   0.0000   0.0000   0.0000   0.0000   0.0000   0.0000
     0.0000   0.0000   0.0000   0.0000   0.0000   0.0000   0.0000   0.0000
     0.0000   0.0000   0.0000   0.0000   0.0000   0.0000   0.0000   0.0000
     0.0000   0.0000   0.0000   0.0000   0.0000   0.0000   0.0000   0.0000
     0.0000   0.0000   0.0000   0.0000   0.0000   0.0000   0.0000   0.0000
     0.0000   0.0000   0.0000   0.0000   0.0000   0.0000   0.0000   0.0000
     0.0000   0.0000   0.0000   0.0000   0.0000   0.0000   0.0000   0.0000

[...]

          k = 0.3333 0.3036-0.1691 (  4614 PWs)   bands (ev):

   -92.8530 -92.8513 -39.6377 -39.6304 -23.1186 -23.1106 -18.2607 -18.1092
   -18.0521 -17.8616 -17.8075 -17.6901 -17.4652 -17.3785 -17.2104 -17.1712
   -17.0532 -16.9413 -15.3015 -15.2464 -15.0660 -14.7327 -14.6339 -14.5583
    -6.6626  -6.6518  -6.6024  -6.5919  -6.5881  -6.5707  -1.0115  -0.9238
    -0.4504  -0.4049  -0.2897  -0.0942  -0.0705   0.0141   0.5216   0.6701
     0.7687   0.8225   0.8596   0.9627   1.1213   1.2004   1.2632   1.2943
     1.3970   1.4951   1.5996   1.6696   1.6998   1.7714   1.9179   1.9804
     2.0283   2.0862   2.1138   2.1483   2.2267   2.2600   2.2820   2.3766
     2.4113   2.5237   4.5183   4.5367   4.5393   4.5449   4.5555   4.5651
     4.6315   4.6324   4.8148   4.8284   4.8339   4.8412   4.8668   4.8853
    11.2849  11.4473  11.8578  12.4153  12.5650  12.6312  12.7564  13.0985
    13.1939  13.3463  13.5843  13.6585  13.7475  13.9698  14.1471  14.1971
    14.4022  14.6072  14.7142  14.8103  14.9026  15.0926  15.3741  15.4561
    15.6925  16.3098  17.0935  17.4359  17.7835  18.0990  18.1863  18.3814
    19.1286  19.5614  19.6389  19.7843  20.0230  20.2572  20.4773  20.6390
    20.6944  21.1236  21.4645  21.5318  21.8477  22.1144  22.1480  22.6257
    23.0186  23.1367  23.5741  23.8856  23.9744  24.1925  24.4339  24.7046
    24.8173  25.0841  25.2666  25.5651  25.8499  26.0119  26.1326  26.3054
    26.7382  26.9451  27.1477  27.3767  27.6034  27.7692  27.9981  28.1328
    28.3144  28.5240  28.7156  29.2059  29.4630  29.7321  30.1772  30.2280
    30.5056  30.6390  30.7803  30.9306  31.0319  31.2529  31.6008  31.7096
    32.0008  32.3856  32.6326  32.8459  33.3470  33.4256  33.5965  33.8774
    33.9375  34.2172  34.4023  34.5969  34.6790  34.9665  35.1678  35.2664
    35.5806  35.6651  35.8156  36.1528  36.3910  36.8393  36.9443  37.1364
    37.1730  37.5961  37.7084  37.9203  38.0304  38.2307  38.3537  38.4393
    38.7272  38.9814  38.9971  39.3330  39.4887  39.6591  39.7715  39.9053
    39.9611  40.4045  40.5509  40.6905  40.8305  40.9398  41.2002  41.2299
    41.5487  41.6287  41.7450  42.1081  42.2022  42.2668  42.3505  42.5078
    42.7881  42.8811  43.0208  43.1060  43.2407  43.4282  43.6535  43.6697
    43.7212  43.9332  44.0727  44.3239  44.3737  44.6707  44.8801  44.9693
    45.2502  45.4157  45.5481  45.6645  45.8253  46.0962  46.2567  46.4839
    46.6025  46.8487  46.9989  47.1766  47.3133  47.3893  47.5585  47.8170

     occupation numbers
     1.0000   1.0000   1.0000   1.0000   1.0000   1.0000   1.0000   1.0000
     1.0000   1.0000   1.0000   1.0000   1.0000   1.0000   1.0000   1.0000
     1.0000   1.0000   1.0000   1.0000   1.0000   1.0000   1.0000   1.0000
     1.0000   1.0000   1.0000   1.0000   1.0000   1.0000   1.0000   1.0000
     1.0000   1.0000   1.0000   1.0000   1.0000   1.0000   1.0000   1.0000
     1.0000   1.0000   1.0000   1.0000   1.0000   1.0000   1.0000   1.0000
     1.0000   1.0000   1.0000   1.0000   1.0000   1.0000   1.0000   1.0000
     1.0000   1.0000   1.0000   1.0000   1.0000   1.0000   1.0000   1.0000
     1.0000   1.0000   1.0000   1.0000   1.0000   1.0000   1.0000   1.0000
     1.0000   1.0000   1.0000   0.0000   0.0000   0.0000   0.0000   0.0000
     0.0000   0.0000   0.0000   0.0000   0.0000   0.0000   0.0000   0.0000
     0.0000   0.0000   0.0000   0.0000   0.0000   0.0000   0.0000   0.0000
     0.0000   0.0000   0.0000   0.0000   0.0000   0.0000   0.0000   0.0000
     0.0000   0.0000   0.0000   0.0000   0.0000   0.0000   0.0000   0.0000
     0.0000   0.0000   0.0000   0.0000   0.0000   0.0000   0.0000   0.0000
     0.0000   0.0000   0.0000   0.0000   0.0000   0.0000   0.0000   0.0000
     0.0000   0.0000   0.0000   0.0000   0.0000   0.0000   0.0000   0.0000
     0.0000   0.0000   0.0000   0.0000   0.0000   0.0000   0.0000   0.0000
     0.0000   0.0000   0.0000   0.0000   0.0000   0.0000   0.0000   0.0000
     0.0000   0.0000   0.0000   0.0000   0.0000   0.0000   0.0000   0.0000
     0.0000   0.0000   0.0000   0.0000   0.0000   0.0000   0.0000   0.0000
     0.0000   0.0000   0.0000   0.0000   0.0000   0.0000   0.0000   0.0000
     0.0000   0.0000   0.0000   0.0000   0.0000   0.0000   0.0000   0.0000
     0.0000   0.0000   0.0000   0.0000   0.0000   0.0000   0.0000   0.0000
     0.0000   0.0000   0.0000   0.0000   0.0000   0.0000   0.0000   0.0000
     0.0000   0.0000   0.0000   0.0000   0.0000   0.0000   0.0000   0.0000
     0.0000   0.0000   0.0000   0.0000   0.0000   0.0000   0.0000   0.0000
     0.0000   0.0000   0.0000   0.0000   0.0000   0.0000   0.0000   0.0000
     0.0000   0.0000   0.0000   0.0000   0.0000   0.0000   0.0000   0.0000
     0.0000   0.0000   0.0000   0.0000   0.0000   0.0000   0.0000   0.0000
     0.0000   0.0000   0.0000   0.0000   0.0000   0.0000   0.0000   0.0000
     0.0000   0.0000   0.0000   0.0000   0.0000   0.0000   0.0000   0.0000

     highest occupied, lowest unoccupied level (ev):     4.8226    4.8143

!    total energy              =   -2422.27227885 Ry
     estimated scf accuracy    <       0.00000066 Ry

     The total energy is the sum of the following terms:
     one-electron contribution =    -818.20513110 Ry
     hartree contribution      =     476.70647524 Ry
     xc contribution           =    -200.99405804 Ry
     ewald contribution        =    -809.15743821 Ry
     one-center paw contrib.   =   -1070.62212673 Ry
      -> PAW hartree energy AE =     326.11084376 Ry
      -> PAW hartree energy PS =    -307.07816038 Ry
      -> PAW xc energy AE      =    -657.17400581 Ry
      -> PAW xc energy PS      =      47.41309013 Ry
      -> total E_H with PAW    =     495.73915862 Ry
      -> total E_XC with PAW   =    -810.75497372 Ry

     convergence has been achieved in  52 iterations

     Writing all to output data dir bands_nm/myprefix.save/

     General routines

     Parallel routines

     PAW routines

   This run was terminated on:  21:10:43  16Jul2023

   JOB DONE.