     Program PWSCF v.7.1 starts on 13Jul2023 at  3:42:40

     Reading input from espresso_4930.pwi
Warning: card &CELL ignored
Warning: card / ignored

     Current dimensions of program PWSCF are:
     Max number of different atomic species (ntypx) = 10
     Max number of k-points (npk) =  40000
     Max angular momentum in pseudopotentials (lmaxx) =  4
     file Al.pbe-n-kjpaw_psl.1.0.0.UPF: wavefunction(s)  3S 3P renormalized
     file O.pbe-n-kjpaw_psl.0.1.UPF: wavefunction(s)  2P renormalized
     Message from routine setup:
     using ibrav=0 with symmetry is DISCOURAGED, use correct ibrav instead

     K-points division:     npool     =       2
     R & G space division:  proc/nbgrp/npool/nimage =       8
     Subspace diagonalization in iterative solution of the eigenvalue problem:
     a serial algorithm will be used

     Using Slab Decomposition

     bravais-lattice index     =            0
     lattice parameter (alat)  =      14.0242  a.u.
     unit-cell volume          =    1775.7495 (a.u.)^3
     number of atoms/cell      =           18
     number of atomic types    =            4
     number of electrons       =       128.00
     number of Kohn-Sham states=           64
     kinetic-energy cutoff     =      30.0000  Ry
     charge density cutoff     =     240.0000  Ry
     scf convergence threshold =      1.0E-06
     mixing beta               =       0.7000
     number of iterations used =            8  plain     mixing
     Exchange-correlation=  SLA  PW   PBX  PBC
                           (   1   4   3   4   0   0   0)

     celldm(1)=  14.024206  celldm(2)=   0.000000  celldm(3)=   0.000000
     celldm(4)=   0.000000  celldm(5)=   0.000000  celldm(6)=   0.000000

     crystal axes: (cart. coord. in units of alat)
               a(1) = (   1.000000   0.000000   0.000000 )
               a(2) = (   0.151568   0.988447   0.000000 )
               a(3) = (  -0.575784  -0.494223   0.651319 )

     reciprocal axes: (cart. coord. in units 2 pi/alat)
               b(1) = (  1.000000 -0.153340  0.767673 )
               b(2) = (  0.000000  1.011688  0.767673 )
               b(3) = (  0.000000  0.000000  1.535347 )

     PseudoPot. # 1 for Sr read from file:
     /lustre07/scratch/pragov/crystal_structure_design/utils/SSSP/Sr_pbe_v1.uspp.F.UPF
     MD5 check sum: 6b418c05fbe9db5448babca5e47b7a5b
     Pseudo is Ultrasoft + core correction, Zval = 10.0
     Generated by new atomic code, or converted to UPF format
     Using radial grid of  883 points,  6 beta functions with:
                l(1) =   0
                l(2) =   0
                l(3) =   1
                l(4) =   1
                l(5) =   2
                l(6) =   2
     Q(r) pseudized with  6 coefficients,  rinner =    1.400   1.400   1.400
                                                       1.400   1.400

     PseudoPot. # 2 for Al read from file:
     /lustre07/scratch/pragov/crystal_structure_design/utils/SSSP/Al.pbe-n-kjpaw_psl.1.0.0.UPF
     MD5 check sum: cfc449ca30b5f3223ec38ddd88ac046d
     Pseudo is Projector augmented-wave + core cor, Zval =  3.0
     Generated using "atomic" code by A. Dal Corso  v.5.1
     Shape of augmentation charge: PSQ
     Using radial grid of 1135 points,  6 beta functions with:
                l(1) =   0
                l(2) =   0
                l(3) =   1
                l(4) =   1
                l(5) =   2
                l(6) =   2
     Q(r) pseudized with 0 coefficients

     PseudoPot. # 3 for O  read from file:
     /lustre07/scratch/pragov/crystal_structure_design/utils/SSSP/O.pbe-n-kjpaw_psl.0.1.UPF
     MD5 check sum: 0234752ac141de4415c5fc33072bef88
     Pseudo is Projector augmented-wave + core cor, Zval =  6.0
     Generated using "atomic" code by A. Dal Corso  v.5.0.99 svn rev. 10869
     Shape of augmentation charge: BESSEL
     Using radial grid of 1095 points,  4 beta functions with:
                l(1) =   0
                l(2) =   0
                l(3) =   1
                l(4) =   1
     Q(r) pseudized with 0 coefficients

     PseudoPot. # 4 for F  read from file:
     /lustre07/scratch/pragov/crystal_structure_design/utils/SSSP/f_pbe_v1.4.uspp.F.UPF
     MD5 check sum: 4c38b6a325caf53ec0e86aed9459de46
     Pseudo is Ultrasoft, Zval =  7.0
     Generated by new atomic code, or converted to UPF format
     Using radial grid of  799 points,  4 beta functions with:
                l(1) =   0
                l(2) =   0
                l(3) =   1
                l(4) =   1
     Q(r) pseudized with  8 coefficients,  rinner =    0.950   0.950   0.950

     atomic species   valence    mass     pseudopotential
        Sr            10.00    87.62000     Sr( 1.00)
        Al             3.00    26.98154     Al( 1.00)
        O              6.00    15.99900     O ( 1.00)
        F              7.00    18.99840     F ( 1.00)

      4 Sym. Ops., with inversion, found ( 2 have fractional translation)

                                    s                        frac. trans.

      isym =  1     identity

 cryst.   s( 1) = (     1          0          0      )
                  (     0          1          0      )
                  (     0          0          1      )

 cart.    s( 1) = (  1.0000000  0.0000000 -0.0000000 )
                  (  0.0000000  1.0000000  0.0000000 )
                  (  0.0000000  0.0000000  1.0000000 )

      isym =  2     180 deg rotation - cart. axis [0,0,1]

 cryst.   s( 2) = (    -1          0          0      )    f =( -0.4999990 )
                  (     0         -1          0      )       ( -0.4999990 )
                  (     1          1          1      )       (  0.0000000 )

 cart.    s( 2) = ( -1.0000000  0.0000000 -0.0000000 )    f =( -0.5757828 )
                  (  0.0000000 -1.0000000 -0.0000000 )       ( -0.4942224 )
                  (  0.0000000  0.0000000  1.0000000 )       (  0.0000000 )

      isym =  3     inversion

 cryst.   s( 3) = (    -1          0          0      )
                  (     0         -1          0      )
                  (     0          0         -1      )

 cart.    s( 3) = ( -1.0000000  0.0000000  0.0000000 )
                  (  0.0000000 -1.0000000  0.0000000 )
                  (  0.0000000  0.0000000 -1.0000000 )

      isym =  4     inv. 180 deg rotation - cart. axis [0,0,1]

 cryst.   s( 4) = (     1          0          0      )    f =( -0.4999990 )
                  (     0          1          0      )       ( -0.4999990 )
                  (    -1         -1         -1      )       ( -0.0000000 )

 cart.    s( 4) = (  1.0000000  0.0000000  0.0000000 )    f =( -0.5757828 )
                  (  0.0000000  1.0000000  0.0000000 )       ( -0.4942224 )
                  (  0.0000000  0.0000000 -1.0000000 )       ( -0.0000000 )

   Cartesian axes

     site n.     atom                  positions (alat units)
         1           Sr  tau(   1) = (   0.7878914   0.2471112   0.1058478  )
         2           Sr  tau(   2) = (   0.0689402  -0.0803172   0.3256593  )
         3           Sr  tau(   3) = (   0.5068438   0.5745407   0.3256593  )
         4           Sr  tau(   4) = (  -0.2121074   0.2471122   0.5454709  )
         5           Sr  tau(   5) = (   0.2878920   0.2471117   0.0000000  )
         6           Sr  tau(   6) = (   0.8636760   0.7413351   0.0000000  )
         7           Al  tau(   7) = (   0.5000000  -0.0000000   0.3256593  )
         8           Al  tau(   8) = (   0.0757840   0.4942234   0.3256593  )
         9           O   tau(   9) = (   0.3826287  -0.1007455   0.1403631  )
        10           O   tau(  10) = (   0.1931541   0.5949679   0.1403631  )
        11           O   tau(  11) = (   0.1931552   0.5949689   0.5109556  )
        12           O   tau(  12) = (   0.7380580  -0.0398591   0.3256593  )
        13           O   tau(  13) = (   0.4966833   0.2413491   0.3256593  )
        14           O   tau(  14) = (  -0.1622740   0.5340825   0.3256593  )
        15           O   tau(  15) = (   0.0791006   0.2528744   0.3256593  )
        16           O   tau(  16) = (   0.3826299  -0.1007445   0.5109556  )
        17           F   tau(  17) = (   0.5757840   0.4942234   0.0000000  )
        18           F   tau(  18) = (   0.0000000   0.0000000   0.0000000  )

   Crystallographic axes

     site n.     atom                  positions (cryst. coord.)
         1           Sr  tau(   1) = (  0.8312560  0.3312560  0.1625130  )
         2           Sr  tau(   2) = (  0.3312560  0.1687440  0.5000000  )
         3           Sr  tau(   3) = (  0.6687440  0.8312560  0.5000000  )
         4           Sr  tau(   4) = (  0.1687440  0.6687440  0.8374870  )
         5           Sr  tau(   5) = (  0.2500000  0.2500000  0.0000000  )
         6           Sr  tau(   6) = (  0.7500000  0.7500000  0.0000000  )
         7           Al  tau(   7) = (  0.7500000  0.2500000  0.5000000  )
         8           Al  tau(   8) = (  0.2500000  0.7500000  0.5000000  )
         9           O   tau(   9) = (  0.5058300  0.0058300  0.2155060  )
        10           O   tau(  10) = (  0.2096750  0.7096750  0.2155060  )
        11           O   tau(  11) = (  0.4941700  0.9941700  0.7844940  )
        12           O   tau(  12) = (  0.9941700  0.2096750  0.5000000  )
        13           O   tau(  13) = (  0.7096750  0.4941700  0.5000000  )
        14           O   tau(  14) = (  0.0058300  0.7903250  0.5000000  )
        15           O   tau(  15) = (  0.2903250  0.5058300  0.5000000  )
        16           O   tau(  16) = (  0.7903250  0.2903250  0.7844940  )
        17           F   tau(  17) = (  0.5000000  0.5000000  0.0000000  )
        18           F   tau(  18) = (  0.0000000  0.0000000  0.0000000  )

     number of k points=    10
                       cart. coord. in units 2pi/alat
        k(    1) = (   0.0000000   0.0000000   0.0000000), wk =   0.0740741
        k(    2) = (   0.0000000   0.0000000   0.5117822), wk =   0.1481481
        k(    3) = (   0.0000000   0.3372294   0.2558911), wk =   0.2962963
        k(    4) = (   0.0000000   0.3372294   0.7676734), wk =   0.1481481
        k(    5) = (   0.3333333  -0.0511132   0.2558911), wk =   0.2962963
        k(    6) = (   0.3333333  -0.0511132   0.7676734), wk =   0.1481481
        k(    7) = (   0.3333333   0.2861162   0.5117822), wk =   0.2962963
        k(    8) = (   0.3333333   0.2861162   0.0000000), wk =   0.1481481
        k(    9) = (   0.3333333  -0.3883426   0.0000000), wk =   0.1481481
        k(   10) = (   0.3333333  -0.3883426   0.5117822), wk =   0.2962963

                       cryst. coord.
        k(    1) = (   0.0000000   0.0000000   0.0000000), wk =   0.0740741
        k(    2) = (   0.0000000   0.0000000   0.3333333), wk =   0.1481481
        k(    3) = (   0.0000000   0.3333333  -0.0000000), wk =   0.2962963
        k(    4) = (   0.0000000   0.3333333   0.3333333), wk =   0.1481481
        k(    5) = (   0.3333333   0.0000000   0.0000000), wk =   0.2962963
        k(    6) = (   0.3333333   0.0000000   0.3333333), wk =   0.1481481
        k(    7) = (   0.3333333   0.3333333  -0.0000000), wk =   0.2962963
        k(    8) = (   0.3333333   0.3333333  -0.3333333), wk =   0.1481481
        k(    9) = (   0.3333333  -0.3333333   0.0000000), wk =   0.1481481
        k(   10) = (   0.3333333  -0.3333333   0.3333333), wk =   0.2962963

     Check: negative core charge=   -0.000009

     Initial potential from superposition of free atoms

     starting charge     127.7935, renormalised to     128.0000

     negative rho (up, down):  3.775E-01 0.000E+00
     Starting wfcs are  126 randomized atomic wfcs
     Checking if some PAW data can be deallocated...

     Self-consistent Calculation

     iteration #  1     ecut=    30.00 Ry     beta= 0.70
     Davidson diagonalization with overlap

     ethr =  1.00E-02,  avg # of iterations =  2.0

     negative rho (up, down):  3.841E-01 0.000E+00

     total energy              =    -930.25580631 Ry
     estimated scf accuracy    <       4.60035564 Ry

[...]

     total energy              =    -932.48440156 Ry
     estimated scf accuracy    <       0.00000160 Ry

     iteration # 11     ecut=    30.00 Ry     beta= 0.70
     Davidson diagonalization with overlap

     ethr =  1.25E-09,  avg # of iterations =  2.6

     negative rho (up, down):  3.984E-01 0.000E+00

     End of self-consistent calculation

          k = 0.0000 0.0000 0.0000 (  4859 PWs)   bands (ev):

   -25.6542 -25.6488 -24.9099 -24.8013 -24.7858 -24.7858 -15.1392 -14.9947
    -9.1724  -9.0827  -8.8724  -8.7375  -8.7133  -8.7132  -8.6218  -8.6217
    -7.7306  -7.6234  -7.5367  -7.5367  -7.2483  -7.2482  -7.0079  -6.9064
    -6.8526  -6.8396  -6.8396  -6.7044  -6.5928  -6.5927  -6.4340  -6.3903
    -6.3902  -6.0842   3.0469   3.0550   3.0551   3.5886   3.7356   3.7356
     3.9671   3.9862   4.5650   5.1572   5.1572   5.3160   5.3616   5.3616
     5.5347   5.8240   6.2041   6.5561   6.6453   6.6571   6.6572   6.8437
     6.8438   7.0576   7.0709   7.1365   7.1366   7.2800   7.4618   7.4620

     occupation numbers
     1.0000   1.0000   1.0000   1.0000   1.0000   1.0000   1.0000   1.0000
     1.0000   1.0000   1.0000   1.0000   1.0000   1.0000   1.0000   1.0000
     1.0000   1.0000   1.0000   1.0000   1.0000   1.0000   1.0000   1.0000
     1.0000   1.0000   1.0000   1.0000   1.0000   1.0000   1.0000   1.0000
     1.0000   1.0000   1.0000   1.0000   1.0000   1.0000   1.0000   1.0000
     1.0000   1.0000   1.0000   1.0000   1.0000   1.0000   1.0000   1.0000
     1.0000   1.0000   1.0000   1.0000   1.0000   1.0000   1.0000   1.0000
     1.0000   1.0000   1.0000   1.0000   1.0000   1.0000   1.0000   1.0000

[...]

          k = 0.3333-0.3883 0.5118 (  4941 PWs)   bands (ev):

   -25.6510 -25.6506 -24.8890 -24.8380 -24.7814 -24.7767 -15.0901 -15.0451
    -9.3636  -9.3394  -8.9276  -8.7198  -8.6212  -8.4679  -8.3947  -8.2276
    -7.7465  -7.6189  -7.5329  -7.4620  -7.4416  -7.4020  -6.9934  -6.9425
    -6.8739  -6.7862  -6.7780  -6.7454  -6.6571  -6.6124  -6.4585  -6.4390
    -6.3723  -6.2948   3.1949   3.2035   3.2453   3.4825   3.5445   3.5576
     3.8604   4.1528   5.1629   5.1736   5.2565   5.4474   5.5755   5.6925
     5.7071   6.0801   6.0914   6.2647   6.2904   6.4122   6.4839   6.5296
     6.6091   6.6861   6.7635   6.9049   7.0416   7.1219   7.5720   7.6283

     occupation numbers
     1.0000   1.0000   1.0000   1.0000   1.0000   1.0000   1.0000   1.0000
     1.0000   1.0000   1.0000   1.0000   1.0000   1.0000   1.0000   1.0000
     1.0000   1.0000   1.0000   1.0000   1.0000   1.0000   1.0000   1.0000
     1.0000   1.0000   1.0000   1.0000   1.0000   1.0000   1.0000   1.0000
     1.0000   1.0000   1.0000   1.0000   1.0000   1.0000   1.0000   1.0000
     1.0000   1.0000   1.0000   1.0000   1.0000   1.0000   1.0000   1.0000
     1.0000   1.0000   1.0000   1.0000   1.0000   1.0000   1.0000   1.0000
     1.0000   1.0000   1.0000   1.0000   1.0000   1.0000   1.0000   1.0000

     highest occupied level (ev):     7.7038

!    total energy              =    -932.48440187 Ry
     estimated scf accuracy    <       0.00000002 Ry

     The total energy is the sum of the following terms:
     one-electron contribution =    -153.60388573 Ry
     hartree contribution      =     151.08868564 Ry
     xc contribution           =    -194.49560363 Ry
     ewald contribution        =    -589.94764355 Ry
     one-center paw contrib.   =    -145.52595461 Ry
      -> PAW hartree energy AE =       0.00000000 Ry
      -> PAW hartree energy PS =       0.00000000 Ry
      -> PAW xc energy AE      =       0.00000000 Ry
      -> PAW xc energy PS      =       0.00000000 Ry
      -> total E_H with PAW    =     151.08868564 Ry
      -> total E_XC with PAW   =    -194.49560363 Ry

     convergence has been achieved in  11 iterations

     Writing all to output data dir bands_nm/myprefix.save/

     General routines

     Parallel routines

     PAW routines

   This run was terminated on:   3:42:50  13Jul2023

   JOB DONE.