     Program PWSCF v.7.0 starts on  5Jun2023 at  0:56:37

     K-points division:     npool     =       2
     R & G space division:  proc/nbgrp/npool/nimage =       4

     Reading input from espresso_5322.pwi
Warning: card &CELL ignored
Warning: card / ignored

     Current dimensions of program PWSCF are:
     Max number of different atomic species (ntypx) = 10
     Max number of k-points (npk) =  40000
     Max angular momentum in pseudopotentials (lmaxx) =  4
     file Ba.pbe-spn-kjpaw_psl.1.0.0.UPF: wavefunction(s)  5S 6S renormalized
     file Mg.pbe-n-kjpaw_psl.0.3.0.UPF: wavefunction(s)  3S renormalized
     file O.pbe-n-kjpaw_psl.0.1.UPF: wavefunction(s)  2P renormalized
     Message from routine setup:
     using ibrav=0 with symmetry is DISCOURAGED, use correct ibrav instead

     Using Slab Decomposition

     bravais-lattice index     =            0
     lattice parameter (alat)  =      10.5140  a.u.
     unit-cell volume          =    1282.4364 (a.u.)^3
     number of atoms/cell      =           14
     number of atomic types    =            5
     number of electrons       =        88.00
     number of Kohn-Sham states=           64
     kinetic-energy cutoff     =      30.0000  Ry
     charge density cutoff     =     240.0000  Ry
     scf convergence threshold =      1.0E-06
     mixing beta               =       0.7000
     number of iterations used =            8  plain     mixing
     Exchange-correlation= SLA  PW   PBX  PBC
                           (   1   4   3   4   0   0   0)

     celldm(1)=  10.513968  celldm(2)=   0.000000  celldm(3)=   0.000000
     celldm(4)=   0.000000  celldm(5)=   0.000000  celldm(6)=   0.000000

     crystal axes: (cart. coord. in units of alat)
               a(1) = (   1.000000   0.000000   0.000000 )
               a(2) = (  -0.500000   0.866025   0.000000 )
               a(3) = (   0.000000   0.000000   1.274105 )

     reciprocal axes: (cart. coord. in units 2 pi/alat)
               b(1) = (  1.000000  0.577350  0.000000 )
               b(2) = (  0.000000  1.154701  0.000000 )
               b(3) = (  0.000000  0.000000  0.784865 )

     PseudoPot. # 1 for Ba read from file:
     /home/pragov/projects/rrg-bengioy-ad/pragov/crystal_structure_design/SSSP/Ba.pbe-spn-kjpaw_psl.1.0.0.UPF
     MD5 check sum: c432291d3e53af55f19d5e8866385beb
     Pseudo is Projector augmented-wave + core cor, Zval = 10.0
     Generated using "atomic" code by A. Dal Corso  v.5.1
     Shape of augmentation charge: PSQ
     Using radial grid of 1251 points,  7 beta functions with:
                l(1) =   0
                l(2) =   0
                l(3) =   0
                l(4) =   1
                l(5) =   1
                l(6) =   2
                l(7) =   2
     Q(r) pseudized with 0 coefficients

     PseudoPot. # 2 for Sr read from file:
     /home/pragov/projects/rrg-bengioy-ad/pragov/crystal_structure_design/SSSP/Sr_pbe_v1.uspp.F.UPF
     MD5 check sum: 6b418c05fbe9db5448babca5e47b7a5b
     Pseudo is Ultrasoft + core correction, Zval = 10.0
     Generated by new atomic code, or converted to UPF format
     Using radial grid of  883 points,  6 beta functions with:
                l(1) =   0
                l(2) =   0
                l(3) =   1
                l(4) =   1
                l(5) =   2
                l(6) =   2
     Q(r) pseudized with  6 coefficients,  rinner =    1.400   1.400   1.400
                                                       1.400   1.400

     PseudoPot. # 3 for Mg read from file:
     /home/pragov/projects/rrg-bengioy-ad/pragov/crystal_structure_design/SSSP/Mg.pbe-n-kjpaw_psl.0.3.0.UPF
     MD5 check sum: 24ecedc7f3e3cbe212e682f4413594e4
     Pseudo is Projector augmented-wave + core cor, Zval =  2.0
     Generated using "atomic" code by A. Dal Corso  v.5.0.99 svn rev. 10869
     Shape of augmentation charge: PSQ
     Using radial grid of 1129 points,  4 beta functions with:
                l(1) =   0
                l(2) =   0
                l(3) =   1
                l(4) =   1
     Q(r) pseudized with 0 coefficients

     PseudoPot. # 4 for Si read from file:
     /home/pragov/projects/rrg-bengioy-ad/pragov/crystal_structure_design/SSSP/Si.pbe-n-rrkjus_psl.1.0.0.UPF
     MD5 check sum: 0b0bb1205258b0d07b9f9672cf965d36
     Pseudo is Ultrasoft + core correction, Zval =  4.0
     Generated using "atomic" code by A. Dal Corso  v.5.1
     Using radial grid of 1141 points,  6 beta functions with:
                l(1) =   0
                l(2) =   0
                l(3) =   1
                l(4) =   1
                l(5) =   2
                l(6) =   2
     Q(r) pseudized with 0 coefficients

     PseudoPot. # 5 for O  read from file:
     /home/pragov/projects/rrg-bengioy-ad/pragov/crystal_structure_design/SSSP/O.pbe-n-kjpaw_psl.0.1.UPF
     MD5 check sum: 0234752ac141de4415c5fc33072bef88
     Pseudo is Projector augmented-wave + core cor, Zval =  6.0
     Generated using "atomic" code by A. Dal Corso  v.5.0.99 svn rev. 10869
     Shape of augmentation charge: BESSEL
     Using radial grid of 1095 points,  4 beta functions with:
                l(1) =   0
                l(2) =   0
                l(3) =   1
                l(4) =   1
     Q(r) pseudized with 0 coefficients

     atomic species   valence    mass     pseudopotential
        Ba            10.00   137.32700     Ba( 1.00)
        Sr            10.00    87.62000     Sr( 1.00)
        Mg             2.00    24.30500     Mg( 1.00)
        Si             4.00    28.08500     Si( 1.00)
        O              6.00    15.99900     O ( 1.00)

     12 Sym. Ops., with inversion, found

                                    s                        frac. trans.

      isym =  1     identity

 cryst.   s( 1) = (     1          0          0      )
                  (     0          1          0      )
                  (     0          0          1      )

 cart.    s( 1) = (  1.0000000 -0.0000000  0.0000000 )
                  (  0.0000000  1.0000000  0.0000000 )
                  (  0.0000000  0.0000000  1.0000000 )

      isym =  2     180 deg rotation - cart. axis [1,0,0]

[...]

      isym =  3     120 deg rotation - cryst. axis [0,0,1]

[...]

      isym =  6     180 deg rotation - cryst. axis [1,1,0]

[...]

      isym =  7     inversion

[...]

      isym =  8     inv. 180 deg rotation - cart. axis [1,0,0]

[...]

      isym =  9     inv. 120 deg rotation - cryst. axis [0,0,1]

 cryst.   s( 9) = (     0         -1          0      )
                  (     1          1          0      )
                  (     0          0         -1      )

 cart.    s( 9) = (  0.5000001  0.8660254  0.0000000 )
                  ( -0.8660254  0.4999999  0.0000000 )
                  (  0.0000000  0.0000000 -1.0000000 )

[...]

 cryst.   s(10) = (     1          1          0      )
                  (    -1          0          0      )
                  (     0          0         -1      )

 cart.    s(10) = (  0.4999999 -0.8660254  0.0000000 )
                  (  0.8660254  0.5000001  0.0000000 )
                  (  0.0000000  0.0000000 -1.0000000 )

[...]

      isym = 12     inv. 180 deg rotation - cryst. axis [1,1,0]

 cryst.   s(12) = (     0         -1          0      )
                  (    -1          0          0      )
                  (     0          0          1      )

 cart.    s(12) = (  0.5000001 -0.8660254  0.0000000 )
                  ( -0.8660254 -0.5000001  0.0000000 )
                  (  0.0000000  0.0000000  1.0000000 )

   Cartesian axes

     site n.     atom                  positions (alat units)
         1           Ba  tau(   1) = (   0.0000000   0.0000000   0.6370525  )
         2           Sr  tau(   2) = (   0.5000005   0.2886748   0.2097253  )
         3           Sr  tau(   3) = (  -0.0000005   0.5773505   1.0643797  )
         4           Mg  tau(   4) = (   0.0000000   0.0000000   0.0000000  )
         5           Si  tau(   5) = (   0.5000005   0.2886748   0.9300776  )
         6           Si  tau(   6) = (  -0.0000005   0.5773505   0.3440275  )
         7           O   tau(   7) = (   0.5000005   0.2886748   0.6392134  )
         8           O   tau(   8) = (  -0.0000005   0.5773505   0.6348916  )
         9           O   tau(   9) = (   0.2627470   0.1516965   1.0481336  )
        10           O   tau(  10) = (   0.5000005   0.5626316   1.0481336  )
        11           O   tau(  11) = (   0.7372540   0.1516965   1.0481336  )
        12           O   tau(  12) = (   0.2372529   0.7143289   0.2259714  )
        13           O   tau(  13) = (  -0.0000005   0.3033938   0.2259714  )
        14           O   tau(  14) = (  -0.2372541   0.7143289   0.2259714  )

   Crystallographic axes

     site n.     atom                  positions (cryst. coord.)
         1           Ba  tau(   1) = (  0.0000000  0.0000000  0.5000000  )
         2           Sr  tau(   2) = (  0.6666670  0.3333330  0.1646060  )
         3           Sr  tau(   3) = (  0.3333330  0.6666670  0.8353940  )
         4           Mg  tau(   4) = (  0.0000000  0.0000000  0.0000000  )
         5           Si  tau(   5) = (  0.6666670  0.3333330  0.7299850  )
         6           Si  tau(   6) = (  0.3333330  0.6666670  0.2700150  )
         7           O   tau(   7) = (  0.6666670  0.3333330  0.5016960  )
         8           O   tau(   8) = (  0.3333330  0.6666670  0.4983040  )
         9           O   tau(   9) = (  0.3503290  0.1751640  0.8226430  )
        10           O   tau(  10) = (  0.8248360  0.6496710  0.8226430  )
        11           O   tau(  11) = (  0.8248360  0.1751640  0.8226430  )
        12           O   tau(  12) = (  0.6496710  0.8248360  0.1773570  )
        13           O   tau(  13) = (  0.1751640  0.3503290  0.1773570  )
        14           O   tau(  14) = (  0.1751640  0.8248360  0.1773570  )

     number of k points=     7
                       cart. coord. in units 2pi/alat
        k(    1) = (   0.0000000   0.0000000   0.0000000), wk =   0.0740741
        k(    2) = (   0.0000000   0.0000000   0.2616215), wk =   0.1481481
        k(    3) = (   0.0000000   0.3849002   0.0000000), wk =   0.4444444
        k(    4) = (   0.0000000   0.3849002   0.2616215), wk =   0.4444444
        k(    5) = (   0.3333333   0.5773503   0.0000000), wk =   0.1481481
        k(    6) = (   0.3333333   0.5773503   0.2616215), wk =   0.2962963
        k(    7) = (   0.0000000   0.3849002  -0.2616215), wk =   0.4444444

                       cryst. coord.
        k(    1) = (   0.0000000   0.0000000   0.0000000), wk =   0.0740741
        k(    2) = (   0.0000000   0.0000000   0.3333333), wk =   0.1481481
        k(    3) = (   0.0000000   0.3333333   0.0000000), wk =   0.4444444
        k(    4) = (   0.0000000   0.3333333   0.3333333), wk =   0.4444444
        k(    5) = (   0.3333333   0.3333333   0.0000000), wk =   0.1481481
        k(    6) = (   0.3333333   0.3333333   0.3333333), wk =   0.2962963
        k(    7) = (   0.0000000   0.3333333  -0.3333333), wk =   0.4444444

     Check: negative core charge=   -0.000009

     Initial potential from superposition of free atoms

     starting charge      87.9136, renormalised to      88.0000

     negative rho (up, down):  1.298E-01 0.000E+00
     Starting wfcs are   75 randomized atomic wfcs
     Checking if some PAW data can be deallocated...

     Self-consistent Calculation

     iteration #  1     ecut=    30.00 Ry     beta= 0.70
     Davidson diagonalization with overlap

     ethr =  1.00E-02,  avg # of iterations =  6.3

     negative rho (up, down):  1.321E-01 0.000E+00

     total energy              =    -966.34783434 Ry
     estimated scf accuracy    <       2.95364907 Ry

[...]

     total energy              =    -967.67652159 Ry
     estimated scf accuracy    <       0.00001008 Ry

     iteration #  8     ecut=    30.00 Ry     beta= 0.70
     Davidson diagonalization with overlap

     ethr =  1.15E-08,  avg # of iterations =  3.3

     negative rho (up, down):  1.368E-01 0.000E+00

     End of self-consistent calculation

          k = 0.0000 0.0000 0.0000 (  3557 PWs)   bands (ev):

   -25.5107 -25.4850 -17.9400 -11.1601 -11.0317  -9.7197  -9.7197  -9.7165
    -9.6380  -9.6380  -9.4716  -7.6435  -7.6435  -7.5709  -7.5708  -7.3299
    -7.2259  -3.2045  -3.1673  -3.1673   0.4843   1.3296   3.1790   3.1791
     3.3250   3.4027   3.4771   3.4772   4.6556   4.6556   4.9295   5.2954
     5.2954   5.5148   5.5148   6.0452   6.3325   6.3325   6.5764   6.7506
     6.7507   6.8512   6.8513   6.9222  11.7597  12.6825  12.6825  13.3161
    13.3161  13.6224  14.1289  14.3699  14.3699  15.1936  15.1937  15.2281
    15.2281  15.5267  16.1544  16.1545  16.6446  17.0068  17.9839  18.0220

     occupation numbers
     1.0000   1.0000   1.0000   1.0000   1.0000   1.0000   1.0000   1.0000
     1.0000   1.0000   1.0000   1.0000   1.0000   1.0000   1.0000   1.0000
     1.0000   1.0000   1.0000   1.0000   1.0000   1.0000   1.0000   1.0000
     1.0000   1.0000   1.0000   1.0000   1.0000   1.0000   1.0000   1.0000
     1.0000   1.0000   1.0000   1.0000   1.0000   1.0000   1.0000   1.0000
     1.0000   1.0000   1.0000   1.0000   0.0000   0.0000   0.0000   0.0000
     0.0000   0.0000   0.0000   0.0000   0.0000   0.0000   0.0000   0.0000
     0.0000   0.0000   0.0000   0.0000   0.0000   0.0000   0.0000   0.0000

[...]

          k = 0.0000 0.3849-0.2616 (  3571 PWs)   bands (ev):

   -25.5041 -25.4896 -17.9361 -11.1583 -11.1173  -9.9974  -9.8393  -9.7423
    -9.6410  -9.5146  -9.4106  -7.5363  -7.4673  -7.4612  -7.3898  -7.3657
    -7.3012  -3.1798  -3.1502  -3.1121   1.0189   1.4852   2.6964   3.1788
     3.2443   3.7234   3.7807   3.8072   4.3650   4.6557   4.7613   5.1404
     5.2608   5.3398   5.4675   5.5473   5.6874   5.8392   6.2286   6.3502
     6.4952   6.5148   6.6230   6.9398  13.1306  13.4193  13.5090  13.8816
    13.9939  14.2290  14.6030  14.7121  14.7939  15.0822  15.0845  15.2767
    15.4568  15.6620  16.0181  16.6469  16.8807  17.2386  17.4813  17.9349

     occupation numbers
     1.0000   1.0000   1.0000   1.0000   1.0000   1.0000   1.0000   1.0000
     1.0000   1.0000   1.0000   1.0000   1.0000   1.0000   1.0000   1.0000
     1.0000   1.0000   1.0000   1.0000   1.0000   1.0000   1.0000   1.0000
     1.0000   1.0000   1.0000   1.0000   1.0000   1.0000   1.0000   1.0000
     1.0000   1.0000   1.0000   1.0000   1.0000   1.0000   1.0000   1.0000
     1.0000   1.0000   1.0000   1.0000   0.0000   0.0000   0.0000   0.0000
     0.0000   0.0000   0.0000   0.0000   0.0000   0.0000   0.0000   0.0000
     0.0000   0.0000   0.0000   0.0000   0.0000   0.0000   0.0000   0.0000

     highest occupied, lowest unoccupied level (ev):     7.0447   11.7597

!    total energy              =    -967.67652438 Ry
     estimated scf accuracy    <       0.00000070 Ry

     The total energy is the sum of the following terms:
     one-electron contribution =     -92.38806519 Ry
     hartree contribution      =     100.62467171 Ry
     xc contribution           =    -131.73250803 Ry
     ewald contribution        =    -361.82738043 Ry
     one-center paw contrib.   =    -482.35324243 Ry
      -> PAW hartree energy AE =      28.66362503 Ry
      -> PAW hartree energy PS =     -28.55071367 Ry
      -> PAW xc energy AE      =    -394.22294970 Ry
      -> PAW xc energy PS      =      19.15419741 Ry
      -> total E_H with PAW    =     100.73758307 Ry
      -> total E_XC with PAW   =    -506.80126033 Ry

     convergence has been achieved in   8 iterations

     Writing all to output data dir calculations_bands/myprefix.save/

     General routines

     Parallel routines

     PAW routines

   This run was terminated on:   0:57:40   5Jun2023

   JOB DONE.