     Program PWSCF v.7.0 starts on 23Jun2023 at  4:30:55

     K-points division:     npool     =       2
     R & G space division:  proc/nbgrp/npool/nimage =       4

     Reading input from espresso_4007.pwi
Warning: card &CELL ignored
Warning: card / ignored

     Current dimensions of program PWSCF are:
     Max number of different atomic species (ntypx) = 10
     Max number of k-points (npk) =  40000
     Max angular momentum in pseudopotentials (lmaxx) =  4
     Message from routine setup:
     using ibrav=0 with symmetry is DISCOURAGED, use correct ibrav instead

     Using Slab Decomposition

     bravais-lattice index     =            0
     lattice parameter (alat)  =      10.6788  a.u.
     unit-cell volume          =    1927.3805 (a.u.)^3
     number of atoms/cell      =           20
     number of atomic types    =            2
     number of electrons       =       176.00
     number of Kohn-Sham states=           90
     kinetic-energy cutoff     =      30.0000  Ry
     charge density cutoff     =     240.0000  Ry
     scf convergence threshold =      1.0E-06
     mixing beta               =       0.7000
     number of iterations used =            8  plain     mixing
     Exchange-correlation= SLA  PW   PBE  PBE
                           (   1   4   3   4   0   0   0)

     celldm(1)=  10.678763  celldm(2)=   0.000000  celldm(3)=   0.000000
     celldm(4)=   0.000000  celldm(5)=   0.000000  celldm(6)=   0.000000

     crystal axes: (cart. coord. in units of alat)
               a(1) = (   1.000000   0.000000   0.000000 )
               a(2) = (   0.000000   1.000000   0.000000 )
               a(3) = (   0.000000   0.000000   1.582722 )

     reciprocal axes: (cart. coord. in units 2 pi/alat)
               b(1) = (  1.000000  0.000000  0.000000 )
               b(2) = (  0.000000  1.000000  0.000000 )
               b(3) = (  0.000000  0.000000  0.631823 )

     PseudoPot. # 1 for Si read from file:
     /home/pragov/projects/rrg-bengioy-ad/pragov/crystal_structure_design/SSSP/Si.pbe-n-rrkjus_psl.1.0.0.UPF
     MD5 check sum: 0b0bb1205258b0d07b9f9672cf965d36
     Pseudo is Ultrasoft + core correction, Zval =  4.0
     Generated using "atomic" code by A. Dal Corso  v.5.1
     Using radial grid of 1141 points,  6 beta functions with:
                l(1) =   0
                l(2) =   0
                l(3) =   1
                l(4) =   1
                l(5) =   2
                l(6) =   2
     Q(r) pseudized with 0 coefficients

     PseudoPot. # 2 for Os read from file:
     /home/pragov/projects/rrg-bengioy-ad/pragov/crystal_structure_design/SSSP/Os_pbe_v1.2.uspp.F.UPF
     MD5 check sum: a3fb40a04f0c37c25c34bbc47164c9a8
     Pseudo is Ultrasoft + core correction, Zval = 16.0
     Generated by new atomic code, or converted to UPF format
     Using radial grid of  983 points,  8 beta functions with:
                l(1) =   0
                l(2) =   0
                l(3) =   1
                l(4) =   1
                l(5) =   2
                l(6) =   2
                l(7) =   3
                l(8) =   3
     Q(r) pseudized with  8 coefficients,  rinner =    1.150   1.150   1.150
                                                       1.150   1.150   1.150
                                                       1.150

     atomic species   valence    mass     pseudopotential
        Si             4.00    28.08500     Si( 1.00)
        Os            16.00   190.23000     Os( 1.00)

      8 Sym. Ops. (no inversion) found ( 4 have fractional translation)

                                    s                        frac. trans.

      isym =  1     identity

 cryst.   s( 1) = (     1          0          0      )
                  (     0          1          0      )
                  (     0          0          1      )

 cart.    s( 1) = (  1.0000000  0.0000000  0.0000000 )
                  (  0.0000000  1.0000000  0.0000000 )
                  (  0.0000000  0.0000000  1.0000000 )

      isym =  2     180 deg rotation - cart. axis [0,0,1]

[...]

 cryst.   s( 3) = (     0          1          0      )    f =(  0.0000000 )
                  (     1          0          0      )       (  0.0000000 )
                  (     0          0         -1      )       (  0.5000000 )

 cart.    s( 3) = (  0.0000000  1.0000000  0.0000000 )    f =(  0.0000000 )
                  (  1.0000000  0.0000000  0.0000000 )       (  0.0000000 )
                  (  0.0000000  0.0000000 -1.0000000 )       (  0.7913610 )

      isym =  4     180 deg rotation - cart. axis [1,-1,0]

[...]

      isym =  5     inv. 180 deg rotation - cart. axis [0,1,0]

[...]

 cryst.   s( 6) = (    -1          0          0      )    f =(  0.0000000 )
                  (     0          1          0      )       (  0.0000000 )
                  (     0          0          1      )       (  0.5000000 )

 cart.    s( 6) = ( -1.0000000  0.0000000  0.0000000 )    f =(  0.0000000 )
                  (  0.0000000  1.0000000  0.0000000 )       (  0.0000000 )
                  (  0.0000000  0.0000000  1.0000000 )       (  0.7913610 )

[...]

      isym =  8     inv.  90 deg rotation - cart. axis [0,0,1]

 cryst.   s( 8) = (     0         -1          0      )
                  (     1          0          0      )
                  (     0          0         -1      )

 cart.    s( 8) = (  0.0000000  1.0000000  0.0000000 )
                  ( -1.0000000  0.0000000  0.0000000 )
                  (  0.0000000  0.0000000 -1.0000000 )

   Cartesian axes

     site n.     atom                  positions (alat units)
         1           Si  tau(   1) = (   0.8315270   0.8315270   1.1870414  )
         2           Si  tau(   2) = (   0.8315270   0.1684730   0.3956805  )
         3           Si  tau(   3) = (   0.1684730   0.8315270   0.3956805  )
         4           Si  tau(   4) = (   0.1684730   0.1684730   1.1870414  )
         5           Si  tau(   5) = (   0.2060460   0.6440280   0.9350072  )
         6           Si  tau(   6) = (   0.7939540   0.3559720   0.9350072  )
         7           Si  tau(   7) = (   0.6440280   0.7939540   0.6477147  )
         8           Si  tau(   8) = (   0.3559720   0.2060460   0.6477147  )
         9           Si  tau(   9) = (   0.2060460   0.3559720   0.1436463  )
        10           Si  tau(  10) = (   0.3559720   0.7939540   1.4390756  )
        11           Si  tau(  11) = (   0.6440280   0.2060460   1.4390756  )
        12           Si  tau(  12) = (   0.7939540   0.6440280   0.1436463  )
        13           Os  tau(  13) = (   0.0000000   0.0000000   0.7913610  )
        14           Os  tau(  14) = (   0.0000000   0.0000000   0.0000000  )
        15           Os  tau(  15) = (   0.5000000   0.5000000   1.1870414  )
        16           Os  tau(  16) = (   0.5000000   0.5000000   0.3956805  )
        17           Os  tau(  17) = (   0.0000000   0.5000000   1.3799135  )
        18           Os  tau(  18) = (   0.5000000   0.0000000   0.2028084  )
        19           Os  tau(  19) = (   0.5000000   0.0000000   0.9941694  )
        20           Os  tau(  20) = (   0.0000000   0.5000000   0.5885525  )

   Crystallographic axes

     site n.     atom                  positions (cryst. coord.)
         1           Si  tau(   1) = (  0.8315270  0.8315270  0.7500000  )
         2           Si  tau(   2) = (  0.8315270  0.1684730  0.2500000  )
         3           Si  tau(   3) = (  0.1684730  0.8315270  0.2500000  )
         4           Si  tau(   4) = (  0.1684730  0.1684730  0.7500000  )
         5           Si  tau(   5) = (  0.2060460  0.6440280  0.5907590  )
         6           Si  tau(   6) = (  0.7939540  0.3559720  0.5907590  )
         7           Si  tau(   7) = (  0.6440280  0.7939540  0.4092410  )
         8           Si  tau(   8) = (  0.3559720  0.2060460  0.4092410  )
         9           Si  tau(   9) = (  0.2060460  0.3559720  0.0907590  )
        10           Si  tau(  10) = (  0.3559720  0.7939540  0.9092410  )
        11           Si  tau(  11) = (  0.6440280  0.2060460  0.9092410  )
        12           Si  tau(  12) = (  0.7939540  0.6440280  0.0907590  )
        13           Os  tau(  13) = (  0.0000000  0.0000000  0.5000000  )
        14           Os  tau(  14) = (  0.0000000  0.0000000  0.0000000  )
        15           Os  tau(  15) = (  0.5000000  0.5000000  0.7500000  )
        16           Os  tau(  16) = (  0.5000000  0.5000000  0.2500000  )
        17           Os  tau(  17) = (  0.0000000  0.5000000  0.8718610  )
        18           Os  tau(  18) = (  0.5000000  0.0000000  0.1281390  )
        19           Os  tau(  19) = (  0.5000000  0.0000000  0.6281390  )
        20           Os  tau(  20) = (  0.0000000  0.5000000  0.3718610  )

     number of k points=     6
                       cart. coord. in units 2pi/alat
        k(    1) = (   0.0000000   0.0000000   0.0000000), wk =   0.0740741
        k(    2) = (   0.0000000   0.0000000   0.2106076), wk =   0.1481481
        k(    3) = (   0.0000000   0.3333333   0.0000000), wk =   0.2962963
        k(    4) = (   0.0000000   0.3333333   0.2106076), wk =   0.5925926
        k(    5) = (   0.3333333   0.3333333   0.0000000), wk =   0.2962963
        k(    6) = (   0.3333333   0.3333333   0.2106076), wk =   0.5925926

                       cryst. coord.
        k(    1) = (   0.0000000   0.0000000   0.0000000), wk =   0.0740741
        k(    2) = (   0.0000000   0.0000000   0.3333333), wk =   0.1481481
        k(    3) = (   0.0000000   0.3333333   0.0000000), wk =   0.2962963
        k(    4) = (   0.0000000   0.3333333   0.3333333), wk =   0.5925926
        k(    5) = (   0.3333333   0.3333333   0.0000000), wk =   0.2962963
        k(    6) = (   0.3333333   0.3333333   0.3333333), wk =   0.5925926

     Initial potential from superposition of free atoms

     starting charge     171.9930, renormalised to     176.0000

     negative rho (up, down):  1.007E+00 0.000E+00
     Starting wfcs are  152 randomized atomic wfcs

     Self-consistent Calculation

     iteration #  1     ecut=    30.00 Ry     beta= 0.70
     Davidson diagonalization with overlap

     ethr =  1.00E-02,  avg # of iterations =  2.0

     Threshold (ethr) on eigenvalues was too large:
     Diagonalizing with lowered threshold

     Davidson diagonalization with overlap

[...]

     negative rho (up, down):  9.856E-01 0.000E+00

     total energy              =   -1725.67485053 Ry
     estimated scf accuracy    <       1.27969996 Ry

[...]

     total energy              =   -1726.15719446 Ry
     estimated scf accuracy    <       0.00000643 Ry

     iteration # 13     ecut=    30.00 Ry     beta= 0.70
     Davidson diagonalization with overlap

     ethr =  1.12E-09,  avg # of iterations =  4.3

     negative rho (up, down):  9.570E-01 0.000E+00

     End of self-consistent calculation

          k = 0.0000 0.0000 0.0000 (  5401 PWs)   bands (ev):

   -69.8845 -69.8845 -69.6467 -69.6466 -69.6466 -69.6465 -69.3111 -69.3111
   -29.3260 -29.3239 -29.3190 -29.3190 -29.3177 -29.3177 -29.1332 -29.1332
   -29.1299 -29.1299 -29.0682 -29.0675 -29.0663 -29.0651 -29.0292 -29.0292
   -28.9966 -28.9966 -28.8549 -28.8549 -28.7364 -28.7364 -28.5962 -28.5946
     3.3206   5.0614   5.6141   7.1282   7.5975   8.1660   8.1660   8.1687
     8.3431   8.3431   8.7358   8.7358   9.9077   9.9209   9.9671  10.0983
    10.2813  10.3977  10.6594  10.6858  11.3741  11.3853  11.3853  11.8012
    11.8012  12.4681  12.4681  12.4731  12.5560  12.6935  12.9073  12.9073
    13.0026  13.1714  13.2382  13.2382  13.4175  13.5595  13.5595  13.8598
    13.8617  13.9411  13.9411  13.9677  14.3807  14.8305  14.8761  14.8897
    14.8897  15.0294  15.1440  15.1440  15.4076  15.5811  15.7765  16.2086
    16.9990  17.3276

     occupation numbers
     1.0000   1.0000   1.0000   1.0000   1.0000   1.0000   1.0000   1.0000
     1.0000   1.0000   1.0000   1.0000   1.0000   1.0000   1.0000   1.0000
     1.0000   1.0000   1.0000   1.0000   1.0000   1.0000   1.0000   1.0000
     1.0000   1.0000   1.0000   1.0000   1.0000   1.0000   1.0000   1.0000
     1.0000   1.0000   1.0000   1.0000   1.0000   1.0000   1.0000   1.0000
     1.0000   1.0000   1.0000   1.0000   1.0000   1.0000   1.0000   1.0000
     1.0000   1.0000   1.0000   1.0000   1.0000   1.0000   1.0000   1.0000
     1.0000   1.0000   1.0000   1.0000   1.0000   1.0000   1.0000   1.0000
     1.0000   1.0000   1.0000   1.0000   1.0000   1.0000   1.0000   1.0000
     1.0000   1.0000   1.0000   1.0000   1.0000   1.0000   1.0000   1.0000
     1.0000   1.0000   1.0000   1.0000   1.0000   1.0000   1.0000   1.0000
     0.0000   0.0000

[...]

          k = 0.3333 0.3333 0.2106 (  5342 PWs)   bands (ev):

   -69.8844 -69.8844 -69.6466 -69.6466 -69.6466 -69.6466 -69.3111 -69.3111
   -29.3370 -29.3352 -29.2958 -29.2956 -29.2930 -29.2927 -29.1554 -29.1547
   -29.1466 -29.1460 -29.0689 -29.0681 -29.0653 -29.0651 -28.9948 -28.9923
   -28.9845 -28.9806 -28.8875 -28.8865 -28.7521 -28.7519 -28.5907 -28.5900
     4.6196   5.2349   6.0777   6.2434   6.5614   6.7148   7.3519   7.5776
     7.7450   8.3619   8.5737   8.9607   9.8544   9.9350  10.2486  10.3559
    10.8101  11.0601  11.2110  11.3371  11.4599  11.7109  11.9138  12.0333
    12.1338  12.2698  12.3988  12.4123  12.5547  12.7534  12.7889  13.0031
    13.0481  13.1894  13.3317  13.3734  13.4369  13.6081  13.6227  13.7635
    13.7999  13.8935  14.0433  14.1329  14.2503  14.4233  14.6231  14.7113
    14.7394  15.2482  15.3102  15.3715  15.4840  15.6591  15.7971  15.8217
    17.8585  17.9234

     occupation numbers
     1.0000   1.0000   1.0000   1.0000   1.0000   1.0000   1.0000   1.0000
     1.0000   1.0000   1.0000   1.0000   1.0000   1.0000   1.0000   1.0000
     1.0000   1.0000   1.0000   1.0000   1.0000   1.0000   1.0000   1.0000
     1.0000   1.0000   1.0000   1.0000   1.0000   1.0000   1.0000   1.0000
     1.0000   1.0000   1.0000   1.0000   1.0000   1.0000   1.0000   1.0000
     1.0000   1.0000   1.0000   1.0000   1.0000   1.0000   1.0000   1.0000
     1.0000   1.0000   1.0000   1.0000   1.0000   1.0000   1.0000   1.0000
     1.0000   1.0000   1.0000   1.0000   1.0000   1.0000   1.0000   1.0000
     1.0000   1.0000   1.0000   1.0000   1.0000   1.0000   1.0000   1.0000
     1.0000   1.0000   1.0000   1.0000   1.0000   1.0000   1.0000   1.0000
     1.0000   1.0000   1.0000   1.0000   1.0000   1.0000   1.0000   1.0000
     0.0000   0.0000

     highest occupied, lowest unoccupied level (ev):    16.2086   16.9771

!    total energy              =   -1726.15719429 Ry
     estimated scf accuracy    <       0.00000069 Ry

     The total energy is the sum of the following terms:
     one-electron contribution =    -506.00248097 Ry
     hartree contribution      =     341.45663786 Ry
     xc contribution           =    -375.19359019 Ry
     ewald contribution        =   -1186.41776099 Ry

     convergence has been achieved in  13 iterations

     Writing all to output data dir calculations_bands/myprefix.save/

     General routines

     Parallel routines

   This run was terminated on:   4:31:21  23Jun2023

   JOB DONE.