     Program PWSCF v.7.1 starts on 17Jul2023 at  0:53:53

     Reading input from espresso_24645.pwi
Warning: card &CELL ignored
Warning: card / ignored

     Current dimensions of program PWSCF are:
     Max number of different atomic species (ntypx) = 10
     Max number of k-points (npk) =  40000
     Max angular momentum in pseudopotentials (lmaxx) =  4
     file Fe.pbe-spn-kjpaw_psl.0.2.1.UPF: wavefunction(s)  3D renormalized
     Message from routine setup:
     using ibrav=0 with symmetry is DISCOURAGED, use correct ibrav instead

     K-points division:     npool     =       2
     R & G space division:  proc/nbgrp/npool/nimage =       4
     Subspace diagonalization in iterative solution of the eigenvalue problem:
     one sub-group per band group will be used

     Using Slab Decomposition

     bravais-lattice index     =            0
     lattice parameter (alat)  =       9.6887  a.u.
     unit-cell volume          =    1482.4359 (a.u.)^3
     number of atoms/cell      =           20
     number of atomic types    =            3
     number of electrons       =       134.00
     number of Kohn-Sham states=          256
     kinetic-energy cutoff     =      30.0000  Ry
     charge density cutoff     =     240.0000  Ry
     scf convergence threshold =      1.0E-06
     mixing beta               =       0.7000
     number of iterations used =            8  plain     mixing
     Exchange-correlation=  SLA  PW   PBX  PBC
                           (   1   4   3   4   0   0   0)

     celldm(1)=   9.688682  celldm(2)=   0.000000  celldm(3)=   0.000000
     celldm(4)=   0.000000  celldm(5)=   0.000000  celldm(6)=   0.000000

     crystal axes: (cart. coord. in units of alat)
               a(1) = (   1.000000   0.000000   0.000000 )
               a(2) = (  -0.500000   0.866025   0.000000 )
               a(3) = (   0.000000   0.000000   1.882137 )

     reciprocal axes: (cart. coord. in units 2 pi/alat)
               b(1) = (  1.000000  0.577350  0.000000 )
               b(2) = (  0.000000  1.154701  0.000000 )
               b(3) = (  0.000000  0.000000  0.531311 )

     PseudoPot. # 1 for Li read from file:
     /lustre07/scratch/pragov/crystal_structure_design/utils/SSSP/li_pbe_v1.4.uspp.F.UPF
     MD5 check sum: e912e257baa3777c20ea3d68f190483c
     Pseudo is Ultrasoft, Zval =  3.0
     Generated by new atomic code, or converted to UPF format
     Using radial grid of  751 points,  5 beta functions with:
                l(1) =   0
                l(2) =   0
                l(3) =   0
                l(4) =   1
                l(5) =   1
     Q(r) pseudized with 10 coefficients,  rinner =    1.150   1.150   1.150

     PseudoPot. # 2 for Fe read from file:
     /lustre07/scratch/pragov/crystal_structure_design/utils/SSSP/Fe.pbe-spn-kjpaw_psl.0.2.1.UPF
     MD5 check sum: e86618425769142926afa95317d90200
     Pseudo is Projector augmented-wave + core cor, Zval = 16.0
     Generated using "atomic" code by A. Dal Corso  v.5.0.99 svn rev. 10869
     Shape of augmentation charge: PSQ
     Using radial grid of 1191 points,  6 beta functions with:
                l(1) =   0
                l(2) =   0
                l(3) =   1
                l(4) =   1
                l(5) =   2
                l(6) =   2
     Q(r) pseudized with 0 coefficients

     PseudoPot. # 3 for F  read from file:
     /lustre07/scratch/pragov/crystal_structure_design/utils/SSSP/f_pbe_v1.4.uspp.F.UPF
     MD5 check sum: 4c38b6a325caf53ec0e86aed9459de46
     Pseudo is Ultrasoft, Zval =  7.0
     Generated by new atomic code, or converted to UPF format
     Using radial grid of  799 points,  4 beta functions with:
                l(1) =   0
                l(2) =   0
                l(3) =   1
                l(4) =   1
     Q(r) pseudized with  8 coefficients,  rinner =    0.950   0.950   0.950

     atomic species   valence    mass     pseudopotential
        Li             3.00     6.94000     Li( 1.00)
        Fe            16.00    55.84500     Fe( 1.00)
        F              7.00    18.99840     F ( 1.00)

     12 Sym. Ops., with inversion, found ( 6 have fractional translation)

                                    s                        frac. trans.

      isym =  1     identity

 cryst.   s( 1) = (     1          0          0      )
                  (     0          1          0      )
                  (     0          0          1      )

 cart.    s( 1) = (  1.0000000  0.0000000  0.0000000 )
                  (  0.0000000  1.0000000  0.0000000 )
                  (  0.0000000  0.0000000  1.0000000 )

      isym =  2     180 deg rotation - cart. axis [0,1,0]

 cryst.   s( 2) = (    -1          0          0      )    f =(  0.0000010 )
                  (     1          1          0      )       (  0.0000000 )
                  (     0          0         -1      )       (  0.5000000 )

 cart.    s( 2) = ( -1.0000000  0.0000001  0.0000000 )    f =(  0.0000010 )
                  (  0.0000000  1.0000000  0.0000000 )       (  0.0000000 )
                  (  0.0000000  0.0000000 -1.0000000 )       (  0.9410684 )

      isym =  3     120 deg rotation - cryst. axis [0,0,1]

[...]

      isym =  6     180 deg rotation - cryst. axis [2,1,0]

[...]

      isym =  7     inversion

[...]

      isym =  8     inv. 180 deg rotation - cart. axis [0,1,0]

 cryst.   s( 8) = (     1          0          0      )    f =(  0.0000010 )
                  (    -1         -1          0      )       ( -0.0000000 )
                  (     0          0          1      )       (  0.5000000 )

 cart.    s( 8) = (  1.0000000 -0.0000001  0.0000000 )    f =(  0.0000010 )
                  (  0.0000000 -1.0000000  0.0000000 )       ( -0.0000000 )
                  (  0.0000000  0.0000000  1.0000000 )       (  0.9410684 )

      isym =  9     inv. 120 deg rotation - cryst. axis [0,0,1]

 cryst.   s( 9) = (     0         -1          0      )
                  (     1          1          0      )
                  (     0          0         -1      )

 cart.    s( 9) = (  0.5000000  0.8660254  0.0000000 )
                  ( -0.8660254  0.5000000  0.0000000 )
                  (  0.0000000  0.0000000 -1.0000000 )

[...]

 cryst.   s(10) = (     1          1          0      )
                  (    -1          0          0      )
                  (     0          0         -1      )

 cart.    s(10) = (  0.5000000 -0.8660254  0.0000000 )
                  (  0.8660254  0.5000000  0.0000000 )
                  (  0.0000000  0.0000000 -1.0000000 )

[...]

 cryst.   s(11) = (     0          1          0      )    f =(  0.0000000 )
                  (     1          0          0      )       (  0.0000000 )
                  (     0          0          1      )       (  0.5000000 )

 cart.    s(11) = ( -0.5000000  0.8660254  0.0000000 )    f =(  0.0000000 )
                  (  0.8660254  0.5000000  0.0000000 )       (  0.0000000 )
                  (  0.0000000  0.0000000  1.0000000 )       (  0.9410684 )

      isym = 12     inv. 180 deg rotation - cryst. axis [2,1,0]

 cryst.   s(12) = (    -1         -1          0      )    f =( -0.0000000 )
                  (     0          1          0      )       ( -0.0000010 )
                  (     0          0          1      )       (  0.5000000 )

 cart.    s(12) = ( -0.5000000 -0.8660253  0.0000000 )    f =(  0.0000005 )
                  ( -0.8660254  0.5000000  0.0000000 )       ( -0.0000009 )
                  (  0.0000000  0.0000000  1.0000000 )       (  0.9410684 )

   Cartesian axes

     site n.     atom                  positions (alat units)
         1           Li  tau(   1) = (  -0.0000005   0.5773506   1.7796073  )
         2           Li  tau(   2) = (   0.0000000   0.0000000   0.4705342  )
         3           Li  tau(   3) = (   0.0000000   0.0000000   1.4116025  )
         4           Li  tau(   4) = (  -0.0000005   0.5773506   1.0435978  )
         5           Li  tau(   5) = (   0.5000005   0.2886749   0.1025294  )
         6           Li  tau(   6) = (   0.5000005   0.2886749   0.8385390  )
         7           Fe  tau(   7) = (  -0.0000005   0.5773506   0.4705342  )
         8           Fe  tau(   8) = (   0.5000005   0.2886749   1.4116025  )
         9           F   tau(   9) = (  -0.3086390   0.5824315   0.6933660  )
        10           F   tau(  10) = (  -0.1587200   0.8420989   0.2477024  )
        11           F   tau(  11) = (  -0.1499190   0.3075204   0.2477024  )
        12           F   tau(  12) = (   0.1499190   0.3075204   0.6933660  )
        13           F   tau(  13) = (   0.1587200   0.8420989   0.6933660  )
        14           F   tau(  14) = (   0.1913610   0.2835939   1.6344343  )
        15           F   tau(  15) = (   0.3086390   0.5824315   0.2477024  )
        16           F   tau(  16) = (   0.3412800   0.0239266   1.1887707  )
        17           F   tau(  17) = (   0.3500810   0.5585050   1.1887707  )
        18           F   tau(  18) = (   0.6499190   0.5585050   1.6344343  )
        19           F   tau(  19) = (   0.6587200   0.0239266   1.6344343  )
        20           F   tau(  20) = (   0.8086390   0.2835939   1.1887707  )

   Crystallographic axes

     site n.     atom                  positions (cryst. coord.)
         1           Li  tau(   1) = (  0.3333330  0.6666670  0.9455250  )
         2           Li  tau(   2) = (  0.0000000  0.0000000  0.2500000  )
         3           Li  tau(   3) = (  0.0000000  0.0000000  0.7500000  )
         4           Li  tau(   4) = (  0.3333330  0.6666670  0.5544750  )
         5           Li  tau(   5) = (  0.6666670  0.3333330  0.0544750  )
         6           Li  tau(   6) = (  0.6666670  0.3333330  0.4455250  )
         7           Fe  tau(   7) = (  0.3333330  0.6666670  0.2500000  )
         8           Fe  tau(   8) = (  0.6666670  0.3333330  0.7500000  )
         9           F   tau(   9) = (  0.0276280  0.6725340  0.3683930  )
        10           F   tau(  10) = (  0.3274660  0.9723720  0.1316070  )
        11           F   tau(  11) = (  0.0276280  0.3550940  0.1316070  )
        12           F   tau(  12) = (  0.3274660  0.3550940  0.3683930  )
        13           F   tau(  13) = (  0.6449060  0.9723720  0.3683930  )
        14           F   tau(  14) = (  0.3550940  0.3274660  0.8683930  )
        15           F   tau(  15) = (  0.6449060  0.6725340  0.1316070  )
        16           F   tau(  16) = (  0.3550940  0.0276280  0.6316070  )
        17           F   tau(  17) = (  0.6725340  0.6449060  0.6316070  )
        18           F   tau(  18) = (  0.9723720  0.6449060  0.8683930  )
        19           F   tau(  19) = (  0.6725340  0.0276280  0.8683930  )
        20           F   tau(  20) = (  0.9723720  0.3274660  0.6316070  )

     number of k points=     7
                       cart. coord. in units 2pi/alat
        k(    1) = (   0.0000000   0.0000000   0.0000000), wk =   0.0740741
        k(    2) = (   0.0000000   0.0000000   0.1771037), wk =   0.1481481
        k(    3) = (   0.0000000   0.3849002   0.0000000), wk =   0.4444444
        k(    4) = (   0.0000000   0.3849002   0.1771037), wk =   0.8888889
        k(    5) = (   0.3333333   0.5773502   0.0000000), wk =   0.1481481
        k(    6) = (   0.3333333   0.5773502   0.1771037), wk =   0.1481481
        k(    7) = (  -0.3333333  -0.5773502   0.1771037), wk =   0.1481481

                       cryst. coord.
        k(    1) = (   0.0000000   0.0000000   0.0000000), wk =   0.0740741
        k(    2) = (   0.0000000   0.0000000   0.3333333), wk =   0.1481481
        k(    3) = (   0.0000000   0.3333333   0.0000000), wk =   0.4444444
        k(    4) = (   0.0000000   0.3333333   0.3333333), wk =   0.8888889
        k(    5) = (   0.3333333   0.3333333   0.0000000), wk =   0.1481481
        k(    6) = (   0.3333333   0.3333333   0.3333333), wk =   0.1481481
        k(    7) = (  -0.3333333  -0.3333333   0.3333333), wk =   0.1481481

     Check: negative core charge=   -0.000075

     Initial potential from superposition of free atoms

     starting charge     131.2947, renormalised to     134.0000
     Starting wfcs are  104 randomized atomic wfcs +  152 random wfcs
     Checking if some PAW data can be deallocated...

     Self-consistent Calculation

     iteration #  1     ecut=    30.00 Ry     beta= 0.70
     Davidson diagonalization with overlap

     ethr =  1.00E-02,  avg # of iterations =  7.1

     total energy              =   -1326.50627054 Ry
     estimated scf accuracy    <       5.23488764 Ry

[...]

     total energy              =   -1329.76463188 Ry
     estimated scf accuracy    <       0.00000107 Ry

     iteration # 19     ecut=    30.00 Ry     beta= 0.70
     Davidson diagonalization with overlap

     ethr =  7.96E-10,  avg # of iterations =  2.0

     End of self-consistent calculation

          k = 0.0000 0.0000 0.0000 (  4141 PWs)   bands (ev):

   -84.9805 -84.9770 -50.7851 -50.7833 -50.3737 -50.3737 -50.3559 -50.3559
   -40.8264 -40.8261 -40.8194 -40.8186 -40.6458 -40.6442 -19.8669 -19.7502
   -19.4701 -19.3424 -19.3209 -19.3208 -19.3045 -19.3045 -19.2690 -19.2690
   -19.2507 -19.2507  -2.6140  -2.4070  -2.3135  -2.3135  -2.2747  -2.2747
    -2.2645  -2.0321  -2.0320  -1.7624  -1.7437  -1.7436  -1.5500  -1.5499
    -1.4496  -1.4234  -1.2057  -1.2057  -1.0300  -0.9236  -0.7858  -0.6487
    -0.6486  -0.4864  -0.4399  -0.2319  -0.2319  -0.0757  -0.0757  -0.0502
    -0.0502   0.1017   0.1018   0.1136   0.1178   0.1178   2.0594   2.0594
     2.0880   2.0880   2.1014   2.1756   4.2768   4.2768   4.3218   4.3218
     8.1400   9.7381  10.2377  12.4120  13.4298  13.9798  13.9798  14.2962
    14.2963  14.3307  14.3308  14.7843  15.1397  15.1398  15.2225  15.3627
    15.4304  15.4304  15.6965  15.8491  16.2276  16.6447  16.6448  16.9516
    16.9517  16.9842  17.5239  18.0245  18.0246  18.1690  18.3907  18.8741
    20.3556  21.4468  21.4468  22.1729  22.1729  22.4132  22.5166  22.5166
    22.6484  22.7330  23.2970  23.2970  23.4783  23.4783  24.3684  24.6112
    25.5990  25.5991  26.2774  26.2775  26.4182  26.4182  26.9103  26.9103
    26.9347  27.5480  27.7492  27.9813  27.9813  28.2590  28.3937  28.3937
    28.9195  28.9196  29.4506  29.4506  29.4825  30.0073  30.0073  30.0203
    31.1776  31.6799  31.6800  31.9989  32.3084  32.3084  32.7300  32.7300
    32.7482  33.4829  33.4830  33.8521  33.8521  34.0330  34.8901  34.8901
    35.0691  35.1141  35.1141  35.1282  35.6853  35.7208  35.7208  35.9596
    35.9597  36.2481  36.2481  36.5231  36.7571  36.7782  37.0598  37.1806
    37.1806  37.3465  37.3465  37.3730  37.6002  37.9796  37.9796  38.6130
    38.7099  38.7811  39.3366  39.3366  39.4906  39.9792  39.9793  40.4135
    40.4136  41.0929  41.6202  41.7551  42.1410  42.1869  42.3037  42.3038
    42.6827  42.6827  43.3398  43.3398  43.9812  43.9812  44.3783  44.3784
    44.4678  44.8638  44.8639  45.0134  45.1683  45.1683  45.9037  45.9038
    45.9444  46.2257  46.2257  46.3365  46.3365  46.6309  46.9446  47.2486
    47.2486  47.9370  47.9370  48.2532  48.2602  48.2665  48.2665  48.3466
    49.3478  49.4185  50.4115  50.4116  50.4761  50.4761  50.5319  50.5319
    51.3847  51.3847  51.7622  51.7622  51.9238  52.1554  52.4933  52.4934
    52.5771  52.5771  52.8385  52.8386  52.8949  52.8949  52.9789  53.4291

     occupation numbers
     1.0000   1.0000   1.0000   1.0000   1.0000   1.0000   1.0000   1.0000
     1.0000   1.0000   1.0000   1.0000   1.0000   1.0000   1.0000   1.0000
     1.0000   1.0000   1.0000   1.0000   1.0000   1.0000   1.0000   1.0000
     1.0000   1.0000   1.0000   1.0000   1.0000   1.0000   1.0000   1.0000
     1.0000   1.0000   1.0000   1.0000   1.0000   1.0000   1.0000   1.0000
     1.0000   1.0000   1.0000   1.0000   1.0000   1.0000   1.0000   1.0000
     1.0000   1.0000   1.0000   1.0000   1.0000   1.0000   1.0000   1.0000
     1.0000   1.0000   1.0000   1.0000   1.0000   1.0000   1.0000   1.0000
     1.0000   1.0000   1.0000   0.0000   0.0000   0.0000   0.0000   0.0000
     0.0000   0.0000   0.0000   0.0000   0.0000   0.0000   0.0000   0.0000
     0.0000   0.0000   0.0000   0.0000   0.0000   0.0000   0.0000   0.0000
     0.0000   0.0000   0.0000   0.0000   0.0000   0.0000   0.0000   0.0000
     0.0000   0.0000   0.0000   0.0000   0.0000   0.0000   0.0000   0.0000
     0.0000   0.0000   0.0000   0.0000   0.0000   0.0000   0.0000   0.0000
     0.0000   0.0000   0.0000   0.0000   0.0000   0.0000   0.0000   0.0000
     0.0000   0.0000   0.0000   0.0000   0.0000   0.0000   0.0000   0.0000
     0.0000   0.0000   0.0000   0.0000   0.0000   0.0000   0.0000   0.0000
     0.0000   0.0000   0.0000   0.0000   0.0000   0.0000   0.0000   0.0000
     0.0000   0.0000   0.0000   0.0000   0.0000   0.0000   0.0000   0.0000
     0.0000   0.0000   0.0000   0.0000   0.0000   0.0000   0.0000   0.0000
     0.0000   0.0000   0.0000   0.0000   0.0000   0.0000   0.0000   0.0000
     0.0000   0.0000   0.0000   0.0000   0.0000   0.0000   0.0000   0.0000
     0.0000   0.0000   0.0000   0.0000   0.0000   0.0000   0.0000   0.0000
     0.0000   0.0000   0.0000   0.0000   0.0000   0.0000   0.0000   0.0000
     0.0000   0.0000   0.0000   0.0000   0.0000   0.0000   0.0000   0.0000
     0.0000   0.0000   0.0000   0.0000   0.0000   0.0000   0.0000   0.0000
     0.0000   0.0000   0.0000   0.0000   0.0000   0.0000   0.0000   0.0000
     0.0000   0.0000   0.0000   0.0000   0.0000   0.0000   0.0000   0.0000
     0.0000   0.0000   0.0000   0.0000   0.0000   0.0000   0.0000   0.0000
     0.0000   0.0000   0.0000   0.0000   0.0000   0.0000   0.0000   0.0000
     0.0000   0.0000   0.0000   0.0000   0.0000   0.0000   0.0000   0.0000
     0.0000   0.0000   0.0000   0.0000   0.0000   0.0000   0.0000   0.0000

[...]

          k = 0.3333 0.5774 0.1771 (  4101 PWs)   bands (ev):

[...]

          k =-0.3333-0.5774 0.1771 (  4101 PWs)   bands (ev):

   -84.9763 -84.9762 -50.7847 -50.7846 -50.3487 -50.3487 -50.3485 -50.3485
   -40.8225 -40.8223 -40.8221 -40.8220 -40.6449 -40.6444 -19.6710 -19.6710
   -19.4149 -19.4073 -19.3873 -19.3872 -19.3092 -19.3088 -19.3088 -19.3001
   -19.2885 -19.2884  -2.5480  -2.5480  -2.3397  -2.2139  -2.2139  -2.0286
    -2.0156  -2.0155  -2.0090  -1.7805  -1.7535  -1.7535  -1.5252  -1.4737
    -1.4737  -1.2726  -1.2726  -1.2279  -1.0452  -0.7917  -0.7917  -0.6796
    -0.5441  -0.5441  -0.4310  -0.3381  -0.2787  -0.2787  -0.2149  -0.2149
    -0.0379  -0.0379  -0.0264  -0.0070   0.1334   0.1335   2.0701   2.0706
     2.0706   2.0917   2.2057   2.2058   4.1544   4.3003   4.3003   4.3156
    10.7994  10.7994  11.1540  11.3644  11.3645  11.6300  12.5286  12.5286
    13.6138  14.5316  14.5316  14.5371  15.5095  15.5096  15.7997  15.8870
    15.9731  15.9731  16.1692  16.1692  16.7231  16.7232  16.8658  17.3556
    17.9001  17.9001  17.9834  18.4015  18.4444  18.4445  19.9156  19.9217
    19.9218  20.2100  20.3245  20.8422  20.8423  21.1921  22.0983  22.0983
    22.4498  22.4498  22.6310  22.6310  22.6987  22.6987  23.8734  24.4408
    24.6400  24.6400  24.8694  26.0034  26.3766  26.3767  26.8426  26.8427
    26.8885  27.5349  27.5349  28.0187  28.1518  28.7338  28.7338  29.7111
    30.0060  30.0745  30.0745  30.1273  30.1273  30.3576  30.3576  30.6054
    31.4931  31.6479  31.6479  31.6588  32.4893  32.4968  32.4969  33.2442
    33.2443  33.7366  34.2754  34.4869  34.4869  34.8399  34.8399  35.2258
    35.2258  36.0592  36.2182  36.2182  36.3588  36.3588  36.5257  36.7953
    36.9410  37.0170  37.0171  37.1007  37.1007  37.3487  37.9440  37.9441
    38.0791  38.2045  38.3028  38.3028  38.5997  38.5997  39.3625  39.3672
    39.3672  39.6677  39.6677  40.0402  40.2001  40.2400  40.2799  40.2799
    41.0854  41.0854  41.1821  41.3533  41.3533  41.7849  41.7849  41.9716
    42.0391  42.1194  42.1195  42.7533  42.8736  42.8736  42.8907  43.2146
    43.2147  44.1025  44.1025  44.1346  44.3837  44.4346  44.9131  45.0169
    45.0170  45.4421  45.4421  45.7083  45.8587  46.2824  46.2824  46.5345
    46.9020  46.9020  47.3550  47.6434  47.6434  47.7195  47.7195  48.2081
    48.2081  48.7077  48.7547  49.0308  49.0308  49.1004  49.8022  49.8023
    50.1414  50.2711  50.2712  50.4140  50.4141  50.6292  50.6293  50.8691
    51.2225  51.2225  51.3486  51.6142  51.6875  51.6875  52.2911  52.3146

     occupation numbers
     1.0000   1.0000   1.0000   1.0000   1.0000   1.0000   1.0000   1.0000
     1.0000   1.0000   1.0000   1.0000   1.0000   1.0000   1.0000   1.0000
     1.0000   1.0000   1.0000   1.0000   1.0000   1.0000   1.0000   1.0000
     1.0000   1.0000   1.0000   1.0000   1.0000   1.0000   1.0000   1.0000
     1.0000   1.0000   1.0000   1.0000   1.0000   1.0000   1.0000   1.0000
     1.0000   1.0000   1.0000   1.0000   1.0000   1.0000   1.0000   1.0000
     1.0000   1.0000   1.0000   1.0000   1.0000   1.0000   1.0000   1.0000
     1.0000   1.0000   1.0000   1.0000   1.0000   1.0000   1.0000   1.0000
     1.0000   1.0000   1.0000   0.0000   0.0000   0.0000   0.0000   0.0000
     0.0000   0.0000   0.0000   0.0000   0.0000   0.0000   0.0000   0.0000
     0.0000   0.0000   0.0000   0.0000   0.0000   0.0000   0.0000   0.0000
     0.0000   0.0000   0.0000   0.0000   0.0000   0.0000   0.0000   0.0000
     0.0000   0.0000   0.0000   0.0000   0.0000   0.0000   0.0000   0.0000
     0.0000   0.0000   0.0000   0.0000   0.0000   0.0000   0.0000   0.0000
     0.0000   0.0000   0.0000   0.0000   0.0000   0.0000   0.0000   0.0000
     0.0000   0.0000   0.0000   0.0000   0.0000   0.0000   0.0000   0.0000
     0.0000   0.0000   0.0000   0.0000   0.0000   0.0000   0.0000   0.0000
     0.0000   0.0000   0.0000   0.0000   0.0000   0.0000   0.0000   0.0000
     0.0000   0.0000   0.0000   0.0000   0.0000   0.0000   0.0000   0.0000
     0.0000   0.0000   0.0000   0.0000   0.0000   0.0000   0.0000   0.0000
     0.0000   0.0000   0.0000   0.0000   0.0000   0.0000   0.0000   0.0000
     0.0000   0.0000   0.0000   0.0000   0.0000   0.0000   0.0000   0.0000
     0.0000   0.0000   0.0000   0.0000   0.0000   0.0000   0.0000   0.0000
     0.0000   0.0000   0.0000   0.0000   0.0000   0.0000   0.0000   0.0000
     0.0000   0.0000   0.0000   0.0000   0.0000   0.0000   0.0000   0.0000
     0.0000   0.0000   0.0000   0.0000   0.0000   0.0000   0.0000   0.0000
     0.0000   0.0000   0.0000   0.0000   0.0000   0.0000   0.0000   0.0000
     0.0000   0.0000   0.0000   0.0000   0.0000   0.0000   0.0000   0.0000
     0.0000   0.0000   0.0000   0.0000   0.0000   0.0000   0.0000   0.0000
     0.0000   0.0000   0.0000   0.0000   0.0000   0.0000   0.0000   0.0000
     0.0000   0.0000   0.0000   0.0000   0.0000   0.0000   0.0000   0.0000
     0.0000   0.0000   0.0000   0.0000   0.0000   0.0000   0.0000   0.0000

     highest occupied, lowest unoccupied level (ev):     2.2057    2.1627

!    total energy              =   -1329.76464146 Ry
     estimated scf accuracy    <       0.00000001 Ry

     The total energy is the sum of the following terms:
     one-electron contribution =    -809.72024740 Ry
     hartree contribution      =     455.88622285 Ry
     xc contribution           =    -202.25716343 Ry
     ewald contribution        =    -621.52206408 Ry
     one-center paw contrib.   =    -152.15138940 Ry
      -> PAW hartree energy AE =       0.00000000 Ry
      -> PAW hartree energy PS =       0.00000000 Ry
      -> PAW xc energy AE      =       0.00000000 Ry
      -> PAW xc energy PS      =       0.00000000 Ry
      -> total E_H with PAW    =     455.88622285 Ry
      -> total E_XC with PAW   =    -202.25716343 Ry

     convergence has been achieved in  19 iterations

     Writing all to output data dir bands_nm/myprefix.save/

     General routines

     Parallel routines

     PAW routines

   This run was terminated on:   0:54:57  17Jul2023

   JOB DONE.