     Program PWSCF v.7.1 starts on 12Jul2023 at 15:11:44

     Reading input from espresso_22373.pwi
Warning: card &CELL ignored
Warning: card / ignored

     Current dimensions of program PWSCF are:
     Max number of different atomic species (ntypx) = 10
     Max number of k-points (npk) =  40000
     Max angular momentum in pseudopotentials (lmaxx) =  4
     Message from routine setup:
     using ibrav=0 with symmetry is DISCOURAGED, use correct ibrav instead

     K-points division:     npool     =       2
     R & G space division:  proc/nbgrp/npool/nimage =       8
     Subspace diagonalization in iterative solution of the eigenvalue problem:
     a serial algorithm will be used

     Using Slab Decomposition

     bravais-lattice index     =            0
     lattice parameter (alat)  =      13.0276  a.u.
     unit-cell volume          =    3054.1896 (a.u.)^3
     number of atoms/cell      =           14
     number of atomic types    =            3
     number of electrons       =       126.00
     number of Kohn-Sham states=           64
     kinetic-energy cutoff     =      30.0000  Ry
     charge density cutoff     =     240.0000  Ry
     scf convergence threshold =      1.0E-06
     mixing beta               =       0.7000
     number of iterations used =            8  plain     mixing
     Exchange-correlation= SLA  PW   PBE  PBE
                           (   1   4   3   4   0   0   0)

     celldm(1)=  13.027640  celldm(2)=   0.000000  celldm(3)=   0.000000
     celldm(4)=   0.000000  celldm(5)=   0.000000  celldm(6)=   0.000000

     crystal axes: (cart. coord. in units of alat)
               a(1) = (   1.000000   0.000000   0.000000 )
               a(2) = (   0.260545   0.997110   0.000000 )
               a(3) = (   0.123610   0.220213   1.385338 )

     reciprocal axes: (cart. coord. in units 2 pi/alat)
               b(1) = (  1.000000 -0.261300 -0.047691 )
               b(2) = (  0.000000  1.002899 -0.159421 )
               b(3) = (  0.000000  0.000000  0.721845 )

     PseudoPot. # 1 for Rb read from file:
     /lustre07/scratch/pragov/crystal_structure_design/utils/SSSP/Rb_ONCV_PBE-1.0.oncvpsp.upf
     MD5 check sum: 55a5172d6bfbce6759a58e35d43f6aa9
     Pseudo is Norm-conserving, Zval =  9.0
     Generated using ONCVPSP code by D. R. Hamann
     Using radial grid of 2308 points,  6 beta functions with:
                l(1) =   0
                l(2) =   0
                l(3) =   1
                l(4) =   1
                l(5) =   2
                l(6) =   2

     PseudoPot. # 2 for Sb read from file:
     /lustre07/scratch/pragov/crystal_structure_design/utils/SSSP/sb_pbe_v1.4.uspp.F.UPF
     MD5 check sum: 9bc50dfb53373b713f5709b9110fe27f
     Pseudo is Ultrasoft + core correction, Zval = 15.0
     Generated by new atomic code, or converted to UPF format
     Using radial grid of  891 points,  6 beta functions with:
                l(1) =   0
                l(2) =   0
                l(3) =   1
                l(4) =   1
                l(5) =   2
                l(6) =   2
     Q(r) pseudized with  8 coefficients,  rinner =    1.350   1.350   1.350
                                                       1.350   1.350

     PseudoPot. # 3 for Se read from file:
     /lustre07/scratch/pragov/crystal_structure_design/utils/SSSP/Se_pbe_v1.uspp.F.UPF
     MD5 check sum: 1b3568f3a8ae88f9a2a0ad0698632c85
     Pseudo is Ultrasoft + core correction, Zval =  6.0
     Generated by new atomic code, or converted to UPF format
     Using radial grid of  877 points,  6 beta functions with:
                l(1) =   0
                l(2) =   0
                l(3) =   1
                l(4) =   1
                l(5) =   2
                l(6) =   2
     Q(r) pseudized with  8 coefficients,  rinner =    1.300   1.300   1.300
                                                       1.300   1.300

     atomic species   valence    mass     pseudopotential
        Rb             9.00    85.46780     Rb( 1.00)
        Sb            15.00   121.76000     Sb( 1.00)
        Se             6.00    78.97100     Se( 1.00)

      2 Sym. Ops., with inversion, found

                                    s                        frac. trans.

      isym =  1     identity

 cryst.   s( 1) = (     1          0          0      )
                  (     0          1          0      )
                  (     0          0          1      )

 cart.    s( 1) = (  1.0000000  0.0000000  0.0000000 )
                  (  0.0000000  1.0000000  0.0000000 )
                  (  0.0000000  0.0000000  1.0000000 )

      isym =  2     inversion

 cryst.   s( 2) = (    -1          0          0      )
                  (     0         -1          0      )
                  (     0          0         -1      )

 cart.    s( 2) = ( -1.0000000 -0.0000000  0.0000000 )
                  (  0.0000000 -1.0000000  0.0000000 )
                  (  0.0000000  0.0000000 -1.0000000 )

   Cartesian axes

     site n.     atom                  positions (alat units)
         1           Rb  tau(   1) = (   0.3095167   0.3056766   0.7858997  )
         2           Rb  tau(   2) = (   1.0746382   0.9116463   0.5994387  )
         3           Sb  tau(   3) = (   1.1810708   1.0205225   1.3268771  )
         4           Sb  tau(   4) = (   0.2030841   0.1968005   0.0584613  )
         5           Sb  tau(   5) = (   0.5955988   0.6382048   0.2277108  )
         6           Sb  tau(   6) = (   0.7885561   0.5791181   1.1576276  )
         7           Se  tau(   7) = (   0.5437122   1.0418589   1.2284350  )
         8           Se  tau(   8) = (   0.8404427   0.1754640   0.1569034  )
         9           Se  tau(   9) = (   0.5858275   0.9902886   0.3714522  )
        10           Se  tau(  10) = (   0.7983274   0.2270343   1.0138862  )
        11           Se  tau(  11) = (   0.6298969   0.7148652   0.8182778  )
        12           Se  tau(  12) = (   0.7542580   0.5024577   0.5670606  )
        13           Se  tau(  13) = (   0.2383421   0.5284047   0.3010174  )
        14           Se  tau(  14) = (   1.1458128   0.6889182   1.0843210  )

   Crystallographic axes

     site n.     atom                  positions (cryst. coord.)
         1           Rb  tau(   1) = (  0.1921630  0.1812740  0.5672980  )
         2           Rb  tau(   2) = (  0.8078370  0.8187260  0.4327020  )
         3           Sb  tau(   3) = (  0.8511280  0.8119490  0.9578000  )
         4           Sb  tau(   4) = (  0.1488720  0.1880510  0.0422000  )
         5           Sb  tau(   5) = (  0.4179760  0.6037530  0.1643720  )
         6           Sb  tau(   6) = (  0.5820240  0.3962470  0.8356280  )
         7           Se  tau(   7) = (  0.2128890  0.8490410  0.8867400  )
         8           Se  tau(   8) = (  0.7871110  0.1509590  0.1132600  )
         9           Se  tau(   9) = (  0.3093500  0.9339420  0.2681310  )
        10           Se  tau(  10) = (  0.6906500  0.0660580  0.7318690  )
        11           Se  tau(  11) = (  0.4040780  0.5864870  0.5906700  )
        12           Se  tau(  12) = (  0.5959220  0.4135130  0.4093300  )
        13           Se  tau(  13) = (  0.0859140  0.4819480  0.2172880  )
        14           Se  tau(  14) = (  0.9140860  0.5180520  0.7827120  )

     number of k points=    14
                       cart. coord. in units 2pi/alat
        k(    1) = (   0.0000000   0.0000000   0.0000000), wk =   0.0740741
        k(    2) = (   0.0000000   0.0000000   0.2406151), wk =   0.1481481
        k(    3) = (   0.0000000   0.3342996  -0.0531402), wk =   0.1481481
        k(    4) = (   0.0000000   0.3342996   0.1874749), wk =   0.1481481
        k(    5) = (   0.0000000   0.3342996  -0.2937553), wk =   0.1481481
        k(    6) = (   0.3333333  -0.0871000  -0.0158970), wk =   0.1481481
        k(    7) = (   0.3333333  -0.0871000   0.2247181), wk =   0.1481481
        k(    8) = (   0.3333333  -0.0871000  -0.2565121), wk =   0.1481481
        k(    9) = (   0.3333333   0.2471995  -0.0690373), wk =   0.1481481
        k(   10) = (   0.3333333   0.2471995   0.1715778), wk =   0.1481481
        k(   11) = (   0.3333333   0.2471995  -0.3096524), wk =   0.1481481
        k(   12) = (   0.3333333  -0.4213996   0.0372432), wk =   0.1481481
        k(   13) = (   0.3333333  -0.4213996   0.2778583), wk =   0.1481481
        k(   14) = (   0.3333333  -0.4213996  -0.2033719), wk =   0.1481481

                       cryst. coord.
        k(    1) = (   0.0000000   0.0000000   0.0000000), wk =   0.0740741
        k(    2) = (   0.0000000   0.0000000   0.3333333), wk =   0.1481481
        k(    3) = (   0.0000000   0.3333333   0.0000000), wk =   0.1481481
        k(    4) = (   0.0000000   0.3333333   0.3333333), wk =   0.1481481
        k(    5) = (   0.0000000   0.3333333  -0.3333333), wk =   0.1481481
        k(    6) = (   0.3333333   0.0000000   0.0000000), wk =   0.1481481
        k(    7) = (   0.3333333   0.0000000   0.3333333), wk =   0.1481481
        k(    8) = (   0.3333333   0.0000000  -0.3333333), wk =   0.1481481
        k(    9) = (   0.3333333   0.3333333   0.0000000), wk =   0.1481481
        k(   10) = (   0.3333333   0.3333333   0.3333333), wk =   0.1481481
        k(   11) = (   0.3333333   0.3333333  -0.3333333), wk =   0.1481481
        k(   12) = (   0.3333333  -0.3333333  -0.0000000), wk =   0.1481481
        k(   13) = (   0.3333333  -0.3333333   0.3333333), wk =   0.1481481
        k(   14) = (   0.3333333  -0.3333333  -0.3333333), wk =   0.1481481

     Check: negative core charge=   -0.000002

     Initial potential from superposition of free atoms

     starting charge     121.9499, renormalised to     126.0000
     Starting wfcs are   78 randomized atomic wfcs

     Self-consistent Calculation

     iteration #  1     ecut=    30.00 Ry     beta= 0.70
     Davidson diagonalization with overlap

     ethr =  1.00E-02,  avg # of iterations =  2.0

     total energy              =   -1185.47484034 Ry
     estimated scf accuracy    <       2.87833973 Ry

[...]

     total energy              =   -1186.86522482 Ry
     estimated scf accuracy    <       0.00000544 Ry

     iteration # 11     ecut=    30.00 Ry     beta= 0.70
     Davidson diagonalization with overlap

     ethr =  4.32E-09,  avg # of iterations =  3.5

     End of self-consistent calculation

          k = 0.0000 0.0000 0.0000 (  8453 PWs)   bands (ev):

   -24.0539 -24.0516 -24.0488 -24.0473 -24.0466 -24.0444 -24.0426 -24.0422
   -24.0039 -24.0035 -24.0004 -23.9984 -23.9967 -23.9961 -23.9937 -23.9928
   -23.9803 -23.9794 -23.9737 -23.9737 -21.2862 -21.2786  -8.6270  -8.0304
    -7.7717  -6.9399  -6.9167  -6.9139  -6.8446  -6.0435  -5.4331  -5.4278
    -5.3880  -5.3590  -5.3452  -5.3386  -3.8242  -3.7706  -2.6467  -2.5055
     0.4326   1.0435   1.2617   1.2784   1.4236   1.5868   2.1642   2.4342
     2.6568   2.7141   2.7917   2.9921   3.2331   3.2581   3.7313   3.9352
     3.9851   4.1600   4.2138   4.4966   4.7229   4.9953   5.1045   6.9246

     occupation numbers
     1.0000   1.0000   1.0000   1.0000   1.0000   1.0000   1.0000   1.0000
     1.0000   1.0000   1.0000   1.0000   1.0000   1.0000   1.0000   1.0000
     1.0000   1.0000   1.0000   1.0000   1.0000   1.0000   1.0000   1.0000
     1.0000   1.0000   1.0000   1.0000   1.0000   1.0000   1.0000   1.0000
     1.0000   1.0000   1.0000   1.0000   1.0000   1.0000   1.0000   1.0000
     1.0000   1.0000   1.0000   1.0000   1.0000   1.0000   1.0000   1.0000
     1.0000   1.0000   1.0000   1.0000   1.0000   1.0000   1.0000   1.0000
     1.0000   1.0000   1.0000   1.0000   1.0000   1.0000   1.0000   0.0000

[...]

          k = 0.3333-0.4214-0.2034 (  8473 PWs)   bands (ev):

   -24.0530 -24.0520 -24.0516 -24.0489 -24.0463 -24.0457 -24.0447 -24.0413
   -24.0057 -24.0043 -24.0031 -24.0018 -23.9988 -23.9966 -23.9940 -23.9923
   -23.9812 -23.9797 -23.9757 -23.9745 -21.2827 -21.2820  -8.5338  -7.9410
    -7.5686  -7.4049  -7.0971  -6.9768  -6.7702  -6.0895  -5.4117  -5.3930
    -5.3806  -5.3637  -5.3477  -5.3109  -3.5584  -3.3701  -3.1922  -2.5224
     0.8926   1.1160   1.2793   1.4352   1.6995   1.8217   2.0595   2.1548
     2.5422   2.6538   2.7498   3.0594   3.3121   3.4163   3.7189   3.8689
     3.9199   4.1262   4.3363   4.4604   4.6680   4.7725   4.9770   6.5694

     occupation numbers
     1.0000   1.0000   1.0000   1.0000   1.0000   1.0000   1.0000   1.0000
     1.0000   1.0000   1.0000   1.0000   1.0000   1.0000   1.0000   1.0000
     1.0000   1.0000   1.0000   1.0000   1.0000   1.0000   1.0000   1.0000
     1.0000   1.0000   1.0000   1.0000   1.0000   1.0000   1.0000   1.0000
     1.0000   1.0000   1.0000   1.0000   1.0000   1.0000   1.0000   1.0000
     1.0000   1.0000   1.0000   1.0000   1.0000   1.0000   1.0000   1.0000
     1.0000   1.0000   1.0000   1.0000   1.0000   1.0000   1.0000   1.0000
     1.0000   1.0000   1.0000   1.0000   1.0000   1.0000   1.0000   0.0000

     highest occupied, lowest unoccupied level (ev):     5.2558    6.4309

!    total energy              =   -1186.86522557 Ry
     estimated scf accuracy    <       0.00000026 Ry

     The total energy is the sum of the following terms:
     one-electron contribution =    -541.63264354 Ry
     hartree contribution      =     322.39147025 Ry
     xc contribution           =    -428.42750779 Ry
     ewald contribution        =    -539.19654448 Ry

     convergence has been achieved in  11 iterations

     Writing all to output data dir bands_nm/myprefix.save/

     General routines

     Parallel routines

   This run was terminated on:  15:12: 5  12Jul2023

   JOB DONE.