     Program PWSCF v.7.1 starts on 14Jul2023 at  2:47:21

     Reading input from espresso_17625.pwi
Warning: card &CELL ignored
Warning: card / ignored

     Current dimensions of program PWSCF are:
     Max number of different atomic species (ntypx) = 10
     Max number of k-points (npk) =  40000
     Max angular momentum in pseudopotentials (lmaxx) =  4
     file O.pbe-n-kjpaw_psl.0.1.UPF: wavefunction(s)  2P renormalized
     Message from routine setup:
     using ibrav=0 with symmetry is DISCOURAGED, use correct ibrav instead

     K-points division:     npool     =       2
     R & G space division:  proc/nbgrp/npool/nimage =       4
     Subspace diagonalization in iterative solution of the eigenvalue problem:
     a serial algorithm will be used

     Using Slab Decomposition

     bravais-lattice index     =            0
     lattice parameter (alat)  =       8.9312  a.u.
     unit-cell volume          =    1428.3207 (a.u.)^3
     number of atoms/cell      =           10
     number of atomic types    =            3
     number of electrons       =        68.00
     number of Kohn-Sham states=           64
     kinetic-energy cutoff     =      30.0000  Ry
     charge density cutoff     =     240.0000  Ry
     scf convergence threshold =      1.0E-06
     mixing beta               =       0.7000
     number of iterations used =            8  plain     mixing
     Exchange-correlation= SLA  PW   PBX  PBC
                           (   1   4   3   4   0   0   0)

     celldm(1)=   8.931173  celldm(2)=   0.000000  celldm(3)=   0.000000
     celldm(4)=   0.000000  celldm(5)=   0.000000  celldm(6)=   0.000000

     crystal axes: (cart. coord. in units of alat)
               a(1) = (   1.000000   0.000000   0.000000 )
               a(2) = (   0.000000   1.390861   0.000000 )
               a(3) = (   0.000000   0.000000   1.441506 )

     reciprocal axes: (cart. coord. in units 2 pi/alat)
               b(1) = (  1.000000  0.000000  0.000000 )
               b(2) = (  0.000000  0.718979  0.000000 )
               b(3) = (  0.000000  0.000000  0.693719 )

     PseudoPot. # 1 for Cs read from file:
     /lustre07/scratch/pragov/crystal_structure_design/utils/SSSP/Cs_pbe_v1.uspp.F.UPF
     MD5 check sum: 3476d69cb178dfad3ffaa59df4e07ca4
     Pseudo is Ultrasoft + core correction, Zval =  9.0
     Generated by new atomic code, or converted to UPF format
     Using radial grid of  905 points,  6 beta functions with:
                l(1) =   0
                l(2) =   0
                l(3) =   1
                l(4) =   1
                l(5) =   2
                l(6) =   2
     Q(r) pseudized with  6 coefficients,  rinner =    1.500   1.500   1.500
                                                       1.500   1.500

     PseudoPot. # 2 for Cl read from file:
     /lustre07/scratch/pragov/crystal_structure_design/utils/SSSP/cl_pbe_v1.4.uspp.F.UPF
     MD5 check sum: fc6f6913ecf08c9257cb748ef0700058
     Pseudo is Ultrasoft + core correction, Zval =  7.0
     Generated by new atomic code, or converted to UPF format
     Using radial grid of  909 points,  6 beta functions with:
                l(1) =   0
                l(2) =   0
                l(3) =   1
                l(4) =   1
                l(5) =   2
                l(6) =   2
     Q(r) pseudized with  8 coefficients,  rinner =    1.300   1.300   1.300
                                                       1.300   1.300

     PseudoPot. # 3 for O  read from file:
     /lustre07/scratch/pragov/crystal_structure_design/utils/SSSP/O.pbe-n-kjpaw_psl.0.1.UPF
     MD5 check sum: 0234752ac141de4415c5fc33072bef88
     Pseudo is Projector augmented-wave + core cor, Zval =  6.0
     Generated using "atomic" code by A. Dal Corso  v.5.0.99 svn rev. 10869
     Shape of augmentation charge: BESSEL
     Using radial grid of 1095 points,  4 beta functions with:
                l(1) =   0
                l(2) =   0
                l(3) =   1
                l(4) =   1
     Q(r) pseudized with 0 coefficients

     atomic species   valence    mass     pseudopotential
        Cs             9.00   132.90545     Cs( 1.00)
        Cl             7.00    35.45000     Cl( 1.00)
        O              6.00    15.99900     O ( 1.00)

      4 Sym. Ops. (no inversion) found ( 2 have fractional translation)

                                    s                        frac. trans.

      isym =  1     identity

 cryst.   s( 1) = (     1          0          0      )
                  (     0          1          0      )
                  (     0          0          1      )

 cart.    s( 1) = (  1.0000000  0.0000000  0.0000000 )
                  (  0.0000000  1.0000000  0.0000000 )
                  (  0.0000000  0.0000000  1.0000000 )

      isym =  2     180 deg rotation - cart. axis [0,0,1]

 cryst.   s( 2) = (    -1          0          0      )    f =(  0.0000000 )
                  (     0         -1          0      )       ( -0.5000000 )
                  (     0          0          1      )       (  0.5000000 )

 cart.    s( 2) = ( -1.0000000  0.0000000  0.0000000 )    f =(  0.0000000 )
                  (  0.0000000 -1.0000000  0.0000000 )       ( -0.6954307 )
                  (  0.0000000  0.0000000  1.0000000 )       (  0.7207529 )

      isym =  3     inv. 180 deg rotation - cart. axis [0,1,0]

 cryst.   s( 3) = (     1          0          0      )
                  (     0         -1          0      )
                  (     0          0          1      )

 cart.    s( 3) = (  1.0000000  0.0000000  0.0000000 )
                  (  0.0000000 -1.0000000  0.0000000 )
                  (  0.0000000  0.0000000  1.0000000 )

      isym =  4     inv. 180 deg rotation - cart. axis [1,0,0]

 cryst.   s( 4) = (    -1          0          0      )    f =(  0.0000000 )
                  (     0          1          0      )       (  0.5000000 )
                  (     0          0          1      )       (  0.5000000 )

 cart.    s( 4) = ( -1.0000000  0.0000000  0.0000000 )    f =(  0.0000000 )
                  (  0.0000000  1.0000000  0.0000000 )       (  0.6954307 )
                  (  0.0000000  0.0000000  1.0000000 )       (  0.7207529 )

   Cartesian axes

     site n.     atom                  positions (alat units)
         1           Cs  tau(   1) = (   0.0026960   0.0000000   0.7042318  )
         2           Cs  tau(   2) = (   0.9973040   0.6954307   1.4249847  )
         3           Cl  tau(   3) = (   0.4692710   0.0000000   0.0432106  )
         4           Cl  tau(   4) = (   0.5307290   0.6954307   0.7639635  )
         5           O   tau(   5) = (   0.5203560   1.1345480   0.2268455  )
         6           O   tau(   6) = (   0.5203560   0.2563135   0.2268455  )
         7           O   tau(   7) = (   0.8432880   0.6954307   0.6915682  )
         8           O   tau(   8) = (   0.4796440   0.9517443   0.9475984  )
         9           O   tau(   9) = (   0.4796440   0.4391172   0.9475984  )
        10           O   tau(  10) = (   0.1567120   0.0000000   1.4123211  )

   Crystallographic axes

     site n.     atom                  positions (cryst. coord.)
         1           Cs  tau(   1) = (  0.0026960  0.0000000  0.4885390  )
         2           Cs  tau(   2) = (  0.9973040  0.5000000  0.9885390  )
         3           Cl  tau(   3) = (  0.4692710  0.0000000  0.0299760  )
         4           Cl  tau(   4) = (  0.5307290  0.5000000  0.5299760  )
         5           O   tau(   5) = (  0.5203560  0.8157160  0.1573670  )
         6           O   tau(   6) = (  0.5203560  0.1842840  0.1573670  )
         7           O   tau(   7) = (  0.8432880  0.5000000  0.4797540  )
         8           O   tau(   8) = (  0.4796440  0.6842840  0.6573670  )
         9           O   tau(   9) = (  0.4796440  0.3157160  0.6573670  )
        10           O   tau(  10) = (  0.1567120  0.0000000  0.9797540  )

     number of k points=     8
                       cart. coord. in units 2pi/alat
        k(    1) = (   0.0000000   0.0000000   0.0000000), wk =   0.0740741
        k(    2) = (   0.0000000   0.0000000   0.2312397), wk =   0.1481481
        k(    3) = (   0.0000000   0.2396596   0.0000000), wk =   0.1481481
        k(    4) = (   0.0000000   0.2396596   0.2312397), wk =   0.2962963
        k(    5) = (   0.3333333   0.0000000   0.0000000), wk =   0.1481481
        k(    6) = (   0.3333333   0.0000000   0.2312397), wk =   0.2962963
        k(    7) = (   0.3333333   0.2396596   0.0000000), wk =   0.2962963
        k(    8) = (   0.3333333   0.2396596   0.2312397), wk =   0.5925926

                       cryst. coord.
        k(    1) = (   0.0000000   0.0000000   0.0000000), wk =   0.0740741
        k(    2) = (   0.0000000   0.0000000   0.3333333), wk =   0.1481481
        k(    3) = (   0.0000000   0.3333333   0.0000000), wk =   0.1481481
        k(    4) = (   0.0000000   0.3333333   0.3333333), wk =   0.2962963
        k(    5) = (   0.3333333   0.0000000   0.0000000), wk =   0.1481481
        k(    6) = (   0.3333333   0.0000000   0.3333333), wk =   0.2962963
        k(    7) = (   0.3333333   0.3333333   0.0000000), wk =   0.2962963
        k(    8) = (   0.3333333   0.3333333   0.3333333), wk =   0.5925926

     Check: negative core charge=   -0.000009

     Initial potential from superposition of free atoms

     starting charge      67.9212, renormalised to      68.0000

     negative rho (up, down):  2.751E-02 0.000E+00
     Starting wfcs are   58 randomized atomic wfcs +    6 random wfcs
     Checking if some PAW data can be deallocated...

     Self-consistent Calculation

     iteration #  1     ecut=    30.00 Ry     beta= 0.70
     Davidson diagonalization with overlap

     ethr =  1.00E-02,  avg # of iterations =  7.5

     negative rho (up, down):  2.099E-02 0.000E+00

     total energy              =    -440.90328870 Ry
     estimated scf accuracy    <       2.23055717 Ry

[...]

     total energy              =    -442.00552953 Ry
     estimated scf accuracy    <       0.00000149 Ry

     iteration #  8     ecut=    30.00 Ry     beta= 0.70
     Davidson diagonalization with overlap

     ethr =  2.19E-09,  avg # of iterations =  4.6

     negative rho (up, down):  1.910E-02 0.000E+00

     End of self-consistent calculation

          k = 0.0000 0.0000 0.0000 (  3961 PWs)   bands (ev):

   -21.4217 -21.3862 -16.5627 -16.5418 -16.4557 -16.3959 -16.3359 -16.3027
    -8.3521  -8.1276  -4.3779  -4.3754  -4.1098  -4.0685  -3.7497  -3.7377
    -3.4661  -3.4394  -3.3016  -3.2450  -3.1839  -3.1583   0.0376   0.1645
     0.2152   0.2221   1.3000   1.3146   1.3967   1.4219   2.0615   2.2233
     2.2237   2.4472   8.0996   8.1220   8.3866   9.1022   9.2536   9.4026
     9.4944   9.5059  10.1499  10.2393  10.4618  11.6598  11.7473  11.8418
    11.8448  11.9598  12.8289  13.0524  13.2592  13.6114  14.4579  14.8629
    15.0278  15.4017  15.6946  16.0020  16.3224  16.6848  16.7642  16.8192

     occupation numbers
     1.0000   1.0000   1.0000   1.0000   1.0000   1.0000   1.0000   1.0000
     1.0000   1.0000   1.0000   1.0000   1.0000   1.0000   1.0000   1.0000
     1.0000   1.0000   1.0000   1.0000   1.0000   1.0000   1.0000   1.0000
     1.0000   1.0000   1.0000   1.0000   1.0000   1.0000   1.0000   1.0000
     1.0000   1.0000   0.0000   0.0000   0.0000   0.0000   0.0000   0.0000
     0.0000   0.0000   0.0000   0.0000   0.0000   0.0000   0.0000   0.0000
     0.0000   0.0000   0.0000   0.0000   0.0000   0.0000   0.0000   0.0000
     0.0000   0.0000   0.0000   0.0000   0.0000   0.0000   0.0000   0.0000

[...]

          k = 0.3333 0.2397 0.2312 (  3965 PWs)   bands (ev):

   -21.3939 -21.3858 -16.5868 -16.5662 -16.4103 -16.4050 -16.3445 -16.3305
    -8.3579  -8.3053  -4.4098  -4.2935  -3.9553  -3.8682  -3.7835  -3.7155
    -3.4335  -3.4103  -3.3190  -3.2915  -3.2119  -3.1604  -0.0323   0.0062
     0.1291   0.1510   1.2317   1.3142   1.3940   1.4272   2.2070   2.2388
     2.3374   2.3864   8.0339   8.1804   8.4390   8.6058   9.0405   9.3825
    10.0833  10.2486  10.6494  10.7969  11.1794  11.2380  11.3842  11.5304
    11.6763  11.8743  11.9760  12.9698  13.4067  14.0218  14.5732  15.0453
    15.4019  15.7694  15.8938  16.4546  16.5992  16.7358  16.8875  17.1526

     occupation numbers
     1.0000   1.0000   1.0000   1.0000   1.0000   1.0000   1.0000   1.0000
     1.0000   1.0000   1.0000   1.0000   1.0000   1.0000   1.0000   1.0000
     1.0000   1.0000   1.0000   1.0000   1.0000   1.0000   1.0000   1.0000
     1.0000   1.0000   1.0000   1.0000   1.0000   1.0000   1.0000   1.0000
     1.0000   1.0000   0.0000   0.0000   0.0000   0.0000   0.0000   0.0000
     0.0000   0.0000   0.0000   0.0000   0.0000   0.0000   0.0000   0.0000
     0.0000   0.0000   0.0000   0.0000   0.0000   0.0000   0.0000   0.0000
     0.0000   0.0000   0.0000   0.0000   0.0000   0.0000   0.0000   0.0000

     highest occupied, lowest unoccupied level (ev):     2.4928    7.8976

!    total energy              =    -442.00553067 Ry
     estimated scf accuracy    <       0.00000064 Ry

     The total energy is the sum of the following terms:
     one-electron contribution =    -168.64752898 Ry
     hartree contribution      =     116.33909206 Ry
     xc contribution           =    -124.16264241 Ry
     ewald contribution        =    -208.31594439 Ry
     one-center paw contrib.   =     -57.21850695 Ry
      -> PAW hartree energy AE =       0.00000000 Ry
      -> PAW hartree energy PS =       0.00000000 Ry
      -> PAW xc energy AE      =       0.00000000 Ry
      -> PAW xc energy PS      =       0.00000000 Ry
      -> total E_H with PAW    =     116.33909206 Ry
      -> total E_XC with PAW   =    -124.16264241 Ry

     convergence has been achieved in   8 iterations

     Writing all to output data dir bands_nm/myprefix.save/

     General routines

     Parallel routines

     PAW routines

   This run was terminated on:   2:47:26  14Jul2023

   JOB DONE.