     Program PWSCF v.7.1 starts on  9Jul2023 at 19:16:28

     Reading input from espresso_20205.pwi
Warning: card &CELL ignored
Warning: card / ignored

     Current dimensions of program PWSCF are:
     Max number of different atomic species (ntypx) = 10
     Max number of k-points (npk) =  40000
     Max angular momentum in pseudopotentials (lmaxx) =  4
     file O.pbe-n-kjpaw_psl.0.1.UPF: wavefunction(s)  2P renormalized

     K-points division:     npool     =       2
     R & G space division:  proc/nbgrp/npool/nimage =       4
     Subspace diagonalization in iterative solution of the eigenvalue problem:
     a serial algorithm will be used

     Using Slab Decomposition

     bravais-lattice index     =            0
     lattice parameter (alat)  =       9.8504  a.u.
     unit-cell volume          =    1159.9865 (a.u.)^3
     number of atoms/cell      =           16
     number of atomic types    =            4
     number of electrons       =       100.00
     number of Kohn-Sham states=           64
     kinetic-energy cutoff     =      30.0000  Ry
     charge density cutoff     =     240.0000  Ry
     scf convergence threshold =      1.0E-06
     mixing beta               =       0.7000
     number of iterations used =            8  plain     mixing
     Exchange-correlation= SLA  PW   PBX  PBC
                           (   1   4   3   4   0   0   0)

     celldm(1)=   9.850371  celldm(2)=   0.000000  celldm(3)=   0.000000
     celldm(4)=   0.000000  celldm(5)=   0.000000  celldm(6)=   0.000000

     crystal axes: (cart. coord. in units of alat)
               a(1) = (   1.000000   0.000000   0.000000 )
               a(2) = (  -0.382418   1.336387   0.000000 )
               a(3) = (  -0.162327  -0.382694   0.908161 )

     reciprocal axes: (cart. coord. in units 2 pi/alat)
               b(1) = (  1.000000  0.286158  0.299328 )
               b(2) = (  0.000000  0.748286  0.315324 )
               b(3) = (  0.000000  0.000000  1.101127 )

     PseudoPot. # 1 for Cr read from file:
     /home/pragov/projects/rrg-bengioy-ad/pragov/crystal_structure_design/SSSP/cr_pbe_v1.5.uspp.F.UPF
     MD5 check sum: 0d52af634a40206e4dee301ad30da4bf
     Pseudo is Ultrasoft + core correction, Zval = 14.0
     Generated by new atomic code, or converted to UPF format
     Using radial grid of  857 points,  6 beta functions with:
                l(1) =   0
                l(2) =   0
                l(3) =   1
                l(4) =   1
                l(5) =   2
                l(6) =   2
     Q(r) pseudized with  8 coefficients,  rinner =    0.950   0.950   0.950
                                                       0.950   0.950

     PseudoPot. # 2 for P  read from file:
     /home/pragov/projects/rrg-bengioy-ad/pragov/crystal_structure_design/SSSP/P.pbe-n-rrkjus_psl.1.0.0.UPF
     MD5 check sum: 8b930f418f0a4573dca56cd030ffe088
     Pseudo is Ultrasoft + core correction, Zval =  5.0
     Generated using "atomic" code by A. Dal Corso  v.5.1
     Using radial grid of 1147 points,  6 beta functions with:
                l(1) =   0
                l(2) =   0
                l(3) =   1
                l(4) =   1
                l(5) =   2
                l(6) =   2
     Q(r) pseudized with 0 coefficients

     PseudoPot. # 3 for H  read from file:
     /home/pragov/projects/rrg-bengioy-ad/pragov/crystal_structure_design/SSSP/H.pbe-rrkjus_psl.1.0.0.UPF
     MD5 check sum: f52b6d4d1c606e5624b1dc7b2218f220
     Pseudo is Ultrasoft, Zval =  1.0
     Generated using "atomic" code by A. Dal Corso  v.5.1
     Using radial grid of  929 points,  2 beta functions with:
                l(1) =   0
                l(2) =   0
     Q(r) pseudized with 0 coefficients

     PseudoPot. # 4 for O  read from file:
     /home/pragov/projects/rrg-bengioy-ad/pragov/crystal_structure_design/SSSP/O.pbe-n-kjpaw_psl.0.1.UPF
     MD5 check sum: 0234752ac141de4415c5fc33072bef88
     Pseudo is Projector augmented-wave + core cor, Zval =  6.0
     Generated using "atomic" code by A. Dal Corso  v.5.0.99 svn rev. 10869
     Shape of augmentation charge: BESSEL
     Using radial grid of 1095 points,  4 beta functions with:
                l(1) =   0
                l(2) =   0
                l(3) =   1
                l(4) =   1
     Q(r) pseudized with 0 coefficients

     atomic species   valence    mass     pseudopotential
        Cr            14.00    51.99610     Cr( 1.00)
        P              5.00    30.97376     P ( 1.00)
        H              1.00     1.00800     H ( 1.00)
        O              6.00    15.99900     O ( 1.00)

     No symmetry found

                                    s                        frac. trans.

      isym =  1     identity

 cryst.   s( 1) = (     1          0          0      )
                  (     0          1          0      )
                  (     0          0          1      )

 cart.    s( 1) = (  1.0000000  0.0000000 -0.0000000 )
                  (  0.0000000  1.0000000  0.0000000 )
                  (  0.0000000  0.0000000  1.0000000 )

   Cartesian axes

     site n.     atom                  positions (alat units)
         1           Cr  tau(   1) = (  -0.3534608   0.2855568   0.9079901  )
         2           Cr  tau(   2) = (   0.9998189   0.0000167   0.0000745  )
         3           P   tau(   3) = (   0.1425740   0.0446939   0.6126217  )
         4           P   tau(   4) = (   0.3127036   0.9089915   0.2955736  )
         5           H   tau(   5) = (  -0.1752963   0.2987936   0.3136869  )
         6           H   tau(   6) = (   0.6305688   0.6551019   0.5943776  )
         7           O   tau(   7) = (  -0.3796602   0.6476366   0.7851695  )
         8           O   tau(   8) = (  -0.0924500   0.2292768   0.6384497  )
         9           O   tau(   9) = (   0.0660412   0.7487230   0.2460743  )
        10           O   tau(  10) = (   0.1557789  -0.0557049   0.3363755  )
        11           O   tau(  11) = (   0.1279781  -0.1767270   0.8084747  )
        12           O   tau(  12) = (   0.3273737   1.1303706   0.0997533  )
        13           O   tau(  13) = (   0.2994508   1.0091484   0.5718834  )
        14           O   tau(  14) = (   0.3892620   0.2048048   0.6620892  )
        15           O   tau(  15) = (   0.5477180   0.7245151   0.2697592  )
        16           O   tau(  16) = (   0.8348534   0.3061573   0.1229332  )

   Crystallographic axes

     site n.     atom                  positions (cryst. coord.)
         1           Cr  tau(   1) = (  0.0000400  0.4999890  0.9998120  )
         2           Cr  tau(   2) = (  0.9998460  0.0000360  0.0000820  )
         3           P   tau(   3) = (  0.3387380  0.2266180  0.6745740  )
         4           P   tau(   4) = (  0.6612920  0.7733870  0.3254640  )
         5           H   tau(   5) = (  0.0041010  0.3224960  0.3454090  )
         6           H   tau(   6) = (  0.9959450  0.6776250  0.6544850  )
         7           O   tau(   7) = (  0.0406890  0.7322000  0.8645710  )
         8           O   tau(   8) = (  0.1642650  0.3728830  0.7030140  )
         9           O   tau(   9) = (  0.3539510  0.6378520  0.2709590  )
        10           O   tau(  10) = (  0.2405250  0.0643840  0.3703920  )
        11           O   tau(  11) = (  0.3194050  0.1226890  0.8902330  )
        12           O   tau(  12) = (  0.6806970  0.8772950  0.1098410  )
        13           O   tau(  13) = (  0.7594070  0.9354600  0.6297160  )
        14           O   tau(  14) = (  0.6460500  0.3620250  0.7290440  )
        15           O   tau(  15) = (  0.8357900  0.6272060  0.2970390  )
        16           O   tau(  16) = (  0.9592600  0.2678570  0.1353650  )

     number of k points=    14
                       cart. coord. in units 2pi/alat
        k(    1) = (   0.0000000   0.0000000   0.0000000), wk =   0.0740741
        k(    2) = (   0.0000000   0.0000000   0.3670422), wk =   0.1481481
        k(    3) = (   0.0000000   0.2494287   0.1051079), wk =   0.1481481
        k(    4) = (   0.0000000   0.2494287   0.4721501), wk =   0.1481481
        k(    5) = (   0.0000000   0.2494287  -0.2619343), wk =   0.1481481
        k(    6) = (   0.3333333   0.0953859   0.0997759), wk =   0.1481481
        k(    7) = (   0.3333333   0.0953859   0.4668181), wk =   0.1481481
        k(    8) = (   0.3333333   0.0953859  -0.2672663), wk =   0.1481481
        k(    9) = (   0.3333333   0.3448146   0.2048838), wk =   0.1481481
        k(   10) = (   0.3333333   0.3448146   0.5719260), wk =   0.1481481
        k(   11) = (   0.3333333   0.3448146  -0.1621584), wk =   0.1481481
        k(   12) = (   0.3333333  -0.1540427  -0.0053321), wk =   0.1481481
        k(   13) = (   0.3333333  -0.1540427   0.3617101), wk =   0.1481481
        k(   14) = (   0.3333333  -0.1540427  -0.3723743), wk =   0.1481481

                       cryst. coord.
        k(    1) = (   0.0000000   0.0000000   0.0000000), wk =   0.0740741
        k(    2) = (   0.0000000   0.0000000   0.3333333), wk =   0.1481481
        k(    3) = (   0.0000000   0.3333333   0.0000000), wk =   0.1481481
        k(    4) = (   0.0000000   0.3333333   0.3333333), wk =   0.1481481
        k(    5) = (   0.0000000   0.3333333  -0.3333333), wk =   0.1481481
        k(    6) = (   0.3333333   0.0000000  -0.0000000), wk =   0.1481481
        k(    7) = (   0.3333333   0.0000000   0.3333333), wk =   0.1481481
        k(    8) = (   0.3333333   0.0000000  -0.3333333), wk =   0.1481481
        k(    9) = (   0.3333333   0.3333333   0.0000000), wk =   0.1481481
        k(   10) = (   0.3333333   0.3333333   0.3333333), wk =   0.1481481
        k(   11) = (   0.3333333   0.3333333  -0.3333333), wk =   0.1481481
        k(   12) = (   0.3333333  -0.3333333  -0.0000000), wk =   0.1481481
        k(   13) = (   0.3333333  -0.3333333   0.3333333), wk =   0.1481481
        k(   14) = (   0.3333333  -0.3333333  -0.3333333), wk =   0.1481481

     Check: negative core charge=   -0.000016

     Initial potential from superposition of free atoms

     starting charge      97.9996, renormalised to     100.0000

     negative rho (up, down):  4.208E-03 0.000E+00
     Starting wfcs are   70 randomized atomic wfcs
     Checking if some PAW data can be deallocated...

     Self-consistent Calculation

     iteration #  1     ecut=    30.00 Ry     beta= 0.70
     Davidson diagonalization with overlap

     ethr =  1.00E-02,  avg # of iterations =  4.1

     negative rho (up, down):  5.635E-03 0.000E+00

     total energy              =    -796.23177786 Ry
     estimated scf accuracy    <       3.17628954 Ry

[...]

     total energy              =    -797.96454751 Ry
     estimated scf accuracy    <       0.00000265 Ry

     iteration # 23     ecut=    30.00 Ry     beta= 0.70
     Davidson diagonalization with overlap

     ethr =  2.65E-09,  avg # of iterations =  1.0

     negative rho (up, down):  4.588E-03 0.000E+00

     End of self-consistent calculation

          k = 0.0000 0.0000 0.0000 (  3225 PWs)   bands (ev):

   -67.4632 -67.3637 -38.9476 -38.8497 -38.6819 -38.6182 -38.5961 -38.4538
   -16.4928 -16.0887 -14.3035 -14.0683 -13.9938 -13.7788 -13.7684 -13.6916
   -13.6734 -13.6063  -4.2772  -3.5213  -2.4863  -2.0950  -1.7140  -1.5311
    -1.1852  -1.1094  -0.6889  -0.6070  -0.3870   0.3966   0.4556   0.8926
     1.1263   1.3895   1.4478   1.6013   1.8260   2.4357   2.4563   2.6039
     2.8988   3.0051   3.0596   3.2304   3.3830   3.7722   3.9286   3.9412
     5.3344   5.3882   5.4506   5.5795   5.6629   6.1441   7.3479   7.8972
     8.1987   8.7775  10.6410  13.4835  13.7230  14.0539  14.1870  14.2491

     occupation numbers
     1.0000   1.0000   1.0000   1.0000   1.0000   1.0000   1.0000   1.0000
     1.0000   1.0000   1.0000   1.0000   1.0000   1.0000   1.0000   1.0000
     1.0000   1.0000   1.0000   1.0000   1.0000   1.0000   1.0000   1.0000
     1.0000   1.0000   1.0000   1.0000   1.0000   1.0000   1.0000   1.0000
     1.0000   1.0000   1.0000   1.0000   1.0000   1.0000   1.0000   1.0000
     1.0000   1.0000   1.0000   1.0000   1.0000   1.0000   1.0000   1.0000
     1.0000   1.0000   0.0000   0.0000   0.0000   0.0000   0.0000   0.0000
     0.0000   0.0000   0.0000   0.0000   0.0000   0.0000   0.0000   0.0000

[...]

          k = 0.3333-0.1540-0.3724 (  3226 PWs)   bands (ev):

   -67.4632 -67.3637 -38.9477 -38.8490 -38.6819 -38.6187 -38.5956 -38.4539
   -16.2656 -16.1722 -14.3416 -14.2259 -13.9639 -13.8748 -13.7743 -13.7130
   -13.6778 -13.5973  -3.7295  -3.6416  -2.0225  -1.7796  -1.7163  -1.5866
    -1.3129  -1.0632  -0.8468  -0.7379   0.0274   0.5941   0.6723   0.7734
     0.9154   1.2043   1.4808   1.6064   1.7447   2.1251   2.2164   2.4576
     2.6073   2.6538   2.9904   3.0535   3.3389   3.4095   3.5730   3.6778
     5.5371   5.5976   5.6928   5.7908   5.9637   6.0113   7.5666   7.5993
     7.7903   8.5493  12.5924  13.4511  13.9084  13.9662  14.2921  14.3313

     occupation numbers
     1.0000   1.0000   1.0000   1.0000   1.0000   1.0000   1.0000   1.0000
     1.0000   1.0000   1.0000   1.0000   1.0000   1.0000   1.0000   1.0000
     1.0000   1.0000   1.0000   1.0000   1.0000   1.0000   1.0000   1.0000
     1.0000   1.0000   1.0000   1.0000   1.0000   1.0000   1.0000   1.0000
     1.0000   1.0000   1.0000   1.0000   1.0000   1.0000   1.0000   1.0000
     1.0000   1.0000   1.0000   1.0000   1.0000   1.0000   1.0000   1.0000
     1.0000   1.0000   0.0000   0.0000   0.0000   0.0000   0.0000   0.0000
     0.0000   0.0000   0.0000   0.0000   0.0000   0.0000   0.0000   0.0000

     highest occupied, lowest unoccupied level (ev):     5.6251    5.4506

!    total energy              =    -797.96454748 Ry
     estimated scf accuracy    <       0.00000012 Ry

     The total energy is the sum of the following terms:
     one-electron contribution =    -426.79977871 Ry
     hartree contribution      =     257.62197050 Ry
     xc contribution           =    -129.49360940 Ry
     ewald contribution        =    -404.10419208 Ry
     one-center paw contrib.   =     -95.18893779 Ry
      -> PAW hartree energy AE =       0.00000000 Ry
      -> PAW hartree energy PS =       0.00000000 Ry
      -> PAW xc energy AE      =       0.00000000 Ry
      -> PAW xc energy PS      =       0.00000000 Ry
      -> total E_H with PAW    =     257.62197050 Ry
      -> total E_XC with PAW   =    -129.49360940 Ry

     convergence has been achieved in  23 iterations

     Writing all to output data dir bands_nm/myprefix.save/

     General routines

     Parallel routines

     PAW routines

   This run was terminated on:  19:16:50   9Jul2023

   JOB DONE.