     Program PWSCF v.7.1 starts on 16Jul2023 at 13:55: 5

     Reading input from espresso_26741.pwi
Warning: card &CELL ignored
Warning: card / ignored

     Current dimensions of program PWSCF are:
     Max number of different atomic species (ntypx) = 10
     Max number of k-points (npk) =  40000
     Max angular momentum in pseudopotentials (lmaxx) =  4
     file C.pbe-n-kjpaw_psl.1.0.0.UPF: wavefunction(s)  2S 2P renormalized
     file O.pbe-n-kjpaw_psl.0.1.UPF: wavefunction(s)  2P renormalized

     K-points division:     npool     =       2
     R & G space division:  proc/nbgrp/npool/nimage =       4
     Subspace diagonalization in iterative solution of the eigenvalue problem:
     a serial algorithm will be used

     Using Slab Decomposition

     bravais-lattice index     =            0
     lattice parameter (alat)  =      10.9843  a.u.
     unit-cell volume          =    1003.4500 (a.u.)^3
     number of atoms/cell      =            8
     number of atomic types    =            4
     number of electrons       =        56.00
     number of Kohn-Sham states=           64
     kinetic-energy cutoff     =      30.0000  Ry
     charge density cutoff     =     240.0000  Ry
     scf convergence threshold =      1.0E-06
     mixing beta               =       0.7000
     number of iterations used =            8  plain     mixing
     Exchange-correlation= SLA  PW   PBX  PBC
                           (   1   4   3   4   0   0   0)

     celldm(1)=  10.984288  celldm(2)=   0.000000  celldm(3)=   0.000000
     celldm(4)=   0.000000  celldm(5)=   0.000000  celldm(6)=   0.000000

     crystal axes: (cart. coord. in units of alat)
               a(1) = (   1.000000   0.000000   0.000000 )
               a(2) = (  -0.189034   0.981971   0.000000 )
               a(3) = (  -0.404545  -0.491760   0.771048 )

     reciprocal axes: (cart. coord. in units 2 pi/alat)
               b(1) = (  1.000000  0.192504  0.647445 )
               b(2) = (  0.000000  1.018360  0.649491 )
               b(3) = (  0.000000  0.000000  1.296936 )

     PseudoPot. # 1 for Tl read from file:
     /lustre07/scratch/pragov/crystal_structure_design/utils/SSSP/Tl_pbe_v1.2.uspp.F.UPF
     MD5 check sum: b76cf1f7e72655a2b2c53cf6385d7059
     Pseudo is Ultrasoft + core correction, Zval = 13.0
     Generated by new atomic code, or converted to UPF format
     Using radial grid of  899 points,  6 beta functions with:
                l(1) =   0
                l(2) =   0
                l(3) =   1
                l(4) =   1
                l(5) =   2
                l(6) =   2
     Q(r) pseudized with  6 coefficients,  rinner =    1.100   1.100   1.100
                                                       1.100   1.100

     PseudoPot. # 2 for C  read from file:
     /lustre07/scratch/pragov/crystal_structure_design/utils/SSSP/C.pbe-n-kjpaw_psl.1.0.0.UPF
     MD5 check sum: 5d2aebdfa2cae82b50a7e79e9516da0f
     Pseudo is Projector augmented-wave + core cor, Zval =  4.0
     Generated using "atomic" code by A. Dal Corso  v.5.1
     Shape of augmentation charge: PSQ
     Using radial grid of 1073 points,  4 beta functions with:
                l(1) =   0
                l(2) =   0
                l(3) =   1
                l(4) =   1
     Q(r) pseudized with 0 coefficients

     PseudoPot. # 3 for N  read from file:
     /lustre07/scratch/pragov/crystal_structure_design/utils/SSSP/N.pbe-n-radius_5.UPF
     MD5 check sum: 16739722b17309cd8fe442a2ace49922
     Pseudo is Ultrasoft + core correction, Zval =  5.0
     Generated using "atomic" code by A. Dal Corso  v.5.1
     Using radial grid of 1085 points,  4 beta functions with:
                l(1) =   0
                l(2) =   0
                l(3) =   1
                l(4) =   1
     Q(r) pseudized with 0 coefficients

     PseudoPot. # 4 for O  read from file:
     /lustre07/scratch/pragov/crystal_structure_design/utils/SSSP/O.pbe-n-kjpaw_psl.0.1.UPF
     MD5 check sum: 0234752ac141de4415c5fc33072bef88
     Pseudo is Projector augmented-wave + core cor, Zval =  6.0
     Generated using "atomic" code by A. Dal Corso  v.5.0.99 svn rev. 10869
     Shape of augmentation charge: BESSEL
     Using radial grid of 1095 points,  4 beta functions with:
                l(1) =   0
                l(2) =   0
                l(3) =   1
                l(4) =   1
     Q(r) pseudized with 0 coefficients

     atomic species   valence    mass     pseudopotential
        Tl            13.00   204.38000     Tl( 1.00)
        C              4.00    12.01100     C ( 1.00)
        N              5.00    14.00700     N ( 1.00)
        O              6.00    15.99900     O ( 1.00)

     No symmetry found

                                    s                        frac. trans.

      isym =  1     identity

 cryst.   s( 1) = (     1          0          0      )
                  (     0          1          0      )
                  (     0          0          1      )

 cart.    s( 1) = (  1.0000000  0.0000000  0.0000000 )
                  (  0.0000000  1.0000000  0.0000000 )
                  (  0.0000000  0.0000000  1.0000000 )

   Cartesian axes

     site n.     atom                  positions (alat units)
         1           Tl  tau(   1) = (   0.1452118  -0.1199241   0.1880332  )
         2           Tl  tau(   2) = (   0.5506950   0.3710612   0.1880332  )
         3           C   tau(   3) = (  -0.3478344  -0.1256668   0.5781667  )
         4           C   tau(   4) = (   0.0547283   0.3677303   0.5819602  )
         5           N   tau(   5) = (  -0.1883112  -0.2574101   0.5802099  )
         6           N   tau(   6) = (   0.4611009   0.8579819   0.0177989  )
         7           O   tau(   7) = (   0.4893115   0.0088272   0.5792423  )
         8           O   tau(   8) = (   0.0553003   0.3672571   0.3707485  )

   Crystallographic axes

     site n.     atom                  positions (cryst. coord.)
         1           Tl  tau(   1) = (  0.2438670  0.0000000  0.2438670  )
         2           Tl  tau(   2) = (  0.7438670  0.5000000  0.2438670  )
         3           C   tau(   3) = (  0.0023050  0.2475400  0.7498450  )
         4           C   tau(   4) = (  0.5023050  0.7524600  0.7547650  )
         5           N   tau(   5) = (  0.1377900  0.1147050  0.7524950  )
         6           N   tau(   6) = (  0.6377900  0.8852950  0.0230840  )
         7           O   tau(   7) = (  0.8660380  0.3852020  0.7512400  )
         8           O   tau(   8) = (  0.3660380  0.6147980  0.4808370  )

     number of k points=    14
                       cart. coord. in units 2pi/alat
        k(    1) = (   0.0000000   0.0000000   0.0000000), wk =   0.0740741
        k(    2) = (   0.0000000   0.0000000   0.4323119), wk =   0.1481481
        k(    3) = (   0.0000000   0.3394535   0.2164971), wk =   0.1481481
        k(    4) = (   0.0000000   0.3394535   0.6488090), wk =   0.1481481
        k(    5) = (   0.0000000   0.3394535  -0.2158149), wk =   0.1481481
        k(    6) = (   0.3333333   0.0641681   0.2158149), wk =   0.1481481
        k(    7) = (   0.3333333   0.0641681   0.6481268), wk =   0.1481481
        k(    8) = (   0.3333333   0.0641681  -0.2164971), wk =   0.1481481
        k(    9) = (   0.3333333   0.4036216   0.4323119), wk =   0.1481481
        k(   10) = (   0.3333333   0.4036216   0.8646238), wk =   0.1481481
        k(   11) = (   0.3333333   0.4036216   0.0000000), wk =   0.1481481
        k(   12) = (   0.3333333  -0.2752853  -0.0006822), wk =   0.1481481
        k(   13) = (   0.3333333  -0.2752853   0.4316297), wk =   0.1481481
        k(   14) = (   0.3333333  -0.2752853  -0.4329941), wk =   0.1481481

                       cryst. coord.
        k(    1) = (   0.0000000   0.0000000   0.0000000), wk =   0.0740741
        k(    2) = (   0.0000000   0.0000000   0.3333333), wk =   0.1481481
        k(    3) = (   0.0000000   0.3333333   0.0000000), wk =   0.1481481
        k(    4) = (   0.0000000   0.3333333   0.3333333), wk =   0.1481481
        k(    5) = (   0.0000000   0.3333333  -0.3333333), wk =   0.1481481
        k(    6) = (   0.3333333   0.0000000   0.0000000), wk =   0.1481481
        k(    7) = (   0.3333333   0.0000000   0.3333333), wk =   0.1481481
        k(    8) = (   0.3333333   0.0000000  -0.3333333), wk =   0.1481481
        k(    9) = (   0.3333333   0.3333333   0.0000000), wk =   0.1481481
        k(   10) = (   0.3333333   0.3333333   0.3333333), wk =   0.1481481
        k(   11) = (   0.3333333   0.3333333  -0.3333333), wk =   0.1481481
        k(   12) = (   0.3333333  -0.3333333  -0.0000000), wk =   0.1481481
        k(   13) = (   0.3333333  -0.3333333   0.3333333), wk =   0.1481481
        k(   14) = (   0.3333333  -0.3333333  -0.3333333), wk =   0.1481481

     Check: negative core charge=   -0.000013

     Initial potential from superposition of free atoms

     starting charge      55.9902, renormalised to      56.0000

     negative rho (up, down):  1.004E-01 0.000E+00
     Starting wfcs are   42 randomized atomic wfcs +   22 random wfcs
     Checking if some PAW data can be deallocated...

     Self-consistent Calculation

     iteration #  1     ecut=    30.00 Ry     beta= 0.70
     Davidson diagonalization with overlap

     ethr =  1.00E-02,  avg # of iterations =  7.8

     negative rho (up, down):  1.001E-01 0.000E+00

     total energy              =    -449.81284320 Ry
     estimated scf accuracy    <       1.30758750 Ry

[...]

     total energy              =    -450.34051403 Ry
     estimated scf accuracy    <       0.00000127 Ry

     iteration #  8     ecut=    30.00 Ry     beta= 0.70
     Davidson diagonalization with overlap

     ethr =  2.26E-09,  avg # of iterations =  4.2

     negative rho (up, down):  9.876E-02 0.000E+00

     End of self-consistent calculation

          k = 0.0000 0.0000 0.0000 (  2821 PWs)   bands (ev):

   -17.5582 -17.4851 -12.7009 -12.6257  -6.1486  -6.0686  -6.0485  -6.0068
    -6.0025  -5.9527  -5.9337  -5.9025  -5.8834  -5.8410  -3.4451  -3.1144
    -1.3176  -1.3015  -1.2896  -1.0195  -0.8209   0.3037   1.0523   1.2804
     1.7131   2.1928   2.2735   2.9295   8.0794   8.5456   8.6280   8.7377
     8.7703  10.2898  10.4024  10.4459  11.1834  11.2922  12.9111  13.0683
    13.9788  14.5027  14.7963  16.0312  16.1160  18.7251  19.1987  19.2420
    19.3933  19.6231  19.9586  20.1778  20.1843  21.0481  21.0481  21.5625
    21.5645  22.4448  22.9911  23.1566  23.3145  23.5348  23.5911  23.6404

     occupation numbers
     1.0000   1.0000   1.0000   1.0000   1.0000   1.0000   1.0000   1.0000
     1.0000   1.0000   1.0000   1.0000   1.0000   1.0000   1.0000   1.0000
     1.0000   1.0000   1.0000   1.0000   1.0000   1.0000   1.0000   1.0000
     1.0000   1.0000   1.0000   1.0000   0.0000   0.0000   0.0000   0.0000
     0.0000   0.0000   0.0000   0.0000   0.0000   0.0000   0.0000   0.0000
     0.0000   0.0000   0.0000   0.0000   0.0000   0.0000   0.0000   0.0000
     0.0000   0.0000   0.0000   0.0000   0.0000   0.0000   0.0000   0.0000
     0.0000   0.0000   0.0000   0.0000   0.0000   0.0000   0.0000   0.0000

[...]

          k = 0.3333-0.2753-0.4330 (  2764 PWs)   bands (ev):

   -17.5351 -17.4994 -12.6933 -12.6263  -6.1335  -6.0365  -6.0323  -5.9841
    -5.9637  -5.9575  -5.9401  -5.9118  -5.9054  -5.8718  -3.2389  -3.1586
    -1.9604  -1.7891  -1.2605  -0.8880  -0.3303   0.1704   0.3589   0.9195
     2.5810   2.7539   3.1656   3.4131   6.7850   7.8581   8.4347   8.8295
     9.3658  10.4076  10.5189  10.5904  11.0026  11.9257  12.1623  12.8028
    15.1357  15.6502  15.8202  16.5510  16.6146  16.8613  17.1895  17.5179
    18.0391  18.5707  18.8868  19.6525  20.8228  20.9161  21.1710  21.5003
    21.7659  21.9825  22.4916  23.0260  23.5372  24.0928  24.1730  24.7201

     occupation numbers
     1.0000   1.0000   1.0000   1.0000   1.0000   1.0000   1.0000   1.0000
     1.0000   1.0000   1.0000   1.0000   1.0000   1.0000   1.0000   1.0000
     1.0000   1.0000   1.0000   1.0000   1.0000   1.0000   1.0000   1.0000
     1.0000   1.0000   1.0000   1.0000   0.0000   0.0000   0.0000   0.0000
     0.0000   0.0000   0.0000   0.0000   0.0000   0.0000   0.0000   0.0000
     0.0000   0.0000   0.0000   0.0000   0.0000   0.0000   0.0000   0.0000
     0.0000   0.0000   0.0000   0.0000   0.0000   0.0000   0.0000   0.0000
     0.0000   0.0000   0.0000   0.0000   0.0000   0.0000   0.0000   0.0000

     highest occupied, lowest unoccupied level (ev):     3.6342    6.7509

!    total energy              =    -450.34051491 Ry
     estimated scf accuracy    <       0.00000033 Ry

     The total energy is the sum of the following terms:
     one-electron contribution =    -118.67528977 Ry
     hartree contribution      =      92.75490989 Ry
     xc contribution           =    -158.74956992 Ry
     ewald contribution        =    -234.26759565 Ry
     one-center paw contrib.   =     -31.40296946 Ry
      -> PAW hartree energy AE =       0.00000000 Ry
      -> PAW hartree energy PS =       0.00000000 Ry
      -> PAW xc energy AE      =       0.00000000 Ry
      -> PAW xc energy PS      =       0.00000000 Ry
      -> total E_H with PAW    =      92.75490989 Ry
      -> total E_XC with PAW   =    -158.74956992 Ry

     convergence has been achieved in   8 iterations

     Writing all to output data dir bands_nm/myprefix.save/

     General routines

     Parallel routines

     PAW routines

   This run was terminated on:  13:55:13  16Jul2023

   JOB DONE.