     Program PWSCF v.7.1 starts on 14Jul2023 at 19:13:58

     Reading input from espresso_21717.pwi
Warning: card &CELL ignored
Warning: card / ignored

     Current dimensions of program PWSCF are:
     Max number of different atomic species (ntypx) = 10
     Max number of k-points (npk) =  40000
     Max angular momentum in pseudopotentials (lmaxx) =  4
     file O.pbe-n-kjpaw_psl.0.1.UPF: wavefunction(s)  2P renormalized
     Message from routine setup:
     using ibrav=0 with symmetry is DISCOURAGED, use correct ibrav instead

     K-points division:     npool     =       2
     R & G space division:  proc/nbgrp/npool/nimage =       4
     Subspace diagonalization in iterative solution of the eigenvalue problem:
     a serial algorithm will be used

     Using Slab Decomposition

     bravais-lattice index     =            0
     lattice parameter (alat)  =      13.2192  a.u.
     unit-cell volume          =    1809.1618 (a.u.)^3
     number of atoms/cell      =           16
     number of atomic types    =            3
     number of electrons       =       120.00
     number of Kohn-Sham states=           64
     kinetic-energy cutoff     =      30.0000  Ry
     charge density cutoff     =     240.0000  Ry
     scf convergence threshold =      1.0E-06
     mixing beta               =       0.7000
     number of iterations used =            8  plain     mixing
     Exchange-correlation= SLA  PW   PBX  PBC
                           (   1   4   3   4   0   0   0)

     celldm(1)=  13.219165  celldm(2)=   0.000000  celldm(3)=   0.000000
     celldm(4)=   0.000000  celldm(5)=   0.000000  celldm(6)=   0.000000

     crystal axes: (cart. coord. in units of alat)
               a(1) = (   1.000000   0.000000   0.000000 )
               a(2) = (   0.644514   0.764593   0.000000 )
               a(3) = (   0.282392   0.131294   1.024319 )

     reciprocal axes: (cart. coord. in units 2 pi/alat)
               b(1) = (  1.000000 -0.842951 -0.167641 )
               b(2) = (  0.000000  1.307886 -0.167641 )
               b(3) = (  0.000000  0.000000  0.976258 )

     PseudoPot. # 1 for Pd read from file:
     /lustre07/scratch/pragov/crystal_structure_design/utils/SSSP/Pd_ONCV_PBE-1.0.oncvpsp.upf
     MD5 check sum: eb77f42b51d86fb18e25f68156a31cf1
     Pseudo is Norm-conserving, Zval = 18.0
     Generated using ONCVPSP code by D. R. Hamann
     Using radial grid of 1410 points,  6 beta functions with:
                l(1) =   0
                l(2) =   0
                l(3) =   1
                l(4) =   1
                l(5) =   2
                l(6) =   2

     PseudoPot. # 2 for Se read from file:
     /lustre07/scratch/pragov/crystal_structure_design/utils/SSSP/Se_pbe_v1.uspp.F.UPF
     MD5 check sum: 1b3568f3a8ae88f9a2a0ad0698632c85
     Pseudo is Ultrasoft + core correction, Zval =  6.0
     Generated by new atomic code, or converted to UPF format
     Using radial grid of  877 points,  6 beta functions with:
                l(1) =   0
                l(2) =   0
                l(3) =   1
                l(4) =   1
                l(5) =   2
                l(6) =   2
     Q(r) pseudized with  8 coefficients,  rinner =    1.300   1.300   1.300
                                                       1.300   1.300

     PseudoPot. # 3 for O  read from file:
     /lustre07/scratch/pragov/crystal_structure_design/utils/SSSP/O.pbe-n-kjpaw_psl.0.1.UPF
     MD5 check sum: 0234752ac141de4415c5fc33072bef88
     Pseudo is Projector augmented-wave + core cor, Zval =  6.0
     Generated using "atomic" code by A. Dal Corso  v.5.0.99 svn rev. 10869
     Shape of augmentation charge: BESSEL
     Using radial grid of 1095 points,  4 beta functions with:
                l(1) =   0
                l(2) =   0
                l(3) =   1
                l(4) =   1
     Q(r) pseudized with 0 coefficients

     atomic species   valence    mass     pseudopotential
        Pd            18.00   106.42000     Pd( 1.00)
        Se             6.00    78.97100     Se( 1.00)
        O              6.00    15.99900     O ( 1.00)

      2 Sym. Ops., with inversion, found

                                    s                        frac. trans.

      isym =  1     identity

 cryst.   s( 1) = (     1          0          0      )
                  (     0          1          0      )
                  (     0          0          1      )

 cart.    s( 1) = (  1.0000000 -0.0000000  0.0000000 )
                  (  0.0000000  1.0000000  0.0000000 )
                  (  0.0000000  0.0000000  1.0000000 )

      isym =  2     inversion

 cryst.   s( 2) = (    -1          0          0      )
                  (     0         -1          0      )
                  (     0          0         -1      )

 cart.    s( 2) = ( -1.0000000  0.0000000  0.0000000 )
                  (  0.0000000 -1.0000000  0.0000000 )
                  (  0.0000000  0.0000000 -1.0000000 )

   Cartesian axes

     site n.     atom                  positions (alat units)
         1           Pd  tau(   1) = (   0.1411962   0.0656471   0.5121596  )
         2           Pd  tau(   2) = (   0.0000000   0.0000000   0.0000000  )
         3           Se  tau(   3) = (   1.1963715   0.6604431   0.7012868  )
         4           Se  tau(   4) = (   0.7920546   0.4724619   0.8351919  )
         5           Se  tau(   5) = (   1.1348518   0.4234248   0.1891272  )
         6           Se  tau(   6) = (   0.7305349   0.2354436   0.3230323  )
         7           O   tau(   7) = (   1.2336473   0.3107861   0.3817914  )
         8           O   tau(   8) = (   0.7529825   0.0873081   0.1303682  )
         9           O   tau(   9) = (   0.6932590   0.5851006   0.6425277  )
        10           O   tau(  10) = (   1.1739239   0.8085786   0.8939509  )
        11           O   tau(  11) = (   0.8818859   0.4387128   0.2560798  )
        12           O   tau(  12) = (   1.0450205   0.4571739   0.7682393  )
        13           O   tau(  13) = (   1.0699263   0.7576266   0.5147746  )
        14           O   tau(  14) = (   0.7992445   0.6317770   1.0217040  )
        15           O   tau(  15) = (   0.8569800   0.1382601   0.5095445  )
        16           O   tau(  16) = (   1.1276619   0.2641097   0.0026151  )

   Crystallographic axes

     site n.     atom                  positions (cryst. coord.)
         1           Pd  tau(   1) = ( -0.0000000  0.0000000  0.5000000  )
         2           Pd  tau(   2) = (  0.0000000  0.0000000  0.0000000  )
         3           Se  tau(   3) = (  0.5220860  0.7462200  0.6846370  )
         4           Se  tau(   4) = (  0.2537800  0.4779140  0.8153630  )
         5           Se  tau(   5) = (  0.7462200  0.5220860  0.1846370  )
         6           Se  tau(   6) = (  0.4779140  0.2537800  0.3153630  )
         7           O   tau(   7) = (  0.9076660  0.3424690  0.3727270  )
         8           O   tau(   8) = (  0.6575310  0.0923340  0.1272730  )
         9           O   tau(   9) = (  0.0923340  0.6575310  0.6272730  )
        10           O   tau(  10) = (  0.3424690  0.9076660  0.8727270  )
        11           O   tau(  11) = (  0.4691430  0.5308570  0.2500000  )
        12           O   tau(  12) = (  0.5308570  0.4691430  0.7500000  )
        13           O   tau(  13) = (  0.3449870  0.9045920  0.5025530  )
        14           O   tau(  14) = (  0.0954080  0.6550130  0.9974470  )
        15           O   tau(  15) = (  0.6550130  0.0954080  0.4974470  )
        16           O   tau(  16) = (  0.9045920  0.3449870  0.0025530  )

     number of k points=    14
                       cart. coord. in units 2pi/alat
        k(    1) = (   0.0000000   0.0000000   0.0000000), wk =   0.0740741
        k(    2) = (   0.0000000   0.0000000   0.3254194), wk =   0.1481481
        k(    3) = (   0.0000000   0.4359621  -0.0558803), wk =   0.1481481
        k(    4) = (   0.0000000   0.4359621   0.2695391), wk =   0.1481481
        k(    5) = (   0.0000000   0.4359621  -0.3812997), wk =   0.1481481
        k(    6) = (   0.3333333  -0.2809836  -0.0558803), wk =   0.1481481
        k(    7) = (   0.3333333  -0.2809836   0.2695391), wk =   0.1481481
        k(    8) = (   0.3333333  -0.2809836  -0.3812997), wk =   0.1481481
        k(    9) = (   0.3333333   0.1549784  -0.1117606), wk =   0.1481481
        k(   10) = (   0.3333333   0.1549784   0.2136588), wk =   0.1481481
        k(   11) = (   0.3333333   0.1549784  -0.4371801), wk =   0.1481481
        k(   12) = (   0.3333333  -0.7169457   0.0000000), wk =   0.1481481
        k(   13) = (   0.3333333  -0.7169457   0.3254194), wk =   0.1481481
        k(   14) = (   0.3333333  -0.7169457  -0.3254194), wk =   0.1481481

                       cryst. coord.
        k(    1) = (   0.0000000   0.0000000   0.0000000), wk =   0.0740741
        k(    2) = (   0.0000000   0.0000000   0.3333333), wk =   0.1481481
        k(    3) = (   0.0000000   0.3333333   0.0000000), wk =   0.1481481
        k(    4) = (   0.0000000   0.3333333   0.3333333), wk =   0.1481481
        k(    5) = (   0.0000000   0.3333333  -0.3333333), wk =   0.1481481
        k(    6) = (   0.3333333   0.0000000   0.0000000), wk =   0.1481481
        k(    7) = (   0.3333333   0.0000000   0.3333333), wk =   0.1481481
        k(    8) = (   0.3333333   0.0000000  -0.3333333), wk =   0.1481481
        k(    9) = (   0.3333333   0.3333333  -0.0000000), wk =   0.1481481
        k(   10) = (   0.3333333   0.3333333   0.3333333), wk =   0.1481481
        k(   11) = (   0.3333333   0.3333333  -0.3333333), wk =   0.1481481
        k(   12) = (   0.3333333  -0.3333333   0.0000000), wk =   0.1481481
        k(   13) = (   0.3333333  -0.3333333   0.3333333), wk =   0.1481481
        k(   14) = (   0.3333333  -0.3333333  -0.3333333), wk =   0.1481481

     Check: negative core charge=   -0.000009

     Initial potential from superposition of free atoms

     starting charge     119.9990, renormalised to     120.0000
     Starting wfcs are   76 randomized atomic wfcs
     Checking if some PAW data can be deallocated...

     Self-consistent Calculation

     iteration #  1     ecut=    30.00 Ry     beta= 0.70
     Davidson diagonalization with overlap

     ethr =  1.00E-02,  avg # of iterations =  2.0

     total energy              =   -1093.88898475 Ry
     estimated scf accuracy    <       3.85909488 Ry

[...]

     total energy              =   -1095.78687829 Ry
     estimated scf accuracy    <       0.00000489 Ry

     iteration # 11     ecut=    30.00 Ry     beta= 0.70
     Davidson diagonalization with overlap

     ethr =  4.08E-09,  avg # of iterations =  2.4

     End of self-consistent calculation

          k = 0.0000 0.0000 0.0000 (  5029 PWs)   bands (ev):

   -80.1090 -80.1087 -45.8859 -45.8836 -45.8456 -45.8432 -44.7358 -44.7310
   -17.0574 -16.7949 -16.0141 -15.9808 -14.5420 -14.5100 -14.4693 -14.2442
   -14.2151 -14.1543  -8.1987  -8.1248  -6.6732  -6.3367  -2.9886  -2.8603
    -2.7579  -2.3386  -2.1010  -1.8620  -1.4614  -1.1046  -0.3865  -0.3687
    -0.0928  -0.0276   0.1062   0.5716   0.9087   1.1377   1.1439   1.2970
     1.3494   1.6965   1.7566   1.7755   1.9995   2.0391   2.1131   2.2311
     2.2524   2.4290   2.6092   2.6997   3.3251   3.4846   3.8329   3.8595
     4.0782   4.2972   4.3862   4.6250   5.8403   6.3508   7.0580   7.7695

     occupation numbers
     1.0000   1.0000   1.0000   1.0000   1.0000   1.0000   1.0000   1.0000
     1.0000   1.0000   1.0000   1.0000   1.0000   1.0000   1.0000   1.0000
     1.0000   1.0000   1.0000   1.0000   1.0000   1.0000   1.0000   1.0000
     1.0000   1.0000   1.0000   1.0000   1.0000   1.0000   1.0000   1.0000
     1.0000   1.0000   1.0000   1.0000   1.0000   1.0000   1.0000   1.0000
     1.0000   1.0000   1.0000   1.0000   1.0000   1.0000   1.0000   1.0000
     1.0000   1.0000   1.0000   1.0000   1.0000   1.0000   1.0000   1.0000
     1.0000   1.0000   1.0000   1.0000   0.0000   0.0000   0.0000   0.0000

[...]

          k = 0.3333-0.7169-0.3254 (  5008 PWs)   bands (ev):

   -80.1090 -80.1087 -45.8849 -45.8838 -45.8439 -45.8438 -44.7345 -44.7309
   -16.9337 -16.8980 -16.0571 -15.9686 -14.5747 -14.5158 -14.3371 -14.2623
   -14.2502 -14.2055  -8.1844  -8.0601  -6.6846  -6.3896  -3.0236  -2.8095
    -2.4325  -2.1916  -1.9483  -1.8651  -1.6020  -1.4686  -0.5797  -0.3486
    -0.1356   0.0056   0.2822   0.4966   0.7475   0.9712   1.0227   1.0792
     1.4896   1.5003   1.7391   1.8342   1.8965   1.9103   2.1120   2.3006
     2.3924   2.4772   2.6546   2.7825   3.6150   3.7745   3.9067   4.0587
     4.2053   4.2533   4.3018   4.4942   5.9480   6.4734   7.2116   7.3778

     occupation numbers
     1.0000   1.0000   1.0000   1.0000   1.0000   1.0000   1.0000   1.0000
     1.0000   1.0000   1.0000   1.0000   1.0000   1.0000   1.0000   1.0000
     1.0000   1.0000   1.0000   1.0000   1.0000   1.0000   1.0000   1.0000
     1.0000   1.0000   1.0000   1.0000   1.0000   1.0000   1.0000   1.0000
     1.0000   1.0000   1.0000   1.0000   1.0000   1.0000   1.0000   1.0000
     1.0000   1.0000   1.0000   1.0000   1.0000   1.0000   1.0000   1.0000
     1.0000   1.0000   1.0000   1.0000   1.0000   1.0000   1.0000   1.0000
     1.0000   1.0000   1.0000   1.0000   0.0000   0.0000   0.0000   0.0000

     highest occupied, lowest unoccupied level (ev):     4.6844    5.6678

!    total energy              =   -1095.78687923 Ry
     estimated scf accuracy    <       0.00000016 Ry

     The total energy is the sum of the following terms:
     one-electron contribution =    -635.06245553 Ry
     hartree contribution      =     367.01218932 Ry
     xc contribution           =    -241.74354675 Ry
     ewald contribution        =    -490.64405301 Ry
     one-center paw contrib.   =     -95.34901325 Ry
      -> PAW hartree energy AE =       0.00000000 Ry
      -> PAW hartree energy PS =       0.00000000 Ry
      -> PAW xc energy AE      =       0.00000000 Ry
      -> PAW xc energy PS      =       0.00000000 Ry
      -> total E_H with PAW    =     367.01218932 Ry
      -> total E_XC with PAW   =    -241.74354675 Ry

     convergence has been achieved in  11 iterations

     Writing all to output data dir bands_nm/myprefix.save/

     General routines

     Parallel routines

     PAW routines

   This run was terminated on:  19:14:14  14Jul2023

   JOB DONE.