     Program PWSCF v.7.1 starts on 14Jul2023 at 19:11:48

     Reading input from espresso_21581.pwi
Warning: card &CELL ignored
Warning: card / ignored

     Current dimensions of program PWSCF are:
     Max number of different atomic species (ntypx) = 10
     Max number of k-points (npk) =  40000
     Max angular momentum in pseudopotentials (lmaxx) =  4
     file Tb.paw.z_19.atompaw.wentzcovitch.v1.2.upf: wavefunction(s)  6S 0P 5D 0D 4F 0F renormalized
     file Nb.pbe-spn-kjpaw_psl.0.3.0.UPF: wavefunction(s)  4S 4P renormalized
     file O.pbe-n-kjpaw_psl.0.1.UPF: wavefunction(s)  2P renormalized
     Message from routine setup:
     using ibrav=0 with symmetry is DISCOURAGED, use correct ibrav instead

     K-points division:     npool     =       2
     R & G space division:  proc/nbgrp/npool/nimage =       4
     Subspace diagonalization in iterative solution of the eigenvalue problem:
     a serial algorithm will be used

     Using Slab Decomposition

     bravais-lattice index     =            0
     lattice parameter (alat)  =      11.7137  a.u.
     unit-cell volume          =    1230.4551 (a.u.)^3
     number of atoms/cell      =           12
     number of atomic types    =            3
     number of electrons       =       112.00
     number of Kohn-Sham states=           64
     kinetic-energy cutoff     =      30.0000  Ry
     charge density cutoff     =     240.0000  Ry
     scf convergence threshold =      1.0E-06
     mixing beta               =       0.7000
     number of iterations used =            8  plain     mixing
     Exchange-correlation= SLA  PW   PBX  PBC
                           (   1   4   3   4   0   0   0)

     celldm(1)=  11.713714  celldm(2)=   0.000000  celldm(3)=   0.000000
     celldm(4)=   0.000000  celldm(5)=   0.000000  celldm(6)=   0.000000

     crystal axes: (cart. coord. in units of alat)
               a(1) = (   1.000000   0.000000   0.000000 )
               a(2) = (  -0.412426   0.910991   0.000000 )
               a(3) = (  -0.293787  -0.455495   0.840365 )

     reciprocal axes: (cart. coord. in units 2 pi/alat)
               b(1) = (  1.000000  0.452723  0.594980 )
               b(2) = (  0.000000  1.097706  0.594980 )
               b(3) = (  0.000000  0.000000  1.189959 )

     PseudoPot. # 1 for Tb read from file:
     /lustre07/scratch/pragov/crystal_structure_design/utils/SSSP/Tb.paw.z_19.atompaw.wentzcovitch.v1.2.upf
     MD5 check sum: 9e397ff4c8e7fcf344a3e57e25721bc0
     Pseudo is Projector augmented-wave + core cor, Zval = 19.0
     Generated using ATOMPAW code
     Shape of augmentation charge: BESSEL
     Using radial grid of 1111 points,  8 beta functions with:
                l(1) =   0
                l(2) =   0
                l(3) =   1
                l(4) =   1
                l(5) =   2
                l(6) =   2
                l(7) =   3
                l(8) =   3
     Q(r) pseudized with 0 coefficients

     PseudoPot. # 2 for Nb read from file:
     /lustre07/scratch/pragov/crystal_structure_design/utils/SSSP/Nb.pbe-spn-kjpaw_psl.0.3.0.UPF
     MD5 check sum: 411d72ad547312f8017e2943ceca08cc
     Pseudo is Projector augmented-wave + core cor, Zval = 13.0
     Generated using "atomic" code by A. Dal Corso  v.5.0.99 svn rev. 10869
     Shape of augmentation charge: PSQ
     Using radial grid of 1227 points,  6 beta functions with:
                l(1) =   0
                l(2) =   0
                l(3) =   1
                l(4) =   1
                l(5) =   2
                l(6) =   2
     Q(r) pseudized with 0 coefficients

     PseudoPot. # 3 for O  read from file:
     /lustre07/scratch/pragov/crystal_structure_design/utils/SSSP/O.pbe-n-kjpaw_psl.0.1.UPF
     MD5 check sum: 0234752ac141de4415c5fc33072bef88
     Pseudo is Projector augmented-wave + core cor, Zval =  6.0
     Generated using "atomic" code by A. Dal Corso  v.5.0.99 svn rev. 10869
     Shape of augmentation charge: BESSEL
     Using radial grid of 1095 points,  4 beta functions with:
                l(1) =   0
                l(2) =   0
                l(3) =   1
                l(4) =   1
     Q(r) pseudized with 0 coefficients

     atomic species   valence    mass     pseudopotential
        Tb            19.00   158.92535     Tb( 1.00)
        Nb            13.00    92.90637     Nb( 1.00)
        O              6.00    15.99900     O ( 1.00)

      4 Sym. Ops., with inversion, found ( 2 have fractional translation)

                                    s                        frac. trans.

      isym =  1     identity

 cryst.   s( 1) = (     1          0          0      )
                  (     0          1          0      )
                  (     0          0          1      )

 cart.    s( 1) = (  1.0000000  0.0000000  0.0000000 )
                  (  0.0000000  1.0000000  0.0000000 )
                  (  0.0000000  0.0000000  1.0000000 )

      isym =  2     180 deg rotation - cart. axis [0,0,1]

 cryst.   s( 2) = (    -1          0          0      )
                  (     0         -1          0      )
                  (     1          1          1      )

 cart.    s( 2) = ( -1.0000000  0.0000000  0.0000000 )
                  (  0.0000000 -1.0000000  0.0000000 )
                  (  0.0000000  0.0000000  1.0000000 )

      isym =  3     inversion

 cryst.   s( 3) = (    -1          0          0      )    f =( -0.2500000 )
                  (     0         -1          0      )       (  0.2500000 )
                  (     0          0         -1      )       (  0.5000000 )

 cart.    s( 3) = ( -1.0000000  0.0000000  0.0000000 )    f =( -0.5000000 )
                  (  0.0000000 -1.0000000  0.0000000 )       (  0.0000000 )
                  (  0.0000000  0.0000000 -1.0000000 )       (  0.4201825 )

      isym =  4     inv. 180 deg rotation - cart. axis [0,0,1]

 cryst.   s( 4) = (     1          0          0      )    f =( -0.2500000 )
                  (     0          1          0      )       (  0.2500000 )
                  (    -1         -1         -1      )       (  0.5000000 )

 cart.    s( 4) = (  1.0000000  0.0000000 -0.0000000 )    f =( -0.5000000 )
                  (  0.0000000  1.0000000 -0.0000000 )       (  0.0000000 )
                  (  0.0000000  0.0000000 -1.0000000 )       (  0.4201825 )

   Cartesian axes

     site n.     atom                  positions (alat units)
         1           Tb  tau(   1) = (   0.0000000   0.0000000   0.0000000  )
         2           Tb  tau(   2) = (  -0.2062132   0.4554955   0.4201825  )
         3           Nb  tau(   3) = (   0.2937868   0.4554955   0.0000000  )
         4           Nb  tau(   4) = (   0.5000000   0.0000000   0.4201825  )
         5           O   tau(   5) = (   0.0509304   0.3755765   0.1607694  )
         6           O   tau(   6) = (   0.5366428   0.5354153   0.1607694  )
         7           O   tau(   7) = (   0.2571440  -0.0799199   0.2594131  )
         8           O   tau(   8) = (  -0.0273549   0.2542006   0.6795955  )
         9           O   tau(   9) = (   0.0273539  -0.2542006   0.6795955  )
        10           O   tau(  10) = (   0.7428564   0.0799190   0.2594131  )
        11           O   tau(  11) = (   0.4726461   0.2542006   0.5809518  )
        12           O   tau(  12) = (   0.5273549  -0.2542006   0.5809518  )

   Crystallographic axes

     site n.     atom                  positions (cryst. coord.)
         1           Tb  tau(   1) = (  0.0000000  0.0000000  0.0000000  )
         2           Tb  tau(   2) = (  0.2500000  0.7500000  0.5000000  )
         3           Nb  tau(   3) = (  0.5000000  0.5000000  0.0000000  )
         4           Nb  tau(   4) = (  0.7500000  0.2500000  0.5000000  )
         5           O   tau(   5) = (  0.3166170  0.5079270  0.1913090  )
         6           O   tau(   6) = (  0.8746920  0.6833830  0.1913090  )
         7           O   tau(   7) = (  0.3753080  0.0666170  0.3086910  )
         8           O   tau(   8) = (  0.4920730  0.6833830  0.8086910  )
         9           O   tau(   9) = (  0.3166170  0.1253080  0.8086910  )
        10           O   tau(  10) = (  0.9333830  0.2420730  0.3086910  )
        11           O   tau(  11) = (  0.9333830  0.6246920  0.6913090  )
        12           O   tau(  12) = (  0.7579270  0.0666170  0.6913090  )

     number of k points=    10
                       cart. coord. in units 2pi/alat
        k(    1) = (   0.0000000   0.0000000   0.0000000), wk =   0.0740741
        k(    2) = (   0.0000000   0.0000000   0.3966531), wk =   0.1481481
        k(    3) = (   0.0000000   0.3659019   0.1983265), wk =   0.2962963
        k(    4) = (   0.0000000   0.3659019   0.5949796), wk =   0.1481481
        k(    5) = (   0.3333333   0.1509076   0.1983265), wk =   0.2962963
        k(    6) = (   0.3333333   0.1509076   0.5949796), wk =   0.1481481
        k(    7) = (   0.3333333   0.5168095   0.3966531), wk =   0.2962963
        k(    8) = (   0.3333333   0.5168095  -0.0000000), wk =   0.1481481
        k(    9) = (   0.3333333  -0.2149943   0.0000000), wk =   0.1481481
        k(   10) = (   0.3333333  -0.2149943   0.3966531), wk =   0.2962963

                       cryst. coord.
        k(    1) = (   0.0000000   0.0000000   0.0000000), wk =   0.0740741
        k(    2) = (   0.0000000   0.0000000   0.3333333), wk =   0.1481481
        k(    3) = (   0.0000000   0.3333333   0.0000000), wk =   0.2962963
        k(    4) = (   0.0000000   0.3333333   0.3333333), wk =   0.1481481
        k(    5) = (   0.3333333  -0.0000000   0.0000000), wk =   0.2962963
        k(    6) = (   0.3333333  -0.0000000   0.3333333), wk =   0.1481481
        k(    7) = (   0.3333333   0.3333333   0.0000000), wk =   0.2962963
        k(    8) = (   0.3333333   0.3333333  -0.3333333), wk =   0.1481481
        k(    9) = (   0.3333333  -0.3333333   0.0000000), wk =   0.1481481
        k(   10) = (   0.3333333  -0.3333333   0.3333333), wk =   0.2962963

     Check: negative core charge=   -0.000016

     Initial potential from superposition of free atoms

     starting charge     111.9869, renormalised to     112.0000
     Starting wfcs are  116 randomized atomic wfcs
     Checking if some PAW data can be deallocated...

     Self-consistent Calculation

     iteration #  1     ecut=    30.00 Ry     beta= 0.70
     Davidson diagonalization with overlap

     ethr =  1.00E-02,  avg # of iterations =  2.0

     total energy              =   -2455.39665573 Ry
     estimated scf accuracy    <       6.08955054 Ry

[...]

     total energy              =   -2459.51276344 Ry
     estimated scf accuracy    <       0.00000375 Ry

     iteration # 41     ecut=    30.00 Ry     beta= 0.70
     Davidson diagonalization with overlap

     ethr =  3.35E-09,  avg # of iterations =  1.3

     End of self-consistent calculation

          k = 0.0000 0.0000 0.0000 (  3419 PWs)   bands (ev):

   -46.7004 -46.6985 -34.7015 -34.6891 -23.1456 -23.1448 -22.9823 -22.9781
   -22.9664 -22.9621 -12.1589 -12.1563 -11.8895 -11.7458 -11.7415 -11.7383
    -9.4065  -8.8574  -8.4416  -8.4208  -8.4200  -8.0834  -8.0516  -8.0504
     3.2328   3.8011   3.8848   3.9077   4.1306   4.1392   4.5915   4.7394
     4.7466   4.8529   4.8534   5.1996   5.2480   5.6533   5.6620   5.7696
     6.0598   6.0717   6.5868   6.6097   6.6213   6.8784   6.9032   6.9786
     8.0644   8.0822   8.0956   8.1585   8.1698   8.2008   8.2249   8.2315
     8.4153   8.4599   8.5208   8.5591   8.5618   8.6071  11.1348  11.4422

     occupation numbers
     1.0000   1.0000   1.0000   1.0000   1.0000   1.0000   1.0000   1.0000
     1.0000   1.0000   1.0000   1.0000   1.0000   1.0000   1.0000   1.0000
     1.0000   1.0000   1.0000   1.0000   1.0000   1.0000   1.0000   1.0000
     1.0000   1.0000   1.0000   1.0000   1.0000   1.0000   1.0000   1.0000
     1.0000   1.0000   1.0000   1.0000   1.0000   1.0000   1.0000   1.0000
     1.0000   1.0000   1.0000   1.0000   1.0000   1.0000   1.0000   1.0000
     1.0000   1.0000   1.0000   1.0000   1.0000   1.0000   1.0000   1.0000
     0.0000   0.0000   0.0000   0.0000   0.0000   0.0000   0.0000   0.0000

[...]

          k = 0.3333-0.2150 0.3967 (  3416 PWs)   bands (ev):

   -46.6997 -46.6992 -34.6968 -34.6938 -23.1455 -23.1453 -22.9825 -22.9783
   -22.9661 -22.9624 -12.1700 -12.1178 -11.9485 -11.7655 -11.7381 -11.7268
    -9.0942  -8.8980  -8.6195  -8.5418  -8.4051  -8.0682  -8.0596  -8.0175
     3.5900   3.7184   3.8259   3.9407   3.9730   4.1027   4.5585   4.7579
     4.8379   4.8771   4.9984   5.3363   5.4423   5.6626   5.8029   5.9524
     6.0451   6.1279   6.1403   6.3291   6.3534   6.5459   6.5553   6.8113
     8.0671   8.0769   8.1032   8.1241   8.1776   8.1887   8.2719   8.2867
     8.4236   8.4324   8.5613   8.5661   8.6384   8.6455  11.8572  11.8684

     occupation numbers
     1.0000   1.0000   1.0000   1.0000   1.0000   1.0000   1.0000   1.0000
     1.0000   1.0000   1.0000   1.0000   1.0000   1.0000   1.0000   1.0000
     1.0000   1.0000   1.0000   1.0000   1.0000   1.0000   1.0000   1.0000
     1.0000   1.0000   1.0000   1.0000   1.0000   1.0000   1.0000   1.0000
     1.0000   1.0000   1.0000   1.0000   1.0000   1.0000   1.0000   1.0000
     1.0000   1.0000   1.0000   1.0000   1.0000   1.0000   1.0000   1.0000
     1.0000   1.0000   1.0000   1.0000   1.0000   1.0000   1.0000   1.0000
     0.0000   0.0000   0.0000   0.0000   0.0000   0.0000   0.0000   0.0000

     highest occupied, lowest unoccupied level (ev):     8.3113    8.4085

!    total energy              =   -2459.51276723 Ry
     total all-electron energy =    -17941.701859 Ry
     estimated scf accuracy    <       0.00000090 Ry

     The total energy is the sum of the following terms:
     one-electron contribution =    -474.93741346 Ry
     hartree contribution      =     301.45989157 Ry
     xc contribution           =    -167.33169891 Ry
     ewald contribution        =    -677.09343814 Ry
     one-center paw contrib.   =   -1441.61010829 Ry
      -> PAW hartree energy AE =     426.73618615 Ry
      -> PAW hartree energy PS =    -401.52664834 Ry
      -> PAW xc energy AE      =   -1021.11586686 Ry
      -> PAW xc energy PS      =      47.48627969 Ry
      -> total E_H with PAW    =     326.66942938 Ry
      -> total E_XC with PAW   =   -1140.96128608 Ry

     convergence has been achieved in  41 iterations

     Writing all to output data dir bands_nm/myprefix.save/

     General routines

     Parallel routines

     PAW routines

   This run was terminated on:  19:12:29  14Jul2023

   JOB DONE.