     Program PWSCF v.7.1 starts on 15Jul2023 at 14:25: 9

     Reading input from espresso_22654.pwi
Warning: card &CELL ignored
Warning: card / ignored

     Current dimensions of program PWSCF are:
     Max number of different atomic species (ntypx) = 10
     Max number of k-points (npk) =  40000
     Max angular momentum in pseudopotentials (lmaxx) =  4
     file Eu.paw.z_17.atompaw.wentzcovitch.v1.2.upf: wavefunction(s)  6S 0P 5D 0D 4F 0F renormalized
     file Nb.pbe-spn-kjpaw_psl.0.3.0.UPF: wavefunction(s)  4S 4P renormalized
     file Ga.pbe-dn-kjpaw_psl.1.0.0.UPF: wavefunction(s)  4S renormalized
     file O.pbe-n-kjpaw_psl.0.1.UPF: wavefunction(s)  2P renormalized
     Message from routine setup:
     the system is metallic, specify occupations
     Message from routine setup:
     using ibrav=0 with symmetry is DISCOURAGED, use correct ibrav instead

     K-points division:     npool     =       2
     R & G space division:  proc/nbgrp/npool/nimage =       4
     Subspace diagonalization in iterative solution of the eigenvalue problem:
     a serial algorithm will be used

     Using Slab Decomposition

     bravais-lattice index     =            0
     lattice parameter (alat)  =      10.6786  a.u.
     unit-cell volume          =     861.0603 (a.u.)^3
     number of atoms/cell      =           10
     number of atomic types    =            5
     number of electrons       =        89.00 (up:  48.00, down:  41.00)
     number of Kohn-Sham states=           64
     kinetic-energy cutoff     =      30.0000  Ry
     charge density cutoff     =     240.0000  Ry
     scf convergence threshold =      1.0E-06
     mixing beta               =       0.7000
     number of iterations used =            8  plain     mixing
     Exchange-correlation= SLA  PW   PBX  PBC
                           (   1   4   3   4   0   0   0)

     celldm(1)=  10.678646  celldm(2)=   0.000000  celldm(3)=   0.000000
     celldm(4)=   0.000000  celldm(5)=   0.000000  celldm(6)=   0.000000

     crystal axes: (cart. coord. in units of alat)
               a(1) = (   1.000000   0.000000   0.000000 )
               a(2) = (   0.500000   0.866025   0.000000 )
               a(3) = (   0.500000   0.288675   0.816497 )

     reciprocal axes: (cart. coord. in units 2 pi/alat)
               b(1) = (  1.000000 -0.577350 -0.408248 )
               b(2) = (  0.000000  1.154701 -0.408248 )
               b(3) = (  0.000000  0.000000  1.224745 )

     PseudoPot. # 1 for Sr read from file:
     /lustre07/scratch/pragov/crystal_structure_design/utils/SSSP/Sr_pbe_v1.uspp.F.UPF
     MD5 check sum: 6b418c05fbe9db5448babca5e47b7a5b
     Pseudo is Ultrasoft + core correction, Zval = 10.0
     Generated by new atomic code, or converted to UPF format
     Using radial grid of  883 points,  6 beta functions with:
                l(1) =   0
                l(2) =   0
                l(3) =   1
                l(4) =   1
                l(5) =   2
                l(6) =   2
     Q(r) pseudized with  6 coefficients,  rinner =    1.400   1.400   1.400
                                                       1.400   1.400

     PseudoPot. # 2 for Eu read from file:
     /lustre07/scratch/pragov/crystal_structure_design/utils/SSSP/Eu.paw.z_17.atompaw.wentzcovitch.v1.2.upf
     MD5 check sum: 52b6e423bc4e840b6e0dc4248fa51623
     Pseudo is Projector augmented-wave + core cor, Zval = 17.0
     Generated using ATOMPAW code
     Shape of augmentation charge: BESSEL
     Using radial grid of 1109 points,  8 beta functions with:
                l(1) =   0
                l(2) =   0
                l(3) =   1
                l(4) =   1
                l(5) =   2
                l(6) =   2
                l(7) =   3
                l(8) =   3
     Q(r) pseudized with 0 coefficients

     PseudoPot. # 3 for Nb read from file:
     /lustre07/scratch/pragov/crystal_structure_design/utils/SSSP/Nb.pbe-spn-kjpaw_psl.0.3.0.UPF
     MD5 check sum: 411d72ad547312f8017e2943ceca08cc
     Pseudo is Projector augmented-wave + core cor, Zval = 13.0
     Generated using "atomic" code by A. Dal Corso  v.5.0.99 svn rev. 10869
     Shape of augmentation charge: PSQ
     Using radial grid of 1227 points,  6 beta functions with:
                l(1) =   0
                l(2) =   0
                l(3) =   1
                l(4) =   1
                l(5) =   2
                l(6) =   2
     Q(r) pseudized with 0 coefficients

     PseudoPot. # 4 for Ga read from file:
     /lustre07/scratch/pragov/crystal_structure_design/utils/SSSP/Ga.pbe-dn-kjpaw_psl.1.0.0.UPF
     MD5 check sum: a27b4342b1af7e5f338de752e9ed7044
     Pseudo is Projector augmented-wave + core cor, Zval = 13.0
     Generated using "atomic" code by A. Dal Corso  v.5.1
     Shape of augmentation charge: PSQ
     Using radial grid of 1205 points,  6 beta functions with:
                l(1) =   0
                l(2) =   0
                l(3) =   1
                l(4) =   1
                l(5) =   2
                l(6) =   2
     Q(r) pseudized with 0 coefficients

     PseudoPot. # 5 for O  read from file:
     /lustre07/scratch/pragov/crystal_structure_design/utils/SSSP/O.pbe-n-kjpaw_psl.0.1.UPF
     MD5 check sum: 0234752ac141de4415c5fc33072bef88
     Pseudo is Projector augmented-wave + core cor, Zval =  6.0
     Generated using "atomic" code by A. Dal Corso  v.5.0.99 svn rev. 10869
     Shape of augmentation charge: BESSEL
     Using radial grid of 1095 points,  4 beta functions with:
                l(1) =   0
                l(2) =   0
                l(3) =   1
                l(4) =   1
     Q(r) pseudized with 0 coefficients

     atomic species   valence    mass     pseudopotential
        Sr            10.00    87.62000     Sr( 1.00)
        Eu            17.00   151.96400     Eu( 1.00)
        Nb            13.00    92.90637     Nb( 1.00)
        Ga            13.00    69.72300     Ga( 1.00)
        O              6.00    15.99900     O ( 1.00)

     Starting magnetic structure
     atomic species   magnetization
        Sr           0.000
        Eu           0.000
        Nb           0.000
        Ga           0.000
        O            0.000

      6 Sym. Ops. (no inversion) found

                                    s                        frac. trans.

      isym =  1     identity

 cryst.   s( 1) = (     1          0          0      )
                  (     0          1          0      )
                  (     0          0          1      )

 cart.    s( 1) = (  1.0000000  0.0000000  0.0000000 )
                  (  0.0000000  1.0000000  0.0000000 )
                  (  0.0000000  0.0000000  1.0000000 )

      isym =  2     120 deg rotation - cryst. axis [0,0,1]

[...]

      isym =  3     120 deg rotation - cryst. axis [0,0,-1]

[...]

      isym =  4     inv. 180 deg rotation - cart. axis [1,0,0]

[...]

      isym =  5     inv. 180 deg rotation - cryst. axis [0,1,0]

[...]

      isym =  6     inv. 180 deg rotation - cryst. axis [1,1,0]

 cryst.   s( 6) = (     1         -1          0      )
                  (     0         -1          0      )
                  (     0         -1          1      )

 cart.    s( 6) = (  0.5000000 -0.8660254  0.0000000 )
                  ( -0.8660254 -0.5000000 -0.0000000 )
                  (  0.0000000  0.0000000  1.0000000 )

   Cartesian axes

     site n.     atom                  positions (alat units)
         1           Sr  tau(   1) = (   0.5000000   0.2886751   0.2041241  )
         2           Eu  tau(   2) = (   1.5000000   0.8660254   0.6123724  )
         3           Nb  tau(   3) = (   1.0000000   0.5773503   0.4082483  )
         4           Ga  tau(   4) = (   0.0000000   0.0000000   0.0000000  )
         5           O   tau(   5) = (   1.0000000   0.2870960   0.2030075  )
         6           O   tau(   6) = (   1.0000000   0.8676045   0.6134891  )
         7           O   tau(   7) = (   1.2513676   0.4322231   0.6134891  )
         8           O   tau(   8) = (   0.7486324   0.7224774   0.2030075  )
         9           O   tau(   9) = (   1.2513676   0.7224774   0.2030075  )
        10           O   tau(  10) = (   0.7486324   0.4322231   0.6134891  )

   Crystallographic axes

     site n.     atom                  positions (cryst. coord.)
         1           Sr  tau(   1) = (  0.2500000  0.2500000  0.2500000  )
         2           Eu  tau(   2) = (  0.7500000  0.7500000  0.7500000  )
         3           Nb  tau(   3) = (  0.5000000  0.5000000  0.5000000  )
         4           Ga  tau(   4) = (  0.0000000  0.0000000  0.0000000  )
         5           O   tau(   5) = (  0.7513676  0.2486324  0.2486324  )
         6           O   tau(   6) = (  0.2486324  0.7513676  0.7513676  )
         7           O   tau(   7) = (  0.7513676  0.2486324  0.7513676  )
         8           O   tau(   8) = (  0.2486324  0.7513676  0.2486324  )
         9           O   tau(   9) = (  0.7513676  0.7513676  0.2486324  )
        10           O   tau(  10) = (  0.2486324  0.2486324  0.7513676  )

     number of k points=     6
                       cart. coord. in units 2pi/alat
        k(    1) = (   0.0000000   0.0000000   0.0000000), wk =   0.0370370
        k(    2) = (   0.0000000   0.0000000   0.4082483), wk =   0.0740741
        k(    3) = (   0.0000000   0.3849002  -0.1360828), wk =   0.2222222
        k(    4) = (   0.0000000   0.3849002   0.2721655), wk =   0.2222222
        k(    5) = (   0.0000000   0.3849002  -0.5443311), wk =   0.2222222
        k(    6) = (   0.3333333  -0.5773503   0.0000000), wk =   0.2222222

                       cryst. coord.
        k(    1) = (   0.0000000   0.0000000   0.0000000), wk =   0.0370370
        k(    2) = (   0.0000000   0.0000000   0.3333333), wk =   0.0740741
        k(    3) = (   0.0000000   0.3333333   0.0000000), wk =   0.2222222
        k(    4) = (   0.0000000   0.3333333   0.3333333), wk =   0.2222222
        k(    5) = (   0.0000000   0.3333333  -0.3333333), wk =   0.2222222
        k(    6) = (   0.3333333  -0.3333333  -0.0000000), wk =   0.2222222

     Check: negative core charge=   -0.000015
     Generating pointlists ...
     new r_m :   0.2063 (alat units)  2.2025 (a.u.) for type    1
     new r_m :   0.2063 (alat units)  2.2025 (a.u.) for type    2
     new r_m :   0.1466 (alat units)  1.5659 (a.u.) for type    3
     new r_m :   0.1450 (alat units)  1.5489 (a.u.) for type    4
     new r_m :   0.1450 (alat units)  1.5489 (a.u.) for type    5

     Initial potential from superposition of free atoms

     starting charge      88.9565, renormalised to      89.0000

     negative rho (up, down):  3.112E-02 3.112E-02
     Starting wfcs are   88 randomized atomic wfcs
     Checking if some PAW data can be deallocated...

     Self-consistent Calculation

     iteration #  1     ecut=    30.00 Ry     beta= 0.70
     Davidson diagonalization with overlap

     ethr =  1.00E-02,  avg # of iterations =  2.0

     negative rho (up, down):  3.164E-02 3.164E-02

     total energy              =   -1573.49781373 Ry
     estimated scf accuracy    <       4.64009279 Ry

     total magnetization       =     7.00 Bohr mag/cell
     absolute magnetization    =     7.04 Bohr mag/cell

[...]

     total energy              =   -1575.43694821 Ry
     estimated scf accuracy    <       0.00000691 Ry

[...]

     iteration # 16     ecut=    30.00 Ry     beta= 0.70
     Davidson diagonalization with overlap

     ethr =  7.77E-09,  avg # of iterations =  1.7

     negative rho (up, down):  3.269E-02 3.270E-02

     Magnetic moment per site  (integrated on atomic sphere of radius R)
     atom   1 (R=0.206)  charge=  7.6761  magn=  0.0033
     atom   2 (R=0.206)  charge= 14.3107  magn=  6.6934
     atom   3 (R=0.147)  charge=  8.1021  magn=  0.0737
     atom   4 (R=0.145)  charge= 10.0490  magn=  0.0006
     atom   5 (R=0.145)  charge=  5.4738  magn= -0.0058
     atom   6 (R=0.145)  charge=  5.4738  magn= -0.0058
     atom   7 (R=0.145)  charge=  5.4738  magn= -0.0058
     atom   8 (R=0.145)  charge=  5.4738  magn= -0.0058
     atom   9 (R=0.145)  charge=  5.4738  magn= -0.0058
     atom  10 (R=0.145)  charge=  5.4738  magn= -0.0058

     End of self-consistent calculation

 ------ SPIN UP ------------

          k = 0.0000 0.0000 0.0000 (  2421 PWs)   bands (ev):

   -44.3003 -28.3826 -22.4870 -20.4804 -20.4804 -20.4804  -7.3388  -7.2482
    -7.2482  -7.2482  -6.3515  -6.3515  -5.9311  -5.9311  -5.9311  -4.5940
    -4.5940  -4.5940  -2.7719  -2.7719  -2.7719  -2.5646  -2.5646   3.7891
     6.8803   6.8803   6.8803   6.9424   6.9424   6.9424   7.4872   7.4872
     9.1870   9.1870   9.1870   9.7208   9.7208   9.7208  10.3213  10.3213
    10.3213  13.2720  13.2720  13.2720  13.3030  13.4044  13.4044  13.4044
    13.6844  13.6844  13.6844  15.0475  15.0475  15.0938  16.2320  16.2320
    16.2320  17.6009  18.2075  18.2075  18.2075  19.1354  19.1468  19.5321

     occupation numbers
     1.0000   1.0000   1.0000   1.0000   1.0000   1.0000   1.0000   1.0000
     1.0000   1.0000   1.0000   1.0000   1.0000   1.0000   1.0000   1.0000
     1.0000   1.0000   1.0000   1.0000   1.0000   1.0000   1.0000   1.0000
     1.0000   1.0000   1.0000   1.0000   1.0000   1.0000   1.0000   1.0000
     1.0000   1.0000   1.0000   1.0000   1.0000   1.0000   1.0000   1.0000
     1.0000   1.0000   1.0000   1.0000   1.0000   1.0000   1.0000   1.0000
     0.0000   0.0000   0.0000   0.0000   0.0000   0.0000   0.0000   0.0000
     0.0000   0.0000   0.0000   0.0000   0.0000   0.0000   0.0000   0.0000

[...]

 ------ SPIN DOWN ----------

[...]

          k = 0.3333-0.5774 0.0000 (  2381 PWs)   bands (ev):

   -44.2098 -25.3422 -22.4849 -20.3804 -20.3796 -20.3781  -7.2505  -6.9779
    -6.5121  -6.1859  -6.1230  -6.1057  -4.8160  -4.7215  -4.5973  -4.3667
    -4.2767  -4.2507  -2.7790  -2.7787  -2.7727  -2.5312  -2.4457   4.1159
     5.9093   6.0800   6.6558   6.8225   7.2665   7.6140   8.1217   8.5051
     8.5186   8.6452   8.6558   8.7445   8.9423   9.4377   9.5177   9.8369
     9.9260  14.0559  14.4310  14.5140  15.7621  17.4374  17.6252  17.6768
    17.8627  17.8823  17.9038  17.9314  17.9627  18.0452  18.1136  18.1159
    18.1608  18.6711  18.7947  18.8736  18.9752  19.0759  19.2755  19.6541

     occupation numbers
     1.0000   1.0000   1.0000   1.0000   1.0000   1.0000   1.0000   1.0000
     1.0000   1.0000   1.0000   1.0000   1.0000   1.0000   1.0000   1.0000
     1.0000   1.0000   1.0000   1.0000   1.0000   1.0000   1.0000   1.0000
     1.0000   1.0000   1.0000   1.0000   1.0000   1.0000   1.0000   1.0000
     1.0000   1.0000   1.0000   1.0000   1.0000   1.0000   1.0000   1.0000
     1.0000   0.0000   0.0000   0.0000   0.0000   0.0000   0.0000   0.0000
     0.0000   0.0000   0.0000   0.0000   0.0000   0.0000   0.0000   0.0000
     0.0000   0.0000   0.0000   0.0000   0.0000   0.0000   0.0000   0.0000

     highest occupied, lowest unoccupied level (ev):    13.4049   13.6844

!    total energy              =   -1575.43694875 Ry
     estimated scf accuracy    <       0.00000067 Ry

     The total energy is the sum of the following terms:
     one-electron contribution =    -229.44226031 Ry
     hartree contribution      =     184.70136755 Ry
     xc contribution           =    -151.72363839 Ry
     ewald contribution        =    -545.53453855 Ry
     one-center paw contrib.   =    -833.43787904 Ry
      -> PAW hartree energy AE =     159.42376061 Ry
      -> PAW hartree energy PS =    -152.31929445 Ry
      -> PAW xc energy AE      =    -484.23799927 Ry
      -> PAW xc energy PS      =      20.35902425 Ry
      -> total E_H with PAW    =     191.80583371 Ry
      -> total E_XC with PAW   =    -615.60261341 Ry

     total magnetization       =     7.00 Bohr mag/cell
     absolute magnetization    =     7.08 Bohr mag/cell

     convergence has been achieved in  16 iterations

     Writing all to output data dir bands_nm/myprefix.save/

     General routines

     Parallel routines

     PAW routines

   This run was terminated on:  14:25:27  15Jul2023

   JOB DONE.