     Program PWSCF v.7.1 starts on 16Jul2023 at 13:18:14

     Reading input from espresso_17330.pwi
Warning: card &CELL ignored
Warning: card / ignored

     Current dimensions of program PWSCF are:
     Max number of different atomic species (ntypx) = 10
     Max number of k-points (npk) =  40000
     Max angular momentum in pseudopotentials (lmaxx) =  4

     K-points division:     npool     =       2
     R & G space division:  proc/nbgrp/npool/nimage =       4
     Subspace diagonalization in iterative solution of the eigenvalue problem:
     a serial algorithm will be used

     Using Slab Decomposition

     bravais-lattice index     =            0
     lattice parameter (alat)  =      15.8282  a.u.
     unit-cell volume          =     965.4224 (a.u.)^3
     number of atoms/cell      =            4
     number of atomic types    =            2
     number of electrons       =        60.00
     number of Kohn-Sham states=           64
     kinetic-energy cutoff     =      30.0000  Ry
     charge density cutoff     =     240.0000  Ry
     scf convergence threshold =      1.0E-06
     mixing beta               =       0.7000
     number of iterations used =            8  plain     mixing
     Exchange-correlation=  SLA  PW   PBX  PBC
                           (   1   4   3   4   0   0   0)

     celldm(1)=  15.828245  celldm(2)=   0.000000  celldm(3)=   0.000000
     celldm(4)=   0.000000  celldm(5)=   0.000000  celldm(6)=   0.000000

     crystal axes: (cart. coord. in units of alat)
               a(1) = (   1.000000   0.000000   0.000000 )
               a(2) = (   0.851944   0.523632   0.000000 )
               a(3) = (   0.851945   0.240885   0.464936 )

     reciprocal axes: (cart. coord. in units 2 pi/alat)
               b(1) = (  1.000000 -1.626991 -0.989442 )
               b(2) = (  0.000000  1.909738 -0.989442 )
               b(3) = (  0.000000  0.000000  2.150835 )

     PseudoPot. # 1 for Bi read from file:
     /lustre07/scratch/pragov/crystal_structure_design/utils/SSSP/Bi_pbe_v1.uspp.F.UPF
     MD5 check sum: cceb9f28ec65b6d7ff33140f5b0b1758
     Pseudo is Ultrasoft + core correction, Zval = 15.0
     Generated by new atomic code, or converted to UPF format
     Using radial grid of  899 points,  6 beta functions with:
                l(1) =   0
                l(2) =   0
                l(3) =   1
                l(4) =   1
                l(5) =   2
                l(6) =   2
     Q(r) pseudized with  6 coefficients,  rinner =    1.000   1.000   1.000
                                                       1.000   1.000

     PseudoPot. # 2 for Sb read from file:
     /lustre07/scratch/pragov/crystal_structure_design/utils/SSSP/sb_pbe_v1.4.uspp.F.UPF
     MD5 check sum: 9bc50dfb53373b713f5709b9110fe27f
     Pseudo is Ultrasoft + core correction, Zval = 15.0
     Generated by new atomic code, or converted to UPF format
     Using radial grid of  891 points,  6 beta functions with:
                l(1) =   0
                l(2) =   0
                l(3) =   1
                l(4) =   1
                l(5) =   2
                l(6) =   2
     Q(r) pseudized with  8 coefficients,  rinner =    1.350   1.350   1.350
                                                       1.350   1.350

     atomic species   valence    mass     pseudopotential
        Bi            15.00   208.98040     Bi( 1.00)
        Sb            15.00   121.76000     Sb( 1.00)

     No symmetry found

                                    s                        frac. trans.

      isym =  1     identity

 cryst.   s( 1) = (     1          0          0      )
                  (     0          1          0      )
                  (     0          0          1      )

 cart.    s( 1) = (  1.0000000  0.0000000  0.0000000 )
                  (  0.0000000  1.0000000  0.0000000 )
                  (  0.0000000  0.0000000  1.0000000 )

   Cartesian axes

     site n.     atom                  positions (alat units)
         1           Bi  tau(   1) = (   0.3142676   0.0888583   0.0540385  )
         2           Bi  tau(   2) = (   2.3957241   0.6773842   0.4119464  )
         3           Bi  tau(   3) = (   1.0310983   0.2915402   0.1772981  )
         4           Sb  tau(   4) = (   1.6666880   0.4712513   0.2865882  )

   Crystallographic axes

     site n.     atom                  positions (cryst. coord.)
         1           Bi  tau(   1) = (  0.1162280  0.1162280  0.1162280  )
         2           Bi  tau(   2) = (  0.8860290  0.8860290  0.8860290  )
         3           Bi  tau(   3) = (  0.3813390  0.3813390  0.3813390  )
         4           Sb  tau(   4) = (  0.6164040  0.6164040  0.6164040  )

     number of k points=    14
                       cart. coord. in units 2pi/alat
        k(    1) = (   0.0000000   0.0000000   0.0000000), wk =   0.0740741
        k(    2) = (   0.0000000   0.0000000   0.7169451), wk =   0.1481481
        k(    3) = (   0.0000000   0.6365793  -0.3298141), wk =   0.1481481
        k(    4) = (   0.0000000   0.6365793   0.3871310), wk =   0.1481481
        k(    5) = (   0.0000000   0.6365793  -1.0467593), wk =   0.1481481
        k(    6) = (   0.3333333  -0.5423302  -0.3298141), wk =   0.1481481
        k(    7) = (   0.3333333  -0.5423302   0.3871310), wk =   0.1481481
        k(    8) = (   0.3333333  -0.5423302  -1.0467593), wk =   0.1481481
        k(    9) = (   0.3333333   0.0942491  -0.6596283), wk =   0.1481481
        k(   10) = (   0.3333333   0.0942491   0.0573168), wk =   0.1481481
        k(   11) = (   0.3333333   0.0942491  -1.3765734), wk =   0.1481481
        k(   12) = (   0.3333333  -1.1789095  -0.0000000), wk =   0.1481481
        k(   13) = (   0.3333333  -1.1789095   0.7169451), wk =   0.1481481
        k(   14) = (   0.3333333  -1.1789095  -0.7169451), wk =   0.1481481

                       cryst. coord.
        k(    1) = (   0.0000000   0.0000000   0.0000000), wk =   0.0740741
        k(    2) = (   0.0000000   0.0000000   0.3333333), wk =   0.1481481
        k(    3) = (   0.0000000   0.3333333   0.0000000), wk =   0.1481481
        k(    4) = (   0.0000000   0.3333333   0.3333333), wk =   0.1481481
        k(    5) = (   0.0000000   0.3333333  -0.3333333), wk =   0.1481481
        k(    6) = (   0.3333333   0.0000000   0.0000000), wk =   0.1481481
        k(    7) = (   0.3333333   0.0000000   0.3333333), wk =   0.1481481
        k(    8) = (   0.3333333   0.0000000  -0.3333333), wk =   0.1481481
        k(    9) = (   0.3333333   0.3333333   0.0000000), wk =   0.1481481
        k(   10) = (   0.3333333   0.3333333   0.3333333), wk =   0.1481481
        k(   11) = (   0.3333333   0.3333333  -0.3333333), wk =   0.1481481
        k(   12) = (   0.3333333  -0.3333333  -0.0000000), wk =   0.1481481
        k(   13) = (   0.3333333  -0.3333333   0.3333333), wk =   0.1481481
        k(   14) = (   0.3333333  -0.3333333  -0.3333333), wk =   0.1481481

     Check: negative core charge=   -0.000005

     Initial potential from superposition of free atoms

     starting charge      55.9999, renormalised to      60.0000

     negative rho (up, down):  1.324E-01 0.000E+00
     Starting wfcs are   36 randomized atomic wfcs +   28 random wfcs

     Self-consistent Calculation

     iteration #  1     ecut=    30.00 Ry     beta= 0.70
     Davidson diagonalization with overlap

     ethr =  1.00E-02,  avg # of iterations =  8.1

     negative rho (up, down):  1.192E-01 0.000E+00

     total energy              =    -739.67893637 Ry
     estimated scf accuracy    <       3.20347227 Ry

[...]

     total energy              =    -740.74472948 Ry
     estimated scf accuracy    <       0.00000173 Ry

     iteration #  9     ecut=    30.00 Ry     beta= 0.70
     Davidson diagonalization with overlap

     ethr =  2.89E-09,  avg # of iterations =  3.4

     negative rho (up, down):  1.277E-01 0.000E+00

     End of self-consistent calculation

          k = 0.0000 0.0000 0.0000 (  2697 PWs)   bands (ev):

   -19.8801 -19.8801 -19.8738 -19.8738 -19.8686 -13.7569 -13.7569 -13.6971
   -13.6971 -13.6895 -13.6847 -13.6847 -13.6392 -13.6391 -13.6377 -13.4887
   -13.4740 -13.4740 -13.3906 -13.3906  -3.6149  -2.4226  -0.3544   2.2907
     7.6443   7.8012   7.8012   8.2256   8.4390   8.4390   9.7563   9.7563
     9.9010  11.4213  11.9470  11.9470  14.7421  14.8015  14.8015  15.3191
    15.7276  16.0211  16.7233  16.7233  18.1136  18.1136  18.1962  18.4117
    18.4117  22.5362  22.5362  22.6499  23.1099  24.1791  24.1791  24.4075
    25.5064  26.2003  26.2003  27.0771  27.2871  28.2108  28.2108  28.2940

     occupation numbers
     1.0000   1.0000   1.0000   1.0000   1.0000   1.0000   1.0000   1.0000
     1.0000   1.0000   1.0000   1.0000   1.0000   1.0000   1.0000   1.0000
     1.0000   1.0000   1.0000   1.0000   1.0000   1.0000   1.0000   1.0000
     1.0000   1.0000   1.0000   1.0000   1.0000   1.0000   0.0000   0.0000
     0.0000   0.0000   0.0000   0.0000   0.0000   0.0000   0.0000   0.0000
     0.0000   0.0000   0.0000   0.0000   0.0000   0.0000   0.0000   0.0000
     0.0000   0.0000   0.0000   0.0000   0.0000   0.0000   0.0000   0.0000
     0.0000   0.0000   0.0000   0.0000   0.0000   0.0000   0.0000   0.0000

[...]

          k = 0.3333-1.1789-0.7169 (  2683 PWs)   bands (ev):

   -19.8824 -19.8796 -19.8708 -19.8675 -19.8633 -13.7497 -13.7127 -13.6921
   -13.6912 -13.6890 -13.6845 -13.6752 -13.6444 -13.6092 -13.6058 -13.5114
   -13.5016 -13.4759 -13.4616 -13.3931  -2.5756  -2.1678  -0.3929   0.9267
     5.6892   6.0700   6.5434   6.6788   7.8203   8.3303   9.8259  10.3943
    11.5809  12.3383  12.8032  13.2703  13.9595  15.3024  16.4040  16.6470
    17.0254  17.5520  18.1321  18.4441  18.9703  19.0441  20.7340  21.0662
    21.1200  21.9842  22.0470  22.3860  22.4775  22.9164  23.0599  23.7061
    24.0655  25.1685  25.6146  25.6427  25.9513  26.5800  26.8866  26.9365

     occupation numbers
     1.0000   1.0000   1.0000   1.0000   1.0000   1.0000   1.0000   1.0000
     1.0000   1.0000   1.0000   1.0000   1.0000   1.0000   1.0000   1.0000
     1.0000   1.0000   1.0000   1.0000   1.0000   1.0000   1.0000   1.0000
     1.0000   1.0000   1.0000   1.0000   1.0000   1.0000   0.0000   0.0000
     0.0000   0.0000   0.0000   0.0000   0.0000   0.0000   0.0000   0.0000
     0.0000   0.0000   0.0000   0.0000   0.0000   0.0000   0.0000   0.0000
     0.0000   0.0000   0.0000   0.0000   0.0000   0.0000   0.0000   0.0000
     0.0000   0.0000   0.0000   0.0000   0.0000   0.0000   0.0000   0.0000

     highest occupied, lowest unoccupied level (ev):     8.4390    9.6647

!    total energy              =    -740.74473013 Ry
     estimated scf accuracy    <       0.00000010 Ry

     The total energy is the sum of the following terms:
     one-electron contribution =    -259.19583410 Ry
     hartree contribution      =     163.63767825 Ry
     xc contribution           =    -237.81715779 Ry
     ewald contribution        =    -407.36941649 Ry

     convergence has been achieved in   9 iterations

     Writing all to output data dir bands_nm/myprefix.save/

     General routines

     Parallel routines

   This run was terminated on:  13:18:24  16Jul2023

   JOB DONE.