     Program PWSCF v.7.1 starts on 17Jul2023 at  0:35:56

     Reading input from espresso_16588.pwi
Warning: card &CELL ignored
Warning: card / ignored

     Current dimensions of program PWSCF are:
     Max number of different atomic species (ntypx) = 10
     Max number of k-points (npk) =  40000
     Max angular momentum in pseudopotentials (lmaxx) =  4
     file O.pbe-n-kjpaw_psl.0.1.UPF: wavefunction(s)  2P renormalized
     Message from routine setup:
     using ibrav=0 with symmetry is DISCOURAGED, use correct ibrav instead

     K-points division:     npool     =       2
     R & G space division:  proc/nbgrp/npool/nimage =       4
     Subspace diagonalization in iterative solution of the eigenvalue problem:
     one sub-group per band group will be used

     Using Slab Decomposition

     bravais-lattice index     =            0
     lattice parameter (alat)  =      10.8124  a.u.
     unit-cell volume          =    1808.9825 (a.u.)^3
     number of atoms/cell      =           20
     number of atomic types    =            4
     number of electrons       =       160.00
     number of Kohn-Sham states=          256
     kinetic-energy cutoff     =      30.0000  Ry
     charge density cutoff     =     240.0000  Ry
     scf convergence threshold =      1.0E-06
     mixing beta               =       0.7000
     number of iterations used =            8  plain     mixing
     Exchange-correlation= SLA  PW   PBX  PBC
                           (   1   4   3   4   0   0   0)

     celldm(1)=  10.812408  celldm(2)=   0.000000  celldm(3)=   0.000000
     celldm(4)=   0.000000  celldm(5)=   0.000000  celldm(6)=   0.000000

     crystal axes: (cart. coord. in units of alat)
               a(1) = (   1.000000   0.000000   0.000000 )
               a(2) = (   0.000000   1.001615   0.000000 )
               a(3) = (   0.000000   1.000252   1.428783 )

     reciprocal axes: (cart. coord. in units 2 pi/alat)
               b(1) = (  1.000000  0.000000  0.000000 )
               b(2) = (  0.000000  0.998388 -0.698944 )
               b(3) = (  0.000000  0.000000  0.699896 )

     PseudoPot. # 1 for Sr read from file:
     /lustre07/scratch/pragov/crystal_structure_design/utils/SSSP/Sr_pbe_v1.uspp.F.UPF
     MD5 check sum: 6b418c05fbe9db5448babca5e47b7a5b
     Pseudo is Ultrasoft + core correction, Zval = 10.0
     Generated by new atomic code, or converted to UPF format
     Using radial grid of  883 points,  6 beta functions with:
                l(1) =   0
                l(2) =   0
                l(3) =   1
                l(4) =   1
                l(5) =   2
                l(6) =   2
     Q(r) pseudized with  6 coefficients,  rinner =    1.400   1.400   1.400
                                                       1.400   1.400

     PseudoPot. # 2 for Ta read from file:
     /lustre07/scratch/pragov/crystal_structure_design/utils/SSSP/Ta_pbe_v1.uspp.F.UPF
     MD5 check sum: f8bbe9446314a3b8ea5d9f3e3836c939
     Pseudo is Ultrasoft + core correction, Zval = 13.0
     Generated by new atomic code, or converted to UPF format
     Using radial grid of  921 points,  7 beta functions with:
                l(1) =   0
                l(2) =   0
                l(3) =   1
                l(4) =   1
                l(5) =   2
                l(6) =   2
                l(7) =   3
     Q(r) pseudized with  6 coefficients,  rinner =    1.300   1.300   1.300
                                                       1.300   1.300   1.300
                                                       1.300

     PseudoPot. # 3 for N  read from file:
     /lustre07/scratch/pragov/crystal_structure_design/utils/SSSP/N.pbe-n-radius_5.UPF
     MD5 check sum: 16739722b17309cd8fe442a2ace49922
     Pseudo is Ultrasoft + core correction, Zval =  5.0
     Generated using "atomic" code by A. Dal Corso  v.5.1
     Using radial grid of 1085 points,  4 beta functions with:
                l(1) =   0
                l(2) =   0
                l(3) =   1
                l(4) =   1
     Q(r) pseudized with 0 coefficients

     PseudoPot. # 4 for O  read from file:
     /lustre07/scratch/pragov/crystal_structure_design/utils/SSSP/O.pbe-n-kjpaw_psl.0.1.UPF
     MD5 check sum: 0234752ac141de4415c5fc33072bef88
     Pseudo is Projector augmented-wave + core cor, Zval =  6.0
     Generated using "atomic" code by A. Dal Corso  v.5.0.99 svn rev. 10869
     Shape of augmentation charge: BESSEL
     Using radial grid of 1095 points,  4 beta functions with:
                l(1) =   0
                l(2) =   0
                l(3) =   1
                l(4) =   1
     Q(r) pseudized with 0 coefficients

     atomic species   valence    mass     pseudopotential
        Sr            10.00    87.62000     Sr( 1.00)
        Ta            13.00   180.94788     Ta( 1.00)
        N              5.00    14.00700     N ( 1.00)
        O              6.00    15.99900     O ( 1.00)

      2 Sym. Ops. (no inversion) found ( 1 have fractional translation)

                                    s                        frac. trans.

      isym =  1     identity

 cryst.   s( 1) = (     1          0          0      )
                  (     0          1          0      )
                  (     0          0          1      )

 cart.    s( 1) = (  1.0000000  0.0000000  0.0000000 )
                  (  0.0000000  1.0000000  0.0000000 )
                  (  0.0000000  0.0000000  1.0000000 )

      isym =  2     inv. 180 deg rotation - cart. axis [1,0,0]

 cryst.   s( 2) = (    -1          0          0      )    f =(  0.0000000 )
                  (     0          1          0      )       (  0.0000000 )
                  (     0          0          1      )       (  0.5000000 )

 cart.    s( 2) = ( -1.0000000  0.0000000  0.0000000 )    f =(  0.0000000 )
                  (  0.0000000  1.0000000  0.0000000 )       (  0.5001258 )
                  (  0.0000000  0.0000000  1.0000000 )       (  0.7143914 )

   Cartesian axes

     site n.     atom                  positions (alat units)
         1           Sr  tau(   1) = (   0.2378050   1.0082947   0.3391873  )
         2           Sr  tau(   2) = (   0.7353230   0.5090995   0.3394459  )
         3           Sr  tau(   3) = (   0.7621950   1.5084205   1.0535787  )
         4           Sr  tau(   4) = (   0.2646770   1.0092254   1.0538373  )
         5           Ta  tau(   5) = (   0.7456000   1.0012290   1.4258738  )
         6           Ta  tau(   6) = (   0.7425450   1.0172040   0.6877360  )
         7           Ta  tau(   7) = (   0.2574550   1.5173298   1.4021274  )
         8           Ta  tau(   8) = (   0.2544000   0.5011032   0.7114824  )
         9           N   tau(   9) = (   0.4768380   0.7734308   0.0013973  )
        10           N   tau(  10) = (   0.2415520   1.5359622   1.0480365  )
        11           N   tau(  11) = (   0.5231620   1.2735566   0.7157888  )
        12           N   tau(  12) = (   0.7584480   1.0358364   0.3336451  )
        13           O   tau(  13) = (   0.7522830   0.9540971   1.0437216  )
        14           O   tau(  14) = (   0.4714530   0.7744868   0.6592404  )
        15           O   tau(  15) = (   0.9729600   0.7197170   0.0057580  )
        16           O   tau(  16) = (   0.9704390   0.7150891   0.6590932  )
        17           O   tau(  17) = (   0.2477170   0.4539713   0.3293302  )
        18           O   tau(  18) = (   0.5285470   1.2746126   1.3736318  )
        19           O   tau(  19) = (   0.0295610   1.2152150   1.3734846  )
        20           O   tau(  20) = (   0.0270400   1.2198429   0.7201494  )

   Crystallographic axes

     site n.     atom                  positions (cryst. coord.)
         1           Sr  tau(   1) = (  0.2378050  0.7695960  0.2373960  )
         2           Sr  tau(   2) = (  0.7353230  0.2710250  0.2375770  )
         3           Sr  tau(   3) = (  0.7621950  0.7695960  0.7373960  )
         4           Sr  tau(   4) = (  0.2646770  0.2710250  0.7375770  )
         5           Ta  tau(   5) = (  0.7456000  0.0030090  0.9979640  )
         6           Ta  tau(   6) = (  0.7425450  0.5348750  0.4813440  )
         7           Ta  tau(   7) = (  0.2574550  0.5348750  0.9813440  )
         8           Ta  tau(   8) = (  0.2544000  0.0030090  0.4979640  )
         9           N   tau(   9) = (  0.4768380  0.7712070  0.0009780  )
        10           N   tau(  10) = (  0.2415520  0.8009670  0.7335170  )
        11           N   tau(  11) = (  0.5231620  0.7712070  0.5009780  )
        12           N   tau(  12) = (  0.7584480  0.8009670  0.2335170  )
        13           O   tau(  13) = (  0.7522830  0.2230560  0.7304970  )
        14           O   tau(  14) = (  0.4714530  0.3124660  0.4614000  )
        15           O   tau(  15) = (  0.9729600  0.7145320  0.0040300  )
        16           O   tau(  16) = (  0.9704390  0.2532670  0.4612970  )
        17           O   tau(  17) = (  0.2477170  0.2230560  0.2304970  )
        18           O   tau(  18) = (  0.5285470  0.3124660  0.9614000  )
        19           O   tau(  19) = (  0.0295610  0.2532670  0.9612970  )
        20           O   tau(  20) = (  0.0270400  0.7145320  0.5040300  )

     number of k points=    10
                       cart. coord. in units 2pi/alat
        k(    1) = (   0.0000000   0.0000000   0.0000000), wk =   0.0740741
        k(    2) = (   0.0000000   0.0000000   0.2332988), wk =   0.1481481
        k(    3) = (   0.0000000   0.3327958  -0.2329812), wk =   0.1481481
        k(    4) = (   0.0000000   0.3327958   0.0003176), wk =   0.1481481
        k(    5) = (   0.0000000   0.3327958  -0.4662801), wk =   0.1481481
        k(    6) = (   0.3333333   0.0000000   0.0000000), wk =   0.1481481
        k(    7) = (   0.3333333   0.0000000   0.2332988), wk =   0.2962963
        k(    8) = (   0.3333333   0.3327958  -0.2329812), wk =   0.2962963
        k(    9) = (   0.3333333   0.3327958   0.0003176), wk =   0.2962963
        k(   10) = (   0.3333333   0.3327958  -0.4662801), wk =   0.2962963

                       cryst. coord.
        k(    1) = (   0.0000000   0.0000000   0.0000000), wk =   0.0740741
        k(    2) = (   0.0000000   0.0000000   0.3333333), wk =   0.1481481
        k(    3) = (   0.0000000   0.3333333   0.0000000), wk =   0.1481481
        k(    4) = (   0.0000000   0.3333333   0.3333333), wk =   0.1481481
        k(    5) = (   0.0000000   0.3333333  -0.3333333), wk =   0.1481481
        k(    6) = (   0.3333333   0.0000000   0.0000000), wk =   0.1481481
        k(    7) = (   0.3333333   0.0000000   0.3333333), wk =   0.2962963
        k(    8) = (   0.3333333   0.3333333   0.0000000), wk =   0.2962963
        k(    9) = (   0.3333333   0.3333333   0.3333333), wk =   0.2962963
        k(   10) = (   0.3333333   0.3333333  -0.3333333), wk =   0.2962963

     Check: negative core charge=   -0.000007

     Initial potential from superposition of free atoms

     starting charge     159.8609, renormalised to     160.0000

     negative rho (up, down):  6.249E-01 0.000E+00
     Starting wfcs are  152 randomized atomic wfcs +  104 random wfcs
     Checking if some PAW data can be deallocated...

     Self-consistent Calculation

     iteration #  1     ecut=    30.00 Ry     beta= 0.70
     Davidson diagonalization with overlap

     ethr =  1.00E-02,  avg # of iterations =  6.0

     negative rho (up, down):  6.302E-01 0.000E+00

     total energy              =   -1260.34220018 Ry
     estimated scf accuracy    <       7.20412824 Ry

[...]

     total energy              =   -1263.99315415 Ry
     estimated scf accuracy    <       0.00000113 Ry

     iteration # 11     ecut=    30.00 Ry     beta= 0.70
     Davidson diagonalization with overlap

     ethr =  7.08E-10,  avg # of iterations =  2.0

     negative rho (up, down):  6.450E-01 0.000E+00

     End of self-consistent calculation

          k = 0.0000 0.0000 0.0000 (  4999 PWs)   bands (ev):

   -56.8572 -56.8571 -56.8451 -56.8451 -23.5374 -23.5373 -23.4613 -23.4611
   -23.3798 -23.3795 -23.3718 -23.3566 -23.3275 -23.3257 -23.3098 -23.3051
   -22.4113 -22.3905 -22.3792 -22.3719  -7.5008  -7.3095  -6.5143  -6.4755
    -6.3514  -6.2968  -6.1692  -6.1379  -4.6081  -4.5893  -4.5394  -4.5000
    -4.4381  -4.4170  -4.4032  -4.3911  -4.3592  -4.3419  -4.2933  -4.0475
    -1.4834  -1.3964  -1.0958  -1.0651   4.9047   4.9393   5.6360   5.7664
     5.9002   5.9428   6.1422   6.3523   6.5753   6.5854   7.3907   7.4592
     7.6756   7.6836   7.8503   7.9387   7.9613   7.9959   8.3220   8.3400
     8.8359   9.2419   9.2680   9.3400   9.5147   9.5520   9.5819   9.6203
     9.6967  10.1077  10.1632  10.3174  10.4825  10.4923  10.9479  11.0043
    12.5215  12.6076  12.6303  12.8235  15.2024  15.2352  15.4065  15.6045
    15.6806  15.9238  15.9645  16.1056  16.2254  16.3749  16.5805  16.7335
    16.8633  16.9355  17.1037  17.2778  17.3734  17.7415  18.0102  18.0696
    18.3184  18.5401  18.6291  18.7816  18.8576  18.9547  18.9566  19.3648
    19.3907  19.5195  19.6010  19.7811  19.7966  19.8591  20.0969  20.9928
    21.0741  21.4285  21.5863  22.0153  22.0766  22.2900  22.6172  23.2041
    23.6716  23.7707  23.8337  23.8854  24.2025  24.3434  24.3796  24.8988
    25.1728  25.7046  25.7294  26.1267  26.3941  26.6926  26.8797  27.0587
    27.2018  27.3675  27.7495  27.7711  28.1848  28.2823  28.3089  28.4379
    29.0559  29.4328  29.4824  29.6118  29.6796  30.6410  30.8658  31.0152
    31.2020  31.2363  31.4881  31.6642  31.7845  31.8568  32.1268  32.1953
    32.4477  32.9821  32.9969  33.2422  33.3834  33.6926  33.8670  33.9052
    34.0007  34.0271  34.1629  34.2231  34.5313  34.5393  34.6157  34.7534
    35.3362  35.9147  35.9654  36.1283  36.3322  36.4748  36.5339  36.5918
    36.6909  36.7246  36.9367  37.5081  37.6113  37.7006  37.8756  38.0964
    38.1962  38.2751  38.3804  38.6807  39.1351  39.1364  39.4025  39.4983
    39.6017  39.6825  40.0784  40.2368  40.5191  40.5254  40.6689  40.8860
    40.9752  41.1479  41.4376  41.4909  41.6842  41.7497  41.8559  41.9937
    42.0604  42.0778  42.1497  42.2598  42.2994  42.3101  42.6474  42.8179
    42.8804  42.9964  43.2595  43.6916  43.9389  44.0645  44.1566  44.2699
    44.2704  44.4935  44.5466  44.7520  45.0640  45.1719  45.2195  45.2947
    45.3003  45.5212  45.5630  46.3161  46.3798  46.4817  46.6593  46.8948

     occupation numbers
     1.0000   1.0000   1.0000   1.0000   1.0000   1.0000   1.0000   1.0000
     1.0000   1.0000   1.0000   1.0000   1.0000   1.0000   1.0000   1.0000
     1.0000   1.0000   1.0000   1.0000   1.0000   1.0000   1.0000   1.0000
     1.0000   1.0000   1.0000   1.0000   1.0000   1.0000   1.0000   1.0000
     1.0000   1.0000   1.0000   1.0000   1.0000   1.0000   1.0000   1.0000
     1.0000   1.0000   1.0000   1.0000   1.0000   1.0000   1.0000   1.0000
     1.0000   1.0000   1.0000   1.0000   1.0000   1.0000   1.0000   1.0000
     1.0000   1.0000   1.0000   1.0000   1.0000   1.0000   1.0000   1.0000
     1.0000   1.0000   1.0000   1.0000   1.0000   1.0000   1.0000   1.0000
     1.0000   1.0000   1.0000   1.0000   1.0000   1.0000   1.0000   1.0000
     0.0000   0.0000   0.0000   0.0000   0.0000   0.0000   0.0000   0.0000
     0.0000   0.0000   0.0000   0.0000   0.0000   0.0000   0.0000   0.0000
     0.0000   0.0000   0.0000   0.0000   0.0000   0.0000   0.0000   0.0000
     0.0000   0.0000   0.0000   0.0000   0.0000   0.0000   0.0000   0.0000
     0.0000   0.0000   0.0000   0.0000   0.0000   0.0000   0.0000   0.0000
     0.0000   0.0000   0.0000   0.0000   0.0000   0.0000   0.0000   0.0000
     0.0000   0.0000   0.0000   0.0000   0.0000   0.0000   0.0000   0.0000
     0.0000   0.0000   0.0000   0.0000   0.0000   0.0000   0.0000   0.0000
     0.0000   0.0000   0.0000   0.0000   0.0000   0.0000   0.0000   0.0000
     0.0000   0.0000   0.0000   0.0000   0.0000   0.0000   0.0000   0.0000
     0.0000   0.0000   0.0000   0.0000   0.0000   0.0000   0.0000   0.0000
     0.0000   0.0000   0.0000   0.0000   0.0000   0.0000   0.0000   0.0000
     0.0000   0.0000   0.0000   0.0000   0.0000   0.0000   0.0000   0.0000
     0.0000   0.0000   0.0000   0.0000   0.0000   0.0000   0.0000   0.0000
     0.0000   0.0000   0.0000   0.0000   0.0000   0.0000   0.0000   0.0000
     0.0000   0.0000   0.0000   0.0000   0.0000   0.0000   0.0000   0.0000
     0.0000   0.0000   0.0000   0.0000   0.0000   0.0000   0.0000   0.0000
     0.0000   0.0000   0.0000   0.0000   0.0000   0.0000   0.0000   0.0000
     0.0000   0.0000   0.0000   0.0000   0.0000   0.0000   0.0000   0.0000
     0.0000   0.0000   0.0000   0.0000   0.0000   0.0000   0.0000   0.0000
     0.0000   0.0000   0.0000   0.0000   0.0000   0.0000   0.0000   0.0000
     0.0000   0.0000   0.0000   0.0000   0.0000   0.0000   0.0000   0.0000

[...]

          k = 0.3333 0.3328-0.4663 (  5024 PWs)   bands (ev):

   -56.8572 -56.8572 -56.8453 -56.8452 -23.5430 -23.5254 -23.4767 -23.4587
   -23.3850 -23.3727 -23.3511 -23.3486 -23.3367 -23.3272 -23.3195 -23.3170
   -22.3930 -22.3913 -22.3798 -22.3796  -7.3586  -7.1410  -6.8193  -6.5452
    -6.4921  -6.3718  -6.2125  -6.1339  -4.7553  -4.6296  -4.5212  -4.4581
    -4.4222  -4.3993  -4.3647  -4.3392  -4.2869  -4.2586  -4.0982  -4.0709
    -1.3507  -1.2409  -1.1172  -1.0823   4.9304   5.5533   5.7955   6.1664
     6.2526   6.4279   6.5985   6.6715   6.8083   6.9177   7.1032   7.2076
     7.2770   7.3859   7.5234   7.6879   7.8877   7.9395   8.1533   8.2353
     8.3123   8.4414   8.6855   8.7340   8.8551   8.9537   9.3119   9.4153
     9.5279   9.5894   9.6780   9.7602   9.8577   9.9602  10.6769  10.7617
    13.5000  13.7720  14.2959  14.5201  14.6987  14.8022  15.2306  15.2983
    15.5383  15.6000  15.7449  16.1233  16.8216  17.2199  17.3652  17.4869
    17.6718  17.8077  17.9654  18.0361  18.1602  18.2649  18.3186  18.4499
    18.4849  18.6794  18.7275  18.8533  19.0070  19.0880  19.2112  19.2895
    19.4093  19.5225  19.5683  19.6717  19.8037  19.8845  20.1034  20.4631
    21.0260  21.1250  21.2549  21.5317  21.6936  22.3393  22.9154  23.1457
    23.1823  23.6128  24.0172  24.1070  24.4440  24.6498  24.7752  24.9643
    25.0568  25.2310  25.3896  25.5810  25.6596  25.9939  26.0825  26.4738
    26.6446  26.7670  26.9840  27.5117  27.6379  28.1077  28.3456  28.5181
    28.8872  29.2222  29.4741  29.6182  29.6872  30.1149  30.2344  30.6614
    30.7648  30.9914  31.1075  31.3453  31.6925  32.0253  32.3117  32.5370
    32.6579  32.7856  32.8897  33.1311  33.1664  33.3629  33.4347  33.5526
    33.6631  33.8025  33.9368  34.1282  34.3126  34.4250  34.4682  34.8130
    35.0092  35.3350  35.4239  35.5358  35.6536  35.8186  35.9864  36.3054
    36.6080  36.7310  37.0673  37.1617  37.6363  37.8134  37.9562  38.2639
    38.4264  38.7714  39.0795  39.1807  39.2503  39.3980  39.5867  39.7577
    40.0121  40.1666  40.2333  40.5189  40.6383  41.0080  41.2701  41.4427
    41.5894  41.9340  41.9970  42.1281  42.3631  42.4672  42.5595  42.7326
    42.8516  42.9138  43.1034  43.3700  43.4378  43.5551  43.5689  43.7330
    43.7778  43.9338  44.1029  44.1394  44.3426  44.5224  44.5716  44.6877
    44.8536  44.9887  45.0380  45.1279  45.2432  45.5466  45.6812  45.7601
    45.8471  46.0062  46.1761  46.2459  46.3880  46.4718  46.5318  46.6754

     occupation numbers
     1.0000   1.0000   1.0000   1.0000   1.0000   1.0000   1.0000   1.0000
     1.0000   1.0000   1.0000   1.0000   1.0000   1.0000   1.0000   1.0000
     1.0000   1.0000   1.0000   1.0000   1.0000   1.0000   1.0000   1.0000
     1.0000   1.0000   1.0000   1.0000   1.0000   1.0000   1.0000   1.0000
     1.0000   1.0000   1.0000   1.0000   1.0000   1.0000   1.0000   1.0000
     1.0000   1.0000   1.0000   1.0000   1.0000   1.0000   1.0000   1.0000
     1.0000   1.0000   1.0000   1.0000   1.0000   1.0000   1.0000   1.0000
     1.0000   1.0000   1.0000   1.0000   1.0000   1.0000   1.0000   1.0000
     1.0000   1.0000   1.0000   1.0000   1.0000   1.0000   1.0000   1.0000
     1.0000   1.0000   1.0000   1.0000   1.0000   1.0000   1.0000   1.0000
     0.0000   0.0000   0.0000   0.0000   0.0000   0.0000   0.0000   0.0000
     0.0000   0.0000   0.0000   0.0000   0.0000   0.0000   0.0000   0.0000
     0.0000   0.0000   0.0000   0.0000   0.0000   0.0000   0.0000   0.0000
     0.0000   0.0000   0.0000   0.0000   0.0000   0.0000   0.0000   0.0000
     0.0000   0.0000   0.0000   0.0000   0.0000   0.0000   0.0000   0.0000
     0.0000   0.0000   0.0000   0.0000   0.0000   0.0000   0.0000   0.0000
     0.0000   0.0000   0.0000   0.0000   0.0000   0.0000   0.0000   0.0000
     0.0000   0.0000   0.0000   0.0000   0.0000   0.0000   0.0000   0.0000
     0.0000   0.0000   0.0000   0.0000   0.0000   0.0000   0.0000   0.0000
     0.0000   0.0000   0.0000   0.0000   0.0000   0.0000   0.0000   0.0000
     0.0000   0.0000   0.0000   0.0000   0.0000   0.0000   0.0000   0.0000
     0.0000   0.0000   0.0000   0.0000   0.0000   0.0000   0.0000   0.0000
     0.0000   0.0000   0.0000   0.0000   0.0000   0.0000   0.0000   0.0000
     0.0000   0.0000   0.0000   0.0000   0.0000   0.0000   0.0000   0.0000
     0.0000   0.0000   0.0000   0.0000   0.0000   0.0000   0.0000   0.0000
     0.0000   0.0000   0.0000   0.0000   0.0000   0.0000   0.0000   0.0000
     0.0000   0.0000   0.0000   0.0000   0.0000   0.0000   0.0000   0.0000
     0.0000   0.0000   0.0000   0.0000   0.0000   0.0000   0.0000   0.0000
     0.0000   0.0000   0.0000   0.0000   0.0000   0.0000   0.0000   0.0000
     0.0000   0.0000   0.0000   0.0000   0.0000   0.0000   0.0000   0.0000
     0.0000   0.0000   0.0000   0.0000   0.0000   0.0000   0.0000   0.0000
     0.0000   0.0000   0.0000   0.0000   0.0000   0.0000   0.0000   0.0000

     highest occupied, lowest unoccupied level (ev):    11.0043   12.5215

!    total energy              =   -1263.99315408 Ry
     estimated scf accuracy    <       0.00000042 Ry

     The total energy is the sum of the following terms:
     one-electron contribution =    -226.91994782 Ry
     hartree contribution      =     199.86712803 Ry
     xc contribution           =    -323.94829652 Ry
     ewald contribution        =    -836.83377113 Ry
     one-center paw contrib.   =     -76.15826664 Ry
      -> PAW hartree energy AE =       0.00000000 Ry
      -> PAW hartree energy PS =       0.00000000 Ry
      -> PAW xc energy AE      =       0.00000000 Ry
      -> PAW xc energy PS      =       0.00000000 Ry
      -> total E_H with PAW    =     199.86712803 Ry
      -> total E_XC with PAW   =    -323.94829652 Ry

     convergence has been achieved in  11 iterations

     Writing all to output data dir bands_nm/myprefix.save/

     General routines

     Parallel routines

     PAW routines

   This run was terminated on:   0:36:52  17Jul2023

   JOB DONE.