     Program PWSCF v.7.1 starts on 12Jul2023 at 19:59:27

     Reading input from espresso_23163.pwi
Warning: card &CELL ignored
Warning: card / ignored

     Current dimensions of program PWSCF are:
     Max number of different atomic species (ntypx) = 10
     Max number of k-points (npk) =  40000
     Max angular momentum in pseudopotentials (lmaxx) =  4
     file Ba.pbe-spn-kjpaw_psl.1.0.0.UPF: wavefunction(s)  5S 6S renormalized
     Message from routine setup:
     using ibrav=0 with symmetry is DISCOURAGED, use correct ibrav instead

     K-points division:     npool     =       2
     R & G space division:  proc/nbgrp/npool/nimage =       8
     Subspace diagonalization in iterative solution of the eigenvalue problem:
     a serial algorithm will be used

     Using Slab Decomposition

     bravais-lattice index     =            0
     lattice parameter (alat)  =      15.0512  a.u.
     unit-cell volume          =    2831.6639 (a.u.)^3
     number of atoms/cell      =           12
     number of atomic types    =            4
     number of electrons       =       116.00
     number of Kohn-Sham states=           64
     kinetic-energy cutoff     =      30.0000  Ry
     charge density cutoff     =     240.0000  Ry
     scf convergence threshold =      1.0E-06
     mixing beta               =       0.7000
     number of iterations used =            8  plain     mixing
     Exchange-correlation= SLA  PW   PBE  PBE
                           (   1   4   3   4   0   0   0)

     celldm(1)=  15.051237  celldm(2)=   0.000000  celldm(3)=   0.000000
     celldm(4)=   0.000000  celldm(5)=   0.000000  celldm(6)=   0.000000

     crystal axes: (cart. coord. in units of alat)
               a(1) = (   1.000000   0.000000   0.000000 )
               a(2) = (  -0.830927   0.556382   0.000000 )
               a(3) = (   0.000000   0.000000   1.492630 )

     reciprocal axes: (cart. coord. in units 2 pi/alat)
               b(1) = (  1.000000  1.493446  0.000000 )
               b(2) = (  0.000000  1.797326  0.000000 )
               b(3) = (  0.000000  0.000000  0.669959 )

     PseudoPot. # 1 for Ba read from file:
     /lustre07/scratch/pragov/crystal_structure_design/utils/SSSP/Ba.pbe-spn-kjpaw_psl.1.0.0.UPF
     MD5 check sum: c432291d3e53af55f19d5e8866385beb
     Pseudo is Projector augmented-wave + core cor, Zval = 10.0
     Generated using "atomic" code by A. Dal Corso  v.5.1
     Shape of augmentation charge: PSQ
     Using radial grid of 1251 points,  7 beta functions with:
                l(1) =   0
                l(2) =   0
                l(3) =   0
                l(4) =   1
                l(5) =   1
                l(6) =   2
                l(7) =   2
     Q(r) pseudized with 0 coefficients

     PseudoPot. # 2 for La read from file:
     /lustre07/scratch/pragov/crystal_structure_design/utils/SSSP/La.GGA-PBE-paw-v1.0.UPF
     MD5 check sum: 436541e95c1ad8901025bd0b0ed42ae2
     Pseudo is Projector augmented-wave + core cor, Zval = 11.0
     Generated using ATOMPAW code
     Shape of augmentation charge: BESSEL
     Using radial grid of 1101 points,  8 beta functions with:
                l(1) =   0
                l(2) =   0
                l(3) =   1
                l(4) =   1
                l(5) =   2
                l(6) =   2
                l(7) =   3
                l(8) =   3
     Q(r) pseudized with 0 coefficients

     PseudoPot. # 3 for Ag read from file:
     /lustre07/scratch/pragov/crystal_structure_design/utils/SSSP/Ag_ONCV_PBE-1.0.oncvpsp.upf
     MD5 check sum: 94f47bd0669c641108e45594df92fabc
     Pseudo is Norm-conserving, Zval = 19.0
     Generated using ONCVPSP code by D. R. Hamann
     Using radial grid of 1398 points,  6 beta functions with:
                l(1) =   0
                l(2) =   0
                l(3) =   1
                l(4) =   1
                l(5) =   2
                l(6) =   2

     PseudoPot. # 4 for Te read from file:
     /lustre07/scratch/pragov/crystal_structure_design/utils/SSSP/Te_pbe_v1.uspp.F.UPF
     MD5 check sum: c319670d6894cc26e93307826a071b75
     Pseudo is Ultrasoft + core correction, Zval =  6.0
     Generated by new atomic code, or converted to UPF format
     Using radial grid of  891 points,  5 beta functions with:
                l(1) =   0
                l(2) =   0
                l(3) =   1
                l(4) =   1
                l(5) =   2
     Q(r) pseudized with  6 coefficients,  rinner =    1.800   1.800   1.800
                                                       1.800   1.800

     atomic species   valence    mass     pseudopotential
        Ba            10.00   137.32700     Ba( 1.00)
        La            11.00   138.90547     La( 1.00)
        Ag            19.00   107.86820     Ag( 1.00)
        Te             6.00   127.60000     Te( 1.00)

      4 Sym. Ops., with inversion, found ( 2 have fractional translation)

                                    s                        frac. trans.

      isym =  1     identity

 cryst.   s( 1) = (     1          0          0      )
                  (     0          1          0      )
                  (     0          0          1      )

 cart.    s( 1) = (  1.0000000  0.0000000  0.0000000 )
                  (  0.0000000  1.0000000  0.0000000 )
                  (  0.0000000  0.0000000  1.0000000 )

      isym =  2     180 deg rotation - cart. axis [0,0,1]

 cryst.   s( 2) = (    -1          0          0      )    f =(  0.0000000 )
                  (     0         -1          0      )       ( -0.0000000 )
                  (     0          0          1      )       ( -0.5000000 )

 cart.    s( 2) = ( -1.0000000  0.0000000  0.0000000 )    f =(  0.0000000 )
                  (  0.0000000 -1.0000000  0.0000000 )       ( -0.0000000 )
                  (  0.0000000  0.0000000  1.0000000 )       ( -0.7463148 )

      isym =  3     inversion

 cryst.   s( 3) = (    -1          0          0      )
                  (     0         -1          0      )
                  (     0          0         -1      )

 cart.    s( 3) = ( -1.0000000  0.0000000  0.0000000 )
                  (  0.0000000 -1.0000000  0.0000000 )
                  (  0.0000000  0.0000000 -1.0000000 )

      isym =  4     inv. 180 deg rotation - cart. axis [0,0,1]

 cryst.   s( 4) = (     1          0          0      )    f =(  0.0000000 )
                  (     0          1          0      )       (  0.0000000 )
                  (     0          0         -1      )       (  0.5000000 )

 cart.    s( 4) = (  1.0000000  0.0000000  0.0000000 )    f =(  0.0000000 )
                  (  0.0000000  1.0000000  0.0000000 )       (  0.0000000 )
                  (  0.0000000  0.0000000 -1.0000000 )       (  0.7463148 )

   Cartesian axes

     site n.     atom                  positions (alat units)
         1           Ba  tau(   1) = (  -0.3732041   0.4172893   0.3731574  )
         2           Ba  tau(   2) = (   0.5422775   0.1390927   1.1194721  )
         3           La  tau(   3) = (   0.0000000   0.0000000   0.0000000  )
         4           La  tau(   4) = (   0.0000000   0.0000000   0.7463148  )
         5           Ag  tau(   5) = (   0.1449591   0.2598299   0.3731574  )
         6           Ag  tau(   6) = (   0.0241143   0.2965522   1.1194721  )
         7           Te  tau(   7) = (   0.3456268   0.1988510   0.0890831  )
         8           Te  tau(   8) = (  -0.1765534   0.3575311   1.4035464  )
         9           Te  tau(   9) = (  -0.1765534   0.3575311   0.8353979  )
        10           Te  tau(  10) = (   0.3456268   0.1988510   0.6572316  )
        11           Te  tau(  11) = (   0.8563583   0.0436498   0.3731574  )
        12           Te  tau(  12) = (  -0.6872849   0.5127322   1.1194721  )

   Crystallographic axes

     site n.     atom                  positions (cryst. coord.)
         1           Ba  tau(   1) = (  0.2499950  0.7500050  0.2500000  )
         2           Ba  tau(   2) = (  0.7500050  0.2499950  0.7500000  )
         3           La  tau(   3) = (  0.0000000  0.0000000  0.0000000  )
         4           La  tau(   4) = (  0.0000000  0.0000000  0.5000000  )
         5           Ag  tau(   5) = (  0.5330010  0.4669990  0.2500000  )
         6           Ag  tau(   6) = (  0.4669990  0.5330010  0.7500000  )
         7           Te  tau(   7) = (  0.6426000  0.3574000  0.0596820  )
         8           Te  tau(   8) = (  0.3574000  0.6426000  0.9403180  )
         9           Te  tau(   9) = (  0.3574000  0.6426000  0.5596820  )
        10           Te  tau(  10) = (  0.6426000  0.3574000  0.4403180  )
        11           Te  tau(  11) = (  0.9215470  0.0784530  0.2500000  )
        12           Te  tau(  12) = (  0.0784530  0.9215470  0.7500000  )

     number of k points=    10
                       cart. coord. in units 2pi/alat
        k(    1) = (   0.0000000   0.0000000   0.0000000), wk =   0.0740741
        k(    2) = (   0.0000000   0.0000000   0.2233195), wk =   0.1481481
        k(    3) = (   0.0000000   0.5991087   0.0000000), wk =   0.1481481
        k(    4) = (   0.0000000   0.5991087   0.2233195), wk =   0.2962963
        k(    5) = (   0.3333333   0.4978153   0.0000000), wk =   0.1481481
        k(    6) = (   0.3333333   0.4978153   0.2233195), wk =   0.2962963
        k(    7) = (   0.3333333   1.0969240   0.0000000), wk =   0.1481481
        k(    8) = (   0.3333333   1.0969240   0.2233195), wk =   0.2962963
        k(    9) = (   0.3333333  -0.1012934   0.0000000), wk =   0.1481481
        k(   10) = (   0.3333333  -0.1012934   0.2233195), wk =   0.2962963

                       cryst. coord.
        k(    1) = (   0.0000000   0.0000000   0.0000000), wk =   0.0740741
        k(    2) = (   0.0000000   0.0000000   0.3333333), wk =   0.1481481
        k(    3) = (   0.0000000   0.3333333   0.0000000), wk =   0.1481481
        k(    4) = (   0.0000000   0.3333333   0.3333333), wk =   0.2962963
        k(    5) = (   0.3333333   0.0000000   0.0000000), wk =   0.1481481
        k(    6) = (   0.3333333   0.0000000   0.3333333), wk =   0.2962963
        k(    7) = (   0.3333333   0.3333333   0.0000000), wk =   0.1481481
        k(    8) = (   0.3333333   0.3333333   0.3333333), wk =   0.2962963
        k(    9) = (   0.3333333  -0.3333333   0.0000000), wk =   0.1481481
        k(   10) = (   0.3333333  -0.3333333   0.3333333), wk =   0.2962963

     Initial potential from superposition of free atoms

     starting charge     115.9471, renormalised to     116.0000
     Starting wfcs are  118 randomized atomic wfcs
     Checking if some PAW data can be deallocated...

     Self-consistent Calculation

     iteration #  1     ecut=    30.00 Ry     beta= 0.70
     Davidson diagonalization with overlap

     ethr =  1.00E-02,  avg # of iterations =  2.0

     Threshold (ethr) on eigenvalues was too large:
     Diagonalizing with lowered threshold

     Davidson diagonalization with overlap

[...]

     negative rho (up, down):  6.153E-02 0.000E+00

     total energy              =   -2523.06091138 Ry
     estimated scf accuracy    <       0.39224152 Ry

[...]

     c_bands:  1 eigenvalues not converged
     c_bands:  3 eigenvalues not converged
     ethr =  4.74E-05,  avg # of iterations = 18.1

     negative rho (up, down):  4.060E-04 0.000E+00

[...]

     c_bands:  1 eigenvalues not converged
     ethr =  1.60E-06,  avg # of iterations =  9.6

[...]

     total energy              =   -2523.15985562 Ry
     estimated scf accuracy    <       0.00000270 Ry

     iteration # 15     ecut=    30.00 Ry     beta= 0.70
     Davidson diagonalization with overlap

     ethr =  1.94E-09,  avg # of iterations =  2.0

     End of self-consistent calculation

          k = 0.0000 0.0000 0.0000 (  7849 PWs)   bands (ev):

   -85.2114 -85.2114 -48.2563 -48.2554 -48.2420 -48.2412 -48.2408 -48.2385
   -25.1160 -25.1156 -20.3906 -20.3903  -8.9602  -8.9198  -8.9124  -8.8855
    -8.7739  -8.7736  -5.6912  -5.6869  -5.6481  -5.5853  -5.4963  -5.4945
    -3.2977  -2.8187  -2.7156  -2.7065  -2.3381  -2.2899   3.0923   3.1366
     3.1648   3.1741   3.2011   3.2570   3.4480   3.4524   3.5113   3.5564
     3.9838   4.5760   4.5886   5.0482   5.0957   5.3375   5.3713   5.5814
     5.7877   6.0452   6.2007   6.2464   6.4514   6.7400   6.9141   7.3064
     7.3404   7.3945   8.8507   9.2798   9.3613   9.4468   9.5511   9.6725

     occupation numbers
     1.0000   1.0000   1.0000   1.0000   1.0000   1.0000   1.0000   1.0000
     1.0000   1.0000   1.0000   1.0000   1.0000   1.0000   1.0000   1.0000
     1.0000   1.0000   1.0000   1.0000   1.0000   1.0000   1.0000   1.0000
     1.0000   1.0000   1.0000   1.0000   1.0000   1.0000   1.0000   1.0000
     1.0000   1.0000   1.0000   1.0000   1.0000   1.0000   1.0000   1.0000
     1.0000   1.0000   1.0000   1.0000   1.0000   1.0000   1.0000   1.0000
     1.0000   1.0000   1.0000   1.0000   1.0000   1.0000   1.0000   1.0000
     1.0000   1.0000   0.0000   0.0000   0.0000   0.0000   0.0000   0.0000

[...]

          k = 0.3333-0.1013 0.2233 (  7880 PWs)   bands (ev):

   -85.2114 -85.2114 -48.2562 -48.2552 -48.2425 -48.2421 -48.2420 -48.2413
   -25.1159 -25.1157 -20.3905 -20.3904  -8.9470  -8.9257  -8.9102  -8.8980
    -8.7739  -8.7737  -5.7059  -5.6942  -5.6278  -5.6008  -5.4956  -5.4948
    -3.0664  -2.9034  -2.6847  -2.6452  -2.4679  -2.4007   3.1161   3.1270
     3.1329   3.1648   3.2253   3.3079   3.3998   3.4514   3.4754   3.5229
     4.0118   4.1640   4.7681   4.8983   5.3522   5.5054   5.8031   5.9076
     6.0875   6.1414   6.2128   6.3502   6.3707   6.5840   6.7531   6.7942
     6.9068   7.0076   8.6342   8.8249   9.3703   9.5313   9.5531   9.6308

     occupation numbers
     1.0000   1.0000   1.0000   1.0000   1.0000   1.0000   1.0000   1.0000
     1.0000   1.0000   1.0000   1.0000   1.0000   1.0000   1.0000   1.0000
     1.0000   1.0000   1.0000   1.0000   1.0000   1.0000   1.0000   1.0000
     1.0000   1.0000   1.0000   1.0000   1.0000   1.0000   1.0000   1.0000
     1.0000   1.0000   1.0000   1.0000   1.0000   1.0000   1.0000   1.0000
     1.0000   1.0000   1.0000   1.0000   1.0000   1.0000   1.0000   1.0000
     1.0000   1.0000   1.0000   1.0000   1.0000   1.0000   1.0000   1.0000
     1.0000   1.0000   0.0000   0.0000   0.0000   0.0000   0.0000   0.0000

     highest occupied, lowest unoccupied level (ev):     7.3945    8.5099

!    total energy              =   -2523.15985568 Ry
     estimated scf accuracy    <       0.00000061 Ry

     The total energy is the sum of the following terms:
     one-electron contribution =    -565.00134824 Ry
     hartree contribution      =     323.16909403 Ry
     xc contribution           =    -199.00841880 Ry
     ewald contribution        =    -536.21054325 Ry
     one-center paw contrib.   =   -1546.10863941 Ry
      -> PAW hartree energy AE =      28.53551592 Ry
      -> PAW hartree energy PS =     -28.42549296 Ry
      -> PAW xc energy AE      =    -394.19523392 Ry
      -> PAW xc energy PS      =      19.13397327 Ry
      -> total E_H with PAW    =     323.27911700 Ry
      -> total E_XC with PAW   =    -574.06967945 Ry

     convergence has been achieved in  15 iterations

     Writing all to output data dir bands_nm/myprefix.save/

     General routines

     Parallel routines

     PAW routines

   This run was terminated on:  20: 0:44  12Jul2023

   JOB DONE.