     Program PWSCF v.7.1 starts on 15Jul2023 at 21:49:28

     Reading input from espresso_14194.pwi
Warning: card &CELL ignored
Warning: card / ignored

     Current dimensions of program PWSCF are:
     Max number of different atomic species (ntypx) = 10
     Max number of k-points (npk) =  40000
     Max angular momentum in pseudopotentials (lmaxx) =  4
     file Sm.paw.z_16.atompaw.wentzcovitch.v1.2.upf: wavefunction(s)  6S 0P 5D 0D 4F 0F renormalized
     file Mg.pbe-n-kjpaw_psl.0.3.0.UPF: wavefunction(s)  3S renormalized
     file Nb.pbe-spn-kjpaw_psl.0.3.0.UPF: wavefunction(s)  4S 4P renormalized
     file O.pbe-n-kjpaw_psl.0.1.UPF: wavefunction(s)  2P renormalized
     Message from routine setup:
     using ibrav=0 with symmetry is DISCOURAGED, use correct ibrav instead

     K-points division:     npool     =       2
     R & G space division:  proc/nbgrp/npool/nimage =       4
     Subspace diagonalization in iterative solution of the eigenvalue problem:
     one sub-group per band group will be used

     Using Slab Decomposition

     bravais-lattice index     =            0
     lattice parameter (alat)  =      10.8236  a.u.
     unit-cell volume          =    1679.1387 (a.u.)^3
     number of atoms/cell      =           20
     number of atomic types    =            5
     number of electrons       =       154.00
     number of Kohn-Sham states=          256
     kinetic-energy cutoff     =      30.0000  Ry
     charge density cutoff     =     240.0000  Ry
     scf convergence threshold =      1.0E-06
     mixing beta               =       0.7000
     number of iterations used =            8  plain     mixing
     Exchange-correlation= SLA  PW   PBX  PBC
                           (   1   4   3   4   0   0   0)

     celldm(1)=  10.823643  celldm(2)=   0.000000  celldm(3)=   0.000000
     celldm(4)=   0.000000  celldm(5)=   0.000000  celldm(6)=   0.000000

     crystal axes: (cart. coord. in units of alat)
               a(1) = (   1.000000   0.000000   0.000000 )
               a(2) = (   0.000000   0.960570   0.000000 )
               a(3) = (   0.000000   0.954865   1.378596 )

     reciprocal axes: (cart. coord. in units 2 pi/alat)
               b(1) = (  1.000000  0.000000  0.000000 )
               b(2) = (  0.000000  1.041048 -0.721067 )
               b(3) = (  0.000000  0.000000  0.725375 )

     PseudoPot. # 1 for Ca read from file:
     /lustre07/scratch/pragov/crystal_structure_design/utils/SSSP/Ca_pbe_v1.uspp.F.UPF
     MD5 check sum: 403a4c14b9e4d4dfdc3024c9a3812218
     Pseudo is Ultrasoft + core correction, Zval = 10.0
     Generated by new atomic code, or converted to UPF format
     Using radial grid of  845 points,  6 beta functions with:
                l(1) =   0
                l(2) =   0
                l(3) =   1
                l(4) =   1
                l(5) =   2
                l(6) =   2
     Q(r) pseudized with  8 coefficients,  rinner =    1.500   1.500   1.500
                                                       1.500   1.500

     PseudoPot. # 2 for Sm read from file:
     /lustre07/scratch/pragov/crystal_structure_design/utils/SSSP/Sm.paw.z_16.atompaw.wentzcovitch.v1.2.upf
     MD5 check sum: d38221e44bcfc3c784cbdb498a69732f
     Pseudo is Projector augmented-wave + core cor, Zval = 16.0
     Generated using ATOMPAW code
     Shape of augmentation charge: BESSEL
     Using radial grid of 1107 points,  8 beta functions with:
                l(1) =   0
                l(2) =   0
                l(3) =   1
                l(4) =   1
                l(5) =   2
                l(6) =   2
                l(7) =   3
                l(8) =   3
     Q(r) pseudized with 0 coefficients

     PseudoPot. # 3 for Mg read from file:
     /lustre07/scratch/pragov/crystal_structure_design/utils/SSSP/Mg.pbe-n-kjpaw_psl.0.3.0.UPF
     MD5 check sum: 24ecedc7f3e3cbe212e682f4413594e4
     Pseudo is Projector augmented-wave + core cor, Zval =  2.0
     Generated using "atomic" code by A. Dal Corso  v.5.0.99 svn rev. 10869
     Shape of augmentation charge: PSQ
     Using radial grid of 1129 points,  4 beta functions with:
                l(1) =   0
                l(2) =   0
                l(3) =   1
                l(4) =   1
     Q(r) pseudized with 0 coefficients

     PseudoPot. # 4 for Nb read from file:
     /lustre07/scratch/pragov/crystal_structure_design/utils/SSSP/Nb.pbe-spn-kjpaw_psl.0.3.0.UPF
     MD5 check sum: 411d72ad547312f8017e2943ceca08cc
     Pseudo is Projector augmented-wave + core cor, Zval = 13.0
     Generated using "atomic" code by A. Dal Corso  v.5.0.99 svn rev. 10869
     Shape of augmentation charge: PSQ
     Using radial grid of 1227 points,  6 beta functions with:
                l(1) =   0
                l(2) =   0
                l(3) =   1
                l(4) =   1
                l(5) =   2
                l(6) =   2
     Q(r) pseudized with 0 coefficients

     PseudoPot. # 5 for O  read from file:
     /lustre07/scratch/pragov/crystal_structure_design/utils/SSSP/O.pbe-n-kjpaw_psl.0.1.UPF
     MD5 check sum: 0234752ac141de4415c5fc33072bef88
     Pseudo is Projector augmented-wave + core cor, Zval =  6.0
     Generated using "atomic" code by A. Dal Corso  v.5.0.99 svn rev. 10869
     Shape of augmentation charge: BESSEL
     Using radial grid of 1095 points,  4 beta functions with:
                l(1) =   0
                l(2) =   0
                l(3) =   1
                l(4) =   1
     Q(r) pseudized with 0 coefficients

     atomic species   valence    mass     pseudopotential
        Ca            10.00    40.07800     Ca( 1.00)
        Sm            16.00   150.36000     Sm( 1.00)
        Mg             2.00    24.30500     Mg( 1.00)
        Nb            13.00    92.90637     Nb( 1.00)
        O              6.00    15.99900     O ( 1.00)

      2 Sym. Ops. (no inversion) found ( 1 have fractional translation)

                                    s                        frac. trans.

      isym =  1     identity

 cryst.   s( 1) = (     1          0          0      )
                  (     0          1          0      )
                  (     0          0          1      )

 cart.    s( 1) = (  1.0000000  0.0000000  0.0000000 )
                  (  0.0000000  1.0000000  0.0000000 )
                  (  0.0000000  0.0000000  1.0000000 )

      isym =  2     inv. 180 deg rotation - cart. axis [1,0,0]

 cryst.   s( 2) = (    -1          0          0      )    f =( -0.0000000 )
                  (     0          1          0      )       ( -0.0000000 )
                  (     0          0          1      )       (  0.5000000 )

 cart.    s( 2) = ( -1.0000000  0.0000000  0.0000000 )    f =( -0.0000000 )
                  (  0.0000000  1.0000000  0.0000000 )       (  0.4774324 )
                  (  0.0000000  0.0000000  1.0000000 )       (  0.6892982 )

   Cartesian axes

     site n.     atom                  positions (alat units)
         1           Ca  tau(   1) = (   0.1978000   1.4251466   1.0357574  )
         2           Ca  tau(   2) = (   0.8022000   0.9477142   0.3464592  )
         3           Sm  tau(   3) = (   0.3117880   0.4931997   0.3407794  )
         4           Sm  tau(   4) = (   0.6882120   0.9706321   1.0300776  )
         5           Mg  tau(   5) = (   0.2468410   0.9591243   0.6889273  )
         6           Mg  tau(   6) = (   0.7531590   1.4365567   1.3782255  )
         7           Nb  tau(   7) = (   0.7545470   0.4779809   0.6881333  )
         8           Nb  tau(   8) = (   0.2454530   0.9554132   1.3774314  )
         9           O   tau(   9) = (   0.9513620   1.1340846   1.3000067  )
        10           O   tau(  10) = (   0.0486380   0.6566523   0.6107085  )
        11           O   tau(  11) = (   0.5379840   0.7726397   0.0762901  )
        12           O   tau(  12) = (   0.4620160   1.2500721   0.7655883  )
        13           O   tau(  13) = (   0.9410850   1.1491728   0.7621129  )
        14           O   tau(  14) = (   0.0589150   0.6717405   0.0728147  )
        15           O   tau(  15) = (   0.5537410   0.7595060   0.6223880  )
        16           O   tau(  16) = (   0.4462590   1.2369384   1.3116862  )
        17           O   tau(  17) = (   0.7866560   1.5399475   1.0268696  )
        18           O   tau(  18) = (   0.2133440   1.0625151   0.3375714  )
        19           O   tau(  19) = (   0.7128560   0.3860874   0.3517172  )
        20           O   tau(  20) = (   0.2871440   0.8635197   1.0410153  )

   Crystallographic axes

     site n.     atom                  positions (cryst. coord.)
         1           Ca  tau(   1) = (  0.1978000  0.7367960  0.7513130  )
         2           Ca  tau(   2) = (  0.8022000  0.7367960  0.2513130  )
         3           Sm  tau(   3) = (  0.3117880  0.2677200  0.2471930  )
         4           Sm  tau(   4) = (  0.6882120  0.2677200  0.7471930  )
         5           Mg  tau(   5) = (  0.2468410  0.5017320  0.4997310  )
         6           Mg  tau(   6) = (  0.7531590  0.5017320  0.9997310  )
         7           Nb  tau(   7) = (  0.7545470  0.0014110  0.4991550  )
         8           Nb  tau(   8) = (  0.2454530  0.0014110  0.9991550  )
         9           O   tau(   9) = (  0.9513620  0.2432450  0.9429930  )
        10           O   tau(  10) = (  0.0486380  0.2432450  0.4429930  )
        11           O   tau(  11) = (  0.5379840  0.7493450  0.0553390  )
        12           O   tau(  12) = (  0.4620160  0.7493450  0.5553390  )
        13           O   tau(  13) = (  0.9410850  0.6468100  0.5528180  )
        14           O   tau(  14) = (  0.0589150  0.6468100  0.0528180  )
        15           O   tau(  15) = (  0.5537410  0.3418990  0.4514650  )
        16           O   tau(  16) = (  0.4462590  0.3418990  0.9514650  )
        17           O   tau(  17) = (  0.7866560  0.8627180  0.7448660  )
        18           O   tau(  18) = (  0.2133440  0.8627180  0.2448660  )
        19           O   tau(  19) = (  0.7128560  0.1483240  0.2551270  )
        20           O   tau(  20) = (  0.2871440  0.1483240  0.7551270  )

     number of k points=    10
                       cart. coord. in units 2pi/alat
        k(    1) = (   0.0000000   0.0000000   0.0000000), wk =   0.0740741
        k(    2) = (   0.0000000   0.0000000   0.2417918), wk =   0.1481481
        k(    3) = (   0.0000000   0.3470161  -0.2403557), wk =   0.1481481
        k(    4) = (   0.0000000   0.3470161   0.0014362), wk =   0.1481481
        k(    5) = (   0.0000000   0.3470161  -0.4821475), wk =   0.1481481
        k(    6) = (   0.3333333   0.0000000   0.0000000), wk =   0.1481481
        k(    7) = (   0.3333333   0.0000000   0.2417918), wk =   0.2962963
        k(    8) = (   0.3333333   0.3470161  -0.2403557), wk =   0.2962963
        k(    9) = (   0.3333333   0.3470161   0.0014362), wk =   0.2962963
        k(   10) = (   0.3333333   0.3470161  -0.4821475), wk =   0.2962963

                       cryst. coord.
        k(    1) = (   0.0000000   0.0000000   0.0000000), wk =   0.0740741
        k(    2) = (   0.0000000   0.0000000   0.3333333), wk =   0.1481481
        k(    3) = (   0.0000000   0.3333333  -0.0000000), wk =   0.1481481
        k(    4) = (   0.0000000   0.3333333   0.3333333), wk =   0.1481481
        k(    5) = (   0.0000000   0.3333333  -0.3333333), wk =   0.1481481
        k(    6) = (   0.3333333   0.0000000   0.0000000), wk =   0.1481481
        k(    7) = (   0.3333333   0.0000000   0.3333333), wk =   0.2962963
        k(    8) = (   0.3333333   0.3333333  -0.0000000), wk =   0.2962963
        k(    9) = (   0.3333333   0.3333333   0.3333333), wk =   0.2962963
        k(   10) = (   0.3333333   0.3333333  -0.3333333), wk =   0.2962963

     Check: negative core charge=   -0.000014

     Initial potential from superposition of free atoms

     starting charge     153.9718, renormalised to     154.0000
     Starting wfcs are  160 randomized atomic wfcs +   96 random wfcs
     Checking if some PAW data can be deallocated...

     Self-consistent Calculation

     iteration #  1     ecut=    30.00 Ry     beta= 0.70
     Davidson diagonalization with overlap

     ethr =  1.00E-02,  avg # of iterations =  6.0

     total energy              =   -2591.03006981 Ry
     estimated scf accuracy    <       6.95135532 Ry

[...]

     total energy              =   -2595.40740662 Ry
     estimated scf accuracy    <       0.00000123 Ry

     iteration # 91     ecut=    30.00 Ry     beta= 0.70
     Davidson diagonalization with overlap

     ethr =  8.01E-10,  avg # of iterations =  1.0

     End of self-consistent calculation

          k = 0.0000 0.0000 0.0000 (  4631 PWs)   bands (ev):

   -45.7078 -45.7078 -29.0911 -29.0907 -28.6751 -28.6750 -21.8727 -21.8695
   -21.8581 -21.8576 -21.8125 -21.8124 -10.3550 -10.3034 -10.2863 -10.2742
   -10.2740 -10.2131  -9.0893  -9.0539  -9.0165  -8.9454  -8.8408  -8.7249
    -8.1045  -7.4702  -7.1000  -7.0876  -6.9594  -6.9492  -6.6401  -6.6226
    -6.5859  -6.5411  -6.1108  -6.0442   4.2861   4.7920   4.8794   5.4354
     5.5317   5.5990   5.7152   5.7511   5.8415   5.9804   6.0048   6.0857
     6.2087   6.5116   6.5419   6.5534   6.6687   6.6933   7.0141   7.2660
     7.3449   7.4861   7.6910   7.7351   7.7856   7.8812   7.9218   8.0910
     8.1226   8.1812   8.2625   8.3658   8.4460   8.5599   8.6081   8.6597
    10.4770  10.4849  10.5079  10.5196  10.5319  10.5414  10.7386  10.7444
    10.8422  10.8453  10.8495  10.8784  10.9103  10.9517  12.4731  12.5066
    12.6454  12.6476  12.7679  13.0661  14.5833  15.1771  15.3478  15.3886
    15.4945  15.5509  15.6343  15.8789  16.0533  16.4378  16.5795  16.5867
    16.7098  16.8107  16.9792  17.0228  17.0594  17.2599  17.2622  17.4073
    17.5125  17.6539  17.7429  17.7861  17.9767  18.6446  19.0624  19.5926
    20.2196  20.5674  20.7922  21.4060  21.7992  22.2114  22.3644  22.4214
    22.6676  22.7058  22.9552  23.4351  23.5882  23.8010  23.8834  23.9378
    24.0919  24.3833  24.6076  24.8760  25.0154  25.5524  26.1472  26.2278
    26.3615  26.5347  26.8009  26.9859  27.1536  27.2248  27.6387  27.7748
    28.0589  28.1306  28.6662  28.7695  29.0695  29.2853  29.6404  30.3876
    30.4623  30.7179  30.8309  31.4204  31.6591  31.9531  32.1772  32.2842
    32.4770  32.5285  32.6201  32.7584  33.1518  33.3923  33.4394  33.6162
    33.9227  34.1681  34.2876  34.3153  34.5656  34.7660  35.0889  35.1687
    35.3243  35.6279  35.9330  36.0964  36.3614  36.5755  36.7661  36.9550
    37.3252  37.4104  37.4588  37.6815  37.9631  37.9938  38.0358  38.1955
    38.2030  38.4793  38.5425  38.8465  38.8739  39.2936  39.3307  39.7167
    39.8034  40.0271  40.2903  40.2918  40.6593  40.7720  40.9120  41.2536
    41.3763  41.7259  41.9098  41.9700  42.0777  42.3244  42.3703  42.7340
    42.7754  42.8093  42.9423  43.1741  43.2036  43.2796  43.5079  43.5457
    43.7885  43.8984  44.0656  44.1165  44.4732  44.5320  44.5897  44.7045
    44.7718  44.9359  45.2391  45.6016  45.6833  45.6982  45.8309  46.1541
    46.2205  46.3236  46.5078  46.5288  47.0200  47.0308  47.2063  47.2304

     occupation numbers
     1.0000   1.0000   1.0000   1.0000   1.0000   1.0000   1.0000   1.0000
     1.0000   1.0000   1.0000   1.0000   1.0000   1.0000   1.0000   1.0000
     1.0000   1.0000   1.0000   1.0000   1.0000   1.0000   1.0000   1.0000
     1.0000   1.0000   1.0000   1.0000   1.0000   1.0000   1.0000   1.0000
     1.0000   1.0000   1.0000   1.0000   1.0000   1.0000   1.0000   1.0000
     1.0000   1.0000   1.0000   1.0000   1.0000   1.0000   1.0000   1.0000
     1.0000   1.0000   1.0000   1.0000   1.0000   1.0000   1.0000   1.0000
     1.0000   1.0000   1.0000   1.0000   1.0000   1.0000   1.0000   1.0000
     1.0000   1.0000   1.0000   1.0000   1.0000   1.0000   1.0000   1.0000
     1.0000   1.0000   1.0000   1.0000   1.0000   0.0000   0.0000   0.0000
     0.0000   0.0000   0.0000   0.0000   0.0000   0.0000   0.0000   0.0000
     0.0000   0.0000   0.0000   0.0000   0.0000   0.0000   0.0000   0.0000
     0.0000   0.0000   0.0000   0.0000   0.0000   0.0000   0.0000   0.0000
     0.0000   0.0000   0.0000   0.0000   0.0000   0.0000   0.0000   0.0000
     0.0000   0.0000   0.0000   0.0000   0.0000   0.0000   0.0000   0.0000
     0.0000   0.0000   0.0000   0.0000   0.0000   0.0000   0.0000   0.0000
     0.0000   0.0000   0.0000   0.0000   0.0000   0.0000   0.0000   0.0000
     0.0000   0.0000   0.0000   0.0000   0.0000   0.0000   0.0000   0.0000
     0.0000   0.0000   0.0000   0.0000   0.0000   0.0000   0.0000   0.0000
     0.0000   0.0000   0.0000   0.0000   0.0000   0.0000   0.0000   0.0000
     0.0000   0.0000   0.0000   0.0000   0.0000   0.0000   0.0000   0.0000
     0.0000   0.0000   0.0000   0.0000   0.0000   0.0000   0.0000   0.0000
     0.0000   0.0000   0.0000   0.0000   0.0000   0.0000   0.0000   0.0000
     0.0000   0.0000   0.0000   0.0000   0.0000   0.0000   0.0000   0.0000
     0.0000   0.0000   0.0000   0.0000   0.0000   0.0000   0.0000   0.0000
     0.0000   0.0000   0.0000   0.0000   0.0000   0.0000   0.0000   0.0000
     0.0000   0.0000   0.0000   0.0000   0.0000   0.0000   0.0000   0.0000
     0.0000   0.0000   0.0000   0.0000   0.0000   0.0000   0.0000   0.0000
     0.0000   0.0000   0.0000   0.0000   0.0000   0.0000   0.0000   0.0000
     0.0000   0.0000   0.0000   0.0000   0.0000   0.0000   0.0000   0.0000
     0.0000   0.0000   0.0000   0.0000   0.0000   0.0000   0.0000   0.0000
     0.0000   0.0000   0.0000   0.0000   0.0000   0.0000   0.0000   0.0000

[...]

          k = 0.3333 0.3470-0.4821 (  4660 PWs)   bands (ev):

   -45.7080 -45.7079 -29.0907 -29.0907 -28.6753 -28.6752 -21.8727 -21.8707
   -21.8581 -21.8570 -21.8129 -21.8126 -10.3633 -10.3346 -10.3015 -10.2893
   -10.2433 -10.2286  -9.2346  -9.1448  -9.0449  -8.9550  -8.8486  -8.8151
    -7.4247  -7.3842  -7.2853  -7.2381  -7.0032  -6.9666  -6.6955  -6.6005
    -6.3525  -6.2516  -6.2246  -6.1760   4.5929   4.6700   5.1298   5.2210
     5.2686   5.3120   5.5514   5.6004   5.7125   5.8331   5.9771   6.0657
     6.3371   6.5905   6.6788   6.7008   6.8793   6.9638   7.0709   7.1321
     7.2966   7.3719   7.5093   7.5985   7.6977   7.7933   7.8367   7.9573
     8.0479   8.1101   8.1969   8.2804   8.3088   8.3782   8.4648   8.5168
    10.4888  10.5134  10.5215  10.5321  10.5378  10.5486  10.7160  10.7394
    10.7918  10.8213  10.8568  10.8685  10.8969  10.9318  12.5676  12.6297
    12.7363  12.8018  12.8554  12.9173  15.2711  15.3994  15.5388  15.6644
    15.7983  15.8568  15.9931  16.1304  16.3043  16.3553  16.4610  16.5520
    16.7043  16.7721  16.9346  17.0073  17.0446  17.1804  17.2959  17.4088
    17.5236  17.7146  17.8641  17.9723  18.2697  18.6873  19.4280  19.7039
    20.1221  20.3067  20.8338  21.0282  21.3182  21.4791  21.8118  22.2689
    22.6777  22.9359  23.1763  23.6122  23.7953  23.9607  24.1844  24.2687
    24.5252  24.6143  24.7856  24.9353  25.1323  25.3482  25.4582  25.7498
    25.9991  26.2515  26.5111  26.7527  26.9103  27.2867  27.4289  27.4728
    27.7131  28.2493  28.3687  28.6692  29.1983  29.4723  29.7883  29.9822
    30.3936  30.4420  30.9639  31.1313  31.4744  31.7493  32.1247  32.2246
    32.3975  32.6355  32.7964  33.2013  33.2494  33.5204  33.6785  33.8259
    33.8942  34.1471  34.3048  34.4092  34.7043  34.9053  35.1413  35.2542
    35.3377  35.5678  35.9098  36.1092  36.2325  36.3876  36.5451  36.8280
    36.9874  37.2628  37.3888  37.6012  37.8739  37.9615  38.0926  38.4018
    38.5993  38.7554  38.9183  38.9990  39.1756  39.3160  39.5653  39.6767
    39.7899  40.0349  40.2091  40.4729  40.5813  40.7502  40.8209  40.9666
    41.2692  41.5466  41.6776  41.7957  42.0196  42.1307  42.3476  42.5555
    42.6140  42.7028  42.8786  43.0947  43.1408  43.3522  43.4845  43.6315
    43.8589  44.0611  44.1420  44.1825  44.4159  44.5003  44.6791  44.9129
    44.9739  45.1406  45.3238  45.4558  45.6449  45.7052  45.8441  46.0554
    46.1392  46.3739  46.4310  46.6656  46.7327  47.0134  47.1515  47.2910

     occupation numbers
     1.0000   1.0000   1.0000   1.0000   1.0000   1.0000   1.0000   1.0000
     1.0000   1.0000   1.0000   1.0000   1.0000   1.0000   1.0000   1.0000
     1.0000   1.0000   1.0000   1.0000   1.0000   1.0000   1.0000   1.0000
     1.0000   1.0000   1.0000   1.0000   1.0000   1.0000   1.0000   1.0000
     1.0000   1.0000   1.0000   1.0000   1.0000   1.0000   1.0000   1.0000
     1.0000   1.0000   1.0000   1.0000   1.0000   1.0000   1.0000   1.0000
     1.0000   1.0000   1.0000   1.0000   1.0000   1.0000   1.0000   1.0000
     1.0000   1.0000   1.0000   1.0000   1.0000   1.0000   1.0000   1.0000
     1.0000   1.0000   1.0000   1.0000   1.0000   1.0000   1.0000   1.0000
     1.0000   1.0000   1.0000   1.0000   1.0000   0.0000   0.0000   0.0000
     0.0000   0.0000   0.0000   0.0000   0.0000   0.0000   0.0000   0.0000
     0.0000   0.0000   0.0000   0.0000   0.0000   0.0000   0.0000   0.0000
     0.0000   0.0000   0.0000   0.0000   0.0000   0.0000   0.0000   0.0000
     0.0000   0.0000   0.0000   0.0000   0.0000   0.0000   0.0000   0.0000
     0.0000   0.0000   0.0000   0.0000   0.0000   0.0000   0.0000   0.0000
     0.0000   0.0000   0.0000   0.0000   0.0000   0.0000   0.0000   0.0000
     0.0000   0.0000   0.0000   0.0000   0.0000   0.0000   0.0000   0.0000
     0.0000   0.0000   0.0000   0.0000   0.0000   0.0000   0.0000   0.0000
     0.0000   0.0000   0.0000   0.0000   0.0000   0.0000   0.0000   0.0000
     0.0000   0.0000   0.0000   0.0000   0.0000   0.0000   0.0000   0.0000
     0.0000   0.0000   0.0000   0.0000   0.0000   0.0000   0.0000   0.0000
     0.0000   0.0000   0.0000   0.0000   0.0000   0.0000   0.0000   0.0000
     0.0000   0.0000   0.0000   0.0000   0.0000   0.0000   0.0000   0.0000
     0.0000   0.0000   0.0000   0.0000   0.0000   0.0000   0.0000   0.0000
     0.0000   0.0000   0.0000   0.0000   0.0000   0.0000   0.0000   0.0000
     0.0000   0.0000   0.0000   0.0000   0.0000   0.0000   0.0000   0.0000
     0.0000   0.0000   0.0000   0.0000   0.0000   0.0000   0.0000   0.0000
     0.0000   0.0000   0.0000   0.0000   0.0000   0.0000   0.0000   0.0000
     0.0000   0.0000   0.0000   0.0000   0.0000   0.0000   0.0000   0.0000
     0.0000   0.0000   0.0000   0.0000   0.0000   0.0000   0.0000   0.0000
     0.0000   0.0000   0.0000   0.0000   0.0000   0.0000   0.0000   0.0000
     0.0000   0.0000   0.0000   0.0000   0.0000   0.0000   0.0000   0.0000

     highest occupied, lowest unoccupied level (ev):    10.5492   10.5401

!    total energy              =   -2595.40740416 Ry
     estimated scf accuracy    <       0.00000100 Ry

     The total energy is the sum of the following terms:
     one-electron contribution =    -310.53184058 Ry
     hartree contribution      =     258.93052439 Ry
     xc contribution           =    -210.82580854 Ry
     ewald contribution        =    -840.19626755 Ry
     one-center paw contrib.   =   -1492.78401188 Ry
      -> PAW hartree energy AE =     126.41066158 Ry
      -> PAW hartree energy PS =    -123.25748161 Ry
      -> PAW xc energy AE      =    -469.39221277 Ry
      -> PAW xc energy PS      =      16.74744181 Ry
      -> total E_H with PAW    =     262.08370436 Ry
      -> total E_XC with PAW   =    -663.47057949 Ry

     convergence has been achieved in  91 iterations

     Writing all to output data dir bands_nm/myprefix.save/

     General routines

     Parallel routines

     PAW routines

   This run was terminated on:  21:56:11  15Jul2023

   JOB DONE.