     Program PWSCF v.7.1 starts on 15Jul2023 at 22:49: 7

     Reading input from espresso_22539.pwi
Warning: card &CELL ignored
Warning: card / ignored

     Current dimensions of program PWSCF are:
     Max number of different atomic species (ntypx) = 10
     Max number of k-points (npk) =  40000
     Max angular momentum in pseudopotentials (lmaxx) =  4
     file Ho.paw.z_21.atompaw.wentzcovitch.v1.2.upf: wavefunction(s)  6S 0P 5D 0D 4F 0F renormalized
     file O.pbe-n-kjpaw_psl.0.1.UPF: wavefunction(s)  2P renormalized
     Message from routine setup:
     using ibrav=0 with symmetry is DISCOURAGED, use correct ibrav instead

     K-points division:     npool     =       2
     R & G space division:  proc/nbgrp/npool/nimage =       4
     Subspace diagonalization in iterative solution of the eigenvalue problem:
     one sub-group per band group will be used

     Using Slab Decomposition

     bravais-lattice index     =            0
     lattice parameter (alat)  =      10.5873  a.u.
     unit-cell volume          =    1506.3299 (a.u.)^3
     number of atoms/cell      =           20
     number of atomic types    =            4
     number of electrons       =       222.00
     number of Kohn-Sham states=          256
     kinetic-energy cutoff     =      30.0000  Ry
     charge density cutoff     =     240.0000  Ry
     scf convergence threshold =      1.0E-06
     mixing beta               =       0.7000
     number of iterations used =            8  plain     mixing
     Exchange-correlation= SLA  PW   PBX  PBC
                           (   1   4   3   4   0   0   0)

     celldm(1)=  10.587266  celldm(2)=   0.000000  celldm(3)=   0.000000
     celldm(4)=   0.000000  celldm(5)=   0.000000  celldm(6)=   0.000000

     crystal axes: (cart. coord. in units of alat)
               a(1) = (   1.000000   0.000000   0.000000 )
               a(2) = (   0.000000   0.938794   0.000000 )
               a(3) = (   0.000000   0.921201   1.352067 )

     reciprocal axes: (cart. coord. in units 2 pi/alat)
               b(1) = (  1.000000  0.000000  0.000000 )
               b(2) = (  0.000000  1.065197 -0.725748 )
               b(3) = (  0.000000  0.000000  0.739608 )

     PseudoPot. # 1 for Ho read from file:
     /lustre07/scratch/pragov/crystal_structure_design/utils/SSSP/Ho.paw.z_21.atompaw.wentzcovitch.v1.2.upf
     MD5 check sum: f900adcc49abc9ab8113872cdbacec3e
     Pseudo is Projector augmented-wave + core cor, Zval = 21.0
     Generated using ATOMPAW code
     Shape of augmentation charge: BESSEL
     Using radial grid of 1114 points,  8 beta functions with:
                l(1) =   0
                l(2) =   0
                l(3) =   1
                l(4) =   1
                l(5) =   2
                l(6) =   2
                l(7) =   3
                l(8) =   3
     Q(r) pseudized with 0 coefficients

     PseudoPot. # 2 for Mn read from file:
     /lustre07/scratch/pragov/crystal_structure_design/utils/SSSP/mn_pbe_v1.5.uspp.F.UPF
     MD5 check sum: 82ef2b46521d7a7d9e736dc3972e4928
     Pseudo is Ultrasoft + core correction, Zval = 15.0
     Generated by new atomic code, or converted to UPF format
     Using radial grid of  859 points,  6 beta functions with:
                l(1) =   0
                l(2) =   0
                l(3) =   1
                l(4) =   1
                l(5) =   2
                l(6) =   2
     Q(r) pseudized with  8 coefficients,  rinner =    0.950   0.950   0.950
                                                       0.950   0.950

     PseudoPot. # 3 for Ni read from file:
     /lustre07/scratch/pragov/crystal_structure_design/utils/SSSP/ni_pbe_v1.4.uspp.F.UPF
     MD5 check sum: 1ee80287db30b12d2bc1f57a5b5d6409
     Pseudo is Ultrasoft + core correction, Zval = 18.0
     Generated by new atomic code, or converted to UPF format
     Using radial grid of  865 points,  6 beta functions with:
                l(1) =   0
                l(2) =   0
                l(3) =   1
                l(4) =   1
                l(5) =   2
                l(6) =   2
     Q(r) pseudized with 10 coefficients,  rinner =    0.980   0.980   0.980
                                                       0.980   0.980

     PseudoPot. # 4 for O  read from file:
     /lustre07/scratch/pragov/crystal_structure_design/utils/SSSP/O.pbe-n-kjpaw_psl.0.1.UPF
     MD5 check sum: 0234752ac141de4415c5fc33072bef88
     Pseudo is Projector augmented-wave + core cor, Zval =  6.0
     Generated using "atomic" code by A. Dal Corso  v.5.0.99 svn rev. 10869
     Shape of augmentation charge: BESSEL
     Using radial grid of 1095 points,  4 beta functions with:
                l(1) =   0
                l(2) =   0
                l(3) =   1
                l(4) =   1
     Q(r) pseudized with 0 coefficients

     atomic species   valence    mass     pseudopotential
        Ho            21.00   164.93033     Ho( 1.00)
        Mn            15.00    54.93804     Mn( 1.00)
        Ni            18.00    58.69340     Ni( 1.00)
        O              6.00    15.99900     O ( 1.00)

      4 Sym. Ops., with inversion, found ( 2 have fractional translation)

                                    s                        frac. trans.

      isym =  1     identity

 cryst.   s( 1) = (     1          0          0      )
                  (     0          1          0      )
                  (     0          0          1      )

 cart.    s( 1) = (  1.0000000  0.0000000  0.0000000 )
                  (  0.0000000  1.0000000  0.0000000 )
                  (  0.0000000  0.0000000  1.0000000 )

      isym =  2     180 deg rotation - cart. axis [1,0,0]

 cryst.   s( 2) = (     1          0          0      )    f =(  0.5000000 )
                  (     0         -1          0      )       ( -0.0000000 )
                  (     0          0         -1      )       ( -0.5000000 )

 cart.    s( 2) = (  1.0000000  0.0000000  0.0000000 )    f =(  0.5000000 )
                  (  0.0000000 -1.0000000 -0.0000000 )       ( -0.4606005 )
                  (  0.0000000  0.0000000 -1.0000000 )       ( -0.6760337 )

      isym =  3     inversion

 cryst.   s( 3) = (    -1          0          0      )
                  (     0         -1          0      )
                  (     0          0         -1      )

 cart.    s( 3) = ( -1.0000000  0.0000000  0.0000000 )
                  (  0.0000000 -1.0000000 -0.0000000 )
                  (  0.0000000  0.0000000 -1.0000000 )

      isym =  4     inv. 180 deg rotation - cart. axis [1,0,0]

 cryst.   s( 4) = (    -1          0          0      )    f =( -0.5000000 )
                  (     0          1          0      )       (  0.0000000 )
                  (     0          0          1      )       (  0.5000000 )

 cart.    s( 4) = ( -1.0000000  0.0000000  0.0000000 )    f =( -0.5000000 )
                  (  0.0000000  1.0000000  0.0000000 )       (  0.4606005 )
                  (  0.0000000  0.0000000  1.0000000 )       (  0.6760337 )

   Cartesian axes

     site n.     atom                  positions (alat units)
         1           Ho  tau(   1) = (   0.0706820   1.3749247   1.0181595  )
         2           Ho  tau(   2) = (   0.9293180   0.4850701   0.3339079  )
         3           Ho  tau(   3) = (   0.5706820   0.9456705   1.0099417  )
         4           Ho  tau(   4) = (   0.4293180   0.9143242   0.3421258  )
         5           Mn  tau(   5) = (   0.5000000   0.4606005   0.6760337  )
         6           Mn  tau(   6) = (   0.0000000   0.0000000   0.0000000  )
         7           Ni  tau(   7) = (   0.5000000   0.4693969   0.0000000  )
         8           Ni  tau(   8) = (   0.0000000   0.9299974   0.6760337  )
         9           O   tau(   9) = (   0.4584210   1.5008594   1.0036451  )
        10           O   tau(  10) = (   0.5415790   0.3591354   0.3484224  )
        11           O   tau(  11) = (   0.9584210   0.8197359   1.0244561  )
        12           O   tau(  12) = (   0.0415790   1.0402589   0.3276114  )
        13           O   tau(  13) = (   0.7908980   1.2243157   0.7593049  )
        14           O   tau(  14) = (   0.2091020   0.6356791   0.5927626  )
        15           O   tau(  15) = (   0.2908980   1.0962795   1.2687963  )
        16           O   tau(  16) = (   0.7091020   0.7637152   0.0832711  )
        17           O   tau(  17) = (   0.3115310   1.1180921   0.7461709  )
        18           O   tau(  18) = (   0.6884690   0.7419026   0.6058966  )
        19           O   tau(  19) = (   0.8115310   1.2025031   1.2819303  )
        20           O   tau(  20) = (   0.1884690   0.6574917   0.0701371  )

   Crystallographic axes

     site n.     atom                  positions (cryst. coord.)
         1           Ho  tau(   1) = (  0.0706820  0.7256380  0.7530390  )
         2           Ho  tau(   2) = (  0.9293180  0.2743620  0.2469610  )
         3           Ho  tau(   3) = (  0.5706820  0.2743620  0.7469610  )
         4           Ho  tau(   4) = (  0.4293180  0.7256380  0.2530390  )
         5           Mn  tau(   5) = (  0.5000000  0.0000000  0.5000000  )
         6           Mn  tau(   6) = (  0.0000000  0.0000000  0.0000000  )
         7           Ni  tau(   7) = (  0.5000000  0.5000000  0.0000000  )
         8           Ni  tau(   8) = (  0.0000000  0.5000000  0.5000000  )
         9           O   tau(   9) = (  0.4584210  0.8703170  0.7423040  )
        10           O   tau(  10) = (  0.5415790  0.1296830  0.2576960  )
        11           O   tau(  11) = (  0.9584210  0.1296830  0.7576960  )
        12           O   tau(  12) = (  0.0415790  0.8703170  0.2423040  )
        13           O   tau(  13) = (  0.7908980  0.7530730  0.5615880  )
        14           O   tau(  14) = (  0.2091020  0.2469270  0.4384120  )
        15           O   tau(  15) = (  0.2908980  0.2469270  0.9384120  )
        16           O   tau(  16) = (  0.7091020  0.7530730  0.0615880  )
        17           O   tau(  17) = (  0.3115310  0.6494560  0.5518740  )
        18           O   tau(  18) = (  0.6884690  0.3505440  0.4481260  )
        19           O   tau(  19) = (  0.8115310  0.3505440  0.9481260  )
        20           O   tau(  20) = (  0.1884690  0.6494560  0.0518740  )

     number of k points=    10
                       cart. coord. in units 2pi/alat
        k(    1) = (   0.0000000   0.0000000   0.0000000), wk =   0.0740741
        k(    2) = (   0.0000000   0.0000000   0.2465360), wk =   0.1481481
        k(    3) = (   0.0000000   0.3550655  -0.2419160), wk =   0.1481481
        k(    4) = (   0.0000000   0.3550655   0.0046201), wk =   0.1481481
        k(    5) = (   0.0000000   0.3550655  -0.4884520), wk =   0.1481481
        k(    6) = (   0.3333333   0.0000000   0.0000000), wk =   0.1481481
        k(    7) = (   0.3333333   0.0000000   0.2465360), wk =   0.2962963
        k(    8) = (   0.3333333   0.3550655  -0.2419160), wk =   0.2962963
        k(    9) = (   0.3333333   0.3550655   0.0046201), wk =   0.2962963
        k(   10) = (   0.3333333   0.3550655  -0.4884520), wk =   0.2962963

                       cryst. coord.
        k(    1) = (   0.0000000   0.0000000   0.0000000), wk =   0.0740741
        k(    2) = (   0.0000000   0.0000000   0.3333333), wk =   0.1481481
        k(    3) = (   0.0000000   0.3333333   0.0000000), wk =   0.1481481
        k(    4) = (   0.0000000   0.3333333   0.3333333), wk =   0.1481481
        k(    5) = (   0.0000000   0.3333333  -0.3333333), wk =   0.1481481
        k(    6) = (   0.3333333   0.0000000   0.0000000), wk =   0.1481481
        k(    7) = (   0.3333333   0.0000000   0.3333333), wk =   0.2962963
        k(    8) = (   0.3333333   0.3333333   0.0000000), wk =   0.2962963
        k(    9) = (   0.3333333   0.3333333   0.3333333), wk =   0.2962963
        k(   10) = (   0.3333333   0.3333333  -0.3333333), wk =   0.2962963

     Check: negative core charge=   -0.000020

     Initial potential from superposition of free atoms

     starting charge     216.9827, renormalised to     222.0000
     Starting wfcs are  228 randomized atomic wfcs +   28 random wfcs
     Checking if some PAW data can be deallocated...

     Self-consistent Calculation

     iteration #  1     ecut=    30.00 Ry     beta= 0.70
     Davidson diagonalization with overlap

     ethr =  1.00E-02,  avg # of iterations =  6.7

     total energy              =   -4903.89723060 Ry
     estimated scf accuracy    <      31.01071416 Ry

[...]

     total energy              =   -4926.86899915 Ry
     estimated scf accuracy    <       0.00000356 Ry

     iteration # 74     ecut=    30.00 Ry     beta= 0.70
     Davidson diagonalization with overlap

     ethr =  9.23E-10,  avg # of iterations =  1.0

     End of self-consistent calculation

          k = 0.0000 0.0000 0.0000 (  4207 PWs)   bands (ev):

   -90.5037 -90.5017 -66.8101 -66.8098 -50.8864 -50.8857 -50.8148 -50.8079
   -50.7784 -50.7764 -35.5853 -35.5841 -35.4875 -35.4852 -35.4822 -35.4799
   -32.8046 -32.7969 -32.7855 -32.7793  -8.7110  -8.7026  -8.6720  -8.6219
    -8.5099  -8.1711  -8.0933  -8.0359  -7.9872  -7.9631  -7.9545  -7.8922
    -5.9106  -4.9254  -4.8990  -4.6881  -4.6621  -4.4110  -4.3977  -4.3822
    -4.0485  -4.0173  -3.8925  -3.8344   6.7038   6.8668   7.2650   7.4511
     7.9157   7.9784   8.0256   8.1727   8.2325   8.3830   8.4249   8.5116
     8.5597   8.6543   8.7097   9.0145   9.0885   9.1748   9.4067   9.4532
     9.6560   9.6851   9.8019   9.9563  10.2444  10.3349  10.3494  10.3946
    10.5099  10.6055  10.6902  10.8067  11.1427  11.2830  11.3486  11.5069
    11.6364  11.6823  11.7473  11.8290  12.0380  12.0808  12.3861  12.4750
    12.6409  12.8960  13.0297  13.0706  13.1651  13.1781  13.1789  13.1814
    13.1974  13.2116  13.2227  13.2229  13.2259  13.2269  13.2626  13.2693
    13.2739  13.2908  13.3012  13.3243  13.3277  13.3384  13.3410  13.3567
    13.3846  13.3885  13.4241  13.4324  13.4766  13.4907  13.5257  13.6050
    13.6340  13.6960  13.7966  13.9752  15.3218  16.0496  16.1262  16.1604
    17.7771  18.7112  18.8139  19.0857  19.1620  19.2057  19.3957  19.9860
    20.2271  20.3301  20.6265  20.6271  20.6843  20.9837  21.1188  21.1988
    21.4997  21.6534  21.7456  21.9142  22.0191  22.0789  22.1411  23.6828
    23.7543  24.1132  24.1417  24.8368  25.1057  25.8351  26.2192  26.3988
    26.4075  26.8043  26.8599  26.8941  27.5215  27.6319  27.9415  28.0591
    28.3001  28.3098  28.8691  29.3082  29.3926  29.8437  30.0952  30.3102
    30.6317  31.1627  31.4950  31.5924  31.6054  31.6410  31.9427  32.2105
    32.2724  33.6769  33.8942  33.9570  34.1586  34.2337  34.3776  34.3974
    34.7161  35.0730  35.1933  35.3327  35.3642  35.9036  36.4795  36.9401
    36.9925  37.4709  37.5682  37.7528  37.8357  38.1136  38.2347  38.7985
    38.9018  38.9251  39.6346  40.0569  40.0663  40.0844  40.1531  40.3901
    40.5141  40.7531  40.9111  41.3170  41.5276  42.2688  42.4694  42.4745
    42.5770  42.6738  42.9384  43.3014  43.3168  43.5947  43.6603  43.7556
    43.9735  44.0507  44.4467  44.5066  45.0456  45.0460  45.0939  45.6789
    45.7238  46.3256  46.4836  46.5164  46.5256  46.6864  46.8388  47.2945
    47.3397  47.5974  47.7010  47.7114  48.0595  48.0764  48.2969  48.4267

     occupation numbers
     1.0000   1.0000   1.0000   1.0000   1.0000   1.0000   1.0000   1.0000
     1.0000   1.0000   1.0000   1.0000   1.0000   1.0000   1.0000   1.0000
     1.0000   1.0000   1.0000   1.0000   1.0000   1.0000   1.0000   1.0000
     1.0000   1.0000   1.0000   1.0000   1.0000   1.0000   1.0000   1.0000
     1.0000   1.0000   1.0000   1.0000   1.0000   1.0000   1.0000   1.0000
     1.0000   1.0000   1.0000   1.0000   1.0000   1.0000   1.0000   1.0000
     1.0000   1.0000   1.0000   1.0000   1.0000   1.0000   1.0000   1.0000
     1.0000   1.0000   1.0000   1.0000   1.0000   1.0000   1.0000   1.0000
     1.0000   1.0000   1.0000   1.0000   1.0000   1.0000   1.0000   1.0000
     1.0000   1.0000   1.0000   1.0000   1.0000   1.0000   1.0000   1.0000
     1.0000   1.0000   1.0000   1.0000   1.0000   1.0000   1.0000   1.0000
     1.0000   1.0000   1.0000   1.0000   1.0000   1.0000   1.0000   1.0000
     1.0000   1.0000   1.0000   1.0000   1.0000   1.0000   1.0000   1.0000
     1.0000   1.0000   1.0000   1.0000   1.0000   1.0000   1.0000   0.0000
     0.0000   0.0000   0.0000   0.0000   0.0000   0.0000   0.0000   0.0000
     0.0000   0.0000   0.0000   0.0000   0.0000   0.0000   0.0000   0.0000
     0.0000   0.0000   0.0000   0.0000   0.0000   0.0000   0.0000   0.0000
     0.0000   0.0000   0.0000   0.0000   0.0000   0.0000   0.0000   0.0000
     0.0000   0.0000   0.0000   0.0000   0.0000   0.0000   0.0000   0.0000
     0.0000   0.0000   0.0000   0.0000   0.0000   0.0000   0.0000   0.0000
     0.0000   0.0000   0.0000   0.0000   0.0000   0.0000   0.0000   0.0000
     0.0000   0.0000   0.0000   0.0000   0.0000   0.0000   0.0000   0.0000
     0.0000   0.0000   0.0000   0.0000   0.0000   0.0000   0.0000   0.0000
     0.0000   0.0000   0.0000   0.0000   0.0000   0.0000   0.0000   0.0000
     0.0000   0.0000   0.0000   0.0000   0.0000   0.0000   0.0000   0.0000
     0.0000   0.0000   0.0000   0.0000   0.0000   0.0000   0.0000   0.0000
     0.0000   0.0000   0.0000   0.0000   0.0000   0.0000   0.0000   0.0000
     0.0000   0.0000   0.0000   0.0000   0.0000   0.0000   0.0000   0.0000
     0.0000   0.0000   0.0000   0.0000   0.0000   0.0000   0.0000   0.0000
     0.0000   0.0000   0.0000   0.0000   0.0000   0.0000   0.0000   0.0000
     0.0000   0.0000   0.0000   0.0000   0.0000   0.0000   0.0000   0.0000
     0.0000   0.0000   0.0000   0.0000   0.0000   0.0000   0.0000   0.0000

[...]

          k = 0.3333 0.3551-0.4885 (  4183 PWs)   bands (ev):

   -90.5019 -90.5016 -66.8098 -66.8097 -50.8854 -50.8848 -50.8072 -50.8061
   -50.7759 -50.7749 -35.5840 -35.5834 -35.4853 -35.4847 -35.4793 -35.4786
   -32.7955 -32.7936 -32.7891 -32.7874  -8.8016  -8.7009  -8.6739  -8.5787
    -8.3630  -8.3150  -8.1660  -8.1306  -8.0859  -8.0300  -7.9555  -7.9396
    -5.0639  -4.8464  -4.6770  -4.6535  -4.5562  -4.5342  -4.4095  -4.3928
    -4.2176  -4.1635  -4.0074  -3.9548   7.0691   7.1304   7.4087   7.5177
     7.7853   7.9730   8.0372   8.0651   8.2359   8.2970   8.3868   8.4715
     8.6051   8.6358   8.6740   8.8544   8.8863   8.9788   9.2251   9.4459
     9.5444   9.6450   9.8397   9.8772   9.9354  10.1781  10.2196  10.3337
    10.4199  10.4640  10.6891  10.7095  10.7652  10.8435  10.8963  11.0603
    11.9362  12.0105  12.1123  12.1738  12.2096  12.2272  12.6574  12.8566
    12.9769  13.0020  13.0239  13.1078  13.1693  13.1767  13.1859  13.1954
    13.2091  13.2212  13.2314  13.2402  13.2473  13.2502  13.2666  13.2726
    13.2858  13.2950  13.3062  13.3118  13.3254  13.3271  13.3404  13.3536
    13.3686  13.4060  13.4536  13.4659  13.4714  13.5203  13.5563  13.5948
    13.6506  13.7308  13.7594  13.7906  15.3396  15.4473  15.7071  15.8901
    19.0309  19.0561  19.2546  19.3517  19.4042  19.6303  19.8085  19.8714
    20.1667  20.2676  20.3295  20.4354  20.8142  20.9011  20.9565  21.3075
    21.3976  21.5685  21.8375  22.0011  22.1767  22.3567  22.9001  23.1811
    23.5462  23.9273  24.5158  24.8593  25.0057  25.3329  25.9358  26.3518
    26.6214  27.2560  27.3313  27.5357  27.7150  27.8432  28.1267  28.2971
    28.5884  28.7472  28.8245  29.0864  29.2071  29.4375  29.9955  30.1140
    30.3307  30.6736  30.7474  30.9953  31.1918  31.4693  31.5504  31.7672
    32.0687  32.3422  32.6494  33.2980  33.5512  33.7244  34.1987  34.5021
    35.3570  35.6986  35.8570  36.1380  36.2974  36.5494  36.7512  36.9911
    37.2758  37.5081  37.7464  38.0555  38.3932  38.4993  38.6395  38.8689
    39.1608  39.1997  39.5321  39.7878  39.9342  40.0518  40.4360  40.5450
    40.8145  41.0578  41.2383  41.5160  41.6740  41.7632  41.8815  41.9857
    42.2773  42.6011  42.9108  43.0235  43.2633  43.3900  43.4927  43.8665
    43.9607  44.1993  44.4709  44.6708  44.8115  45.1891  45.2069  45.4548
    45.6703  45.9136  46.0363  46.3750  46.3981  46.5808  46.6941  46.8720
    47.0257  47.3341  47.3678  47.8398  48.0265  48.0715  48.2391  48.4197

     occupation numbers
     1.0000   1.0000   1.0000   1.0000   1.0000   1.0000   1.0000   1.0000
     1.0000   1.0000   1.0000   1.0000   1.0000   1.0000   1.0000   1.0000
     1.0000   1.0000   1.0000   1.0000   1.0000   1.0000   1.0000   1.0000
     1.0000   1.0000   1.0000   1.0000   1.0000   1.0000   1.0000   1.0000
     1.0000   1.0000   1.0000   1.0000   1.0000   1.0000   1.0000   1.0000
     1.0000   1.0000   1.0000   1.0000   1.0000   1.0000   1.0000   1.0000
     1.0000   1.0000   1.0000   1.0000   1.0000   1.0000   1.0000   1.0000
     1.0000   1.0000   1.0000   1.0000   1.0000   1.0000   1.0000   1.0000
     1.0000   1.0000   1.0000   1.0000   1.0000   1.0000   1.0000   1.0000
     1.0000   1.0000   1.0000   1.0000   1.0000   1.0000   1.0000   1.0000
     1.0000   1.0000   1.0000   1.0000   1.0000   1.0000   1.0000   1.0000
     1.0000   1.0000   1.0000   1.0000   1.0000   1.0000   1.0000   1.0000
     1.0000   1.0000   1.0000   1.0000   1.0000   1.0000   1.0000   1.0000
     1.0000   1.0000   1.0000   1.0000   1.0000   1.0000   1.0000   0.0000
     0.0000   0.0000   0.0000   0.0000   0.0000   0.0000   0.0000   0.0000
     0.0000   0.0000   0.0000   0.0000   0.0000   0.0000   0.0000   0.0000
     0.0000   0.0000   0.0000   0.0000   0.0000   0.0000   0.0000   0.0000
     0.0000   0.0000   0.0000   0.0000   0.0000   0.0000   0.0000   0.0000
     0.0000   0.0000   0.0000   0.0000   0.0000   0.0000   0.0000   0.0000
     0.0000   0.0000   0.0000   0.0000   0.0000   0.0000   0.0000   0.0000
     0.0000   0.0000   0.0000   0.0000   0.0000   0.0000   0.0000   0.0000
     0.0000   0.0000   0.0000   0.0000   0.0000   0.0000   0.0000   0.0000
     0.0000   0.0000   0.0000   0.0000   0.0000   0.0000   0.0000   0.0000
     0.0000   0.0000   0.0000   0.0000   0.0000   0.0000   0.0000   0.0000
     0.0000   0.0000   0.0000   0.0000   0.0000   0.0000   0.0000   0.0000
     0.0000   0.0000   0.0000   0.0000   0.0000   0.0000   0.0000   0.0000
     0.0000   0.0000   0.0000   0.0000   0.0000   0.0000   0.0000   0.0000
     0.0000   0.0000   0.0000   0.0000   0.0000   0.0000   0.0000   0.0000
     0.0000   0.0000   0.0000   0.0000   0.0000   0.0000   0.0000   0.0000
     0.0000   0.0000   0.0000   0.0000   0.0000   0.0000   0.0000   0.0000
     0.0000   0.0000   0.0000   0.0000   0.0000   0.0000   0.0000   0.0000
     0.0000   0.0000   0.0000   0.0000   0.0000   0.0000   0.0000   0.0000

     highest occupied, lowest unoccupied level (ev):    13.3650   13.3536

!    total energy              =   -4926.86899884 Ry
     estimated scf accuracy    <       0.00000061 Ry

     The total energy is the sum of the following terms:
     one-electron contribution =   -1436.89209508 Ry
     hartree contribution      =     839.77068942 Ry
     xc contribution           =    -334.17116419 Ry
     ewald contribution        =   -1940.81083764 Ry
     one-center paw contrib.   =   -2054.76559136 Ry
      -> PAW hartree energy AE =     885.04893095 Ry
      -> PAW hartree energy PS =    -809.62599443 Ry
      -> PAW xc energy AE      =   -1618.10790683 Ry
      -> PAW xc energy PS      =      87.34331872 Ry
      -> total E_H with PAW    =     915.19362595 Ry
      -> total E_XC with PAW   =   -1864.93575230 Ry

     convergence has been achieved in  74 iterations

     Writing all to output data dir bands_nm/myprefix.save/

     General routines

     Parallel routines

     PAW routines

   This run was terminated on:  22:53:56  15Jul2023

   JOB DONE.