     Program PWSCF v.7.1 starts on 15Jul2023 at 21:15:46

     Reading input from espresso_8556.pwi
Warning: card &CELL ignored
Warning: card / ignored

     Current dimensions of program PWSCF are:
     Max number of different atomic species (ntypx) = 10
     Max number of k-points (npk) =  40000
     Max angular momentum in pseudopotentials (lmaxx) =  4
     file O.pbe-n-kjpaw_psl.0.1.UPF: wavefunction(s)  2P renormalized
     Message from routine setup:
     using ibrav=0 with symmetry is DISCOURAGED, use correct ibrav instead

     K-points division:     npool     =       2
     R & G space division:  proc/nbgrp/npool/nimage =       4
     Subspace diagonalization in iterative solution of the eigenvalue problem:
     one sub-group per band group will be used

     Using Slab Decomposition

     bravais-lattice index     =            0
     lattice parameter (alat)  =       8.7120  a.u.
     unit-cell volume          =    1313.8232 (a.u.)^3
     number of atoms/cell      =           18
     number of atomic types    =            3
     number of electrons       =       158.00
     number of Kohn-Sham states=          256
     kinetic-energy cutoff     =      30.0000  Ry
     charge density cutoff     =     240.0000  Ry
     scf convergence threshold =      1.0E-06
     mixing beta               =       0.7000
     number of iterations used =            8  plain     mixing
     Exchange-correlation= SLA  PW   PBX  PBC
                           (   1   4   3   4   0   0   0)

     celldm(1)=   8.712027  celldm(2)=   0.000000  celldm(3)=   0.000000
     celldm(4)=   0.000000  celldm(5)=   0.000000  celldm(6)=   0.000000

     crystal axes: (cart. coord. in units of alat)
               a(1) = (   1.000000   0.000000   0.000000 )
               a(2) = (   0.000000   1.000000   0.000000 )
               a(3) = (   0.000000   0.000000   1.986915 )

     reciprocal axes: (cart. coord. in units 2 pi/alat)
               b(1) = (  1.000000  0.000000  0.000000 )
               b(2) = (  0.000000  1.000000  0.000000 )
               b(3) = (  0.000000  0.000000  0.503293 )

     PseudoPot. # 1 for Cr read from file:
     /lustre07/scratch/pragov/crystal_structure_design/utils/SSSP/cr_pbe_v1.5.uspp.F.UPF
     MD5 check sum: 0d52af634a40206e4dee301ad30da4bf
     Pseudo is Ultrasoft + core correction, Zval = 14.0
     Generated by new atomic code, or converted to UPF format
     Using radial grid of  857 points,  6 beta functions with:
                l(1) =   0
                l(2) =   0
                l(3) =   1
                l(4) =   1
                l(5) =   2
                l(6) =   2
     Q(r) pseudized with  8 coefficients,  rinner =    0.950   0.950   0.950
                                                       0.950   0.950

     PseudoPot. # 2 for Re read from file:
     /lustre07/scratch/pragov/crystal_structure_design/utils/SSSP/Re_pbe_v1.2.uspp.F.UPF
     MD5 check sum: 85f993410f3e006da9d71c142b4ad953
     Pseudo is Ultrasoft + core correction, Zval = 15.0
     Generated by new atomic code, or converted to UPF format
     Using radial grid of  981 points,  8 beta functions with:
                l(1) =   0
                l(2) =   0
                l(3) =   1
                l(4) =   1
                l(5) =   2
                l(6) =   2
                l(7) =   3
                l(8) =   3
     Q(r) pseudized with  8 coefficients,  rinner =    1.150   1.150   1.150
                                                       1.150   1.150   1.150
                                                       1.150

     PseudoPot. # 3 for O  read from file:
     /lustre07/scratch/pragov/crystal_structure_design/utils/SSSP/O.pbe-n-kjpaw_psl.0.1.UPF
     MD5 check sum: 0234752ac141de4415c5fc33072bef88
     Pseudo is Projector augmented-wave + core cor, Zval =  6.0
     Generated using "atomic" code by A. Dal Corso  v.5.0.99 svn rev. 10869
     Shape of augmentation charge: BESSEL
     Using radial grid of 1095 points,  4 beta functions with:
                l(1) =   0
                l(2) =   0
                l(3) =   1
                l(4) =   1
     Q(r) pseudized with 0 coefficients

     atomic species   valence    mass     pseudopotential
        Cr            14.00    51.99610     Cr( 1.00)
        Re            15.00   186.20700     Re( 1.00)
        O              6.00    15.99900     O ( 1.00)

     16 Sym. Ops., with inversion, found ( 8 have fractional translation)

                                    s                        frac. trans.

      isym =  1     identity

 cryst.   s( 1) = (     1          0          0      )
                  (     0          1          0      )
                  (     0          0          1      )

 cart.    s( 1) = (  1.0000000  0.0000000  0.0000000 )
                  (  0.0000000  1.0000000  0.0000000 )
                  (  0.0000000  0.0000000  1.0000000 )

      isym =  2     180 deg rotation - cart. axis [0,0,1]

[...]

 cryst.   s( 3) = (    -1          0          0      )    f =(  0.5000000 )
                  (     0          1          0      )       ( -0.5000000 )
                  (     0          0         -1      )       ( -0.5000000 )

 cart.    s( 3) = ( -1.0000000  0.0000000  0.0000000 )    f =(  0.5000000 )
                  (  0.0000000  1.0000000  0.0000000 )       ( -0.5000000 )
                  (  0.0000000  0.0000000 -1.0000000 )       ( -0.9934576 )

[...]

      isym =  8      90 deg rotation - cart. axis [0,0,1]

 cryst.   s( 8) = (     0          1          0      )    f =(  0.5000000 )
                  (    -1          0          0      )       ( -0.5000000 )
                  (     0          0          1      )       ( -0.5000000 )

 cart.    s( 8) = (  0.0000000 -1.0000000  0.0000000 )    f =(  0.5000000 )
                  (  1.0000000  0.0000000  0.0000000 )       ( -0.5000000 )
                  (  0.0000000  0.0000000  1.0000000 )       ( -0.9934576 )

      isym =  9     inversion

 cryst.   s( 9) = (    -1          0          0      )
                  (     0         -1          0      )
                  (     0          0         -1      )

 cart.    s( 9) = ( -1.0000000  0.0000000  0.0000000 )
                  (  0.0000000 -1.0000000  0.0000000 )
                  (  0.0000000  0.0000000 -1.0000000 )

      isym = 10     inv. 180 deg rotation - cart. axis [0,0,1]

 cryst.   s(10) = (     1          0          0      )
                  (     0          1          0      )
                  (     0          0         -1      )

 cart.    s(10) = (  1.0000000  0.0000000  0.0000000 )
                  (  0.0000000  1.0000000  0.0000000 )
                  (  0.0000000  0.0000000 -1.0000000 )

[...]

 cryst.   s(11) = (     1          0          0      )    f =( -0.5000000 )
                  (     0         -1          0      )       (  0.5000000 )
                  (     0          0          1      )       ( -0.5000000 )

 cart.    s(11) = (  1.0000000  0.0000000  0.0000000 )    f =( -0.5000000 )
                  (  0.0000000 -1.0000000  0.0000000 )       (  0.5000000 )
                  (  0.0000000  0.0000000  1.0000000 )       ( -0.9934576 )

[...]

 cryst.   s(14) = (     0          1          0      )
                  (     1          0          0      )
                  (     0          0          1      )

 cart.    s(14) = (  0.0000000  1.0000000  0.0000000 )
                  (  1.0000000  0.0000000  0.0000000 )
                  (  0.0000000  0.0000000  1.0000000 )

[...]

      isym = 16     inv.  90 deg rotation - cart. axis [0,0,1]

 cryst.   s(16) = (     0         -1          0      )    f =( -0.5000000 )
                  (     1          0          0      )       (  0.5000000 )
                  (     0          0         -1      )       ( -0.5000000 )

 cart.    s(16) = (  0.0000000  1.0000000  0.0000000 )    f =( -0.5000000 )
                  ( -1.0000000  0.0000000  0.0000000 )       (  0.5000000 )
                  (  0.0000000  0.0000000 -1.0000000 )       ( -0.9934576 )

   Cartesian axes

     site n.     atom                  positions (alat units)
         1           Cr  tau(   1) = (   0.0000000   0.0000000   0.6637707  )
         2           Cr  tau(   2) = (   0.5000000   0.5000000   1.6572283  )
         3           Cr  tau(   3) = (   0.0000000   0.0000000   1.3231444  )
         4           Cr  tau(   4) = (   0.5000000   0.5000000   0.3296868  )
         5           Re  tau(   5) = (   0.0000000   0.0000000   0.0000000  )
         6           Re  tau(   6) = (   0.5000000   0.5000000   0.9934576  )
         7           O   tau(   7) = (   0.6921760   0.6921760   1.3153060  )
         8           O   tau(   8) = (   0.3078240   0.3078240   1.3153060  )
         9           O   tau(   9) = (   0.6921760   0.6921760   0.6716091  )
        10           O   tau(  10) = (   0.1921760   0.8078240   0.3218485  )
        11           O   tau(  11) = (   0.8078240   0.1921760   0.3218485  )
        12           O   tau(  12) = (   0.8078240   0.1921760   1.6650667  )
        13           O   tau(  13) = (   0.2948090   0.2948090   0.0000000  )
        14           O   tau(  14) = (   0.2051910   0.7948090   0.9934576  )
        15           O   tau(  15) = (   0.7948090   0.2051910   0.9934576  )
        16           O   tau(  16) = (   0.1921760   0.8078240   1.6650667  )
        17           O   tau(  17) = (   0.3078240   0.3078240   0.6716091  )
        18           O   tau(  18) = (   0.7051910   0.7051910   0.0000000  )

   Crystallographic axes

     site n.     atom                  positions (cryst. coord.)
         1           Cr  tau(   1) = (  0.0000000  0.0000000  0.3340710  )
         2           Cr  tau(   2) = (  0.5000000  0.5000000  0.8340710  )
         3           Cr  tau(   3) = (  0.0000000  0.0000000  0.6659290  )
         4           Cr  tau(   4) = (  0.5000000  0.5000000  0.1659290  )
         5           Re  tau(   5) = (  0.0000000  0.0000000  0.0000000  )
         6           Re  tau(   6) = (  0.5000000  0.5000000  0.5000000  )
         7           O   tau(   7) = (  0.6921760  0.6921760  0.6619840  )
         8           O   tau(   8) = (  0.3078240  0.3078240  0.6619840  )
         9           O   tau(   9) = (  0.6921760  0.6921760  0.3380160  )
        10           O   tau(  10) = (  0.1921760  0.8078240  0.1619840  )
        11           O   tau(  11) = (  0.8078240  0.1921760  0.1619840  )
        12           O   tau(  12) = (  0.8078240  0.1921760  0.8380160  )
        13           O   tau(  13) = (  0.2948090  0.2948090  0.0000000  )
        14           O   tau(  14) = (  0.2051910  0.7948090  0.5000000  )
        15           O   tau(  15) = (  0.7948090  0.2051910  0.5000000  )
        16           O   tau(  16) = (  0.1921760  0.8078240  0.8380160  )
        17           O   tau(  17) = (  0.3078240  0.3078240  0.3380160  )
        18           O   tau(  18) = (  0.7051910  0.7051910  0.0000000  )

     number of k points=     6
                       cart. coord. in units 2pi/alat
        k(    1) = (   0.0000000   0.0000000   0.0000000), wk =   0.0740741
        k(    2) = (   0.0000000   0.0000000   0.1677643), wk =   0.1481481
        k(    3) = (   0.0000000   0.3333333   0.0000000), wk =   0.2962963
        k(    4) = (   0.0000000   0.3333333   0.1677643), wk =   0.5925926
        k(    5) = (   0.3333333   0.3333333   0.0000000), wk =   0.2962963
        k(    6) = (   0.3333333   0.3333333   0.1677643), wk =   0.5925926

                       cryst. coord.
        k(    1) = (   0.0000000   0.0000000   0.0000000), wk =   0.0740741
        k(    2) = (   0.0000000   0.0000000   0.3333333), wk =   0.1481481
        k(    3) = (   0.0000000   0.3333333   0.0000000), wk =   0.2962963
        k(    4) = (   0.0000000   0.3333333   0.3333333), wk =   0.5925926
        k(    5) = (   0.3333333   0.3333333   0.0000000), wk =   0.2962963
        k(    6) = (   0.3333333   0.3333333   0.3333333), wk =   0.5925926

     Check: negative core charge=   -0.000017

     Initial potential from superposition of free atoms

     starting charge     152.9998, renormalised to     158.0000

     negative rho (up, down):  2.628E-01 0.000E+00
     Starting wfcs are  114 randomized atomic wfcs +  142 random wfcs
     Checking if some PAW data can be deallocated...

     Self-consistent Calculation

     iteration #  1     ecut=    30.00 Ry     beta= 0.70
     Davidson diagonalization with overlap

     ethr =  1.00E-02,  avg # of iterations =  6.0

     negative rho (up, down):  3.098E-01 0.000E+00

     total energy              =   -1577.99672361 Ry
     estimated scf accuracy    <       7.99694318 Ry

[...]

     total energy              =   -1582.79166824 Ry
     estimated scf accuracy    <       0.00000181 Ry

     iteration # 12     ecut=    30.00 Ry     beta= 0.70
     Davidson diagonalization with overlap

     ethr =  6.99E-10,  avg # of iterations =  1.0

     negative rho (up, down):  2.677E-01 0.000E+00

     End of self-consistent calculation

          k = 0.0000 0.0000 0.0000 (  3671 PWs)   bands (ev):

   -70.9052 -70.9052 -61.3499 -61.3486 -61.3465 -61.3451 -32.8463 -32.8398
   -32.7282 -32.7282 -32.7200 -32.7169 -32.6954 -32.6954 -32.6488 -32.6461
   -32.6461 -32.6382 -32.6382 -32.6378 -32.6231 -32.6231 -32.6202 -32.6202
    -9.3310  -8.7530  -8.2621  -8.1250  -8.0470  -7.9702  -7.9702  -7.6377
    -7.4729  -7.4729  -7.4002  -7.4002   2.8754   3.3593   3.6532   3.7067
     4.2257   4.2600   4.2600   4.5797   4.6481   4.8323   5.0075   5.0181
     5.0181   5.5150   5.5684   5.6065   5.6065   6.0819   6.1214   6.6633
     6.6633   6.9474   6.9566   6.9566   7.1570   7.1570   7.6222   7.6222
     7.6559   7.6559   8.1426   8.2077   8.2988   8.7115   8.7115   9.2773
    10.3707  10.6206  10.7618  10.7765  10.8247  10.8247  10.8498  10.9844
    11.1331  11.3374  11.3766  11.5925  11.5925  11.8888  12.2129  12.2129
    12.5125  12.6803  13.0396  13.1052  13.4170  13.4170  13.6678  14.0060
    14.0060  14.0321  16.3841  16.6090  16.8638  16.8638  17.4495  19.3088
    19.3426  20.3236  20.3236  22.7074  22.8854  22.8854  23.3664  23.4665
    23.4665  23.8568  23.8612  24.1169  24.6407  24.6455  24.8559  25.1636
    25.2164  25.5861  25.6141  25.8920  26.1690  26.6054  26.6177  26.6177
    26.6362  26.6362  26.9704  27.9093  27.9093  28.1355  28.2267  29.7398
    30.0477  30.9740  30.9740  31.1694  31.6441  31.6441  33.0549  33.0549
    33.2434  33.3444  33.3444  33.7247  33.9853  33.9853  34.1778  34.8031
    34.8031  34.9888  35.1883  35.7831  35.8470  35.8470  36.8121  36.8457
    37.0495  37.3111  37.3111  37.7497  37.8487  38.0557  38.2063  38.3831
    38.8665  38.8665  39.1675  39.1675  39.2093  39.8745  40.4331  40.5186
    40.7833  40.7833  40.8348  40.8348  41.4542  41.7597  41.7598  42.2866
    42.2866  42.8802  43.3171  43.3171  44.1766  44.1766  44.2132  44.5018
    44.6263  44.6263  45.1346  45.5954  45.9824  46.1170  46.2114  46.2701
    46.3620  46.3620  46.5927  46.8683  46.8685  46.8685  46.9267  47.2894
    47.3061  47.3061  47.4889  47.4889  47.9094  48.2529  48.2529  48.3551
    48.8162  48.8162  49.2241  49.4405  49.8215  49.9516  49.9516  50.1828
    50.1932  50.3196  50.3382  50.3382  51.2253  51.5691  51.5691  51.9915
    52.1059  52.1059  52.1834  52.5414  52.9043  52.9415  52.9415  53.4275
    53.6316  53.8121  54.1582  54.3489  54.3489  55.0336  55.0336  55.6422
    55.7966  56.0779  56.0779  56.8079  56.9943  57.0095  57.0095  57.3461

     occupation numbers
     1.0000   1.0000   1.0000   1.0000   1.0000   1.0000   1.0000   1.0000
     1.0000   1.0000   1.0000   1.0000   1.0000   1.0000   1.0000   1.0000
     1.0000   1.0000   1.0000   1.0000   1.0000   1.0000   1.0000   1.0000
     1.0000   1.0000   1.0000   1.0000   1.0000   1.0000   1.0000   1.0000
     1.0000   1.0000   1.0000   1.0000   1.0000   1.0000   1.0000   1.0000
     1.0000   1.0000   1.0000   1.0000   1.0000   1.0000   1.0000   1.0000
     1.0000   1.0000   1.0000   1.0000   1.0000   1.0000   1.0000   1.0000
     1.0000   1.0000   1.0000   1.0000   1.0000   1.0000   1.0000   1.0000
     1.0000   1.0000   1.0000   1.0000   1.0000   1.0000   1.0000   1.0000
     1.0000   1.0000   1.0000   1.0000   1.0000   1.0000   1.0000   0.0000
     0.0000   0.0000   0.0000   0.0000   0.0000   0.0000   0.0000   0.0000
     0.0000   0.0000   0.0000   0.0000   0.0000   0.0000   0.0000   0.0000
     0.0000   0.0000   0.0000   0.0000   0.0000   0.0000   0.0000   0.0000
     0.0000   0.0000   0.0000   0.0000   0.0000   0.0000   0.0000   0.0000
     0.0000   0.0000   0.0000   0.0000   0.0000   0.0000   0.0000   0.0000
     0.0000   0.0000   0.0000   0.0000   0.0000   0.0000   0.0000   0.0000
     0.0000   0.0000   0.0000   0.0000   0.0000   0.0000   0.0000   0.0000
     0.0000   0.0000   0.0000   0.0000   0.0000   0.0000   0.0000   0.0000
     0.0000   0.0000   0.0000   0.0000   0.0000   0.0000   0.0000   0.0000
     0.0000   0.0000   0.0000   0.0000   0.0000   0.0000   0.0000   0.0000
     0.0000   0.0000   0.0000   0.0000   0.0000   0.0000   0.0000   0.0000
     0.0000   0.0000   0.0000   0.0000   0.0000   0.0000   0.0000   0.0000
     0.0000   0.0000   0.0000   0.0000   0.0000   0.0000   0.0000   0.0000
     0.0000   0.0000   0.0000   0.0000   0.0000   0.0000   0.0000   0.0000
     0.0000   0.0000   0.0000   0.0000   0.0000   0.0000   0.0000   0.0000
     0.0000   0.0000   0.0000   0.0000   0.0000   0.0000   0.0000   0.0000
     0.0000   0.0000   0.0000   0.0000   0.0000   0.0000   0.0000   0.0000
     0.0000   0.0000   0.0000   0.0000   0.0000   0.0000   0.0000   0.0000
     0.0000   0.0000   0.0000   0.0000   0.0000   0.0000   0.0000   0.0000
     0.0000   0.0000   0.0000   0.0000   0.0000   0.0000   0.0000   0.0000
     0.0000   0.0000   0.0000   0.0000   0.0000   0.0000   0.0000   0.0000
     0.0000   0.0000   0.0000   0.0000   0.0000   0.0000   0.0000   0.0000

[...]

          k = 0.3333 0.3333 0.1678 (  3644 PWs)   bands (ev):

   -70.9052 -70.9052 -61.3493 -61.3492 -61.3455 -61.3454 -32.8496 -32.8484
   -32.7301 -32.7296 -32.7007 -32.6978 -32.6944 -32.6881 -32.6586 -32.6564
   -32.6446 -32.6420 -32.6411 -32.6375 -32.6262 -32.6222 -32.6175 -32.6174
    -8.7658  -8.6084  -8.3761  -8.2196  -8.1213  -8.0396  -7.8656  -7.7827
    -7.6072  -7.5394  -7.5366  -7.5087   3.1899   3.3669   3.8256   3.9101
     3.9787   4.0282   4.1372   4.4133   4.6396   4.8037   4.9496   4.9586
     5.1668   5.6036   5.7978   6.0934   6.1571   6.3723   6.5005   6.5340
     6.6549   6.7351   6.9261   6.9713   7.2577   7.2908   7.5192   7.5463
     7.7070   7.7672   7.7798   7.8523   8.1167   8.3189   8.3657   8.4384
    10.6029  10.6522  10.8444  10.8950  10.9651  11.0115  11.1318  11.2688
    11.2715  11.3108  11.3448  11.5083  11.7039  11.7334  11.8446  12.2572
    12.4389  12.5656  12.8773  13.2804  13.4837  13.5204  13.6803  13.7972
    13.9228  13.9745  16.6479  16.6785  16.7751  17.1797  19.2816  19.8297
    20.7106  20.8174  21.2149  21.2212  21.7050  21.8550  21.9158  22.5666
    22.9169  23.1561  23.6244  23.9083  23.9318  24.2417  24.3949  24.6513
    24.7106  25.1851  25.4669  25.7879  26.1725  26.5524  26.6144  27.0612
    27.1333  27.8836  28.0798  28.3690  28.7467  29.1059  29.3481  29.6655
    29.7275  30.2423  30.4172  30.4576  31.2754  31.6653  32.2371  32.3753
    32.5069  33.0449  33.2050  33.2299  33.4288  33.5965  33.7130  34.2014
    34.7911  35.0996  35.2063  35.5808  36.0203  36.4280  36.7970  36.9193
    37.1055  37.4617  37.7869  38.3057  38.3976  38.4844  38.7974  38.9449
    39.1805  39.7305  39.9762  40.0517  40.3083  40.5302  40.8943  41.1336
    41.3593  41.4098  41.5694  41.6374  42.0774  42.2075  42.7370  42.9393
    43.1220  43.2890  43.3314  43.4716  43.5861  44.1382  44.2097  44.3274
    44.7935  45.1108  45.4103  45.7794  45.8203  45.9249  46.1313  46.2193
    46.3936  46.4587  46.6404  46.8501  47.0195  47.1727  47.5224  47.5943
    47.6084  47.6724  47.8469  48.0078  48.0177  48.3816  48.7435  48.7867
    48.8448  49.1912  49.2782  49.4025  49.8208  49.8923  50.0276  50.2126
    50.4572  50.6289  50.7478  50.8912  50.9444  51.3266  51.4922  51.4944
    51.6141  52.0273  52.2612  52.4776  52.7727  53.0367  53.2848  53.6540
    53.9233  54.0068  54.0923  54.2778  54.7797  54.8765  55.1872  55.2152
    55.6678  55.7421  55.8544  56.0534  56.2202  56.4177  56.5153  56.7657

     occupation numbers
     1.0000   1.0000   1.0000   1.0000   1.0000   1.0000   1.0000   1.0000
     1.0000   1.0000   1.0000   1.0000   1.0000   1.0000   1.0000   1.0000
     1.0000   1.0000   1.0000   1.0000   1.0000   1.0000   1.0000   1.0000
     1.0000   1.0000   1.0000   1.0000   1.0000   1.0000   1.0000   1.0000
     1.0000   1.0000   1.0000   1.0000   1.0000   1.0000   1.0000   1.0000
     1.0000   1.0000   1.0000   1.0000   1.0000   1.0000   1.0000   1.0000
     1.0000   1.0000   1.0000   1.0000   1.0000   1.0000   1.0000   1.0000
     1.0000   1.0000   1.0000   1.0000   1.0000   1.0000   1.0000   1.0000
     1.0000   1.0000   1.0000   1.0000   1.0000   1.0000   1.0000   1.0000
     1.0000   1.0000   1.0000   1.0000   1.0000   1.0000   1.0000   0.0000
     0.0000   0.0000   0.0000   0.0000   0.0000   0.0000   0.0000   0.0000
     0.0000   0.0000   0.0000   0.0000   0.0000   0.0000   0.0000   0.0000
     0.0000   0.0000   0.0000   0.0000   0.0000   0.0000   0.0000   0.0000
     0.0000   0.0000   0.0000   0.0000   0.0000   0.0000   0.0000   0.0000
     0.0000   0.0000   0.0000   0.0000   0.0000   0.0000   0.0000   0.0000
     0.0000   0.0000   0.0000   0.0000   0.0000   0.0000   0.0000   0.0000
     0.0000   0.0000   0.0000   0.0000   0.0000   0.0000   0.0000   0.0000
     0.0000   0.0000   0.0000   0.0000   0.0000   0.0000   0.0000   0.0000
     0.0000   0.0000   0.0000   0.0000   0.0000   0.0000   0.0000   0.0000
     0.0000   0.0000   0.0000   0.0000   0.0000   0.0000   0.0000   0.0000
     0.0000   0.0000   0.0000   0.0000   0.0000   0.0000   0.0000   0.0000
     0.0000   0.0000   0.0000   0.0000   0.0000   0.0000   0.0000   0.0000
     0.0000   0.0000   0.0000   0.0000   0.0000   0.0000   0.0000   0.0000
     0.0000   0.0000   0.0000   0.0000   0.0000   0.0000   0.0000   0.0000
     0.0000   0.0000   0.0000   0.0000   0.0000   0.0000   0.0000   0.0000
     0.0000   0.0000   0.0000   0.0000   0.0000   0.0000   0.0000   0.0000
     0.0000   0.0000   0.0000   0.0000   0.0000   0.0000   0.0000   0.0000
     0.0000   0.0000   0.0000   0.0000   0.0000   0.0000   0.0000   0.0000
     0.0000   0.0000   0.0000   0.0000   0.0000   0.0000   0.0000   0.0000
     0.0000   0.0000   0.0000   0.0000   0.0000   0.0000   0.0000   0.0000
     0.0000   0.0000   0.0000   0.0000   0.0000   0.0000   0.0000   0.0000
     0.0000   0.0000   0.0000   0.0000   0.0000   0.0000   0.0000   0.0000

     highest occupied, lowest unoccupied level (ev):    11.1753   10.9844

!    total energy              =   -1582.79166833 Ry
     estimated scf accuracy    <       0.00000002 Ry

     The total energy is the sum of the following terms:
     one-electron contribution =    -563.79970992 Ry
     hartree contribution      =     359.16980563 Ry
     xc contribution           =    -282.57229516 Ry
     ewald contribution        =    -981.30330289 Ry
     one-center paw contrib.   =    -114.28616599 Ry
      -> PAW hartree energy AE =       0.00000000 Ry
      -> PAW hartree energy PS =       0.00000000 Ry
      -> PAW xc energy AE      =       0.00000000 Ry
      -> PAW xc energy PS      =       0.00000000 Ry
      -> total E_H with PAW    =     359.16980563 Ry
      -> total E_XC with PAW   =    -282.57229516 Ry

     convergence has been achieved in  12 iterations

     Writing all to output data dir bands_nm/myprefix.save/

     General routines

     Parallel routines

     PAW routines

   This run was terminated on:  21:16:17  15Jul2023

   JOB DONE.