     Program PWSCF v.7.0 starts on 23Jun2023 at 12:10: 2

     K-points division:     npool     =       2
     R & G space division:  proc/nbgrp/npool/nimage =       4

     Reading input from espresso_748.pwi
Warning: card &CELL ignored
Warning: card / ignored

     Current dimensions of program PWSCF are:
     Max number of different atomic species (ntypx) = 10
     Max number of k-points (npk) =  40000
     Max angular momentum in pseudopotentials (lmaxx) =  4
     Message from routine setup:
     using ibrav=0 with symmetry is DISCOURAGED, use correct ibrav instead

     Using Slab Decomposition

     bravais-lattice index     =            0
     lattice parameter (alat)  =      14.6756  a.u.
     unit-cell volume          =    4364.4132 (a.u.)^3
     number of atoms/cell      =           18
     number of atomic types    =            4
     number of electrons       =       150.00
     number of Kohn-Sham states=           90
     kinetic-energy cutoff     =      30.0000  Ry
     charge density cutoff     =     240.0000  Ry
     scf convergence threshold =      1.0E-06
     mixing beta               =       0.7000
     number of iterations used =            8  plain     mixing
     Exchange-correlation=  SLA  PW   PBX  PBC
                           (   1   4   3   4   0   0   0)

     celldm(1)=  14.675566  celldm(2)=   0.000000  celldm(3)=   0.000000
     celldm(4)=   0.000000  celldm(5)=   0.000000  celldm(6)=   0.000000

     crystal axes: (cart. coord. in units of alat)
               a(1) = (   1.000000   0.000000   0.000000 )
               a(2) = (   0.000000   1.000000   0.000000 )
               a(3) = (   0.000000   0.000000   1.380833 )

     reciprocal axes: (cart. coord. in units 2 pi/alat)
               b(1) = (  1.000000  0.000000  0.000000 )
               b(2) = (  0.000000  1.000000  0.000000 )
               b(3) = (  0.000000  0.000000  0.724200 )

     PseudoPot. # 1 for Cs read from file:
     /home/pragov/projects/rrg-bengioy-ad/pragov/crystal_structure_design/SSSP/Cs_pbe_v1.uspp.F.UPF
     MD5 check sum: 3476d69cb178dfad3ffaa59df4e07ca4
     Pseudo is Ultrasoft + core correction, Zval =  9.0
     Generated by new atomic code, or converted to UPF format
     Using radial grid of  905 points,  6 beta functions with:
                l(1) =   0
                l(2) =   0
                l(3) =   1
                l(4) =   1
                l(5) =   2
                l(6) =   2
     Q(r) pseudized with  6 coefficients,  rinner =    1.500   1.500   1.500
                                                       1.500   1.500

     PseudoPot. # 2 for Bi read from file:
     /home/pragov/projects/rrg-bengioy-ad/pragov/crystal_structure_design/SSSP/Bi_pbe_v1.uspp.F.UPF
     MD5 check sum: cceb9f28ec65b6d7ff33140f5b0b1758
     Pseudo is Ultrasoft + core correction, Zval = 15.0
     Generated by new atomic code, or converted to UPF format
     Using radial grid of  899 points,  6 beta functions with:
                l(1) =   0
                l(2) =   0
                l(3) =   1
                l(4) =   1
                l(5) =   2
                l(6) =   2
     Q(r) pseudized with  6 coefficients,  rinner =    1.000   1.000   1.000
                                                       1.000   1.000

     PseudoPot. # 3 for Sb read from file:
     /home/pragov/projects/rrg-bengioy-ad/pragov/crystal_structure_design/SSSP/sb_pbe_v1.4.uspp.F.UPF
     MD5 check sum: 9bc50dfb53373b713f5709b9110fe27f
     Pseudo is Ultrasoft + core correction, Zval = 15.0
     Generated by new atomic code, or converted to UPF format
     Using radial grid of  891 points,  6 beta functions with:
                l(1) =   0
                l(2) =   0
                l(3) =   1
                l(4) =   1
                l(5) =   2
                l(6) =   2
     Q(r) pseudized with  8 coefficients,  rinner =    1.350   1.350   1.350
                                                       1.350   1.350

     PseudoPot. # 4 for Cl read from file:
     /home/pragov/projects/rrg-bengioy-ad/pragov/crystal_structure_design/SSSP/cl_pbe_v1.4.uspp.F.UPF
     MD5 check sum: fc6f6913ecf08c9257cb748ef0700058
     Pseudo is Ultrasoft + core correction, Zval =  7.0
     Generated by new atomic code, or converted to UPF format
     Using radial grid of  909 points,  6 beta functions with:
                l(1) =   0
                l(2) =   0
                l(3) =   1
                l(4) =   1
                l(5) =   2
                l(6) =   2
     Q(r) pseudized with  8 coefficients,  rinner =    1.300   1.300   1.300
                                                       1.300   1.300

     atomic species   valence    mass     pseudopotential
        Cs             9.00   132.90545     Cs( 1.00)
        Bi            15.00   208.98040     Bi( 1.00)
        Sb            15.00   121.76000     Sb( 1.00)
        Cl             7.00    35.45000     Cl( 1.00)

     16 Sym. Ops., with inversion, found

                                    s                        frac. trans.

      isym =  1     identity

 cryst.   s( 1) = (     1          0          0      )
                  (     0          1          0      )
                  (     0          0          1      )

 cart.    s( 1) = (  1.0000000  0.0000000  0.0000000 )
                  (  0.0000000  1.0000000  0.0000000 )
                  (  0.0000000  0.0000000  1.0000000 )

      isym =  2     180 deg rotation - cart. axis [0,0,1]

[...]

      isym =  8      90 deg rotation - cart. axis [0,0,1]

[...]

      isym =  9     inversion

 cryst.   s( 9) = (    -1          0          0      )
                  (     0         -1          0      )
                  (     0          0         -1      )

 cart.    s( 9) = ( -1.0000000  0.0000000  0.0000000 )
                  (  0.0000000 -1.0000000  0.0000000 )
                  (  0.0000000  0.0000000 -1.0000000 )

      isym = 10     inv. 180 deg rotation - cart. axis [0,0,1]

 cryst.   s(10) = (     1          0          0      )
                  (     0          1          0      )
                  (     0          0         -1      )

 cart.    s(10) = (  1.0000000  0.0000000  0.0000000 )
                  (  0.0000000  1.0000000  0.0000000 )
                  (  0.0000000  0.0000000 -1.0000000 )

[...]

      isym = 16     inv.  90 deg rotation - cart. axis [0,0,1]

 cryst.   s(16) = (     0         -1          0      )
                  (     1          0          0      )
                  (     0          0         -1      )

 cart.    s(16) = (  0.0000000  1.0000000  0.0000000 )
                  ( -1.0000000  0.0000000  0.0000000 )
                  (  0.0000000  0.0000000 -1.0000000 )

   Cartesian axes

     site n.     atom                  positions (alat units)
         1           Cs  tau(   1) = (   0.5000000   0.0000000   1.0760959  )
         2           Cs  tau(   2) = (   0.0000000   0.5000000   0.3047375  )
         3           Cs  tau(   3) = (   0.5000000   0.0000000   0.3047375  )
         4           Cs  tau(   4) = (   0.0000000   0.5000000   1.0760959  )
         5           Bi  tau(   5) = (   0.0000000   0.0000000   0.0000000  )
         6           Sb  tau(   6) = (   0.5000000   0.5000000   0.6904167  )
         7           Cl  tau(   7) = (   0.0000000   0.0000000   1.0294652  )
         8           Cl  tau(   8) = (   0.5000000   0.5000000   0.3784478  )
         9           Cl  tau(   9) = (   0.7202050   0.7202050   0.6904167  )
        10           Cl  tau(  10) = (   0.2478530   0.2478530   0.0000000  )
        11           Cl  tau(  11) = (   0.7202050   0.2797950   0.6904167  )
        12           Cl  tau(  12) = (   0.2478530   0.7521470   0.0000000  )
        13           Cl  tau(  13) = (   0.0000000   0.0000000   0.3513683  )
        14           Cl  tau(  14) = (   0.5000000   0.5000000   1.0023857  )
        15           Cl  tau(  15) = (   0.2797950   0.2797950   0.6904167  )
        16           Cl  tau(  16) = (   0.7521470   0.7521470   0.0000000  )
        17           Cl  tau(  17) = (   0.2797950   0.7202050   0.6904167  )
        18           Cl  tau(  18) = (   0.7521470   0.2478530   0.0000000  )

   Crystallographic axes

     site n.     atom                  positions (cryst. coord.)
         1           Cs  tau(   1) = (  0.5000000  0.0000000  0.7793090  )
         2           Cs  tau(   2) = (  0.0000000  0.5000000  0.2206910  )
         3           Cs  tau(   3) = (  0.5000000  0.0000000  0.2206910  )
         4           Cs  tau(   4) = (  0.0000000  0.5000000  0.7793090  )
         5           Bi  tau(   5) = (  0.0000000  0.0000000  0.0000000  )
         6           Sb  tau(   6) = (  0.5000000  0.5000000  0.5000000  )
         7           Cl  tau(   7) = (  0.0000000  0.0000000  0.7455390  )
         8           Cl  tau(   8) = (  0.5000000  0.5000000  0.2740720  )
         9           Cl  tau(   9) = (  0.7202050  0.7202050  0.5000000  )
        10           Cl  tau(  10) = (  0.2478530  0.2478530  0.0000000  )
        11           Cl  tau(  11) = (  0.7202050  0.2797950  0.5000000  )
        12           Cl  tau(  12) = (  0.2478530  0.7521470  0.0000000  )
        13           Cl  tau(  13) = (  0.0000000  0.0000000  0.2544610  )
        14           Cl  tau(  14) = (  0.5000000  0.5000000  0.7259280  )
        15           Cl  tau(  15) = (  0.2797950  0.2797950  0.5000000  )
        16           Cl  tau(  16) = (  0.7521470  0.7521470  0.0000000  )
        17           Cl  tau(  17) = (  0.2797950  0.7202050  0.5000000  )
        18           Cl  tau(  18) = (  0.7521470  0.2478530  0.0000000  )

     number of k points=     6
                       cart. coord. in units 2pi/alat
        k(    1) = (   0.0000000   0.0000000   0.0000000), wk =   0.0740741
        k(    2) = (   0.0000000   0.0000000   0.2414001), wk =   0.1481481
        k(    3) = (   0.0000000   0.3333333   0.0000000), wk =   0.2962963
        k(    4) = (   0.0000000   0.3333333   0.2414001), wk =   0.5925926
        k(    5) = (   0.3333333   0.3333333   0.0000000), wk =   0.2962963
        k(    6) = (   0.3333333   0.3333333   0.2414001), wk =   0.5925926

                       cryst. coord.
        k(    1) = (   0.0000000   0.0000000   0.0000000), wk =   0.0740741
        k(    2) = (   0.0000000   0.0000000   0.3333333), wk =   0.1481481
        k(    3) = (   0.0000000   0.3333333   0.0000000), wk =   0.2962963
        k(    4) = (   0.0000000   0.3333333   0.3333333), wk =   0.5925926
        k(    5) = (   0.3333333   0.3333333   0.0000000), wk =   0.2962963
        k(    6) = (   0.3333333   0.3333333   0.3333333), wk =   0.5925926

     Check: negative core charge=   -0.000002

     Initial potential from superposition of free atoms

     starting charge     147.8423, renormalised to     150.0000

     negative rho (up, down):  2.311E-01 0.000E+00
     Starting wfcs are  118 randomized atomic wfcs

     Self-consistent Calculation

     iteration #  1     ecut=    30.00 Ry     beta= 0.70
     Davidson diagonalization with overlap

     ethr =  1.00E-02,  avg # of iterations =  3.7

     Threshold (ethr) on eigenvalues was too large:
     Diagonalizing with lowered threshold

     Davidson diagonalization with overlap

[...]

     negative rho (up, down):  2.291E-01 0.000E+00

     total energy              =   -1023.58509439 Ry
     estimated scf accuracy    <       0.66625650 Ry

[...]

     c_bands:  1 eigenvalues not converged
     ethr =  3.53E-05,  avg # of iterations = 11.0

[...]

     c_bands:  1 eigenvalues not converged
     ethr =  3.10E-06,  avg # of iterations =  9.7

[...]

     total energy              =   -1023.81082421 Ry
     estimated scf accuracy    <       0.00000471 Ry

     iteration # 10     ecut=    30.00 Ry     beta= 0.70
     Davidson diagonalization with overlap

     ethr =  3.14E-09,  avg # of iterations =  2.3

     negative rho (up, down):  2.254E-01 0.000E+00

     End of self-consistent calculation

          k = 0.0000 0.0000 0.0000 ( 12119 PWs)   bands (ev):

   -28.2324 -28.2324 -28.1783 -28.1781 -28.1781 -19.6393 -19.6261 -19.6136
   -19.6048 -19.6048 -17.6280 -17.6206 -17.6181 -17.6131 -13.6737 -12.5387
   -12.5387 -12.5371 -12.1103 -12.0857 -11.4373 -10.9156 -10.9156 -10.7128
   -10.6749 -10.6023  -6.9439  -6.6763  -4.6109  -4.5298  -4.5298  -4.4790
    -4.4790  -4.4599  -4.4385  -4.4373  -4.4373  -4.4088  -4.4088  -4.3832
    -2.8646  -2.8646  -2.8319  -1.0192  -0.8503  -0.8503  -0.6694  -0.6694
    -0.6158  -0.5121  -0.4257  -0.1028  -0.0101  -0.0007  -0.0007   0.0488
     0.0488   0.4842   0.4846   0.4846   0.6303   0.8457   0.8457   0.9749
     1.0436   1.1323   1.1323   1.1388   1.2352   1.3771   1.3771   1.5028
     1.5028   1.5433   1.9029   2.9422   6.4376   6.4376   6.4470   6.8639
     6.8639   6.9959   7.0695   7.8078   7.9648   8.5367   8.6851   8.7197
     9.0588   9.0904

     occupation numbers
     1.0000   1.0000   1.0000   1.0000   1.0000   1.0000   1.0000   1.0000
     1.0000   1.0000   1.0000   1.0000   1.0000   1.0000   1.0000   1.0000
     1.0000   1.0000   1.0000   1.0000   1.0000   1.0000   1.0000   1.0000
     1.0000   1.0000   1.0000   1.0000   1.0000   1.0000   1.0000   1.0000
     1.0000   1.0000   1.0000   1.0000   1.0000   1.0000   1.0000   1.0000
     1.0000   1.0000   1.0000   1.0000   1.0000   1.0000   1.0000   1.0000
     1.0000   1.0000   1.0000   1.0000   1.0000   1.0000   1.0000   1.0000
     1.0000   1.0000   1.0000   1.0000   1.0000   1.0000   1.0000   1.0000
     1.0000   1.0000   1.0000   1.0000   1.0000   1.0000   1.0000   1.0000
     1.0000   1.0000   1.0000   0.0000   0.0000   0.0000   0.0000   0.0000
     0.0000   0.0000   0.0000   0.0000   0.0000   0.0000   0.0000   0.0000
     0.0000   0.0000

[...]

          k = 0.3333 0.3333 0.2414 ( 12101 PWs)   bands (ev):

   -28.2335 -28.2304 -28.1775 -28.1767 -28.1764 -19.6394 -19.6261 -19.6135
   -19.6048 -19.6048 -17.6246 -17.6228 -17.6164 -17.6151 -13.6681 -12.5406
   -12.5403 -12.5400 -12.1072 -12.1010 -11.4102 -10.9173 -10.9118 -10.7455
   -10.7176 -10.5797  -6.9107  -6.6495  -4.5519  -4.5196  -4.4888  -4.4525
    -4.4509  -4.4461  -4.4364  -4.4208  -4.4117  -4.4092  -4.4019  -4.3911
    -2.8501  -2.8492  -2.8455  -0.9297  -0.9237  -0.8640  -0.7104  -0.6583
    -0.6161  -0.4997  -0.4126  -0.1206  -0.1117  -0.0570  -0.0569  -0.0398
    -0.0232   0.4619   0.4823   0.4977   0.6824   0.7055   0.7293   0.8444
     0.9923   1.0300   1.0691   1.1829   1.2153   1.2316   1.2695   1.2840
     1.4781   1.4795   2.3213   3.0039   6.5197   6.5835   6.7605   6.9739
     7.0227   7.0646   8.0618   8.5145   8.5821   8.6069   8.8570   8.8732
     8.9999   9.0032

     occupation numbers
     1.0000   1.0000   1.0000   1.0000   1.0000   1.0000   1.0000   1.0000
     1.0000   1.0000   1.0000   1.0000   1.0000   1.0000   1.0000   1.0000
     1.0000   1.0000   1.0000   1.0000   1.0000   1.0000   1.0000   1.0000
     1.0000   1.0000   1.0000   1.0000   1.0000   1.0000   1.0000   1.0000
     1.0000   1.0000   1.0000   1.0000   1.0000   1.0000   1.0000   1.0000
     1.0000   1.0000   1.0000   1.0000   1.0000   1.0000   1.0000   1.0000
     1.0000   1.0000   1.0000   1.0000   1.0000   1.0000   1.0000   1.0000
     1.0000   1.0000   1.0000   1.0000   1.0000   1.0000   1.0000   1.0000
     1.0000   1.0000   1.0000   1.0000   1.0000   1.0000   1.0000   1.0000
     1.0000   1.0000   1.0000   0.0000   0.0000   0.0000   0.0000   0.0000
     0.0000   0.0000   0.0000   0.0000   0.0000   0.0000   0.0000   0.0000
     0.0000   0.0000

     highest occupied, lowest unoccupied level (ev):     2.3213    2.8848

!    total energy              =   -1023.81082539 Ry
     estimated scf accuracy    <       0.00000028 Ry

     The total energy is the sum of the following terms:
     one-electron contribution =    -418.63231665 Ry
     hartree contribution      =     265.30443066 Ry
     xc contribution           =    -343.13092864 Ry
     ewald contribution        =    -527.35201076 Ry

     convergence has been achieved in  10 iterations

     Writing all to output data dir calculations_bands/myprefix.save/

     General routines

     Parallel routines

   This run was terminated on:  12:10:31  23Jun2023

   JOB DONE.