     Program PWSCF v.7.1 starts on 13Jul2023 at  6:25:32

     Reading input from espresso_25422.pwi
Warning: card &CELL ignored
Warning: card / ignored

     Current dimensions of program PWSCF are:
     Max number of different atomic species (ntypx) = 10
     Max number of k-points (npk) =  40000
     Max angular momentum in pseudopotentials (lmaxx) =  4
     file K.pbe-spn-kjpaw_psl.1.0.0.UPF: wavefunction(s)  3S renormalized
     file Fe.pbe-spn-kjpaw_psl.0.2.1.UPF: wavefunction(s)  3D renormalized
     file O.pbe-n-kjpaw_psl.0.1.UPF: wavefunction(s)  2P renormalized
     Message from routine setup:
     using ibrav=0 with symmetry is DISCOURAGED, use correct ibrav instead

     K-points division:     npool     =       2
     R & G space division:  proc/nbgrp/npool/nimage =       8
     Subspace diagonalization in iterative solution of the eigenvalue problem:
     a serial algorithm will be used

     Using Slab Decomposition

     bravais-lattice index     =            0
     lattice parameter (alat)  =      10.0314  a.u.
     unit-cell volume          =    1150.3624 (a.u.)^3
     number of atoms/cell      =           13
     number of atomic types    =            3
     number of electrons       =       124.00
     number of Kohn-Sham states=           64
     kinetic-energy cutoff     =      30.0000  Ry
     charge density cutoff     =     240.0000  Ry
     scf convergence threshold =      1.0E-06
     mixing beta               =       0.7000
     number of iterations used =            8  plain     mixing
     Exchange-correlation= SLA  PW   PBX  PBC
                           (   1   4   3   4   0   0   0)

     celldm(1)=  10.031407  celldm(2)=   0.000000  celldm(3)=   0.000000
     celldm(4)=   0.000000  celldm(5)=   0.000000  celldm(6)=   0.000000

     crystal axes: (cart. coord. in units of alat)
               a(1) = (   1.000000   0.000000   0.000000 )
               a(2) = (  -0.500000   0.866025   0.000000 )
               a(3) = (   0.000000   0.000000   1.315887 )

     reciprocal axes: (cart. coord. in units 2 pi/alat)
               b(1) = (  1.000000  0.577350  0.000000 )
               b(2) = (  0.000000  1.154700  0.000000 )
               b(3) = (  0.000000  0.000000  0.759944 )

     PseudoPot. # 1 for K  read from file:
     /lustre07/scratch/pragov/crystal_structure_design/utils/SSSP/K.pbe-spn-kjpaw_psl.1.0.0.UPF
     MD5 check sum: 7d58810084cac21f60fbe77ea2b688fd
     Pseudo is Projector augmented-wave + core cor, Zval =  9.0
     Generated using "atomic" code by A. Dal Corso  v.5.1
     Shape of augmentation charge: PSQ
     Using radial grid of 1165 points,  6 beta functions with:
                l(1) =   0
                l(2) =   0
                l(3) =   1
                l(4) =   1
                l(5) =   2
                l(6) =   2
     Q(r) pseudized with 0 coefficients

     PseudoPot. # 2 for Fe read from file:
     /lustre07/scratch/pragov/crystal_structure_design/utils/SSSP/Fe.pbe-spn-kjpaw_psl.0.2.1.UPF
     MD5 check sum: e86618425769142926afa95317d90200
     Pseudo is Projector augmented-wave + core cor, Zval = 16.0
     Generated using "atomic" code by A. Dal Corso  v.5.0.99 svn rev. 10869
     Shape of augmentation charge: PSQ
     Using radial grid of 1191 points,  6 beta functions with:
                l(1) =   0
                l(2) =   0
                l(3) =   1
                l(4) =   1
                l(5) =   2
                l(6) =   2
     Q(r) pseudized with 0 coefficients

     PseudoPot. # 3 for O  read from file:
     /lustre07/scratch/pragov/crystal_structure_design/utils/SSSP/O.pbe-n-kjpaw_psl.0.1.UPF
     MD5 check sum: 0234752ac141de4415c5fc33072bef88
     Pseudo is Projector augmented-wave + core cor, Zval =  6.0
     Generated using "atomic" code by A. Dal Corso  v.5.0.99 svn rev. 10869
     Shape of augmentation charge: BESSEL
     Using radial grid of 1095 points,  4 beta functions with:
                l(1) =   0
                l(2) =   0
                l(3) =   1
                l(4) =   1
     Q(r) pseudized with 0 coefficients

     atomic species   valence    mass     pseudopotential
        K              9.00    39.09830     K ( 1.00)
        Fe            16.00    55.84500     Fe( 1.00)
        O              6.00    15.99900     O ( 1.00)

     12 Sym. Ops., with inversion, found

                                    s                        frac. trans.

      isym =  1     identity

 cryst.   s( 1) = (     1          0          0      )
                  (     0          1          0      )
                  (     0          0          1      )

 cart.    s( 1) = (  1.0000000  0.0000000  0.0000000 )
                  (  0.0000000  1.0000000  0.0000000 )
                  (  0.0000000  0.0000000  1.0000000 )

      isym =  2     180 deg rotation - cart. axis [0,1,0]

[...]

      isym =  3     120 deg rotation - cryst. axis [0,0,1]

[...]

      isym =  6     180 deg rotation - cryst. axis [2,1,0]

[...]

      isym =  7     inversion

[...]

      isym =  8     inv. 180 deg rotation - cart. axis [0,1,0]

[...]

      isym =  9     inv. 120 deg rotation - cryst. axis [0,0,1]

 cryst.   s( 9) = (     0         -1          0      )
                  (     1          1          0      )
                  (     0          0         -1      )

 cart.    s( 9) = (  0.4999999  0.8660254  0.0000000 )
                  ( -0.8660254  0.5000001  0.0000000 )
                  (  0.0000000  0.0000000 -1.0000000 )

[...]

 cryst.   s(10) = (     1          1          0      )
                  (    -1          0          0      )
                  (     0          0         -1      )

 cart.    s(10) = (  0.5000001 -0.8660254  0.0000000 )
                  (  0.8660254  0.4999999  0.0000000 )
                  (  0.0000000  0.0000000 -1.0000000 )

[...]

      isym = 12     inv. 180 deg rotation - cryst. axis [2,1,0]

 cryst.   s(12) = (    -1         -1          0      )
                  (     0          1          0      )
                  (     0          0          1      )

 cart.    s(12) = ( -0.5000001 -0.8660253  0.0000000 )
                  ( -0.8660254  0.5000001  0.0000000 )
                  (  0.0000000  0.0000000  1.0000000 )

   Cartesian axes

     site n.     atom                  positions (alat units)
         1           K   tau(   1) = (  -0.0000005   0.5773506   0.0000000  )
         2           K   tau(   2) = (   0.5000005   0.2886749   0.0000000  )
         3           Fe  tau(   3) = (   0.0000000   0.0000000   0.3570949  )
         4           Fe  tau(   4) = (   0.0000000   0.0000000   0.9587920  )
         5           Fe  tau(   5) = (  -0.0000005   0.5773506   0.6579434  )
         6           Fe  tau(   6) = (   0.5000005   0.2886749   0.6579434  )
         7           O   tau(   7) = (   0.6763355   0.5606034   0.4422104  )
         8           O   tau(   8) = (   0.8236645   0.3054221   0.8736765  )
         9           O   tau(   9) = (   0.0000000   0.0000000   0.0000000  )
        10           O   tau(  10) = (   0.1763355   0.3054221   0.4422104  )
        11           O   tau(  11) = (   0.3236645   0.5606034   0.8736765  )
        12           O   tau(  12) = (   0.3526710   0.0000000   0.8736765  )
        13           O   tau(  13) = (   0.6473290   0.0000000   0.4422104  )

   Crystallographic axes

     site n.     atom                  positions (cryst. coord.)
         1           K   tau(   1) = (  0.3333330  0.6666670  0.0000000  )
         2           K   tau(   2) = (  0.6666670  0.3333330  0.0000000  )
         3           Fe  tau(   3) = (  0.0000000  0.0000000  0.2713720  )
         4           Fe  tau(   4) = (  0.0000000  0.0000000  0.7286280  )
         5           Fe  tau(   5) = (  0.3333330  0.6666670  0.5000000  )
         6           Fe  tau(   6) = (  0.6666670  0.3333330  0.5000000  )
         7           O   tau(   7) = (  1.0000000  0.6473290  0.3360550  )
         8           O   tau(   8) = (  1.0000000  0.3526710  0.6639450  )
         9           O   tau(   9) = (  0.0000000  0.0000000  0.0000000  )
        10           O   tau(  10) = (  0.3526710  0.3526710  0.3360550  )
        11           O   tau(  11) = (  0.6473290  0.6473290  0.6639450  )
        12           O   tau(  12) = (  0.3526710  0.0000000  0.6639450  )
        13           O   tau(  13) = (  0.6473290  0.0000000  0.3360550  )

     number of k points=     7
                       cart. coord. in units 2pi/alat
        k(    1) = (   0.0000000   0.0000000   0.0000000), wk =   0.0740741
        k(    2) = (   0.0000000   0.0000000   0.2533146), wk =   0.1481481
        k(    3) = (   0.0000000   0.3849002   0.0000000), wk =   0.4444444
        k(    4) = (   0.0000000   0.3849002   0.2533146), wk =   0.8888889
        k(    5) = (   0.3333333   0.5773502   0.0000000), wk =   0.1481481
        k(    6) = (   0.3333333   0.5773502   0.2533146), wk =   0.1481481
        k(    7) = (  -0.3333333  -0.5773502   0.2533146), wk =   0.1481481

                       cryst. coord.
        k(    1) = (   0.0000000   0.0000000   0.0000000), wk =   0.0740741
        k(    2) = (   0.0000000   0.0000000   0.3333333), wk =   0.1481481
        k(    3) = (   0.0000000   0.3333333   0.0000000), wk =   0.4444444
        k(    4) = (   0.0000000   0.3333333   0.3333333), wk =   0.8888889
        k(    5) = (   0.3333333   0.3333333   0.0000000), wk =   0.1481481
        k(    6) = (   0.3333333   0.3333333   0.3333333), wk =   0.1481481
        k(    7) = (  -0.3333333  -0.3333333   0.3333333), wk =   0.1481481

     Check: negative core charge=   -0.000141

     Initial potential from superposition of free atoms

     starting charge     123.9606, renormalised to     124.0000
     Starting wfcs are   96 randomized atomic wfcs
     Checking if some PAW data can be deallocated...

     Self-consistent Calculation

     iteration #  1     ecut=    30.00 Ry     beta= 0.70
     Davidson diagonalization with overlap

     ethr =  1.00E-02,  avg # of iterations =  2.0

     total energy              =   -1831.19363213 Ry
     estimated scf accuracy    <       3.10974409 Ry

[...]

     total energy              =   -1833.12146262 Ry
     estimated scf accuracy    <       0.00000229 Ry

     iteration # 26     ecut=    30.00 Ry     beta= 0.70
     Davidson diagonalization with overlap

     ethr =  1.50E-09,  avg # of iterations =  1.0

     End of self-consistent calculation

          k = 0.0000 0.0000 0.0000 (  3197 PWs)   bands (ev):

   -79.1839 -79.1828 -78.5830 -78.5823 -44.7882 -44.7807 -44.7807 -44.7685
   -44.7685 -44.7659 -44.1845 -44.1488 -44.1479 -44.1479 -44.0910 -44.0910
   -21.9074 -21.6219 -10.2239  -9.6140  -9.4988  -9.2235  -9.2234  -9.2233
    -9.2233  -5.7626  -5.7625  -5.1845  -4.9959  -4.9637  -4.9637   3.1549
     3.2910   3.7050   3.7051   3.7645   3.7776   3.7778   4.2409   4.2410
     4.2753   4.3441   4.3442   4.6787   5.0295   5.0295   5.2033   5.7038
     5.7039   5.8626   5.8626   6.1881   7.3554   7.3554   7.7514   7.8604
     7.8604   7.9119   7.9119   8.0618   8.4410   8.4410   8.5110   8.6586

     occupation numbers
     1.0000   1.0000   1.0000   1.0000   1.0000   1.0000   1.0000   1.0000
     1.0000   1.0000   1.0000   1.0000   1.0000   1.0000   1.0000   1.0000
     1.0000   1.0000   1.0000   1.0000   1.0000   1.0000   1.0000   1.0000
     1.0000   1.0000   1.0000   1.0000   1.0000   1.0000   1.0000   1.0000
     1.0000   1.0000   1.0000   1.0000   1.0000   1.0000   1.0000   1.0000
     1.0000   1.0000   1.0000   1.0000   1.0000   1.0000   1.0000   1.0000
     1.0000   1.0000   1.0000   1.0000   1.0000   1.0000   1.0000   1.0000
     1.0000   1.0000   1.0000   1.0000   1.0000   1.0000   0.0000   0.0000

[...]

          k = 0.3333 0.5774 0.2533 (  3177 PWs)   bands (ev):

[...]

          k =-0.3333-0.5774 0.2533 (  3177 PWs)   bands (ev):

   -79.1821 -79.1783 -78.5794 -78.5794 -44.7726 -44.7726 -44.7716 -44.7616
   -44.7616 -44.7464 -44.1477 -44.1477 -44.1432 -44.1121 -44.1121 -44.0818
   -21.7662 -21.7662  -9.7966  -9.6430  -9.6428  -9.4559  -9.2582  -9.2413
    -9.2412  -5.8292  -5.3745  -5.3745  -5.1019  -5.1019  -4.8001   2.9167
     3.1700   3.1700   3.3584   3.8253   3.8659   3.8659   4.0544   4.0545
     4.5024   4.5025   4.7193   4.7664   5.1457   5.1458   5.3388   5.3388
     5.9931   6.1019   6.1840   6.1841   7.4970   7.4970   7.5902   7.5902
     7.9929   7.9929   8.0152   8.1212   8.3215   8.5261   8.5262   8.9893

     occupation numbers
     1.0000   1.0000   1.0000   1.0000   1.0000   1.0000   1.0000   1.0000
     1.0000   1.0000   1.0000   1.0000   1.0000   1.0000   1.0000   1.0000
     1.0000   1.0000   1.0000   1.0000   1.0000   1.0000   1.0000   1.0000
     1.0000   1.0000   1.0000   1.0000   1.0000   1.0000   1.0000   1.0000
     1.0000   1.0000   1.0000   1.0000   1.0000   1.0000   1.0000   1.0000
     1.0000   1.0000   1.0000   1.0000   1.0000   1.0000   1.0000   1.0000
     1.0000   1.0000   1.0000   1.0000   1.0000   1.0000   1.0000   1.0000
     1.0000   1.0000   1.0000   1.0000   1.0000   1.0000   0.0000   0.0000

     highest occupied, lowest unoccupied level (ev):     8.5261    8.4745

!    total energy              =   -1833.12146176 Ry
     total all-electron energy =    -13642.713274 Ry
     estimated scf accuracy    <       0.00000093 Ry

     The total energy is the sum of the following terms:
     one-electron contribution =    -894.57998237 Ry
     hartree contribution      =     506.31085317 Ry
     xc contribution           =    -212.42673776 Ry
     ewald contribution        =    -750.58698886 Ry
     one-center paw contrib.   =    -481.83860594 Ry
      -> PAW hartree energy AE =      37.85808603 Ry
      -> PAW hartree energy PS =     -37.64757230 Ry
      -> PAW xc energy AE      =     -66.23886654 Ry
      -> PAW xc energy PS      =      10.61060516 Ry
      -> total E_H with PAW    =     506.52136690 Ry
      -> total E_XC with PAW   =    -268.05499914 Ry

     convergence has been achieved in  26 iterations

     Writing all to output data dir bands_nm/myprefix.save/

     General routines

     Parallel routines

     PAW routines

   This run was terminated on:   6:25:57  13Jul2023

   JOB DONE.