     Program PWSCF v.7.1 starts on 13Jul2023 at  1:56:19

     Reading input from espresso_24792.pwi
Warning: card &CELL ignored
Warning: card / ignored

     Current dimensions of program PWSCF are:
     Max number of different atomic species (ntypx) = 10
     Max number of k-points (npk) =  40000
     Max angular momentum in pseudopotentials (lmaxx) =  4
     file Cd.pbe-dn-rrkjus_psl.0.3.1.UPF: wavefunction(s)  4D renormalized
     Message from routine setup:
     using ibrav=0 with symmetry is DISCOURAGED, use correct ibrav instead

     K-points division:     npool     =       2
     R & G space division:  proc/nbgrp/npool/nimage =       8
     Subspace diagonalization in iterative solution of the eigenvalue problem:
     a serial algorithm will be used

     Using Slab Decomposition

     bravais-lattice index     =            0
     lattice parameter (alat)  =      15.9196  a.u.
     unit-cell volume          =    4779.0580 (a.u.)^3
     number of atoms/cell      =           14
     number of atomic types    =            3
     number of electrons       =       116.00
     number of Kohn-Sham states=           64
     kinetic-energy cutoff     =      30.0000  Ry
     charge density cutoff     =     240.0000  Ry
     scf convergence threshold =      1.0E-06
     mixing beta               =       0.7000
     number of iterations used =            8  plain     mixing
     Exchange-correlation= SLA  PW   PBX  PBC
                           (   1   4   3   4   0   0   0)

     celldm(1)=  15.919586  celldm(2)=   0.000000  celldm(3)=   0.000000
     celldm(4)=   0.000000  celldm(5)=   0.000000  celldm(6)=   0.000000

     crystal axes: (cart. coord. in units of alat)
               a(1) = (   1.000000   0.000000   0.000000 )
               a(2) = (   0.000000   1.019048   0.000000 )
               a(3) = (  -0.381251   0.000000   1.162392 )

     reciprocal axes: (cart. coord. in units 2 pi/alat)
               b(1) = (  1.000000  0.000000  0.327988 )
               b(2) = (  0.000000  0.981308  0.000000 )
               b(3) = (  0.000000  0.000000  0.860295 )

     PseudoPot. # 1 for Rb read from file:
     /lustre07/scratch/pragov/crystal_structure_design/utils/SSSP/Rb_ONCV_PBE-1.0.oncvpsp.upf
     MD5 check sum: 55a5172d6bfbce6759a58e35d43f6aa9
     Pseudo is Norm-conserving, Zval =  9.0
     Generated using ONCVPSP code by D. R. Hamann
     Using radial grid of 2308 points,  6 beta functions with:
                l(1) =   0
                l(2) =   0
                l(3) =   1
                l(4) =   1
                l(5) =   2
                l(6) =   2

     PseudoPot. # 2 for Cd read from file:
     /lustre07/scratch/pragov/crystal_structure_design/utils/SSSP/Cd.pbe-dn-rrkjus_psl.0.3.1.UPF
     MD5 check sum: 558e9f355611b531a870a69ef6ace9e2
     Pseudo is Ultrasoft + core correction, Zval = 12.0
     Generated using "atomic" code by A. Dal Corso  v.5.0.99 svn rev. 10869
     Using radial grid of 1239 points,  6 beta functions with:
                l(1) =   0
                l(2) =   0
                l(3) =   1
                l(4) =   1
                l(5) =   2
                l(6) =   2
     Q(r) pseudized with 0 coefficients

     PseudoPot. # 3 for I  read from file:
     /lustre07/scratch/pragov/crystal_structure_design/utils/SSSP/I.pbe-n-kjpaw_psl.0.2.UPF
     MD5 check sum: d4ef18d9c8f18dc85e5843bca1e50dc0
     Pseudo is Projector augmented-wave + core cor, Zval =  7.0
     Generated using "atomic" code by A. Dal Corso  v.5.0.99 svn rev. 10869
     Shape of augmentation charge: PSQ
     Using radial grid of 1247 points,  4 beta functions with:
                l(1) =   0
                l(2) =   0
                l(3) =   1
                l(4) =   1
     Q(r) pseudized with 0 coefficients

     atomic species   valence    mass     pseudopotential
        Rb             9.00    85.46780     Rb( 1.00)
        Cd            12.00   112.41400     Cd( 1.00)
        I              7.00   126.90447     I ( 1.00)

      4 Sym. Ops., with inversion, found ( 2 have fractional translation)

                                    s                        frac. trans.

      isym =  1     identity

 cryst.   s( 1) = (     1          0          0      )
                  (     0          1          0      )
                  (     0          0          1      )

 cart.    s( 1) = (  1.0000000  0.0000000  0.0000000 )
                  (  0.0000000  1.0000000  0.0000000 )
                  (  0.0000000  0.0000000  1.0000000 )

      isym =  2     180 deg rotation - cart. axis [0,1,0]

 cryst.   s( 2) = (    -1          0          0      )    f =( -0.0000000 )
                  (     0          1          0      )       ( -0.5000000 )
                  (     0          0         -1      )       ( -0.0000000 )

 cart.    s( 2) = ( -1.0000000  0.0000000  0.0000000 )    f =(  0.0000000 )
                  (  0.0000000  1.0000000  0.0000000 )       ( -0.5095239 )
                  (  0.0000000  0.0000000 -1.0000000 )       ( -0.0000000 )

      isym =  3     inversion

 cryst.   s( 3) = (    -1          0          0      )
                  (     0         -1          0      )
                  (     0          0         -1      )

 cart.    s( 3) = ( -1.0000000  0.0000000  0.0000000 )
                  (  0.0000000 -1.0000000  0.0000000 )
                  (  0.0000000  0.0000000 -1.0000000 )

      isym =  4     inv. 180 deg rotation - cart. axis [0,1,0]

 cryst.   s( 4) = (     1          0          0      )    f =(  0.0000000 )
                  (     0         -1          0      )       (  0.5000000 )
                  (     0          0          1      )       (  0.0000000 )

 cart.    s( 4) = (  1.0000000  0.0000000  0.0000000 )    f =(  0.0000000 )
                  (  0.0000000 -1.0000000  0.0000000 )       (  0.5095239 )
                  (  0.0000000  0.0000000  1.0000000 )       (  0.0000000 )

   Cartesian axes

     site n.     atom                  positions (alat units)
         1           Rb  tau(   1) = (   0.0077852   0.2547619   0.6409706  )
         2           Rb  tau(   2) = (   0.6109640   0.7642858   0.5214209  )
         3           Rb  tau(   3) = (   0.2355824   0.2547619   0.0779163  )
         4           Rb  tau(   4) = (   0.3831668   0.7642858   1.0844753  )
         5           Cd  tau(   5) = (   0.5074572   0.2547619   0.8142936  )
         6           Cd  tau(   6) = (   0.1112920   0.7642858   0.3480979  )
         7           I   tau(   7) = (   0.4313943   0.2547619   0.4881173  )
         8           I   tau(   8) = (   0.1873549   0.7642858   0.6742743  )
         9           I   tau(   9) = (   0.9087716   0.0054142   0.2770874  )
        10           I   tau(  10) = (  -0.2900224   1.0136336   0.8853041  )
        11           I   tau(  11) = (  -0.2900224   0.5149381   0.8853041  )
        12           I   tau(  12) = (   0.9087716   0.5041097   0.2770874  )
        13           I   tau(  13) = (   0.2391997   0.2547619   1.0151653  )
        14           I   tau(  14) = (   0.3795495   0.7642858   0.1472262  )

   Crystallographic axes

     site n.     atom                  positions (cryst. coord.)
         1           Rb  tau(   1) = (  0.2180160  0.2500000  0.5514240  )
         2           Rb  tau(   2) = (  0.7819840  0.7500000  0.4485760  )
         3           Rb  tau(   3) = (  0.2611380  0.2500000  0.0670310  )
         4           Rb  tau(   4) = (  0.7388620  0.7500000  0.9329690  )
         5           Cd  tau(   5) = (  0.7745360  0.2500000  0.7005330  )
         6           Cd  tau(   6) = (  0.2254640  0.7500000  0.2994670  )
         7           I   tau(   7) = (  0.5914910  0.2500000  0.4199250  )
         8           I   tau(   8) = (  0.4085090  0.7500000  0.5800750  )
         9           I   tau(   9) = (  0.9996530  0.0053130  0.2383770  )
        10           I   tau(  10) = (  0.0003470  0.9946870  0.7616230  )
        11           I   tau(  11) = (  0.0003470  0.5053130  0.7616230  )
        12           I   tau(  12) = (  0.9996530  0.4946870  0.2383770  )
        13           I   tau(  13) = (  0.5721620  0.2500000  0.8733420  )
        14           I   tau(  14) = (  0.4278380  0.7500000  0.1266580  )

     number of k points=    10
                       cart. coord. in units 2pi/alat
        k(    1) = (   0.0000000   0.0000000   0.0000000), wk =   0.0740741
        k(    2) = (   0.0000000   0.0000000   0.2867651), wk =   0.1481481
        k(    3) = (   0.0000000   0.3271028   0.0000000), wk =   0.1481481
        k(    4) = (   0.0000000   0.3271028   0.2867651), wk =   0.2962963
        k(    5) = (   0.3333333   0.0000000   0.1093294), wk =   0.1481481
        k(    6) = (   0.3333333   0.0000000   0.3960945), wk =   0.1481481
        k(    7) = (   0.3333333   0.0000000  -0.1774357), wk =   0.1481481
        k(    8) = (   0.3333333   0.3271028   0.1093294), wk =   0.2962963
        k(    9) = (   0.3333333   0.3271028   0.3960945), wk =   0.2962963
        k(   10) = (   0.3333333   0.3271028  -0.1774357), wk =   0.2962963

                       cryst. coord.
        k(    1) = (   0.0000000   0.0000000   0.0000000), wk =   0.0740741
        k(    2) = (   0.0000000   0.0000000   0.3333333), wk =   0.1481481
        k(    3) = (   0.0000000   0.3333333   0.0000000), wk =   0.1481481
        k(    4) = (   0.0000000   0.3333333   0.3333333), wk =   0.2962963
        k(    5) = (   0.3333333   0.0000000   0.0000000), wk =   0.1481481
        k(    6) = (   0.3333333   0.0000000   0.3333333), wk =   0.1481481
        k(    7) = (   0.3333333   0.0000000  -0.3333333), wk =   0.1481481
        k(    8) = (   0.3333333   0.3333333   0.0000000), wk =   0.2962963
        k(    9) = (   0.3333333   0.3333333   0.3333333), wk =   0.2962963
        k(   10) = (   0.3333333   0.3333333  -0.3333333), wk =   0.2962963

     Check: negative core charge=   -0.000001

     Initial potential from superposition of free atoms

     starting charge     115.8906, renormalised to     116.0000
     Starting wfcs are   70 randomized atomic wfcs
     Checking if some PAW data can be deallocated...

     Self-consistent Calculation

     iteration #  1     ecut=    30.00 Ry     beta= 0.70
     Davidson diagonalization with overlap

     ethr =  1.00E-02,  avg # of iterations =  3.1

     Threshold (ethr) on eigenvalues was too large:
     Diagonalizing with lowered threshold

     Davidson diagonalization with overlap

[...]

     total energy              =   -3472.53863705 Ry
     estimated scf accuracy    <       0.19937004 Ry

[...]

     negative rho (up, down):  4.686E-07 0.000E+00

[...]

     total energy              =   -3472.59701972 Ry
     estimated scf accuracy    <       0.00000571 Ry

     iteration #  7     ecut=    30.00 Ry     beta= 0.70
     Davidson diagonalization with overlap

     ethr =  4.92E-09,  avg # of iterations =  3.6

     End of self-consistent calculation

          k = 0.0000 0.0000 0.0000 ( 13229 PWs)   bands (ev):

   -24.5976 -24.5974 -24.3877 -24.3872  -9.8894  -9.8815  -9.7165  -9.7049
    -9.6654  -9.6477  -9.6190  -9.5992  -8.6746  -8.6682  -8.6648  -8.6526
    -8.6458  -8.6338  -8.4725  -8.4652  -8.4642  -8.4547  -8.4341  -8.4135
    -5.8514  -5.8511  -5.8457  -5.8414  -5.8365  -5.8357  -5.8276  -5.8276
    -5.8234  -5.8224  -1.9896  -1.9870  -0.5792  -0.4400  -0.3723  -0.1363
    -0.0298   0.0075   0.0483   0.2586   0.3801   0.4360   0.4779   0.5273
     0.5812   0.6786   0.7414   0.8021   0.8191   0.9411   0.9431   0.9951
     1.0733   1.2135   4.0365   4.5540   5.6860   6.1856   6.3090   6.4923

     occupation numbers
     1.0000   1.0000   1.0000   1.0000   1.0000   1.0000   1.0000   1.0000
     1.0000   1.0000   1.0000   1.0000   1.0000   1.0000   1.0000   1.0000
     1.0000   1.0000   1.0000   1.0000   1.0000   1.0000   1.0000   1.0000
     1.0000   1.0000   1.0000   1.0000   1.0000   1.0000   1.0000   1.0000
     1.0000   1.0000   1.0000   1.0000   1.0000   1.0000   1.0000   1.0000
     1.0000   1.0000   1.0000   1.0000   1.0000   1.0000   1.0000   1.0000
     1.0000   1.0000   1.0000   1.0000   1.0000   1.0000   1.0000   1.0000
     1.0000   1.0000   0.0000   0.0000   0.0000   0.0000   0.0000   0.0000

[...]

          k = 0.3333 0.3271-0.1774 ( 13264 PWs)   bands (ev):

   -24.5975 -24.5975 -24.3875 -24.3874  -9.8533  -9.8235  -9.7644  -9.7242
    -9.6822  -9.6786  -9.6151  -9.6061  -8.6715  -8.6676  -8.6586  -8.6470
    -8.6393  -8.6337  -8.4718  -8.4657  -8.4547  -8.4470  -8.4373  -8.4241
    -5.8550  -5.8512  -5.8487  -5.8459  -5.8434  -5.8400  -5.8285  -5.8278
    -5.8246  -5.8224  -1.8875  -1.8532  -0.4206  -0.3412  -0.3087  -0.2305
    -0.1418  -0.0559   0.1906   0.3130   0.3382   0.4238   0.4594   0.5348
     0.5924   0.6230   0.6639   0.6996   0.7748   0.7839   0.8374   0.8613
     0.8936   0.9768   4.7326   4.8044   6.1335   6.2777   6.4968   6.6634

     occupation numbers
     1.0000   1.0000   1.0000   1.0000   1.0000   1.0000   1.0000   1.0000
     1.0000   1.0000   1.0000   1.0000   1.0000   1.0000   1.0000   1.0000
     1.0000   1.0000   1.0000   1.0000   1.0000   1.0000   1.0000   1.0000
     1.0000   1.0000   1.0000   1.0000   1.0000   1.0000   1.0000   1.0000
     1.0000   1.0000   1.0000   1.0000   1.0000   1.0000   1.0000   1.0000
     1.0000   1.0000   1.0000   1.0000   1.0000   1.0000   1.0000   1.0000
     1.0000   1.0000   1.0000   1.0000   1.0000   1.0000   1.0000   1.0000
     1.0000   1.0000   0.0000   0.0000   0.0000   0.0000   0.0000   0.0000

     highest occupied, lowest unoccupied level (ev):     1.2135    4.0365

!    total energy              =   -3472.59702219 Ry
     estimated scf accuracy    <       0.00000050 Ry

     The total energy is the sum of the following terms:
     one-electron contribution =    -272.49899730 Ry
     hartree contribution      =     185.75101717 Ry
     xc contribution           =    -449.65643266 Ry
     ewald contribution        =    -371.99259479 Ry
     one-center paw contrib.   =   -2564.20001462 Ry
      -> PAW hartree energy AE =       0.00000000 Ry
      -> PAW hartree energy PS =       0.00000000 Ry
      -> PAW xc energy AE      =       0.00000000 Ry
      -> PAW xc energy PS      =       0.00000000 Ry
      -> total E_H with PAW    =     185.75101717 Ry
      -> total E_XC with PAW   =    -449.65643266 Ry

     convergence has been achieved in   7 iterations

     Writing all to output data dir bands_nm/myprefix.save/

     General routines

     Parallel routines

     PAW routines

   This run was terminated on:   1:56:54  13Jul2023

   JOB DONE.