     Program PWSCF v.7.1 starts on 12Jul2023 at 18:30:28

     Reading input from espresso_23135.pwi
Warning: card &CELL ignored
Warning: card / ignored

     Current dimensions of program PWSCF are:
     Max number of different atomic species (ntypx) = 10
     Max number of k-points (npk) =  40000
     Max angular momentum in pseudopotentials (lmaxx) =  4
     Message from routine setup:
     using ibrav=0 with symmetry is DISCOURAGED, use correct ibrav instead

     K-points division:     npool     =       2
     R & G space division:  proc/nbgrp/npool/nimage =       8
     Subspace diagonalization in iterative solution of the eigenvalue problem:
     a serial algorithm will be used

     Using Slab Decomposition

     bravais-lattice index     =            0
     lattice parameter (alat)  =       9.2347  a.u.
     unit-cell volume          =    1015.5117 (a.u.)^3
     number of atoms/cell      =           16
     number of atomic types    =            3
     number of electrons       =        60.00
     number of Kohn-Sham states=           64
     kinetic-energy cutoff     =      30.0000  Ry
     charge density cutoff     =     240.0000  Ry
     scf convergence threshold =      1.0E-06
     mixing beta               =       0.7000
     number of iterations used =            8  plain     mixing
     Exchange-correlation= PBE
                           (   1   4   3   4   0   0   0)

     celldm(1)=   9.234690  celldm(2)=   0.000000  celldm(3)=   0.000000
     celldm(4)=   0.000000  celldm(5)=   0.000000  celldm(6)=   0.000000

     crystal axes: (cart. coord. in units of alat)
               a(1) = (   1.000000   0.000000   0.000000 )
               a(2) = (  -0.701863   0.712312   0.000000 )
               a(3) = (   0.000000   0.000000   1.810289 )

     reciprocal axes: (cart. coord. in units 2 pi/alat)
               b(1) = (  1.000000  0.985332  0.000000 )
               b(2) = (  0.000000  1.403880  0.000000 )
               b(3) = (  0.000000  0.000000  0.552398 )

     PseudoPot. # 1 for Li read from file:
     /lustre07/scratch/pragov/crystal_structure_design/utils/SSSP/li_pbe_v1.4.uspp.F.UPF
     MD5 check sum: e912e257baa3777c20ea3d68f190483c
     Pseudo is Ultrasoft, Zval =  3.0
     Generated by new atomic code, or converted to UPF format
     Using radial grid of  751 points,  5 beta functions with:
                l(1) =   0
                l(2) =   0
                l(3) =   0
                l(4) =   1
                l(5) =   1
     Q(r) pseudized with 10 coefficients,  rinner =    1.150   1.150   1.150

     PseudoPot. # 2 for H  read from file:
     /lustre07/scratch/pragov/crystal_structure_design/utils/SSSP/H.pbe-rrkjus_psl.1.0.0.UPF
     MD5 check sum: f52b6d4d1c606e5624b1dc7b2218f220
     Pseudo is Ultrasoft, Zval =  1.0
     Generated using "atomic" code by A. Dal Corso  v.5.1
     Using radial grid of  929 points,  2 beta functions with:
                l(1) =   0
                l(2) =   0
     Q(r) pseudized with 0 coefficients

     PseudoPot. # 3 for Rh read from file:
     /lustre07/scratch/pragov/crystal_structure_design/utils/SSSP/Rh_ONCV_PBE-1.0.oncvpsp.upf
     MD5 check sum: ba07c69523b14cacd10683cd4c4284c1
     Pseudo is Norm-conserving, Zval = 17.0
     Generated using ONCVPSP code by D. R. Hamann
     Using radial grid of 1442 points,  6 beta functions with:
                l(1) =   0
                l(2) =   0
                l(3) =   1
                l(4) =   1
                l(5) =   2
                l(6) =   2

     atomic species   valence    mass     pseudopotential
        Li             3.00     6.94000     Li( 1.00)
        H              1.00     1.00800     H ( 1.00)
        Rh            17.00   102.90550     Rh( 1.00)

      4 Sym. Ops., with inversion, found ( 2 have fractional translation)

                                    s                        frac. trans.

      isym =  1     identity

 cryst.   s( 1) = (     1          0          0      )
                  (     0          1          0      )
                  (     0          0          1      )

 cart.    s( 1) = (  1.0000000 -0.0000000  0.0000000 )
                  (  0.0000000  1.0000000  0.0000000 )
                  (  0.0000000  0.0000000  1.0000000 )

      isym =  2     180 deg rotation - cart. axis [0,0,1]

 cryst.   s( 2) = (    -1          0          0      )    f =(  0.0000000 )
                  (     0         -1          0      )       (  0.0000000 )
                  (     0          0          1      )       ( -0.5000000 )

 cart.    s( 2) = ( -1.0000000  0.0000000  0.0000000 )    f =(  0.0000000 )
                  (  0.0000000 -1.0000000  0.0000000 )       (  0.0000000 )
                  (  0.0000000  0.0000000  1.0000000 )       ( -0.9051444 )

      isym =  3     inversion

 cryst.   s( 3) = (    -1          0          0      )
                  (     0         -1          0      )
                  (     0          0         -1      )

 cart.    s( 3) = ( -1.0000000  0.0000000  0.0000000 )
                  (  0.0000000 -1.0000000  0.0000000 )
                  (  0.0000000  0.0000000 -1.0000000 )

      isym =  4     inv. 180 deg rotation - cart. axis [0,0,1]

 cryst.   s( 4) = (     1          0          0      )    f =(  0.0000000 )
                  (     0          1          0      )       (  0.0000000 )
                  (     0          0         -1      )       (  0.5000000 )

 cart.    s( 4) = (  1.0000000 -0.0000000  0.0000000 )    f =(  0.0000000 )
                  (  0.0000000  1.0000000  0.0000000 )       (  0.0000000 )
                  (  0.0000000  0.0000000 -1.0000000 )       (  0.9051444 )

   Cartesian axes

     site n.     atom                  positions (alat units)
         1           Li  tau(   1) = (  -0.4203785   0.5944968   0.7777689  )
         2           Li  tau(   2) = (   0.7185152   0.1178149   1.0325199  )
         3           Li  tau(   3) = (  -0.4203785   0.5944968   0.1273755  )
         4           Li  tau(   4) = (   0.7185152   0.1178149   1.6829133  )
         5           Li  tau(   5) = (   0.1279142   0.3650099   0.4525722  )
         6           Li  tau(   6) = (   0.1702225   0.3473018   1.3577166  )
         7           H   tau(   7) = (   0.8850340   0.0481188   0.2229751  )
         8           H   tau(   8) = (  -0.5868973   0.6641929   1.5873137  )
         9           H   tau(   9) = (   0.8850340   0.0481188   0.6821693  )
        10           H   tau(  10) = (  -0.5868973   0.6641929   1.1281195  )
        11           H   tau(  11) = (   0.4287253   0.2391059   0.7002867  )
        12           H   tau(  12) = (  -0.1305886   0.4732057   1.1100021  )
        13           H   tau(  13) = (   0.4287253   0.2391059   0.2048577  )
        14           H   tau(  14) = (  -0.1305886   0.4732057   1.6054311  )
        15           Rh  tau(  15) = (   0.6496936   0.1466201   0.4525722  )
        16           Rh  tau(  16) = (  -0.3515569   0.5656916   1.3577166  )

   Crystallographic axes

     site n.     atom                  positions (cryst. coord.)
         1           Li  tau(   1) = (  0.1653980  0.8346020  0.4296380  )
         2           Li  tau(   2) = (  0.8346020  0.1653980  0.5703620  )
         3           Li  tau(   3) = (  0.1653980  0.8346020  0.0703620  )
         4           Li  tau(   4) = (  0.8346020  0.1653980  0.9296380  )
         5           Li  tau(   5) = (  0.4875700  0.5124300  0.2500000  )
         6           Li  tau(   6) = (  0.5124300  0.4875700  0.7500000  )
         7           H   tau(   7) = (  0.9324470  0.0675530  0.1231710  )
         8           H   tau(   8) = (  0.0675530  0.9324470  0.8768290  )
         9           H   tau(   9) = (  0.9324470  0.0675530  0.3768290  )
        10           H   tau(  10) = (  0.0675530  0.9324470  0.6231710  )
        11           H   tau(  11) = (  0.6643240  0.3356760  0.3868370  )
        12           H   tau(  12) = (  0.3356760  0.6643240  0.6131630  )
        13           H   tau(  13) = (  0.6643240  0.3356760  0.1131630  )
        14           H   tau(  14) = (  0.3356760  0.6643240  0.8868370  )
        15           Rh  tau(  15) = (  0.7941630  0.2058370  0.2500000  )
        16           Rh  tau(  16) = (  0.2058370  0.7941630  0.7500000  )

     number of k points=    10
                       cart. coord. in units 2pi/alat
        k(    1) = (   0.0000000   0.0000000   0.0000000), wk =   0.0740741
        k(    2) = (   0.0000000   0.0000000   0.1841327), wk =   0.1481481
        k(    3) = (   0.0000000   0.4679599   0.0000000), wk =   0.1481481
        k(    4) = (   0.0000000   0.4679599   0.1841327), wk =   0.2962963
        k(    5) = (   0.3333333   0.3284439   0.0000000), wk =   0.1481481
        k(    6) = (   0.3333333   0.3284439   0.1841327), wk =   0.2962963
        k(    7) = (   0.3333333   0.7964038   0.0000000), wk =   0.1481481
        k(    8) = (   0.3333333   0.7964038   0.1841327), wk =   0.2962963
        k(    9) = (   0.3333333  -0.1395160   0.0000000), wk =   0.1481481
        k(   10) = (   0.3333333  -0.1395160   0.1841327), wk =   0.2962963

                       cryst. coord.
        k(    1) = (   0.0000000   0.0000000   0.0000000), wk =   0.0740741
        k(    2) = (   0.0000000   0.0000000   0.3333333), wk =   0.1481481
        k(    3) = (   0.0000000   0.3333333   0.0000000), wk =   0.1481481
        k(    4) = (   0.0000000   0.3333333   0.3333333), wk =   0.2962963
        k(    5) = (   0.3333333  -0.0000000   0.0000000), wk =   0.1481481
        k(    6) = (   0.3333333  -0.0000000   0.3333333), wk =   0.2962963
        k(    7) = (   0.3333333   0.3333333   0.0000000), wk =   0.1481481
        k(    8) = (   0.3333333   0.3333333   0.3333333), wk =   0.2962963
        k(    9) = (   0.3333333  -0.3333333   0.0000000), wk =   0.1481481
        k(   10) = (   0.3333333  -0.3333333   0.3333333), wk =   0.2962963

     Initial potential from superposition of free atoms

     starting charge      57.2946, renormalised to      60.0000
     Starting wfcs are   58 randomized atomic wfcs +    6 random wfcs

     Self-consistent Calculation

     iteration #  1     ecut=    30.00 Ry     beta= 0.70
     Davidson diagonalization with overlap

     ethr =  1.00E-02,  avg # of iterations =  7.1

     total energy              =    -527.01774806 Ry
     estimated scf accuracy    <       5.62142064 Ry

[...]

     total energy              =    -530.49503549 Ry
     estimated scf accuracy    <       0.00000430 Ry

     iteration # 10     ecut=    30.00 Ry     beta= 0.70
     Davidson diagonalization with overlap

     ethr =  2.65E-09,  avg # of iterations =  2.0

     End of self-consistent calculation

          k = 0.0000 0.0000 0.0000 (  2797 PWs)   bands (ev):

   -72.9424 -72.9424 -41.0541 -41.0538 -41.0077 -40.9987 -40.6626 -40.6516
   -40.6386 -40.6368 -40.4950 -40.4949 -40.4425 -40.4421  -2.4070  -1.3351
    -0.3225  -0.2546  -0.2448   2.0660   2.0873   2.2938   2.7520   2.8279
     2.8839   2.9479   3.3710   3.4052   3.5501   3.7460   7.7117   8.2491
     8.6009   9.0336   9.7331  10.1437  10.6706  11.7832  11.7999  11.9458
    12.5056  12.8316  12.9368  13.1192  13.2133  13.5040  13.6501  14.1965
    14.6065  14.6864  15.2776  15.7669  17.9718  18.1571  18.5365  18.6114
    18.6532  19.0691  19.1283  19.7860  20.5324  20.7477  21.4563  22.2576

     occupation numbers
     1.0000   1.0000   1.0000   1.0000   1.0000   1.0000   1.0000   1.0000
     1.0000   1.0000   1.0000   1.0000   1.0000   1.0000   1.0000   1.0000
     1.0000   1.0000   1.0000   1.0000   1.0000   1.0000   1.0000   1.0000
     1.0000   1.0000   1.0000   1.0000   1.0000   1.0000   0.0000   0.0000
     0.0000   0.0000   0.0000   0.0000   0.0000   0.0000   0.0000   0.0000
     0.0000   0.0000   0.0000   0.0000   0.0000   0.0000   0.0000   0.0000
     0.0000   0.0000   0.0000   0.0000   0.0000   0.0000   0.0000   0.0000
     0.0000   0.0000   0.0000   0.0000   0.0000   0.0000   0.0000   0.0000

[...]

          k = 0.3333-0.1395 0.1841 (  2832 PWs)   bands (ev):

   -72.9424 -72.9424 -41.0602 -41.0599 -41.0050 -41.0007 -40.6588 -40.6539
   -40.6393 -40.6388 -40.4904 -40.4900 -40.4427 -40.4425  -1.6510  -1.3408
    -0.7778  -0.5740   0.5639   1.1280   1.4441   2.1274   2.7405   2.7766
     2.9973   3.0831   3.5251   3.5407   3.5774   3.6786   6.3910   7.4938
     9.0465   9.3682   9.7574   9.8376  11.1377  11.6969  11.8269  12.3144
    12.6595  13.2977  13.6994  13.8433  14.0607  14.6629  14.8150  14.8283
    15.3472  15.4888  16.0455  16.4487  17.9139  17.9771  18.2018  18.2768
    18.7422  18.7626  19.7231  19.9447  20.1753  20.3762  20.7848  21.2087

     occupation numbers
     1.0000   1.0000   1.0000   1.0000   1.0000   1.0000   1.0000   1.0000
     1.0000   1.0000   1.0000   1.0000   1.0000   1.0000   1.0000   1.0000
     1.0000   1.0000   1.0000   1.0000   1.0000   1.0000   1.0000   1.0000
     1.0000   1.0000   1.0000   1.0000   1.0000   1.0000   0.0000   0.0000
     0.0000   0.0000   0.0000   0.0000   0.0000   0.0000   0.0000   0.0000
     0.0000   0.0000   0.0000   0.0000   0.0000   0.0000   0.0000   0.0000
     0.0000   0.0000   0.0000   0.0000   0.0000   0.0000   0.0000   0.0000
     0.0000   0.0000   0.0000   0.0000   0.0000   0.0000   0.0000   0.0000

     highest occupied, lowest unoccupied level (ev):     3.9528    5.8155

!    total energy              =    -530.49503625 Ry
     estimated scf accuracy    <       0.00000014 Ry

     The total energy is the sum of the following terms:
     one-electron contribution =    -360.67889409 Ry
     hartree contribution      =     181.40312369 Ry
     xc contribution           =     -70.30152693 Ry
     ewald contribution        =    -280.91773892 Ry

     convergence has been achieved in  10 iterations

     Writing all to output data dir bands_nm/myprefix.save/

     General routines

     Parallel routines

   This run was terminated on:  18:30:46  12Jul2023

   JOB DONE.