     Program PWSCF v.7.1 starts on 14Jul2023 at  1:46:45

     Reading input from espresso_4492.pwi
Warning: card &CELL ignored
Warning: card / ignored

     Current dimensions of program PWSCF are:
     Max number of different atomic species (ntypx) = 10
     Max number of k-points (npk) =  40000
     Max angular momentum in pseudopotentials (lmaxx) =  4
     file Al.pbe-n-kjpaw_psl.1.0.0.UPF: wavefunction(s)  3S 3P renormalized
     Message from routine setup:
     using ibrav=0 with symmetry is DISCOURAGED, use correct ibrav instead

     K-points division:     npool     =       2
     R & G space division:  proc/nbgrp/npool/nimage =       4
     Subspace diagonalization in iterative solution of the eigenvalue problem:
     a serial algorithm will be used

     Using Slab Decomposition

     bravais-lattice index     =            0
     lattice parameter (alat)  =       9.8219  a.u.
     unit-cell volume          =    1010.7540 (a.u.)^3
     number of atoms/cell      =           12
     number of atomic types    =            4
     number of electrons       =        64.00
     number of Kohn-Sham states=           64
     kinetic-energy cutoff     =      30.0000  Ry
     charge density cutoff     =     240.0000  Ry
     scf convergence threshold =      1.0E-06
     mixing beta               =       0.7000
     number of iterations used =            8  plain     mixing
     Exchange-correlation= PBE
                           (   1   4   3   4   0   0   0)

     celldm(1)=   9.821938  celldm(2)=   0.000000  celldm(3)=   0.000000
     celldm(4)=   0.000000  celldm(5)=   0.000000  celldm(6)=   0.000000

     crystal axes: (cart. coord. in units of alat)
               a(1) = (   1.000000   0.000000   0.000000 )
               a(2) = (   0.000000   1.105948   0.000000 )
               a(3) = (   0.000000  -0.543711   0.964537 )

     reciprocal axes: (cart. coord. in units 2 pi/alat)
               b(1) = (  1.000000  0.000000  0.000000 )
               b(2) = (  0.000000  0.904202  0.509700 )
               b(3) = (  0.000000  0.000000  1.036766 )

     PseudoPot. # 1 for Sr read from file:
     /lustre07/scratch/pragov/crystal_structure_design/utils/SSSP/Sr_pbe_v1.uspp.F.UPF
     MD5 check sum: 6b418c05fbe9db5448babca5e47b7a5b
     Pseudo is Ultrasoft + core correction, Zval = 10.0
     Generated by new atomic code, or converted to UPF format
     Using radial grid of  883 points,  6 beta functions with:
                l(1) =   0
                l(2) =   0
                l(3) =   1
                l(4) =   1
                l(5) =   2
                l(6) =   2
     Q(r) pseudized with  6 coefficients,  rinner =    1.400   1.400   1.400
                                                       1.400   1.400

     PseudoPot. # 2 for Al read from file:
     /lustre07/scratch/pragov/crystal_structure_design/utils/SSSP/Al.pbe-n-kjpaw_psl.1.0.0.UPF
     MD5 check sum: cfc449ca30b5f3223ec38ddd88ac046d
     Pseudo is Projector augmented-wave + core cor, Zval =  3.0
     Generated using "atomic" code by A. Dal Corso  v.5.1
     Shape of augmentation charge: PSQ
     Using radial grid of 1135 points,  6 beta functions with:
                l(1) =   0
                l(2) =   0
                l(3) =   1
                l(4) =   1
                l(5) =   2
                l(6) =   2
     Q(r) pseudized with 0 coefficients

     PseudoPot. # 3 for Si read from file:
     /lustre07/scratch/pragov/crystal_structure_design/utils/SSSP/Si.pbe-n-rrkjus_psl.1.0.0.UPF
     MD5 check sum: 0b0bb1205258b0d07b9f9672cf965d36
     Pseudo is Ultrasoft + core correction, Zval =  4.0
     Generated using "atomic" code by A. Dal Corso  v.5.1
     Using radial grid of 1141 points,  6 beta functions with:
                l(1) =   0
                l(2) =   0
                l(3) =   1
                l(4) =   1
                l(5) =   2
                l(6) =   2
     Q(r) pseudized with 0 coefficients

     PseudoPot. # 4 for N  read from file:
     /lustre07/scratch/pragov/crystal_structure_design/utils/SSSP/N.pbe-n-radius_5.UPF
     MD5 check sum: 16739722b17309cd8fe442a2ace49922
     Pseudo is Ultrasoft + core correction, Zval =  5.0
     Generated using "atomic" code by A. Dal Corso  v.5.1
     Using radial grid of 1085 points,  4 beta functions with:
                l(1) =   0
                l(2) =   0
                l(3) =   1
                l(4) =   1
     Q(r) pseudized with 0 coefficients

     atomic species   valence    mass     pseudopotential
        Sr            10.00    87.62000     Sr( 1.00)
        Al             3.00    26.98154     Al( 1.00)
        Si             4.00    28.08500     Si( 1.00)
        N              5.00    14.00700     N ( 1.00)

      2 Sym. Ops. (no inversion) found ( 1 have fractional translation)

                                    s                        frac. trans.

      isym =  1     identity

 cryst.   s( 1) = (     1          0          0      )
                  (     0          1          0      )
                  (     0          0          1      )

 cart.    s( 1) = (  1.0000000  0.0000000  0.0000000 )
                  (  0.0000000  1.0000000  0.0000000 )
                  (  0.0000000  0.0000000  1.0000000 )

      isym =  2     180 deg rotation - cart. axis [1,0,0]

 cryst.   s( 2) = (     1          0          0      )    f =( -0.5000000 )
                  (     0         -1          0      )       (  0.0000000 )
                  (     0          0         -1      )       (  0.0000000 )

 cart.    s( 2) = (  1.0000000  0.0000000  0.0000000 )    f =( -0.5000000 )
                  (  0.0000000 -1.0000000  0.0000000 )       (  0.0000000 )
                  (  0.0000000  0.0000000 -1.0000000 )       (  0.0000000 )

   Cartesian axes

     site n.     atom                  positions (alat units)
         1           Sr  tau(   1) = (   0.0089180   0.3855867   0.6641891  )
         2           Sr  tau(   2) = (   0.5089180   0.1766505   0.3003483  )
         3           Al  tau(   3) = (   0.5273350  -0.3382658   0.6497915  )
         4           Al  tau(   4) = (   0.0273350   0.9005029   0.3147459  )
         5           Si  tau(   5) = (   0.5224490   0.7257660   0.0261689  )
         6           Si  tau(   6) = (   0.0224490  -0.1635289   0.9383685  )
         7           N   tau(   7) = (   0.5101390   0.4296582   0.7699622  )
         8           N   tau(   8) = (   0.0101390   0.1325790   0.1945752  )
         9           N   tau(   9) = (   0.8759630  -0.2307526   0.6416247  )
        10           N   tau(  10) = (   0.8533960   0.6511348   0.0993387  )
        11           N   tau(  11) = (   0.3759630   0.7929898   0.3229127  )
        12           N   tau(  12) = (   0.3533960  -0.0888977   0.8651987  )

   Crystallographic axes

     site n.     atom                  positions (cryst. coord.)
         1           Sr  tau(   1) = (  0.0089180  0.6871850  0.6886090  )
         2           Sr  tau(   2) = (  0.5089180  0.3128150  0.3113910  )
         3           Al  tau(   3) = (  0.5273350  0.0253380  0.6736820  )
         4           Al  tau(   4) = (  0.0273350  0.9746620  0.3263180  )
         5           Si  tau(   5) = (  0.5224490  0.6695770  0.0271310  )
         6           Si  tau(   6) = (  0.0224490  0.3304230  0.9728690  )
         7           N   tau(   7) = (  0.5101390  0.7809470  0.7982710  )
         8           N   tau(   8) = (  0.0101390  0.2190530  0.2017290  )
         9           N   tau(   9) = (  0.8759630  0.1183890  0.6652150  )
        10           N   tau(  10) = (  0.8533960  0.6393900  0.1029910  )
        11           N   tau(  11) = (  0.3759630  0.8816110  0.3347850  )
        12           N   tau(  12) = (  0.3533960  0.3606100  0.8970090  )

     number of k points=    10
                       cart. coord. in units 2pi/alat
        k(    1) = (   0.0000000   0.0000000   0.0000000), wk =   0.0740741
        k(    2) = (   0.0000000   0.0000000   0.3455888), wk =   0.1481481
        k(    3) = (   0.0000000   0.3014005   0.1698999), wk =   0.1481481
        k(    4) = (   0.0000000   0.3014005   0.5154887), wk =   0.1481481
        k(    5) = (   0.0000000   0.3014005  -0.1756889), wk =   0.1481481
        k(    6) = (   0.3333333   0.0000000   0.0000000), wk =   0.1481481
        k(    7) = (   0.3333333   0.0000000   0.3455888), wk =   0.2962963
        k(    8) = (   0.3333333   0.3014005   0.1698999), wk =   0.2962963
        k(    9) = (   0.3333333   0.3014005   0.5154887), wk =   0.2962963
        k(   10) = (   0.3333333   0.3014005  -0.1756889), wk =   0.2962963

                       cryst. coord.
        k(    1) = (   0.0000000   0.0000000   0.0000000), wk =   0.0740741
        k(    2) = (   0.0000000   0.0000000   0.3333333), wk =   0.1481481
        k(    3) = (   0.0000000   0.3333333  -0.0000000), wk =   0.1481481
        k(    4) = (   0.0000000   0.3333333   0.3333333), wk =   0.1481481
        k(    5) = (   0.0000000   0.3333333  -0.3333333), wk =   0.1481481
        k(    6) = (   0.3333333   0.0000000   0.0000000), wk =   0.1481481
        k(    7) = (   0.3333333   0.0000000   0.3333333), wk =   0.2962963
        k(    8) = (   0.3333333   0.3333333  -0.0000000), wk =   0.2962963
        k(    9) = (   0.3333333   0.3333333   0.3333333), wk =   0.2962963
        k(   10) = (   0.3333333   0.3333333  -0.3333333), wk =   0.2962963

     Check: negative core charge=   -0.000003

     Initial potential from superposition of free atoms

     starting charge      63.9270, renormalised to      64.0000

     negative rho (up, down):  1.283E-01 0.000E+00
     Starting wfcs are   66 randomized atomic wfcs
     Checking if some PAW data can be deallocated...

     Self-consistent Calculation

     iteration #  1     ecut=    30.00 Ry     beta= 0.70
     Davidson diagonalization with overlap

     ethr =  1.00E-02,  avg # of iterations =  7.2

     negative rho (up, down):  1.303E-01 0.000E+00

     total energy              =    -362.63774285 Ry
     estimated scf accuracy    <       3.68564413 Ry

[...]

     total energy              =    -364.28633553 Ry
     estimated scf accuracy    <       0.00000412 Ry

     iteration #  9     ecut=    30.00 Ry     beta= 0.70
     Davidson diagonalization with overlap

     ethr =  6.44E-09,  avg # of iterations =  2.0

     negative rho (up, down):  1.348E-01 0.000E+00

     End of self-consistent calculation

          k = 0.0000 0.0000 0.0000 (  2839 PWs)   bands (ev):

   -24.7706 -24.6795  -7.3869  -7.1994  -7.0863  -7.0536  -6.7992  -6.7719
    -6.5909  -4.9930  -4.8174  -4.2941  -4.0135  -4.0096   1.3313   2.2577
     2.6982   4.0020   4.0349   5.3350   5.5026   5.7757   6.2076   6.6745
     7.3581   7.5918   7.8217   7.8474   8.0438   8.2470   8.3829   9.1495
    12.6252  12.6324  13.1050  13.2967  14.0922  14.5013  14.9246  15.0431
    15.4541  16.1151  16.1801  16.5097  17.3321  17.4074  18.1962  18.2032
    18.3087  18.7440  18.7815  19.0021  19.1259  19.1391  19.6246  20.3452
    20.4257  20.6640  20.7822  20.9120  21.6807  22.1331  22.8410  23.1116

     occupation numbers
     1.0000   1.0000   1.0000   1.0000   1.0000   1.0000   1.0000   1.0000
     1.0000   1.0000   1.0000   1.0000   1.0000   1.0000   1.0000   1.0000
     1.0000   1.0000   1.0000   1.0000   1.0000   1.0000   1.0000   1.0000
     1.0000   1.0000   1.0000   1.0000   1.0000   1.0000   1.0000   1.0000
     0.0000   0.0000   0.0000   0.0000   0.0000   0.0000   0.0000   0.0000
     0.0000   0.0000   0.0000   0.0000   0.0000   0.0000   0.0000   0.0000
     0.0000   0.0000   0.0000   0.0000   0.0000   0.0000   0.0000   0.0000
     0.0000   0.0000   0.0000   0.0000   0.0000   0.0000   0.0000   0.0000

[...]

          k = 0.3333 0.3014-0.1757 (  2803 PWs)   bands (ev):

   -24.7466 -24.7016  -7.6107  -7.3622  -7.2099  -7.1327  -6.8886  -6.7605
    -5.8544  -5.3301  -4.5628  -4.4398  -3.9068  -3.8533   1.7918   2.1558
     3.1954   4.0217   4.7120   4.8955   5.6247   5.7440   6.0018   6.4290
     6.7472   6.8838   7.6713   7.7269   7.8087   8.1104   8.3559   8.4968
    12.9753  13.2135  13.3482  13.8485  14.1841  14.7533  14.8678  15.0514
    15.5117  15.6910  16.1691  16.5440  16.7334  16.9843  17.4088  17.5551
    18.0940  18.5961  18.8141  19.5013  19.6121  19.8891  20.2900  20.6430
    20.8445  21.2274  21.4196  21.6390  21.9132  22.3442  23.1025  23.2835

     occupation numbers
     1.0000   1.0000   1.0000   1.0000   1.0000   1.0000   1.0000   1.0000
     1.0000   1.0000   1.0000   1.0000   1.0000   1.0000   1.0000   1.0000
     1.0000   1.0000   1.0000   1.0000   1.0000   1.0000   1.0000   1.0000
     1.0000   1.0000   1.0000   1.0000   1.0000   1.0000   1.0000   1.0000
     0.0000   0.0000   0.0000   0.0000   0.0000   0.0000   0.0000   0.0000
     0.0000   0.0000   0.0000   0.0000   0.0000   0.0000   0.0000   0.0000
     0.0000   0.0000   0.0000   0.0000   0.0000   0.0000   0.0000   0.0000
     0.0000   0.0000   0.0000   0.0000   0.0000   0.0000   0.0000   0.0000

     highest occupied, lowest unoccupied level (ev):     9.1495   12.5320

!    total energy              =    -364.28633654 Ry
     estimated scf accuracy    <       0.00000035 Ry

     The total energy is the sum of the following terms:
     one-electron contribution =     -18.64358327 Ry
     hartree contribution      =      47.12199257 Ry
     xc contribution           =     -87.98826910 Ry
     ewald contribution        =    -235.40740624 Ry
     one-center paw contrib.   =     -69.36907050 Ry
      -> PAW hartree energy AE =       0.00000000 Ry
      -> PAW hartree energy PS =       0.00000000 Ry
      -> PAW xc energy AE      =       0.00000000 Ry
      -> PAW xc energy PS      =       0.00000000 Ry
      -> total E_H with PAW    =      47.12199257 Ry
      -> total E_XC with PAW   =     -87.98826910 Ry

     convergence has been achieved in   9 iterations

     Writing all to output data dir bands_nm/myprefix.save/

     General routines

     Parallel routines

     PAW routines

   This run was terminated on:   1:46:57  14Jul2023

   JOB DONE.