     Program PWSCF v.7.1 starts on  9Jul2023 at 13:14:11

     Reading input from espresso_1450.pwi
Warning: card &CELL ignored
Warning: card / ignored

     Current dimensions of program PWSCF are:
     Max number of different atomic species (ntypx) = 10
     Max number of k-points (npk) =  40000
     Max angular momentum in pseudopotentials (lmaxx) =  4
     file O.pbe-n-kjpaw_psl.0.1.UPF: wavefunction(s)  2P renormalized
     Message from routine setup:
     using ibrav=0 with symmetry is DISCOURAGED, use correct ibrav instead

     K-points division:     npool     =       2
     R & G space division:  proc/nbgrp/npool/nimage =       4
     Subspace diagonalization in iterative solution of the eigenvalue problem:
     a serial algorithm will be used

     Using Slab Decomposition

     bravais-lattice index     =            0
     lattice parameter (alat)  =      13.3932  a.u.
     unit-cell volume          =    1254.7694 (a.u.)^3
     number of atoms/cell      =           12
     number of atomic types    =            3
     number of electrons       =       124.00
     number of Kohn-Sham states=           64
     kinetic-energy cutoff     =      30.0000  Ry
     charge density cutoff     =     240.0000  Ry
     scf convergence threshold =      1.0E-06
     mixing beta               =       0.7000
     number of iterations used =            8  plain     mixing
     Exchange-correlation=  SLA  PW   PBX  PBC
                           (   1   4   3   4   0   0   0)

     celldm(1)=  13.393248  celldm(2)=   0.000000  celldm(3)=   0.000000
     celldm(4)=   0.000000  celldm(5)=   0.000000  celldm(6)=   0.000000

     crystal axes: (cart. coord. in units of alat)
               a(1) = (   1.000000   0.000000   0.000000 )
               a(2) = (   0.599754   0.723973   0.000000 )
               a(3) = (   0.400246   0.060829   0.721413 )

     reciprocal axes: (cart. coord. in units 2 pi/alat)
               b(1) = (  1.000000 -0.828420 -0.484957 )
               b(2) = (  0.000000  1.381267 -0.116467 )
               b(3) = (  0.000000  0.000000  1.386169 )

     PseudoPot. # 1 for Gd read from file:
     /home/pragov/projects/rrg-bengioy-ad/pragov/crystal_structure_design/SSSP/Gd.GGA-PBE-paw-v1.0.UPF
     MD5 check sum: 3e8e0d208da550914ae52eaf991d13de
     Pseudo is Projector augmented-wave + core cor, Zval = 18.0
     Generated using ATOMPAW code
     Shape of augmentation charge: BESSEL
     Using radial grid of 1110 points,  8 beta functions with:
                l(1) =   0
                l(2) =   0
                l(3) =   1
                l(4) =   1
                l(5) =   2
                l(6) =   2
                l(7) =   3
                l(8) =   3
     Q(r) pseudized with 0 coefficients

     PseudoPot. # 2 for O  read from file:
     /home/pragov/projects/rrg-bengioy-ad/pragov/crystal_structure_design/SSSP/O.pbe-n-kjpaw_psl.0.1.UPF
     MD5 check sum: 0234752ac141de4415c5fc33072bef88
     Pseudo is Projector augmented-wave + core cor, Zval =  6.0
     Generated using "atomic" code by A. Dal Corso  v.5.0.99 svn rev. 10869
     Shape of augmentation charge: BESSEL
     Using radial grid of 1095 points,  4 beta functions with:
                l(1) =   0
                l(2) =   0
                l(3) =   1
                l(4) =   1
     Q(r) pseudized with 0 coefficients

     PseudoPot. # 3 for F  read from file:
     /home/pragov/projects/rrg-bengioy-ad/pragov/crystal_structure_design/SSSP/f_pbe_v1.4.uspp.F.UPF
     MD5 check sum: 4c38b6a325caf53ec0e86aed9459de46
     Pseudo is Ultrasoft, Zval =  7.0
     Generated by new atomic code, or converted to UPF format
     Using radial grid of  799 points,  4 beta functions with:
                l(1) =   0
                l(2) =   0
                l(3) =   1
                l(4) =   1
     Q(r) pseudized with  8 coefficients,  rinner =    0.950   0.950   0.950

     atomic species   valence    mass     pseudopotential
        Gd            18.00   157.25000     Gd( 1.00)
        O              6.00    15.99900     O ( 1.00)
        F              7.00    18.99840     F ( 1.00)

      2 Sym. Ops., with inversion, found ( 1 have fractional translation)

                                    s                        frac. trans.

      isym =  1     identity

 cryst.   s( 1) = (     1          0          0      )
                  (     0          1          0      )
                  (     0          0          1      )

 cart.    s( 1) = (  1.0000000 -0.0000000  0.0000000 )
                  (  0.0000000  1.0000000  0.0000000 )
                  (  0.0000000  0.0000000  1.0000000 )

      isym =  2     inversion

 cryst.   s( 2) = (    -1          0          0      )    f =( -0.2500000 )
                  (     0         -1          0      )       ( -0.2500000 )
                  (     0          0         -1      )       ( -0.2500000 )

 cart.    s( 2) = ( -1.0000000  0.0000000  0.0000000 )    f =( -0.5000000 )
                  (  0.0000000 -1.0000000 -0.0000000 )       ( -0.1962004 )
                  (  0.0000000  0.0000000 -1.0000000 )       ( -0.1803532 )

   Cartesian axes

     site n.     atom                  positions (alat units)
         1           Gd  tau(   1) = (   0.7592287   0.5918606   0.1437206  )
         2           Gd  tau(   2) = (   0.6594749   0.0640881   0.3240738  )
         3           Gd  tau(   3) = (   1.2407713   0.1929409   0.5776923  )
         4           Gd  tau(   4) = (   0.3405251   0.3283126   0.0366326  )
         5           O   tau(   5) = (   0.5591258   0.1486648   0.6258589  )
         6           O   tau(   6) = (   1.4408742   0.6361367   0.0955540  )
         7           O   tau(   7) = (   0.6588796   0.2840365   0.0847992  )
         8           O   tau(   8) = (   0.3411204   0.1083643   0.2759072  )
         9           F   tau(   9) = (   1.0498769   0.4600866   0.0901766  )
        10           F   tau(  10) = (   1.2500000   0.4905009   0.4508831  )
        11           F   tau(  11) = (   0.9501231   0.1285145   0.4508831  )
        12           F   tau(  12) = (   0.7500000   0.4905009   0.4508831  )

   Crystallographic axes

     site n.     atom                  positions (cryst. coord.)
         1           Gd  tau(   1) = (  0.1992210  0.8007790  0.1992210  )
         2           Gd  tau(   2) = (  0.4492210  0.0507790  0.4492210  )
         3           Gd  tau(   3) = (  0.8007790  0.1992210  0.8007790  )
         4           Gd  tau(   4) = (  0.0507790  0.4492210  0.0507790  )
         5           O   tau(   5) = (  0.1324540  0.1324540  0.8675460  )
         6           O   tau(   6) = (  0.8675460  0.8675460  0.1324540  )
         7           O   tau(   7) = (  0.3824540  0.3824540  0.1175460  )
         8           O   tau(   8) = (  0.1175460  0.1175460  0.3824540  )
         9           F   tau(   9) = (  0.6250000  0.6250000  0.1250000  )
        10           F   tau(  10) = (  0.6250000  0.6250000  0.6250000  )
        11           F   tau(  11) = (  0.6250000  0.1250000  0.6250000  )
        12           F   tau(  12) = (  0.1250000  0.6250000  0.6250000  )

     number of k points=    14
                       cart. coord. in units 2pi/alat
        k(    1) = (   0.0000000   0.0000000   0.0000000), wk =   0.0740741
        k(    2) = (   0.0000000   0.0000000   0.4620563), wk =   0.1481481
        k(    3) = (   0.0000000   0.4604224  -0.0388223), wk =   0.1481481
        k(    4) = (   0.0000000   0.4604224   0.4232340), wk =   0.1481481
        k(    5) = (   0.0000000   0.4604224  -0.5008785), wk =   0.1481481
        k(    6) = (   0.3333333  -0.2761401  -0.1616525), wk =   0.1481481
        k(    7) = (   0.3333333  -0.2761401   0.3004038), wk =   0.1481481
        k(    8) = (   0.3333333  -0.2761401  -0.6237087), wk =   0.1481481
        k(    9) = (   0.3333333   0.1842824  -0.2004747), wk =   0.1481481
        k(   10) = (   0.3333333   0.1842824   0.2615815), wk =   0.1481481
        k(   11) = (   0.3333333   0.1842824  -0.6625310), wk =   0.1481481
        k(   12) = (   0.3333333  -0.7365625  -0.1228302), wk =   0.1481481
        k(   13) = (   0.3333333  -0.7365625   0.3392260), wk =   0.1481481
        k(   14) = (   0.3333333  -0.7365625  -0.5848865), wk =   0.1481481

                       cryst. coord.
        k(    1) = (   0.0000000   0.0000000   0.0000000), wk =   0.0740741
        k(    2) = (   0.0000000   0.0000000   0.3333333), wk =   0.1481481
        k(    3) = (   0.0000000   0.3333333   0.0000000), wk =   0.1481481
        k(    4) = (   0.0000000   0.3333333   0.3333333), wk =   0.1481481
        k(    5) = (   0.0000000   0.3333333  -0.3333333), wk =   0.1481481
        k(    6) = (   0.3333333  -0.0000000  -0.0000000), wk =   0.1481481
        k(    7) = (   0.3333333  -0.0000000   0.3333333), wk =   0.1481481
        k(    8) = (   0.3333333  -0.0000000  -0.3333333), wk =   0.1481481
        k(    9) = (   0.3333333   0.3333333   0.0000000), wk =   0.1481481
        k(   10) = (   0.3333333   0.3333333   0.3333333), wk =   0.1481481
        k(   11) = (   0.3333333   0.3333333  -0.3333333), wk =   0.1481481
        k(   12) = (   0.3333333  -0.3333333   0.0000000), wk =   0.1481481
        k(   13) = (   0.3333333  -0.3333333   0.3333333), wk =   0.1481481
        k(   14) = (   0.3333333  -0.3333333  -0.3333333), wk =   0.1481481

     Check: negative core charge=   -0.000008

     Initial potential from superposition of free atoms

     starting charge     123.9793, renormalised to     124.0000
     Starting wfcs are  160 randomized atomic wfcs
     Checking if some PAW data can be deallocated...

     Self-consistent Calculation

     iteration #  1     ecut=    30.00 Ry     beta= 0.70
     Davidson diagonalization with overlap

     ethr =  1.00E-02,  avg # of iterations =  1.0

     total energy              =   -3073.30701154 Ry
     estimated scf accuracy    <      20.50032016 Ry

[...]

     c_bands:  1 eigenvalues not converged
     ethr =  4.45E-04,  avg # of iterations =  4.8

[...]

     c_bands:  1 eigenvalues not converged
     ethr =  8.53E-09,  avg # of iterations = 16.8

[...]

     total energy              =   -3096.49851785 Ry
     estimated scf accuracy    <       0.00000598 Ry

     iteration #382     ecut=    30.00 Ry     beta= 0.70
     Davidson diagonalization with overlap

     ethr =  1.29E-09,  avg # of iterations =  7.3

     End of self-consistent calculation

          k = 0.0000 0.0000 0.0000 (  3473 PWs)   bands (ev):

   -32.2698 -32.2202 -32.2126 -32.1998 -13.9106 -13.8360 -13.6883 -13.6823
   -11.6658 -11.1729 -10.8322 -10.3894 -10.3499 -10.1970 -10.0550  -9.9804
    -9.9314  -9.6668  -9.6638  -9.6588  -7.5907  -7.1420  -6.9470  -6.0148
     4.0019   4.2422   4.2482   4.3686   4.3966   4.7189   4.7854   4.8617
     4.9313   5.2619   5.5147   5.7718   5.8714   5.9166   5.9328   6.2495
     6.5182   6.8282   6.8388   6.8437   6.8602   7.1033   7.1275   7.1722
     9.2916   9.3732   9.3875   9.4065   9.4272   9.4456   9.4598   9.4714
     9.4838   9.4925   9.4938   9.5111   9.5282   9.5526   9.5924   9.6613

     occupation numbers
     1.0000   1.0000   1.0000   1.0000   1.0000   1.0000   1.0000   1.0000
     1.0000   1.0000   1.0000   1.0000   1.0000   1.0000   1.0000   1.0000
     1.0000   1.0000   1.0000   1.0000   1.0000   1.0000   1.0000   1.0000
     1.0000   1.0000   1.0000   1.0000   1.0000   1.0000   1.0000   1.0000
     1.0000   1.0000   1.0000   1.0000   1.0000   1.0000   1.0000   1.0000
     1.0000   1.0000   1.0000   1.0000   1.0000   1.0000   1.0000   1.0000
     1.0000   1.0000   1.0000   1.0000   1.0000   1.0000   1.0000   1.0000
     1.0000   1.0000   1.0000   1.0000   1.0000   1.0000   0.0000   0.0000

[...]

          k = 0.3333-0.7366-0.5849 (  3475 PWs)   bands (ev):

   -32.2438 -32.2267 -32.2199 -32.2121 -13.8559 -13.8284 -13.7388 -13.7267
   -11.4275 -11.3679 -10.7918 -10.4186 -10.2306 -10.1521 -10.0864 -10.0255
    -9.9427  -9.8615  -9.6671  -9.6426  -7.4434  -7.3112  -6.5881  -6.2809
     4.2600   4.2749   4.3583   4.4519   4.7418   4.7490   4.7907   4.9634
     5.0065   5.1842   5.4963   5.5273   5.6373   5.8467   6.1094   6.1629
     6.5028   6.5451   6.6119   6.6788   6.8052   6.8987   7.1402   7.1774
     9.3378   9.3548   9.3916   9.4083   9.4226   9.4387   9.4518   9.4635
     9.4748   9.4895   9.5032   9.5058   9.5410   9.5766   9.5929   9.6441

     occupation numbers
     1.0000   1.0000   1.0000   1.0000   1.0000   1.0000   1.0000   1.0000
     1.0000   1.0000   1.0000   1.0000   1.0000   1.0000   1.0000   1.0000
     1.0000   1.0000   1.0000   1.0000   1.0000   1.0000   1.0000   1.0000
     1.0000   1.0000   1.0000   1.0000   1.0000   1.0000   1.0000   1.0000
     1.0000   1.0000   1.0000   1.0000   1.0000   1.0000   1.0000   1.0000
     1.0000   1.0000   1.0000   1.0000   1.0000   1.0000   1.0000   1.0000
     1.0000   1.0000   1.0000   1.0000   1.0000   1.0000   1.0000   1.0000
     1.0000   1.0000   1.0000   1.0000   1.0000   1.0000   0.0000   0.0000

     highest occupied, lowest unoccupied level (ev):     9.5870    9.5924

!    total energy              =   -3096.49851841 Ry
     estimated scf accuracy    <       0.00000079 Ry

     The total energy is the sum of the following terms:
     one-electron contribution =    -543.66950903 Ry
     hartree contribution      =     359.41550042 Ry
     xc contribution           =    -157.73563988 Ry
     ewald contribution        =    -852.41929564 Ry
     one-center paw contrib.   =   -1902.08957428 Ry
      -> PAW hartree energy AE =     365.49406837 Ry
      -> PAW hartree energy PS =    -346.78583309 Ry
      -> PAW xc energy AE      =    -993.30724736 Ry
      -> PAW xc energy PS      =      42.60240650 Ry
      -> total E_H with PAW    =     378.12373569 Ry
      -> total E_XC with PAW   =   -1108.44048074 Ry

     convergence has been achieved in 382 iterations

     Writing all to output data dir bands_nm/myprefix.save/

     General routines

     Parallel routines

     PAW routines

   This run was terminated on:  13:29:10   9Jul2023

   JOB DONE.