     Program PWSCF v.7.1 starts on 14Jul2023 at 18:31:34

     Reading input from espresso_21204.pwi
Warning: card &CELL ignored
Warning: card / ignored

     Current dimensions of program PWSCF are:
     Max number of different atomic species (ntypx) = 10
     Max number of k-points (npk) =  40000
     Max angular momentum in pseudopotentials (lmaxx) =  4
     Message from routine setup:
     using ibrav=0 with symmetry is DISCOURAGED, use correct ibrav instead

     K-points division:     npool     =       2
     R & G space division:  proc/nbgrp/npool/nimage =       4
     Subspace diagonalization in iterative solution of the eigenvalue problem:
     a serial algorithm will be used

     Using Slab Decomposition

     bravais-lattice index     =            0
     lattice parameter (alat)  =      14.3113  a.u.
     unit-cell volume          =    2013.9195 (a.u.)^3
     number of atoms/cell      =           12
     number of atomic types    =            3
     number of electrons       =       126.00
     number of Kohn-Sham states=           64
     kinetic-energy cutoff     =      30.0000  Ry
     charge density cutoff     =     240.0000  Ry
     scf convergence threshold =      1.0E-06
     mixing beta               =       0.7000
     number of iterations used =            8  plain     mixing
     Exchange-correlation= SLA  PW   PBE  PBE
                           (   1   4   3   4   0   0   0)

     celldm(1)=  14.311303  celldm(2)=   0.000000  celldm(3)=   0.000000
     celldm(4)=   0.000000  celldm(5)=   0.000000  celldm(6)=   0.000000

     crystal axes: (cart. coord. in units of alat)
               a(1) = (   1.000000   0.000000   0.000000 )
               a(2) = (  -0.500000   0.866025   0.000000 )
               a(3) = (   0.000000   0.000000   0.793367 )

     reciprocal axes: (cart. coord. in units 2 pi/alat)
               b(1) = (  1.000000  0.577350  0.000000 )
               b(2) = (  0.000000  1.154700  0.000000 )
               b(3) = (  0.000000  0.000000  1.260451 )

     PseudoPot. # 1 for Tl read from file:
     /lustre07/scratch/pragov/crystal_structure_design/utils/SSSP/Tl_pbe_v1.2.uspp.F.UPF
     MD5 check sum: b76cf1f7e72655a2b2c53cf6385d7059
     Pseudo is Ultrasoft + core correction, Zval = 13.0
     Generated by new atomic code, or converted to UPF format
     Using radial grid of  899 points,  6 beta functions with:
                l(1) =   0
                l(2) =   0
                l(3) =   1
                l(4) =   1
                l(5) =   2
                l(6) =   2
     Q(r) pseudized with  6 coefficients,  rinner =    1.100   1.100   1.100
                                                       1.100   1.100

     PseudoPot. # 2 for Pt read from file:
     /lustre07/scratch/pragov/crystal_structure_design/utils/SSSP/pt_pbe_v1.4.uspp.F.UPF
     MD5 check sum: f09d6de1a584b5a045c4fc126da2d0c4
     Pseudo is Ultrasoft + core correction, Zval = 16.0
     Generated by new atomic code, or converted to UPF format
     Using radial grid of  985 points,  6 beta functions with:
                l(1) =   0
                l(2) =   0
                l(3) =   1
                l(4) =   1
                l(5) =   2
                l(6) =   2
     Q(r) pseudized with  8 coefficients,  rinner =    1.300   1.300   1.300
                                                       1.300   1.300

     PseudoPot. # 3 for Se read from file:
     /lustre07/scratch/pragov/crystal_structure_design/utils/SSSP/Se_pbe_v1.uspp.F.UPF
     MD5 check sum: 1b3568f3a8ae88f9a2a0ad0698632c85
     Pseudo is Ultrasoft + core correction, Zval =  6.0
     Generated by new atomic code, or converted to UPF format
     Using radial grid of  877 points,  6 beta functions with:
                l(1) =   0
                l(2) =   0
                l(3) =   1
                l(4) =   1
                l(5) =   2
                l(6) =   2
     Q(r) pseudized with  8 coefficients,  rinner =    1.300   1.300   1.300
                                                       1.300   1.300

     atomic species   valence    mass     pseudopotential
        Tl            13.00   204.38000     Tl( 1.00)
        Pt            16.00   195.08400     Pt( 1.00)
        Se             6.00    78.97100     Se( 1.00)

     12 Sym. Ops., with inversion, found

                                    s                        frac. trans.

      isym =  1     identity

 cryst.   s( 1) = (     1          0          0      )
                  (     0          1          0      )
                  (     0          0          1      )

 cart.    s( 1) = (  1.0000000  0.0000000  0.0000000 )
                  (  0.0000000  1.0000000  0.0000000 )
                  (  0.0000000  0.0000000  1.0000000 )

      isym =  2     180 deg rotation - cart. axis [1,0,0]

[...]

      isym =  3     120 deg rotation - cryst. axis [0,0,1]

[...]

      isym =  6     180 deg rotation - cryst. axis [1,1,0]

[...]

      isym =  7     inversion

[...]

      isym =  8     inv. 180 deg rotation - cart. axis [1,0,0]

[...]

      isym =  9     inv. 120 deg rotation - cryst. axis [0,0,1]

 cryst.   s( 9) = (     0         -1          0      )
                  (     1          1          0      )
                  (     0          0         -1      )

 cart.    s( 9) = (  0.4999999  0.8660254  0.0000000 )
                  ( -0.8660254  0.5000001  0.0000000 )
                  (  0.0000000  0.0000000 -1.0000000 )

[...]

 cryst.   s(10) = (     1          1          0      )
                  (    -1          0          0      )
                  (     0          0         -1      )

 cart.    s(10) = (  0.5000001 -0.8660254  0.0000000 )
                  (  0.8660254  0.4999999  0.0000000 )
                  (  0.0000000  0.0000000 -1.0000000 )

[...]

      isym = 12     inv. 180 deg rotation - cryst. axis [1,1,0]

 cryst.   s(12) = (     0         -1          0      )
                  (    -1          0          0      )
                  (     0          0          1      )

 cart.    s(12) = (  0.4999999 -0.8660254  0.0000000 )
                  ( -0.8660254 -0.4999999  0.0000000 )
                  (  0.0000000  0.0000000  1.0000000 )

   Cartesian axes

     site n.     atom                  positions (alat units)
         1           Tl  tau(   1) = (  -0.0000005   0.5773506   0.2761931  )
         2           Tl  tau(   2) = (   0.5000005   0.2886749   0.5171734  )
         3           Pt  tau(   3) = (   0.0000000   0.0000000   0.0000000  )
         4           Pt  tau(   4) = (   0.5000000   0.0000000   0.0000000  )
         5           Pt  tau(   5) = (  -0.2500000   0.4330127   0.0000000  )
         6           Pt  tau(   6) = (   0.2500000   0.4330127   0.0000000  )
         7           Se  tau(   7) = (  -0.2452595   0.7189509   0.6291072  )
         8           Se  tau(   8) = (   0.0000000   0.2941490   0.6291072  )
         9           Se  tau(   9) = (   0.2452595   0.7189509   0.6291072  )
        10           Se  tau(  10) = (   0.2547405   0.1470745   0.1642594  )
        11           Se  tau(  11) = (   0.5000000   0.5718764   0.1642594  )
        12           Se  tau(  12) = (   0.7452595   0.1470745   0.1642594  )

   Crystallographic axes

     site n.     atom                  positions (cryst. coord.)
         1           Tl  tau(   1) = (  0.3333330  0.6666670  0.3481280  )
         2           Tl  tau(   2) = (  0.6666670  0.3333330  0.6518720  )
         3           Pt  tau(   3) = (  0.0000000  0.0000000  0.0000000  )
         4           Pt  tau(   4) = (  0.5000000  0.0000000  0.0000000  )
         5           Pt  tau(   5) = (  0.0000000  0.5000000  0.0000000  )
         6           Pt  tau(   6) = (  0.5000000  0.5000000  0.0000000  )
         7           Se  tau(   7) = (  0.1698270  0.8301730  0.7929590  )
         8           Se  tau(   8) = (  0.1698270  0.3396540  0.7929590  )
         9           Se  tau(   9) = (  0.6603460  0.8301730  0.7929590  )
        10           Se  tau(  10) = (  0.3396540  0.1698270  0.2070410  )
        11           Se  tau(  11) = (  0.8301730  0.6603460  0.2070410  )
        12           Se  tau(  12) = (  0.8301730  0.1698270  0.2070410  )

     number of k points=     7
                       cart. coord. in units 2pi/alat
        k(    1) = (   0.0000000   0.0000000   0.0000000), wk =   0.0740741
        k(    2) = (   0.0000000   0.0000000   0.4201505), wk =   0.1481481
        k(    3) = (   0.0000000   0.3849002   0.0000000), wk =   0.4444444
        k(    4) = (   0.0000000   0.3849002   0.4201505), wk =   0.4444444
        k(    5) = (   0.3333333   0.5773502   0.0000000), wk =   0.1481481
        k(    6) = (   0.3333333   0.5773502   0.4201505), wk =   0.2962963
        k(    7) = (   0.0000000   0.3849002  -0.4201505), wk =   0.4444444

                       cryst. coord.
        k(    1) = (   0.0000000   0.0000000   0.0000000), wk =   0.0740741
        k(    2) = (   0.0000000   0.0000000   0.3333333), wk =   0.1481481
        k(    3) = (   0.0000000   0.3333333   0.0000000), wk =   0.4444444
        k(    4) = (   0.0000000   0.3333333   0.3333333), wk =   0.4444444
        k(    5) = (   0.3333333   0.3333333   0.0000000), wk =   0.1481481
        k(    6) = (   0.3333333   0.3333333   0.3333333), wk =   0.2962963
        k(    7) = (   0.0000000   0.3333333  -0.3333333), wk =   0.4444444

     Check: negative core charge=   -0.000002

     Initial potential from superposition of free atoms

     starting charge     123.9898, renormalised to     126.0000

     negative rho (up, down):  8.277E-01 0.000E+00
     Starting wfcs are   90 randomized atomic wfcs

     Self-consistent Calculation

     iteration #  1     ecut=    30.00 Ry     beta= 0.70
     Davidson diagonalization with overlap

     ethr =  1.00E-02,  avg # of iterations =  2.0

     negative rho (up, down):  7.582E-01 0.000E+00

     total energy              =   -1391.61730493 Ry
     estimated scf accuracy    <       5.19714496 Ry

[...]

     total energy              =   -1394.68634603 Ry
     estimated scf accuracy    <       0.00003562 Ry

     iteration # 10     ecut=    30.00 Ry     beta= 0.70
     Davidson diagonalization with overlap

     ethr =  5.73E-09,  avg # of iterations =  4.9

     negative rho (up, down):  7.803E-01 0.000E+00

     End of self-consistent calculation

          k = 0.0000 0.0000 0.0000 (  5587 PWs)   bands (ev):

   -44.1997 -44.1997 -44.0601 -43.7640 -43.7639 -43.7605 -43.6987 -43.6950
   -43.6949 -43.2721 -43.2685 -43.2684  -5.4193  -4.2064  -4.2063  -4.1155
    -4.1155  -3.8436  -2.0347  -2.0347  -1.9908  -1.9908  -1.9856  -1.9856
    -1.9665  -1.9528  -1.9528  -1.9182   1.8812   2.7520   2.7520   3.2128
     3.2651   3.5404   3.6626   3.6627   3.8630   4.5899   4.5899   5.1389
     5.1389   5.5833   5.6795   5.9370   5.9371   6.1212   6.1213   6.2329
     6.3572   6.3573   6.4293   6.5477   6.5477   6.6918   6.6918   6.7410
     7.0260   7.1916   7.3610   7.3610   7.4638   7.4639   7.7576  10.2858

     occupation numbers
     1.0000   1.0000   1.0000   1.0000   1.0000   1.0000   1.0000   1.0000
     1.0000   1.0000   1.0000   1.0000   1.0000   1.0000   1.0000   1.0000
     1.0000   1.0000   1.0000   1.0000   1.0000   1.0000   1.0000   1.0000
     1.0000   1.0000   1.0000   1.0000   1.0000   1.0000   1.0000   1.0000
     1.0000   1.0000   1.0000   1.0000   1.0000   1.0000   1.0000   1.0000
     1.0000   1.0000   1.0000   1.0000   1.0000   1.0000   1.0000   1.0000
     1.0000   1.0000   1.0000   1.0000   1.0000   1.0000   1.0000   1.0000
     1.0000   1.0000   1.0000   1.0000   1.0000   1.0000   1.0000   0.0000

[...]

          k = 0.0000 0.3849-0.4202 (  5591 PWs)   bands (ev):

   -44.1997 -44.1997 -44.0601 -43.7639 -43.7632 -43.7613 -43.6979 -43.6958
   -43.6950 -43.2712 -43.2692 -43.2684  -5.1194  -4.5191  -4.3145  -4.1201
    -4.0046  -3.9358  -2.0264  -2.0114  -1.9985  -1.9906  -1.9840  -1.9725
    -1.9623  -1.9610  -1.9484  -1.9469   2.3301   2.4762   2.8314   3.0861
     3.6897   3.7154   3.7934   3.8657   4.0051   4.3075   4.3320   4.3983
     4.9154   5.1291   5.2702   5.3330   5.7785   5.7911   5.9756   6.0845
     6.2845   6.3128   6.4702   6.7018   6.7929   7.1010   7.1019   7.1834
     7.2454   7.3753   7.5188   7.9005   8.0382   8.2503   8.4552   9.7621

     occupation numbers
     1.0000   1.0000   1.0000   1.0000   1.0000   1.0000   1.0000   1.0000
     1.0000   1.0000   1.0000   1.0000   1.0000   1.0000   1.0000   1.0000
     1.0000   1.0000   1.0000   1.0000   1.0000   1.0000   1.0000   1.0000
     1.0000   1.0000   1.0000   1.0000   1.0000   1.0000   1.0000   1.0000
     1.0000   1.0000   1.0000   1.0000   1.0000   1.0000   1.0000   1.0000
     1.0000   1.0000   1.0000   1.0000   1.0000   1.0000   1.0000   1.0000
     1.0000   1.0000   1.0000   1.0000   1.0000   1.0000   1.0000   1.0000
     1.0000   1.0000   1.0000   1.0000   1.0000   1.0000   1.0000   0.0000

     highest occupied, lowest unoccupied level (ev):     8.8605    9.5326

!    total energy              =   -1394.68635173 Ry
     estimated scf accuracy    <       0.00000017 Ry

     The total energy is the sum of the following terms:
     one-electron contribution =    -503.57087216 Ry
     hartree contribution      =     321.60173180 Ry
     xc contribution           =    -529.87085658 Ry
     ewald contribution        =    -682.84635479 Ry

     convergence has been achieved in  10 iterations

     Writing all to output data dir bands_nm/myprefix.save/

     General routines

     Parallel routines

   This run was terminated on:  18:31:52  14Jul2023

   JOB DONE.