     Program PWSCF v.7.0 starts on  7Jun2023 at  8:48:54

     K-points division:     npool     =       2
     R & G space division:  proc/nbgrp/npool/nimage =       4

     Reading input from espresso_19086.pwi
Warning: card &CELL ignored
Warning: card / ignored

     Current dimensions of program PWSCF are:
     Max number of different atomic species (ntypx) = 10
     Max number of k-points (npk) =  40000
     Max angular momentum in pseudopotentials (lmaxx) =  4
     file C.pbe-n-kjpaw_psl.1.0.0.UPF: wavefunction(s)  2S 2P renormalized
     Message from routine setup:
     using ibrav=0 with symmetry is DISCOURAGED, use correct ibrav instead

     Using Slab Decomposition

     bravais-lattice index     =            0
     lattice parameter (alat)  =       6.7258  a.u.
     unit-cell volume          =     448.4148 (a.u.)^3
     number of atoms/cell      =            5
     number of atomic types    =            3
     number of electrons       =        32.00
     number of Kohn-Sham states=           64
     kinetic-energy cutoff     =      30.0000  Ry
     charge density cutoff     =     240.0000  Ry
     scf convergence threshold =      1.0E-06
     mixing beta               =       0.7000
     number of iterations used =            8  plain     mixing
     Exchange-correlation= PBE
                           (   1   4   3   4   0   0   0)

     celldm(1)=   6.725775  celldm(2)=   0.000000  celldm(3)=   0.000000
     celldm(4)=   0.000000  celldm(5)=   0.000000  celldm(6)=   0.000000

     crystal axes: (cart. coord. in units of alat)
               a(1) = (   1.000000   0.000000   0.000000 )
               a(2) = (   0.008751   0.999962   0.000000 )
               a(3) = (   0.381991   0.378663   1.473905 )

     reciprocal axes: (cart. coord. in units 2 pi/alat)
               b(1) = (  1.000000 -0.008751 -0.256921 )
               b(2) = (  0.000000  1.000038 -0.256921 )
               b(3) = (  0.000000  0.000000  0.678470 )

     PseudoPot. # 1 for Na read from file:
     /home/pragov/projects/rrg-bengioy-ad/pragov/crystal_structure_design/SSSP/na_pbe_v1.5.uspp.F.UPF
     MD5 check sum: 44600605ef58000f06b90626533354dc
     Pseudo is Ultrasoft, Zval =  9.0
     Generated by new atomic code, or converted to UPF format
     Using radial grid of  819 points,  5 beta functions with:
                l(1) =   0
                l(2) =   0
                l(3) =   1
                l(4) =   1
                l(5) =   2
     Q(r) pseudized with  8 coefficients,  rinner =    1.250   1.250   1.250
                                                       1.250   1.250

     PseudoPot. # 2 for C  read from file:
     /home/pragov/projects/rrg-bengioy-ad/pragov/crystal_structure_design/SSSP/C.pbe-n-kjpaw_psl.1.0.0.UPF
     MD5 check sum: 5d2aebdfa2cae82b50a7e79e9516da0f
     Pseudo is Projector augmented-wave + core cor, Zval =  4.0
     Generated using "atomic" code by A. Dal Corso  v.5.1
     Shape of augmentation charge: PSQ
     Using radial grid of 1073 points,  4 beta functions with:
                l(1) =   0
                l(2) =   0
                l(3) =   1
                l(4) =   1
     Q(r) pseudized with 0 coefficients

     PseudoPot. # 3 for N  read from file:
     /home/pragov/projects/rrg-bengioy-ad/pragov/crystal_structure_design/SSSP/N.pbe-n-radius_5.UPF
     MD5 check sum: 16739722b17309cd8fe442a2ace49922
     Pseudo is Ultrasoft + core correction, Zval =  5.0
     Generated using "atomic" code by A. Dal Corso  v.5.1
     Using radial grid of 1085 points,  4 beta functions with:
                l(1) =   0
                l(2) =   0
                l(3) =   1
                l(4) =   1
     Q(r) pseudized with 0 coefficients

     atomic species   valence    mass     pseudopotential
        Na             9.00    22.98977     Na( 1.00)
        C              4.00    12.01100     C ( 1.00)
        N              5.00    14.00700     N ( 1.00)

      2 Sym. Ops., with inversion, found

                                    s                        frac. trans.

      isym =  1     identity

 cryst.   s( 1) = (     1          0          0      )
                  (     0          1          0      )
                  (     0          0          1      )

 cart.    s( 1) = (  1.0000000 -0.0000000  0.0000000 )
                  (  0.0000000  1.0000000  0.0000000 )
                  (  0.0000000  0.0000000  1.0000000 )

      isym =  2     inversion

 cryst.   s( 2) = (    -1          0          0      )
                  (     0         -1          0      )
                  (     0          0         -1      )

 cart.    s( 2) = ( -1.0000000  0.0000000 -0.0000000 )
                  (  0.0000000 -1.0000000 -0.0000000 )
                  (  0.0000000  0.0000000 -1.0000000 )

   Cartesian axes

     site n.     atom                  positions (alat units)
         1           Na  tau(   1) = (   0.4464530   0.4425631   0.4560661  )
         2           Na  tau(   2) = (   0.9442891   0.9360617   1.0178393  )
         3           C   tau(   3) = (   0.0000000   0.0000000   0.0000000  )
         4           N   tau(   4) = (   0.4517972   0.4478608   1.1386951  )
         5           N   tau(   5) = (   0.9389448   0.9307640   0.3352103  )

   Crystallographic axes

     site n.     atom                  positions (cryst. coord.)
         1           Na  tau(   1) = (  0.3254070  0.3254070  0.3094270  )
         2           Na  tau(   2) = (  0.6745930  0.6745930  0.6905730  )
         3           C   tau(   3) = (  0.0000000  0.0000000  0.0000000  )
         4           N   tau(   4) = (  0.1553230  0.1553230  0.7725700  )
         5           N   tau(   5) = (  0.8446770  0.8446770  0.2274300  )

     number of k points=    14
                       cart. coord. in units 2pi/alat
        k(    1) = (   0.0000000   0.0000000   0.0000000), wk =   0.0740741
        k(    2) = (   0.0000000   0.0000000   0.2261565), wk =   0.1481481
        k(    3) = (   0.0000000   0.3333461  -0.0856404), wk =   0.1481481
        k(    4) = (   0.0000000   0.3333461   0.1405161), wk =   0.1481481
        k(    5) = (   0.0000000   0.3333461  -0.3117969), wk =   0.1481481
        k(    6) = (   0.3333333  -0.0029170  -0.0856404), wk =   0.1481481
        k(    7) = (   0.3333333  -0.0029170   0.1405161), wk =   0.1481481
        k(    8) = (   0.3333333  -0.0029170  -0.3117969), wk =   0.1481481
        k(    9) = (   0.3333333   0.3304291  -0.1712808), wk =   0.1481481
        k(   10) = (   0.3333333   0.3304291   0.0548757), wk =   0.1481481
        k(   11) = (   0.3333333   0.3304291  -0.3974374), wk =   0.1481481
        k(   12) = (   0.3333333  -0.3362631   0.0000000), wk =   0.1481481
        k(   13) = (   0.3333333  -0.3362631   0.2261565), wk =   0.1481481
        k(   14) = (   0.3333333  -0.3362631  -0.2261565), wk =   0.1481481

                       cryst. coord.
        k(    1) = (   0.0000000   0.0000000   0.0000000), wk =   0.0740741
        k(    2) = (   0.0000000   0.0000000   0.3333333), wk =   0.1481481
        k(    3) = (   0.0000000   0.3333333  -0.0000000), wk =   0.1481481
        k(    4) = (   0.0000000   0.3333333   0.3333333), wk =   0.1481481
        k(    5) = (   0.0000000   0.3333333  -0.3333333), wk =   0.1481481
        k(    6) = (   0.3333333   0.0000000   0.0000000), wk =   0.1481481
        k(    7) = (   0.3333333   0.0000000   0.3333333), wk =   0.1481481
        k(    8) = (   0.3333333   0.0000000  -0.3333333), wk =   0.1481481
        k(    9) = (   0.3333333   0.3333333  -0.0000000), wk =   0.1481481
        k(   10) = (   0.3333333   0.3333333   0.3333333), wk =   0.1481481
        k(   11) = (   0.3333333   0.3333333  -0.3333333), wk =   0.1481481
        k(   12) = (   0.3333333  -0.3333333   0.0000000), wk =   0.1481481
        k(   13) = (   0.3333333  -0.3333333   0.3333333), wk =   0.1481481
        k(   14) = (   0.3333333  -0.3333333  -0.3333333), wk =   0.1481481

     Check: negative core charge=   -0.000013

     Initial potential from superposition of free atoms

     starting charge      31.9874, renormalised to      32.0000
     Starting wfcs are   22 randomized atomic wfcs +   42 random wfcs
     Checking if some PAW data can be deallocated...

     Self-consistent Calculation

     iteration #  1     ecut=    30.00 Ry     beta= 0.70
     Davidson diagonalization with overlap

     ethr =  1.00E-02,  avg # of iterations =  7.4

     total energy              =    -249.29737789 Ry
     estimated scf accuracy    <       0.86215081 Ry

[...]

     total energy              =    -249.63220884 Ry
     estimated scf accuracy    <       0.00005233 Ry

     iteration #  6     ecut=    30.00 Ry     beta= 0.70
     Davidson diagonalization with overlap

     ethr =  1.64E-07,  avg # of iterations =  3.1

     End of self-consistent calculation

          k = 0.0000 0.0000 0.0000 (  1241 PWs)   bands (ev):

   -46.9905 -46.9790 -18.9829 -18.9022 -18.8922 -18.8844 -18.8558 -18.8504
   -13.9530 -11.7853  -2.1434  -0.2536  -0.1569   0.0229   3.3725   3.4926
     6.6669   9.9732  10.3141  11.1673  13.1726  13.4351  13.7536  16.0881
    17.2310  17.6134  19.4962  19.6091  20.4579  20.8741  22.3061  23.3331
    24.3618  24.8246  24.9893  25.0096  26.1461  27.2346  27.9824  28.0864
    28.1914  28.3581  29.6433  33.0067  34.3681  34.4912  36.1301  36.2250
    36.7871  36.9812  37.6441  37.6981  40.4709  40.7256  41.6813  42.6642
    43.1435  43.7060  43.7175  44.1110  45.1701  46.3080  46.5006  46.6976

     occupation numbers
     1.0000   1.0000   1.0000   1.0000   1.0000   1.0000   1.0000   1.0000
     1.0000   1.0000   1.0000   1.0000   1.0000   1.0000   1.0000   1.0000
     0.0000   0.0000   0.0000   0.0000   0.0000   0.0000   0.0000   0.0000
     0.0000   0.0000   0.0000   0.0000   0.0000   0.0000   0.0000   0.0000
     0.0000   0.0000   0.0000   0.0000   0.0000   0.0000   0.0000   0.0000
     0.0000   0.0000   0.0000   0.0000   0.0000   0.0000   0.0000   0.0000
     0.0000   0.0000   0.0000   0.0000   0.0000   0.0000   0.0000   0.0000
     0.0000   0.0000   0.0000   0.0000   0.0000   0.0000   0.0000   0.0000

[...]

          k = 0.3333-0.3363-0.2262 (  1243 PWs)   bands (ev):

   -46.9834 -46.9817 -18.9585 -18.9400 -18.9229 -18.8935 -18.8697 -18.8690
   -13.7142 -11.7127  -1.4134  -1.1162  -1.0392  -0.2597   2.7351   2.9910
     8.8805   9.4802  10.0712  11.7364  12.9613  13.0734  15.1875  15.4992
    16.6753  17.0180  18.3044  19.0573  21.2980  21.8193  22.9984  24.3730
    24.9728  25.5408  25.8251  26.7380  28.0856  28.3858  28.6327  29.6338
    29.8661  31.0450  31.3833  31.9837  33.2723  33.6224  35.1196  35.2475
    35.5072  36.2039  37.4779  37.7387  38.5999  38.9869  39.3304  40.5015
    41.2510  41.4651  42.0290  43.1466  43.6733  44.0087  44.8718  45.0222

     occupation numbers
     1.0000   1.0000   1.0000   1.0000   1.0000   1.0000   1.0000   1.0000
     1.0000   1.0000   1.0000   1.0000   1.0000   1.0000   1.0000   1.0000
     0.0000   0.0000   0.0000   0.0000   0.0000   0.0000   0.0000   0.0000
     0.0000   0.0000   0.0000   0.0000   0.0000   0.0000   0.0000   0.0000
     0.0000   0.0000   0.0000   0.0000   0.0000   0.0000   0.0000   0.0000
     0.0000   0.0000   0.0000   0.0000   0.0000   0.0000   0.0000   0.0000
     0.0000   0.0000   0.0000   0.0000   0.0000   0.0000   0.0000   0.0000
     0.0000   0.0000   0.0000   0.0000   0.0000   0.0000   0.0000   0.0000

     highest occupied, lowest unoccupied level (ev):     3.6203    6.6669

!    total energy              =    -249.63222156 Ry
     estimated scf accuracy    <       0.00000068 Ry

     The total energy is the sum of the following terms:
     one-electron contribution =    -155.71444126 Ry
     hartree contribution      =      88.73151810 Ry
     xc contribution           =     -44.31395307 Ry
     ewald contribution        =    -132.15851879 Ry
     one-center paw contrib.   =      -6.17682654 Ry
      -> PAW hartree energy AE =       0.00000000 Ry
      -> PAW hartree energy PS =       0.00000000 Ry
      -> PAW xc energy AE      =       0.00000000 Ry
      -> PAW xc energy PS      =       0.00000000 Ry
      -> total E_H with PAW    =      88.73151810 Ry
      -> total E_XC with PAW   =     -44.31395307 Ry

     convergence has been achieved in   6 iterations

     Writing all to output data dir calculations_bands/myprefix.save/

     General routines

     Parallel routines

     PAW routines

   This run was terminated on:   8:49: 2   7Jun2023

   JOB DONE.