     Program PWSCF v.7.1 starts on 16Jul2023 at 15:32:25

     Reading input from espresso_25954.pwi
Warning: card &CELL ignored
Warning: card / ignored

     Current dimensions of program PWSCF are:
     Max number of different atomic species (ntypx) = 10
     Max number of k-points (npk) =  40000
     Max angular momentum in pseudopotentials (lmaxx) =  4
     Message from routine setup:
     using ibrav=0 with symmetry is DISCOURAGED, use correct ibrav instead

     K-points division:     npool     =       2
     R & G space division:  proc/nbgrp/npool/nimage =       4
     Subspace diagonalization in iterative solution of the eigenvalue problem:
     a serial algorithm will be used

     Using Slab Decomposition

     bravais-lattice index     =            0
     lattice parameter (alat)  =       7.8668  a.u.
     unit-cell volume          =    1313.9709 (a.u.)^3
     number of atoms/cell      =            4
     number of atomic types    =            2
     number of electrons       =        40.00
     number of Kohn-Sham states=           64
     kinetic-energy cutoff     =      30.0000  Ry
     charge density cutoff     =     240.0000  Ry
     scf convergence threshold =      1.0E-06
     mixing beta               =       0.7000
     number of iterations used =            8  plain     mixing
     Exchange-correlation=  SLA  PW   PBX  PBC
                           (   1   4   3   4   0   0   0)

     celldm(1)=   7.866834  celldm(2)=   0.000000  celldm(3)=   0.000000
     celldm(4)=   0.000000  celldm(5)=   0.000000  celldm(6)=   0.000000

     crystal axes: (cart. coord. in units of alat)
               a(1) = (   1.000000   0.000000   0.000000 )
               a(2) = (  -0.012194   0.999926   0.000000 )
               a(3) = (   0.000000   0.000000   2.699094 )

     reciprocal axes: (cart. coord. in units 2 pi/alat)
               b(1) = (  1.000000  0.012195  0.000000 )
               b(2) = (  0.000000  1.000074  0.000000 )
               b(3) = (  0.000000  0.000000  0.370495 )

     PseudoPot. # 1 for Sn read from file:
     /lustre07/scratch/pragov/crystal_structure_design/utils/SSSP/Sn_pbe_v1.uspp.F.UPF
     MD5 check sum: 4cf58ce39ec5d5d420df3dd08604eb00
     Pseudo is Ultrasoft + core correction, Zval = 14.0
     Generated by new atomic code, or converted to UPF format
     Using radial grid of  891 points,  6 beta functions with:
                l(1) =   0
                l(2) =   0
                l(3) =   1
                l(4) =   1
                l(5) =   2
                l(6) =   2
     Q(r) pseudized with  6 coefficients,  rinner =    1.200   1.200   1.200
                                                       1.200   1.200

     PseudoPot. # 2 for S  read from file:
     /lustre07/scratch/pragov/crystal_structure_design/utils/SSSP/s_pbe_v1.4.uspp.F.UPF
     MD5 check sum: 88d86576ff6df21479756cfb9bdac1df
     Pseudo is Ultrasoft + core correction, Zval =  6.0
     Generated by new atomic code, or converted to UPF format
     Using radial grid of  907 points,  6 beta functions with:
                l(1) =   0
                l(2) =   0
                l(3) =   1
                l(4) =   1
                l(5) =   2
                l(6) =   2
     Q(r) pseudized with  8 coefficients,  rinner =    1.300   1.300   1.300
                                                       1.300   1.300

     atomic species   valence    mass     pseudopotential
        Sn            14.00   118.71000     Sn( 1.00)
        S              6.00    32.06000     S ( 1.00)

      2 Sym. Ops. (no inversion) found ( 1 have fractional translation)

                                    s                        frac. trans.

      isym =  1     identity

 cryst.   s( 1) = (     1          0          0      )
                  (     0          1          0      )
                  (     0          0          1      )

 cart.    s( 1) = (  1.0000000  0.0000000  0.0000000 )
                  (  0.0000000  1.0000000  0.0000000 )
                  (  0.0000000  0.0000000  1.0000000 )

      isym =  2     inv. 180 deg rotation - cart. axis [0,0,1]

 cryst.   s( 2) = (     1          0          0      )    f =(  0.5000000 )
                  (     0          1          0      )       ( -0.5000000 )
                  (     0          0         -1      )       ( -0.0000000 )

 cart.    s( 2) = (  1.0000000  0.0000000  0.0000000 )    f =(  0.5060971 )
                  (  0.0000000  1.0000000  0.0000000 )       ( -0.4999628 )
                  (  0.0000000  0.0000000 -1.0000000 )       ( -0.0000000 )

   Cartesian axes

     site n.     atom                  positions (alat units)
         1           Sn  tau(   1) = (   0.2395047   0.2573379   2.3601286  )
         2           Sn  tau(   2) = (   0.7334077   0.7573007   0.3389658  )
         3           S   tau(   3) = (   0.7725938   0.7185896   2.4201483  )
         4           S   tau(   4) = (   0.2786908   0.2186267   0.2789460  )

   Crystallographic axes

     site n.     atom                  positions (cryst. coord.)
         1           Sn  tau(   1) = (  0.2426430  0.2573570  0.8744150  )
         2           Sn  tau(   2) = (  0.7426430  0.7573570  0.1255850  )
         3           S   tau(   3) = (  0.7813570  0.7186430  0.8966520  )
         4           S   tau(   4) = (  0.2813570  0.2186430  0.1033480  )

     number of k points=    10
                       cart. coord. in units 2pi/alat
        k(    1) = (   0.0000000   0.0000000   0.0000000), wk =   0.0740741
        k(    2) = (   0.0000000   0.0000000   0.1234982), wk =   0.1481481
        k(    3) = (   0.0000000   0.3333581   0.0000000), wk =   0.1481481
        k(    4) = (   0.0000000   0.3333581   0.1234982), wk =   0.2962963
        k(    5) = (   0.3333333   0.0040650   0.0000000), wk =   0.1481481
        k(    6) = (   0.3333333   0.0040650   0.1234982), wk =   0.2962963
        k(    7) = (   0.3333333   0.3374231   0.0000000), wk =   0.1481481
        k(    8) = (   0.3333333   0.3374231   0.1234982), wk =   0.2962963
        k(    9) = (   0.3333333  -0.3292931   0.0000000), wk =   0.1481481
        k(   10) = (   0.3333333  -0.3292931   0.1234982), wk =   0.2962963

                       cryst. coord.
        k(    1) = (   0.0000000   0.0000000   0.0000000), wk =   0.0740741
        k(    2) = (   0.0000000   0.0000000   0.3333333), wk =   0.1481481
        k(    3) = (   0.0000000   0.3333333   0.0000000), wk =   0.1481481
        k(    4) = (   0.0000000   0.3333333   0.3333333), wk =   0.2962963
        k(    5) = (   0.3333333   0.0000000   0.0000000), wk =   0.1481481
        k(    6) = (   0.3333333   0.0000000   0.3333333), wk =   0.2962963
        k(    7) = (   0.3333333   0.3333333   0.0000000), wk =   0.1481481
        k(    8) = (   0.3333333   0.3333333   0.3333333), wk =   0.2962963
        k(    9) = (   0.3333333  -0.3333333   0.0000000), wk =   0.1481481
        k(   10) = (   0.3333333  -0.3333333   0.3333333), wk =   0.2962963

     Check: negative core charge=   -0.000001

     Initial potential from superposition of free atoms

     starting charge      37.9998, renormalised to      40.0000

     negative rho (up, down):  7.211E-04 0.000E+00
     Starting wfcs are   26 randomized atomic wfcs +   38 random wfcs

     Self-consistent Calculation

     iteration #  1     ecut=    30.00 Ry     beta= 0.70
     Davidson diagonalization with overlap

     ethr =  1.00E-02,  avg # of iterations =  7.0

     negative rho (up, down):  5.775E-05 0.000E+00

     total energy              =    -374.17226510 Ry
     estimated scf accuracy    <       1.45475969 Ry

[...]

     total energy              =    -374.79574329 Ry
     estimated scf accuracy    <       0.00000160 Ry

     iteration #  8     ecut=    30.00 Ry     beta= 0.70
     Davidson diagonalization with overlap

     ethr =  4.01E-09,  avg # of iterations =  3.9

     negative rho (up, down):  3.688E-04 0.000E+00

     End of self-consistent calculation

          k = 0.0000 0.0000 0.0000 (  3637 PWs)   bands (ev):

   -19.3436 -19.3370 -19.3274 -19.3230 -19.3149 -19.2884 -19.2866 -19.2772
   -19.2718 -19.2619 -11.5242 -10.0905  -4.5631  -2.7545  -1.8765  -1.4321
    -1.3960  -0.0736  -0.0665   1.4808   3.4255   5.1300   5.3543   6.0773
     6.3080   7.2209   7.7049   8.1373   8.1789   8.6561   9.5681   9.7566
    10.2120  10.4760  11.6042  12.0446  12.3630  12.7051  13.2191  13.3067
    14.0496  14.0737  14.3746  14.4681  14.7190  14.9817  15.5917  15.9092
    16.5206  17.5162  17.6234  17.9515  18.2090  18.3082  18.5204  19.0148
    19.0383  19.5873  19.9900  20.1195  20.4329  20.9660  21.0160  21.0292

     occupation numbers
     1.0000   1.0000   1.0000   1.0000   1.0000   1.0000   1.0000   1.0000
     1.0000   1.0000   1.0000   1.0000   1.0000   1.0000   1.0000   1.0000
     1.0000   1.0000   1.0000   1.0000   0.0000   0.0000   0.0000   0.0000
     0.0000   0.0000   0.0000   0.0000   0.0000   0.0000   0.0000   0.0000
     0.0000   0.0000   0.0000   0.0000   0.0000   0.0000   0.0000   0.0000
     0.0000   0.0000   0.0000   0.0000   0.0000   0.0000   0.0000   0.0000
     0.0000   0.0000   0.0000   0.0000   0.0000   0.0000   0.0000   0.0000
     0.0000   0.0000   0.0000   0.0000   0.0000   0.0000   0.0000   0.0000

[...]

          k = 0.3333-0.3293 0.1235 (  3653 PWs)   bands (ev):

   -19.3463 -19.3429 -19.3232 -19.3203 -19.2946 -19.2924 -19.2888 -19.2723
   -19.2717 -19.2667 -10.5889 -10.1250  -4.8047  -4.4716  -2.7989  -1.3928
    -1.1694  -0.3182  -0.3046   0.8076   4.0051   5.4710   5.5208   6.0656
     6.1217   6.8248   7.6728   7.7656   8.3202   9.3543   9.8614  10.3017
    11.0205  11.5705  11.7593  11.8339  12.2896  12.9418  13.0973  13.4481
    13.6539  14.2617  14.7112  15.1111  15.6816  15.9442  16.2558  16.4832
    16.9057  17.2746  17.6543  17.8495  18.1640  18.7838  18.7883  19.2451
    19.6137  19.9576  20.1527  20.5395  21.0177  21.0222  21.0853  21.1233

     occupation numbers
     1.0000   1.0000   1.0000   1.0000   1.0000   1.0000   1.0000   1.0000
     1.0000   1.0000   1.0000   1.0000   1.0000   1.0000   1.0000   1.0000
     1.0000   1.0000   1.0000   1.0000   0.0000   0.0000   0.0000   0.0000
     0.0000   0.0000   0.0000   0.0000   0.0000   0.0000   0.0000   0.0000
     0.0000   0.0000   0.0000   0.0000   0.0000   0.0000   0.0000   0.0000
     0.0000   0.0000   0.0000   0.0000   0.0000   0.0000   0.0000   0.0000
     0.0000   0.0000   0.0000   0.0000   0.0000   0.0000   0.0000   0.0000
     0.0000   0.0000   0.0000   0.0000   0.0000   0.0000   0.0000   0.0000

     highest occupied, lowest unoccupied level (ev):     1.5042    3.3084

!    total energy              =    -374.79574381 Ry
     estimated scf accuracy    <       0.00000004 Ry

     The total energy is the sum of the following terms:
     one-electron contribution =    -485.66763228 Ry
     hartree contribution      =     259.04938967 Ry
     xc contribution           =    -111.91841961 Ry
     ewald contribution        =     -36.25908159 Ry

     convergence has been achieved in   8 iterations

     Writing all to output data dir bands_nm/myprefix.save/

     General routines

     Parallel routines

   This run was terminated on:  15:32:31  16Jul2023

   JOB DONE.