     Program PWSCF v.7.1 starts on 13Jul2023 at  7:50:42

     Reading input from espresso_3245.pwi
Warning: card &CELL ignored
Warning: card / ignored

     Current dimensions of program PWSCF are:
     Max number of different atomic species (ntypx) = 10
     Max number of k-points (npk) =  40000
     Max angular momentum in pseudopotentials (lmaxx) =  4
     file Ga.pbe-dn-kjpaw_psl.1.0.0.UPF: wavefunction(s)  4S renormalized
     Message from routine setup:
     using ibrav=0 with symmetry is DISCOURAGED, use correct ibrav instead

     K-points division:     npool     =       2
     R & G space division:  proc/nbgrp/npool/nimage =       8
     Subspace diagonalization in iterative solution of the eigenvalue problem:
     a serial algorithm will be used

     Using Slab Decomposition

     bravais-lattice index     =            0
     lattice parameter (alat)  =      16.5112  a.u.
     unit-cell volume          =     801.6696 (a.u.)^3
     number of atoms/cell      =            5
     number of atomic types    =            3
     number of electrons       =        46.00
     number of Kohn-Sham states=           64
     kinetic-energy cutoff     =      30.0000  Ry
     charge density cutoff     =     240.0000  Ry
     scf convergence threshold =      1.0E-06
     mixing beta               =       0.7000
     number of iterations used =            8  plain     mixing
     Exchange-correlation= PBE
                           (   1   4   3   4   0   0   0)

     celldm(1)=  16.511215  celldm(2)=   0.000000  celldm(3)=   0.000000
     celldm(4)=   0.000000  celldm(5)=   0.000000  celldm(6)=   0.000000

     crystal axes: (cart. coord. in units of alat)
               a(1) = (   1.000000   0.000000   0.000000 )
               a(2) = (   0.893311   0.449439   0.000000 )
               a(3) = (   0.893311   0.212056   0.396267 )

     reciprocal axes: (cart. coord. in units 2 pi/alat)
               b(1) = (  1.000000 -1.987614 -1.190675 )
               b(2) = (  0.000000  2.224997 -1.190675 )
               b(3) = (  0.000000  0.000000  2.523552 )

     PseudoPot. # 1 for Ca read from file:
     /lustre07/scratch/pragov/crystal_structure_design/utils/SSSP/Ca_pbe_v1.uspp.F.UPF
     MD5 check sum: 403a4c14b9e4d4dfdc3024c9a3812218
     Pseudo is Ultrasoft + core correction, Zval = 10.0
     Generated by new atomic code, or converted to UPF format
     Using radial grid of  845 points,  6 beta functions with:
                l(1) =   0
                l(2) =   0
                l(3) =   1
                l(4) =   1
                l(5) =   2
                l(6) =   2
     Q(r) pseudized with  8 coefficients,  rinner =    1.500   1.500   1.500
                                                       1.500   1.500

     PseudoPot. # 2 for Ga read from file:
     /lustre07/scratch/pragov/crystal_structure_design/utils/SSSP/Ga.pbe-dn-kjpaw_psl.1.0.0.UPF
     MD5 check sum: a27b4342b1af7e5f338de752e9ed7044
     Pseudo is Projector augmented-wave + core cor, Zval = 13.0
     Generated using "atomic" code by A. Dal Corso  v.5.1
     Shape of augmentation charge: PSQ
     Using radial grid of 1205 points,  6 beta functions with:
                l(1) =   0
                l(2) =   0
                l(3) =   1
                l(4) =   1
                l(5) =   2
                l(6) =   2
     Q(r) pseudized with 0 coefficients

     PseudoPot. # 3 for As read from file:
     /lustre07/scratch/pragov/crystal_structure_design/utils/SSSP/As.pbe-n-rrkjus_psl.0.2.UPF
     MD5 check sum: 767315de957beeeb34f87d97bf945c8f
     Pseudo is Ultrasoft + core correction, Zval =  5.0
     Generated using "atomic" code by A. Dal Corso  v.5.0.99 svn rev. 10869
     Using radial grid of 1209 points,  4 beta functions with:
                l(1) =   0
                l(2) =   0
                l(3) =   1
                l(4) =   1
     Q(r) pseudized with 0 coefficients

     atomic species   valence    mass     pseudopotential
        Ca            10.00    40.07800     Ca( 1.00)
        Ga            13.00    69.72300     Ga( 1.00)
        As             5.00    74.92159     As( 1.00)

      2 Sym. Ops., with inversion, found

                                    s                        frac. trans.

      isym =  1     identity

 cryst.   s( 1) = (     1          0          0      )
                  (     0          1          0      )
                  (     0          0          1      )

 cart.    s( 1) = (  1.0000000  0.0000000  0.0000000 )
                  (  0.0000000  1.0000000  0.0000000 )
                  (  0.0000000  0.0000000  1.0000000 )

      isym =  2     inversion

 cryst.   s( 2) = (    -1          0          0      )
                  (     0         -1          0      )
                  (     0          0         -1      )

 cart.    s( 2) = ( -1.0000000  0.0000000  0.0000000 )
                  (  0.0000000 -1.0000000  0.0000000 )
                  (  0.0000000  0.0000000 -1.0000000 )

   Cartesian axes

     site n.     atom                  positions (alat units)
         1           Ca  tau(   1) = (   0.0000000   0.0000000   0.0000000  )
         2           Ga  tau(   2) = (   1.5301119   0.3632218   0.2175869  )
         3           Ga  tau(   3) = (   1.2565102   0.2982735   0.1786799  )
         4           As  tau(   4) = (   2.0708782   0.4915902   0.2944857  )
         5           As  tau(   5) = (   0.7157439   0.1699051   0.1017811  )

   Crystallographic axes

     site n.     atom                  positions (cryst. coord.)
         1           Ca  tau(   1) = (  0.0000000  0.0000000  0.0000000  )
         2           Ga  tau(   2) = (  0.5490920  0.5490920  0.5490920  )
         3           Ga  tau(   3) = (  0.4509080  0.4509080  0.4509080  )
         4           As  tau(   4) = (  0.7431500  0.7431500  0.7431500  )
         5           As  tau(   5) = (  0.2568500  0.2568500  0.2568500  )

     number of k points=    14
                       cart. coord. in units 2pi/alat
        k(    1) = (   0.0000000   0.0000000   0.0000000), wk =   0.0740741
        k(    2) = (   0.0000000   0.0000000   0.8411841), wk =   0.1481481
        k(    3) = (   0.0000000   0.7416655  -0.3968915), wk =   0.1481481
        k(    4) = (   0.0000000   0.7416655   0.4442926), wk =   0.1481481
        k(    5) = (   0.0000000   0.7416655  -1.2380756), wk =   0.1481481
        k(    6) = (   0.3333333  -0.6625380  -0.3968915), wk =   0.1481481
        k(    7) = (   0.3333333  -0.6625380   0.4442926), wk =   0.1481481
        k(    8) = (   0.3333333  -0.6625380  -1.2380756), wk =   0.1481481
        k(    9) = (   0.3333333   0.0791275  -0.7937830), wk =   0.1481481
        k(   10) = (   0.3333333   0.0791275   0.0474011), wk =   0.1481481
        k(   11) = (   0.3333333   0.0791275  -1.6349671), wk =   0.1481481
        k(   12) = (   0.3333333  -1.4042036   0.0000000), wk =   0.1481481
        k(   13) = (   0.3333333  -1.4042036   0.8411841), wk =   0.1481481
        k(   14) = (   0.3333333  -1.4042036  -0.8411841), wk =   0.1481481

                       cryst. coord.
        k(    1) = (   0.0000000   0.0000000   0.0000000), wk =   0.0740741
        k(    2) = (   0.0000000   0.0000000   0.3333333), wk =   0.1481481
        k(    3) = (   0.0000000   0.3333333   0.0000000), wk =   0.1481481
        k(    4) = (   0.0000000   0.3333333   0.3333333), wk =   0.1481481
        k(    5) = (   0.0000000   0.3333333  -0.3333333), wk =   0.1481481
        k(    6) = (   0.3333333   0.0000000   0.0000000), wk =   0.1481481
        k(    7) = (   0.3333333   0.0000000   0.3333333), wk =   0.1481481
        k(    8) = (   0.3333333   0.0000000  -0.3333333), wk =   0.1481481
        k(    9) = (   0.3333333   0.3333333   0.0000000), wk =   0.1481481
        k(   10) = (   0.3333333   0.3333333   0.3333333), wk =   0.1481481
        k(   11) = (   0.3333333   0.3333333  -0.3333333), wk =   0.1481481
        k(   12) = (   0.3333333  -0.3333333   0.0000000), wk =   0.1481481
        k(   13) = (   0.3333333  -0.3333333   0.3333333), wk =   0.1481481
        k(   14) = (   0.3333333  -0.3333333  -0.3333333), wk =   0.1481481

     Initial potential from superposition of free atoms

     starting charge      45.9882, renormalised to      46.0000
     Starting wfcs are   36 randomized atomic wfcs +   28 random wfcs
     Checking if some PAW data can be deallocated...

     Self-consistent Calculation

     iteration #  1     ecut=    30.00 Ry     beta= 0.70
     Davidson diagonalization with overlap

     ethr =  1.00E-02,  avg # of iterations =  6.0

     Threshold (ethr) on eigenvalues was too large:
     Diagonalizing with lowered threshold

     Davidson diagonalization with overlap

[...]

     total energy              =    -667.24581495 Ry
     estimated scf accuracy    <       0.17306541 Ry

[...]

     total energy              =    -667.31691756 Ry
     estimated scf accuracy    <       0.00000337 Ry

     iteration #  7     ecut=    30.00 Ry     beta= 0.70
     Davidson diagonalization with overlap

     ethr =  7.34E-09,  avg # of iterations =  2.6

     End of self-consistent calculation

          k = 0.0000 0.0000 0.0000 (  2241 PWs)   bands (ev):

   -34.0137 -15.1086 -14.9766 -14.9766  -7.9130  -7.7789  -7.7789  -7.7306
    -7.7306  -7.6971  -7.6971  -7.6058  -7.6057  -7.5577  -4.8249  -4.2686
     0.9414   4.5035   5.8196   6.3041   6.3041   6.6090   6.6090   8.4304
     8.6510  10.0197  10.0197  10.5670  10.5670  10.6747  10.6956  10.6956
    13.0927  13.3315  13.5298  13.5298  15.3638  16.7078  16.7078  16.8676
    17.5564  17.5564  18.1296  18.2347  18.9313  18.9313  20.4597  20.5441
    20.5441  21.8524  23.2533  24.4172  24.4172  24.4602  24.4602  25.8805
    27.0328  27.0328  27.2138  28.0166  28.0166  31.1539  31.9129  31.9130

     occupation numbers
     1.0000   1.0000   1.0000   1.0000   1.0000   1.0000   1.0000   1.0000
     1.0000   1.0000   1.0000   1.0000   1.0000   1.0000   1.0000   1.0000
     1.0000   1.0000   1.0000   1.0000   1.0000   1.0000   1.0000   0.0000
     0.0000   0.0000   0.0000   0.0000   0.0000   0.0000   0.0000   0.0000
     0.0000   0.0000   0.0000   0.0000   0.0000   0.0000   0.0000   0.0000
     0.0000   0.0000   0.0000   0.0000   0.0000   0.0000   0.0000   0.0000
     0.0000   0.0000   0.0000   0.0000   0.0000   0.0000   0.0000   0.0000
     0.0000   0.0000   0.0000   0.0000   0.0000   0.0000   0.0000   0.0000

[...]

          k = 0.3333-1.4042-0.8412 (  2217 PWs)   bands (ev):

   -34.0087 -15.0910 -15.0486 -14.9928  -7.9028  -7.8129  -7.7821  -7.7616
    -7.7092  -7.7077  -7.6774  -7.6248  -7.6085  -7.5285  -3.7293  -3.5811
     0.7258   2.0570   4.0806   4.4392   5.2728   5.5022   5.9148   8.4394
     8.8582   9.6127  10.8854  10.9570  11.0556  11.0947  11.9956  12.8454
    13.0206  13.8933  14.3808  14.8589  15.1404  15.8020  16.4691  17.7247
    18.1810  18.4018  18.7735  19.7279  20.2247  21.8762  22.1612  22.3673
    22.5721  23.7837  24.1928  24.3181  24.6947  24.9173  25.2989  25.5012
    25.9960  26.5741  27.3682  27.9052  28.2217  28.3122  29.1216  30.3762

     occupation numbers
     1.0000   1.0000   1.0000   1.0000   1.0000   1.0000   1.0000   1.0000
     1.0000   1.0000   1.0000   1.0000   1.0000   1.0000   1.0000   1.0000
     1.0000   1.0000   1.0000   1.0000   1.0000   1.0000   1.0000   0.0000
     0.0000   0.0000   0.0000   0.0000   0.0000   0.0000   0.0000   0.0000
     0.0000   0.0000   0.0000   0.0000   0.0000   0.0000   0.0000   0.0000
     0.0000   0.0000   0.0000   0.0000   0.0000   0.0000   0.0000   0.0000
     0.0000   0.0000   0.0000   0.0000   0.0000   0.0000   0.0000   0.0000
     0.0000   0.0000   0.0000   0.0000   0.0000   0.0000   0.0000   0.0000

     highest occupied, lowest unoccupied level (ev):     7.0640    8.2804

!    total energy              =    -667.31691811 Ry
     estimated scf accuracy    <       0.00000006 Ry

     The total energy is the sum of the following terms:
     one-electron contribution =    -274.06080035 Ry
     hartree contribution      =     168.88941577 Ry
     xc contribution           =    -106.60363614 Ry
     ewald contribution        =    -233.70317545 Ry
     one-center paw contrib.   =    -221.83872194 Ry
      -> PAW hartree energy AE =       0.00000000 Ry
      -> PAW hartree energy PS =       0.00000000 Ry
      -> PAW xc energy AE      =       0.00000000 Ry
      -> PAW xc energy PS      =       0.00000000 Ry
      -> total E_H with PAW    =     168.88941577 Ry
      -> total E_XC with PAW   =    -106.60363614 Ry

     convergence has been achieved in   7 iterations

     Writing all to output data dir bands_nm/myprefix.save/

     General routines

     Parallel routines

     PAW routines

   This run was terminated on:   7:50:53  13Jul2023

   JOB DONE.