     Program PWSCF v.7.1 starts on 16Jul2023 at 23:29: 4

     Reading input from espresso_24622.pwi
Warning: card &CELL ignored
Warning: card / ignored

     Current dimensions of program PWSCF are:
     Max number of different atomic species (ntypx) = 10
     Max number of k-points (npk) =  40000
     Max angular momentum in pseudopotentials (lmaxx) =  4
     file K.pbe-spn-kjpaw_psl.1.0.0.UPF: wavefunction(s)  3S renormalized
     file O.pbe-n-kjpaw_psl.0.1.UPF: wavefunction(s)  2P renormalized
     Message from routine setup:
     the system is metallic, specify occupations
     Message from routine setup:
     using ibrav=0 with symmetry is DISCOURAGED, use correct ibrav instead

     K-points division:     npool     =       2
     R & G space division:  proc/nbgrp/npool/nimage =       4
     Subspace diagonalization in iterative solution of the eigenvalue problem:
     a serial algorithm will be used

     Using Slab Decomposition

     bravais-lattice index     =            0
     lattice parameter (alat)  =       9.9642  a.u.
     unit-cell volume          =    1580.4618 (a.u.)^3
     number of atoms/cell      =           17
     number of atomic types    =            5
     number of electrons       =       109.00 (up:  56.00, down:  53.00)
     number of Kohn-Sham states=           64
     kinetic-energy cutoff     =      30.0000  Ry
     charge density cutoff     =     240.0000  Ry
     scf convergence threshold =      1.0E-06
     mixing beta               =       0.7000
     number of iterations used =            8  plain     mixing
     Exchange-correlation= SLA  PW   PBX  PBC
                           (   1   4   3   4   0   0   0)

     celldm(1)=   9.964179  celldm(2)=   0.000000  celldm(3)=   0.000000
     celldm(4)=   0.000000  celldm(5)=   0.000000  celldm(6)=   0.000000

     crystal axes: (cart. coord. in units of alat)
               a(1) = (   1.000000   0.000000   0.000000 )
               a(2) = (  -0.304404   1.216639   0.000000 )
               a(3) = (  -0.154380  -0.476128   1.313099 )

     reciprocal axes: (cart. coord. in units 2 pi/alat)
               b(1) = (  1.000000  0.250201  0.208292 )
               b(2) = (  0.000000  0.821936  0.298033 )
               b(3) = (  0.000000  0.000000  0.761557 )

     PseudoPot. # 1 for K  read from file:
     /lustre03/project/6004852/pragov/crystal_structure_design/crystal-design/crystal_design/utils/SSSP/K.pbe-spn-kjpaw_psl.1.0.0.UPF
     MD5 check sum: 7d58810084cac21f60fbe77ea2b688fd
     Pseudo is Projector augmented-wave + core cor, Zval =  9.0
     Generated using "atomic" code by A. Dal Corso  v.5.1
     Shape of augmentation charge: PSQ
     Using radial grid of 1165 points,  6 beta functions with:
                l(1) =   0
                l(2) =   0
                l(3) =   1
                l(4) =   1
                l(5) =   2
                l(6) =   2
     Q(r) pseudized with 0 coefficients

     PseudoPot. # 2 for Co read from file:
     /lustre03/project/6004852/pragov/crystal_structure_design/crystal-design/crystal_design/utils/SSSP/Co_pbe_v1.2.uspp.F.UPF
     MD5 check sum: 5f91765df6ddd3222702df6e7b74a16d
     Pseudo is Ultrasoft + core correction, Zval = 17.0
     Generated by new atomic code, or converted to UPF format
     Using radial grid of  863 points,  6 beta functions with:
                l(1) =   0
                l(2) =   0
                l(3) =   1
                l(4) =   1
                l(5) =   2
                l(6) =   2
     Q(r) pseudized with  8 coefficients,  rinner =    1.200   1.200   1.200
                                                       1.200   1.200

     PseudoPot. # 3 for H  read from file:
     /lustre03/project/6004852/pragov/crystal_structure_design/crystal-design/crystal_design/utils/SSSP/H.pbe-rrkjus_psl.1.0.0.UPF
     MD5 check sum: f52b6d4d1c606e5624b1dc7b2218f220
     Pseudo is Ultrasoft, Zval =  1.0
     Generated using "atomic" code by A. Dal Corso  v.5.1
     Using radial grid of  929 points,  2 beta functions with:
                l(1) =   0
                l(2) =   0
     Q(r) pseudized with 0 coefficients

     PseudoPot. # 4 for S  read from file:
     /lustre03/project/6004852/pragov/crystal_structure_design/crystal-design/crystal_design/utils/SSSP/s_pbe_v1.4.uspp.F.UPF
     MD5 check sum: 88d86576ff6df21479756cfb9bdac1df
     Pseudo is Ultrasoft + core correction, Zval =  6.0
     Generated by new atomic code, or converted to UPF format
     Using radial grid of  907 points,  6 beta functions with:
                l(1) =   0
                l(2) =   0
                l(3) =   1
                l(4) =   1
                l(5) =   2
                l(6) =   2
     Q(r) pseudized with  8 coefficients,  rinner =    1.300   1.300   1.300
                                                       1.300   1.300

     PseudoPot. # 5 for O  read from file:
     /lustre03/project/6004852/pragov/crystal_structure_design/crystal-design/crystal_design/utils/SSSP/O.pbe-n-kjpaw_psl.0.1.UPF
     MD5 check sum: 0234752ac141de4415c5fc33072bef88
     Pseudo is Projector augmented-wave + core cor, Zval =  6.0
     Generated using "atomic" code by A. Dal Corso  v.5.0.99 svn rev. 10869
     Shape of augmentation charge: BESSEL
     Using radial grid of 1095 points,  4 beta functions with:
                l(1) =   0
                l(2) =   0
                l(3) =   1
                l(4) =   1
     Q(r) pseudized with 0 coefficients

     atomic species   valence    mass     pseudopotential
        K              9.00    39.09830     K ( 1.00)
        Co            17.00    58.93319     Co( 1.00)
        H              1.00     1.00800     H ( 1.00)
        S              6.00    32.06000     S ( 1.00)
        O              6.00    15.99900     O ( 1.00)

     Starting magnetic structure
     atomic species   magnetization
        K            0.000
        Co           0.000
        H            0.000
        S            0.000
        O            0.000

      2 Sym. Ops., with inversion, found

                                    s                        frac. trans.

      isym =  1     identity

 cryst.   s( 1) = (     1          0          0      )
                  (     0          1          0      )
                  (     0          0          1      )

 cart.    s( 1) = (  1.0000000  0.0000000 -0.0000000 )
                  (  0.0000000  1.0000000  0.0000000 )
                  (  0.0000000  0.0000000  1.0000000 )

      isym =  2     inversion

 cryst.   s( 2) = (    -1          0          0      )
                  (     0         -1          0      )
                  (     0          0         -1      )

 cart.    s( 2) = ( -1.0000000  0.0000000  0.0000000 )
                  (  0.0000000 -1.0000000  0.0000000 )
                  (  0.0000000  0.0000000 -1.0000000 )

   Cartesian axes

     site n.     atom                  positions (alat units)
         1           K   tau(   1) = (   0.0489632   0.6940408   0.3591169  )
         2           K   tau(   2) = (   0.4922522   0.0464702   0.9539824  )
         3           Co  tau(   3) = (   0.0000000   0.0000000   0.0000000  )
         4           H   tau(   4) = (   0.8398420  -0.0947719   0.3918538  )
         5           H   tau(   5) = (  -0.2986266   0.8352828   0.9212455  )
         6           S   tau(   6) = (   0.5256547   0.2478532   0.2851343  )
         7           S   tau(   7) = (   0.0155607   0.4926578   1.0279650  )
         8           O   tau(   8) = (  -0.3046258   1.0697559   0.3036503  )
         9           O   tau(   9) = (   0.8458412  -0.3292450   1.0094490  )
        10           O   tau(  10) = (   0.7643561   0.2675678   0.1137065  )
        11           O   tau(  11) = (  -0.2231407   0.4729431   1.1993928  )
        12           O   tau(  12) = (   0.0132393   0.2674490   0.8652458  )
        13           O   tau(  13) = (   0.5279762   0.4730620   0.4478535  )
        14           O   tau(  14) = (   0.3013599   0.2566730   0.1122766  )
        15           O   tau(  15) = (   0.2398556   0.4838379   1.2008227  )
        16           O   tau(  16) = (   0.5404289   0.0081998   0.4312481  )
        17           O   tau(  17) = (   0.0007866   0.7323111   0.8818512  )

   Crystallographic axes

     site n.     atom                  positions (cryst. coord.)
         1           K   tau(   1) = (  0.2974140  0.6774860  0.2734880  )
         2           K   tau(   2) = (  0.7025860  0.3225140  0.7265120  )
         3           Co  tau(   3) = (  0.0000000  0.0000000  0.0000000  )
         4           H   tau(   4) = (  0.8977500  0.0388890  0.2984190  )
         5           H   tau(   5) = (  0.1022500  0.9611110  0.7015810  )
         6           S   tau(   6) = (  0.6470590  0.2886990  0.2171460  )
         7           S   tau(   7) = (  0.3529410  0.7113010  0.7828540  )
         8           O   tau(   8) = (  0.0262760  0.9697690  0.2312470  )
         9           O   tau(   9) = (  0.9737240  0.0302310  0.7687530  )
        10           O   tau(  10) = (  0.8549860  0.2538120  0.0865940  )
        11           O   tau(  11) = (  0.1450140  0.7461880  0.9134060  )
        12           O   tau(  12) = (  0.2603790  0.4776980  0.6589340  )
        13           O   tau(  13) = (  0.7396210  0.5223020  0.3410660  )
        14           O   tau(  14) = (  0.3889660  0.2444310  0.0855050  )
        15           O   tau(  15) = (  0.6110340  0.7555690  0.9144950  )
        16           O   tau(  16) = (  0.6323060  0.1352660  0.3284200  )
        17           O   tau(  17) = (  0.3676940  0.8647340  0.6715800  )

     number of k points=    14
                       cart. coord. in units 2pi/alat
        k(    1) = (   0.0000000   0.0000000   0.0000000), wk =   0.0370370
        k(    2) = (   0.0000000   0.0000000   0.2538523), wk =   0.0740741
        k(    3) = (   0.0000000   0.2739787   0.0993444), wk =   0.0740741
        k(    4) = (   0.0000000   0.2739787   0.3531968), wk =   0.0740741
        k(    5) = (   0.0000000   0.2739787  -0.1545079), wk =   0.0740741
        k(    6) = (   0.3333333   0.0834003   0.0694307), wk =   0.0740741
        k(    7) = (   0.3333333   0.0834003   0.3232830), wk =   0.0740741
        k(    8) = (   0.3333333   0.0834003  -0.1844217), wk =   0.0740741
        k(    9) = (   0.3333333   0.3573790   0.1687751), wk =   0.0740741
        k(   10) = (   0.3333333   0.3573790   0.4226274), wk =   0.0740741
        k(   11) = (   0.3333333   0.3573790  -0.0850773), wk =   0.0740741
        k(   12) = (   0.3333333  -0.1905784  -0.0299138), wk =   0.0740741
        k(   13) = (   0.3333333  -0.1905784   0.2239386), wk =   0.0740741
        k(   14) = (   0.3333333  -0.1905784  -0.2837661), wk =   0.0740741

                       cryst. coord.
        k(    1) = (   0.0000000   0.0000000   0.0000000), wk =   0.0370370
        k(    2) = (   0.0000000   0.0000000   0.3333333), wk =   0.0740741
        k(    3) = (   0.0000000   0.3333333   0.0000000), wk =   0.0740741
        k(    4) = (   0.0000000   0.3333333   0.3333333), wk =   0.0740741
        k(    5) = (   0.0000000   0.3333333  -0.3333333), wk =   0.0740741
        k(    6) = (   0.3333333   0.0000000   0.0000000), wk =   0.0740741
        k(    7) = (   0.3333333   0.0000000   0.3333333), wk =   0.0740741
        k(    8) = (   0.3333333   0.0000000  -0.3333333), wk =   0.0740741
        k(    9) = (   0.3333333   0.3333333   0.0000000), wk =   0.0740741
        k(   10) = (   0.3333333   0.3333333   0.3333333), wk =   0.0740741
        k(   11) = (   0.3333333   0.3333333  -0.3333333), wk =   0.0740741
        k(   12) = (   0.3333333  -0.3333333   0.0000000), wk =   0.0740741
        k(   13) = (   0.3333333  -0.3333333   0.3333333), wk =   0.0740741
        k(   14) = (   0.3333333  -0.3333333  -0.3333333), wk =   0.0740741

     Check: negative core charge=   -0.000014
     Generating pointlists ...
     new r_m :   0.2140 (alat units)  2.1328 (a.u.) for type    1
     new r_m :   0.1391 (alat units)  1.3864 (a.u.) for type    2
     new r_m :   0.0783 (alat units)  0.7807 (a.u.) for type    3
     new r_m :   0.1146 (alat units)  1.1420 (a.u.) for type    4
     new r_m :   0.0783 (alat units)  0.7807 (a.u.) for type    5

     Initial potential from superposition of free atoms

     starting charge     107.9622, renormalised to     109.0000
     Starting wfcs are   79 randomized atomic wfcs
     Checking if some PAW data can be deallocated...

     Self-consistent Calculation

     iteration #  1     ecut=    30.00 Ry     beta= 0.70
     Davidson diagonalization with overlap

     ethr =  1.00E-02,  avg # of iterations =  4.5

     total energy              =    -988.75768788 Ry
     estimated scf accuracy    <       4.66209207 Ry

     total magnetization       =     3.00 Bohr mag/cell
     absolute magnetization    =     3.00 Bohr mag/cell

[...]

     total energy              =    -991.27567468 Ry
     estimated scf accuracy    <       0.00000154 Ry

[...]

     iteration # 14     ecut=    30.00 Ry     beta= 0.70
     Davidson diagonalization with overlap

     ethr =  1.41E-09,  avg # of iterations =  2.0

     Magnetic moment per site  (integrated on atomic sphere of radius R)
     atom   1 (R=0.214)  charge=  7.5074  magn=  0.0005
     atom   2 (R=0.214)  charge=  7.5074  magn=  0.0005
     atom   3 (R=0.139)  charge= 13.6111  magn=  1.9629
     atom   4 (R=0.078)  charge=  0.3981  magn=  0.0024
     atom   5 (R=0.078)  charge=  0.3981  magn=  0.0024
     atom   6 (R=0.115)  charge=  1.2266  magn=  0.0006
     atom   7 (R=0.115)  charge=  1.2266  magn=  0.0006
     atom   8 (R=0.078)  charge=  2.0121  magn=  0.0783
     atom   9 (R=0.078)  charge=  2.0121  magn=  0.0783
     atom  10 (R=0.078)  charge=  2.0185  magn=  0.0313
     atom  11 (R=0.078)  charge=  2.0185  magn=  0.0313
     atom  12 (R=0.078)  charge=  2.0294  magn=  0.0108
     atom  13 (R=0.078)  charge=  2.0294  magn=  0.0108
     atom  14 (R=0.078)  charge=  2.0227  magn=  0.0370
     atom  15 (R=0.078)  charge=  2.0227  magn=  0.0370
     atom  16 (R=0.078)  charge=  2.0269  magn=  0.0083
     atom  17 (R=0.078)  charge=  2.0269  magn=  0.0083

     End of self-consistent calculation

 ------ SPIN UP ------------

          k = 0.0000 0.0000 0.0000 (  4381 PWs)   bands (ev):

   -94.7471 -58.4720 -57.7786 -57.3968 -24.6418 -24.6352 -20.4597 -20.3930
   -16.5211 -16.4787 -16.3701 -16.3418 -16.3221 -16.2291 -15.5405 -15.2655
    -8.1943  -8.1708  -8.1622  -8.1457  -8.1381  -8.1349  -6.7179  -6.3744
    -4.5831  -3.8342  -3.8200  -3.6218  -3.4517  -3.2321  -3.0331  -2.6566
    -1.8589  -1.6297  -1.0159  -0.7883  -0.6643  -0.3997  -0.3424   0.0069
     0.0857   0.1992   0.2529   0.3100   0.5339   0.7342   1.1503   1.3040
     1.5036   1.6975   1.9229   2.0168   2.0572   2.1382   2.3291   2.6435
     3.8610   8.0371  10.3236  10.4299  10.7394  11.2158  11.2376  11.3431

     occupation numbers
     1.0000   1.0000   1.0000   1.0000   1.0000   1.0000   1.0000   1.0000
     1.0000   1.0000   1.0000   1.0000   1.0000   1.0000   1.0000   1.0000
     1.0000   1.0000   1.0000   1.0000   1.0000   1.0000   1.0000   1.0000
     1.0000   1.0000   1.0000   1.0000   1.0000   1.0000   1.0000   1.0000
     1.0000   1.0000   1.0000   1.0000   1.0000   1.0000   1.0000   1.0000
     1.0000   1.0000   1.0000   1.0000   1.0000   1.0000   1.0000   1.0000
     1.0000   1.0000   1.0000   1.0000   1.0000   1.0000   1.0000   1.0000
     0.0000   0.0000   0.0000   0.0000   0.0000   0.0000   0.0000   0.0000

[...]

 ------ SPIN DOWN ----------

[...]

          k = 0.3333-0.1906-0.2838 (  4388 PWs)   bands (ev):

   -91.8960 -55.6868 -55.0655 -54.6766 -24.6378 -24.6357 -20.3849 -20.3448
   -16.5194 -16.4021 -16.3300 -16.2642 -16.1893 -16.1719 -15.2154 -15.0116
    -8.2058  -8.1985  -8.1675  -8.1518  -8.1313  -8.1200  -6.2007  -6.1802
    -4.4825  -3.9539  -3.6001  -3.4568  -3.1209  -2.9947  -2.8616  -2.4292
    -1.2553  -0.8858  -0.6127  -0.5042  -0.3519  -0.2884  -0.0491   0.0497
     0.1456   0.2538   0.4751   0.6825   1.0507   1.4060   1.5282   1.7201
     1.9072   1.9862   2.1222   2.2218   2.8182   3.0972   3.8293   4.2089
     5.3128   9.6649  10.4160  10.5392  10.8429  11.0270  11.0696  11.4817

     occupation numbers
     1.0000   1.0000   1.0000   1.0000   1.0000   1.0000   1.0000   1.0000
     1.0000   1.0000   1.0000   1.0000   1.0000   1.0000   1.0000   1.0000
     1.0000   1.0000   1.0000   1.0000   1.0000   1.0000   1.0000   1.0000
     1.0000   1.0000   1.0000   1.0000   1.0000   1.0000   1.0000   1.0000
     1.0000   1.0000   1.0000   1.0000   1.0000   1.0000   1.0000   1.0000
     1.0000   1.0000   1.0000   1.0000   1.0000   1.0000   1.0000   1.0000
     1.0000   1.0000   1.0000   1.0000   1.0000   0.0000   0.0000   0.0000
     0.0000   0.0000   0.0000   0.0000   0.0000   0.0000   0.0000   0.0000

     highest occupied, lowest unoccupied level (ev):     2.8276    3.0517

!    total energy              =    -991.27567493 Ry
     estimated scf accuracy    <       0.00000008 Ry

     The total energy is the sum of the following terms:
     one-electron contribution =    -618.09436902 Ry
     hartree contribution      =     355.66852263 Ry
     xc contribution           =    -148.41187058 Ry
     ewald contribution        =    -374.34344772 Ry
     one-center paw contrib.   =    -206.09451024 Ry
      -> PAW hartree energy AE =      75.44401700 Ry
      -> PAW hartree energy PS =     -75.02336352 Ry
      -> PAW xc energy AE      =    -132.44445640 Ry
      -> PAW xc energy PS      =      21.18881638 Ry
      -> total E_H with PAW    =     356.08917610 Ry
      -> total E_XC with PAW   =    -259.66751059 Ry

     total magnetization       =     3.00 Bohr mag/cell
     absolute magnetization    =     3.13 Bohr mag/cell

     convergence has been achieved in  14 iterations

     Writing all to output data dir bands_nm_v2/myprefix.save/

     General routines

     Parallel routines

     PAW routines

   This run was terminated on:  23:29:51  16Jul2023

   JOB DONE.