     Program PWSCF v.7.0 starts on 23Jun2023 at 10:23:38

     K-points division:     npool     =       2
     R & G space division:  proc/nbgrp/npool/nimage =       4

     Reading input from espresso_9396.pwi
Warning: card &CELL ignored
Warning: card / ignored

     Current dimensions of program PWSCF are:
     Max number of different atomic species (ntypx) = 10
     Max number of k-points (npk) =  40000
     Max angular momentum in pseudopotentials (lmaxx) =  4
     file In.pbe-dn-rrkjus_psl.0.2.2.UPF: wavefunction(s)  5S renormalized
     Message from routine setup:
     using ibrav=0 with symmetry is DISCOURAGED, use correct ibrav instead

     Using Slab Decomposition

     bravais-lattice index     =            0
     lattice parameter (alat)  =      14.6145  a.u.
     unit-cell volume          =    2208.4495 (a.u.)^3
     number of atoms/cell      =           14
     number of atomic types    =            4
     number of electrons       =       140.00
     number of Kohn-Sham states=           90
     kinetic-energy cutoff     =      30.0000  Ry
     charge density cutoff     =     240.0000  Ry
     scf convergence threshold =      1.0E-06
     mixing beta               =       0.7000
     number of iterations used =            8  plain     mixing
     Exchange-correlation=  SLA  PW   PBX  PBC
                           (   1   4   3   4   0   0   0)

     celldm(1)=  14.614535  celldm(2)=   0.000000  celldm(3)=   0.000000
     celldm(4)=   0.000000  celldm(5)=   0.000000  celldm(6)=   0.000000

     crystal axes: (cart. coord. in units of alat)
               a(1) = (   1.000000   0.000000   0.000000 )
               a(2) = (  -0.001168   0.999999   0.000000 )
               a(3) = (  -0.496821  -0.502591   0.707510 )

     reciprocal axes: (cart. coord. in units 2 pi/alat)
               b(1) = (  1.000000  0.001168  0.703041 )
               b(2) = (  0.000000  1.000001  0.710366 )
               b(3) = (  0.000000  0.000000  1.413407 )

     PseudoPot. # 1 for In read from file:
     /home/pragov/projects/rrg-bengioy-ad/pragov/crystal_structure_design/SSSP/In.pbe-dn-rrkjus_psl.0.2.2.UPF
     MD5 check sum: 25e7c42c3b55b68f4bf926be2e7201a4
     Pseudo is Ultrasoft + core correction, Zval = 13.0
     Generated using "atomic" code by A. Dal Corso  v.5.0.99 svn rev. 10869
     Using radial grid of 1241 points,  6 beta functions with:
                l(1) =   0
                l(2) =   0
                l(3) =   1
                l(4) =   1
                l(5) =   2
                l(6) =   2
     Q(r) pseudized with 0 coefficients

     PseudoPot. # 2 for Ag read from file:
     /home/pragov/projects/rrg-bengioy-ad/pragov/crystal_structure_design/SSSP/Ag_ONCV_PBE-1.0.oncvpsp.upf
     MD5 check sum: 94f47bd0669c641108e45594df92fabc
     Pseudo is Norm-conserving, Zval = 19.0
     Generated using ONCVPSP code by D. R. Hamann
     Using radial grid of 1398 points,  6 beta functions with:
                l(1) =   0
                l(2) =   0
                l(3) =   1
                l(4) =   1
                l(5) =   2
                l(6) =   2

     PseudoPot. # 3 for Sn read from file:
     /home/pragov/projects/rrg-bengioy-ad/pragov/crystal_structure_design/SSSP/Sn_pbe_v1.uspp.F.UPF
     MD5 check sum: 4cf58ce39ec5d5d420df3dd08604eb00
     Pseudo is Ultrasoft + core correction, Zval = 14.0
     Generated by new atomic code, or converted to UPF format
     Using radial grid of  891 points,  6 beta functions with:
                l(1) =   0
                l(2) =   0
                l(3) =   1
                l(4) =   1
                l(5) =   2
                l(6) =   2
     Q(r) pseudized with  6 coefficients,  rinner =    1.200   1.200   1.200
                                                       1.200   1.200

     PseudoPot. # 4 for S  read from file:
     /home/pragov/projects/rrg-bengioy-ad/pragov/crystal_structure_design/SSSP/s_pbe_v1.4.uspp.F.UPF
     MD5 check sum: 88d86576ff6df21479756cfb9bdac1df
     Pseudo is Ultrasoft + core correction, Zval =  6.0
     Generated by new atomic code, or converted to UPF format
     Using radial grid of  907 points,  6 beta functions with:
                l(1) =   0
                l(2) =   0
                l(3) =   1
                l(4) =   1
                l(5) =   2
                l(6) =   2
     Q(r) pseudized with  8 coefficients,  rinner =    1.300   1.300   1.300
                                                       1.300   1.300

     atomic species   valence    mass     pseudopotential
        In            13.00   114.81800     In( 1.00)
        Ag            19.00   107.86820     Ag( 1.00)
        Sn            14.00   118.71000     Sn( 1.00)
        S              6.00    32.06000     S ( 1.00)

      2 Sym. Ops., with inversion, found

                                    s                        frac. trans.

      isym =  1     identity

 cryst.   s( 1) = (     1          0          0      )
                  (     0          1          0      )
                  (     0          0          1      )

 cart.    s( 1) = (  1.0000000 -0.0000000 -0.0000000 )
                  (  0.0000000  1.0000000 -0.0000000 )
                  (  0.0000000  0.0000000  1.0000000 )

      isym =  2     inversion

 cryst.   s( 2) = (    -1          0          0      )
                  (     0         -1          0      )
                  (     0          0         -1      )

 cart.    s( 2) = ( -1.0000000  0.0000000  0.0000000 )
                  (  0.0000000 -1.0000000  0.0000000 )
                  (  0.0000000  0.0000000 -1.0000000 )

   Cartesian axes

     site n.     atom                  positions (alat units)
         1           In  tau(   1) = (   0.7510050   0.2487042   0.3537551  )
         2           In  tau(   2) = (   0.4994158   0.4999997   0.0000000  )
         3           Ag  tau(   3) = (   0.0031343   0.7527177   0.1768776  )
         4           Ag  tau(   4) = (   0.4988758  -0.2553093   0.5306327  )
         5           Sn  tau(   5) = (   0.5000000   0.0000000   0.0000000  )
         6           Sn  tau(   6) = (   0.2510050   0.2487042   0.3537551  )
         7           S   tau(   7) = (   0.2643447   0.2450448   0.0137858  )
         8           S   tau(   8) = (   0.4963241   0.0133353   0.3399693  )
         9           S   tau(   9) = (   0.4959600   0.4768326   0.3415987  )
        10           S   tau(  10) = (   0.7278420   0.2452223   0.0121564  )
        11           S   tau(  11) = (   0.2376654   0.2523635   0.6937244  )
        12           S   tau(  12) = (   0.0056860   0.4840730   0.3675410  )
        13           S   tau(  13) = (   0.0060501   0.0205758   0.3659116  )
        14           S   tau(  14) = (  -0.2258319   0.2521861   0.6953538  )

   Crystallographic axes

     site n.     atom                  positions (cryst. coord.)
         1           In  tau(   1) = (  1.0000000  0.5000000  0.5000000  )
         2           In  tau(   2) = (  0.5000000  0.5000000  0.0000000  )
         3           Ag  tau(   3) = (  0.1283660  0.8783660  0.2500000  )
         4           Ag  tau(   4) = (  0.8716340  0.1216340  0.7500000  )
         5           Sn  tau(   5) = (  0.5000000  0.0000000  0.0000000  )
         6           Sn  tau(   6) = (  0.5000000  0.5000000  0.5000000  )
         7           S   tau(   7) = (  0.2743230  0.2548380  0.0194850  )
         8           S   tau(   8) = (  0.7353520  0.2548380  0.4805150  )
         9           S   tau(   9) = (  0.7366750  0.7194930  0.4828180  )
        10           S   tau(  10) = (  0.7366750  0.2538580  0.0171820  )
        11           S   tau(  11) = (  0.7256770  0.7451620  0.9805150  )
        12           S   tau(  12) = (  0.2646480  0.7451620  0.5194850  )
        13           S   tau(  13) = (  0.2633250  0.2805070  0.5171820  )
        14           S   tau(  14) = (  0.2633250  0.7461420  0.9828180  )

     number of k points=    14
                       cart. coord. in units 2pi/alat
        k(    1) = (   0.0000000   0.0000000   0.0000000), wk =   0.0740741
        k(    2) = (   0.0000000   0.0000000   0.4711357), wk =   0.1481481
        k(    3) = (   0.0000000   0.3333336   0.2367887), wk =   0.1481481
        k(    4) = (   0.0000000   0.3333336   0.7079244), wk =   0.1481481
        k(    5) = (   0.0000000   0.3333336  -0.2343470), wk =   0.1481481
        k(    6) = (   0.3333333   0.0003895   0.2343470), wk =   0.1481481
        k(    7) = (   0.3333333   0.0003895   0.7054827), wk =   0.1481481
        k(    8) = (   0.3333333   0.0003895  -0.2367887), wk =   0.1481481
        k(    9) = (   0.3333333   0.3337231   0.4711357), wk =   0.1481481
        k(   10) = (   0.3333333   0.3337231   0.9422714), wk =   0.1481481
        k(   11) = (   0.3333333   0.3337231  -0.0000000), wk =   0.1481481
        k(   12) = (   0.3333333  -0.3329441  -0.0024417), wk =   0.1481481
        k(   13) = (   0.3333333  -0.3329441   0.4686940), wk =   0.1481481
        k(   14) = (   0.3333333  -0.3329441  -0.4735774), wk =   0.1481481

                       cryst. coord.
        k(    1) = (   0.0000000   0.0000000   0.0000000), wk =   0.0740741
        k(    2) = (   0.0000000   0.0000000   0.3333333), wk =   0.1481481
        k(    3) = (   0.0000000   0.3333333  -0.0000000), wk =   0.1481481
        k(    4) = (   0.0000000   0.3333333   0.3333333), wk =   0.1481481
        k(    5) = (   0.0000000   0.3333333  -0.3333333), wk =   0.1481481
        k(    6) = (   0.3333333  -0.0000000  -0.0000000), wk =   0.1481481
        k(    7) = (   0.3333333  -0.0000000   0.3333333), wk =   0.1481481
        k(    8) = (   0.3333333  -0.0000000  -0.3333333), wk =   0.1481481
        k(    9) = (   0.3333333   0.3333333  -0.0000000), wk =   0.1481481
        k(   10) = (   0.3333333   0.3333333   0.3333333), wk =   0.1481481
        k(   11) = (   0.3333333   0.3333333  -0.3333333), wk =   0.1481481
        k(   12) = (   0.3333333  -0.3333333  -0.0000000), wk =   0.1481481
        k(   13) = (   0.3333333  -0.3333333   0.3333333), wk =   0.1481481
        k(   14) = (   0.3333333  -0.3333333  -0.3333333), wk =   0.1481481

     Initial potential from superposition of free atoms

     starting charge     137.9916, renormalised to     140.0000
     Starting wfcs are   88 randomized atomic wfcs +    2 random wfcs

     Self-consistent Calculation

     iteration #  1     ecut=    30.00 Ry     beta= 0.70
     Davidson diagonalization with overlap

     ethr =  1.00E-02,  avg # of iterations =  7.1

     total energy              =   -1382.62187860 Ry
     estimated scf accuracy    <       1.78897627 Ry

[...]

     total energy              =   -1383.52963472 Ry
     estimated scf accuracy    <       0.00000152 Ry

     iteration # 10     ecut=    30.00 Ry     beta= 0.70
     Davidson diagonalization with overlap

     ethr =  1.08E-09,  avg # of iterations =  2.0

     End of self-consistent calculation

          k = 0.0000 0.0000 0.0000 (  6151 PWs)   bands (ev):

   -84.6785 -84.6785 -47.7395 -47.7381 -47.7226 -47.7221 -47.7117 -47.7102
   -14.4673 -14.4470 -14.4238 -14.4238 -14.4089 -14.3783 -14.3780 -14.3763
   -14.3751 -14.3647  -7.2593  -7.1573  -7.0183  -6.9266  -6.9178  -6.8506
    -6.8342  -6.8223  -6.8164  -6.7763  -6.4282  -5.2907  -5.0985  -5.0136
    -4.9589  -4.4910  -4.3558  -4.3116  -0.2745   0.1687   1.2975   1.5309
     2.0418   2.2257   2.2552   3.2198   3.2486   3.2894   3.4935   3.5031
     3.5256   3.9658   3.9694   4.3006   4.3124   4.3935   4.4097   4.6551
     4.7093   4.7375   4.8296   6.0433   6.1049   6.1554   6.2707   6.4260
     6.5968   6.6445   6.6643   6.6905   6.7266   6.8083   7.3517   7.8297
     8.5326   8.7821   9.9587  10.1203  10.4750  10.6830  10.8694  11.6921
    12.3420  12.4387  12.6688  12.6762  12.7212  12.7849  13.0366  13.9536
    14.1468  14.2636

     occupation numbers
     1.0000   1.0000   1.0000   1.0000   1.0000   1.0000   1.0000   1.0000
     1.0000   1.0000   1.0000   1.0000   1.0000   1.0000   1.0000   1.0000
     1.0000   1.0000   1.0000   1.0000   1.0000   1.0000   1.0000   1.0000
     1.0000   1.0000   1.0000   1.0000   1.0000   1.0000   1.0000   1.0000
     1.0000   1.0000   1.0000   1.0000   1.0000   1.0000   1.0000   1.0000
     1.0000   1.0000   1.0000   1.0000   1.0000   1.0000   1.0000   1.0000
     1.0000   1.0000   1.0000   1.0000   1.0000   1.0000   1.0000   1.0000
     1.0000   1.0000   1.0000   1.0000   1.0000   1.0000   1.0000   1.0000
     1.0000   1.0000   1.0000   1.0000   1.0000   1.0000   0.0000   0.0000
     0.0000   0.0000   0.0000   0.0000   0.0000   0.0000   0.0000   0.0000
     0.0000   0.0000   0.0000   0.0000   0.0000   0.0000   0.0000   0.0000
     0.0000   0.0000

[...]

          k = 0.3333-0.3329-0.4736 (  6119 PWs)   bands (ev):

   -84.6784 -84.6784 -47.7374 -47.7374 -47.7205 -47.7198 -47.7105 -47.7094
   -14.4564 -14.4384 -14.4348 -14.4272 -14.4032 -14.3858 -14.3777 -14.3767
   -14.3746 -14.3681  -7.2626  -7.1721  -7.0325  -6.9181  -6.8891  -6.8510
    -6.8330  -6.8234  -6.8170  -6.7768  -5.9667  -5.9098  -5.1459  -4.8780
    -4.8104  -4.7314  -4.5263  -4.2358  -0.0151   0.5318   1.5138   1.8555
     2.5366   2.6396   3.1273   3.1388   3.1679   3.3298   3.3561   3.4109
     3.6327   3.7315   3.8131   3.8539   4.1333   4.1371   4.1782   4.2870
     4.6663   4.7468   4.8690   5.2654   5.3332   5.5612   5.6238   5.6428
     5.6930   6.1016   6.2345   6.3499   6.4070   6.8303   8.8348   8.8373
     9.7692   9.8243  10.9901  11.1069  11.7937  11.9016  11.9549  12.5550
    12.7365  12.8892  12.9902  13.1219  13.3086  13.5339  13.5784  13.8115
    13.8117  14.0539

     occupation numbers
     1.0000   1.0000   1.0000   1.0000   1.0000   1.0000   1.0000   1.0000
     1.0000   1.0000   1.0000   1.0000   1.0000   1.0000   1.0000   1.0000
     1.0000   1.0000   1.0000   1.0000   1.0000   1.0000   1.0000   1.0000
     1.0000   1.0000   1.0000   1.0000   1.0000   1.0000   1.0000   1.0000
     1.0000   1.0000   1.0000   1.0000   1.0000   1.0000   1.0000   1.0000
     1.0000   1.0000   1.0000   1.0000   1.0000   1.0000   1.0000   1.0000
     1.0000   1.0000   1.0000   1.0000   1.0000   1.0000   1.0000   1.0000
     1.0000   1.0000   1.0000   1.0000   1.0000   1.0000   1.0000   1.0000
     1.0000   1.0000   1.0000   1.0000   1.0000   1.0000   0.0000   0.0000
     0.0000   0.0000   0.0000   0.0000   0.0000   0.0000   0.0000   0.0000
     0.0000   0.0000   0.0000   0.0000   0.0000   0.0000   0.0000   0.0000
     0.0000   0.0000

     highest occupied, lowest unoccupied level (ev):     6.8763    7.3517

!    total energy              =   -1383.52963490 Ry
     estimated scf accuracy    <       0.00000009 Ry

     The total energy is the sum of the following terms:
     one-electron contribution =    -664.43625586 Ry
     hartree contribution      =     402.72910489 Ry
     xc contribution           =    -312.29636329 Ry
     ewald contribution        =    -809.52612064 Ry

     convergence has been achieved in  10 iterations

     Writing all to output data dir calculations_bands/myprefix.save/

     General routines

     Parallel routines

   This run was terminated on:  10:24: 7  23Jun2023

   JOB DONE.