     Program PWSCF v.7.1 starts on 17Jul2023 at  1:34:52

     Reading input from espresso_22118.pwi
Warning: card &CELL ignored
Warning: card / ignored

     Current dimensions of program PWSCF are:
     Max number of different atomic species (ntypx) = 10
     Max number of k-points (npk) =  40000
     Max angular momentum in pseudopotentials (lmaxx) =  4
     file O.pbe-n-kjpaw_psl.0.1.UPF: wavefunction(s)  2P renormalized
     Message from routine setup:
     using ibrav=0 with symmetry is DISCOURAGED, use correct ibrav instead

     K-points division:     npool     =       2
     R & G space division:  proc/nbgrp/npool/nimage =       4
     Subspace diagonalization in iterative solution of the eigenvalue problem:
     one sub-group per band group will be used

     Using Slab Decomposition

     bravais-lattice index     =            0
     lattice parameter (alat)  =      10.9672  a.u.
     unit-cell volume          =    1653.4938 (a.u.)^3
     number of atoms/cell      =           18
     number of atomic types    =            3
     number of electrons       =       154.00
     number of Kohn-Sham states=          256
     kinetic-energy cutoff     =      30.0000  Ry
     charge density cutoff     =     240.0000  Ry
     scf convergence threshold =      1.0E-06
     mixing beta               =       0.7000
     number of iterations used =            8  plain     mixing
     Exchange-correlation= SLA  PW   PBX  PBC
                           (   1   4   3   4   0   0   0)

     celldm(1)=  10.967211  celldm(2)=   0.000000  celldm(3)=   0.000000
     celldm(4)=   0.000000  celldm(5)=   0.000000  celldm(6)=   0.000000

     crystal axes: (cart. coord. in units of alat)
               a(1) = (   1.000000   0.000000   0.000000 )
               a(2) = (  -0.341242   0.942316   0.000000 )
               a(3) = (  -0.406856  -0.118983   1.330202 )

     reciprocal axes: (cart. coord. in units 2 pi/alat)
               b(1) = (  1.000000  0.362131  0.338252 )
               b(2) = (  0.000000  1.061215  0.094923 )
               b(3) = (  0.000000  0.000000  0.751766 )

     PseudoPot. # 1 for Na read from file:
     /lustre07/scratch/pragov/crystal_structure_design/utils/SSSP/na_pbe_v1.5.uspp.F.UPF
     MD5 check sum: 44600605ef58000f06b90626533354dc
     Pseudo is Ultrasoft, Zval =  9.0
     Generated by new atomic code, or converted to UPF format
     Using radial grid of  819 points,  5 beta functions with:
                l(1) =   0
                l(2) =   0
                l(3) =   1
                l(4) =   1
                l(5) =   2
     Q(r) pseudized with  8 coefficients,  rinner =    1.250   1.250   1.250
                                                       1.250   1.250

     PseudoPot. # 2 for Co read from file:
     /lustre07/scratch/pragov/crystal_structure_design/utils/SSSP/Co_pbe_v1.2.uspp.F.UPF
     MD5 check sum: 5f91765df6ddd3222702df6e7b74a16d
     Pseudo is Ultrasoft + core correction, Zval = 17.0
     Generated by new atomic code, or converted to UPF format
     Using radial grid of  863 points,  6 beta functions with:
                l(1) =   0
                l(2) =   0
                l(3) =   1
                l(4) =   1
                l(5) =   2
                l(6) =   2
     Q(r) pseudized with  8 coefficients,  rinner =    1.200   1.200   1.200
                                                       1.200   1.200

     PseudoPot. # 3 for O  read from file:
     /lustre07/scratch/pragov/crystal_structure_design/utils/SSSP/O.pbe-n-kjpaw_psl.0.1.UPF
     MD5 check sum: 0234752ac141de4415c5fc33072bef88
     Pseudo is Projector augmented-wave + core cor, Zval =  6.0
     Generated using "atomic" code by A. Dal Corso  v.5.0.99 svn rev. 10869
     Shape of augmentation charge: BESSEL
     Using radial grid of 1095 points,  4 beta functions with:
                l(1) =   0
                l(2) =   0
                l(3) =   1
                l(4) =   1
     Q(r) pseudized with 0 coefficients

     atomic species   valence    mass     pseudopotential
        Na             9.00    22.98977     Na( 1.00)
        Co            17.00    58.93319     Co( 1.00)
        O              6.00    15.99900     O ( 1.00)

      2 Sym. Ops., with inversion, found

                                    s                        frac. trans.

      isym =  1     identity

 cryst.   s( 1) = (     1          0          0      )
                  (     0          1          0      )
                  (     0          0          1      )

 cart.    s( 1) = (  1.0000000  0.0000000  0.0000000 )
                  (  0.0000000  1.0000000  0.0000000 )
                  (  0.0000000  0.0000000  1.0000000 )

      isym =  2     inversion

 cryst.   s( 2) = (    -1          0          0      )
                  (     0         -1          0      )
                  (     0          0         -1      )

 cart.    s( 2) = ( -1.0000000 -0.0000000  0.0000000 )
                  (  0.0000000 -1.0000000  0.0000000 )
                  (  0.0000000  0.0000000 -1.0000000 )

   Cartesian axes

     site n.     atom                  positions (alat units)
         1           Na  tau(   1) = (   0.2042255   0.1649621   0.5704410  )
         2           Na  tau(   2) = (  -0.0523870   0.6790390   0.2152120  )
         3           Na  tau(   3) = (   0.5222344   0.6306478   0.5016190  )
         4           Na  tau(   4) = (   0.1990501   0.2271884   0.0201446  )
         5           Na  tau(   5) = (   0.3042895   0.1442944   1.1149896  )
         6           Na  tau(   6) = (   0.0476770   0.6583713   0.7597606  )
         7           Na  tau(   7) = (  -0.2703318   0.1926856   0.8285825  )
         8           Na  tau(   8) = (   0.0528525   0.5961449   1.3100570  )
         9           Co  tau(   9) = (  -0.4807377   0.6449321   0.9977948  )
        10           Co  tau(  10) = (   0.7326402   0.1784012   0.3324067  )
        11           O   tau(  11) = (   0.1984085   0.9018827   0.4348322  )
        12           O   tau(  12) = (   0.5508045   0.3592921   0.1573256  )
        13           O   tau(  13) = (  -0.2989020   0.4640413   1.1728759  )
        14           O   tau(  14) = (   0.2736258   0.8238983   1.0568997  )
        15           O   tau(  15) = (   0.0534940  -0.0785493   0.8953693  )
        16           O   tau(  16) = (   0.3718433   0.4221511   0.8366808  )
        17           O   tau(  17) = (  -0.0217232  -0.0005649   0.2733019  )
        18           O   tau(  18) = (  -0.1199408   0.4011823   0.4935207  )

   Crystallographic axes

     site n.     atom                  positions (cryst. coord.)
         1           Na  tau(   1) = (  0.4569160  0.2292080  0.4288380  )
         2           Na  tau(   2) = (  0.2663100  0.7410350  0.1617890  )
         3           Na  tau(   3) = (  0.9202850  0.7168680  0.3771000  )
         4           Na  tau(   4) = (  0.2881360  0.2430080  0.0151440  )
         5           Na  tau(   5) = (  0.7336900  0.2589650  0.8382110  )
         6           Na  tau(   6) = (  0.5430840  0.7707920  0.5711620  )
         7           Na  tau(   7) = (  0.0797150  0.2831320  0.6229000  )
         8           Na  tau(   8) = (  0.7118640  0.7569920  0.9848560  )
         9           Co  tau(   9) = (  0.0903180  0.7791250  0.7501080  )
        10           Co  tau(  10) = (  0.9096820  0.2208750  0.2498920  )
        11           O   tau(  11) = (  0.6720910  0.9983670  0.3268920  )
        12           O   tau(  12) = (  0.7341310  0.3962200  0.1182720  )
        13           O   tau(  13) = (  0.2658690  0.6037800  0.8817280  )
        14           O   tau(  14) = (  0.9294830  0.9746570  0.7945410  )
        15           O   tau(  15) = (  0.3279090  0.0016330  0.6731080  )
        16           O   tau(  16) = (  0.8077260  0.5274130  0.6289880  )
        17           O   tau(  17) = (  0.0705170  0.0253430  0.2054590  )
        18           O   tau(  18) = (  0.1922740  0.4725870  0.3710120  )

     number of k points=    14
                       cart. coord. in units 2pi/alat
        k(    1) = (   0.0000000   0.0000000   0.0000000), wk =   0.0740741
        k(    2) = (   0.0000000   0.0000000   0.2505886), wk =   0.1481481
        k(    3) = (   0.0000000   0.3537384   0.0316408), wk =   0.1481481
        k(    4) = (   0.0000000   0.3537384   0.2822294), wk =   0.1481481
        k(    5) = (   0.0000000   0.3537384  -0.2189477), wk =   0.1481481
        k(    6) = (   0.3333333   0.1207104   0.1127505), wk =   0.1481481
        k(    7) = (   0.3333333   0.1207104   0.3633391), wk =   0.1481481
        k(    8) = (   0.3333333   0.1207104  -0.1378381), wk =   0.1481481
        k(    9) = (   0.3333333   0.4744488   0.1443914), wk =   0.1481481
        k(   10) = (   0.3333333   0.4744488   0.3949800), wk =   0.1481481
        k(   11) = (   0.3333333   0.4744488  -0.1061972), wk =   0.1481481
        k(   12) = (   0.3333333  -0.2330280   0.0811097), wk =   0.1481481
        k(   13) = (   0.3333333  -0.2330280   0.3316983), wk =   0.1481481
        k(   14) = (   0.3333333  -0.2330280  -0.1694789), wk =   0.1481481

                       cryst. coord.
        k(    1) = (   0.0000000   0.0000000   0.0000000), wk =   0.0740741
        k(    2) = (   0.0000000   0.0000000   0.3333333), wk =   0.1481481
        k(    3) = (   0.0000000   0.3333333   0.0000000), wk =   0.1481481
        k(    4) = (   0.0000000   0.3333333   0.3333333), wk =   0.1481481
        k(    5) = (   0.0000000   0.3333333  -0.3333333), wk =   0.1481481
        k(    6) = (   0.3333333  -0.0000000   0.0000000), wk =   0.1481481
        k(    7) = (   0.3333333  -0.0000000   0.3333333), wk =   0.1481481
        k(    8) = (   0.3333333  -0.0000000  -0.3333333), wk =   0.1481481
        k(    9) = (   0.3333333   0.3333333   0.0000000), wk =   0.1481481
        k(   10) = (   0.3333333   0.3333333   0.3333333), wk =   0.1481481
        k(   11) = (   0.3333333   0.3333333  -0.3333333), wk =   0.1481481
        k(   12) = (   0.3333333  -0.3333333  -0.0000000), wk =   0.1481481
        k(   13) = (   0.3333333  -0.3333333   0.3333333), wk =   0.1481481
        k(   14) = (   0.3333333  -0.3333333  -0.3333333), wk =   0.1481481

     Check: negative core charge=   -0.000015

     Initial potential from superposition of free atoms

     starting charge     151.9496, renormalised to     154.0000
     Starting wfcs are   98 randomized atomic wfcs +  158 random wfcs
     Checking if some PAW data can be deallocated...

     Self-consistent Calculation

     iteration #  1     ecut=    30.00 Ry     beta= 0.70
     Davidson diagonalization with overlap

     ethr =  1.00E-02,  avg # of iterations =  7.6

     total energy              =   -1687.29626454 Ry
     estimated scf accuracy    <       8.68069251 Ry

[...]

     total energy              =   -1692.88531641 Ry
     estimated scf accuracy    <       0.00000180 Ry

     iteration # 13     ecut=    30.00 Ry     beta= 0.70
     Davidson diagonalization with overlap

     ethr =  1.17E-09,  avg # of iterations =  1.0

     End of self-consistent calculation

          k = 0.0000 0.0000 0.0000 (  4585 PWs)   bands (ev):

   -91.0332 -91.0331 -54.3846 -54.3829 -54.2859 -54.2857 -54.0932 -54.0914
   -46.0172 -46.0162 -45.9619 -45.9589 -45.7632 -45.7607 -45.7351 -45.7278
   -18.0103 -18.0094 -17.9769 -17.9561 -17.9443 -17.9390 -17.9358 -17.9142
   -17.8842 -17.8806 -17.8555 -17.8104 -17.7544 -17.7490 -17.7124 -17.7012
   -17.6990 -17.6826 -17.6717 -17.6436 -17.6435 -17.6264 -17.6206 -17.6018
   -12.7993 -12.5887 -12.1451 -12.1363 -12.1086 -12.1024 -12.0967 -12.0614
     0.1871   0.2909   0.4174   0.5091   0.5822   0.6638   0.9327   1.0118
     1.0513   1.1077   1.4116   1.4907   1.5254   1.7073   1.8583   1.9188
     2.1437   2.3125   2.9716   3.1924   3.2983   3.3184   3.4133   3.4874
     4.3321   4.5626   4.6217   4.6784   5.3009   5.4449   5.4578   5.5153
     6.3041   6.4472   7.0630  10.1458  10.2875  10.9061  11.8353  11.9247
    12.0607  12.6787  12.9602  13.2486  13.4910  13.7098  14.0146  14.2942
    14.5459  14.7478  15.0299  15.2925  15.7701  16.7914  16.8261  17.2890
    17.4231  17.7219  18.0041  18.3557  18.5491  18.7408  19.4911  19.7693
    19.9816  20.0564  20.2780  20.3898  20.9215  20.9965  21.1821  21.2750
    21.4698  22.0187  22.0243  22.1378  22.4369  22.5669  22.6042  22.9154
    23.2240  23.2241  23.4873  23.8033  24.0828  24.3284  24.5926  24.7646
    24.9387  25.1853  25.2271  25.3031  25.6257  25.8495  26.4205  26.4673
    26.6753  27.0814  27.4653  27.4807  27.7144  27.7650  27.8500  28.2322
    28.2365  28.5515  28.8131  29.0297  29.1175  29.4010  29.4267  29.5679
    29.7401  30.2293  30.5591  30.6109  30.9074  30.9268  31.2214  31.5512
    31.5792  31.9538  32.0475  32.4699  32.5971  32.8942  33.2941  33.7322
    33.7363  34.1503  34.3736  34.3970  34.5524  34.6175  35.0808  35.4564
    35.5121  35.6815  36.4614  36.5092  36.6211  36.8364  37.1628  37.1870
    37.3811  37.6886  37.7423  37.9361  38.2011  38.3408  38.5058  38.8858
    38.9150  39.2363  39.2554  39.4503  40.0726  40.0831  40.1791  40.3252
    40.4121  40.5605  40.7345  41.0387  41.1670  41.3387  41.4360  41.4602
    41.6219  41.7990  41.9438  42.2906  42.3555  42.5629  42.6624  42.6878
    42.7844  43.0578  43.1887  43.2701  43.3815  43.4938  43.7361  43.9065
    44.1224  44.2359  44.7610  44.7728  44.9433  45.0622  45.1956  45.3245
    45.4602  45.6617  45.8762  45.9384  46.1132  46.3132  46.4157  46.5661
    46.8757  47.0736  47.2500  47.4387  47.4618  47.9782  47.9882  48.0989

     occupation numbers
     1.0000   1.0000   1.0000   1.0000   1.0000   1.0000   1.0000   1.0000
     1.0000   1.0000   1.0000   1.0000   1.0000   1.0000   1.0000   1.0000
     1.0000   1.0000   1.0000   1.0000   1.0000   1.0000   1.0000   1.0000
     1.0000   1.0000   1.0000   1.0000   1.0000   1.0000   1.0000   1.0000
     1.0000   1.0000   1.0000   1.0000   1.0000   1.0000   1.0000   1.0000
     1.0000   1.0000   1.0000   1.0000   1.0000   1.0000   1.0000   1.0000
     1.0000   1.0000   1.0000   1.0000   1.0000   1.0000   1.0000   1.0000
     1.0000   1.0000   1.0000   1.0000   1.0000   1.0000   1.0000   1.0000
     1.0000   1.0000   1.0000   1.0000   1.0000   1.0000   1.0000   1.0000
     1.0000   1.0000   1.0000   1.0000   1.0000   0.0000   0.0000   0.0000
     0.0000   0.0000   0.0000   0.0000   0.0000   0.0000   0.0000   0.0000
     0.0000   0.0000   0.0000   0.0000   0.0000   0.0000   0.0000   0.0000
     0.0000   0.0000   0.0000   0.0000   0.0000   0.0000   0.0000   0.0000
     0.0000   0.0000   0.0000   0.0000   0.0000   0.0000   0.0000   0.0000
     0.0000   0.0000   0.0000   0.0000   0.0000   0.0000   0.0000   0.0000
     0.0000   0.0000   0.0000   0.0000   0.0000   0.0000   0.0000   0.0000
     0.0000   0.0000   0.0000   0.0000   0.0000   0.0000   0.0000   0.0000
     0.0000   0.0000   0.0000   0.0000   0.0000   0.0000   0.0000   0.0000
     0.0000   0.0000   0.0000   0.0000   0.0000   0.0000   0.0000   0.0000
     0.0000   0.0000   0.0000   0.0000   0.0000   0.0000   0.0000   0.0000
     0.0000   0.0000   0.0000   0.0000   0.0000   0.0000   0.0000   0.0000
     0.0000   0.0000   0.0000   0.0000   0.0000   0.0000   0.0000   0.0000
     0.0000   0.0000   0.0000   0.0000   0.0000   0.0000   0.0000   0.0000
     0.0000   0.0000   0.0000   0.0000   0.0000   0.0000   0.0000   0.0000
     0.0000   0.0000   0.0000   0.0000   0.0000   0.0000   0.0000   0.0000
     0.0000   0.0000   0.0000   0.0000   0.0000   0.0000   0.0000   0.0000
     0.0000   0.0000   0.0000   0.0000   0.0000   0.0000   0.0000   0.0000
     0.0000   0.0000   0.0000   0.0000   0.0000   0.0000   0.0000   0.0000
     0.0000   0.0000   0.0000   0.0000   0.0000   0.0000   0.0000   0.0000
     0.0000   0.0000   0.0000   0.0000   0.0000   0.0000   0.0000   0.0000
     0.0000   0.0000   0.0000   0.0000   0.0000   0.0000   0.0000   0.0000
     0.0000   0.0000   0.0000   0.0000   0.0000   0.0000   0.0000   0.0000

[...]

          k = 0.3333-0.2330-0.1695 (  4570 PWs)   bands (ev):

   -91.0331 -91.0330 -54.3837 -54.3823 -54.2860 -54.2844 -54.0928 -54.0908
   -46.0166 -46.0162 -45.9622 -45.9588 -45.7624 -45.7611 -45.7336 -45.7293
   -18.0023 -17.9937 -17.9695 -17.9660 -17.9556 -17.9398 -17.9251 -17.9179
   -17.8908 -17.8816 -17.8596 -17.8121 -17.7450 -17.7412 -17.7152 -17.7079
   -17.7019 -17.6874 -17.6613 -17.6455 -17.6401 -17.6268 -17.6225 -17.6125
   -12.6659 -12.5712 -12.2094 -12.1571 -12.1463 -12.1374 -12.0954 -12.0587
     0.2876   0.3831   0.4047   0.5177   0.7089   0.7791   0.8417   0.9650
     1.0249   1.0796   1.3335   1.5544   1.5895   1.6745   1.7157   1.8846
     1.9831   2.0427   3.1452   3.1614   3.2157   3.3209   3.4725   3.5025
     4.4200   4.6283   4.8679   4.8769   5.1425   5.2005   5.3967   5.4278
     6.2856   6.4409   8.5219   9.8220  10.5417  10.8073  11.0986  11.4503
    11.8030  12.3191  12.6388  13.0751  13.5844  13.6728  13.9335  14.3842
    14.7463  15.0096  15.1518  15.7105  16.2553  16.6853  16.7428  17.1164
    17.5071  17.8905  18.1183  18.5765  18.8166  19.0433  19.3089  19.5293
    19.6363  19.7650  20.0099  20.3061  20.4316  20.4890  20.6751  21.1724
    21.2665  21.3350  21.7243  21.7867  22.0898  22.5889  22.9236  23.1080
    23.2558  23.5709  23.6941  24.0627  24.2912  24.4135  24.7101  24.8118
    25.0201  25.0699  25.5323  25.8254  26.0512  26.2239  26.5795  26.7897
    26.8720  27.1823  27.3225  27.4183  27.8416  27.9900  28.4308  28.5082
    28.6013  29.0070  29.2492  29.3842  29.5600  29.9063  30.0808  30.2101
    30.3309  30.7583  30.8838  31.0756  31.1993  31.4210  31.5216  31.6294
    31.6769  31.9853  32.2563  32.3821  32.8324  33.0553  33.2992  33.5688
    33.7454  33.9412  34.1588  34.2572  34.4689  34.8104  34.9195  35.2334
    35.4455  35.5447  35.6380  35.8994  36.0426  36.2438  36.4424  36.6289
    36.7334  36.8942  36.9456  37.3657  37.5623  37.6672  38.0532  38.1160
    38.3568  38.4701  38.5919  38.7932  38.9924  39.1393  39.2807  39.4190
    39.6371  39.8080  39.9121  40.0753  40.3797  40.5781  40.6070  40.7535
    41.1210  41.3633  41.4223  41.9021  42.1314  42.2650  42.3293  42.6211
    42.9273  43.0847  43.1216  43.4862  43.7539  43.9111  43.9389  43.9993
    44.2617  44.6340  44.6700  44.9768  45.1608  45.5591  45.6540  45.6958
    46.0016  46.0791  46.1205  46.3484  46.5526  46.7203  47.0623  47.1252
    47.2961  47.5237  47.6291  47.7332  48.0558  48.1196  48.2593  48.6782

     occupation numbers
     1.0000   1.0000   1.0000   1.0000   1.0000   1.0000   1.0000   1.0000
     1.0000   1.0000   1.0000   1.0000   1.0000   1.0000   1.0000   1.0000
     1.0000   1.0000   1.0000   1.0000   1.0000   1.0000   1.0000   1.0000
     1.0000   1.0000   1.0000   1.0000   1.0000   1.0000   1.0000   1.0000
     1.0000   1.0000   1.0000   1.0000   1.0000   1.0000   1.0000   1.0000
     1.0000   1.0000   1.0000   1.0000   1.0000   1.0000   1.0000   1.0000
     1.0000   1.0000   1.0000   1.0000   1.0000   1.0000   1.0000   1.0000
     1.0000   1.0000   1.0000   1.0000   1.0000   1.0000   1.0000   1.0000
     1.0000   1.0000   1.0000   1.0000   1.0000   1.0000   1.0000   1.0000
     1.0000   1.0000   1.0000   1.0000   1.0000   0.0000   0.0000   0.0000
     0.0000   0.0000   0.0000   0.0000   0.0000   0.0000   0.0000   0.0000
     0.0000   0.0000   0.0000   0.0000   0.0000   0.0000   0.0000   0.0000
     0.0000   0.0000   0.0000   0.0000   0.0000   0.0000   0.0000   0.0000
     0.0000   0.0000   0.0000   0.0000   0.0000   0.0000   0.0000   0.0000
     0.0000   0.0000   0.0000   0.0000   0.0000   0.0000   0.0000   0.0000
     0.0000   0.0000   0.0000   0.0000   0.0000   0.0000   0.0000   0.0000
     0.0000   0.0000   0.0000   0.0000   0.0000   0.0000   0.0000   0.0000
     0.0000   0.0000   0.0000   0.0000   0.0000   0.0000   0.0000   0.0000
     0.0000   0.0000   0.0000   0.0000   0.0000   0.0000   0.0000   0.0000
     0.0000   0.0000   0.0000   0.0000   0.0000   0.0000   0.0000   0.0000
     0.0000   0.0000   0.0000   0.0000   0.0000   0.0000   0.0000   0.0000
     0.0000   0.0000   0.0000   0.0000   0.0000   0.0000   0.0000   0.0000
     0.0000   0.0000   0.0000   0.0000   0.0000   0.0000   0.0000   0.0000
     0.0000   0.0000   0.0000   0.0000   0.0000   0.0000   0.0000   0.0000
     0.0000   0.0000   0.0000   0.0000   0.0000   0.0000   0.0000   0.0000
     0.0000   0.0000   0.0000   0.0000   0.0000   0.0000   0.0000   0.0000
     0.0000   0.0000   0.0000   0.0000   0.0000   0.0000   0.0000   0.0000
     0.0000   0.0000   0.0000   0.0000   0.0000   0.0000   0.0000   0.0000
     0.0000   0.0000   0.0000   0.0000   0.0000   0.0000   0.0000   0.0000
     0.0000   0.0000   0.0000   0.0000   0.0000   0.0000   0.0000   0.0000
     0.0000   0.0000   0.0000   0.0000   0.0000   0.0000   0.0000   0.0000
     0.0000   0.0000   0.0000   0.0000   0.0000   0.0000   0.0000   0.0000

     highest occupied, lowest unoccupied level (ev):     5.3223    5.1678

!    total energy              =   -1692.88531661 Ry
     estimated scf accuracy    <       0.00000011 Ry

     The total energy is the sum of the following terms:
     one-electron contribution =   -1199.72333219 Ry
     hartree contribution      =     654.12078785 Ry
     xc contribution           =    -239.47140165 Ry
     ewald contribution        =    -831.59237331 Ry
     one-center paw contrib.   =     -76.21899730 Ry
      -> PAW hartree energy AE =       0.00000000 Ry
      -> PAW hartree energy PS =       0.00000000 Ry
      -> PAW xc energy AE      =       0.00000000 Ry
      -> PAW xc energy PS      =       0.00000000 Ry
      -> total E_H with PAW    =     654.12078785 Ry
      -> total E_XC with PAW   =    -239.47140165 Ry

     convergence has been achieved in  13 iterations

     Writing all to output data dir bands_nm/myprefix.save/

     General routines

     Parallel routines

     PAW routines

   This run was terminated on:   1:36: 8  17Jul2023

   JOB DONE.