     Program PWSCF v.7.1 starts on  9Jul2023 at 18:15: 8

     Reading input from espresso_20060.pwi
Warning: card &CELL ignored
Warning: card / ignored

     Current dimensions of program PWSCF are:
     Max number of different atomic species (ntypx) = 10
     Max number of k-points (npk) =  40000
     Max angular momentum in pseudopotentials (lmaxx) =  4
     file Fe.pbe-spn-kjpaw_psl.0.2.1.UPF: wavefunction(s)  3D renormalized
     file O.pbe-n-kjpaw_psl.0.1.UPF: wavefunction(s)  2P renormalized

     K-points division:     npool     =       2
     R & G space division:  proc/nbgrp/npool/nimage =       4
     Subspace diagonalization in iterative solution of the eigenvalue problem:
     a serial algorithm will be used

     Using Slab Decomposition

     bravais-lattice index     =            0
     lattice parameter (alat)  =       8.1429  a.u.
     unit-cell volume          =    1042.9036 (a.u.)^3
     number of atoms/cell      =           16
     number of atomic types    =            4
     number of electrons       =       116.00
     number of Kohn-Sham states=           64
     kinetic-energy cutoff     =      30.0000  Ry
     charge density cutoff     =     240.0000  Ry
     scf convergence threshold =      1.0E-06
     mixing beta               =       0.7000
     number of iterations used =            8  plain     mixing
     Exchange-correlation= SLA  PW   PBX  PBC
                           (   1   4   3   4   0   0   0)

     celldm(1)=   8.142919  celldm(2)=   0.000000  celldm(3)=   0.000000
     celldm(4)=   0.000000  celldm(5)=   0.000000  celldm(6)=   0.000000

     crystal axes: (cart. coord. in units of alat)
               a(1) = (   1.000000   0.000000   0.000000 )
               a(2) = (   0.500569   1.738976   0.000000 )
               a(3) = (   0.504044  -0.245823   1.110735 )

     reciprocal axes: (cart. coord. in units 2 pi/alat)
               b(1) = (  1.000000 -0.287853 -0.517500 )
               b(2) = (  0.000000  0.575051  0.127268 )
               b(3) = (  0.000000  0.000000  0.900305 )

     PseudoPot. # 1 for Li read from file:
     /home/pragov/projects/rrg-bengioy-ad/pragov/crystal_structure_design/SSSP/li_pbe_v1.4.uspp.F.UPF
     MD5 check sum: e912e257baa3777c20ea3d68f190483c
     Pseudo is Ultrasoft, Zval =  3.0
     Generated by new atomic code, or converted to UPF format
     Using radial grid of  751 points,  5 beta functions with:
                l(1) =   0
                l(2) =   0
                l(3) =   0
                l(4) =   1
                l(5) =   1
     Q(r) pseudized with 10 coefficients,  rinner =    1.150   1.150   1.150

     PseudoPot. # 2 for Ti read from file:
     /home/pragov/projects/rrg-bengioy-ad/pragov/crystal_structure_design/SSSP/ti_pbe_v1.4.uspp.F.UPF
     MD5 check sum: 88a00a6731bd790ddea75d31a80cb452
     Pseudo is Ultrasoft + core correction, Zval = 12.0
     Generated by new atomic code, or converted to UPF format
     Using radial grid of  851 points,  6 beta functions with:
                l(1) =   0
                l(2) =   0
                l(3) =   1
                l(4) =   1
                l(5) =   2
                l(6) =   2
     Q(r) pseudized with  6 coefficients,  rinner =    1.000   1.000   1.000
                                                       1.000   1.000

     PseudoPot. # 3 for Fe read from file:
     /home/pragov/projects/rrg-bengioy-ad/pragov/crystal_structure_design/SSSP/Fe.pbe-spn-kjpaw_psl.0.2.1.UPF
     MD5 check sum: e86618425769142926afa95317d90200
     Pseudo is Projector augmented-wave + core cor, Zval = 16.0
     Generated using "atomic" code by A. Dal Corso  v.5.0.99 svn rev. 10869
     Shape of augmentation charge: PSQ
     Using radial grid of 1191 points,  6 beta functions with:
                l(1) =   0
                l(2) =   0
                l(3) =   1
                l(4) =   1
                l(5) =   2
                l(6) =   2
     Q(r) pseudized with 0 coefficients

     PseudoPot. # 4 for O  read from file:
     /home/pragov/projects/rrg-bengioy-ad/pragov/crystal_structure_design/SSSP/O.pbe-n-kjpaw_psl.0.1.UPF
     MD5 check sum: 0234752ac141de4415c5fc33072bef88
     Pseudo is Projector augmented-wave + core cor, Zval =  6.0
     Generated using "atomic" code by A. Dal Corso  v.5.0.99 svn rev. 10869
     Shape of augmentation charge: BESSEL
     Using radial grid of 1095 points,  4 beta functions with:
                l(1) =   0
                l(2) =   0
                l(3) =   1
                l(4) =   1
     Q(r) pseudized with 0 coefficients

     atomic species   valence    mass     pseudopotential
        Li             3.00     6.94000     Li( 1.00)
        Ti            12.00    47.86700     Ti( 1.00)
        Fe            16.00    55.84500     Fe( 1.00)
        O              6.00    15.99900     O ( 1.00)

     No symmetry found

                                    s                        frac. trans.

      isym =  1     identity

 cryst.   s( 1) = (     1          0          0      )
                  (     0          1          0      )
                  (     0          0          1      )

 cart.    s( 1) = (  1.0000000  0.0000000  0.0000000 )
                  (  0.0000000  1.0000000  0.0000000 )
                  (  0.0000000  0.0000000  1.0000000 )

   Cartesian axes

     site n.     atom                  positions (alat units)
         1           Li  tau(   1) = (   0.9971314   0.0645306   0.6910036  )
         2           Li  tau(   2) = (   0.4955304   1.0569691   0.1355541  )
         3           Li  tau(   3) = (   1.5194541   1.6953371   0.0617702  )
         4           Li  tau(   4) = (   1.0212190   0.7033612   0.6172830  )
         5           Ti  tau(   5) = (   0.5479913   0.3961364   0.2672261  )
         6           Ti  tau(   6) = (   1.5507397   1.1425975   0.8227911  )
         7           Fe  tau(   7) = (   0.9951366   1.4246771   0.4195378  )
         8           Fe  tau(   8) = (   1.4966504   0.4321461   0.9748085  )
         9           O   tau(   9) = (   0.9921872   0.4037045   1.0108063  )
        10           O   tau(  10) = (   1.4904614   1.3962842   0.4553868  )
        11           O   tau(  11) = (   0.4865710   0.1138245   0.6204397  )
        12           O   tau(  12) = (   0.9846151   1.1063330   0.0648625  )
        13           O   tau(  13) = (   0.9765071   0.3786898   0.2712781  )
        14           O   tau(  14) = (   0.9792220   1.1250046   0.8268520  )
        15           O   tau(  15) = (   1.0025376  -0.2434750   1.1008791  )
        16           O   tau(  16) = (   0.5009476   0.7491000   0.5454018  )

   Crystallographic axes

     site n.     atom                  positions (cryst. coord.)
         1           Li  tau(   1) = (  0.6209620  0.1250510  0.6221140  )
         2           Li  tau(   2) = (  0.1211300  0.6250630  0.1220400  )
         3           Li  tau(   3) = (  0.9994810  0.9827670  0.0556120  )
         4           Li  tau(   4) = (  0.4993110  0.4830290  0.5557430  )
         5           Ti  tau(   5) = (  0.2956730  0.2618080  0.2405850  )
         6           Ti  tau(   6) = (  0.7960460  0.7617670  0.7407630  )
         7           Fe  tau(   7) = (  0.3679290  0.8726560  0.3777120  )
         8           Fe  tau(   8) = (  0.8677930  0.3725680  0.8776250  )
         9           O   tau(   9) = (  0.3528880  0.3607940  0.9100340  )
        10           O   tau(  10) = (  0.8528750  0.8608910  0.4099870  )
        11           O   tau(  11) = (  0.1327290  0.1444170  0.5585850  )
        12           O   tau(  12) = (  0.6325880  0.6444530  0.0583960  )
        13           O   tau(  13) = (  0.7271140  0.2522910  0.2442330  )
        14           O   tau(  14) = (  0.2274910  0.7521670  0.7444190  )
        15           O   tau(  15) = (  0.5029180  0.0000960  0.9911270  )
        16           O   tau(  16) = (  0.0030720  0.5001830  0.4910280  )

     number of k points=    14
                       cart. coord. in units 2pi/alat
        k(    1) = (   0.0000000   0.0000000   0.0000000), wk =   0.0740741
        k(    2) = (   0.0000000   0.0000000   0.3001017), wk =   0.1481481
        k(    3) = (   0.0000000   0.1916837   0.0424226), wk =   0.1481481
        k(    4) = (   0.0000000   0.1916837   0.3425243), wk =   0.1481481
        k(    5) = (   0.0000000   0.1916837  -0.2576790), wk =   0.1481481
        k(    6) = (   0.3333333  -0.0959508  -0.1724999), wk =   0.1481481
        k(    7) = (   0.3333333  -0.0959508   0.1276018), wk =   0.1481481
        k(    8) = (   0.3333333  -0.0959508  -0.4726015), wk =   0.1481481
        k(    9) = (   0.3333333   0.0957329  -0.1300772), wk =   0.1481481
        k(   10) = (   0.3333333   0.0957329   0.1700245), wk =   0.1481481
        k(   11) = (   0.3333333   0.0957329  -0.4301789), wk =   0.1481481
        k(   12) = (   0.3333333  -0.2876346  -0.2149225), wk =   0.1481481
        k(   13) = (   0.3333333  -0.2876346   0.0851792), wk =   0.1481481
        k(   14) = (   0.3333333  -0.2876346  -0.5150242), wk =   0.1481481

                       cryst. coord.
        k(    1) = (   0.0000000   0.0000000   0.0000000), wk =   0.0740741
        k(    2) = (   0.0000000   0.0000000   0.3333333), wk =   0.1481481
        k(    3) = (   0.0000000   0.3333333   0.0000000), wk =   0.1481481
        k(    4) = (   0.0000000   0.3333333   0.3333333), wk =   0.1481481
        k(    5) = (   0.0000000   0.3333333  -0.3333333), wk =   0.1481481
        k(    6) = (   0.3333333   0.0000000   0.0000000), wk =   0.1481481
        k(    7) = (   0.3333333   0.0000000   0.3333333), wk =   0.1481481
        k(    8) = (   0.3333333   0.0000000  -0.3333333), wk =   0.1481481
        k(    9) = (   0.3333333   0.3333333   0.0000000), wk =   0.1481481
        k(   10) = (   0.3333333   0.3333333   0.3333333), wk =   0.1481481
        k(   11) = (   0.3333333   0.3333333  -0.3333333), wk =   0.1481481
        k(   12) = (   0.3333333  -0.3333333   0.0000000), wk =   0.1481481
        k(   13) = (   0.3333333  -0.3333333   0.3333333), wk =   0.1481481
        k(   14) = (   0.3333333  -0.3333333  -0.3333333), wk =   0.1481481

     Check: negative core charge=   -0.000095

     Initial potential from superposition of free atoms

     starting charge     112.1961, renormalised to     116.0000

     negative rho (up, down):  2.583E-03 0.000E+00
     Starting wfcs are   98 randomized atomic wfcs
     Checking if some PAW data can be deallocated...

     Self-consistent Calculation

     iteration #  1     ecut=    30.00 Ry     beta= 0.70
     Davidson diagonalization with overlap

     ethr =  1.00E-02,  avg # of iterations =  2.0

     negative rho (up, down):  1.481E-03 0.000E+00

     total energy              =   -1233.43075624 Ry
     estimated scf accuracy    <      68.40868497 Ry

[...]

     total energy              =   -1288.47891413 Ry
     estimated scf accuracy    <       0.00000172 Ry

     iteration # 38     ecut=    30.00 Ry     beta= 0.70
     Davidson diagonalization with overlap

     ethr =  1.48E-09,  avg # of iterations =  2.4

     negative rho (up, down):  2.259E-03 0.000E+00

     End of self-consistent calculation

          k = 0.0000 0.0000 0.0000 (  2893 PWs)   bands (ev):

   -77.3848 -77.3800 -48.7709 -48.7687 -43.1066 -43.0929 -43.0348 -43.0190
   -42.8640 -42.8492 -35.8886 -35.8861 -35.4022 -35.4002 -25.1232 -25.1169
   -25.1044 -25.0614 -24.9904 -24.9880  -9.9235  -9.4895  -9.1034  -9.0351
    -9.0115  -8.9025  -8.4796  -8.4072   3.2952   3.4099   3.9497   4.2963
     4.3033   4.3095   4.4126   4.4156   4.7582   4.7846   4.8374   4.8451
     4.8670   5.2226   5.2354   5.5229   5.6441   6.0192   6.0469   6.2846
     6.7087   6.7192   6.8079   6.8764   8.4778   8.5448   8.6850   9.1164
     9.2823   9.3178   9.8956   9.9160  10.3429  10.3501  10.7264  10.9306

     occupation numbers
     1.0000   1.0000   1.0000   1.0000   1.0000   1.0000   1.0000   1.0000
     1.0000   1.0000   1.0000   1.0000   1.0000   1.0000   1.0000   1.0000
     1.0000   1.0000   1.0000   1.0000   1.0000   1.0000   1.0000   1.0000
     1.0000   1.0000   1.0000   1.0000   1.0000   1.0000   1.0000   1.0000
     1.0000   1.0000   1.0000   1.0000   1.0000   1.0000   1.0000   1.0000
     1.0000   1.0000   1.0000   1.0000   1.0000   1.0000   1.0000   1.0000
     1.0000   1.0000   1.0000   1.0000   1.0000   1.0000   1.0000   1.0000
     1.0000   1.0000   0.0000   0.0000   0.0000   0.0000   0.0000   0.0000

[...]

          k = 0.3333-0.2876-0.5150 (  2899 PWs)   bands (ev):

   -77.3829 -77.3815 -48.7707 -48.7686 -43.0973 -43.0908 -43.0459 -43.0239
   -42.8606 -42.8491 -35.8880 -35.8860 -35.4020 -35.4003 -25.1339 -25.1315
   -25.1094 -25.0614 -24.9909 -24.9879  -9.5087  -9.2473  -9.1362  -8.9980
    -8.9073  -8.8983  -8.7193  -8.5017   3.0574   3.3392   3.5420   3.6125
     3.7231   3.7627   4.1319   4.2355   4.2699   4.4909   4.9464   4.9473
     4.9911   5.1007   5.1211   5.3469   5.7810   5.8763   6.1790   6.2394
     6.3352   6.5980   6.7059   6.9726   8.7488   8.7504   8.8742   9.0966
     9.2250   9.5255  10.4352  10.4860  10.7231  10.7517  10.8422  11.1019

     occupation numbers
     1.0000   1.0000   1.0000   1.0000   1.0000   1.0000   1.0000   1.0000
     1.0000   1.0000   1.0000   1.0000   1.0000   1.0000   1.0000   1.0000
     1.0000   1.0000   1.0000   1.0000   1.0000   1.0000   1.0000   1.0000
     1.0000   1.0000   1.0000   1.0000   1.0000   1.0000   1.0000   1.0000
     1.0000   1.0000   1.0000   1.0000   1.0000   1.0000   1.0000   1.0000
     1.0000   1.0000   1.0000   1.0000   1.0000   1.0000   1.0000   1.0000
     1.0000   1.0000   1.0000   1.0000   1.0000   1.0000   1.0000   1.0000
     1.0000   1.0000   0.0000   0.0000   0.0000   0.0000   0.0000   0.0000

     highest occupied, lowest unoccupied level (ev):     9.5255    9.8621

!    total energy              =   -1288.47891376 Ry
     estimated scf accuracy    <       0.00000053 Ry

     The total energy is the sum of the following terms:
     one-electron contribution =    -532.45627555 Ry
     hartree contribution      =     317.80883639 Ry
     xc contribution           =    -178.97705764 Ry
     ewald contribution        =    -666.55048528 Ry
     one-center paw contrib.   =    -228.30393168 Ry
      -> PAW hartree energy AE =       0.00000000 Ry
      -> PAW hartree energy PS =       0.00000000 Ry
      -> PAW xc energy AE      =       0.00000000 Ry
      -> PAW xc energy PS      =       0.00000000 Ry
      -> total E_H with PAW    =     317.80883639 Ry
      -> total E_XC with PAW   =    -178.97705764 Ry

     convergence has been achieved in  38 iterations

     Writing all to output data dir bands_nm/myprefix.save/

     General routines

     Parallel routines

     PAW routines

   This run was terminated on:  18:15:58   9Jul2023

   JOB DONE.