     Program PWSCF v.7.0 starts on  4Jun2023 at 20:26:42

     K-points division:     npool     =       2
     R & G space division:  proc/nbgrp/npool/nimage =       4

     Reading input from espresso_5187.pwi
Warning: card &CELL ignored
Warning: card / ignored

     Current dimensions of program PWSCF are:
     Max number of different atomic species (ntypx) = 10
     Max number of k-points (npk) =  40000
     Max angular momentum in pseudopotentials (lmaxx) =  4
     file O.pbe-n-kjpaw_psl.0.1.UPF: wavefunction(s)  2P renormalized
     Message from routine setup:
     using ibrav=0 with symmetry is DISCOURAGED, use correct ibrav instead

     Using Slab Decomposition

     bravais-lattice index     =            0
     lattice parameter (alat)  =      15.9590  a.u.
     unit-cell volume          =    1491.3172 (a.u.)^3
     number of atoms/cell      =           18
     number of atomic types    =            4
     number of electrons       =       108.00
     number of Kohn-Sham states=           64
     kinetic-energy cutoff     =      30.0000  Ry
     charge density cutoff     =     240.0000  Ry
     scf convergence threshold =      1.0E-06
     mixing beta               =       0.7000
     number of iterations used =            8  plain     mixing
     Exchange-correlation= SLA  PW   PBX  PBC
                           (   1   4   3   4   0   0   0)

     celldm(1)=  15.958953  celldm(2)=   0.000000  celldm(3)=   0.000000
     celldm(4)=   0.000000  celldm(5)=   0.000000  celldm(6)=   0.000000

     crystal axes: (cart. coord. in units of alat)
               a(1) = (   1.000000   0.000000   0.000000 )
               a(2) = (   0.000000   0.594025   0.000000 )
               a(3) = (   0.000000   0.008223   0.617664 )

     reciprocal axes: (cart. coord. in units 2 pi/alat)
               b(1) = (  1.000000  0.000000  0.000000 )
               b(2) = (  0.000000  1.683431 -0.022412 )
               b(3) = (  0.000000  0.000000  1.619003 )

     PseudoPot. # 1 for Li read from file:
     /home/pragov/projects/rrg-bengioy-ad/pragov/crystal_structure_design/SSSP/li_pbe_v1.4.uspp.F.UPF
     MD5 check sum: e912e257baa3777c20ea3d68f190483c
     Pseudo is Ultrasoft, Zval =  3.0
     Generated by new atomic code, or converted to UPF format
     Using radial grid of  751 points,  5 beta functions with:
                l(1) =   0
                l(2) =   0
                l(3) =   0
                l(4) =   1
                l(5) =   1
     Q(r) pseudized with 10 coefficients,  rinner =    1.150   1.150   1.150

     PseudoPot. # 2 for Ti read from file:
     /home/pragov/projects/rrg-bengioy-ad/pragov/crystal_structure_design/SSSP/ti_pbe_v1.4.uspp.F.UPF
     MD5 check sum: 88a00a6731bd790ddea75d31a80cb452
     Pseudo is Ultrasoft + core correction, Zval = 12.0
     Generated by new atomic code, or converted to UPF format
     Using radial grid of  851 points,  6 beta functions with:
                l(1) =   0
                l(2) =   0
                l(3) =   1
                l(4) =   1
                l(5) =   2
                l(6) =   2
     Q(r) pseudized with  6 coefficients,  rinner =    1.000   1.000   1.000
                                                       1.000   1.000

     PseudoPot. # 3 for Te read from file:
     /home/pragov/projects/rrg-bengioy-ad/pragov/crystal_structure_design/SSSP/Te_pbe_v1.uspp.F.UPF
     MD5 check sum: c319670d6894cc26e93307826a071b75
     Pseudo is Ultrasoft + core correction, Zval =  6.0
     Generated by new atomic code, or converted to UPF format
     Using radial grid of  891 points,  5 beta functions with:
                l(1) =   0
                l(2) =   0
                l(3) =   1
                l(4) =   1
                l(5) =   2
     Q(r) pseudized with  6 coefficients,  rinner =    1.800   1.800   1.800
                                                       1.800   1.800

     PseudoPot. # 4 for O  read from file:
     /home/pragov/projects/rrg-bengioy-ad/pragov/crystal_structure_design/SSSP/O.pbe-n-kjpaw_psl.0.1.UPF
     MD5 check sum: 0234752ac141de4415c5fc33072bef88
     Pseudo is Projector augmented-wave + core cor, Zval =  6.0
     Generated using "atomic" code by A. Dal Corso  v.5.0.99 svn rev. 10869
     Shape of augmentation charge: BESSEL
     Using radial grid of 1095 points,  4 beta functions with:
                l(1) =   0
                l(2) =   0
                l(3) =   1
                l(4) =   1
     Q(r) pseudized with 0 coefficients

     atomic species   valence    mass     pseudopotential
        Li             3.00     6.94000     Li( 1.00)
        Ti            12.00    47.86700     Ti( 1.00)
        Te             6.00   127.60000     Te( 1.00)
        O              6.00    15.99900     O ( 1.00)

      2 Sym. Ops. (no inversion) found

                                    s                        frac. trans.

      isym =  1     identity

 cryst.   s( 1) = (     1          0          0      )
                  (     0          1          0      )
                  (     0          0          1      )

 cart.    s( 1) = (  1.0000000  0.0000000  0.0000000 )
                  (  0.0000000  1.0000000 -0.0000000 )
                  (  0.0000000  0.0000000  1.0000000 )

      isym =  2     180 deg rotation - cart. axis [1,0,0]

 cryst.   s( 2) = (     1          0          0      )
                  (     0         -1          0      )
                  (     0          0         -1      )

 cart.    s( 2) = (  1.0000000  0.0000000  0.0000000 )
                  (  0.0000000 -1.0000000  0.0000000 )
                  (  0.0000000  0.0000000 -1.0000000 )

   Cartesian axes

     site n.     atom                  positions (alat units)
         1           Li  tau(   1) = (   0.6965040   0.0041115   0.3088319  )
         2           Li  tau(   2) = (   0.8167300   0.3011239   0.3088319  )
         3           Ti  tau(   3) = (   0.9066750   0.0000000   0.0000000  )
         4           Te  tau(   4) = (   0.5890260   0.2970125   0.0000000  )
         5           Te  tau(   5) = (   0.0798540   0.0041115   0.3088319  )
         6           Te  tau(   6) = (   0.3896590   0.3011239   0.3088319  )
         7           O   tau(   7) = (   0.7412620   0.1612151   0.5321156  )
         8           O   tau(   8) = (   0.4188680   0.1828156   0.5054739  )
         9           O   tau(   9) = (   0.0666670   0.1228229   0.4997389  )
        10           O   tau(  10) = (   0.5690410   0.4255562   0.4149003  )
        11           O   tau(  11) = (   0.9085300   0.4794786   0.4152412  )
        12           O   tau(  12) = (   0.2430190   0.4520452   0.3963982  )
        13           O   tau(  13) = (   0.2430190   0.1502027   0.2212657  )
        14           O   tau(  14) = (   0.9085300   0.1227693   0.2024227  )
        15           O   tau(  15) = (   0.5690410   0.1766917   0.2027636  )
        16           O   tau(  16) = (   0.0666670   0.4794250   0.1179250  )
        17           O   tau(  17) = (   0.4188680   0.4194323   0.1121900  )
        18           O   tau(  18) = (   0.7412620   0.4410328   0.0855483  )

   Crystallographic axes

     site n.     atom                  positions (cryst. coord.)
         1           Li  tau(   1) = (  0.6965040 -0.0000000  0.5000000  )
         2           Li  tau(   2) = (  0.8167300  0.5000000  0.5000000  )
         3           Ti  tau(   3) = (  0.9066750  0.0000000  0.0000000  )
         4           Te  tau(   4) = (  0.5890260  0.5000000  0.0000000  )
         5           Te  tau(   5) = (  0.0798540 -0.0000000  0.5000000  )
         6           Te  tau(   6) = (  0.3896590  0.5000000  0.5000000  )
         7           O   tau(   7) = (  0.7412620  0.2594690  0.8614970  )
         8           O   tau(   8) = (  0.4188680  0.2964290  0.8183640  )
         9           O   tau(   9) = (  0.0666670  0.1955640  0.8090790  )
        10           O   tau(  10) = (  0.5690410  0.7070960  0.6717250  )
        11           O   tau(  11) = (  0.9085300  0.7978630  0.6722770  )
        12           O   tau(  12) = (  0.2430190  0.7521030  0.6417700  )
        13           O   tau(  13) = (  0.2430190  0.2478970  0.3582300  )
        14           O   tau(  14) = (  0.9085300  0.2021370  0.3277230  )
        15           O   tau(  15) = (  0.5690410  0.2929040  0.3282750  )
        16           O   tau(  16) = (  0.0666670  0.8044360  0.1909210  )
        17           O   tau(  17) = (  0.4188680  0.7035710  0.1816360  )
        18           O   tau(  18) = (  0.7412620  0.7405310  0.1385030  )

     number of k points=    10
                       cart. coord. in units 2pi/alat
        k(    1) = (   0.0000000   0.0000000   0.0000000), wk =   0.0740741
        k(    2) = (   0.0000000   0.0000000   0.5396678), wk =   0.1481481
        k(    3) = (   0.0000000   0.5611437  -0.0074705), wk =   0.1481481
        k(    4) = (   0.0000000   0.5611437   0.5321973), wk =   0.1481481
        k(    5) = (   0.0000000   0.5611437  -0.5471384), wk =   0.1481481
        k(    6) = (   0.3333333   0.0000000   0.0000000), wk =   0.1481481
        k(    7) = (   0.3333333   0.0000000   0.5396678), wk =   0.2962963
        k(    8) = (   0.3333333   0.5611437  -0.0074705), wk =   0.2962963
        k(    9) = (   0.3333333   0.5611437   0.5321973), wk =   0.2962963
        k(   10) = (   0.3333333   0.5611437  -0.5471384), wk =   0.2962963

                       cryst. coord.
        k(    1) = (   0.0000000   0.0000000   0.0000000), wk =   0.0740741
        k(    2) = (   0.0000000   0.0000000   0.3333333), wk =   0.1481481
        k(    3) = (   0.0000000   0.3333333   0.0000000), wk =   0.1481481
        k(    4) = (   0.0000000   0.3333333   0.3333333), wk =   0.1481481
        k(    5) = (   0.0000000   0.3333333  -0.3333333), wk =   0.1481481
        k(    6) = (   0.3333333   0.0000000   0.0000000), wk =   0.1481481
        k(    7) = (   0.3333333   0.0000000   0.3333333), wk =   0.2962963
        k(    8) = (   0.3333333   0.3333333   0.0000000), wk =   0.2962963
        k(    9) = (   0.3333333   0.3333333   0.3333333), wk =   0.2962963
        k(   10) = (   0.3333333   0.3333333  -0.3333333), wk =   0.2962963

     Check: negative core charge=   -0.000009

     Initial potential from superposition of free atoms

     starting charge     106.0978, renormalised to     108.0000

     negative rho (up, down):  2.032E-03 0.000E+00
     Starting wfcs are   80 randomized atomic wfcs
     Checking if some PAW data can be deallocated...

     Self-consistent Calculation

     iteration #  1     ecut=    30.00 Ry     beta= 0.70
     Davidson diagonalization with overlap

     ethr =  1.00E-02,  avg # of iterations =  2.0

     total energy              =    -699.46526034 Ry
     estimated scf accuracy    <      33.67218521 Ry

[...]

     negative rho (up, down):  1.356E-03 0.000E+00

[...]

     total energy              =    -726.86314146 Ry
     estimated scf accuracy    <       0.00000120 Ry

     iteration # 16     ecut=    30.00 Ry     beta= 0.70
     Davidson diagonalization with overlap

     ethr =  1.11E-09,  avg # of iterations =  4.7

     negative rho (up, down):  1.875E-03 0.000E+00

     End of self-consistent calculation

          k = 0.0000 0.0000 0.0000 (  4141 PWs)   bands (ev):

   -51.4108 -38.1983 -37.8722 -27.7060 -27.6777 -27.6385 -15.8155 -14.4943
   -13.5173 -13.4944 -13.0157 -12.5654 -12.5425 -12.2982 -12.2142 -11.9666
   -11.5040 -11.4815  -6.9311  -4.6912  -3.2176  -1.6300  -1.3788  -0.8750
    -0.7838  -0.5889   0.0431   0.3997   1.0558   1.2020   1.4306   1.7998
     1.9963   2.1387   2.2070   2.4395   2.4941   2.7631   3.0097   3.2347
     3.2790   3.3490   3.4171   3.5292   3.7093   3.7365   3.8089   3.9793
     4.0531   4.0650   4.4083   4.5219   4.5942   4.9646   6.4326   7.6357
     8.3960   8.4311   8.6195   9.5467  10.3878  10.8517  10.8543  11.6462

     occupation numbers
     1.0000   1.0000   1.0000   1.0000   1.0000   1.0000   1.0000   1.0000
     1.0000   1.0000   1.0000   1.0000   1.0000   1.0000   1.0000   1.0000
     1.0000   1.0000   1.0000   1.0000   1.0000   1.0000   1.0000   1.0000
     1.0000   1.0000   1.0000   1.0000   1.0000   1.0000   1.0000   1.0000
     1.0000   1.0000   1.0000   1.0000   1.0000   1.0000   1.0000   1.0000
     1.0000   1.0000   1.0000   1.0000   1.0000   1.0000   1.0000   1.0000
     1.0000   1.0000   1.0000   1.0000   1.0000   1.0000   0.0000   0.0000
     0.0000   0.0000   0.0000   0.0000   0.0000   0.0000   0.0000   0.0000

[...]

          k = 0.3333 0.5611-0.5471 (  4126 PWs)   bands (ev):

   -51.4107 -38.1977 -37.8724 -27.7083 -27.6773 -27.6388 -15.3710 -14.5454
   -14.1642 -13.2089 -12.9490 -12.7881 -12.5953 -12.3448 -12.2662 -11.9647
   -11.6688 -11.4196  -5.9197  -4.8682  -3.9727  -1.6332  -1.0885  -0.9253
    -0.6097  -0.3672   0.1235   0.3827   0.8456   1.0048   1.5737   1.7734
     2.0344   2.2114   2.3682   2.4607   2.6956   2.8489   2.9564   3.0433
     3.2321   3.3618   3.4313   3.5806   3.6469   3.7901   3.8398   3.9384
     3.9763   4.1611   4.2486   4.3919   4.5630   4.7671   7.3632   7.6491
     8.0964   8.4790   8.5693   9.1934  10.5717  10.8020  11.1044  11.6358

     occupation numbers
     1.0000   1.0000   1.0000   1.0000   1.0000   1.0000   1.0000   1.0000
     1.0000   1.0000   1.0000   1.0000   1.0000   1.0000   1.0000   1.0000
     1.0000   1.0000   1.0000   1.0000   1.0000   1.0000   1.0000   1.0000
     1.0000   1.0000   1.0000   1.0000   1.0000   1.0000   1.0000   1.0000
     1.0000   1.0000   1.0000   1.0000   1.0000   1.0000   1.0000   1.0000
     1.0000   1.0000   1.0000   1.0000   1.0000   1.0000   1.0000   1.0000
     1.0000   1.0000   1.0000   1.0000   1.0000   1.0000   0.0000   0.0000
     0.0000   0.0000   0.0000   0.0000   0.0000   0.0000   0.0000   0.0000

     highest occupied, lowest unoccupied level (ev):     4.9646    6.4326

!    total energy              =    -726.86314172 Ry
     estimated scf accuracy    <       0.00000015 Ry

     The total energy is the sum of the following terms:
     one-electron contribution =    -253.00437038 Ry
     hartree contribution      =     183.32272877 Ry
     xc contribution           =    -157.78775644 Ry
     ewald contribution        =    -385.02964013 Ry
     one-center paw contrib.   =    -114.36410355 Ry
      -> PAW hartree energy AE =       0.00000000 Ry
      -> PAW hartree energy PS =       0.00000000 Ry
      -> PAW xc energy AE      =       0.00000000 Ry
      -> PAW xc energy PS      =       0.00000000 Ry
      -> total E_H with PAW    =     183.32272877 Ry
      -> total E_XC with PAW   =    -157.78775644 Ry

     convergence has been achieved in  16 iterations

     Writing all to output data dir calculations_bands/myprefix.save/

     General routines

     Parallel routines

     PAW routines

   This run was terminated on:  20:28:58   4Jun2023

   JOB DONE.