     Program PWSCF v.7.1 starts on 15Jul2023 at 17:30:58

     Reading input from espresso_22590.pwi
Warning: card &CELL ignored
Warning: card / ignored

     Current dimensions of program PWSCF are:
     Max number of different atomic species (ntypx) = 10
     Max number of k-points (npk) =  40000
     Max angular momentum in pseudopotentials (lmaxx) =  4
     Message from routine setup:
     using ibrav=0 with symmetry is DISCOURAGED, use correct ibrav instead

     K-points division:     npool     =       2
     R & G space division:  proc/nbgrp/npool/nimage =       4
     Subspace diagonalization in iterative solution of the eigenvalue problem:
     one sub-group per band group will be used

     Using Slab Decomposition

     bravais-lattice index     =            0
     lattice parameter (alat)  =      11.6222  a.u.
     unit-cell volume          =    2342.3581 (a.u.)^3
     number of atoms/cell      =           18
     number of atomic types    =            3
     number of electrons       =       146.00
     number of Kohn-Sham states=          256
     kinetic-energy cutoff     =      30.0000  Ry
     charge density cutoff     =     240.0000  Ry
     scf convergence threshold =      1.0E-06
     mixing beta               =       0.7000
     number of iterations used =            8  plain     mixing
     Exchange-correlation= PBE
                           (   1   4   3   4   0   0   0)

     celldm(1)=  11.622224  celldm(2)=   0.000000  celldm(3)=   0.000000
     celldm(4)=   0.000000  celldm(5)=   0.000000  celldm(6)=   0.000000

     crystal axes: (cart. coord. in units of alat)
               a(1) = (   1.000000   0.000000   0.000000 )
               a(2) = (   0.251967   1.010124   0.000000 )
               a(3) = (   0.319112   0.240303   1.477103 )

     reciprocal axes: (cart. coord. in units 2 pi/alat)
               b(1) = (  1.000000 -0.249442 -0.175458 )
               b(2) = (  0.000000  0.989977 -0.161055 )
               b(3) = (  0.000000  0.000000  0.677001 )

     PseudoPot. # 1 for Sr read from file:
     /lustre07/scratch/pragov/crystal_structure_design/utils/SSSP/Sr_pbe_v1.uspp.F.UPF
     MD5 check sum: 6b418c05fbe9db5448babca5e47b7a5b
     Pseudo is Ultrasoft + core correction, Zval = 10.0
     Generated by new atomic code, or converted to UPF format
     Using radial grid of  883 points,  6 beta functions with:
                l(1) =   0
                l(2) =   0
                l(3) =   1
                l(4) =   1
                l(5) =   2
                l(6) =   2
     Q(r) pseudized with  6 coefficients,  rinner =    1.400   1.400   1.400
                                                       1.400   1.400

     PseudoPot. # 2 for V  read from file:
     /lustre07/scratch/pragov/crystal_structure_design/utils/SSSP/v_pbe_v1.4.uspp.F.UPF
     MD5 check sum: 22b79981416ebb76fdaf5b1b8640f6fb
     Pseudo is Ultrasoft + core correction, Zval = 13.0
     Generated by new atomic code, or converted to UPF format
     Using radial grid of  853 points,  6 beta functions with:
                l(1) =   0
                l(2) =   0
                l(3) =   1
                l(4) =   1
                l(5) =   2
                l(6) =   2
     Q(r) pseudized with  8 coefficients,  rinner =    1.100   1.100   1.100
                                                       1.100   1.100

     PseudoPot. # 3 for N  read from file:
     /lustre07/scratch/pragov/crystal_structure_design/utils/SSSP/N.pbe-n-radius_5.UPF
     MD5 check sum: 16739722b17309cd8fe442a2ace49922
     Pseudo is Ultrasoft + core correction, Zval =  5.0
     Generated using "atomic" code by A. Dal Corso  v.5.1
     Using radial grid of 1085 points,  4 beta functions with:
                l(1) =   0
                l(2) =   0
                l(3) =   1
                l(4) =   1
     Q(r) pseudized with 0 coefficients

     atomic species   valence    mass     pseudopotential
        Sr            10.00    87.62000     Sr( 1.00)
        V             13.00    50.94150     V ( 1.00)
        N              5.00    14.00700     N ( 1.00)

      2 Sym. Ops., with inversion, found

                                    s                        frac. trans.

      isym =  1     identity

 cryst.   s( 1) = (     1          0          0      )
                  (     0          1          0      )
                  (     0          0          1      )

 cart.    s( 1) = (  1.0000000  0.0000000  0.0000000 )
                  (  0.0000000  1.0000000  0.0000000 )
                  (  0.0000000  0.0000000  1.0000000 )

      isym =  2     inversion

 cryst.   s( 2) = (    -1          0          0      )
                  (     0         -1          0      )
                  (     0          0         -1      )

 cart.    s( 2) = ( -1.0000000 -0.0000000 -0.0000000 )
                  (  0.0000000 -1.0000000 -0.0000000 )
                  (  0.0000000  0.0000000 -1.0000000 )

   Cartesian axes

     site n.     atom                  positions (alat units)
         1           Sr  tau(   1) = (   0.9503867   0.6225103   0.1930530  )
         2           Sr  tau(   2) = (   0.6206921   0.6279171   1.2840505  )
         3           Sr  tau(   3) = (   1.0680392   0.3998618   1.4642216  )
         4           Sr  tau(   4) = (   0.5030397   0.8505656   0.0128818  )
         5           Sr  tau(   5) = (   1.0640076   0.5545898   0.9075870  )
         6           Sr  tau(   6) = (   0.5070713   0.6958375   0.5695164  )
         7           Sr  tau(   7) = (   0.6809922   1.1056488   0.9226993  )
         8           Sr  tau(   8) = (   0.8900867   0.1447786   0.5544042  )
         9           V   tau(   9) = (   1.2060509   1.0016169   1.1369354  )
        10           V   tau(  10) = (   0.3650280   0.2488105   0.3401681  )
        11           N   tau(  11) = (   1.2846530   0.9153592   0.8617614  )
        12           N   tau(  12) = (   0.2864259   0.3350682   0.6153421  )
        13           N   tau(  13) = (   1.4574194   1.0339181   1.3043843  )
        14           N   tau(  14) = (   0.1136595   0.2165093   0.1727192  )
        15           N   tau(  15) = (   1.0429169   0.7835557   1.2514390  )
        16           N   tau(  16) = (   0.5281620   0.4668716   0.2256645  )
        17           N   tau(  17) = (   0.7749145   1.0004508   0.3228195  )
        18           N   tau(  18) = (   0.7961644   0.2499766   1.1542840  )

   Crystallographic axes

     site n.     atom                  positions (cryst. coord.)
         1           Sr  tau(   1) = (  0.7612340  0.5851790  0.1306970  )
         2           Sr  tau(   2) = (  0.2387660  0.4148210  0.8693030  )
         3           Sr  tau(   3) = (  0.7113870  0.1600340  0.9912790  )
         4           Sr  tau(   4) = (  0.2886130  0.8399660  0.0087210  )
         5           Sr  tau(   5) = (  0.7664260  0.4028600  0.6144370  )
         6           Sr  tau(   6) = (  0.2335740  0.5971400  0.3855630  )
         7           Sr  tau(   7) = (  0.2433020  0.9459620  0.6246680  )
         8           Sr  tau(   8) = (  0.7566980  0.0540380  0.3753320  )
         9           V   tau(   9) = (  0.7567210  0.8084690  0.7697060  )
        10           V   tau(  10) = (  0.2432790  0.1915310  0.2302940  )
        11           N   tau(  11) = (  0.9051210  0.7673940  0.5834130  )
        12           N   tau(  12) = (  0.0948790  0.2326060  0.4165870  )
        13           N   tau(  13) = (  0.9706520  0.8134780  0.8830690  )
        14           N   tau(  14) = (  0.0293480  0.1865220  0.1169310  )
        15           N   tau(  15) = (  0.6278900  0.5741520  0.8472250  )
        16           N   tau(  16) = (  0.3721100  0.4258480  0.1527750  )
        17           N   tau(  17) = (  0.4687190  0.9384320  0.2185490  )
        18           N   tau(  18) = (  0.5312810  0.0615680  0.7814510  )

     number of k points=    14
                       cart. coord. in units 2pi/alat
        k(    1) = (   0.0000000   0.0000000   0.0000000), wk =   0.0740741
        k(    2) = (   0.0000000   0.0000000   0.2256669), wk =   0.1481481
        k(    3) = (   0.0000000   0.3299925  -0.0536850), wk =   0.1481481
        k(    4) = (   0.0000000   0.3299925   0.1719819), wk =   0.1481481
        k(    5) = (   0.0000000   0.3299925  -0.2793519), wk =   0.1481481
        k(    6) = (   0.3333333  -0.0831472  -0.0584862), wk =   0.1481481
        k(    7) = (   0.3333333  -0.0831472   0.1671807), wk =   0.1481481
        k(    8) = (   0.3333333  -0.0831472  -0.2841530), wk =   0.1481481
        k(    9) = (   0.3333333   0.2468453  -0.1121711), wk =   0.1481481
        k(   10) = (   0.3333333   0.2468453   0.1134957), wk =   0.1481481
        k(   11) = (   0.3333333   0.2468453  -0.3378380), wk =   0.1481481
        k(   12) = (   0.3333333  -0.4131397  -0.0048012), wk =   0.1481481
        k(   13) = (   0.3333333  -0.4131397   0.2208657), wk =   0.1481481
        k(   14) = (   0.3333333  -0.4131397  -0.2304680), wk =   0.1481481

                       cryst. coord.
        k(    1) = (   0.0000000   0.0000000   0.0000000), wk =   0.0740741
        k(    2) = (   0.0000000   0.0000000   0.3333333), wk =   0.1481481
        k(    3) = (   0.0000000   0.3333333   0.0000000), wk =   0.1481481
        k(    4) = (   0.0000000   0.3333333   0.3333333), wk =   0.1481481
        k(    5) = (   0.0000000   0.3333333  -0.3333333), wk =   0.1481481
        k(    6) = (   0.3333333   0.0000000   0.0000000), wk =   0.1481481
        k(    7) = (   0.3333333   0.0000000   0.3333333), wk =   0.1481481
        k(    8) = (   0.3333333   0.0000000  -0.3333333), wk =   0.1481481
        k(    9) = (   0.3333333   0.3333333   0.0000000), wk =   0.1481481
        k(   10) = (   0.3333333   0.3333333   0.3333333), wk =   0.1481481
        k(   11) = (   0.3333333   0.3333333  -0.3333333), wk =   0.1481481
        k(   12) = (   0.3333333  -0.3333333  -0.0000000), wk =   0.1481481
        k(   13) = (   0.3333333  -0.3333333   0.3333333), wk =   0.1481481
        k(   14) = (   0.3333333  -0.3333333  -0.3333333), wk =   0.1481481

     Check: negative core charge=   -0.000005

     Initial potential from superposition of free atoms

     starting charge     145.7283, renormalised to     146.0000

     negative rho (up, down):  5.040E-01 0.000E+00
     Starting wfcs are  156 randomized atomic wfcs +  100 random wfcs

     Self-consistent Calculation

     iteration #  1     ecut=    30.00 Ry     beta= 0.70
     Davidson diagonalization with overlap

     ethr =  1.00E-02,  avg # of iterations =  6.2

     negative rho (up, down):  5.136E-01 0.000E+00

     total energy              =   -1008.70860641 Ry
     estimated scf accuracy    <       9.28973291 Ry

[...]

     total energy              =   -1013.89398939 Ry
     estimated scf accuracy    <       0.00000371 Ry

     iteration # 14     ecut=    30.00 Ry     beta= 0.70
     Davidson diagonalization with overlap

     ethr =  2.54E-09,  avg # of iterations =  1.0

     negative rho (up, down):  5.303E-01 0.000E+00

     End of self-consistent calculation

          k = 0.0000 0.0000 0.0000 (  6511 PWs)   bands (ev):

   -55.0858 -55.0858 -29.0057 -29.0051 -28.9882 -28.9882 -28.9428 -28.9423
   -26.0351 -26.0014 -25.9336 -25.9072 -25.4291 -25.3993 -25.0891 -25.0519
    -8.4936  -8.4073  -8.3419  -8.2493  -8.2396  -8.2347  -8.2197  -8.1142
    -8.1032  -7.9961  -7.9486  -7.8786  -7.7342  -7.6695  -7.6304  -7.5453
    -7.5023  -7.4189  -7.3800  -7.2443  -7.2377  -7.1437  -7.1314  -7.0465
    -4.0161  -3.3859  -3.2487  -3.1415  -3.1192  -3.0609  -2.9382  -2.8652
     5.5071   5.5782   5.8744   6.0076   6.0860   6.1228   6.2145   6.3164
     6.3237   6.3239   6.4185   6.5451   6.7401   6.7945   6.8256   7.0585
     7.1775   7.1943   7.4721   7.6893   7.6963   7.9004   7.9055   8.2357
     8.7236   9.9221  10.8216  10.9963  11.0916  11.1486  11.3109  11.4185
    11.6433  11.7209  11.9753  12.1037  12.5293  12.5571  12.6770  12.8123
    12.8179  12.8556  12.9574  13.1211  13.2371  13.2703  13.2961  13.5795
    13.7481  13.9769  14.0385  14.2821  14.3065  14.4495  14.4852  14.7861
    14.8001  14.9971  15.1012  15.2985  15.3746  15.4325  15.8030  15.8244
    16.0118  16.1276  16.1989  16.4581  16.6602  16.8000  16.8864  16.9421
    16.9621  17.1015  17.1990  17.2299  17.5058  17.5294  17.7806  18.1090
    18.4738  18.5148  18.8673  19.1549  19.2881  19.7250  19.7697  19.9578
    20.1070  20.3000  20.6274  20.6721  20.8112  21.1615  21.2434  21.4005
    21.4753  21.6695  21.7866  22.0380  22.2519  22.8699  22.9270  22.9586
    23.0130  23.3200  23.4312  23.4457  24.0374  24.1333  24.4254  24.6363
    24.7306  24.9523  24.9972  25.4341  25.5242  25.6106  25.9532  26.1254
    26.1477  26.4486  26.5707  26.6931  26.9026  27.0018  27.0047  27.1482
    27.3050  27.3195  27.7411  28.0380  28.1737  28.2350  28.6357  28.7559
    28.9855  29.0529  29.2232  29.5284  29.5445  29.6517  29.8673  30.0581
    30.1090  30.3192  30.4691  30.5351  30.6355  30.6725  31.0027  31.0442
    31.1863  31.2150  31.2982  31.6719  31.8677  31.8896  31.9773  32.1368
    32.2757  32.4393  32.5007  32.6255  32.8098  32.9987  33.1289  33.1405
    33.3399  33.4342  33.5829  33.7103  33.8348  33.9290  34.3380  34.3805
    34.4030  34.6437  34.7027  34.8382  35.0301  35.0359  35.1638  35.1797
    35.4128  35.5354  35.6479  35.7661  35.7781  35.9574  36.0282  36.1214
    36.1620  36.2842  36.5158  36.6466  36.7464  36.9031  37.1708  37.2286
    37.2950  37.3630  37.3898  37.5732  37.7025  37.7584  37.9475  38.1625

     occupation numbers
     1.0000   1.0000   1.0000   1.0000   1.0000   1.0000   1.0000   1.0000
     1.0000   1.0000   1.0000   1.0000   1.0000   1.0000   1.0000   1.0000
     1.0000   1.0000   1.0000   1.0000   1.0000   1.0000   1.0000   1.0000
     1.0000   1.0000   1.0000   1.0000   1.0000   1.0000   1.0000   1.0000
     1.0000   1.0000   1.0000   1.0000   1.0000   1.0000   1.0000   1.0000
     1.0000   1.0000   1.0000   1.0000   1.0000   1.0000   1.0000   1.0000
     1.0000   1.0000   1.0000   1.0000   1.0000   1.0000   1.0000   1.0000
     1.0000   1.0000   1.0000   1.0000   1.0000   1.0000   1.0000   1.0000
     1.0000   1.0000   1.0000   1.0000   1.0000   1.0000   1.0000   1.0000
     1.0000   0.0000   0.0000   0.0000   0.0000   0.0000   0.0000   0.0000
     0.0000   0.0000   0.0000   0.0000   0.0000   0.0000   0.0000   0.0000
     0.0000   0.0000   0.0000   0.0000   0.0000   0.0000   0.0000   0.0000
     0.0000   0.0000   0.0000   0.0000   0.0000   0.0000   0.0000   0.0000
     0.0000   0.0000   0.0000   0.0000   0.0000   0.0000   0.0000   0.0000
     0.0000   0.0000   0.0000   0.0000   0.0000   0.0000   0.0000   0.0000
     0.0000   0.0000   0.0000   0.0000   0.0000   0.0000   0.0000   0.0000
     0.0000   0.0000   0.0000   0.0000   0.0000   0.0000   0.0000   0.0000
     0.0000   0.0000   0.0000   0.0000   0.0000   0.0000   0.0000   0.0000
     0.0000   0.0000   0.0000   0.0000   0.0000   0.0000   0.0000   0.0000
     0.0000   0.0000   0.0000   0.0000   0.0000   0.0000   0.0000   0.0000
     0.0000   0.0000   0.0000   0.0000   0.0000   0.0000   0.0000   0.0000
     0.0000   0.0000   0.0000   0.0000   0.0000   0.0000   0.0000   0.0000
     0.0000   0.0000   0.0000   0.0000   0.0000   0.0000   0.0000   0.0000
     0.0000   0.0000   0.0000   0.0000   0.0000   0.0000   0.0000   0.0000
     0.0000   0.0000   0.0000   0.0000   0.0000   0.0000   0.0000   0.0000
     0.0000   0.0000   0.0000   0.0000   0.0000   0.0000   0.0000   0.0000
     0.0000   0.0000   0.0000   0.0000   0.0000   0.0000   0.0000   0.0000
     0.0000   0.0000   0.0000   0.0000   0.0000   0.0000   0.0000   0.0000
     0.0000   0.0000   0.0000   0.0000   0.0000   0.0000   0.0000   0.0000
     0.0000   0.0000   0.0000   0.0000   0.0000   0.0000   0.0000   0.0000
     0.0000   0.0000   0.0000   0.0000   0.0000   0.0000   0.0000   0.0000
     0.0000   0.0000   0.0000   0.0000   0.0000   0.0000   0.0000   0.0000

[...]

          k = 0.3333-0.4131-0.2305 (  6498 PWs)   bands (ev):

   -55.0858 -55.0857 -29.0062 -29.0055 -28.9881 -28.9880 -28.9423 -28.9416
   -26.0291 -26.0035 -25.9284 -25.9127 -25.4276 -25.4015 -25.0823 -25.0619
    -8.4728  -8.3773  -8.3693  -8.2663  -8.2575  -8.2329  -8.1711  -8.1251
    -8.0622  -8.0098  -7.9449  -7.8828  -7.7337  -7.6816  -7.5830  -7.5712
    -7.5123  -7.4506  -7.3736  -7.3341  -7.2150  -7.1892  -7.1069  -7.0700
    -3.5605  -3.4436  -3.3057  -3.2142  -3.1173  -3.0464  -3.0114  -2.9355
     5.5566   5.6168   5.6523   5.8338   5.9475   6.0795   6.1662   6.2340
     6.3064   6.3915   6.4235   6.6210   6.7343   6.8113   6.9158   6.9538
     7.0373   7.1197   7.7086   7.7554   7.8970   7.9979   8.0594   8.2192
     9.6420  10.1216  10.2705  10.7406  10.9173  11.0038  11.1140  11.2864
    11.5489  11.7590  11.8381  11.8873  12.1700  12.2484  12.3516  12.4837
    12.7047  12.8846  12.9666  13.2878  13.3015  13.3966  13.6028  13.7623
    13.8195  13.9428  14.1190  14.2622  14.2923  14.5053  14.6380  14.7938
    14.8706  14.9457  15.1574  15.2936  15.4372  15.6491  15.7440  15.8380
    15.9418  15.9907  16.3060  16.4058  16.5820  16.7064  16.7459  16.7836
    16.9398  17.1007  17.4082  17.4110  17.4315  17.5122  17.8591  18.0774
    18.4594  18.4994  18.9033  19.1161  19.4269  19.7084  19.9372  20.1797
    20.4439  20.6939  20.7973  21.1660  21.2867  21.5361  21.8965  21.9948
    22.0606  22.1849  22.3629  22.4521  22.6232  22.7363  22.9379  23.1701
    23.2482  23.4985  23.5353  23.6780  23.8390  24.1872  24.3350  24.4877
    24.6740  24.8344  24.8812  25.1103  25.2218  25.3204  25.5886  25.7985
    25.8798  25.9108  26.0464  26.4660  26.5356  26.7319  26.8225  26.9522
    27.2454  27.2688  27.4164  27.8356  27.9291  28.1270  28.2592  28.3432
    28.5577  28.6912  28.7456  29.0281  29.1333  29.2938  29.5151  29.6579
    29.8157  29.9973  30.1090  30.2168  30.4523  30.5384  30.5590  30.9497
    31.0562  31.2138  31.2759  31.5814  31.7233  31.8978  31.9211  32.0356
    32.1532  32.3594  32.5057  32.6115  32.8447  32.9924  33.0606  33.2218
    33.2992  33.4554  33.5987  33.7192  33.8380  33.9394  34.0831  34.1595
    34.3707  34.4120  34.5493  34.6907  34.8625  34.9055  35.1999  35.4536
    35.5369  35.6446  35.8615  35.9079  36.0309  36.0946  36.2606  36.3016
    36.4560  36.5007  36.7043  36.8147  36.9544  37.0476  37.2114  37.2384
    37.4252  37.4419  37.6862  37.8267  37.9021  37.9719  38.1672  38.3323

     occupation numbers
     1.0000   1.0000   1.0000   1.0000   1.0000   1.0000   1.0000   1.0000
     1.0000   1.0000   1.0000   1.0000   1.0000   1.0000   1.0000   1.0000
     1.0000   1.0000   1.0000   1.0000   1.0000   1.0000   1.0000   1.0000
     1.0000   1.0000   1.0000   1.0000   1.0000   1.0000   1.0000   1.0000
     1.0000   1.0000   1.0000   1.0000   1.0000   1.0000   1.0000   1.0000
     1.0000   1.0000   1.0000   1.0000   1.0000   1.0000   1.0000   1.0000
     1.0000   1.0000   1.0000   1.0000   1.0000   1.0000   1.0000   1.0000
     1.0000   1.0000   1.0000   1.0000   1.0000   1.0000   1.0000   1.0000
     1.0000   1.0000   1.0000   1.0000   1.0000   1.0000   1.0000   1.0000
     1.0000   0.0000   0.0000   0.0000   0.0000   0.0000   0.0000   0.0000
     0.0000   0.0000   0.0000   0.0000   0.0000   0.0000   0.0000   0.0000
     0.0000   0.0000   0.0000   0.0000   0.0000   0.0000   0.0000   0.0000
     0.0000   0.0000   0.0000   0.0000   0.0000   0.0000   0.0000   0.0000
     0.0000   0.0000   0.0000   0.0000   0.0000   0.0000   0.0000   0.0000
     0.0000   0.0000   0.0000   0.0000   0.0000   0.0000   0.0000   0.0000
     0.0000   0.0000   0.0000   0.0000   0.0000   0.0000   0.0000   0.0000
     0.0000   0.0000   0.0000   0.0000   0.0000   0.0000   0.0000   0.0000
     0.0000   0.0000   0.0000   0.0000   0.0000   0.0000   0.0000   0.0000
     0.0000   0.0000   0.0000   0.0000   0.0000   0.0000   0.0000   0.0000
     0.0000   0.0000   0.0000   0.0000   0.0000   0.0000   0.0000   0.0000
     0.0000   0.0000   0.0000   0.0000   0.0000   0.0000   0.0000   0.0000
     0.0000   0.0000   0.0000   0.0000   0.0000   0.0000   0.0000   0.0000
     0.0000   0.0000   0.0000   0.0000   0.0000   0.0000   0.0000   0.0000
     0.0000   0.0000   0.0000   0.0000   0.0000   0.0000   0.0000   0.0000
     0.0000   0.0000   0.0000   0.0000   0.0000   0.0000   0.0000   0.0000
     0.0000   0.0000   0.0000   0.0000   0.0000   0.0000   0.0000   0.0000
     0.0000   0.0000   0.0000   0.0000   0.0000   0.0000   0.0000   0.0000
     0.0000   0.0000   0.0000   0.0000   0.0000   0.0000   0.0000   0.0000
     0.0000   0.0000   0.0000   0.0000   0.0000   0.0000   0.0000   0.0000
     0.0000   0.0000   0.0000   0.0000   0.0000   0.0000   0.0000   0.0000
     0.0000   0.0000   0.0000   0.0000   0.0000   0.0000   0.0000   0.0000
     0.0000   0.0000   0.0000   0.0000   0.0000   0.0000   0.0000   0.0000

     highest occupied, lowest unoccupied level (ev):     9.7103    9.8191

!    total energy              =   -1013.89398986 Ry
     estimated scf accuracy    <       0.00000020 Ry

     The total energy is the sum of the following terms:
     one-electron contribution =    -395.94164713 Ry
     hartree contribution      =     257.31383573 Ry
     xc contribution           =    -229.00531219 Ry
     ewald contribution        =    -646.26086626 Ry

     convergence has been achieved in  14 iterations

     Writing all to output data dir bands_nm/myprefix.save/

     General routines

     Parallel routines

   This run was terminated on:  17:32:40  15Jul2023

   JOB DONE.