     Program PWSCF v.7.0 starts on  5Jun2023 at 23: 2:55

     K-points division:     npool     =       2
     R & G space division:  proc/nbgrp/npool/nimage =       4

     Reading input from espresso_12261.pwi
Warning: card &CELL ignored
Warning: card / ignored

     Current dimensions of program PWSCF are:
     Max number of different atomic species (ntypx) = 10
     Max number of k-points (npk) =  40000
     Max angular momentum in pseudopotentials (lmaxx) =  4
     Message from routine setup:
     using ibrav=0 with symmetry is DISCOURAGED, use correct ibrav instead

     Using Slab Decomposition

     bravais-lattice index     =            0
     lattice parameter (alat)  =      12.5399  a.u.
     unit-cell volume          =    1365.2423 (a.u.)^3
     number of atoms/cell      =            6
     number of atomic types    =            2
     number of electrons       =        32.00
     number of Kohn-Sham states=           64
     kinetic-energy cutoff     =      30.0000  Ry
     charge density cutoff     =     240.0000  Ry
     scf convergence threshold =      1.0E-06
     mixing beta               =       0.7000
     number of iterations used =            8  plain     mixing
     Exchange-correlation= SLA  PW   PBE  PBE
                           (   1   4   3   4   0   0   0)

     celldm(1)=  12.539915  celldm(2)=   0.000000  celldm(3)=   0.000000
     celldm(4)=   0.000000  celldm(5)=   0.000000  celldm(6)=   0.000000

     crystal axes: (cart. coord. in units of alat)
               a(1) = (   1.000000   0.000000   0.000000 )
               a(2) = (   0.001461   0.999999   0.000000 )
               a(3) = (  -0.401005  -0.599870   0.692351 )

     reciprocal axes: (cart. coord. in units 2 pi/alat)
               b(1) = (  1.000000 -0.001461  0.577928 )
               b(2) = (  0.000000  1.000001  0.866426 )
               b(3) = (  0.000000  0.000000  1.444354 )

     PseudoPot. # 1 for Si read from file:
     /home/pragov/projects/rrg-bengioy-ad/pragov/crystal_structure_design/SSSP/Si.pbe-n-rrkjus_psl.1.0.0.UPF
     MD5 check sum: 0b0bb1205258b0d07b9f9672cf965d36
     Pseudo is Ultrasoft + core correction, Zval =  4.0
     Generated using "atomic" code by A. Dal Corso  v.5.1
     Using radial grid of 1141 points,  6 beta functions with:
                l(1) =   0
                l(2) =   0
                l(3) =   1
                l(4) =   1
                l(5) =   2
                l(6) =   2
     Q(r) pseudized with 0 coefficients

     PseudoPot. # 2 for Se read from file:
     /home/pragov/projects/rrg-bengioy-ad/pragov/crystal_structure_design/SSSP/Se_pbe_v1.uspp.F.UPF
     MD5 check sum: 1b3568f3a8ae88f9a2a0ad0698632c85
     Pseudo is Ultrasoft + core correction, Zval =  6.0
     Generated by new atomic code, or converted to UPF format
     Using radial grid of  877 points,  6 beta functions with:
                l(1) =   0
                l(2) =   0
                l(3) =   1
                l(4) =   1
                l(5) =   2
                l(6) =   2
     Q(r) pseudized with  8 coefficients,  rinner =    1.300   1.300   1.300
                                                       1.300   1.300

     atomic species   valence    mass     pseudopotential
        Si             4.00    28.08500     Si( 1.00)
        Se             6.00    78.97100     Se( 1.00)

      2 Sym. Ops., with inversion, found

                                    s                        frac. trans.

      isym =  1     identity

 cryst.   s( 1) = (     1          0          0      )
                  (     0          1          0      )
                  (     0          0          1      )

 cart.    s( 1) = (  1.0000000  0.0000000  0.0000000 )
                  (  0.0000000  1.0000000  0.0000000 )
                  (  0.0000000  0.0000000  1.0000000 )

      isym =  2     inversion

 cryst.   s( 2) = (    -1          0          0      )
                  (     0         -1          0      )
                  (     0          0         -1      )

 cart.    s( 2) = ( -1.0000000 -0.0000000 -0.0000000 )
                  (  0.0000000 -1.0000000 -0.0000000 )
                  (  0.0000000  0.0000000 -1.0000000 )

   Cartesian axes

     site n.     atom                  positions (alat units)
         1           Si  tau(   1) = (   0.7003417   0.3000964   0.5192634  )
         2           Si  tau(   2) = (   0.9001139   0.1000321   0.1730878  )
         3           Se  tau(   3) = (   0.8255049   0.4352846   0.2248224  )
         4           Se  tau(   4) = (   0.2352570   0.0249334   0.1213532  )
         5           Se  tau(   5) = (  -0.2250493  -0.0351560   0.4675288  )
         6           Se  tau(   6) = (   0.3651986   0.3751952   0.5709980  )

   Crystallographic axes

     site n.     atom                  positions (cryst. coord.)
         1           Si  tau(   1) = (  1.0000000  0.7500000  0.7500000  )
         2           Si  tau(   2) = (  1.0000000  0.2500000  0.2500000  )
         3           Se  tau(   3) = (  0.9548000  0.6300770  0.3247230  )
         4           Se  tau(   4) = (  0.3053540  0.1300770  0.1752770  )
         5           Se  tau(   5) = (  0.0452000  0.3699230  0.6752770  )
         6           Se  tau(   6) = (  0.6946460  0.8699230  0.8247230  )

     number of k points=    14
                       cart. coord. in units 2pi/alat
        k(    1) = (   0.0000000   0.0000000   0.0000000), wk =   0.0740741
        k(    2) = (   0.0000000   0.0000000   0.4814512), wk =   0.1481481
        k(    3) = (   0.0000000   0.3333337   0.2888086), wk =   0.1481481
        k(    4) = (   0.0000000   0.3333337   0.7702598), wk =   0.1481481
        k(    5) = (   0.0000000   0.3333337  -0.1926426), wk =   0.1481481
        k(    6) = (   0.3333333  -0.0004870   0.1926426), wk =   0.1481481
        k(    7) = (   0.3333333  -0.0004870   0.6740938), wk =   0.1481481
        k(    8) = (   0.3333333  -0.0004870  -0.2888086), wk =   0.1481481
        k(    9) = (   0.3333333   0.3328467   0.4814512), wk =   0.1481481
        k(   10) = (   0.3333333   0.3328467   0.9629025), wk =   0.1481481
        k(   11) = (   0.3333333   0.3328467  -0.0000000), wk =   0.1481481
        k(   12) = (   0.3333333  -0.3338207  -0.0961660), wk =   0.1481481
        k(   13) = (   0.3333333  -0.3338207   0.3852852), wk =   0.1481481
        k(   14) = (   0.3333333  -0.3338207  -0.5776172), wk =   0.1481481

                       cryst. coord.
        k(    1) = (   0.0000000   0.0000000   0.0000000), wk =   0.0740741
        k(    2) = (   0.0000000   0.0000000   0.3333333), wk =   0.1481481
        k(    3) = (   0.0000000   0.3333333   0.0000000), wk =   0.1481481
        k(    4) = (   0.0000000   0.3333333   0.3333333), wk =   0.1481481
        k(    5) = (   0.0000000   0.3333333  -0.3333333), wk =   0.1481481
        k(    6) = (   0.3333333  -0.0000000  -0.0000000), wk =   0.1481481
        k(    7) = (   0.3333333  -0.0000000   0.3333333), wk =   0.1481481
        k(    8) = (   0.3333333  -0.0000000  -0.3333333), wk =   0.1481481
        k(    9) = (   0.3333333   0.3333333   0.0000000), wk =   0.1481481
        k(   10) = (   0.3333333   0.3333333   0.3333333), wk =   0.1481481
        k(   11) = (   0.3333333   0.3333333  -0.3333333), wk =   0.1481481
        k(   12) = (   0.3333333  -0.3333333   0.0000000), wk =   0.1481481
        k(   13) = (   0.3333333  -0.3333333   0.3333333), wk =   0.1481481
        k(   14) = (   0.3333333  -0.3333333  -0.3333333), wk =   0.1481481

     Initial potential from superposition of free atoms

     starting charge      31.9986, renormalised to      32.0000
     Starting wfcs are   24 randomized atomic wfcs +   40 random wfcs

     Self-consistent Calculation

     iteration #  1     ecut=    30.00 Ry     beta= 0.70
     Davidson diagonalization with overlap

     ethr =  1.00E-02,  avg # of iterations =  6.9

     Threshold (ethr) on eigenvalues was too large:
     Diagonalizing with lowered threshold

     Davidson diagonalization with overlap

[...]

     total energy              =    -197.42703798 Ry
     estimated scf accuracy    <       0.13207355 Ry

[...]

     total energy              =    -197.44673180 Ry
     estimated scf accuracy    <       0.00000273 Ry

     iteration #  6     ecut=    30.00 Ry     beta= 0.70
     Davidson diagonalization with overlap

     ethr =  8.54E-09,  avg # of iterations =  5.5

     End of self-consistent calculation

          k = 0.0000 0.0000 0.0000 (  3781 PWs)   bands (ev):

   -12.4144 -10.7968 -10.4147 -10.3082  -5.7294  -4.4887  -3.1171  -1.9597
    -1.9049  -1.0991  -0.9757   0.3645   0.5043   0.8983   1.1141   1.4432
     4.5922   5.2050   5.2245   6.4954   7.0701   7.0769   7.4041   7.6741
     7.8639   8.0674   8.5520   9.0932  10.2462  10.3248  11.2561  11.4165
    11.5025  11.7431  12.3188  12.6168  13.1744  13.6343  13.9076  14.4816
    14.6542  14.8080  14.8643  15.5682  15.7556  16.0562  16.2869  16.4496
    16.7882  16.8867  16.9236  17.4808  17.6416  18.5862  19.4221  19.8115
    19.9199  19.9539  20.5332  20.6376  21.2221  21.5764  21.9042  22.6806

     occupation numbers
     1.0000   1.0000   1.0000   1.0000   1.0000   1.0000   1.0000   1.0000
     1.0000   1.0000   1.0000   1.0000   1.0000   1.0000   1.0000   1.0000
     0.0000   0.0000   0.0000   0.0000   0.0000   0.0000   0.0000   0.0000
     0.0000   0.0000   0.0000   0.0000   0.0000   0.0000   0.0000   0.0000
     0.0000   0.0000   0.0000   0.0000   0.0000   0.0000   0.0000   0.0000
     0.0000   0.0000   0.0000   0.0000   0.0000   0.0000   0.0000   0.0000
     0.0000   0.0000   0.0000   0.0000   0.0000   0.0000   0.0000   0.0000
     0.0000   0.0000   0.0000   0.0000   0.0000   0.0000   0.0000   0.0000

[...]

          k = 0.3333-0.3338-0.5776 (  3798 PWs)   bands (ev):

   -11.9701 -11.3068 -10.5168 -10.4833  -5.0745  -4.5781  -2.3572  -2.3368
    -2.1132  -0.7082  -0.3479  -0.2484   0.2412   0.9096   0.9415   1.3865
     3.9547   4.0706   5.4464   5.6444   6.4720   7.1541   7.2573   7.3427
     8.6664   9.2770   9.6375   9.8952  10.2308  10.4852  10.8585  11.0001
    11.5881  11.5884  12.2493  12.9446  13.1770  13.4654  14.5250  14.7541
    14.7960  14.7990  14.8706  15.0727  15.8081  16.4121  16.5111  16.5279
    16.5424  17.1095  17.5097  17.5638  18.6931  18.8230  19.1744  19.4334
    19.4704  20.4212  20.4265  20.4328  20.5342  20.6429  20.7832  21.4085

     occupation numbers
     1.0000   1.0000   1.0000   1.0000   1.0000   1.0000   1.0000   1.0000
     1.0000   1.0000   1.0000   1.0000   1.0000   1.0000   1.0000   1.0000
     0.0000   0.0000   0.0000   0.0000   0.0000   0.0000   0.0000   0.0000
     0.0000   0.0000   0.0000   0.0000   0.0000   0.0000   0.0000   0.0000
     0.0000   0.0000   0.0000   0.0000   0.0000   0.0000   0.0000   0.0000
     0.0000   0.0000   0.0000   0.0000   0.0000   0.0000   0.0000   0.0000
     0.0000   0.0000   0.0000   0.0000   0.0000   0.0000   0.0000   0.0000
     0.0000   0.0000   0.0000   0.0000   0.0000   0.0000   0.0000   0.0000

     highest occupied, lowest unoccupied level (ev):     1.7240    3.9294

!    total energy              =    -197.44674789 Ry
     estimated scf accuracy    <       0.00000008 Ry

     The total energy is the sum of the following terms:
     one-electron contribution =     -23.28955487 Ry
     hartree contribution      =      23.15063804 Ry
     xc contribution           =    -131.07630082 Ry
     ewald contribution        =     -66.23153024 Ry

     convergence has been achieved in   6 iterations

     Writing all to output data dir calculations_bands/myprefix.save/

     General routines

     Parallel routines

   This run was terminated on:  23: 3: 6   5Jun2023

   JOB DONE.