     Program PWSCF v.7.1 starts on 15Jul2023 at 18:56:35

     Reading input from espresso_20030.pwi
Warning: card &CELL ignored
Warning: card / ignored

     Current dimensions of program PWSCF are:
     Max number of different atomic species (ntypx) = 10
     Max number of k-points (npk) =  40000
     Max angular momentum in pseudopotentials (lmaxx) =  4
     Message from routine setup:
     using ibrav=0 with symmetry is DISCOURAGED, use correct ibrav instead

     K-points division:     npool     =       2
     R & G space division:  proc/nbgrp/npool/nimage =       4
     Subspace diagonalization in iterative solution of the eigenvalue problem:
     one sub-group per band group will be used

     Using Slab Decomposition

     bravais-lattice index     =            0
     lattice parameter (alat)  =      11.5245  a.u.
     unit-cell volume          =    1537.2094 (a.u.)^3
     number of atoms/cell      =           12
     number of atomic types    =            3
     number of electrons       =       144.00
     number of Kohn-Sham states=          256
     kinetic-energy cutoff     =      30.0000  Ry
     charge density cutoff     =     240.0000  Ry
     scf convergence threshold =      1.0E-06
     mixing beta               =       0.7000
     number of iterations used =            8  plain     mixing
     Exchange-correlation=  SLA  PW   PBX  PBC
                           (   1   4   3   4   0   0   0)

     celldm(1)=  11.524451  celldm(2)=   0.000000  celldm(3)=   0.000000
     celldm(4)=   0.000000  celldm(5)=   0.000000  celldm(6)=   0.000000

     crystal axes: (cart. coord. in units of alat)
               a(1) = (   1.000000   0.000000   0.000000 )
               a(2) = (   0.000000   1.002149   0.000000 )
               a(3) = (   0.000000   0.000000   1.002166 )

     reciprocal axes: (cart. coord. in units 2 pi/alat)
               b(1) = (  1.000000  0.000000  0.000000 )
               b(2) = (  0.000000  0.997855  0.000000 )
               b(3) = (  0.000000  0.000000  0.997838 )

     PseudoPot. # 1 for Sb read from file:
     /lustre07/scratch/pragov/crystal_structure_design/utils/SSSP/sb_pbe_v1.4.uspp.F.UPF
     MD5 check sum: 9bc50dfb53373b713f5709b9110fe27f
     Pseudo is Ultrasoft + core correction, Zval = 15.0
     Generated by new atomic code, or converted to UPF format
     Using radial grid of  891 points,  6 beta functions with:
                l(1) =   0
                l(2) =   0
                l(3) =   1
                l(4) =   1
                l(5) =   2
                l(6) =   2
     Q(r) pseudized with  8 coefficients,  rinner =    1.350   1.350   1.350
                                                       1.350   1.350

     PseudoPot. # 2 for Ir read from file:
     /lustre07/scratch/pragov/crystal_structure_design/utils/SSSP/Ir_pbe_v1.2.uspp.F.UPF
     MD5 check sum: 8836f839c3459d2b385c504ce6d91f2c
     Pseudo is Ultrasoft + core correction, Zval = 15.0
     Generated by new atomic code, or converted to UPF format
     Using radial grid of  983 points,  7 beta functions with:
                l(1) =   0
                l(2) =   0
                l(3) =   1
                l(4) =   1
                l(5) =   1
                l(6) =   2
                l(7) =   2
     Q(r) pseudized with  8 coefficients,  rinner =    1.400   1.400   1.400
                                                       1.400   1.400

     PseudoPot. # 3 for S  read from file:
     /lustre07/scratch/pragov/crystal_structure_design/utils/SSSP/s_pbe_v1.4.uspp.F.UPF
     MD5 check sum: 88d86576ff6df21479756cfb9bdac1df
     Pseudo is Ultrasoft + core correction, Zval =  6.0
     Generated by new atomic code, or converted to UPF format
     Using radial grid of  907 points,  6 beta functions with:
                l(1) =   0
                l(2) =   0
                l(3) =   1
                l(4) =   1
                l(5) =   2
                l(6) =   2
     Q(r) pseudized with  8 coefficients,  rinner =    1.300   1.300   1.300
                                                       1.300   1.300

     atomic species   valence    mass     pseudopotential
        Sb            15.00   121.76000     Sb( 1.00)
        Ir            15.00   192.21700     Ir( 1.00)
        S              6.00    32.06000     S ( 1.00)

      4 Sym. Ops. (no inversion) found ( 3 have fractional translation)

                                    s                        frac. trans.

      isym =  1     identity

 cryst.   s( 1) = (     1          0          0      )
                  (     0          1          0      )
                  (     0          0          1      )

 cart.    s( 1) = (  1.0000000  0.0000000  0.0000000 )
                  (  0.0000000  1.0000000  0.0000000 )
                  (  0.0000000  0.0000000  1.0000000 )

      isym =  2     180 deg rotation - cart. axis [0,0,1]

 cryst.   s( 2) = (    -1          0          0      )    f =(  0.0000000 )
                  (     0         -1          0      )       ( -0.0000000 )
                  (     0          0          1      )       ( -0.5000000 )

 cart.    s( 2) = ( -1.0000000  0.0000000  0.0000000 )    f =(  0.0000000 )
                  (  0.0000000 -1.0000000  0.0000000 )       ( -0.0000000 )
                  (  0.0000000  0.0000000  1.0000000 )       ( -0.5010832 )

      isym =  3     inv. 180 deg rotation - cart. axis [0,1,0]

[...]

      isym =  4     inv. 180 deg rotation - cart. axis [1,0,0]

 cryst.   s( 4) = (    -1          0          0      )    f =(  0.0000000 )
                  (     0          1          0      )       ( -0.5000000 )
                  (     0          0          1      )       (  0.0000000 )

 cart.    s( 4) = ( -1.0000000  0.0000000  0.0000000 )    f =(  0.0000000 )
                  (  0.0000000  1.0000000  0.0000000 )       ( -0.5010746 )
                  (  0.0000000  0.0000000  1.0000000 )       (  0.0000000 )

   Cartesian axes

     site n.     atom                  positions (alat units)
         1           Sb  tau(   1) = (   0.6339630   0.3804750   0.3830952  )
         2           Sb  tau(   2) = (   0.3660370   0.6216743   0.8841784  )
         3           Sb  tau(   3) = (   0.6339630   0.1205996   0.8841784  )
         4           Sb  tau(   4) = (   0.3660370   0.8815496   0.3830952  )
         5           Ir  tau(   5) = (   0.7669870   0.5121123   1.0013136  )
         6           Ir  tau(   6) = (   0.2330130   0.4900369   0.5002304  )
         7           Ir  tau(   7) = (   0.7669870   0.9911116   0.5002304  )
         8           Ir  tau(   8) = (   0.2330130   0.0110377   1.0013136  )
         9           S   tau(   9) = (   0.1262420   0.1184029   0.6221289  )
        10           S   tau(  10) = (   0.8737580   0.8837463   0.1210457  )
        11           S   tau(  11) = (   0.1262420   0.3826717   0.1210457  )
        12           S   tau(  12) = (   0.8737580   0.6194775   0.6221289  )

   Crystallographic axes

     site n.     atom                  positions (cryst. coord.)
         1           Sb  tau(   1) = (  0.6339630  0.3796590  0.3822670  )
         2           Sb  tau(   2) = (  0.3660370  0.6203410  0.8822670  )
         3           Sb  tau(   3) = (  0.6339630  0.1203410  0.8822670  )
         4           Sb  tau(   4) = (  0.3660370  0.8796590  0.3822670  )
         5           Ir  tau(   5) = (  0.7669870  0.5110140  0.9991490  )
         6           Ir  tau(   6) = (  0.2330130  0.4889860  0.4991490  )
         7           Ir  tau(   7) = (  0.7669870  0.9889860  0.4991490  )
         8           Ir  tau(   8) = (  0.2330130  0.0110140  0.9991490  )
         9           S   tau(   9) = (  0.1262420  0.1181490  0.6207840  )
        10           S   tau(  10) = (  0.8737580  0.8818510  0.1207840  )
        11           S   tau(  11) = (  0.1262420  0.3818510  0.1207840  )
        12           S   tau(  12) = (  0.8737580  0.6181490  0.6207840  )

     number of k points=     8
                       cart. coord. in units 2pi/alat
        k(    1) = (   0.0000000   0.0000000   0.0000000), wk =   0.0740741
        k(    2) = (   0.0000000   0.0000000   0.3326127), wk =   0.1481481
        k(    3) = (   0.0000000   0.3326185   0.0000000), wk =   0.1481481
        k(    4) = (   0.0000000   0.3326185   0.3326127), wk =   0.2962963
        k(    5) = (   0.3333333   0.0000000   0.0000000), wk =   0.1481481
        k(    6) = (   0.3333333   0.0000000   0.3326127), wk =   0.2962963
        k(    7) = (   0.3333333   0.3326185   0.0000000), wk =   0.2962963
        k(    8) = (   0.3333333   0.3326185   0.3326127), wk =   0.5925926

                       cryst. coord.
        k(    1) = (   0.0000000   0.0000000   0.0000000), wk =   0.0740741
        k(    2) = (   0.0000000   0.0000000   0.3333333), wk =   0.1481481
        k(    3) = (   0.0000000   0.3333333   0.0000000), wk =   0.1481481
        k(    4) = (   0.0000000   0.3333333   0.3333333), wk =   0.2962963
        k(    5) = (   0.3333333   0.0000000   0.0000000), wk =   0.1481481
        k(    6) = (   0.3333333   0.0000000   0.3333333), wk =   0.2962963
        k(    7) = (   0.3333333   0.3333333   0.0000000), wk =   0.2962963
        k(    8) = (   0.3333333   0.3333333   0.3333333), wk =   0.5925926

     Check: negative core charge=   -0.000003

     Initial potential from superposition of free atoms

     starting charge     137.9997, renormalised to     144.0000

     negative rho (up, down):  1.522E+00 0.000E+00
     Starting wfcs are  100 randomized atomic wfcs +  156 random wfcs

     Self-consistent Calculation

     iteration #  1     ecut=    30.00 Ry     beta= 0.70
     Davidson diagonalization with overlap

     ethr =  1.00E-02,  avg # of iterations =  7.0

     negative rho (up, down):  1.117E+00 0.000E+00

     total energy              =   -1555.30722046 Ry
     estimated scf accuracy    <      14.49471336 Ry

[...]

     total energy              =   -1563.57350920 Ry
     estimated scf accuracy    <       0.00000899 Ry

     iteration # 10     ecut=    30.00 Ry     beta= 0.70
     Davidson diagonalization with overlap

     ethr =  6.24E-09,  avg # of iterations =  2.0

     negative rho (up, down):  1.278E+00 0.000E+00

     End of self-consistent calculation

          k = 0.0000 0.0000 0.0000 (  4329 PWs)   bands (ev):

   -34.8772 -34.8760 -34.8755 -34.8753 -34.8519 -34.8512 -34.8504 -34.8499
   -34.6885 -34.6882 -34.6879 -34.6878 -15.2681 -15.2570 -15.2539 -15.2452
   -15.2093 -15.2012 -15.1966 -15.1861 -15.1804 -15.1795 -15.1782 -15.1716
   -15.0767 -15.0757 -15.0712 -15.0670 -15.0658 -15.0634 -15.0574 -15.0554
    -0.9492   0.2710   0.3131   0.3855   3.7022   4.3987   4.4703   5.5729
     7.6973   7.7877   7.8377   8.3635   8.4559   8.5267   8.7706   9.0538
     9.1945   9.1982   9.2288   9.5954   9.7992   9.8604  10.2159  10.4483
    10.5457  11.4341  11.4470  11.4490  11.7395  11.8701  11.9376  12.0119
    12.0351  12.2367  12.3462  12.3545  12.4978  12.7526  12.7970  12.8426
    14.5354  15.0761  15.0900  15.4539  16.7699  16.9703  17.2592  17.9685
    18.0789  18.1614  18.5524  18.5544  19.4958  20.1066  20.2865  20.7590
    20.9161  20.9210  21.5133  21.7638  22.1041  22.1814  22.2268  22.3487
    23.0633  23.4980  23.6368  23.9985  24.1173  24.2135  24.2220  24.8809
    24.9661  25.2237  25.4638  25.4639  25.4643  25.4707  25.5865  25.5993
    25.7751  26.0437  26.3154  26.3763  26.6895  26.7729  27.3012  27.3481
    27.4504  27.9423  27.9998  28.0134  28.0584  28.3392  28.8319  28.8900
    29.4549  29.8789  29.9457  29.9885  30.3805  31.1924  31.1928  31.5751
    31.6480  31.8593  31.9149  32.2281  32.5244  32.7603  32.8485  32.9659
    33.0138  33.7065  33.8572  34.5310  34.7824  35.2027  35.2416  35.3203
    35.3823  36.1062  36.2210  36.5244  36.8682  36.9269  37.1223  37.2288
    37.3830  37.7016  37.8545  38.1680  38.2775  38.2840  38.6625  38.8093
    39.0198  39.2523  39.5906  39.8403  39.8589  40.2272  40.3491  40.3822
    40.5067  40.8134  40.9936  41.2347  41.6739  41.6784  41.7444  41.7781
    42.1348  42.2075  42.4715  42.5361  42.6037  42.7499  43.0756  43.1537
    43.2910  43.4701  43.4706  43.6880  43.7611  43.7812  44.5095  44.6712
    44.7658  44.9267  44.9680  45.2033  45.3253  45.6875  45.7888  45.8090
    45.8204  45.8673  46.1434  46.1454  46.4225  46.6530  46.6622  46.6846
    46.8932  47.0524  47.0747  47.7032  47.7394  47.7661  47.8266  47.8824
    48.1741  48.5689  48.6826  48.7115  48.9925  49.0145  49.0913  49.4796
    49.4818  49.5243  49.7696  50.3298  50.3522  50.4773  50.6310  50.8786
    51.2635  51.8833  51.9143  52.0569  52.2286  52.2689  52.4969  52.8720
    53.0440  53.2215  53.2409  53.3942  53.5457  53.6809  53.9189  53.9300

     occupation numbers
     1.0000   1.0000   1.0000   1.0000   1.0000   1.0000   1.0000   1.0000
     1.0000   1.0000   1.0000   1.0000   1.0000   1.0000   1.0000   1.0000
     1.0000   1.0000   1.0000   1.0000   1.0000   1.0000   1.0000   1.0000
     1.0000   1.0000   1.0000   1.0000   1.0000   1.0000   1.0000   1.0000
     1.0000   1.0000   1.0000   1.0000   1.0000   1.0000   1.0000   1.0000
     1.0000   1.0000   1.0000   1.0000   1.0000   1.0000   1.0000   1.0000
     1.0000   1.0000   1.0000   1.0000   1.0000   1.0000   1.0000   1.0000
     1.0000   1.0000   1.0000   1.0000   1.0000   1.0000   1.0000   1.0000
     1.0000   1.0000   1.0000   1.0000   1.0000   1.0000   1.0000   1.0000
     0.0000   0.0000   0.0000   0.0000   0.0000   0.0000   0.0000   0.0000
     0.0000   0.0000   0.0000   0.0000   0.0000   0.0000   0.0000   0.0000
     0.0000   0.0000   0.0000   0.0000   0.0000   0.0000   0.0000   0.0000
     0.0000   0.0000   0.0000   0.0000   0.0000   0.0000   0.0000   0.0000
     0.0000   0.0000   0.0000   0.0000   0.0000   0.0000   0.0000   0.0000
     0.0000   0.0000   0.0000   0.0000   0.0000   0.0000   0.0000   0.0000
     0.0000   0.0000   0.0000   0.0000   0.0000   0.0000   0.0000   0.0000
     0.0000   0.0000   0.0000   0.0000   0.0000   0.0000   0.0000   0.0000
     0.0000   0.0000   0.0000   0.0000   0.0000   0.0000   0.0000   0.0000
     0.0000   0.0000   0.0000   0.0000   0.0000   0.0000   0.0000   0.0000
     0.0000   0.0000   0.0000   0.0000   0.0000   0.0000   0.0000   0.0000
     0.0000   0.0000   0.0000   0.0000   0.0000   0.0000   0.0000   0.0000
     0.0000   0.0000   0.0000   0.0000   0.0000   0.0000   0.0000   0.0000
     0.0000   0.0000   0.0000   0.0000   0.0000   0.0000   0.0000   0.0000
     0.0000   0.0000   0.0000   0.0000   0.0000   0.0000   0.0000   0.0000
     0.0000   0.0000   0.0000   0.0000   0.0000   0.0000   0.0000   0.0000
     0.0000   0.0000   0.0000   0.0000   0.0000   0.0000   0.0000   0.0000
     0.0000   0.0000   0.0000   0.0000   0.0000   0.0000   0.0000   0.0000
     0.0000   0.0000   0.0000   0.0000   0.0000   0.0000   0.0000   0.0000
     0.0000   0.0000   0.0000   0.0000   0.0000   0.0000   0.0000   0.0000
     0.0000   0.0000   0.0000   0.0000   0.0000   0.0000   0.0000   0.0000
     0.0000   0.0000   0.0000   0.0000   0.0000   0.0000   0.0000   0.0000
     0.0000   0.0000   0.0000   0.0000   0.0000   0.0000   0.0000   0.0000

[...]

          k = 0.3333 0.3326 0.3326 (  4290 PWs)   bands (ev):

   -34.8762 -34.8759 -34.8757 -34.8757 -34.8510 -34.8509 -34.8506 -34.8504
   -34.6882 -34.6880 -34.6879 -34.6878 -15.2584 -15.2527 -15.2508 -15.2449
   -15.2024 -15.2004 -15.1994 -15.1943 -15.1802 -15.1785 -15.1740 -15.1730
   -15.0720 -15.0702 -15.0672 -15.0624 -15.0593 -15.0562 -15.0554 -15.0537
    -0.2480   0.1630   0.2033   0.3888   3.2885   3.9004   4.0493   4.5852
     7.4840   7.6462   7.6806   7.9409   8.4407   8.5199   8.7523   8.8565
     9.2929   9.6666   9.7544  10.3485  10.5682  10.7234  10.7763  11.0045
    11.1477  11.4645  11.5500  11.6345  11.7596  11.8500  11.9246  11.9756
    12.1290  12.1825  12.4295  12.5294  12.5802  12.9551  13.0519  13.1189
    14.8954  15.4364  15.7157  16.0754  16.2561  16.5478  16.6601  17.0630
    17.2576  17.4196  17.7304  17.9159  19.0396  19.3164  19.6544  19.7985
    20.8436  20.9693  21.3711  21.4564  21.7625  21.8552  22.0356  22.1005
    22.5628  22.7014  22.9654  23.2397  23.3374  23.9802  24.0665  24.7437
    24.9222  25.3160  25.4604  25.4641  25.4659  25.4680  25.6552  25.7905
    25.9558  26.3090  26.4049  26.9270  27.2099  27.4543  27.5995  27.8631
    28.1630  28.3454  28.6018  28.9289  29.2136  29.3291  29.5611  29.8472
    30.0417  30.3835  30.5645  30.7896  31.1643  31.2172  31.6704  31.8280
    32.1188  32.3107  32.3822  32.6921  32.8774  33.0744  33.3467  33.4867
    33.8440  34.1914  34.3087  34.4234  34.7623  34.9837  35.1928  35.3513
    35.6103  35.6753  35.8265  36.0599  36.3171  36.3707  36.5831  36.7583
    36.9732  37.1551  37.3050  37.5573  37.6891  37.8769  38.0906  38.3275
    38.6290  38.8348  38.9705  39.2118  39.2472  39.7280  39.7965  39.9927
    40.0420  40.2864  40.5312  40.7313  40.8477  41.0046  41.2174  41.3703
    41.5713  41.8464  42.0607  42.2930  42.4996  42.7261  42.7965  43.0098
    43.2585  43.4160  43.5908  43.7617  43.8807  44.0484  44.3055  44.4247
    44.7644  44.9187  45.0059  45.1897  45.3619  45.5210  45.7126  45.7864
    45.8632  45.8884  45.9600  46.0618  46.1781  46.4227  46.5289  46.8323
    47.0838  47.3418  47.6105  47.7214  47.9079  48.1189  48.2871  48.4010
    48.6271  48.7674  48.9290  49.0656  49.3334  49.5381  49.7126  49.7492
    49.9962  50.3025  50.3564  50.6047  50.7874  50.9229  51.1403  51.2194
    51.4466  51.5855  51.7689  51.8696  52.1309  52.4313  52.5714  52.6759
    52.7271  53.1540  53.2902  53.4460  53.5559  53.7775  53.8933  53.9909

     occupation numbers
     1.0000   1.0000   1.0000   1.0000   1.0000   1.0000   1.0000   1.0000
     1.0000   1.0000   1.0000   1.0000   1.0000   1.0000   1.0000   1.0000
     1.0000   1.0000   1.0000   1.0000   1.0000   1.0000   1.0000   1.0000
     1.0000   1.0000   1.0000   1.0000   1.0000   1.0000   1.0000   1.0000
     1.0000   1.0000   1.0000   1.0000   1.0000   1.0000   1.0000   1.0000
     1.0000   1.0000   1.0000   1.0000   1.0000   1.0000   1.0000   1.0000
     1.0000   1.0000   1.0000   1.0000   1.0000   1.0000   1.0000   1.0000
     1.0000   1.0000   1.0000   1.0000   1.0000   1.0000   1.0000   1.0000
     1.0000   1.0000   1.0000   1.0000   1.0000   1.0000   1.0000   1.0000
     0.0000   0.0000   0.0000   0.0000   0.0000   0.0000   0.0000   0.0000
     0.0000   0.0000   0.0000   0.0000   0.0000   0.0000   0.0000   0.0000
     0.0000   0.0000   0.0000   0.0000   0.0000   0.0000   0.0000   0.0000
     0.0000   0.0000   0.0000   0.0000   0.0000   0.0000   0.0000   0.0000
     0.0000   0.0000   0.0000   0.0000   0.0000   0.0000   0.0000   0.0000
     0.0000   0.0000   0.0000   0.0000   0.0000   0.0000   0.0000   0.0000
     0.0000   0.0000   0.0000   0.0000   0.0000   0.0000   0.0000   0.0000
     0.0000   0.0000   0.0000   0.0000   0.0000   0.0000   0.0000   0.0000
     0.0000   0.0000   0.0000   0.0000   0.0000   0.0000   0.0000   0.0000
     0.0000   0.0000   0.0000   0.0000   0.0000   0.0000   0.0000   0.0000
     0.0000   0.0000   0.0000   0.0000   0.0000   0.0000   0.0000   0.0000
     0.0000   0.0000   0.0000   0.0000   0.0000   0.0000   0.0000   0.0000
     0.0000   0.0000   0.0000   0.0000   0.0000   0.0000   0.0000   0.0000
     0.0000   0.0000   0.0000   0.0000   0.0000   0.0000   0.0000   0.0000
     0.0000   0.0000   0.0000   0.0000   0.0000   0.0000   0.0000   0.0000
     0.0000   0.0000   0.0000   0.0000   0.0000   0.0000   0.0000   0.0000
     0.0000   0.0000   0.0000   0.0000   0.0000   0.0000   0.0000   0.0000
     0.0000   0.0000   0.0000   0.0000   0.0000   0.0000   0.0000   0.0000
     0.0000   0.0000   0.0000   0.0000   0.0000   0.0000   0.0000   0.0000
     0.0000   0.0000   0.0000   0.0000   0.0000   0.0000   0.0000   0.0000
     0.0000   0.0000   0.0000   0.0000   0.0000   0.0000   0.0000   0.0000
     0.0000   0.0000   0.0000   0.0000   0.0000   0.0000   0.0000   0.0000
     0.0000   0.0000   0.0000   0.0000   0.0000   0.0000   0.0000   0.0000

     highest occupied, lowest unoccupied level (ev):    13.4957   14.5354

!    total energy              =   -1563.57351048 Ry
     estimated scf accuracy    <       0.00000014 Ry

     The total energy is the sum of the following terms:
     one-electron contribution =    -445.62975284 Ry
     hartree contribution      =     317.96049372 Ry
     xc contribution           =    -412.14840731 Ry
     ewald contribution        =   -1023.75584405 Ry

     convergence has been achieved in  10 iterations

     Writing all to output data dir bands_nm/myprefix.save/

     General routines

     Parallel routines

   This run was terminated on:  18:57:13  15Jul2023

   JOB DONE.