     Program PWSCF v.7.1 starts on 15Jul2023 at 21:49:25

     Reading input from espresso_7786.pwi
Warning: card &CELL ignored
Warning: card / ignored

     Current dimensions of program PWSCF are:
     Max number of different atomic species (ntypx) = 10
     Max number of k-points (npk) =  40000
     Max angular momentum in pseudopotentials (lmaxx) =  4
     Message from routine setup:
     using ibrav=0 with symmetry is DISCOURAGED, use correct ibrav instead

     K-points division:     npool     =       2
     R & G space division:  proc/nbgrp/npool/nimage =       4
     Subspace diagonalization in iterative solution of the eigenvalue problem:
     one sub-group per band group will be used

     Using Slab Decomposition

     bravais-lattice index     =            0
     lattice parameter (alat)  =      11.7581  a.u.
     unit-cell volume          =    1625.5959 (a.u.)^3
     number of atoms/cell      =           12
     number of atomic types    =            3
     number of electrons       =       152.00
     number of Kohn-Sham states=          256
     kinetic-energy cutoff     =      30.0000  Ry
     charge density cutoff     =     240.0000  Ry
     scf convergence threshold =      1.0E-06
     mixing beta               =       0.7000
     number of iterations used =            8  plain     mixing
     Exchange-correlation=  SLA  PW   PBX  PBC
                           (   1   4   3   4   0   0   0)

     celldm(1)=  11.758110  celldm(2)=   0.000000  celldm(3)=   0.000000
     celldm(4)=   0.000000  celldm(5)=   0.000000  celldm(6)=   0.000000

     crystal axes: (cart. coord. in units of alat)
               a(1) = (   1.000000   0.000000   0.000000 )
               a(2) = (   0.000000   1.000000   0.000000 )
               a(3) = (   0.000000   0.000000   1.000000 )

     reciprocal axes: (cart. coord. in units 2 pi/alat)
               b(1) = (  1.000000  0.000000  0.000000 )
               b(2) = (  0.000000  1.000000  0.000000 )
               b(3) = (  0.000000  0.000000  1.000000 )

     PseudoPot. # 1 for Bi read from file:
     /lustre07/scratch/pragov/crystal_structure_design/utils/SSSP/Bi_pbe_v1.uspp.F.UPF
     MD5 check sum: cceb9f28ec65b6d7ff33140f5b0b1758
     Pseudo is Ultrasoft + core correction, Zval = 15.0
     Generated by new atomic code, or converted to UPF format
     Using radial grid of  899 points,  6 beta functions with:
                l(1) =   0
                l(2) =   0
                l(3) =   1
                l(4) =   1
                l(5) =   2
                l(6) =   2
     Q(r) pseudized with  6 coefficients,  rinner =    1.000   1.000   1.000
                                                       1.000   1.000

     PseudoPot. # 2 for Rh read from file:
     /lustre07/scratch/pragov/crystal_structure_design/utils/SSSP/Rh_ONCV_PBE-1.0.oncvpsp.upf
     MD5 check sum: ba07c69523b14cacd10683cd4c4284c1
     Pseudo is Norm-conserving, Zval = 17.0
     Generated using ONCVPSP code by D. R. Hamann
     Using radial grid of 1442 points,  6 beta functions with:
                l(1) =   0
                l(2) =   0
                l(3) =   1
                l(4) =   1
                l(5) =   2
                l(6) =   2

     PseudoPot. # 3 for S  read from file:
     /lustre07/scratch/pragov/crystal_structure_design/utils/SSSP/s_pbe_v1.4.uspp.F.UPF
     MD5 check sum: 88d86576ff6df21479756cfb9bdac1df
     Pseudo is Ultrasoft + core correction, Zval =  6.0
     Generated by new atomic code, or converted to UPF format
     Using radial grid of  907 points,  6 beta functions with:
                l(1) =   0
                l(2) =   0
                l(3) =   1
                l(4) =   1
                l(5) =   2
                l(6) =   2
     Q(r) pseudized with  8 coefficients,  rinner =    1.300   1.300   1.300
                                                       1.300   1.300

     atomic species   valence    mass     pseudopotential
        Bi            15.00   208.98040     Bi( 1.00)
        Rh            17.00   102.90550     Rh( 1.00)
        S              6.00    32.06000     S ( 1.00)

     12 Sym. Ops. (no inversion) found ( 9 have fractional translation)

                                    s                        frac. trans.

      isym =  1     identity

 cryst.   s( 1) = (     1          0          0      )
                  (     0          1          0      )
                  (     0          0          1      )

 cart.    s( 1) = (  1.0000000  0.0000000  0.0000000 )
                  (  0.0000000  1.0000000  0.0000000 )
                  (  0.0000000  0.0000000  1.0000000 )

      isym =  2     180 deg rotation - cart. axis [0,0,1]

 cryst.   s( 2) = (    -1          0          0      )    f =(  0.5000000 )
                  (     0         -1          0      )       (  0.0000000 )
                  (     0          0          1      )       ( -0.5000000 )

 cart.    s( 2) = ( -1.0000000  0.0000000  0.0000000 )    f =(  0.5000000 )
                  (  0.0000000 -1.0000000  0.0000000 )       (  0.0000000 )
                  (  0.0000000  0.0000000  1.0000000 )       ( -0.5000000 )

[...]

 cryst.   s( 8) = (     0          0          1      )    f =(  0.5000000 )
                  (    -1          0          0      )       (  0.0000000 )
                  (     0         -1          0      )       ( -0.5000000 )

 cart.    s( 8) = (  0.0000000 -1.0000000  0.0000000 )    f =(  0.5000000 )
                  (  0.0000000  0.0000000 -1.0000000 )       (  0.0000000 )
                  (  1.0000000  0.0000000  0.0000000 )       ( -0.5000000 )

[...]

 cryst.   s( 9) = (     0          1          0      )
                  (     0          0          1      )
                  (     1          0          0      )

 cart.    s( 9) = (  0.0000000  0.0000000  1.0000000 )
                  (  1.0000000  0.0000000  0.0000000 )
                  (  0.0000000  1.0000000  0.0000000 )

[...]

 cryst.   s(10) = (     0         -1          0      )    f =( -0.5000000 )
                  (     0          0         -1      )       (  0.5000000 )
                  (     1          0          0      )       (  0.0000000 )

 cart.    s(10) = (  0.0000000  0.0000000  1.0000000 )    f =( -0.5000000 )
                  ( -1.0000000  0.0000000  0.0000000 )       (  0.5000000 )
                  (  0.0000000 -1.0000000  0.0000000 )       (  0.0000000 )

[...]

      isym = 12     120 deg rotation - cart. axis [-1,-1,1]

 cryst.   s(12) = (     0          1          0      )    f =(  0.0000000 )
                  (     0          0         -1      )       (  0.5000000 )
                  (    -1          0          0      )       (  0.5000000 )

 cart.    s(12) = (  0.0000000  0.0000000 -1.0000000 )    f =(  0.0000000 )
                  (  1.0000000  0.0000000  0.0000000 )       (  0.5000000 )
                  (  0.0000000 -1.0000000  0.0000000 )       (  0.5000000 )

   Cartesian axes

     site n.     atom                  positions (alat units)
         1           Bi  tau(   1) = (   0.1273610   0.6273610   0.8726390  )
         2           Bi  tau(   2) = (   0.6273610   0.8726390   0.1273610  )
         3           Bi  tau(   3) = (   0.8726390   0.1273610   0.6273610  )
         4           Bi  tau(   4) = (   0.3726390   0.3726390   0.3726390  )
         5           Rh  tau(   5) = (   0.4779930   0.9779930   0.5220070  )
         6           Rh  tau(   6) = (   0.9779930   0.5220070   0.4779930  )
         7           Rh  tau(   7) = (   0.5220070   0.4779930   0.9779930  )
         8           Rh  tau(   8) = (   0.0220070   0.0220070   0.0220070  )
         9           S   tau(   9) = (   0.8811060   0.3811060   0.1188940  )
        10           S   tau(  10) = (   0.3811060   0.1188940   0.8811060  )
        11           S   tau(  11) = (   0.1188940   0.8811060   0.3811060  )
        12           S   tau(  12) = (   0.6188940   0.6188940   0.6188940  )

   Crystallographic axes

     site n.     atom                  positions (cryst. coord.)
         1           Bi  tau(   1) = (  0.1273610  0.6273610  0.8726390  )
         2           Bi  tau(   2) = (  0.6273610  0.8726390  0.1273610  )
         3           Bi  tau(   3) = (  0.8726390  0.1273610  0.6273610  )
         4           Bi  tau(   4) = (  0.3726390  0.3726390  0.3726390  )
         5           Rh  tau(   5) = (  0.4779930  0.9779930  0.5220070  )
         6           Rh  tau(   6) = (  0.9779930  0.5220070  0.4779930  )
         7           Rh  tau(   7) = (  0.5220070  0.4779930  0.9779930  )
         8           Rh  tau(   8) = (  0.0220070  0.0220070  0.0220070  )
         9           S   tau(   9) = (  0.8811060  0.3811060  0.1188940  )
        10           S   tau(  10) = (  0.3811060  0.1188940  0.8811060  )
        11           S   tau(  11) = (  0.1188940  0.8811060  0.3811060  )
        12           S   tau(  12) = (  0.6188940  0.6188940  0.6188940  )

     number of k points=     4
                       cart. coord. in units 2pi/alat
        k(    1) = (   0.0000000   0.0000000   0.0000000), wk =   0.0740741
        k(    2) = (   0.0000000   0.0000000   0.3333333), wk =   0.4444444
        k(    3) = (   0.0000000   0.3333333   0.3333333), wk =   0.8888889
        k(    4) = (   0.3333333   0.3333333   0.3333333), wk =   0.5925926

                       cryst. coord.
        k(    1) = (   0.0000000   0.0000000   0.0000000), wk =   0.0740741
        k(    2) = (   0.0000000   0.0000000   0.3333333), wk =   0.4444444
        k(    3) = (   0.0000000   0.3333333   0.3333333), wk =   0.8888889
        k(    4) = (   0.3333333   0.3333333   0.3333333), wk =   0.5925926

     Check: negative core charge=   -0.000004

     Initial potential from superposition of free atoms

     starting charge     147.9979, renormalised to     152.0000

     negative rho (up, down):  1.626E-01 0.000E+00
     Starting wfcs are   92 randomized atomic wfcs +  164 random wfcs

     Self-consistent Calculation

     iteration #  1     ecut=    30.00 Ry     beta= 0.70
     Davidson diagonalization with overlap

     ethr =  1.00E-02,  avg # of iterations =  9.8

     Threshold (ethr) on eigenvalues was too large:
     Diagonalizing with lowered threshold

     Davidson diagonalization with overlap

[...]

     negative rho (up, down):  1.594E-01 0.000E+00

     total energy              =   -1705.13312156 Ry
     estimated scf accuracy    <       1.15511552 Ry

[...]

     total energy              =   -1705.51066762 Ry
     estimated scf accuracy    <       0.00000380 Ry

     iteration #  8     ecut=    30.00 Ry     beta= 0.70
     Davidson diagonalization with overlap

     ethr =  2.50E-09,  avg # of iterations =  2.0

     negative rho (up, down):  1.648E-01 0.000E+00

     End of self-consistent calculation

          k = 0.0000 0.0000 0.0000 (  4553 PWs)   bands (ev):

   -64.7596 -64.7594 -64.7594 -64.7594 -32.6785 -32.6785 -32.6785 -32.6768
   -32.6768 -32.6765 -32.6765 -32.6765 -32.5666 -32.5663 -32.5663 -32.5663
    -9.2616  -9.2468  -9.2468  -9.2468  -9.1986  -9.1986  -9.1986  -9.1832
    -9.1832  -9.1671  -9.1671  -9.1671  -9.0967  -9.0967  -9.0967  -9.0724
    -9.0724  -9.0724  -9.0486  -9.0486  -0.9308   0.3167   0.3167   0.3167
     3.0157   3.0157   3.0157   3.4615   7.8949   7.8949   7.8949   8.8085
     8.8085   8.8085   9.0834   9.0834   9.2654   9.2654   9.2654  10.3781
    10.3781  10.3781  10.5124  10.6686  10.6686  11.4216  11.4216  11.4216
    11.6682  11.6682  11.6682  11.7399  11.7399  12.0213  12.2145  12.2145
    12.2145  12.7448  12.7448  12.7448  13.9924  13.9924  13.9924  14.8939
    16.3272  16.3272  16.3272  17.2100  17.2100  17.2100  17.5508  17.5508
    19.8456  20.3659  20.3659  20.3659  20.4776  20.4776  20.4776  21.8969
    22.5934  22.5934  22.6329  22.6329  22.6329  23.3163  23.3163  23.3163
    23.6885  23.6885  23.6885  24.2296  24.6282  24.6282  24.6696  24.6696
    24.6696  25.8681  25.8681  25.8681  26.4963  26.4963  26.4963  26.7619
    26.7619  27.5683  27.5683  27.5683  27.9813  28.4448  28.4448  28.4448
    28.9114  28.9114  29.0978  29.6662  29.6662  29.6662  29.9970  29.9970
    29.9970  31.1372  31.1372  31.1372  31.6924  31.6924  31.6924  31.7897
    31.7897  33.5302  33.5302  33.5302  33.5539  34.1198  34.3392  34.3392
    34.3392  35.4350  35.4350  35.4350  36.1489  36.1489  36.9518  36.9518
    36.9518  37.1335  37.1335  37.1335  37.4417  37.4417  37.5415  37.5415
    37.5415  38.0257  38.0257  38.0257  39.1351  39.1351  39.1351  39.5422
    39.5422  39.5422  39.6281  39.6281  39.6281  39.6598  39.6598  39.6801
    40.4991  40.6246  40.6246  40.6246  40.8899  41.2334  41.2334  41.2334
    41.9387  41.9387  41.9996  41.9996  41.9996  42.2305  42.3374  42.3374
    42.3374  42.9081  42.9081  42.9081  43.1990  43.1990  43.1990  43.7971
    43.7971  43.7971  44.0784  44.8432  44.8432  44.8432  45.5184  45.5184
    45.5184  45.9391  45.9391  46.1054  46.1054  46.1054  46.1508  46.6560
    46.6560  46.6560  47.2378  47.2378  47.2378  47.4512  47.4512  47.9388
    47.9388  47.9388  48.4498  49.0096  49.0096  49.0096  49.7154  49.7154
    49.7154  49.7843  50.2347  50.2347  50.5333  50.5333  50.5333  50.8368
    50.8368  50.8368  51.3384  51.4721  51.4722  51.4725  52.0292  52.0294

     occupation numbers
     1.0000   1.0000   1.0000   1.0000   1.0000   1.0000   1.0000   1.0000
     1.0000   1.0000   1.0000   1.0000   1.0000   1.0000   1.0000   1.0000
     1.0000   1.0000   1.0000   1.0000   1.0000   1.0000   1.0000   1.0000
     1.0000   1.0000   1.0000   1.0000   1.0000   1.0000   1.0000   1.0000
     1.0000   1.0000   1.0000   1.0000   1.0000   1.0000   1.0000   1.0000
     1.0000   1.0000   1.0000   1.0000   1.0000   1.0000   1.0000   1.0000
     1.0000   1.0000   1.0000   1.0000   1.0000   1.0000   1.0000   1.0000
     1.0000   1.0000   1.0000   1.0000   1.0000   1.0000   1.0000   1.0000
     1.0000   1.0000   1.0000   1.0000   1.0000   1.0000   1.0000   1.0000
     1.0000   1.0000   1.0000   1.0000   0.0000   0.0000   0.0000   0.0000
     0.0000   0.0000   0.0000   0.0000   0.0000   0.0000   0.0000   0.0000
     0.0000   0.0000   0.0000   0.0000   0.0000   0.0000   0.0000   0.0000
     0.0000   0.0000   0.0000   0.0000   0.0000   0.0000   0.0000   0.0000
     0.0000   0.0000   0.0000   0.0000   0.0000   0.0000   0.0000   0.0000
     0.0000   0.0000   0.0000   0.0000   0.0000   0.0000   0.0000   0.0000
     0.0000   0.0000   0.0000   0.0000   0.0000   0.0000   0.0000   0.0000
     0.0000   0.0000   0.0000   0.0000   0.0000   0.0000   0.0000   0.0000
     0.0000   0.0000   0.0000   0.0000   0.0000   0.0000   0.0000   0.0000
     0.0000   0.0000   0.0000   0.0000   0.0000   0.0000   0.0000   0.0000
     0.0000   0.0000   0.0000   0.0000   0.0000   0.0000   0.0000   0.0000
     0.0000   0.0000   0.0000   0.0000   0.0000   0.0000   0.0000   0.0000
     0.0000   0.0000   0.0000   0.0000   0.0000   0.0000   0.0000   0.0000
     0.0000   0.0000   0.0000   0.0000   0.0000   0.0000   0.0000   0.0000
     0.0000   0.0000   0.0000   0.0000   0.0000   0.0000   0.0000   0.0000
     0.0000   0.0000   0.0000   0.0000   0.0000   0.0000   0.0000   0.0000
     0.0000   0.0000   0.0000   0.0000   0.0000   0.0000   0.0000   0.0000
     0.0000   0.0000   0.0000   0.0000   0.0000   0.0000   0.0000   0.0000
     0.0000   0.0000   0.0000   0.0000   0.0000   0.0000   0.0000   0.0000
     0.0000   0.0000   0.0000   0.0000   0.0000   0.0000   0.0000   0.0000
     0.0000   0.0000   0.0000   0.0000   0.0000   0.0000   0.0000   0.0000
     0.0000   0.0000   0.0000   0.0000   0.0000   0.0000   0.0000   0.0000
     0.0000   0.0000   0.0000   0.0000   0.0000   0.0000   0.0000   0.0000

[...]

          k = 0.3333 0.3333 0.3333 (  4530 PWs)   bands (ev):

   -64.7595 -64.7595 -64.7595 -64.7595 -32.6784 -32.6783 -32.6779 -32.6777
   -32.6767 -32.6766 -32.6765 -32.6763 -32.5665 -32.5664 -32.5663 -32.5663
    -9.2575  -9.2551  -9.2488  -9.2470  -9.2037  -9.2014  -9.1956  -9.1943
    -9.1753  -9.1701  -9.1640  -9.1612  -9.0919  -9.0919  -9.0816  -9.0743
    -9.0723  -9.0644  -9.0629  -9.0605  -0.1828   0.1200   0.2205   0.3084
     2.4842   2.6419   2.9952   2.9989   7.8763   7.9651   8.1156   8.3501
     8.5736   8.7735   8.9933   9.0192   9.3801   9.7267   9.7375  10.0773
    10.8231  10.8260  10.9460  11.0918  11.2063  11.3491  11.4170  11.4989
    11.6055  11.6574  11.7375  11.9349  12.0013  12.0145  12.2042  12.3826
    12.4966  12.8020  12.8940  12.9655  13.9082  14.4444  14.7927  15.0367
    15.4014  16.0044  16.2757  16.3504  16.4457  16.8366  17.0515  17.2103
    19.1215  19.5398  19.7602  19.9955  20.4575  20.9767  20.9881  21.3784
    21.3843  21.5419  21.6181  22.0428  22.3399  22.4716  22.7581  23.0223
    23.1517  23.3505  23.6811  24.4171  24.6173  24.7694  25.3707  25.3980
    25.8884  26.0604  26.2635  26.6102  26.9944  26.9995  27.0706  27.3404
    27.5629  27.6956  28.0942  28.3561  28.4841  28.5927  28.8728  28.9624
    29.0316  29.6885  29.9687  30.0750  30.2245  30.4841  30.7367  30.8976
    31.1994  31.2752  31.5789  31.7959  32.1255  32.3274  32.3311  32.6168
    32.8029  33.0916  33.2852  33.5093  33.6210  33.7194  33.8366  34.2855
    34.4505  34.7248  34.7853  34.9133  35.0944  35.2935  35.5262  35.8010
    35.9973  36.2353  36.2800  36.4130  36.5403  36.9581  37.2490  37.2737
    37.5204  37.7585  37.9446  38.0242  38.2938  38.3362  38.4149  38.9430
    39.0014  39.1411  39.1674  39.3970  39.6228  39.6473  39.6475  39.6508
    39.6518  39.8914  40.0577  40.2743  40.3867  40.5347  40.6065  41.1089
    41.2380  41.3606  41.4274  41.6523  41.6570  41.9462  42.2127  42.4240
    42.4595  42.8252  43.4171  43.4885  43.6686  43.7164  44.2265  44.2401
    44.2916  44.5288  44.7031  45.0767  45.2973  45.5249  45.5520  45.7038
    45.8231  46.0372  46.1375  46.4258  46.5267  46.7118  46.7269  47.1386
    47.2224  47.3099  47.4391  47.5142  47.6151  47.9199  48.2933  48.3343
    48.4063  48.5302  48.5812  48.7441  48.9470  49.0674  49.1384  49.3983
    49.5909  49.6105  50.0193  50.0388  50.1895  50.3519  50.5891  50.6591
    50.7861  50.9606  51.2958  51.3364  51.5273  51.8424  51.8526  51.9234

     occupation numbers
     1.0000   1.0000   1.0000   1.0000   1.0000   1.0000   1.0000   1.0000
     1.0000   1.0000   1.0000   1.0000   1.0000   1.0000   1.0000   1.0000
     1.0000   1.0000   1.0000   1.0000   1.0000   1.0000   1.0000   1.0000
     1.0000   1.0000   1.0000   1.0000   1.0000   1.0000   1.0000   1.0000
     1.0000   1.0000   1.0000   1.0000   1.0000   1.0000   1.0000   1.0000
     1.0000   1.0000   1.0000   1.0000   1.0000   1.0000   1.0000   1.0000
     1.0000   1.0000   1.0000   1.0000   1.0000   1.0000   1.0000   1.0000
     1.0000   1.0000   1.0000   1.0000   1.0000   1.0000   1.0000   1.0000
     1.0000   1.0000   1.0000   1.0000   1.0000   1.0000   1.0000   1.0000
     1.0000   1.0000   1.0000   1.0000   0.0000   0.0000   0.0000   0.0000
     0.0000   0.0000   0.0000   0.0000   0.0000   0.0000   0.0000   0.0000
     0.0000   0.0000   0.0000   0.0000   0.0000   0.0000   0.0000   0.0000
     0.0000   0.0000   0.0000   0.0000   0.0000   0.0000   0.0000   0.0000
     0.0000   0.0000   0.0000   0.0000   0.0000   0.0000   0.0000   0.0000
     0.0000   0.0000   0.0000   0.0000   0.0000   0.0000   0.0000   0.0000
     0.0000   0.0000   0.0000   0.0000   0.0000   0.0000   0.0000   0.0000
     0.0000   0.0000   0.0000   0.0000   0.0000   0.0000   0.0000   0.0000
     0.0000   0.0000   0.0000   0.0000   0.0000   0.0000   0.0000   0.0000
     0.0000   0.0000   0.0000   0.0000   0.0000   0.0000   0.0000   0.0000
     0.0000   0.0000   0.0000   0.0000   0.0000   0.0000   0.0000   0.0000
     0.0000   0.0000   0.0000   0.0000   0.0000   0.0000   0.0000   0.0000
     0.0000   0.0000   0.0000   0.0000   0.0000   0.0000   0.0000   0.0000
     0.0000   0.0000   0.0000   0.0000   0.0000   0.0000   0.0000   0.0000
     0.0000   0.0000   0.0000   0.0000   0.0000   0.0000   0.0000   0.0000
     0.0000   0.0000   0.0000   0.0000   0.0000   0.0000   0.0000   0.0000
     0.0000   0.0000   0.0000   0.0000   0.0000   0.0000   0.0000   0.0000
     0.0000   0.0000   0.0000   0.0000   0.0000   0.0000   0.0000   0.0000
     0.0000   0.0000   0.0000   0.0000   0.0000   0.0000   0.0000   0.0000
     0.0000   0.0000   0.0000   0.0000   0.0000   0.0000   0.0000   0.0000
     0.0000   0.0000   0.0000   0.0000   0.0000   0.0000   0.0000   0.0000
     0.0000   0.0000   0.0000   0.0000   0.0000   0.0000   0.0000   0.0000
     0.0000   0.0000   0.0000   0.0000   0.0000   0.0000   0.0000   0.0000

     highest occupied, lowest unoccupied level (ev):    13.4515   13.9082

!    total energy              =   -1705.51066835 Ry
     estimated scf accuracy    <       0.00000005 Ry

     The total energy is the sum of the following terms:
     one-electron contribution =    -547.24983775 Ry
     hartree contribution      =     360.56241703 Ry
     xc contribution           =    -380.67747985 Ry
     ewald contribution        =   -1138.14576779 Ry

     convergence has been achieved in   8 iterations

     Writing all to output data dir bands_nm/myprefix.save/

     General routines

     Parallel routines

   This run was terminated on:  21:49:43  15Jul2023

   JOB DONE.