     Program PWSCF v.7.1 starts on 15Jul2023 at 18:25:32

     Reading input from espresso_2980.pwi
Warning: card &CELL ignored
Warning: card / ignored

     Current dimensions of program PWSCF are:
     Max number of different atomic species (ntypx) = 10
     Max number of k-points (npk) =  40000
     Max angular momentum in pseudopotentials (lmaxx) =  4
     file Tm.paw.z_23.atompaw.wentzcovitch.v1.2.upf: wavefunction(s)  6S 0P 5D 0D 4F 0F renormalized
     file O.pbe-n-kjpaw_psl.0.1.UPF: wavefunction(s)  2P renormalized
     Message from routine setup:
     using ibrav=0 with symmetry is DISCOURAGED, use correct ibrav instead

     K-points division:     npool     =       2
     R & G space division:  proc/nbgrp/npool/nimage =       4
     Subspace diagonalization in iterative solution of the eigenvalue problem:
     one sub-group per band group will be used

     Using Slab Decomposition

     bravais-lattice index     =            0
     lattice parameter (alat)  =      10.7485  a.u.
     unit-cell volume          =    1305.4219 (a.u.)^3
     number of atoms/cell      =           14
     number of atomic types    =            3
     number of electrons       =       160.00
     number of Kohn-Sham states=          256
     kinetic-energy cutoff     =      30.0000  Ry
     charge density cutoff     =     240.0000  Ry
     scf convergence threshold =      1.0E-06
     mixing beta               =       0.7000
     number of iterations used =            8  plain     mixing
     Exchange-correlation= SLA  PW   PBX  PBC
                           (   1   4   3   4   0   0   0)

     celldm(1)=  10.748510  celldm(2)=   0.000000  celldm(3)=   0.000000
     celldm(4)=   0.000000  celldm(5)=   0.000000  celldm(6)=   0.000000

     crystal axes: (cart. coord. in units of alat)
               a(1) = (   1.000000   0.000000   0.000000 )
               a(2) = (  -0.834200   0.551463   0.000000 )
               a(3) = (   0.000000   0.000000   1.906295 )

     reciprocal axes: (cart. coord. in units 2 pi/alat)
               b(1) = (  1.000000  1.512704  0.000000 )
               b(2) = (  0.000000  1.813359  0.000000 )
               b(3) = (  0.000000  0.000000  0.524578 )

     PseudoPot. # 1 for Ca read from file:
     /lustre07/scratch/pragov/crystal_structure_design/utils/SSSP/Ca_pbe_v1.uspp.F.UPF
     MD5 check sum: 403a4c14b9e4d4dfdc3024c9a3812218
     Pseudo is Ultrasoft + core correction, Zval = 10.0
     Generated by new atomic code, or converted to UPF format
     Using radial grid of  845 points,  6 beta functions with:
                l(1) =   0
                l(2) =   0
                l(3) =   1
                l(4) =   1
                l(5) =   2
                l(6) =   2
     Q(r) pseudized with  8 coefficients,  rinner =    1.500   1.500   1.500
                                                       1.500   1.500

     PseudoPot. # 2 for Tm read from file:
     /lustre07/scratch/pragov/crystal_structure_design/utils/SSSP/Tm.paw.z_23.atompaw.wentzcovitch.v1.2.upf
     MD5 check sum: 65ac1a59d66520b67f41930ed0a84655
     Pseudo is Projector augmented-wave + core cor, Zval = 23.0
     Generated using ATOMPAW code
     Shape of augmentation charge: BESSEL
     Using radial grid of 1116 points,  8 beta functions with:
                l(1) =   0
                l(2) =   0
                l(3) =   1
                l(4) =   1
                l(5) =   2
                l(6) =   2
                l(7) =   3
                l(8) =   3
     Q(r) pseudized with 0 coefficients

     PseudoPot. # 3 for O  read from file:
     /lustre07/scratch/pragov/crystal_structure_design/utils/SSSP/O.pbe-n-kjpaw_psl.0.1.UPF
     MD5 check sum: 0234752ac141de4415c5fc33072bef88
     Pseudo is Projector augmented-wave + core cor, Zval =  6.0
     Generated using "atomic" code by A. Dal Corso  v.5.0.99 svn rev. 10869
     Shape of augmentation charge: BESSEL
     Using radial grid of 1095 points,  4 beta functions with:
                l(1) =   0
                l(2) =   0
                l(3) =   1
                l(4) =   1
     Q(r) pseudized with 0 coefficients

     atomic species   valence    mass     pseudopotential
        Ca            10.00    40.07800     Ca( 1.00)
        Tm            23.00   168.93422     Tm( 1.00)
        O              6.00    15.99900     O ( 1.00)

      4 Sym. Ops., with inversion, found ( 2 have fractional translation)

                                    s                        frac. trans.

      isym =  1     identity

 cryst.   s( 1) = (     1          0          0      )
                  (     0          1          0      )
                  (     0          0          1      )

 cart.    s( 1) = (  1.0000000  0.0000000  0.0000000 )
                  (  0.0000000  1.0000000  0.0000000 )
                  (  0.0000000  0.0000000  1.0000000 )

      isym =  2     180 deg rotation - cart. axis [0,0,1]

 cryst.   s( 2) = (    -1          0          0      )    f =(  0.0000000 )
                  (     0         -1          0      )       (  0.0000000 )
                  (     0          0          1      )       ( -0.5000000 )

 cart.    s( 2) = ( -1.0000000 -0.0000000  0.0000000 )    f =(  0.0000000 )
                  (  0.0000000 -1.0000000  0.0000000 )       (  0.0000000 )
                  (  0.0000000  0.0000000  1.0000000 )       ( -0.9531473 )

      isym =  3     inversion

 cryst.   s( 3) = (    -1          0          0      )
                  (     0         -1          0      )
                  (     0          0         -1      )

 cart.    s( 3) = ( -1.0000000 -0.0000000  0.0000000 )
                  (  0.0000000 -1.0000000  0.0000000 )
                  (  0.0000000  0.0000000 -1.0000000 )

      isym =  4     inv. 180 deg rotation - cart. axis [0,0,1]

 cryst.   s( 4) = (     1          0          0      )    f =(  0.0000000 )
                  (     0          1          0      )       (  0.0000000 )
                  (     0          0         -1      )       (  0.5000000 )

 cart.    s( 4) = (  1.0000000  0.0000000  0.0000000 )    f =(  0.0000000 )
                  (  0.0000000  1.0000000  0.0000000 )       (  0.0000000 )
                  (  0.0000000  0.0000000 -1.0000000 )       (  0.9531473 )

   Cartesian axes

     site n.     atom                  positions (alat units)
         1           Ca  tau(   1) = (   0.7955088   0.0614815   0.4765736  )
         2           Ca  tau(   2) = (  -0.6297084   0.4899812   1.4297209  )
         3           Tm  tau(   3) = (   0.3260197   0.2026360   0.8124036  )
         4           Tm  tau(   4) = (   0.3260197   0.2026360   0.1407436  )
         5           Tm  tau(   5) = (  -0.1602193   0.3488266   1.0938909  )
         6           Tm  tau(   6) = (  -0.1602193   0.3488266   1.7655509  )
         7           O   tau(   7) = (   0.0000000   0.0000000   0.0000000  )
         8           O   tau(   8) = (   0.0000000   0.0000000   0.9531473  )
         9           O   tau(   9) = (   0.1493716   0.2557463   0.4765736  )
        10           O   tau(  10) = (   0.5135336   0.1462589   1.1667266  )
        11           O   tau(  11) = (   0.5135336   0.1462589   1.6927152  )
        12           O   tau(  12) = (   0.0164288   0.2957163   1.4297209  )
        13           O   tau(  13) = (  -0.3477332   0.4052037   0.7395679  )
        14           O   tau(  14) = (  -0.3477332   0.4052037   0.2135793  )

   Crystallographic axes

     site n.     atom                  positions (cryst. coord.)
         1           Ca  tau(   1) = (  0.8885120  0.1114880  0.2500000  )
         2           Ca  tau(   2) = (  0.1114880  0.8885120  0.7500000  )
         3           Tm  tau(   3) = (  0.6325480  0.3674520  0.4261690  )
         4           Tm  tau(   4) = (  0.6325480  0.3674520  0.0738310  )
         5           Tm  tau(   5) = (  0.3674520  0.6325480  0.5738310  )
         6           Tm  tau(   6) = (  0.3674520  0.6325480  0.9261690  )
         7           O   tau(   7) = (  0.0000000  0.0000000  0.0000000  )
         8           O   tau(   8) = (  0.0000000  0.0000000  0.5000000  )
         9           O   tau(   9) = (  0.5362400  0.4637600  0.2500000  )
        10           O   tau(  10) = (  0.7347800  0.2652200  0.6120390  )
        11           O   tau(  11) = (  0.7347800  0.2652200  0.8879610  )
        12           O   tau(  12) = (  0.4637600  0.5362400  0.7500000  )
        13           O   tau(  13) = (  0.2652200  0.7347800  0.3879610  )
        14           O   tau(  14) = (  0.2652200  0.7347800  0.1120390  )

     number of k points=    10
                       cart. coord. in units 2pi/alat
        k(    1) = (   0.0000000   0.0000000   0.0000000), wk =   0.0740741
        k(    2) = (   0.0000000   0.0000000   0.1748593), wk =   0.1481481
        k(    3) = (   0.0000000   0.6044532   0.0000000), wk =   0.1481481
        k(    4) = (   0.0000000   0.6044532   0.1748593), wk =   0.2962963
        k(    5) = (   0.3333333   0.5042346   0.0000000), wk =   0.1481481
        k(    6) = (   0.3333333   0.5042346   0.1748593), wk =   0.2962963
        k(    7) = (   0.3333333   1.1086878   0.0000000), wk =   0.1481481
        k(    8) = (   0.3333333   1.1086878   0.1748593), wk =   0.2962963
        k(    9) = (   0.3333333  -0.1002186   0.0000000), wk =   0.1481481
        k(   10) = (   0.3333333  -0.1002186   0.1748593), wk =   0.2962963

                       cryst. coord.
        k(    1) = (   0.0000000   0.0000000   0.0000000), wk =   0.0740741
        k(    2) = (   0.0000000   0.0000000   0.3333333), wk =   0.1481481
        k(    3) = (   0.0000000   0.3333333   0.0000000), wk =   0.1481481
        k(    4) = (   0.0000000   0.3333333   0.3333333), wk =   0.2962963
        k(    5) = (   0.3333333   0.0000000   0.0000000), wk =   0.1481481
        k(    6) = (   0.3333333   0.0000000   0.3333333), wk =   0.2962963
        k(    7) = (   0.3333333   0.3333333   0.0000000), wk =   0.1481481
        k(    8) = (   0.3333333   0.3333333   0.3333333), wk =   0.2962963
        k(    9) = (   0.3333333  -0.3333333   0.0000000), wk =   0.1481481
        k(   10) = (   0.3333333  -0.3333333   0.3333333), wk =   0.2962963

     Check: negative core charge=   -0.000012

     Initial potential from superposition of free atoms

     starting charge     159.9716, renormalised to     160.0000
     Starting wfcs are  180 randomized atomic wfcs +   76 random wfcs
     Checking if some PAW data can be deallocated...

     Self-consistent Calculation

     iteration #  1     ecut=    30.00 Ry     beta= 0.70
     Davidson diagonalization with overlap

     ethr =  1.00E-02,  avg # of iterations = 12.6

     total energy              =   -4268.11417980 Ry
     estimated scf accuracy    <       3.19395859 Ry

[...]

     c_bands:  1 eigenvalues not converged
     ethr =  5.59E-05,  avg # of iterations =  3.8

[...]

     c_bands:  1 eigenvalues not converged
     ethr =  2.09E-06,  avg # of iterations = 15.2

[...]

     total energy              =   -4269.80717878 Ry
     estimated scf accuracy    <       0.00000200 Ry

     iteration # 28     ecut=    30.00 Ry     beta= 0.70
     Davidson diagonalization with overlap

     ethr =  9.67E-10,  avg # of iterations =  1.0

     End of self-consistent calculation

          k = 0.0000 0.0000 0.0000 (  3627 PWs)   bands (ev):

   -37.3285 -37.3253 -37.2905 -37.2874 -27.3849 -27.3848 -11.3046 -11.2221
   -10.8752 -10.8422 -10.6519 -10.6365 -10.5261 -10.3590 -10.1819 -10.1749
   -10.1599 -10.1529  -8.5830  -8.5688  -8.5433  -8.4968  -8.1876  -8.1876
    -5.7949  -5.4616  -4.8858  -4.7433  -4.6880  -4.4667  -4.3391  -4.0387
     7.1689   7.5227   8.0099   8.2446   8.3711   8.4119   8.5501   8.5504
     8.6005   8.8421   8.8582   9.0559   9.1202   9.2596   9.3418   9.5602
     9.6449   9.7496   9.7997   9.8909   9.9051   9.9211   9.9803  10.0702
    11.4646  11.4914  11.5038  11.5610  11.5773  11.6138  11.6219  11.6309
    11.6316  11.6362  11.6410  11.6485  11.6585  11.6608  11.6617  11.6713
    11.6787  11.7239  11.7411  11.7866  11.7935  11.8042  11.8398  12.0944
    12.1581  12.1631  12.1758  12.1768  15.1848  15.8449  15.9936  16.1562
    17.0522  17.1702  17.1707  17.2885  17.3473  17.7365  17.7720  18.0025
    18.2865  18.3820  18.7525  18.7615  19.0199  19.0453  19.2014  19.2285
    19.3672  19.4803  19.5088  20.1807  20.5505  20.5975  20.9198  21.1888
    21.3095  21.5466  21.8692  21.9497  23.1199  23.2270  23.3407  23.6976
    23.7617  24.3104  24.4628  24.5257  25.1240  25.1680  25.9196  25.9303
    26.0935  26.5993  27.0954  28.1021  28.6674  29.3830  29.5030  29.5274
    29.9102  30.4906  30.9055  31.2717  31.4136  31.8320  32.1053  32.4680
    32.5509  32.8123  33.0868  33.1207  33.7150  34.1342  35.0195  35.7927
    35.9595  36.0424  36.0659  36.3584  36.6248  37.4073  37.4560  37.4634
    37.5315  37.5477  37.9623  38.0976  38.2261  38.3005  38.6271  39.0186
    39.0274  39.0954  40.0032  40.0545  40.1818  40.3414  40.5224  40.8016
    41.1341  41.1565  41.2422  41.3375  41.4624  42.0399  42.0584  42.1955
    42.6309  42.6430  42.8235  42.9419  43.0608  43.2418  43.3928  43.5115
    43.7694  44.4892  44.4965  44.7596  44.9148  44.9723  45.2362  46.0298
    46.3098  46.3851  46.7686  46.8539  46.9200  47.2109  47.4412  47.7231
    47.8349  48.0782  48.0951  48.3309  48.4077  48.6705  48.7705  48.9667
    48.9907  49.7878  50.2429  50.3366  50.3447  50.5762  50.7542  50.8460
    50.9664  51.1231  51.1669  51.2322  51.5750  52.2841  52.4270  52.6038
    52.7149  52.7478  52.9526  53.0138  53.7646  54.4144  54.5391  54.7342
    54.8864  54.9958  55.2439  55.8408  56.0151  56.1761  56.4875  56.9813
    57.1823  57.4196  58.0151  58.0594  58.5781  58.7008  58.8002  58.9169

     occupation numbers
     1.0000   1.0000   1.0000   1.0000   1.0000   1.0000   1.0000   1.0000
     1.0000   1.0000   1.0000   1.0000   1.0000   1.0000   1.0000   1.0000
     1.0000   1.0000   1.0000   1.0000   1.0000   1.0000   1.0000   1.0000
     1.0000   1.0000   1.0000   1.0000   1.0000   1.0000   1.0000   1.0000
     1.0000   1.0000   1.0000   1.0000   1.0000   1.0000   1.0000   1.0000
     1.0000   1.0000   1.0000   1.0000   1.0000   1.0000   1.0000   1.0000
     1.0000   1.0000   1.0000   1.0000   1.0000   1.0000   1.0000   1.0000
     1.0000   1.0000   1.0000   1.0000   1.0000   1.0000   1.0000   1.0000
     1.0000   1.0000   1.0000   1.0000   1.0000   1.0000   1.0000   1.0000
     1.0000   1.0000   1.0000   1.0000   1.0000   1.0000   1.0000   1.0000
     0.0000   0.0000   0.0000   0.0000   0.0000   0.0000   0.0000   0.0000
     0.0000   0.0000   0.0000   0.0000   0.0000   0.0000   0.0000   0.0000
     0.0000   0.0000   0.0000   0.0000   0.0000   0.0000   0.0000   0.0000
     0.0000   0.0000   0.0000   0.0000   0.0000   0.0000   0.0000   0.0000
     0.0000   0.0000   0.0000   0.0000   0.0000   0.0000   0.0000   0.0000
     0.0000   0.0000   0.0000   0.0000   0.0000   0.0000   0.0000   0.0000
     0.0000   0.0000   0.0000   0.0000   0.0000   0.0000   0.0000   0.0000
     0.0000   0.0000   0.0000   0.0000   0.0000   0.0000   0.0000   0.0000
     0.0000   0.0000   0.0000   0.0000   0.0000   0.0000   0.0000   0.0000
     0.0000   0.0000   0.0000   0.0000   0.0000   0.0000   0.0000   0.0000
     0.0000   0.0000   0.0000   0.0000   0.0000   0.0000   0.0000   0.0000
     0.0000   0.0000   0.0000   0.0000   0.0000   0.0000   0.0000   0.0000
     0.0000   0.0000   0.0000   0.0000   0.0000   0.0000   0.0000   0.0000
     0.0000   0.0000   0.0000   0.0000   0.0000   0.0000   0.0000   0.0000
     0.0000   0.0000   0.0000   0.0000   0.0000   0.0000   0.0000   0.0000
     0.0000   0.0000   0.0000   0.0000   0.0000   0.0000   0.0000   0.0000
     0.0000   0.0000   0.0000   0.0000   0.0000   0.0000   0.0000   0.0000
     0.0000   0.0000   0.0000   0.0000   0.0000   0.0000   0.0000   0.0000
     0.0000   0.0000   0.0000   0.0000   0.0000   0.0000   0.0000   0.0000
     0.0000   0.0000   0.0000   0.0000   0.0000   0.0000   0.0000   0.0000
     0.0000   0.0000   0.0000   0.0000   0.0000   0.0000   0.0000   0.0000
     0.0000   0.0000   0.0000   0.0000   0.0000   0.0000   0.0000   0.0000

[...]

          k = 0.3333-0.1002 0.1749 (  3628 PWs)   bands (ev):

   -37.3185 -37.3170 -37.2989 -37.2973 -27.3849 -27.3849 -11.2108 -11.1797
   -11.0362 -10.9667 -10.6665 -10.5718 -10.4331 -10.3824 -10.2247 -10.2209
   -10.1138 -10.1102  -8.6127  -8.5878  -8.4987  -8.4939  -8.1871  -8.1867
    -5.4667  -5.4427  -5.0901  -4.8995  -4.5450  -4.4489  -4.2730  -4.2124
     7.5414   7.6175   7.7809   7.8968   8.3560   8.4983   8.5105   8.5354
     8.6677   8.8446   9.0527   9.1979   9.2432   9.2466   9.3935   9.4519
     9.5534   9.5750   9.6347   9.8905   9.9131   9.9830   9.9916  10.0254
    11.5312  11.5382  11.5486  11.5646  11.5858  11.6094  11.6101  11.6170
    11.6256  11.6371  11.6425  11.6557  11.6723  11.6786  11.6810  11.7038
    11.7102  11.7137  11.7336  11.7687  11.8133  11.8179  11.9007  11.9597
    12.0448  12.0575  12.0602  12.0741  14.8003  15.0804  16.2210  16.6011
    16.9003  17.1108  17.3064  17.4236  17.7991  17.8751  18.3037  18.4193
    18.4298  18.5060  18.6805  18.7965  18.8142  19.0481  19.0958  19.1680
    19.4951  19.6245  19.6435  19.8536  20.3124  20.3247  20.4766  20.5302
    21.2146  21.2769  21.3871  21.4594  22.7399  22.8804  22.9339  23.0233
    23.8970  24.2710  24.6893  25.2403  25.7493  26.2699  26.6991  27.0359
    27.3882  27.7839  28.3948  28.9726  29.2468  29.5342  29.7589  29.9039
    29.9845  30.2046  30.8149  31.0740  31.1239  31.1520  31.3893  31.6631
    32.6834  32.9960  33.3190  33.4458  33.6778  33.9418  34.4720  34.6871
    35.2681  35.3610  35.6524  36.3157  36.3491  36.3692  36.6882  36.8923
    37.0911  37.2138  37.2828  37.6331  38.1325  38.1971  38.4407  38.5987
    39.1304  39.4538  39.5418  39.6518  39.8458  39.9588  40.4850  40.9547
    41.0062  41.0559  41.0773  41.5607  41.6672  41.6806  41.8343  41.9821
    42.2147  42.3708  42.3802  42.6001  42.9813  43.3220  43.4903  43.8461
    44.1477  44.7369  44.7681  44.8884  44.9195  45.3360  45.5561  45.7063
    45.8254  46.1076  46.4486  46.4871  46.6358  46.8537  47.0986  47.6407
    47.7469  48.2610  48.3189  48.5924  48.9768  49.1083  49.3117  49.4461
    49.5683  49.7356  50.0829  50.1576  50.4200  50.8755  51.0886  51.5175
    51.5741  51.7530  51.9721  52.0916  52.4781  52.7431  52.8349  53.5775
    53.6520  53.7097  53.8441  54.4356  54.6334  54.6693  54.8508  55.1085
    55.2339  55.5305  55.8146  55.8741  56.1917  56.2002  56.5283  56.6828
    56.9112  57.2054  57.3704  57.4468  57.7549  58.0766  58.1333  58.4227

     occupation numbers
     1.0000   1.0000   1.0000   1.0000   1.0000   1.0000   1.0000   1.0000
     1.0000   1.0000   1.0000   1.0000   1.0000   1.0000   1.0000   1.0000
     1.0000   1.0000   1.0000   1.0000   1.0000   1.0000   1.0000   1.0000
     1.0000   1.0000   1.0000   1.0000   1.0000   1.0000   1.0000   1.0000
     1.0000   1.0000   1.0000   1.0000   1.0000   1.0000   1.0000   1.0000
     1.0000   1.0000   1.0000   1.0000   1.0000   1.0000   1.0000   1.0000
     1.0000   1.0000   1.0000   1.0000   1.0000   1.0000   1.0000   1.0000
     1.0000   1.0000   1.0000   1.0000   1.0000   1.0000   1.0000   1.0000
     1.0000   1.0000   1.0000   1.0000   1.0000   1.0000   1.0000   1.0000
     1.0000   1.0000   1.0000   1.0000   1.0000   1.0000   1.0000   1.0000
     0.0000   0.0000   0.0000   0.0000   0.0000   0.0000   0.0000   0.0000
     0.0000   0.0000   0.0000   0.0000   0.0000   0.0000   0.0000   0.0000
     0.0000   0.0000   0.0000   0.0000   0.0000   0.0000   0.0000   0.0000
     0.0000   0.0000   0.0000   0.0000   0.0000   0.0000   0.0000   0.0000
     0.0000   0.0000   0.0000   0.0000   0.0000   0.0000   0.0000   0.0000
     0.0000   0.0000   0.0000   0.0000   0.0000   0.0000   0.0000   0.0000
     0.0000   0.0000   0.0000   0.0000   0.0000   0.0000   0.0000   0.0000
     0.0000   0.0000   0.0000   0.0000   0.0000   0.0000   0.0000   0.0000
     0.0000   0.0000   0.0000   0.0000   0.0000   0.0000   0.0000   0.0000
     0.0000   0.0000   0.0000   0.0000   0.0000   0.0000   0.0000   0.0000
     0.0000   0.0000   0.0000   0.0000   0.0000   0.0000   0.0000   0.0000
     0.0000   0.0000   0.0000   0.0000   0.0000   0.0000   0.0000   0.0000
     0.0000   0.0000   0.0000   0.0000   0.0000   0.0000   0.0000   0.0000
     0.0000   0.0000   0.0000   0.0000   0.0000   0.0000   0.0000   0.0000
     0.0000   0.0000   0.0000   0.0000   0.0000   0.0000   0.0000   0.0000
     0.0000   0.0000   0.0000   0.0000   0.0000   0.0000   0.0000   0.0000
     0.0000   0.0000   0.0000   0.0000   0.0000   0.0000   0.0000   0.0000
     0.0000   0.0000   0.0000   0.0000   0.0000   0.0000   0.0000   0.0000
     0.0000   0.0000   0.0000   0.0000   0.0000   0.0000   0.0000   0.0000
     0.0000   0.0000   0.0000   0.0000   0.0000   0.0000   0.0000   0.0000
     0.0000   0.0000   0.0000   0.0000   0.0000   0.0000   0.0000   0.0000
     0.0000   0.0000   0.0000   0.0000   0.0000   0.0000   0.0000   0.0000

     highest occupied, lowest unoccupied level (ev):    12.0944   11.7759

!    total energy              =   -4269.80717784 Ry
     estimated scf accuracy    <       0.00000038 Ry

     The total energy is the sum of the following terms:
     one-electron contribution =   -1349.95114961 Ry
     hartree contribution      =     688.82300589 Ry
     xc contribution           =    -226.26055723 Ry
     ewald contribution        =   -1353.18364191 Ry
     one-center paw contrib.   =   -2029.23483497 Ry
      -> PAW hartree energy AE =       0.00000000 Ry
      -> PAW hartree energy PS =       0.00000000 Ry
      -> PAW xc energy AE      =       0.00000000 Ry
      -> PAW xc energy PS      =       0.00000000 Ry
      -> total E_H with PAW    =     688.82300589 Ry
      -> total E_XC with PAW   =    -226.26055723 Ry

     convergence has been achieved in  28 iterations

     Writing all to output data dir bands_nm/myprefix.save/

     General routines

     Parallel routines

     PAW routines

   This run was terminated on:  18:27:33  15Jul2023

   JOB DONE.