     Program PWSCF v.7.1 starts on 13Jul2023 at  6:39:18

     Reading input from espresso_3120.pwi
Warning: card &CELL ignored
Warning: card / ignored

     Current dimensions of program PWSCF are:
     Max number of different atomic species (ntypx) = 10
     Max number of k-points (npk) =  40000
     Max angular momentum in pseudopotentials (lmaxx) =  4
     Message from routine setup:
     using ibrav=0 with symmetry is DISCOURAGED, use correct ibrav instead

     K-points division:     npool     =       2
     R & G space division:  proc/nbgrp/npool/nimage =       8
     Subspace diagonalization in iterative solution of the eigenvalue problem:
     a serial algorithm will be used

     Using Slab Decomposition

     bravais-lattice index     =            0
     lattice parameter (alat)  =       9.7452  a.u.
     unit-cell volume          =     904.1186 (a.u.)^3
     number of atoms/cell      =            8
     number of atomic types    =            3
     number of electrons       =        60.00
     number of Kohn-Sham states=           64
     kinetic-energy cutoff     =      30.0000  Ry
     charge density cutoff     =     240.0000  Ry
     scf convergence threshold =      1.0E-06
     mixing beta               =       0.7000
     number of iterations used =            8  plain     mixing
     Exchange-correlation=  SLA  PW   PBX  PBC
                           (   1   4   3   4   0   0   0)

     celldm(1)=   9.745241  celldm(2)=   0.000000  celldm(3)=   0.000000
     celldm(4)=   0.000000  celldm(5)=   0.000000  celldm(6)=   0.000000

     crystal axes: (cart. coord. in units of alat)
               a(1) = (   1.000000   0.000000   0.000000 )
               a(2) = (  -0.118779   0.992921   0.000000 )
               a(3) = (  -0.118779  -0.133835   0.983860 )

     reciprocal axes: (cart. coord. in units 2 pi/alat)
               b(1) = (  1.000000  0.119626  0.137000 )
               b(2) = (  0.000000  1.007130  0.137000 )
               b(3) = (  0.000000  0.000000  1.016405 )

     PseudoPot. # 1 for Tl read from file:
     /lustre07/scratch/pragov/crystal_structure_design/utils/SSSP/Tl_pbe_v1.2.uspp.F.UPF
     MD5 check sum: b76cf1f7e72655a2b2c53cf6385d7059
     Pseudo is Ultrasoft + core correction, Zval = 13.0
     Generated by new atomic code, or converted to UPF format
     Using radial grid of  899 points,  6 beta functions with:
                l(1) =   0
                l(2) =   0
                l(3) =   1
                l(4) =   1
                l(5) =   2
                l(6) =   2
     Q(r) pseudized with  6 coefficients,  rinner =    1.100   1.100   1.100
                                                       1.100   1.100

     PseudoPot. # 2 for As read from file:
     /lustre07/scratch/pragov/crystal_structure_design/utils/SSSP/As.pbe-n-rrkjus_psl.0.2.UPF
     MD5 check sum: 767315de957beeeb34f87d97bf945c8f
     Pseudo is Ultrasoft + core correction, Zval =  5.0
     Generated using "atomic" code by A. Dal Corso  v.5.0.99 svn rev. 10869
     Using radial grid of 1209 points,  4 beta functions with:
                l(1) =   0
                l(2) =   0
                l(3) =   1
                l(4) =   1
     Q(r) pseudized with 0 coefficients

     PseudoPot. # 3 for F  read from file:
     /lustre07/scratch/pragov/crystal_structure_design/utils/SSSP/f_pbe_v1.4.uspp.F.UPF
     MD5 check sum: 4c38b6a325caf53ec0e86aed9459de46
     Pseudo is Ultrasoft, Zval =  7.0
     Generated by new atomic code, or converted to UPF format
     Using radial grid of  799 points,  4 beta functions with:
                l(1) =   0
                l(2) =   0
                l(3) =   1
                l(4) =   1
     Q(r) pseudized with  8 coefficients,  rinner =    0.950   0.950   0.950

     atomic species   valence    mass     pseudopotential
        Tl            13.00   204.38000     Tl( 1.00)
        As             5.00    74.92159     As( 1.00)
        F              7.00    18.99840     F ( 1.00)

      2 Sym. Ops., with inversion, found

                                    s                        frac. trans.

      isym =  1     identity

 cryst.   s( 1) = (     1          0          0      )
                  (     0          1          0      )
                  (     0          0          1      )

 cart.    s( 1) = (  1.0000000 -0.0000000  0.0000000 )
                  (  0.0000000  1.0000000  0.0000000 )
                  (  0.0000000  0.0000000  1.0000000 )

      isym =  2     inversion

 cryst.   s( 2) = (    -1          0          0      )
                  (     0         -1          0      )
                  (     0          0         -1      )

 cart.    s( 2) = ( -1.0000000  0.0000000  0.0000000 )
                  (  0.0000000 -1.0000000 -0.0000000 )
                  (  0.0000000  0.0000000 -1.0000000 )

   Cartesian axes

     site n.     atom                  positions (alat units)
         1           Tl  tau(   1) = (   0.0000000   0.0000000   0.0000000  )
         2           As  tau(   2) = (   0.3812209   0.4295429   0.4919298  )
         3           F   tau(   3) = (   0.1191326   0.5346260   0.2942124  )
         4           F   tau(   4) = (   0.5166908   0.2670240   0.2197893  )
         5           F   tau(   5) = (   0.2457511   0.5920618   0.7640703  )
         6           F   tau(   6) = (   0.2037616   0.1443572   0.5694038  )
         7           F   tau(   7) = (   0.5586803   0.7147285   0.4144558  )
         8           F   tau(   8) = (   0.6433092   0.3244597   0.6896472  )

   Crystallographic axes

     site n.     atom                  positions (cryst. coord.)
         1           Tl  tau(   1) = (  0.0000000  0.0000000  0.0000000  )
         2           As  tau(   2) = (  0.5000000  0.5000000  0.5000000  )
         3           F   tau(   3) = (  0.2233950  0.5787450  0.2990390  )
         4           F   tau(   4) = (  0.5787450  0.2990390  0.2233950  )
         5           F   tau(   5) = (  0.4212550  0.7009610  0.7766050  )
         6           F   tau(   6) = (  0.2990390  0.2233950  0.5787450  )
         7           F   tau(   7) = (  0.7009610  0.7766050  0.4212550  )
         8           F   tau(   8) = (  0.7766050  0.4212550  0.7009610  )

     number of k points=    14
                       cart. coord. in units 2pi/alat
        k(    1) = (   0.0000000   0.0000000   0.0000000), wk =   0.0740741
        k(    2) = (   0.0000000   0.0000000   0.3388017), wk =   0.1481481
        k(    3) = (   0.0000000   0.3357099   0.0456668), wk =   0.1481481
        k(    4) = (   0.0000000   0.3357099   0.3844685), wk =   0.1481481
        k(    5) = (   0.0000000   0.3357099  -0.2931349), wk =   0.1481481
        k(    6) = (   0.3333333   0.0398753   0.0456668), wk =   0.1481481
        k(    7) = (   0.3333333   0.0398753   0.3844685), wk =   0.1481481
        k(    8) = (   0.3333333   0.0398753  -0.2931349), wk =   0.1481481
        k(    9) = (   0.3333333   0.3755852   0.0913336), wk =   0.1481481
        k(   10) = (   0.3333333   0.3755852   0.4301353), wk =   0.1481481
        k(   11) = (   0.3333333   0.3755852  -0.2474681), wk =   0.1481481
        k(   12) = (   0.3333333  -0.2958346  -0.0000000), wk =   0.1481481
        k(   13) = (   0.3333333  -0.2958346   0.3388017), wk =   0.1481481
        k(   14) = (   0.3333333  -0.2958346  -0.3388017), wk =   0.1481481

                       cryst. coord.
        k(    1) = (   0.0000000   0.0000000   0.0000000), wk =   0.0740741
        k(    2) = (   0.0000000   0.0000000   0.3333333), wk =   0.1481481
        k(    3) = (   0.0000000   0.3333333   0.0000000), wk =   0.1481481
        k(    4) = (   0.0000000   0.3333333   0.3333333), wk =   0.1481481
        k(    5) = (   0.0000000   0.3333333  -0.3333333), wk =   0.1481481
        k(    6) = (   0.3333333  -0.0000000   0.0000000), wk =   0.1481481
        k(    7) = (   0.3333333  -0.0000000   0.3333333), wk =   0.1481481
        k(    8) = (   0.3333333  -0.0000000  -0.3333333), wk =   0.1481481
        k(    9) = (   0.3333333   0.3333333  -0.0000000), wk =   0.1481481
        k(   10) = (   0.3333333   0.3333333   0.3333333), wk =   0.1481481
        k(   11) = (   0.3333333   0.3333333  -0.3333333), wk =   0.1481481
        k(   12) = (   0.3333333  -0.3333333   0.0000000), wk =   0.1481481
        k(   13) = (   0.3333333  -0.3333333   0.3333333), wk =   0.1481481
        k(   14) = (   0.3333333  -0.3333333  -0.3333333), wk =   0.1481481

     Check: negative core charge=   -0.000004

     Initial potential from superposition of free atoms

     starting charge      59.9949, renormalised to      60.0000

     negative rho (up, down):  5.151E-02 0.000E+00
     Starting wfcs are   37 randomized atomic wfcs +   27 random wfcs

     Self-consistent Calculation

     iteration #  1     ecut=    30.00 Ry     beta= 0.70
     Davidson diagonalization with overlap

     ethr =  1.00E-02,  avg # of iterations =  6.1

     negative rho (up, down):  5.126E-02 0.000E+00

     total energy              =    -454.59066855 Ry
     estimated scf accuracy    <       0.98132263 Ry

[...]

     total energy              =    -455.00847242 Ry
     estimated scf accuracy    <       0.00000123 Ry

     iteration #  7     ecut=    30.00 Ry     beta= 0.70
     Davidson diagonalization with overlap

     ethr =  2.05E-09,  avg # of iterations =  2.0

     negative rho (up, down):  5.061E-02 0.000E+00

     End of self-consistent calculation

          k = 0.0000 0.0000 0.0000 (  2511 PWs)   bands (ev):

   -22.2701 -20.8117 -20.7809 -20.7797 -20.1931 -20.1919  -8.6376  -7.0441
    -7.0420  -7.0419  -7.0231  -7.0231  -4.4661  -4.4653  -4.4559  -2.4449
    -2.4444  -2.1978  -1.9017  -1.9006  -1.2031  -1.2020  -1.1287  -0.9952
    -0.8763  -0.6887  -0.6879  -0.4144  -0.4138  -0.0516   5.4328   7.8401
     8.3071   8.3073  11.5019  11.5022  11.5644  11.7614  13.1640  13.1641
    15.9910  16.0434  16.0435  16.5799  16.5800  16.6827  18.3861  18.3861
    18.6737  19.4914  19.4916  20.9074  21.3803  21.3804  21.5618  22.0286
    23.2329  23.2329  24.7198  24.7200  24.7747  25.2304  26.1460  26.1462

     occupation numbers
     1.0000   1.0000   1.0000   1.0000   1.0000   1.0000   1.0000   1.0000
     1.0000   1.0000   1.0000   1.0000   1.0000   1.0000   1.0000   1.0000
     1.0000   1.0000   1.0000   1.0000   1.0000   1.0000   1.0000   1.0000
     1.0000   1.0000   1.0000   1.0000   1.0000   1.0000   0.0000   0.0000
     0.0000   0.0000   0.0000   0.0000   0.0000   0.0000   0.0000   0.0000
     0.0000   0.0000   0.0000   0.0000   0.0000   0.0000   0.0000   0.0000
     0.0000   0.0000   0.0000   0.0000   0.0000   0.0000   0.0000   0.0000
     0.0000   0.0000   0.0000   0.0000   0.0000   0.0000   0.0000   0.0000

[...]

          k = 0.3333-0.2958-0.3388 (  2507 PWs)   bands (ev):

   -22.2039 -20.8511 -20.7878 -20.7848 -20.2188 -20.2134  -8.4928  -7.0457
    -7.0300  -7.0288  -7.0238  -7.0079  -4.6168  -4.4326  -4.3654  -2.6057
    -2.3548  -2.2577  -2.0835  -1.9784  -1.4581  -1.1861  -1.1192  -0.9624
    -0.9605  -0.7810  -0.3833  -0.3222  -0.3068   0.3158   5.3241   7.5594
     7.7515   7.9027  11.1708  11.2518  11.6078  13.1191  13.5466  14.7522
    15.2275  15.4276  16.0112  16.9637  17.3048  17.9199  18.1029  18.6893
    18.8185  19.2778  20.4240  20.6502  20.9886  21.0108  21.5015  21.6710
    22.4401  22.6792  22.8655  23.8320  24.0617  24.9463  25.3772  25.8711

     occupation numbers
     1.0000   1.0000   1.0000   1.0000   1.0000   1.0000   1.0000   1.0000
     1.0000   1.0000   1.0000   1.0000   1.0000   1.0000   1.0000   1.0000
     1.0000   1.0000   1.0000   1.0000   1.0000   1.0000   1.0000   1.0000
     1.0000   1.0000   1.0000   1.0000   1.0000   1.0000   0.0000   0.0000
     0.0000   0.0000   0.0000   0.0000   0.0000   0.0000   0.0000   0.0000
     0.0000   0.0000   0.0000   0.0000   0.0000   0.0000   0.0000   0.0000
     0.0000   0.0000   0.0000   0.0000   0.0000   0.0000   0.0000   0.0000
     0.0000   0.0000   0.0000   0.0000   0.0000   0.0000   0.0000   0.0000

     highest occupied, lowest unoccupied level (ev):     0.3158    5.0515

!    total energy              =    -455.00847257 Ry
     estimated scf accuracy    <       0.00000026 Ry

     The total energy is the sum of the following terms:
     one-electron contribution =    -212.55294554 Ry
     hartree contribution      =     141.05954630 Ry
     xc contribution           =    -127.33615635 Ry
     ewald contribution        =    -256.17891698 Ry

     convergence has been achieved in   7 iterations

     Writing all to output data dir bands_nm/myprefix.save/

     General routines

     Parallel routines

   This run was terminated on:   6:39:27  13Jul2023

   JOB DONE.