     Program PWSCF v.7.1 starts on 15Jul2023 at 18: 0:20

     Reading input from espresso_22425.pwi
Warning: card &CELL ignored
Warning: card / ignored

     Current dimensions of program PWSCF are:
     Max number of different atomic species (ntypx) = 10
     Max number of k-points (npk) =  40000
     Max angular momentum in pseudopotentials (lmaxx) =  4
     file O.pbe-n-kjpaw_psl.0.1.UPF: wavefunction(s)  2P renormalized
     Message from routine setup:
     using ibrav=0 with symmetry is DISCOURAGED, use correct ibrav instead

     K-points division:     npool     =       2
     R & G space division:  proc/nbgrp/npool/nimage =       4
     Subspace diagonalization in iterative solution of the eigenvalue problem:
     one sub-group per band group will be used

     Using Slab Decomposition

     bravais-lattice index     =            0
     lattice parameter (alat)  =      12.7526  a.u.
     unit-cell volume          =    1453.0241 (a.u.)^3
     number of atoms/cell      =           18
     number of atomic types    =            3
     number of electrons       =       132.00
     number of Kohn-Sham states=          256
     kinetic-energy cutoff     =      30.0000  Ry
     charge density cutoff     =     240.0000  Ry
     scf convergence threshold =      1.0E-06
     mixing beta               =       0.7000
     number of iterations used =            8  plain     mixing
     Exchange-correlation= SLA  PW   PBX  PBC
                           (   1   4   3   4   0   0   0)

     celldm(1)=  12.752647  celldm(2)=   0.000000  celldm(3)=   0.000000
     celldm(4)=   0.000000  celldm(5)=   0.000000  celldm(6)=   0.000000

     crystal axes: (cart. coord. in units of alat)
               a(1) = (   1.000000   0.000000   0.000000 )
               a(2) = (   0.089891   0.995952   0.000000 )
               a(3) = (   0.180239   0.164703   0.703451 )

     reciprocal axes: (cart. coord. in units 2 pi/alat)
               b(1) = (  1.000000 -0.090257 -0.235088 )
               b(2) = (  0.000000  1.004065 -0.235088 )
               b(3) = (  0.000000  0.000000  1.421564 )

     PseudoPot. # 1 for Zn read from file:
     /lustre07/scratch/pragov/crystal_structure_design/utils/SSSP/Zn_pbe_v1.uspp.F.UPF
     MD5 check sum: df62231357ef9e81f77b2b3087fa5675
     Pseudo is Ultrasoft, Zval = 20.0
     Generated by new atomic code, or converted to UPF format
     Using radial grid of  943 points,  6 beta functions with:
                l(1) =   0
                l(2) =   0
                l(3) =   1
                l(4) =   1
                l(5) =   2
                l(6) =   2
     Q(r) pseudized with  8 coefficients,  rinner =    1.100   1.100   1.100
                                                       1.100   1.100

     PseudoPot. # 2 for P  read from file:
     /lustre07/scratch/pragov/crystal_structure_design/utils/SSSP/P.pbe-n-rrkjus_psl.1.0.0.UPF
     MD5 check sum: 8b930f418f0a4573dca56cd030ffe088
     Pseudo is Ultrasoft + core correction, Zval =  5.0
     Generated using "atomic" code by A. Dal Corso  v.5.1
     Using radial grid of 1147 points,  6 beta functions with:
                l(1) =   0
                l(2) =   0
                l(3) =   1
                l(4) =   1
                l(5) =   2
                l(6) =   2
     Q(r) pseudized with 0 coefficients

     PseudoPot. # 3 for O  read from file:
     /lustre07/scratch/pragov/crystal_structure_design/utils/SSSP/O.pbe-n-kjpaw_psl.0.1.UPF
     MD5 check sum: 0234752ac141de4415c5fc33072bef88
     Pseudo is Projector augmented-wave + core cor, Zval =  6.0
     Generated using "atomic" code by A. Dal Corso  v.5.0.99 svn rev. 10869
     Shape of augmentation charge: BESSEL
     Using radial grid of 1095 points,  4 beta functions with:
                l(1) =   0
                l(2) =   0
                l(3) =   1
                l(4) =   1
     Q(r) pseudized with 0 coefficients

     atomic species   valence    mass     pseudopotential
        Zn            20.00    65.38000     Zn( 1.00)
        P              5.00    30.97376     P ( 1.00)
        O              6.00    15.99900     O ( 1.00)

      2 Sym. Ops., with inversion, found

                                    s                        frac. trans.

      isym =  1     identity

 cryst.   s( 1) = (     1          0          0      )
                  (     0          1          0      )
                  (     0          0          1      )

 cart.    s( 1) = (  1.0000000  0.0000000  0.0000000 )
                  (  0.0000000  1.0000000  0.0000000 )
                  (  0.0000000  0.0000000  1.0000000 )

      isym =  2     inversion

 cryst.   s( 2) = (    -1          0          0      )
                  (     0         -1          0      )
                  (     0          0         -1      )

 cart.    s( 2) = ( -1.0000000  0.0000000  0.0000000 )
                  (  0.0000000 -1.0000000 -0.0000000 )
                  (  0.0000000  0.0000000 -1.0000000 )

   Cartesian axes

     site n.     atom                  positions (alat units)
         1           Zn  tau(   1) = (   0.3381040   0.9957840   0.5275879  )
         2           Zn  tau(   2) = (   0.9320260   0.1648711   0.1758626  )
         3           P   tau(   3) = (   0.3650695   0.4960072   0.5235628  )
         4           P   tau(   4) = (   0.8334335   0.9240020   0.5316131  )
         5           P   tau(   5) = (   0.9050605   0.6646478   0.1798878  )
         6           P   tau(   6) = (   0.4366965   0.2366530   0.1718375  )
         7           O   tau(   7) = (   0.2904656   0.7008045   0.4861076  )
         8           O   tau(   8) = (   0.6361716   1.0167134   0.5690683  )
         9           O   tau(   9) = (   0.9796644   0.4598505   0.2173430  )
        10           O   tau(  10) = (   0.6339584   0.1439416   0.1343823  )
        11           O   tau(  11) = (   0.2228871   0.3376842   0.5962391  )
        12           O   tau(  12) = (   1.0038966   1.0513769   0.4589368  )
        13           O   tau(  13) = (   0.7205239   0.6481265   0.0280789  )
        14           O   tau(  14) = (   0.4697392   0.4189574   0.3236464  )
        15           O   tau(  15) = (   0.5496062   0.5125286   0.6753716  )
        16           O   tau(  16) = (   0.8003908   0.7416976   0.3798042  )
        17           O   tau(  17) = (   0.2662334   0.1092781   0.2445138  )
        18           O   tau(  18) = (   1.0472429   0.8229709   0.1072115  )

   Crystallographic axes

     site n.     atom                  positions (cryst. coord.)
         1           Zn  tau(   1) = (  0.1241980  0.8758020  0.7500000  )
         2           Zn  tau(   2) = (  0.8758020  0.1241980  0.2500000  )
         3           P   tau(   3) = (  0.1972180  0.3749400  0.7442780  )
         4           P   tau(   4) = (  0.6250600  0.8027820  0.7557220  )
         5           P   tau(   5) = (  0.8027820  0.6250600  0.2557220  )
         6           P   tau(   6) = (  0.3749400  0.1972180  0.2442780  )
         7           O   tau(   7) = (  0.1129350  0.5893750  0.6910330  )
         8           O   tau(   8) = (  0.4106250  0.8870650  0.8089670  )
         9           O   tau(   9) = (  0.8870650  0.4106250  0.3089670  )
        10           O   tau(  10) = (  0.5893750  0.1129350  0.1910330  )
        11           O   tau(  11) = (  0.0522400  0.1988880  0.8475920  )
        12           O   tau(  12) = (  0.8011120  0.9477600  0.6524080  )
        13           O   tau(  13) = (  0.6554250  0.6441600  0.0399160  )
        14           O   tau(  14) = (  0.3558400  0.3445750  0.4600840  )
        15           O   tau(  15) = (  0.3445750  0.3558400  0.9600840  )
        16           O   tau(  16) = (  0.6441600  0.6554250  0.5399160  )
        17           O   tau(  17) = (  0.1988880  0.0522400  0.3475920  )
        18           O   tau(  18) = (  0.9477600  0.8011120  0.1524080  )

     number of k points=    14
                       cart. coord. in units 2pi/alat
        k(    1) = (   0.0000000   0.0000000   0.0000000), wk =   0.0740741
        k(    2) = (   0.0000000   0.0000000   0.4738547), wk =   0.1481481
        k(    3) = (   0.0000000   0.3346883  -0.0783628), wk =   0.1481481
        k(    4) = (   0.0000000   0.3346883   0.3954919), wk =   0.1481481
        k(    5) = (   0.0000000   0.3346883  -0.5522174), wk =   0.1481481
        k(    6) = (   0.3333333  -0.0300856  -0.0783628), wk =   0.1481481
        k(    7) = (   0.3333333  -0.0300856   0.3954919), wk =   0.1481481
        k(    8) = (   0.3333333  -0.0300856  -0.5522174), wk =   0.1481481
        k(    9) = (   0.3333333   0.3046027  -0.1567255), wk =   0.1481481
        k(   10) = (   0.3333333   0.3046027   0.3171292), wk =   0.1481481
        k(   11) = (   0.3333333   0.3046027  -0.6305802), wk =   0.1481481
        k(   12) = (   0.3333333  -0.3647739   0.0000000), wk =   0.1481481
        k(   13) = (   0.3333333  -0.3647739   0.4738547), wk =   0.1481481
        k(   14) = (   0.3333333  -0.3647739  -0.4738547), wk =   0.1481481

                       cryst. coord.
        k(    1) = (   0.0000000   0.0000000   0.0000000), wk =   0.0740741
        k(    2) = (   0.0000000   0.0000000   0.3333333), wk =   0.1481481
        k(    3) = (   0.0000000   0.3333333   0.0000000), wk =   0.1481481
        k(    4) = (   0.0000000   0.3333333   0.3333333), wk =   0.1481481
        k(    5) = (   0.0000000   0.3333333  -0.3333333), wk =   0.1481481
        k(    6) = (   0.3333333   0.0000000   0.0000000), wk =   0.1481481
        k(    7) = (   0.3333333   0.0000000   0.3333333), wk =   0.1481481
        k(    8) = (   0.3333333   0.0000000  -0.3333333), wk =   0.1481481
        k(    9) = (   0.3333333   0.3333333   0.0000000), wk =   0.1481481
        k(   10) = (   0.3333333   0.3333333   0.3333333), wk =   0.1481481
        k(   11) = (   0.3333333   0.3333333  -0.3333333), wk =   0.1481481
        k(   12) = (   0.3333333  -0.3333333   0.0000000), wk =   0.1481481
        k(   13) = (   0.3333333  -0.3333333   0.3333333), wk =   0.1481481
        k(   14) = (   0.3333333  -0.3333333  -0.3333333), wk =   0.1481481

     Check: negative core charge=   -0.000013

     Initial potential from superposition of free atoms

     starting charge     131.9991, renormalised to     132.0000
     Starting wfcs are   90 randomized atomic wfcs +  166 random wfcs
     Checking if some PAW data can be deallocated...

     Self-consistent Calculation

     iteration #  1     ecut=    30.00 Ry     beta= 0.70
     Davidson diagonalization with overlap

     ethr =  1.00E-02,  avg # of iterations =  7.0

     total energy              =   -1477.92007283 Ry
     estimated scf accuracy    <       3.36538672 Ry

[...]

     total energy              =   -1479.30863549 Ry
     estimated scf accuracy    <       0.00000184 Ry

     iteration #  9     ecut=    30.00 Ry     beta= 0.70
     Davidson diagonalization with overlap

     ethr =  1.40E-09,  avg # of iterations =  2.0

     End of self-consistent calculation

          k = 0.0000 0.0000 0.0000 (  4031 PWs)   bands (ev):

  -118.4854-118.4848 -72.6465 -72.6463 -72.6352 -72.6302 -72.6030 -72.6017
   -17.4843 -17.3084 -15.0860 -15.0789 -15.0698 -14.9121 -14.2757 -13.9777
   -13.6201 -13.6081 -13.5766 -13.5283  -6.9172  -6.8674  -3.4079  -3.1846
    -3.1142  -2.2127  -2.1380  -1.8115  -1.4516  -1.2015  -0.8872  -0.7671
    -0.6037  -0.2684  -0.0116   0.1561   0.3856   0.4179   0.4406   0.5151
     0.6055   0.7864   0.7964   0.9829   1.2556   1.3804   1.4930   1.6669
     1.7756   1.9500   2.1433   2.3074   2.4205   2.4631   2.6671   2.8935
     2.9426   2.9887   3.1758   3.3561   3.4821   3.5616   3.6509   3.7096
     4.1085   4.1461   8.7844  10.6637  11.1518  11.2709  12.8823  12.9230
    13.0906  13.3096  13.4682  13.5481  13.6331  13.8738  13.8921  13.9682
    14.5248  14.5863  15.1178  15.4129  16.0915  16.1308  16.4814  16.6554
    17.3170  17.4438  17.4486  17.5907  18.0959  18.3282  18.6589  18.7474
    18.8689  19.5061  19.5292  19.6493  20.0310  20.4798  20.4941  20.8940
    21.1754  21.6639  21.9780  22.0158  22.5357  23.1319  23.1887  23.2519
    24.0567  24.2821  24.5692  24.7183  25.5218  25.6257  25.6399  26.1941
    26.1993  26.6515  26.7100  26.7334  26.8077  26.8482  27.3571  27.5510
    28.1120  28.3297  28.7771  28.8208  29.3757  29.4426  29.7431  29.7985
    29.9529  30.3729  30.8711  30.8797  31.2198  31.2712  31.6805  31.7628
    31.8803  32.1269  32.5088  32.6517  32.8086  32.9837  33.2785  33.6210
    33.6965  33.8605  33.8715  33.8991  34.4746  34.7511  34.8735  34.9517
    35.1506  35.2000  35.8187  35.8215  35.8709  36.1247  36.1295  36.4957
    36.5564  36.8545  36.9583  37.5088  37.8417  38.2545  38.2553  38.5184
    38.6498  38.7632  38.8645  39.1264  39.2855  39.3355  39.4791  40.1509
    40.2679  40.4136  40.5085  40.7540  41.1365  41.6259  41.6370  41.7920
    41.8916  41.9976  42.3133  42.3377  42.6733  42.7048  42.8621  43.4617
    43.5491  43.6819  43.8702  43.9667  44.1314  44.2306  44.4447  44.9426
    45.1622  45.1676  45.1784  45.3829  45.3915  45.5492  45.9231  46.0072
    46.3224  46.6924  46.8195  46.8647  47.4722  47.6118  47.8835  47.9006
    48.0844  48.5224  48.6243  48.7413  48.8432  48.9045  49.3821  49.4210
    49.6846  49.8722  50.1239  50.3694  50.8109  50.8342  50.8718  51.2691
    51.3367  51.4714  51.4805  51.6557  51.7624  51.8784  52.0518  52.0580
    52.1255  52.5605  52.5680  53.1451  53.1848  53.5184  53.5431  53.7845

     occupation numbers
     1.0000   1.0000   1.0000   1.0000   1.0000   1.0000   1.0000   1.0000
     1.0000   1.0000   1.0000   1.0000   1.0000   1.0000   1.0000   1.0000
     1.0000   1.0000   1.0000   1.0000   1.0000   1.0000   1.0000   1.0000
     1.0000   1.0000   1.0000   1.0000   1.0000   1.0000   1.0000   1.0000
     1.0000   1.0000   1.0000   1.0000   1.0000   1.0000   1.0000   1.0000
     1.0000   1.0000   1.0000   1.0000   1.0000   1.0000   1.0000   1.0000
     1.0000   1.0000   1.0000   1.0000   1.0000   1.0000   1.0000   1.0000
     1.0000   1.0000   1.0000   1.0000   1.0000   1.0000   1.0000   1.0000
     1.0000   1.0000   0.0000   0.0000   0.0000   0.0000   0.0000   0.0000
     0.0000   0.0000   0.0000   0.0000   0.0000   0.0000   0.0000   0.0000
     0.0000   0.0000   0.0000   0.0000   0.0000   0.0000   0.0000   0.0000
     0.0000   0.0000   0.0000   0.0000   0.0000   0.0000   0.0000   0.0000
     0.0000   0.0000   0.0000   0.0000   0.0000   0.0000   0.0000   0.0000
     0.0000   0.0000   0.0000   0.0000   0.0000   0.0000   0.0000   0.0000
     0.0000   0.0000   0.0000   0.0000   0.0000   0.0000   0.0000   0.0000
     0.0000   0.0000   0.0000   0.0000   0.0000   0.0000   0.0000   0.0000
     0.0000   0.0000   0.0000   0.0000   0.0000   0.0000   0.0000   0.0000
     0.0000   0.0000   0.0000   0.0000   0.0000   0.0000   0.0000   0.0000
     0.0000   0.0000   0.0000   0.0000   0.0000   0.0000   0.0000   0.0000
     0.0000   0.0000   0.0000   0.0000   0.0000   0.0000   0.0000   0.0000
     0.0000   0.0000   0.0000   0.0000   0.0000   0.0000   0.0000   0.0000
     0.0000   0.0000   0.0000   0.0000   0.0000   0.0000   0.0000   0.0000
     0.0000   0.0000   0.0000   0.0000   0.0000   0.0000   0.0000   0.0000
     0.0000   0.0000   0.0000   0.0000   0.0000   0.0000   0.0000   0.0000
     0.0000   0.0000   0.0000   0.0000   0.0000   0.0000   0.0000   0.0000
     0.0000   0.0000   0.0000   0.0000   0.0000   0.0000   0.0000   0.0000
     0.0000   0.0000   0.0000   0.0000   0.0000   0.0000   0.0000   0.0000
     0.0000   0.0000   0.0000   0.0000   0.0000   0.0000   0.0000   0.0000
     0.0000   0.0000   0.0000   0.0000   0.0000   0.0000   0.0000   0.0000
     0.0000   0.0000   0.0000   0.0000   0.0000   0.0000   0.0000   0.0000
     0.0000   0.0000   0.0000   0.0000   0.0000   0.0000   0.0000   0.0000
     0.0000   0.0000   0.0000   0.0000   0.0000   0.0000   0.0000   0.0000

[...]

          k = 0.3333-0.3648-0.4739 (  4041 PWs)   bands (ev):

  -118.4861-118.4855 -72.6480 -72.6431 -72.6396 -72.6362 -72.6059 -72.6037
   -17.0700 -17.0230 -16.1566 -16.0991 -14.3743 -14.3084 -14.1478 -14.0643
   -13.7294 -13.6246 -13.5745 -13.5324  -6.0859  -6.0381  -4.3562  -4.2667
    -2.4401  -1.9211  -1.8565  -1.7316  -1.3426  -1.2622  -1.1235  -1.0956
    -0.4438  -0.1593  -0.0636   0.0587   0.2800   0.3808   0.4226   0.5019
     0.5882   0.6066   0.7317   0.8028   0.8600   1.0382   1.1225   1.3874
     1.6724   1.8443   2.0463   2.1585   2.3607   2.5176   2.7872   2.9463
     3.0790   3.2015   3.2421   3.3623   3.5787   3.6376   3.7354   3.8691
     4.0204   4.0483  10.6064  11.0935  11.7916  11.9481  12.4991  12.6363
    12.9942  13.0232  13.3737  13.7557  13.9414  14.0863  14.3827  14.4302
    14.5942  14.6654  15.0229  15.2613  15.7847  15.8858  16.0356  16.3143
    16.8540  17.1630  17.5483  17.7512  18.0494  18.3247  18.5777  18.8816
    18.9684  19.0833  19.4635  19.7499  20.2712  20.5915  20.7642  21.1404
    21.2658  21.6448  21.7339  22.1722  22.2342  22.5218  22.7650  22.9739
    23.2278  23.5856  23.6783  24.0065  24.6276  24.9521  25.2693  25.7360
    26.0542  26.2054  26.4338  26.6745  27.0592  27.3200  27.7699  28.0741
    28.1965  28.2839  28.7353  28.9146  29.1979  29.4517  29.6426  29.9775
    30.3338  30.4196  30.7620  31.2459  31.3072  31.4657  31.6050  31.8737
    32.1209  32.2299  32.3262  32.5866  33.0836  33.1245  33.4598  33.6104
    33.7303  33.9897  34.3036  34.4571  34.6581  34.9175  35.1932  35.3443
    35.5334  35.7661  35.8866  36.1783  36.2782  36.3903  36.7200  36.8213
    37.0368  37.3913  37.5437  37.8060  38.0228  38.3236  38.5331  38.5979
    38.7547  38.8094  39.1841  39.4923  39.5963  39.8588  40.1129  40.2512
    40.3232  40.5743  40.9295  41.0023  41.3520  41.5823  41.7465  41.9804
    42.0690  42.3201  42.5096  42.7199  42.8533  43.0191  43.3452  43.3776
    43.5072  43.5475  43.6631  43.9024  44.2331  44.4424  44.4660  44.6993
    44.7642  44.9428  45.2209  45.3299  45.4309  45.5703  45.9379  46.0409
    46.4441  46.5546  46.6811  46.9100  46.9766  47.2166  47.3731  47.4655
    47.6823  47.9328  48.2389  48.2456  48.6191  48.6882  48.8273  48.9124
    49.0829  49.4392  49.5947  49.7612  49.9008  50.0400  50.2116  50.3847
    50.5275  50.7527  50.8531  51.1616  51.2384  51.3001  51.9584  52.1353
    52.2015  52.5357  52.6730  52.8064  52.9449  53.1064  53.4112  53.6300

     occupation numbers
     1.0000   1.0000   1.0000   1.0000   1.0000   1.0000   1.0000   1.0000
     1.0000   1.0000   1.0000   1.0000   1.0000   1.0000   1.0000   1.0000
     1.0000   1.0000   1.0000   1.0000   1.0000   1.0000   1.0000   1.0000
     1.0000   1.0000   1.0000   1.0000   1.0000   1.0000   1.0000   1.0000
     1.0000   1.0000   1.0000   1.0000   1.0000   1.0000   1.0000   1.0000
     1.0000   1.0000   1.0000   1.0000   1.0000   1.0000   1.0000   1.0000
     1.0000   1.0000   1.0000   1.0000   1.0000   1.0000   1.0000   1.0000
     1.0000   1.0000   1.0000   1.0000   1.0000   1.0000   1.0000   1.0000
     1.0000   1.0000   0.0000   0.0000   0.0000   0.0000   0.0000   0.0000
     0.0000   0.0000   0.0000   0.0000   0.0000   0.0000   0.0000   0.0000
     0.0000   0.0000   0.0000   0.0000   0.0000   0.0000   0.0000   0.0000
     0.0000   0.0000   0.0000   0.0000   0.0000   0.0000   0.0000   0.0000
     0.0000   0.0000   0.0000   0.0000   0.0000   0.0000   0.0000   0.0000
     0.0000   0.0000   0.0000   0.0000   0.0000   0.0000   0.0000   0.0000
     0.0000   0.0000   0.0000   0.0000   0.0000   0.0000   0.0000   0.0000
     0.0000   0.0000   0.0000   0.0000   0.0000   0.0000   0.0000   0.0000
     0.0000   0.0000   0.0000   0.0000   0.0000   0.0000   0.0000   0.0000
     0.0000   0.0000   0.0000   0.0000   0.0000   0.0000   0.0000   0.0000
     0.0000   0.0000   0.0000   0.0000   0.0000   0.0000   0.0000   0.0000
     0.0000   0.0000   0.0000   0.0000   0.0000   0.0000   0.0000   0.0000
     0.0000   0.0000   0.0000   0.0000   0.0000   0.0000   0.0000   0.0000
     0.0000   0.0000   0.0000   0.0000   0.0000   0.0000   0.0000   0.0000
     0.0000   0.0000   0.0000   0.0000   0.0000   0.0000   0.0000   0.0000
     0.0000   0.0000   0.0000   0.0000   0.0000   0.0000   0.0000   0.0000
     0.0000   0.0000   0.0000   0.0000   0.0000   0.0000   0.0000   0.0000
     0.0000   0.0000   0.0000   0.0000   0.0000   0.0000   0.0000   0.0000
     0.0000   0.0000   0.0000   0.0000   0.0000   0.0000   0.0000   0.0000
     0.0000   0.0000   0.0000   0.0000   0.0000   0.0000   0.0000   0.0000
     0.0000   0.0000   0.0000   0.0000   0.0000   0.0000   0.0000   0.0000
     0.0000   0.0000   0.0000   0.0000   0.0000   0.0000   0.0000   0.0000
     0.0000   0.0000   0.0000   0.0000   0.0000   0.0000   0.0000   0.0000
     0.0000   0.0000   0.0000   0.0000   0.0000   0.0000   0.0000   0.0000

     highest occupied, lowest unoccupied level (ev):     4.1882    8.7844

!    total energy              =   -1479.30863583 Ry
     estimated scf accuracy    <       0.00000022 Ry

     The total energy is the sum of the following terms:
     one-electron contribution =   -1205.13450898 Ry
     hartree contribution      =     664.06176123 Ry
     xc contribution           =    -192.89599372 Ry
     ewald contribution        =    -631.15767869 Ry
     one-center paw contrib.   =    -114.18221567 Ry
      -> PAW hartree energy AE =       0.00000000 Ry
      -> PAW hartree energy PS =       0.00000000 Ry
      -> PAW xc energy AE      =       0.00000000 Ry
      -> PAW xc energy PS      =       0.00000000 Ry
      -> total E_H with PAW    =     664.06176123 Ry
      -> total E_XC with PAW   =    -192.89599372 Ry

     convergence has been achieved in   9 iterations

     Writing all to output data dir bands_nm/myprefix.save/

     General routines

     Parallel routines

     PAW routines

   This run was terminated on:  18: 1:12  15Jul2023

   JOB DONE.