     Program PWSCF v.7.1 starts on 15Jul2023 at 17:37:31

     Reading input from espresso_20490.pwi
Warning: card &CELL ignored
Warning: card / ignored

     Current dimensions of program PWSCF are:
     Max number of different atomic species (ntypx) = 10
     Max number of k-points (npk) =  40000
     Max angular momentum in pseudopotentials (lmaxx) =  4
     file Er.paw.z_22.atompaw.wentzcovitch.v1.2.upf: wavefunction(s)  6S 0P 5D 0D 4F 0F renormalized
     file Al.pbe-n-kjpaw_psl.1.0.0.UPF: wavefunction(s)  3S 3P renormalized
     file O.pbe-n-kjpaw_psl.0.1.UPF: wavefunction(s)  2P renormalized
     Message from routine setup:
     using ibrav=0 with symmetry is DISCOURAGED, use correct ibrav instead

     K-points division:     npool     =       2
     R & G space division:  proc/nbgrp/npool/nimage =       4
     Subspace diagonalization in iterative solution of the eigenvalue problem:
     one sub-group per band group will be used

     Using Slab Decomposition

     bravais-lattice index     =            0
     lattice parameter (alat)  =       9.7819  a.u.
     unit-cell volume          =    1392.4578 (a.u.)^3
     number of atoms/cell      =           20
     number of atomic types    =            3
     number of electrons       =       172.00
     number of Kohn-Sham states=          256
     kinetic-energy cutoff     =      30.0000  Ry
     charge density cutoff     =     240.0000  Ry
     scf convergence threshold =      1.0E-06
     mixing beta               =       0.7000
     number of iterations used =            8  plain     mixing
     Exchange-correlation= SLA  PW   PBX  PBC
                           (   1   4   3   4   0   0   0)

     celldm(1)=   9.781937  celldm(2)=   0.000000  celldm(3)=   0.000000
     celldm(4)=   0.000000  celldm(5)=   0.000000  celldm(6)=   0.000000

     crystal axes: (cart. coord. in units of alat)
               a(1) = (   1.000000   0.000000   0.000000 )
               a(2) = (   0.000000   1.039270   0.000000 )
               a(3) = (   0.000000   0.000000   1.431459 )

     reciprocal axes: (cart. coord. in units 2 pi/alat)
               b(1) = (  1.000000  0.000000  0.000000 )
               b(2) = (  0.000000  0.962214  0.000000 )
               b(3) = (  0.000000  0.000000  0.698588 )

     PseudoPot. # 1 for Er read from file:
     /lustre07/scratch/pragov/crystal_structure_design/utils/SSSP/Er.paw.z_22.atompaw.wentzcovitch.v1.2.upf
     MD5 check sum: 5ba6a5c626b1678e031aafe1da34e245
     Pseudo is Projector augmented-wave + core cor, Zval = 22.0
     Generated using ATOMPAW code
     Shape of augmentation charge: BESSEL
     Using radial grid of 1114 points,  8 beta functions with:
                l(1) =   0
                l(2) =   0
                l(3) =   1
                l(4) =   1
                l(5) =   2
                l(6) =   2
                l(7) =   3
                l(8) =   3
     Q(r) pseudized with 0 coefficients

     PseudoPot. # 2 for Al read from file:
     /lustre07/scratch/pragov/crystal_structure_design/utils/SSSP/Al.pbe-n-kjpaw_psl.1.0.0.UPF
     MD5 check sum: cfc449ca30b5f3223ec38ddd88ac046d
     Pseudo is Projector augmented-wave + core cor, Zval =  3.0
     Generated using "atomic" code by A. Dal Corso  v.5.1
     Shape of augmentation charge: PSQ
     Using radial grid of 1135 points,  6 beta functions with:
                l(1) =   0
                l(2) =   0
                l(3) =   1
                l(4) =   1
                l(5) =   2
                l(6) =   2
     Q(r) pseudized with 0 coefficients

     PseudoPot. # 3 for O  read from file:
     /lustre07/scratch/pragov/crystal_structure_design/utils/SSSP/O.pbe-n-kjpaw_psl.0.1.UPF
     MD5 check sum: 0234752ac141de4415c5fc33072bef88
     Pseudo is Projector augmented-wave + core cor, Zval =  6.0
     Generated using "atomic" code by A. Dal Corso  v.5.0.99 svn rev. 10869
     Shape of augmentation charge: BESSEL
     Using radial grid of 1095 points,  4 beta functions with:
                l(1) =   0
                l(2) =   0
                l(3) =   1
                l(4) =   1
     Q(r) pseudized with 0 coefficients

     atomic species   valence    mass     pseudopotential
        Er            22.00   167.25900     Er( 1.00)
        Al             3.00    26.98154     Al( 1.00)
        O              6.00    15.99900     O ( 1.00)

      8 Sym. Ops., with inversion, found ( 6 have fractional translation)

                                    s                        frac. trans.

      isym =  1     identity

 cryst.   s( 1) = (     1          0          0      )
                  (     0          1          0      )
                  (     0          0          1      )

 cart.    s( 1) = (  1.0000000  0.0000000  0.0000000 )
                  (  0.0000000  1.0000000  0.0000000 )
                  (  0.0000000  0.0000000  1.0000000 )

      isym =  2     180 deg rotation - cart. axis [0,0,1]

 cryst.   s( 2) = (    -1          0          0      )    f =(  0.0000000 )
                  (     0         -1          0      )       ( -0.0000000 )
                  (     0          0          1      )       (  0.5000000 )

 cart.    s( 2) = ( -1.0000000  0.0000000  0.0000000 )    f =(  0.0000000 )
                  (  0.0000000 -1.0000000  0.0000000 )       ( -0.0000000 )
                  (  0.0000000  0.0000000  1.0000000 )       (  0.7157296 )

[...]

      isym =  4     180 deg rotation - cart. axis [1,0,0]

[...]

      isym =  5     inversion

 cryst.   s( 5) = (    -1          0          0      )
                  (     0         -1          0      )
                  (     0          0         -1      )

 cart.    s( 5) = ( -1.0000000  0.0000000  0.0000000 )
                  (  0.0000000 -1.0000000  0.0000000 )
                  (  0.0000000  0.0000000 -1.0000000 )

      isym =  6     inv. 180 deg rotation - cart. axis [0,0,1]

[...]

      isym =  8     inv. 180 deg rotation - cart. axis [1,0,0]

 cryst.   s( 8) = (    -1          0          0      )    f =(  0.5000000 )
                  (     0          1          0      )       (  0.5000000 )
                  (     0          0          1      )       (  0.0000000 )

 cart.    s( 8) = ( -1.0000000  0.0000000  0.0000000 )    f =(  0.5000000 )
                  (  0.0000000  1.0000000  0.0000000 )       (  0.5196352 )
                  (  0.0000000  0.0000000  1.0000000 )       (  0.0000000 )

   Cartesian axes

     site n.     atom                  positions (alat units)
         1           Er  tau(   1) = (   0.0154670   0.9776582   1.0735944  )
         2           Er  tau(   2) = (   0.4845330   0.4580231   1.0735944  )
         3           Er  tau(   3) = (   0.5154670   0.5812473   0.3578648  )
         4           Er  tau(   4) = (   0.9845330   0.0616121   0.3578648  )
         5           Al  tau(   5) = (   0.0000000   0.5196352   0.0000000  )
         6           Al  tau(   6) = (   0.0000000   0.5196352   0.7157296  )
         7           Al  tau(   7) = (   0.5000000   0.0000000   0.0000000  )
         8           Al  tau(   8) = (   0.5000000   0.0000000   0.7157296  )
         9           O   tau(   9) = (   0.0939720   0.4912413   0.3578648  )
        10           O   tau(  10) = (   0.2030030   0.2119238   0.7861431  )
        11           O   tau(  11) = (   0.2030030   0.2119238   1.3610457  )
        12           O   tau(  12) = (   0.2969970   0.7315590   1.3610457  )
        13           O   tau(  13) = (   0.2969970   0.7315590   0.7861431  )
        14           O   tau(  14) = (   0.4060280   1.0108764   0.3578648  )
        15           O   tau(  15) = (   0.5939720   0.0283939   1.0735944  )
        16           O   tau(  16) = (   0.7030030   0.3077113   0.0704135  )
        17           O   tau(  17) = (   0.7030030   0.3077113   0.6453161  )
        18           O   tau(  18) = (   0.7969970   0.8273465   0.0704135  )
        19           O   tau(  19) = (   0.7969970   0.8273465   0.6453161  )
        20           O   tau(  20) = (   0.9060280   0.5480291   1.0735944  )

   Crystallographic axes

     site n.     atom                  positions (cryst. coord.)
         1           Er  tau(   1) = (  0.0154670  0.9407160  0.7500000  )
         2           Er  tau(   2) = (  0.4845330  0.4407160  0.7500000  )
         3           Er  tau(   3) = (  0.5154670  0.5592840  0.2500000  )
         4           Er  tau(   4) = (  0.9845330  0.0592840  0.2500000  )
         5           Al  tau(   5) = (  0.0000000  0.5000000  0.0000000  )
         6           Al  tau(   6) = (  0.0000000  0.5000000  0.5000000  )
         7           Al  tau(   7) = (  0.5000000  0.0000000  0.0000000  )
         8           Al  tau(   8) = (  0.5000000  0.0000000  0.5000000  )
         9           O   tau(   9) = (  0.0939720  0.4726790  0.2500000  )
        10           O   tau(  10) = (  0.2030030  0.2039160  0.5491900  )
        11           O   tau(  11) = (  0.2030030  0.2039160  0.9508100  )
        12           O   tau(  12) = (  0.2969970  0.7039160  0.9508100  )
        13           O   tau(  13) = (  0.2969970  0.7039160  0.5491900  )
        14           O   tau(  14) = (  0.4060280  0.9726790  0.2500000  )
        15           O   tau(  15) = (  0.5939720  0.0273210  0.7500000  )
        16           O   tau(  16) = (  0.7030030  0.2960840  0.0491900  )
        17           O   tau(  17) = (  0.7030030  0.2960840  0.4508100  )
        18           O   tau(  18) = (  0.7969970  0.7960840  0.0491900  )
        19           O   tau(  19) = (  0.7969970  0.7960840  0.4508100  )
        20           O   tau(  20) = (  0.9060280  0.5273210  0.7500000  )

     number of k points=     8
                       cart. coord. in units 2pi/alat
        k(    1) = (   0.0000000   0.0000000   0.0000000), wk =   0.0740741
        k(    2) = (   0.0000000   0.0000000   0.2328626), wk =   0.1481481
        k(    3) = (   0.0000000   0.3207379   0.0000000), wk =   0.1481481
        k(    4) = (   0.0000000   0.3207379   0.2328626), wk =   0.2962963
        k(    5) = (   0.3333333   0.0000000   0.0000000), wk =   0.1481481
        k(    6) = (   0.3333333   0.0000000   0.2328626), wk =   0.2962963
        k(    7) = (   0.3333333   0.3207379   0.0000000), wk =   0.2962963
        k(    8) = (   0.3333333   0.3207379   0.2328626), wk =   0.5925926

                       cryst. coord.
        k(    1) = (   0.0000000   0.0000000   0.0000000), wk =   0.0740741
        k(    2) = (   0.0000000   0.0000000   0.3333333), wk =   0.1481481
        k(    3) = (   0.0000000   0.3333333   0.0000000), wk =   0.1481481
        k(    4) = (   0.0000000   0.3333333   0.3333333), wk =   0.2962963
        k(    5) = (   0.3333333   0.0000000   0.0000000), wk =   0.1481481
        k(    6) = (   0.3333333   0.0000000   0.3333333), wk =   0.2962963
        k(    7) = (   0.3333333   0.3333333   0.0000000), wk =   0.2962963
        k(    8) = (   0.3333333   0.3333333   0.3333333), wk =   0.5925926

     Check: negative core charge=   -0.000010

     Initial potential from superposition of free atoms

     starting charge     171.9740, renormalised to     172.0000
     Starting wfcs are  192 randomized atomic wfcs +   64 random wfcs
     Checking if some PAW data can be deallocated...

     Self-consistent Calculation

     iteration #  1     ecut=    30.00 Ry     beta= 0.70
     Davidson diagonalization with overlap

     ethr =  1.00E-02,  avg # of iterations = 11.0

     total energy              =   -4200.84769575 Ry
     estimated scf accuracy    <       3.87867369 Ry

[...]

     c_bands:  1 eigenvalues not converged
     ethr =  6.58E-05,  avg # of iterations = 10.1

[...]

     total energy              =   -4203.14685824 Ry
     estimated scf accuracy    <       0.00000139 Ry

     iteration # 21     ecut=    30.00 Ry     beta= 0.70
     Davidson diagonalization with overlap

     ethr =  8.08E-10,  avg # of iterations =  1.0

     End of self-consistent calculation

          k = 0.0000 0.0000 0.0000 (  3869 PWs)   bands (ev):

   -34.8977 -34.8895 -34.8773 -34.8702  -9.7604  -9.6598  -9.6539  -9.5300
    -9.4529  -9.2484  -9.1247  -9.0866  -9.0278  -9.0248  -9.0058  -8.9570
    -6.6120  -5.2798  -5.0729  -5.0479  -4.9738  -4.8881  -4.8573  -4.3751
    -4.3219  -4.2674  -4.2435  -4.0980   4.8044   6.1210   6.9291   7.2952
     7.3380   7.3497   7.3793   7.4593   7.5508   8.2881   8.5265   8.6607
     8.7386   8.8495   8.8521   9.6920   9.7193   9.7672   9.8149   9.8884
     9.9964  10.0630  10.1700  10.1831  10.3403  10.3949  10.4311  10.5745
    10.6737  10.7037  10.8243  10.8422  10.9646  11.3018  11.3924  11.5117
    12.4067  12.4158  12.4442  12.4488  12.4493  12.4562  12.4848  12.4913
    12.4986  12.5211  12.5223  12.5405  12.5538  12.5564  12.5646  12.5725
    12.5734  12.5920  12.6531  12.6637  12.6707  12.6722  12.7233  12.7323
    12.7339  12.7666  12.7750  12.8153  17.5309  18.2707  18.4457  18.5746
    18.7716  18.7953  18.9967  19.1881  19.7695  19.7848  19.9401  19.9592
    20.3618  20.5253  20.6079  20.8361  21.1833  21.4423  21.4646  21.4809
    21.7928  21.8999  22.1446  22.3800  22.8967  23.1863  23.7011  23.8389
    24.5018  24.5876  24.6230  24.6965  25.1076  25.3736  25.8899  26.5777
    26.6439  26.8163  26.8933  27.2153  27.6006  27.6478  27.6715  27.9382
    28.0140  28.0604  28.0873  28.3220  28.4577  28.8908  28.8949  28.9859
    29.4576  30.2887  30.4858  30.6694  31.4918  31.5873  31.7941  31.8945
    32.6130  32.6630  32.6731  33.0320  33.0661  33.1471  33.9097  34.0758
    34.3535  34.4618  35.3580  35.3676  35.6872  36.2429  36.3791  36.7122
    37.6439  37.9919  38.3279  38.5130  38.6097  38.6389  39.1575  39.1674
    39.2613  39.3209  39.4087  39.6525  40.1233  40.1421  40.2594  40.5441
    40.5671  40.7340  40.7357  40.8043  41.2710  41.4479  41.6071  41.8734
    41.9203  42.5092  42.7576  42.7944  43.1906  43.2000  43.2489  43.8381
    43.8701  43.9290  44.1231  44.2311  44.2692  44.5984  44.9456  45.2648
    45.5063  45.6277  45.9114  46.0103  46.0583  46.2897  46.3833  46.4620
    46.8860  47.1217  47.2866  48.0596  48.0629  48.0942  48.1350  48.1622
    48.7390  48.7411  49.3104  49.7448  49.9855  50.2350  50.2411  50.2539
    50.4299  50.5930  50.8587  50.9088  51.1172  51.3384  51.9311  52.0201
    52.0544  52.1859  52.2111  52.2218  52.2457  52.4385  52.9156  52.9161
    53.0644  53.4905  53.5526  53.5601  53.7048  54.0426  54.4887  54.6619

     occupation numbers
     1.0000   1.0000   1.0000   1.0000   1.0000   1.0000   1.0000   1.0000
     1.0000   1.0000   1.0000   1.0000   1.0000   1.0000   1.0000   1.0000
     1.0000   1.0000   1.0000   1.0000   1.0000   1.0000   1.0000   1.0000
     1.0000   1.0000   1.0000   1.0000   1.0000   1.0000   1.0000   1.0000
     1.0000   1.0000   1.0000   1.0000   1.0000   1.0000   1.0000   1.0000
     1.0000   1.0000   1.0000   1.0000   1.0000   1.0000   1.0000   1.0000
     1.0000   1.0000   1.0000   1.0000   1.0000   1.0000   1.0000   1.0000
     1.0000   1.0000   1.0000   1.0000   1.0000   1.0000   1.0000   1.0000
     1.0000   1.0000   1.0000   1.0000   1.0000   1.0000   1.0000   1.0000
     1.0000   1.0000   1.0000   1.0000   1.0000   1.0000   1.0000   1.0000
     1.0000   1.0000   1.0000   1.0000   1.0000   1.0000   0.0000   0.0000
     0.0000   0.0000   0.0000   0.0000   0.0000   0.0000   0.0000   0.0000
     0.0000   0.0000   0.0000   0.0000   0.0000   0.0000   0.0000   0.0000
     0.0000   0.0000   0.0000   0.0000   0.0000   0.0000   0.0000   0.0000
     0.0000   0.0000   0.0000   0.0000   0.0000   0.0000   0.0000   0.0000
     0.0000   0.0000   0.0000   0.0000   0.0000   0.0000   0.0000   0.0000
     0.0000   0.0000   0.0000   0.0000   0.0000   0.0000   0.0000   0.0000
     0.0000   0.0000   0.0000   0.0000   0.0000   0.0000   0.0000   0.0000
     0.0000   0.0000   0.0000   0.0000   0.0000   0.0000   0.0000   0.0000
     0.0000   0.0000   0.0000   0.0000   0.0000   0.0000   0.0000   0.0000
     0.0000   0.0000   0.0000   0.0000   0.0000   0.0000   0.0000   0.0000
     0.0000   0.0000   0.0000   0.0000   0.0000   0.0000   0.0000   0.0000
     0.0000   0.0000   0.0000   0.0000   0.0000   0.0000   0.0000   0.0000
     0.0000   0.0000   0.0000   0.0000   0.0000   0.0000   0.0000   0.0000
     0.0000   0.0000   0.0000   0.0000   0.0000   0.0000   0.0000   0.0000
     0.0000   0.0000   0.0000   0.0000   0.0000   0.0000   0.0000   0.0000
     0.0000   0.0000   0.0000   0.0000   0.0000   0.0000   0.0000   0.0000
     0.0000   0.0000   0.0000   0.0000   0.0000   0.0000   0.0000   0.0000
     0.0000   0.0000   0.0000   0.0000   0.0000   0.0000   0.0000   0.0000
     0.0000   0.0000   0.0000   0.0000   0.0000   0.0000   0.0000   0.0000
     0.0000   0.0000   0.0000   0.0000   0.0000   0.0000   0.0000   0.0000
     0.0000   0.0000   0.0000   0.0000   0.0000   0.0000   0.0000   0.0000

[...]

          k = 0.3333 0.3207 0.2329 (  3866 PWs)   bands (ev):

   -34.8882 -34.8851 -34.8820 -34.8789  -9.7740  -9.6865  -9.6526  -9.5769
    -9.4355  -9.3554  -9.1826  -9.1687  -9.1182  -9.0825  -8.9975  -8.9813
    -5.5477  -5.2250  -5.0791  -4.9665  -4.8539  -4.7664  -4.6389  -4.6006
    -4.5244  -4.4593  -4.3814  -4.3208   5.8413   6.2733   6.3228   6.6117
     7.3917   7.6083   7.7182   7.9310   8.0095   8.2107   8.3067   8.4421
     8.5433   8.7281   8.8678   9.0979   9.2255   9.4229   9.6415   9.7208
     9.8143   9.8962   9.9882  10.1200  10.2837  10.3418  10.4350  10.4798
    10.6421  10.7100  10.8318  10.8692  10.9420  11.0668  11.1219  11.1607
    12.4227  12.4359  12.4453  12.4520  12.4751  12.4862  12.4897  12.5010
    12.5035  12.5113  12.5268  12.5382  12.5452  12.5510  12.5605  12.5667
    12.5775  12.5854  12.6046  12.6158  12.6417  12.6608  12.6860  12.7052
    12.7319  12.7372  12.7816  12.7939  18.6886  18.7122  18.8954  19.0517
    19.1554  19.2835  19.5683  19.6371  19.9598  20.0596  20.1703  20.2903
    20.4348  20.6747  20.8072  21.0386  21.1893  21.2906  21.4638  21.5197
    21.8511  22.0176  22.1130  22.6038  23.1440  23.2555  23.4996  23.6914
    24.2247  24.5396  24.7404  25.0663  25.7946  25.9020  25.9305  26.2351
    26.4686  26.5808  26.6512  26.7358  26.8217  27.1027  27.2420  27.3973
    27.6464  27.8243  28.0189  28.1061  28.2591  28.4349  28.9829  29.1504
    29.5273  29.9089  30.0664  30.6132  30.8130  31.2487  31.4936  31.9064
    31.9445  32.3384  33.1761  33.2116  33.7663  34.3189  34.4175  34.6914
    34.9861  35.0305  35.3281  35.5850  36.2974  36.4755  36.6589  36.7401
    37.0720  37.1404  37.5635  37.9471  38.1060  38.6161  38.7440  38.9249
    38.9699  39.2295  39.4821  39.5427  39.8176  39.8883  40.1050  40.3758
    40.6337  40.7888  40.9872  41.4314  41.4926  41.7057  41.8278  42.0115
    42.2270  42.5631  42.6986  42.7692  43.0075  43.2488  43.6672  43.8179
    43.9309  43.9719  44.1936  44.2629  44.3503  44.7438  44.8754  45.0561
    45.2164  45.3839  45.7443  45.9479  46.1821  46.2831  46.4744  46.6593
    46.8847  47.0577  47.2412  47.3457  47.3730  47.7072  48.0953  48.2710
    48.3926  48.6394  48.9546  49.0828  49.3243  49.6450  49.7750  50.1817
    50.3802  50.5178  50.5225  50.8452  51.0668  51.2467  51.4787  51.5014
    51.8240  51.9574  52.0998  52.1796  52.4013  52.4837  52.8394  52.9946
    53.3002  53.4177  53.4792  53.8222  53.9936  54.2473  54.6387  54.7886

     occupation numbers
     1.0000   1.0000   1.0000   1.0000   1.0000   1.0000   1.0000   1.0000
     1.0000   1.0000   1.0000   1.0000   1.0000   1.0000   1.0000   1.0000
     1.0000   1.0000   1.0000   1.0000   1.0000   1.0000   1.0000   1.0000
     1.0000   1.0000   1.0000   1.0000   1.0000   1.0000   1.0000   1.0000
     1.0000   1.0000   1.0000   1.0000   1.0000   1.0000   1.0000   1.0000
     1.0000   1.0000   1.0000   1.0000   1.0000   1.0000   1.0000   1.0000
     1.0000   1.0000   1.0000   1.0000   1.0000   1.0000   1.0000   1.0000
     1.0000   1.0000   1.0000   1.0000   1.0000   1.0000   1.0000   1.0000
     1.0000   1.0000   1.0000   1.0000   1.0000   1.0000   1.0000   1.0000
     1.0000   1.0000   1.0000   1.0000   1.0000   1.0000   1.0000   1.0000
     1.0000   1.0000   1.0000   1.0000   1.0000   1.0000   0.0000   0.0000
     0.0000   0.0000   0.0000   0.0000   0.0000   0.0000   0.0000   0.0000
     0.0000   0.0000   0.0000   0.0000   0.0000   0.0000   0.0000   0.0000
     0.0000   0.0000   0.0000   0.0000   0.0000   0.0000   0.0000   0.0000
     0.0000   0.0000   0.0000   0.0000   0.0000   0.0000   0.0000   0.0000
     0.0000   0.0000   0.0000   0.0000   0.0000   0.0000   0.0000   0.0000
     0.0000   0.0000   0.0000   0.0000   0.0000   0.0000   0.0000   0.0000
     0.0000   0.0000   0.0000   0.0000   0.0000   0.0000   0.0000   0.0000
     0.0000   0.0000   0.0000   0.0000   0.0000   0.0000   0.0000   0.0000
     0.0000   0.0000   0.0000   0.0000   0.0000   0.0000   0.0000   0.0000
     0.0000   0.0000   0.0000   0.0000   0.0000   0.0000   0.0000   0.0000
     0.0000   0.0000   0.0000   0.0000   0.0000   0.0000   0.0000   0.0000
     0.0000   0.0000   0.0000   0.0000   0.0000   0.0000   0.0000   0.0000
     0.0000   0.0000   0.0000   0.0000   0.0000   0.0000   0.0000   0.0000
     0.0000   0.0000   0.0000   0.0000   0.0000   0.0000   0.0000   0.0000
     0.0000   0.0000   0.0000   0.0000   0.0000   0.0000   0.0000   0.0000
     0.0000   0.0000   0.0000   0.0000   0.0000   0.0000   0.0000   0.0000
     0.0000   0.0000   0.0000   0.0000   0.0000   0.0000   0.0000   0.0000
     0.0000   0.0000   0.0000   0.0000   0.0000   0.0000   0.0000   0.0000
     0.0000   0.0000   0.0000   0.0000   0.0000   0.0000   0.0000   0.0000
     0.0000   0.0000   0.0000   0.0000   0.0000   0.0000   0.0000   0.0000
     0.0000   0.0000   0.0000   0.0000   0.0000   0.0000   0.0000   0.0000

     highest occupied, lowest unoccupied level (ev):    12.6975   12.6732

!    total energy              =   -4203.14685739 Ry
     total all-electron energy =     -7293.880693 Ry
     estimated scf accuracy    <       0.00000041 Ry

     The total energy is the sum of the following terms:
     one-electron contribution =    -997.93839215 Ry
     hartree contribution      =     577.06891653 Ry
     xc contribution           =    -233.50456487 Ry
     ewald contribution        =   -1343.18973272 Ry
     one-center paw contrib.   =   -2205.58308418 Ry
      -> PAW hartree energy AE =    1020.01234829 Ry
      -> PAW hartree energy PS =    -917.63367863 Ry
      -> PAW xc energy AE      =   -1662.24915462 Ry
      -> PAW xc energy PS      =      95.27619080 Ry
      -> total E_H with PAW    =     679.44758620 Ry
      -> total E_XC with PAW   =   -1800.47752869 Ry

     convergence has been achieved in  21 iterations

     Writing all to output data dir bands_nm/myprefix.save/

     General routines

     Parallel routines

     PAW routines

   This run was terminated on:  17:38:45  15Jul2023

   JOB DONE.