     Program PWSCF v.7.0 starts on  6Jun2023 at 21:34:35

     K-points division:     npool     =       2
     R & G space division:  proc/nbgrp/npool/nimage =       4

     Reading input from espresso_468.pwi
Warning: card &CELL ignored
Warning: card / ignored

     Current dimensions of program PWSCF are:
     Max number of different atomic species (ntypx) = 10
     Max number of k-points (npk) =  40000
     Max angular momentum in pseudopotentials (lmaxx) =  4
     file Ba.pbe-spn-kjpaw_psl.1.0.0.UPF: wavefunction(s)  5S 6S renormalized
     Message from routine setup:
     using ibrav=0 with symmetry is DISCOURAGED, use correct ibrav instead

     Using Slab Decomposition

     bravais-lattice index     =            0
     lattice parameter (alat)  =      16.3951  a.u.
     unit-cell volume          =    1320.6417 (a.u.)^3
     number of atoms/cell      =            7
     number of atomic types    =            3
     number of electrons       =        56.00
     number of Kohn-Sham states=           64
     kinetic-energy cutoff     =      30.0000  Ry
     charge density cutoff     =     240.0000  Ry
     scf convergence threshold =      1.0E-06
     mixing beta               =       0.7000
     number of iterations used =            8  plain     mixing
     Exchange-correlation=  SLA  PW   PBX  PBC
                           (   1   4   3   4   0   0   0)

     celldm(1)=  16.395079  celldm(2)=   0.000000  celldm(3)=   0.000000
     celldm(4)=   0.000000  celldm(5)=   0.000000  celldm(6)=   0.000000

     crystal axes: (cart. coord. in units of alat)
               a(1) = (   1.000000   0.000000   0.000000 )
               a(2) = (   0.672278   0.740298   0.000000 )
               a(3) = (  -0.836139  -0.370149   0.404797 )

     reciprocal axes: (cart. coord. in units 2 pi/alat)
               b(1) = (  1.000000 -0.908118  1.235186 )
               b(2) = (  0.000000  1.350806  1.235186 )
               b(3) = (  0.000000  0.000000  2.470372 )

     PseudoPot. # 1 for Ba read from file:
     /home/pragov/projects/rrg-bengioy-ad/pragov/crystal_structure_design/SSSP/Ba.pbe-spn-kjpaw_psl.1.0.0.UPF
     MD5 check sum: c432291d3e53af55f19d5e8866385beb
     Pseudo is Projector augmented-wave + core cor, Zval = 10.0
     Generated using "atomic" code by A. Dal Corso  v.5.1
     Shape of augmentation charge: PSQ
     Using radial grid of 1251 points,  7 beta functions with:
                l(1) =   0
                l(2) =   0
                l(3) =   0
                l(4) =   1
                l(5) =   1
                l(6) =   2
                l(7) =   2
     Q(r) pseudized with 0 coefficients

     PseudoPot. # 2 for Hf read from file:
     /home/pragov/projects/rrg-bengioy-ad/pragov/crystal_structure_design/SSSP/Hf-sp.oncvpsp.upf
     MD5 check sum: 417ed15784afe83d2e06dacf143de3f8
     Pseudo is Norm-conserving + core correction, Zval = 12.0
     Generated using ONCVPSP code by D. R. Hamann
     Using radial grid of 1656 points,  8 beta functions with:
                l(1) =   0
                l(2) =   0
                l(3) =   1
                l(4) =   1
                l(5) =   2
                l(6) =   2
                l(7) =   3
                l(8) =   3

     PseudoPot. # 3 for S  read from file:
     /home/pragov/projects/rrg-bengioy-ad/pragov/crystal_structure_design/SSSP/s_pbe_v1.4.uspp.F.UPF
     MD5 check sum: 88d86576ff6df21479756cfb9bdac1df
     Pseudo is Ultrasoft + core correction, Zval =  6.0
     Generated by new atomic code, or converted to UPF format
     Using radial grid of  907 points,  6 beta functions with:
                l(1) =   0
                l(2) =   0
                l(3) =   1
                l(4) =   1
                l(5) =   2
                l(6) =   2
     Q(r) pseudized with  8 coefficients,  rinner =    1.300   1.300   1.300
                                                       1.300   1.300

     atomic species   valence    mass     pseudopotential
        Ba            10.00   137.32700     Ba( 1.00)
        Hf            12.00   178.49000     Hf( 1.00)
        S              6.00    32.06000     S ( 1.00)

      4 Sym. Ops., with inversion, found

                                    s                        frac. trans.

      isym =  1     identity

 cryst.   s( 1) = (     1          0          0      )
                  (     0          1          0      )
                  (     0          0          1      )

 cart.    s( 1) = (  1.0000000 -0.0000000  0.0000000 )
                  (  0.0000000  1.0000000  0.0000000 )
                  (  0.0000000  0.0000000  1.0000000 )

      isym =  2     180 deg rotation - cart. axis [0,0,1]

[...]

      isym =  3     inversion

[...]

      isym =  4     inv. 180 deg rotation - cart. axis [0,0,1]

 cryst.   s( 4) = (     1          0          0      )
                  (     0          1          0      )
                  (    -1         -1         -1      )

 cart.    s( 4) = (  1.0000000 -0.0000000  0.0000000 )
                  (  0.0000000  1.0000000  0.0000000 )
                  (  0.0000000  0.0000000 -1.0000000 )

   Cartesian axes

     site n.     atom                  positions (alat units)
         1           Ba  tau(   1) = (   0.5983629   0.2648884   0.0000000  )
         2           Ba  tau(   2) = (   1.0739154   0.4754101   0.0000000  )
         3           Hf  tau(   3) = (   0.0000000   0.0000000   0.0000000  )
         4           S   tau(   4) = (   0.0819304  -0.1850746   0.2023986  )
         5           S   tau(   5) = (  -0.0819304   0.1850746   0.2023986  )
         6           S   tau(   6) = (   1.4016736   0.6205049   0.0000000  )
         7           S   tau(   7) = (   0.2706047   0.1197936   0.0000000  )

   Crystallographic axes

     site n.     atom                  positions (cryst. coord.)
         1           Ba  tau(   1) = (  0.3578130  0.3578130  0.0000000  )
         2           Ba  tau(   2) = (  0.6421870  0.6421870  0.0000000  )
         3           Hf  tau(   3) = (  0.0000000  0.0000000  0.0000000  )
         4           S   tau(   4) = (  0.5000000  0.0000000  0.5000000  )
         5           S   tau(   5) = ( -0.0000000  0.5000000  0.5000000  )
         6           S   tau(   6) = (  0.8381820  0.8381820  0.0000000  )
         7           S   tau(   7) = (  0.1618180  0.1618180  0.0000000  )

     number of k points=    10
                       cart. coord. in units 2pi/alat
        k(    1) = (   0.0000000   0.0000000   0.0000000), wk =   0.0740741
        k(    2) = (   0.0000000   0.0000000   0.8234575), wk =   0.1481481
        k(    3) = (   0.0000000   0.4502688   0.4117287), wk =   0.2962963
        k(    4) = (   0.0000000   0.4502688   1.2351862), wk =   0.1481481
        k(    5) = (   0.3333333  -0.3027060   0.4117287), wk =   0.2962963
        k(    6) = (   0.3333333  -0.3027060   1.2351862), wk =   0.1481481
        k(    7) = (   0.3333333   0.1475629   0.8234575), wk =   0.2962963
        k(    8) = (   0.3333333   0.1475629   0.0000000), wk =   0.1481481
        k(    9) = (   0.3333333  -0.7529748  -0.0000000), wk =   0.1481481
        k(   10) = (   0.3333333  -0.7529748   0.8234575), wk =   0.2962963

                       cryst. coord.
        k(    1) = (   0.0000000   0.0000000   0.0000000), wk =   0.0740741
        k(    2) = (   0.0000000   0.0000000   0.3333333), wk =   0.1481481
        k(    3) = (   0.0000000   0.3333333  -0.0000000), wk =   0.2962963
        k(    4) = (   0.0000000   0.3333333   0.3333333), wk =   0.1481481
        k(    5) = (   0.3333333  -0.0000000   0.0000000), wk =   0.2962963
        k(    6) = (   0.3333333  -0.0000000   0.3333333), wk =   0.1481481
        k(    7) = (   0.3333333   0.3333333  -0.0000000), wk =   0.2962963
        k(    8) = (   0.3333333   0.3333333  -0.3333333), wk =   0.1481481
        k(    9) = (   0.3333333  -0.3333333  -0.0000000), wk =   0.1481481
        k(   10) = (   0.3333333  -0.3333333   0.3333333), wk =   0.2962963

     Initial potential from superposition of free atoms

     starting charge      55.9640, renormalised to      56.0000
     Starting wfcs are   36 randomized atomic wfcs +   28 random wfcs
     Checking if some PAW data can be deallocated...

     Self-consistent Calculation

     iteration #  1     ecut=    30.00 Ry     beta= 0.70
     Davidson diagonalization with overlap

     ethr =  1.00E-02,  avg # of iterations =  7.6

     Threshold (ethr) on eigenvalues was too large:
     Diagonalizing with lowered threshold

     Davidson diagonalization with overlap

[...]

     negative rho (up, down):  5.866E-02 0.000E+00

     total energy              =   -1082.31209614 Ry
     estimated scf accuracy    <       0.58534082 Ry

[...]

     negative rho (up, down):  9.828E-03 0.000E+00

[...]

     total energy              =   -1082.49652622 Ry
     estimated scf accuracy    <       0.00000932 Ry

     iteration # 12     ecut=    30.00 Ry     beta= 0.70
     Davidson diagonalization with overlap

     ethr =  3.04E-09,  avg # of iterations =  2.0

     End of self-consistent calculation

          k = 0.0000 0.0000 0.0000 (  3671 PWs)   bands (ev):

   -55.0646 -23.8431 -23.8431 -23.6770 -19.9799 -19.9625  -6.1975  -5.2211
    -5.1421  -5.1420  -5.1248  -5.1248  -5.0629  -4.7736  -3.6706  -3.5999
     3.8250   3.8250   4.1452   4.1987   5.1485   5.4941   5.4941   5.8527
     5.8528   6.6146   6.6146   6.6162   7.6361   8.6165   8.6165   9.8876
     9.9689  10.3152  10.5987  10.9507  11.5789  11.6060  11.6586  12.1358
    12.1358  12.2581  13.2590  13.5833  13.5833  14.6451  15.8134  16.5690
    16.5690  17.1772  17.2078  17.2078  18.2335  18.3163  18.6741  19.4444
    19.6426  19.6426  20.3715  20.7817  20.9595  21.0644  21.0645  21.0980

     occupation numbers
     1.0000   1.0000   1.0000   1.0000   1.0000   1.0000   1.0000   1.0000
     1.0000   1.0000   1.0000   1.0000   1.0000   1.0000   1.0000   1.0000
     1.0000   1.0000   1.0000   1.0000   1.0000   1.0000   1.0000   1.0000
     1.0000   1.0000   1.0000   1.0000   0.0000   0.0000   0.0000   0.0000
     0.0000   0.0000   0.0000   0.0000   0.0000   0.0000   0.0000   0.0000
     0.0000   0.0000   0.0000   0.0000   0.0000   0.0000   0.0000   0.0000
     0.0000   0.0000   0.0000   0.0000   0.0000   0.0000   0.0000   0.0000
     0.0000   0.0000   0.0000   0.0000   0.0000   0.0000   0.0000   0.0000

[...]

          k = 0.3333-0.7530 0.8235 (  3656 PWs)   bands (ev):

   -55.0621 -23.8526 -23.8422 -23.6742 -19.9693 -19.9668  -6.0871  -5.4594
    -5.4526  -5.1576  -5.1457  -5.0940  -4.6690  -4.4036  -3.7072  -3.4900
     2.7817   3.7477   4.0013   4.4035   4.6011   4.6724   5.1045   5.2700
     5.4859   5.9032   6.1770   6.6236   9.2917   9.5899   9.8675  10.5449
    10.6374  11.2376  11.4739  11.7994  12.1881  12.2964  12.5725  12.5947
    12.8262  13.1662  13.1857  13.4422  14.0306  15.0176  15.3218  15.9009
    16.1048  16.3608  16.4316  16.5651  17.1953  17.6107  17.6607  17.9483
    18.5158  18.8659  19.0563  19.0944  19.7577  19.7803  19.7917  20.5018

     occupation numbers
     1.0000   1.0000   1.0000   1.0000   1.0000   1.0000   1.0000   1.0000
     1.0000   1.0000   1.0000   1.0000   1.0000   1.0000   1.0000   1.0000
     1.0000   1.0000   1.0000   1.0000   1.0000   1.0000   1.0000   1.0000
     1.0000   1.0000   1.0000   1.0000   0.0000   0.0000   0.0000   0.0000
     0.0000   0.0000   0.0000   0.0000   0.0000   0.0000   0.0000   0.0000
     0.0000   0.0000   0.0000   0.0000   0.0000   0.0000   0.0000   0.0000
     0.0000   0.0000   0.0000   0.0000   0.0000   0.0000   0.0000   0.0000
     0.0000   0.0000   0.0000   0.0000   0.0000   0.0000   0.0000   0.0000

     highest occupied, lowest unoccupied level (ev):     6.6236    7.6361

!    total energy              =   -1082.49652671 Ry
     estimated scf accuracy    <       0.00000007 Ry

     The total energy is the sum of the following terms:
     one-electron contribution =     -76.79139722 Ry
     hartree contribution      =      60.86606123 Ry
     xc contribution           =    -103.03911134 Ry
     ewald contribution        =    -213.62851772 Ry
     one-center paw contrib.   =    -749.90356166 Ry
      -> PAW hartree energy AE =      28.51618315 Ry
      -> PAW hartree energy PS =     -28.40479538 Ry
      -> PAW xc energy AE      =    -394.19408894 Ry
      -> PAW xc energy PS      =      19.13092034 Ry
      -> total E_H with PAW    =      60.97744900 Ry
      -> total E_XC with PAW   =    -478.10227994 Ry

     convergence has been achieved in  12 iterations

     Writing all to output data dir calculations_bands/myprefix.save/

     General routines

     Parallel routines

     PAW routines

   This run was terminated on:  21:34:58   6Jun2023

   JOB DONE.