     Program PWSCF v.7.1 starts on 16Jul2023 at 23:52:25

     Reading input from espresso_26374.pwi
Warning: card &CELL ignored
Warning: card / ignored

     Current dimensions of program PWSCF are:
     Max number of different atomic species (ntypx) = 10
     Max number of k-points (npk) =  40000
     Max angular momentum in pseudopotentials (lmaxx) =  4
     Message from routine setup:
     using ibrav=0 with symmetry is DISCOURAGED, use correct ibrav instead

     K-points division:     npool     =       2
     R & G space division:  proc/nbgrp/npool/nimage =       4
     Subspace diagonalization in iterative solution of the eigenvalue problem:
     one sub-group per band group will be used

     Using Slab Decomposition

     bravais-lattice index     =            0
     lattice parameter (alat)  =      12.8278  a.u.
     unit-cell volume          =    3381.1691 (a.u.)^3
     number of atoms/cell      =           16
     number of atomic types    =            2
     number of electrons       =       144.00
     number of Kohn-Sham states=          256
     kinetic-energy cutoff     =      30.0000  Ry
     charge density cutoff     =     240.0000  Ry
     scf convergence threshold =      1.0E-06
     mixing beta               =       0.7000
     number of iterations used =            8  plain     mixing
     Exchange-correlation=  SLA  PW   PBX  PBC
                           (   1   4   3   4   0   0   0)

     celldm(1)=  12.827773  celldm(2)=   0.000000  celldm(3)=   0.000000
     celldm(4)=   0.000000  celldm(5)=   0.000000  celldm(6)=   0.000000

     crystal axes: (cart. coord. in units of alat)
               a(1) = (   1.000000   0.000000   0.000000 )
               a(2) = (   0.000000   1.233499   0.000000 )
               a(3) = (   0.000000   0.000000   1.298597 )

     reciprocal axes: (cart. coord. in units 2 pi/alat)
               b(1) = (  1.000000  0.000000  0.000000 )
               b(2) = (  0.000000  0.810702  0.000000 )
               b(3) = (  0.000000  0.000000  0.770062 )

     PseudoPot. # 1 for Bi read from file:
     /lustre07/scratch/pragov/crystal_structure_design/utils/SSSP/Bi_pbe_v1.uspp.F.UPF
     MD5 check sum: cceb9f28ec65b6d7ff33140f5b0b1758
     Pseudo is Ultrasoft + core correction, Zval = 15.0
     Generated by new atomic code, or converted to UPF format
     Using radial grid of  899 points,  6 beta functions with:
                l(1) =   0
                l(2) =   0
                l(3) =   1
                l(4) =   1
                l(5) =   2
                l(6) =   2
     Q(r) pseudized with  6 coefficients,  rinner =    1.000   1.000   1.000
                                                       1.000   1.000

     PseudoPot. # 2 for Cl read from file:
     /lustre07/scratch/pragov/crystal_structure_design/utils/SSSP/cl_pbe_v1.4.uspp.F.UPF
     MD5 check sum: fc6f6913ecf08c9257cb748ef0700058
     Pseudo is Ultrasoft + core correction, Zval =  7.0
     Generated by new atomic code, or converted to UPF format
     Using radial grid of  909 points,  6 beta functions with:
                l(1) =   0
                l(2) =   0
                l(3) =   1
                l(4) =   1
                l(5) =   2
                l(6) =   2
     Q(r) pseudized with  8 coefficients,  rinner =    1.300   1.300   1.300
                                                       1.300   1.300

     atomic species   valence    mass     pseudopotential
        Bi            15.00   208.98040     Bi( 1.00)
        Cl             7.00    35.45000     Cl( 1.00)

      8 Sym. Ops., with inversion, found ( 6 have fractional translation)

                                    s                        frac. trans.

      isym =  1     identity

 cryst.   s( 1) = (     1          0          0      )
                  (     0          1          0      )
                  (     0          0          1      )

 cart.    s( 1) = (  1.0000000  0.0000000  0.0000000 )
                  (  0.0000000  1.0000000  0.0000000 )
                  (  0.0000000  0.0000000  1.0000000 )

      isym =  2     180 deg rotation - cart. axis [0,0,1]

 cryst.   s( 2) = (    -1          0          0      )    f =(  0.0000000 )
                  (     0         -1          0      )       ( -0.0000000 )
                  (     0          0          1      )       (  0.5000000 )

 cart.    s( 2) = ( -1.0000000  0.0000000  0.0000000 )    f =(  0.0000000 )
                  (  0.0000000 -1.0000000  0.0000000 )       ( -0.0000000 )
                  (  0.0000000  0.0000000  1.0000000 )       (  0.6492986 )

[...]

      isym =  4     180 deg rotation - cart. axis [1,0,0]

[...]

      isym =  5     inversion

 cryst.   s( 5) = (    -1          0          0      )
                  (     0         -1          0      )
                  (     0          0         -1      )

 cart.    s( 5) = ( -1.0000000  0.0000000  0.0000000 )
                  (  0.0000000 -1.0000000  0.0000000 )
                  (  0.0000000  0.0000000 -1.0000000 )

      isym =  6     inv. 180 deg rotation - cart. axis [0,0,1]

[...]

      isym =  8     inv. 180 deg rotation - cart. axis [1,0,0]

 cryst.   s( 8) = (    -1          0          0      )    f =(  0.5000000 )
                  (     0          1          0      )       (  0.5000000 )
                  (     0          0          1      )       (  0.0000000 )

 cart.    s( 8) = ( -1.0000000  0.0000000  0.0000000 )    f =(  0.5000000 )
                  (  0.0000000  1.0000000  0.0000000 )       (  0.6167493 )
                  (  0.0000000  0.0000000  1.0000000 )       (  0.0000000 )

   Cartesian axes

     site n.     atom                  positions (alat units)
         1           Bi  tau(   1) = (   0.4882600   0.6720273   0.9739479  )
         2           Bi  tau(   2) = (   0.5117400   0.5614713   0.3246493  )
         3           Bi  tau(   3) = (   0.0117400   0.0552780   0.9739479  )
         4           Bi  tau(   4) = (   0.9882600   1.1782206   0.3246493  )
         5           Cl  tau(   5) = (   0.6332540   0.4156792   1.2200593  )
         6           Cl  tau(   6) = (   0.3667460   0.8178194   0.5707607  )
         7           Cl  tau(   7) = (   0.8667460   1.0324285   1.2200593  )
         8           Cl  tau(   8) = (   0.1332540   0.2010701   0.5707607  )
         9           Cl  tau(   9) = (   0.6496370   0.0870369   0.3246493  )
        10           Cl  tau(  10) = (   0.3503630   1.1464617   0.9739479  )
        11           Cl  tau(  11) = (   0.8503630   0.7037862   0.3246493  )
        12           Cl  tau(  12) = (   0.1496370   0.5297124   0.9739479  )
        13           Cl  tau(  13) = (   0.1332540   0.2010701   0.0785379  )
        14           Cl  tau(  14) = (   0.8667460   1.0324285   0.7278365  )
        15           Cl  tau(  15) = (   0.3667460   0.8178194   0.0785379  )
        16           Cl  tau(  16) = (   0.6332540   0.4156792   0.7278365  )

   Crystallographic axes

     site n.     atom                  positions (cryst. coord.)
         1           Bi  tau(   1) = (  0.4882600  0.5448140  0.7500000  )
         2           Bi  tau(   2) = (  0.5117400  0.4551860  0.2500000  )
         3           Bi  tau(   3) = (  0.0117400  0.0448140  0.7500000  )
         4           Bi  tau(   4) = (  0.9882600  0.9551860  0.2500000  )
         5           Cl  tau(   5) = (  0.6332540  0.3369920  0.9395210  )
         6           Cl  tau(   6) = (  0.3667460  0.6630080  0.4395210  )
         7           Cl  tau(   7) = (  0.8667460  0.8369920  0.9395210  )
         8           Cl  tau(   8) = (  0.1332540  0.1630080  0.4395210  )
         9           Cl  tau(   9) = (  0.6496370  0.0705610  0.2500000  )
        10           Cl  tau(  10) = (  0.3503630  0.9294390  0.7500000  )
        11           Cl  tau(  11) = (  0.8503630  0.5705610  0.2500000  )
        12           Cl  tau(  12) = (  0.1496370  0.4294390  0.7500000  )
        13           Cl  tau(  13) = (  0.1332540  0.1630080  0.0604790  )
        14           Cl  tau(  14) = (  0.8667460  0.8369920  0.5604790  )
        15           Cl  tau(  15) = (  0.3667460  0.6630080  0.0604790  )
        16           Cl  tau(  16) = (  0.6332540  0.3369920  0.5604790  )

     number of k points=     8
                       cart. coord. in units 2pi/alat
        k(    1) = (   0.0000000   0.0000000   0.0000000), wk =   0.0740741
        k(    2) = (   0.0000000   0.0000000   0.2566872), wk =   0.1481481
        k(    3) = (   0.0000000   0.2702341   0.0000000), wk =   0.1481481
        k(    4) = (   0.0000000   0.2702341   0.2566872), wk =   0.2962963
        k(    5) = (   0.3333333   0.0000000   0.0000000), wk =   0.1481481
        k(    6) = (   0.3333333   0.0000000   0.2566872), wk =   0.2962963
        k(    7) = (   0.3333333   0.2702341   0.0000000), wk =   0.2962963
        k(    8) = (   0.3333333   0.2702341   0.2566872), wk =   0.5925926

                       cryst. coord.
        k(    1) = (   0.0000000   0.0000000   0.0000000), wk =   0.0740741
        k(    2) = (   0.0000000   0.0000000   0.3333333), wk =   0.1481481
        k(    3) = (   0.0000000   0.3333333   0.0000000), wk =   0.1481481
        k(    4) = (   0.0000000   0.3333333   0.3333333), wk =   0.2962963
        k(    5) = (   0.3333333   0.0000000   0.0000000), wk =   0.1481481
        k(    6) = (   0.3333333   0.0000000   0.3333333), wk =   0.2962963
        k(    7) = (   0.3333333   0.3333333   0.0000000), wk =   0.2962963
        k(    8) = (   0.3333333   0.3333333   0.3333333), wk =   0.5925926

     Check: negative core charge=   -0.000003

     Initial potential from superposition of free atoms

     starting charge     139.9997, renormalised to     144.0000

     negative rho (up, down):  3.532E-01 0.000E+00
     Starting wfcs are   84 randomized atomic wfcs +  172 random wfcs

     Self-consistent Calculation

     iteration #  1     ecut=    30.00 Ry     beta= 0.70
     Davidson diagonalization with overlap

     ethr =  1.00E-02,  avg # of iterations =  8.8

     Threshold (ethr) on eigenvalues was too large:
     Diagonalizing with lowered threshold

     Davidson diagonalization with overlap

[...]

     negative rho (up, down):  3.358E-01 0.000E+00

     total energy              =   -1141.17503768 Ry
     estimated scf accuracy    <       1.26099314 Ry

[...]

     c_bands:  4 eigenvalues not converged
     c_bands:  1 eigenvalues not converged
     ethr =  7.11E-07,  avg # of iterations = 26.0

[...]

     total energy              =   -1141.67950598 Ry
     estimated scf accuracy    <       0.00000160 Ry

     iteration #  8     ecut=    30.00 Ry     beta= 0.70
     Davidson diagonalization with overlap

     ethr =  1.11E-09,  avg # of iterations =  3.5

     negative rho (up, down):  3.384E-01 0.000E+00

     End of self-consistent calculation

          k = 0.0000 0.0000 0.0000 (  9357 PWs)   bands (ev):

   -19.9836 -19.9811 -19.9759 -19.9731 -19.9562 -19.9560 -19.9452 -19.9451
   -19.9237 -19.9227 -19.9203 -19.9196 -19.9192 -19.9190 -19.9171 -19.9170
   -19.9065 -19.9064 -19.9041 -19.9039 -12.0907 -11.7990 -11.4456 -11.4344
   -11.1384 -11.0912 -11.0035 -10.9675 -10.9595 -10.8888 -10.7774 -10.6996
    -7.3698  -6.9246  -6.6535  -6.2784  -1.5412  -1.0347  -0.9795  -0.9606
    -0.6084  -0.6030  -0.4890  -0.4281  -0.4012  -0.2142   0.2836   0.3859
     0.4047   0.5815   0.6774   0.7194   0.7708   0.8113   0.8149   0.9689
     1.0281   1.1042   1.2986   1.3612   1.4259   1.4637   1.5741   1.5957
     1.6918   1.6971   1.7345   1.7399   1.7412   1.7637   1.7805   1.8113
     5.3401   5.6812   5.7704   6.4258   6.4940   6.5253   6.5461   6.6765
     6.8274   6.9391   7.0302   7.5362   9.3405  10.6606  10.8584  10.8602
    10.9333  11.2495  11.2847  11.4288  11.7196  11.9739  12.0403  12.1865
    12.2210  12.2645  12.3553  12.5085  12.5590  12.6164  12.6390  12.7198
    12.8534  12.9092  12.9494  12.9867  13.1447  13.3933  13.5631  13.5672
    13.7081  13.9523  13.9758  13.9852  14.1856  14.2310  14.5627  14.7114
    15.2223  15.3252  15.4959  15.6598  15.8275  15.9577  16.1014  16.1244
    16.1602  16.1821  16.2091  16.3805  16.4695  16.6960  16.9435  16.9730
    17.1551  17.2212  17.2386  17.2773  17.3982  17.7184  17.7526  17.9028
    18.0373  18.0530  18.0778  18.0892  18.1841  18.3955  18.6850  18.8246
    19.0291  19.0464  19.1117  19.1463  19.2138  19.2425  19.2993  19.3268
    19.6551  20.0180  20.0328  20.0505  20.0796  20.0982  20.1659  20.2748
    20.6923  20.8489  21.0850  21.0879  21.1171  21.4876  21.5024  21.5175
    21.5431  21.6330  21.7234  21.8636  22.0018  22.0024  22.3258  22.3352
    22.4409  22.4873  22.5091  22.5186  22.8823  22.9009  22.9533  23.0244
    23.0906  23.1649  23.4222  23.4797  23.5527  23.7819  23.9376  23.9505
    24.0556  24.0957  24.1258  24.4385  24.4451  24.5153  24.5979  24.7515
    24.7613  24.7846  24.9718  25.1196  25.4212  25.4365  25.5013  25.6134
    25.7556  25.8207  26.0171  26.0434  26.0792  26.0873  26.1195  26.2608
    26.4677  26.5231  26.5736  26.6119  26.6646  26.6968  26.7208  27.0307
    27.1935  27.2016  27.4645  27.5272  27.5419  27.5735  27.7084  27.9605
    28.0094  28.1492  28.1882  28.2089  28.4462  28.7860  28.8403  28.8580
    28.8710  28.8823  28.9646  29.0633  29.1811  29.3886  29.5165  29.6755

     occupation numbers
     1.0000   1.0000   1.0000   1.0000   1.0000   1.0000   1.0000   1.0000
     1.0000   1.0000   1.0000   1.0000   1.0000   1.0000   1.0000   1.0000
     1.0000   1.0000   1.0000   1.0000   1.0000   1.0000   1.0000   1.0000
     1.0000   1.0000   1.0000   1.0000   1.0000   1.0000   1.0000   1.0000
     1.0000   1.0000   1.0000   1.0000   1.0000   1.0000   1.0000   1.0000
     1.0000   1.0000   1.0000   1.0000   1.0000   1.0000   1.0000   1.0000
     1.0000   1.0000   1.0000   1.0000   1.0000   1.0000   1.0000   1.0000
     1.0000   1.0000   1.0000   1.0000   1.0000   1.0000   1.0000   1.0000
     1.0000   1.0000   1.0000   1.0000   1.0000   1.0000   1.0000   1.0000
     0.0000   0.0000   0.0000   0.0000   0.0000   0.0000   0.0000   0.0000
     0.0000   0.0000   0.0000   0.0000   0.0000   0.0000   0.0000   0.0000
     0.0000   0.0000   0.0000   0.0000   0.0000   0.0000   0.0000   0.0000
     0.0000   0.0000   0.0000   0.0000   0.0000   0.0000   0.0000   0.0000
     0.0000   0.0000   0.0000   0.0000   0.0000   0.0000   0.0000   0.0000
     0.0000   0.0000   0.0000   0.0000   0.0000   0.0000   0.0000   0.0000
     0.0000   0.0000   0.0000   0.0000   0.0000   0.0000   0.0000   0.0000
     0.0000   0.0000   0.0000   0.0000   0.0000   0.0000   0.0000   0.0000
     0.0000   0.0000   0.0000   0.0000   0.0000   0.0000   0.0000   0.0000
     0.0000   0.0000   0.0000   0.0000   0.0000   0.0000   0.0000   0.0000
     0.0000   0.0000   0.0000   0.0000   0.0000   0.0000   0.0000   0.0000
     0.0000   0.0000   0.0000   0.0000   0.0000   0.0000   0.0000   0.0000
     0.0000   0.0000   0.0000   0.0000   0.0000   0.0000   0.0000   0.0000
     0.0000   0.0000   0.0000   0.0000   0.0000   0.0000   0.0000   0.0000
     0.0000   0.0000   0.0000   0.0000   0.0000   0.0000   0.0000   0.0000
     0.0000   0.0000   0.0000   0.0000   0.0000   0.0000   0.0000   0.0000
     0.0000   0.0000   0.0000   0.0000   0.0000   0.0000   0.0000   0.0000
     0.0000   0.0000   0.0000   0.0000   0.0000   0.0000   0.0000   0.0000
     0.0000   0.0000   0.0000   0.0000   0.0000   0.0000   0.0000   0.0000
     0.0000   0.0000   0.0000   0.0000   0.0000   0.0000   0.0000   0.0000
     0.0000   0.0000   0.0000   0.0000   0.0000   0.0000   0.0000   0.0000
     0.0000   0.0000   0.0000   0.0000   0.0000   0.0000   0.0000   0.0000
     0.0000   0.0000   0.0000   0.0000   0.0000   0.0000   0.0000   0.0000

[...]

          k = 0.3333 0.2702 0.2567 (  9388 PWs)   bands (ev):

   -19.9807 -19.9800 -19.9766 -19.9760 -19.9537 -19.9536 -19.9483 -19.9483
   -19.9224 -19.9222 -19.9207 -19.9205 -19.9185 -19.9185 -19.9175 -19.9174
   -19.9058 -19.9058 -19.9046 -19.9045 -11.8717 -11.8021 -11.6141 -11.5693
   -11.0923 -11.0683 -11.0119 -10.9971 -10.8964 -10.8918 -10.7819 -10.7619
    -7.0356  -6.9363  -6.6680  -6.5778  -1.2095  -1.1239  -0.9323  -0.8448
    -0.7801  -0.7159  -0.6503  -0.5717  -0.2094  -0.1376  -0.0421   0.0611
     0.6464   0.7590   0.7882   0.8659   0.9313   0.9682   0.9810   1.0846
     1.1654   1.2326   1.3054   1.3335   1.3914   1.4714   1.4882   1.5145
     1.5432   1.5604   1.5856   1.6323   1.7416   1.7643   1.8014   1.8473
     5.7007   5.7578   5.9026   6.0014   6.2712   6.3502   6.4695   6.5857
     6.6365   6.7338   6.9888   7.1416  10.5681  10.8044  10.8171  10.8862
    10.9418  11.0211  11.2142  11.3229  11.4214  11.5500  11.6766  11.7453
    11.8640  12.0194  12.1479  12.3686  12.4054  12.5562  12.7556  12.8397
    13.1044  13.1860  13.2540  13.3725  13.5765  13.7135  13.7706  13.8401
    14.1035  14.1730  14.2559  14.5314  14.6640  14.7495  14.8783  15.0565
    15.1472  15.2066  15.2611  15.3389  15.5281  15.7972  15.8466  15.9004
    15.9623  16.1474  16.2558  16.3782  16.4696  16.5743  16.7002  16.8595
    17.0209  17.1068  17.2138  17.3056  17.3696  17.4700  17.5030  17.8210
    17.9039  18.0393  18.1888  18.2291  18.4005  18.5031  18.6796  18.8547
    18.8857  18.9258  19.1334  19.2442  19.3748  19.5169  19.6081  19.6705
    19.7421  19.8026  19.9123  20.0428  20.1650  20.3043  20.3795  20.4378
    20.6011  20.7281  20.7427  20.8221  20.8979  21.0556  21.1776  21.2879
    21.3272  21.5117  21.6241  21.7032  21.7975  21.9178  21.9681  22.1486
    22.3497  22.4232  22.4896  22.6199  22.6479  22.7895  22.8355  23.1860
    23.2529  23.3423  23.4762  23.6850  23.7192  23.8010  23.9335  24.0143
    24.1971  24.3766  24.4081  24.4784  24.6158  24.6290  24.6725  24.7725
    24.8217  25.1002  25.1503  25.2877  25.4031  25.4976  25.6352  25.7236
    25.8168  25.9099  26.0062  26.0789  26.2175  26.2732  26.4513  26.4877
    26.6221  26.7461  26.7898  26.8756  26.9125  27.0251  27.0781  27.2291
    27.3265  27.4392  27.5570  27.5893  27.7039  27.7454  27.8233  28.0045
    28.2030  28.3038  28.3711  28.4055  28.5815  28.7033  28.7530  28.8447
    28.8525  28.8568  28.9423  29.0296  29.1086  29.2148  29.2820  29.4532

     occupation numbers
     1.0000   1.0000   1.0000   1.0000   1.0000   1.0000   1.0000   1.0000
     1.0000   1.0000   1.0000   1.0000   1.0000   1.0000   1.0000   1.0000
     1.0000   1.0000   1.0000   1.0000   1.0000   1.0000   1.0000   1.0000
     1.0000   1.0000   1.0000   1.0000   1.0000   1.0000   1.0000   1.0000
     1.0000   1.0000   1.0000   1.0000   1.0000   1.0000   1.0000   1.0000
     1.0000   1.0000   1.0000   1.0000   1.0000   1.0000   1.0000   1.0000
     1.0000   1.0000   1.0000   1.0000   1.0000   1.0000   1.0000   1.0000
     1.0000   1.0000   1.0000   1.0000   1.0000   1.0000   1.0000   1.0000
     1.0000   1.0000   1.0000   1.0000   1.0000   1.0000   1.0000   1.0000
     0.0000   0.0000   0.0000   0.0000   0.0000   0.0000   0.0000   0.0000
     0.0000   0.0000   0.0000   0.0000   0.0000   0.0000   0.0000   0.0000
     0.0000   0.0000   0.0000   0.0000   0.0000   0.0000   0.0000   0.0000
     0.0000   0.0000   0.0000   0.0000   0.0000   0.0000   0.0000   0.0000
     0.0000   0.0000   0.0000   0.0000   0.0000   0.0000   0.0000   0.0000
     0.0000   0.0000   0.0000   0.0000   0.0000   0.0000   0.0000   0.0000
     0.0000   0.0000   0.0000   0.0000   0.0000   0.0000   0.0000   0.0000
     0.0000   0.0000   0.0000   0.0000   0.0000   0.0000   0.0000   0.0000
     0.0000   0.0000   0.0000   0.0000   0.0000   0.0000   0.0000   0.0000
     0.0000   0.0000   0.0000   0.0000   0.0000   0.0000   0.0000   0.0000
     0.0000   0.0000   0.0000   0.0000   0.0000   0.0000   0.0000   0.0000
     0.0000   0.0000   0.0000   0.0000   0.0000   0.0000   0.0000   0.0000
     0.0000   0.0000   0.0000   0.0000   0.0000   0.0000   0.0000   0.0000
     0.0000   0.0000   0.0000   0.0000   0.0000   0.0000   0.0000   0.0000
     0.0000   0.0000   0.0000   0.0000   0.0000   0.0000   0.0000   0.0000
     0.0000   0.0000   0.0000   0.0000   0.0000   0.0000   0.0000   0.0000
     0.0000   0.0000   0.0000   0.0000   0.0000   0.0000   0.0000   0.0000
     0.0000   0.0000   0.0000   0.0000   0.0000   0.0000   0.0000   0.0000
     0.0000   0.0000   0.0000   0.0000   0.0000   0.0000   0.0000   0.0000
     0.0000   0.0000   0.0000   0.0000   0.0000   0.0000   0.0000   0.0000
     0.0000   0.0000   0.0000   0.0000   0.0000   0.0000   0.0000   0.0000
     0.0000   0.0000   0.0000   0.0000   0.0000   0.0000   0.0000   0.0000
     0.0000   0.0000   0.0000   0.0000   0.0000   0.0000   0.0000   0.0000

     highest occupied, lowest unoccupied level (ev):     1.9158    5.3401

!    total energy              =   -1141.67950653 Ry
     estimated scf accuracy    <       0.00000009 Ry

     The total energy is the sum of the following terms:
     one-electron contribution =    -433.30570518 Ry
     hartree contribution      =     276.25111493 Ry
     xc contribution           =    -371.44072214 Ry
     ewald contribution        =    -613.18419414 Ry

     convergence has been achieved in   8 iterations

     Writing all to output data dir bands_nm/myprefix.save/

     General routines

     Parallel routines

   This run was terminated on:  23:53:35  16Jul2023

   JOB DONE.