     Program PWSCF v.7.1 starts on 15Jul2023 at 20:28:58

     Reading input from espresso_5170.pwi
Warning: card &CELL ignored
Warning: card / ignored

     Current dimensions of program PWSCF are:
     Max number of different atomic species (ntypx) = 10
     Max number of k-points (npk) =  40000
     Max angular momentum in pseudopotentials (lmaxx) =  4
     file Tb.paw.z_19.atompaw.wentzcovitch.v1.2.upf: wavefunction(s)  6S 0P 5D 0D 4F 0F renormalized
     file Cu.paw.z_11.ld1.psl.v1.0.0-low.upf: wavefunction(s)  4S 3D renormalized
     Message from routine setup:
     using ibrav=0 with symmetry is DISCOURAGED, use correct ibrav instead

     K-points division:     npool     =       2
     R & G space division:  proc/nbgrp/npool/nimage =       4
     Subspace diagonalization in iterative solution of the eigenvalue problem:
     one sub-group per band group will be used

     Using Slab Decomposition

     bravais-lattice index     =            0
     lattice parameter (alat)  =      15.5159  a.u.
     unit-cell volume          =    2277.0752 (a.u.)^3
     number of atoms/cell      =           14
     number of atomic types    =            3
     number of electrons       =       140.00
     number of Kohn-Sham states=          256
     kinetic-energy cutoff     =      30.0000  Ry
     charge density cutoff     =     240.0000  Ry
     scf convergence threshold =      1.0E-06
     mixing beta               =       0.7000
     number of iterations used =            8  plain     mixing
     Exchange-correlation= SLA  PW   PBE  PBE
                           (   1   4   3   4   0   0   0)

     celldm(1)=  15.515928  celldm(2)=   0.000000  celldm(3)=   0.000000
     celldm(4)=   0.000000  celldm(5)=   0.000000  celldm(6)=   0.000000

     crystal axes: (cart. coord. in units of alat)
               a(1) = (   1.000000   0.000000   0.000000 )
               a(2) = (   0.586454   0.809982   0.000000 )
               a(3) = (   0.586455   0.299421   0.752608 )

     reciprocal axes: (cart. coord. in units 2 pi/alat)
               b(1) = (  1.000000 -0.724034 -0.491177 )
               b(2) = (  0.000000  1.234595 -0.491177 )
               b(3) = (  0.000000  0.000000  1.328714 )

     PseudoPot. # 1 for Tb read from file:
     /lustre07/scratch/pragov/crystal_structure_design/utils/SSSP/Tb.paw.z_19.atompaw.wentzcovitch.v1.2.upf
     MD5 check sum: 9e397ff4c8e7fcf344a3e57e25721bc0
     Pseudo is Projector augmented-wave + core cor, Zval = 19.0
     Generated using ATOMPAW code
     Shape of augmentation charge: BESSEL
     Using radial grid of 1111 points,  8 beta functions with:
                l(1) =   0
                l(2) =   0
                l(3) =   1
                l(4) =   1
                l(5) =   2
                l(6) =   2
                l(7) =   3
                l(8) =   3
     Q(r) pseudized with 0 coefficients

     PseudoPot. # 2 for Cu read from file:
     /lustre07/scratch/pragov/crystal_structure_design/utils/SSSP/Cu.paw.z_11.ld1.psl.v1.0.0-low.upf
     MD5 check sum: 619f40885d92a09a85a8b37550532d0c
     Pseudo is Projector augmented-wave + core cor, Zval = 11.0
     Generated using &quot;atomic&quot; code by A. Dal Corso  v.6.3MaX
     Shape of augmentation charge: PSQ
     Using radial grid of 1199 points,  6 beta functions with:
                l(1) =   0
                l(2) =   0
                l(3) =   1
                l(4) =   1
                l(5) =   2
                l(6) =   2
     Q(r) pseudized with 0 coefficients

     PseudoPot. # 3 for Te read from file:
     /lustre07/scratch/pragov/crystal_structure_design/utils/SSSP/Te_pbe_v1.uspp.F.UPF
     MD5 check sum: c319670d6894cc26e93307826a071b75
     Pseudo is Ultrasoft + core correction, Zval =  6.0
     Generated by new atomic code, or converted to UPF format
     Using radial grid of  891 points,  5 beta functions with:
                l(1) =   0
                l(2) =   0
                l(3) =   1
                l(4) =   1
                l(5) =   2
     Q(r) pseudized with  6 coefficients,  rinner =    1.800   1.800   1.800
                                                       1.800   1.800

     atomic species   valence    mass     pseudopotential
        Tb            19.00   158.92535     Tb( 1.00)
        Cu            11.00    63.54600     Cu( 1.00)
        Te             6.00   127.60000     Te( 1.00)

      2 Sym. Ops., with inversion, found

                                    s                        frac. trans.

      isym =  1     identity

 cryst.   s( 1) = (     1          0          0      )
                  (     0          1          0      )
                  (     0          0          1      )

 cart.    s( 1) = (  1.0000000 -0.0000000  0.0000000 )
                  (  0.0000000  1.0000000  0.0000000 )
                  (  0.0000000  0.0000000  1.0000000 )

      isym =  2     inversion

 cryst.   s( 2) = (    -1          0          0      )
                  (     0         -1          0      )
                  (     0          0         -1      )

 cart.    s( 2) = ( -1.0000000  0.0000000  0.0000000 )
                  (  0.0000000 -1.0000000  0.0000000 )
                  (  0.0000000  0.0000000 -1.0000000 )

   Cartesian axes

     site n.     atom                  positions (alat units)
         1           Tb  tau(   1) = (   1.4470466   0.7388060   0.5011983  )
         2           Tb  tau(   2) = (   0.7258624   0.3705972   0.2514093  )
         3           Cu  tau(   3) = (   1.3187896   0.4969199   0.1738840  )
         4           Cu  tau(   4) = (   1.1759064   0.4487126   0.6574743  )
         5           Cu  tau(   5) = (   1.0530647   0.8657167   0.3974423  )
         6           Cu  tau(   6) = (   1.1198443   0.2436865   0.3551653  )
         7           Cu  tau(   7) = (   0.9970026   0.6606906   0.0951334  )
         8           Cu  tau(   8) = (   0.8541194   0.6124833   0.5787236  )
         9           Te  tau(   9) = (   0.7671177   0.7398598   0.3045118  )
        10           Te  tau(  10) = (   0.9005871   0.2950243   0.5748853  )
        11           Te  tau(  11) = (   1.0491528   0.3522382   0.0616122  )
        12           Te  tau(  12) = (   1.1237561   0.7571650   0.6909954  )
        13           Te  tau(  13) = (   1.2723219   0.8143789   0.1777223  )
        14           Te  tau(  14) = (   1.4057913   0.3695434   0.4480958  )

   Crystallographic axes

     site n.     atom                  positions (cryst. coord.)
         1           Tb  tau(   1) = (  0.6659490  0.6659490  0.6659490  )
         2           Tb  tau(   2) = (  0.3340510  0.3340510  0.3340510  )
         3           Cu  tau(   3) = (  0.8735950  0.5280870  0.2310420  )
         4           Cu  tau(   4) = (  0.5280870  0.2310420  0.8735950  )
         5           Cu  tau(   5) = (  0.2310420  0.8735950  0.5280870  )
         6           Cu  tau(   6) = (  0.7689580  0.1264050  0.4719130  )
         7           Cu  tau(   7) = (  0.4719130  0.7689580  0.1264050  )
         8           Cu  tau(   8) = (  0.1264050  0.4719130  0.7689580  )
         9           Te  tau(   9) = (  0.0818650  0.7638580  0.4046090  )
        10           Te  tau(  10) = (  0.4046090  0.0818650  0.7638580  )
        11           Te  tau(  11) = (  0.7638580  0.4046090  0.0818650  )
        12           Te  tau(  12) = (  0.2361420  0.5953910  0.9181350  )
        13           Te  tau(  13) = (  0.5953910  0.9181350  0.2361420  )
        14           Te  tau(  14) = (  0.9181350  0.2361420  0.5953910  )

     number of k points=    14
                       cart. coord. in units 2pi/alat
        k(    1) = (   0.0000000   0.0000000   0.0000000), wk =   0.0740741
        k(    2) = (   0.0000000   0.0000000   0.4429045), wk =   0.1481481
        k(    3) = (   0.0000000   0.4115317  -0.1637257), wk =   0.1481481
        k(    4) = (   0.0000000   0.4115317   0.2791788), wk =   0.1481481
        k(    5) = (   0.0000000   0.4115317  -0.6066303), wk =   0.1481481
        k(    6) = (   0.3333333  -0.2413446  -0.1637257), wk =   0.1481481
        k(    7) = (   0.3333333  -0.2413446   0.2791788), wk =   0.1481481
        k(    8) = (   0.3333333  -0.2413446  -0.6066303), wk =   0.1481481
        k(    9) = (   0.3333333   0.1701871  -0.3274514), wk =   0.1481481
        k(   10) = (   0.3333333   0.1701871   0.1154531), wk =   0.1481481
        k(   11) = (   0.3333333   0.1701871  -0.7703560), wk =   0.1481481
        k(   12) = (   0.3333333  -0.6528762   0.0000000), wk =   0.1481481
        k(   13) = (   0.3333333  -0.6528762   0.4429045), wk =   0.1481481
        k(   14) = (   0.3333333  -0.6528762  -0.4429045), wk =   0.1481481

                       cryst. coord.
        k(    1) = (   0.0000000   0.0000000   0.0000000), wk =   0.0740741
        k(    2) = (   0.0000000   0.0000000   0.3333333), wk =   0.1481481
        k(    3) = (   0.0000000   0.3333333   0.0000000), wk =   0.1481481
        k(    4) = (   0.0000000   0.3333333   0.3333333), wk =   0.1481481
        k(    5) = (   0.0000000   0.3333333  -0.3333333), wk =   0.1481481
        k(    6) = (   0.3333333   0.0000000   0.0000000), wk =   0.1481481
        k(    7) = (   0.3333333   0.0000000   0.3333333), wk =   0.1481481
        k(    8) = (   0.3333333   0.0000000  -0.3333333), wk =   0.1481481
        k(    9) = (   0.3333333   0.3333333   0.0000000), wk =   0.1481481
        k(   10) = (   0.3333333   0.3333333   0.3333333), wk =   0.1481481
        k(   11) = (   0.3333333   0.3333333  -0.3333333), wk =   0.1481481
        k(   12) = (   0.3333333  -0.3333333  -0.0000000), wk =   0.1481481
        k(   13) = (   0.3333333  -0.3333333   0.3333333), wk =   0.1481481
        k(   14) = (   0.3333333  -0.3333333  -0.3333333), wk =   0.1481481

     Check: negative core charge=   -0.000001

     Initial potential from superposition of free atoms

     starting charge     139.9885, renormalised to     140.0000
     Starting wfcs are  142 randomized atomic wfcs +  114 random wfcs
     Checking if some PAW data can be deallocated...

     Self-consistent Calculation

     iteration #  1     ecut=    30.00 Ry     beta= 0.70
     Davidson diagonalization with overlap

     ethr =  1.00E-02,  avg # of iterations =  7.8

     total energy              =   -2837.44751105 Ry
     estimated scf accuracy    <      52.39818327 Ry

[...]

     total energy              =   -2894.75320375 Ry
     estimated scf accuracy    <       0.00000189 Ry

     iteration # 69     ecut=    30.00 Ry     beta= 0.70
     Davidson diagonalization with overlap

     ethr =  1.35E-09,  avg # of iterations =  1.0

     End of self-consistent calculation

          k = 0.0000 0.0000 0.0000 (  6341 PWs)   bands (ev):

   -35.3531 -35.3499 -12.5804 -12.5678 -12.5616 -12.5343 -12.5128 -12.4937
    -3.8083  -2.7526  -2.7012  -2.6932  -2.6028  -2.5955   3.1840   3.3818
     3.3839   3.5763   3.5774   4.1146   4.3390   4.7439   4.7702   4.8331
     4.8339   4.9433   4.9445   5.1741   5.1766   5.1851   5.2673   5.2719
     5.7346   5.7561   5.7883   5.8258   5.8332   5.8348   6.0508   6.0528
     6.1037   6.1213   6.1429   6.1470   6.1541   6.2394   6.2412   6.2528
     6.2531   6.2994   6.3015   6.9939   6.9968   7.1681   7.2020   7.2406
     7.2458   7.7404   7.7434   7.9792   8.1027   8.1478   8.2138   8.2246
     8.2570   8.2739   8.2740   8.2950   8.4461   8.5177   8.5383   8.5539
     8.5628   9.1349   9.1725   9.2070  10.1876  10.4029  10.7709  11.0254
    11.0267  11.0450  11.0481  11.5787  11.8365  11.8390  12.6561  12.6805
    12.6817  12.7392  12.7397  13.1938  13.4290  13.4310  14.4138  14.4168
    14.6027  14.6048  14.6706  15.0749  15.2351  15.8460  15.8482  16.2122
    16.3103  16.3844  16.3864  16.5811  16.6392  17.2506  17.2516  17.7661
    17.7681  17.9413  17.9445  18.4654  18.6747  18.6765  18.8515  19.1925
    19.1978  19.5125  19.5144  19.6450  19.6484  21.5605  22.1802  22.1821
    22.1844  22.3985  22.5951  22.5978  22.6145  22.9312  23.3540  23.4491
    23.4504  23.6321  23.7030  23.7061  23.7963  24.0874  24.0878  24.2652
    24.6138  24.6140  25.3306  25.3317  25.5418  25.5424  25.6032  25.6121
    25.8737  26.1709  26.1750  26.9468  26.9477  27.0842  27.0861  27.3425
    27.3440  27.4604  27.7597  27.7616  27.8294  27.8310  27.9649  28.4969
    28.7498  28.8921  29.1437  29.2048  29.2061  29.2161  29.2168  29.9437
    29.9604  30.2952  30.2987  30.5313  30.8172  31.0147  31.0165  31.1359
    31.4932  31.4942  31.7175  31.7196  31.9966  32.0140  32.2519  32.2531
    32.4265  32.4292  33.3813  33.3816  33.3990  33.6910  33.7249  33.7272
    33.8168  34.0923  34.2946  34.2968  34.3308  34.3562  34.3574  34.4687
    34.9372  34.9388  35.1520  35.1843  35.1852  35.4604  35.6043  35.6074
    35.6532  35.6572  35.7855  36.6438  36.6481  36.8493  36.9778  37.0349
    37.0398  37.4738  37.4744  37.7819  37.9848  37.9862  38.4479  38.4509
    38.6411  38.6421  38.9002  39.0395  39.1080  39.1094  39.2786  39.2788
    39.3569  39.8637  39.8659  40.0727  40.0747  40.7495  40.8717  41.4156
    41.4173  41.8091  41.8105  41.9111  41.9722  42.1389  42.7606  42.7636

     occupation numbers
     1.0000   1.0000   1.0000   1.0000   1.0000   1.0000   1.0000   1.0000
     1.0000   1.0000   1.0000   1.0000   1.0000   1.0000   1.0000   1.0000
     1.0000   1.0000   1.0000   1.0000   1.0000   1.0000   1.0000   1.0000
     1.0000   1.0000   1.0000   1.0000   1.0000   1.0000   1.0000   1.0000
     1.0000   1.0000   1.0000   1.0000   1.0000   1.0000   1.0000   1.0000
     1.0000   1.0000   1.0000   1.0000   1.0000   1.0000   1.0000   1.0000
     1.0000   1.0000   1.0000   1.0000   1.0000   1.0000   1.0000   1.0000
     1.0000   1.0000   1.0000   1.0000   1.0000   1.0000   1.0000   1.0000
     1.0000   1.0000   1.0000   1.0000   1.0000   1.0000   0.0000   0.0000
     0.0000   0.0000   0.0000   0.0000   0.0000   0.0000   0.0000   0.0000
     0.0000   0.0000   0.0000   0.0000   0.0000   0.0000   0.0000   0.0000
     0.0000   0.0000   0.0000   0.0000   0.0000   0.0000   0.0000   0.0000
     0.0000   0.0000   0.0000   0.0000   0.0000   0.0000   0.0000   0.0000
     0.0000   0.0000   0.0000   0.0000   0.0000   0.0000   0.0000   0.0000
     0.0000   0.0000   0.0000   0.0000   0.0000   0.0000   0.0000   0.0000
     0.0000   0.0000   0.0000   0.0000   0.0000   0.0000   0.0000   0.0000
     0.0000   0.0000   0.0000   0.0000   0.0000   0.0000   0.0000   0.0000
     0.0000   0.0000   0.0000   0.0000   0.0000   0.0000   0.0000   0.0000
     0.0000   0.0000   0.0000   0.0000   0.0000   0.0000   0.0000   0.0000
     0.0000   0.0000   0.0000   0.0000   0.0000   0.0000   0.0000   0.0000
     0.0000   0.0000   0.0000   0.0000   0.0000   0.0000   0.0000   0.0000
     0.0000   0.0000   0.0000   0.0000   0.0000   0.0000   0.0000   0.0000
     0.0000   0.0000   0.0000   0.0000   0.0000   0.0000   0.0000   0.0000
     0.0000   0.0000   0.0000   0.0000   0.0000   0.0000   0.0000   0.0000
     0.0000   0.0000   0.0000   0.0000   0.0000   0.0000   0.0000   0.0000
     0.0000   0.0000   0.0000   0.0000   0.0000   0.0000   0.0000   0.0000
     0.0000   0.0000   0.0000   0.0000   0.0000   0.0000   0.0000   0.0000
     0.0000   0.0000   0.0000   0.0000   0.0000   0.0000   0.0000   0.0000
     0.0000   0.0000   0.0000   0.0000   0.0000   0.0000   0.0000   0.0000
     0.0000   0.0000   0.0000   0.0000   0.0000   0.0000   0.0000   0.0000
     0.0000   0.0000   0.0000   0.0000   0.0000   0.0000   0.0000   0.0000
     0.0000   0.0000   0.0000   0.0000   0.0000   0.0000   0.0000   0.0000

[...]

          k = 0.3333-0.6529-0.4429 (  6296 PWs)   bands (ev):

   -35.3524 -35.3506 -12.5842 -12.5611 -12.5561 -12.5411 -12.5101 -12.4993
    -3.2821  -3.0473  -2.9835  -2.8097  -2.6227  -2.5894   3.1405   3.5211
     3.6016   3.7562   3.9043   4.0771   4.4207   4.7376   4.8221   4.8570
     4.8930   4.9670   5.0161   5.0783   5.1204   5.1727   5.2885   5.3073
     5.7443   5.7804   5.8215   5.8673   5.9262   5.9667   5.9845   6.0362
     6.1110   6.1289   6.1407   6.1832   6.2048   6.2463   6.2637   6.2968
     6.3960   6.4302   6.5408   6.5934   6.6536   6.9990   7.1549   7.2171
     7.3757   7.5143   7.6077   7.6658   7.7501   7.8720   8.2164   8.2276
     8.2422   8.2570   8.2637   8.2911   8.3088   8.3449   8.5372   8.5510
     8.5659   8.5744   8.5871   8.6256  10.3907  10.7394  10.9522  11.1085
    11.2402  11.6549  11.7367  11.9270  12.1005  12.2717  12.3480  12.5515
    12.7556  12.9115  12.9448  13.0175  13.4982  13.7578  13.9493  14.0936
    14.3938  14.5360  14.8057  15.0613  15.2535  15.4970  15.7661  15.8738
    15.9016  16.1941  16.4188  16.9603  17.2526  17.6682  17.9133  17.9945
    18.2025  18.3451  18.5231  18.6660  18.7648  19.0894  19.2442  19.3001
    19.3810  19.7433  19.9291  20.1220  20.4711  20.6284  20.8667  20.8694
    21.0610  21.2002  21.5597  21.8898  21.9475  22.1772  22.3881  22.9033
    22.9906  23.1853  23.3368  23.5173  23.6867  24.0724  24.1879  24.4645
    24.9910  25.2439  25.3553  25.4832  25.5659  25.7245  25.9840  26.2065
    26.3889  26.4746  26.6079  26.8115  26.8164  26.8944  27.2766  27.4219
    27.5826  27.7635  27.8744  27.9053  28.0664  28.1713  28.4312  28.4812
    28.9994  29.1169  29.1949  29.3114  29.4316  29.5481  29.8240  29.9535
    30.0963  30.1374  30.5111  30.6595  30.7930  30.9632  31.1256  31.2012
    31.3101  31.4566  31.7103  32.0305  32.1415  32.1723  32.2789  32.5281
    32.7287  32.7918  32.8455  33.0540  33.1884  33.3565  33.6054  33.7496
    33.7900  33.8431  34.0366  34.1948  34.4204  34.4673  34.5844  34.7311
    34.9225  34.9734  35.1363  35.3896  35.5371  35.6988  35.8694  36.0746
    36.2119  36.2681  36.6523  36.8604  37.0381  37.1108  37.2600  37.3609
    37.5053  37.6288  37.6910  37.7609  37.8968  37.9757  38.2303  38.2955
    38.4183  38.4693  38.5252  38.9326  39.0094  39.2073  39.3743  39.3918
    39.5846  39.7116  39.8989  39.9468  40.1467  40.2663  40.3658  40.4607
    40.8133  40.9860  41.1881  41.2463  41.4458  41.5369  41.9175  41.9444

     occupation numbers
     1.0000   1.0000   1.0000   1.0000   1.0000   1.0000   1.0000   1.0000
     1.0000   1.0000   1.0000   1.0000   1.0000   1.0000   1.0000   1.0000
     1.0000   1.0000   1.0000   1.0000   1.0000   1.0000   1.0000   1.0000
     1.0000   1.0000   1.0000   1.0000   1.0000   1.0000   1.0000   1.0000
     1.0000   1.0000   1.0000   1.0000   1.0000   1.0000   1.0000   1.0000
     1.0000   1.0000   1.0000   1.0000   1.0000   1.0000   1.0000   1.0000
     1.0000   1.0000   1.0000   1.0000   1.0000   1.0000   1.0000   1.0000
     1.0000   1.0000   1.0000   1.0000   1.0000   1.0000   1.0000   1.0000
     1.0000   1.0000   1.0000   1.0000   1.0000   1.0000   0.0000   0.0000
     0.0000   0.0000   0.0000   0.0000   0.0000   0.0000   0.0000   0.0000
     0.0000   0.0000   0.0000   0.0000   0.0000   0.0000   0.0000   0.0000
     0.0000   0.0000   0.0000   0.0000   0.0000   0.0000   0.0000   0.0000
     0.0000   0.0000   0.0000   0.0000   0.0000   0.0000   0.0000   0.0000
     0.0000   0.0000   0.0000   0.0000   0.0000   0.0000   0.0000   0.0000
     0.0000   0.0000   0.0000   0.0000   0.0000   0.0000   0.0000   0.0000
     0.0000   0.0000   0.0000   0.0000   0.0000   0.0000   0.0000   0.0000
     0.0000   0.0000   0.0000   0.0000   0.0000   0.0000   0.0000   0.0000
     0.0000   0.0000   0.0000   0.0000   0.0000   0.0000   0.0000   0.0000
     0.0000   0.0000   0.0000   0.0000   0.0000   0.0000   0.0000   0.0000
     0.0000   0.0000   0.0000   0.0000   0.0000   0.0000   0.0000   0.0000
     0.0000   0.0000   0.0000   0.0000   0.0000   0.0000   0.0000   0.0000
     0.0000   0.0000   0.0000   0.0000   0.0000   0.0000   0.0000   0.0000
     0.0000   0.0000   0.0000   0.0000   0.0000   0.0000   0.0000   0.0000
     0.0000   0.0000   0.0000   0.0000   0.0000   0.0000   0.0000   0.0000
     0.0000   0.0000   0.0000   0.0000   0.0000   0.0000   0.0000   0.0000
     0.0000   0.0000   0.0000   0.0000   0.0000   0.0000   0.0000   0.0000
     0.0000   0.0000   0.0000   0.0000   0.0000   0.0000   0.0000   0.0000
     0.0000   0.0000   0.0000   0.0000   0.0000   0.0000   0.0000   0.0000
     0.0000   0.0000   0.0000   0.0000   0.0000   0.0000   0.0000   0.0000
     0.0000   0.0000   0.0000   0.0000   0.0000   0.0000   0.0000   0.0000
     0.0000   0.0000   0.0000   0.0000   0.0000   0.0000   0.0000   0.0000
     0.0000   0.0000   0.0000   0.0000   0.0000   0.0000   0.0000   0.0000

     highest occupied, lowest unoccupied level (ev):     8.5177    8.5286

!    total energy              =   -2894.75320310 Ry
     estimated scf accuracy    <       0.00000068 Ry

     The total energy is the sum of the following terms:
     one-electron contribution =    -722.09269660 Ry
     hartree contribution      =     489.62721749 Ry
     xc contribution           =    -405.30729602 Ry
     ewald contribution        =    -770.07406788 Ry
     one-center paw contrib.   =   -1486.90636008 Ry
      -> PAW hartree energy AE =     437.07930390 Ry
      -> PAW hartree energy PS =    -411.28906365 Ry
      -> PAW xc energy AE      =   -1021.94805294 Ry
      -> PAW xc energy PS      =      48.14588707 Ry
      -> total E_H with PAW    =     515.41745773 Ry
      -> total E_XC with PAW   =   -1379.10946189 Ry

     convergence has been achieved in  69 iterations

     Writing all to output data dir bands_nm/myprefix.save/

     General routines

     Parallel routines

     PAW routines

   This run was terminated on:  20:37:54  15Jul2023

   JOB DONE.