     Program PWSCF v.7.1 starts on 15Jul2023 at 21:45:10

     Reading input from espresso_9955.pwi
Warning: card &CELL ignored
Warning: card / ignored

     Current dimensions of program PWSCF are:
     Max number of different atomic species (ntypx) = 10
     Max number of k-points (npk) =  40000
     Max angular momentum in pseudopotentials (lmaxx) =  4
     file La.paw.z_11.atompaw.wentzcovitch.v1.2.upf: wavefunction(s)  6S 0P 5D 0D 4F 0F renormalized
     file O.pbe-n-kjpaw_psl.0.1.UPF: wavefunction(s)  2P renormalized
     Message from routine setup:
     using ibrav=0 with symmetry is DISCOURAGED, use correct ibrav instead

     K-points division:     npool     =       2
     R & G space division:  proc/nbgrp/npool/nimage =       4
     Subspace diagonalization in iterative solution of the eigenvalue problem:
     one sub-group per band group will be used

     Using Slab Decomposition

     bravais-lattice index     =            0
     lattice parameter (alat)  =      16.5936  a.u.
     unit-cell volume          =    1635.4011 (a.u.)^3
     number of atoms/cell      =           20
     number of atomic types    =            5
     number of electrons       =       160.00
     number of Kohn-Sham states=          256
     kinetic-energy cutoff     =      30.0000  Ry
     charge density cutoff     =     240.0000  Ry
     scf convergence threshold =      1.0E-06
     mixing beta               =       0.7000
     number of iterations used =            8  plain     mixing
     Exchange-correlation= SLA  PW   PBX  PBC
                           (   1   4   3   4   0   0   0)

     celldm(1)=  16.593636  celldm(2)=   0.000000  celldm(3)=   0.000000
     celldm(4)=   0.000000  celldm(5)=   0.000000  celldm(6)=   0.000000

     crystal axes: (cart. coord. in units of alat)
               a(1) = (   1.000000   0.000000   0.000000 )
               a(2) = (   0.599795   0.800154   0.000000 )
               a(3) = (  -0.799898  -0.400077   0.447328 )

     reciprocal axes: (cart. coord. in units 2 pi/alat)
               b(1) = (  1.000000 -0.749600  1.117748 )
               b(2) = (  0.000000  1.249760  1.117748 )
               b(3) = (  0.000000  0.000000  2.235495 )

     PseudoPot. # 1 for Na read from file:
     /lustre07/scratch/pragov/crystal_structure_design/utils/SSSP/na_pbe_v1.5.uspp.F.UPF
     MD5 check sum: 44600605ef58000f06b90626533354dc
     Pseudo is Ultrasoft, Zval =  9.0
     Generated by new atomic code, or converted to UPF format
     Using radial grid of  819 points,  5 beta functions with:
                l(1) =   0
                l(2) =   0
                l(3) =   1
                l(4) =   1
                l(5) =   2
     Q(r) pseudized with  8 coefficients,  rinner =    1.250   1.250   1.250
                                                       1.250   1.250

     PseudoPot. # 2 for Sr read from file:
     /lustre07/scratch/pragov/crystal_structure_design/utils/SSSP/Sr_pbe_v1.uspp.F.UPF
     MD5 check sum: 6b418c05fbe9db5448babca5e47b7a5b
     Pseudo is Ultrasoft + core correction, Zval = 10.0
     Generated by new atomic code, or converted to UPF format
     Using radial grid of  883 points,  6 beta functions with:
                l(1) =   0
                l(2) =   0
                l(3) =   1
                l(4) =   1
                l(5) =   2
                l(6) =   2
     Q(r) pseudized with  6 coefficients,  rinner =    1.400   1.400   1.400
                                                       1.400   1.400

     PseudoPot. # 3 for La read from file:
     /lustre07/scratch/pragov/crystal_structure_design/utils/SSSP/La.paw.z_11.atompaw.wentzcovitch.v1.2.upf
     MD5 check sum: 754494e15ae71f30e5b5f678af019e01
     Pseudo is Projector augmented-wave + core cor, Zval = 11.0
     Generated using ATOMPAW code
     Shape of augmentation charge: BESSEL
     Using radial grid of 1101 points,  8 beta functions with:
                l(1) =   0
                l(2) =   0
                l(3) =   1
                l(4) =   1
                l(5) =   2
                l(6) =   2
                l(7) =   3
                l(8) =   3
     Q(r) pseudized with 0 coefficients

     PseudoPot. # 4 for Ti read from file:
     /lustre07/scratch/pragov/crystal_structure_design/utils/SSSP/ti_pbe_v1.4.uspp.F.UPF
     MD5 check sum: 88a00a6731bd790ddea75d31a80cb452
     Pseudo is Ultrasoft + core correction, Zval = 12.0
     Generated by new atomic code, or converted to UPF format
     Using radial grid of  851 points,  6 beta functions with:
                l(1) =   0
                l(2) =   0
                l(3) =   1
                l(4) =   1
                l(5) =   2
                l(6) =   2
     Q(r) pseudized with  6 coefficients,  rinner =    1.000   1.000   1.000
                                                       1.000   1.000

     PseudoPot. # 5 for O  read from file:
     /lustre07/scratch/pragov/crystal_structure_design/utils/SSSP/O.pbe-n-kjpaw_psl.0.1.UPF
     MD5 check sum: 0234752ac141de4415c5fc33072bef88
     Pseudo is Projector augmented-wave + core cor, Zval =  6.0
     Generated using "atomic" code by A. Dal Corso  v.5.0.99 svn rev. 10869
     Shape of augmentation charge: BESSEL
     Using radial grid of 1095 points,  4 beta functions with:
                l(1) =   0
                l(2) =   0
                l(3) =   1
                l(4) =   1
     Q(r) pseudized with 0 coefficients

     atomic species   valence    mass     pseudopotential
        Na             9.00    22.98977     Na( 1.00)
        Sr            10.00    87.62000     Sr( 1.00)
        La            11.00   138.90547     La( 1.00)
        Ti            12.00    47.86700     Ti( 1.00)
        O              6.00    15.99900     O ( 1.00)

      4 Sym. Ops., with inversion, found

                                    s                        frac. trans.

      isym =  1     identity

 cryst.   s( 1) = (     1          0          0      )
                  (     0          1          0      )
                  (     0          0          1      )

 cart.    s( 1) = (  1.0000000  0.0000000  0.0000000 )
                  (  0.0000000  1.0000000 -0.0000000 )
                  (  0.0000000  0.0000000  1.0000000 )

      isym =  2     180 deg rotation - cart. axis [0,0,1]

[...]

      isym =  3     inversion

[...]

      isym =  4     inv. 180 deg rotation - cart. axis [0,0,1]

 cryst.   s( 4) = (     1          0          0      )
                  (     0          1          0      )
                  (    -1         -1         -1      )

 cart.    s( 4) = (  1.0000000  0.0000000 -0.0000000 )
                  (  0.0000000  1.0000000 -0.0000000 )
                  (  0.0000000  0.0000000 -1.0000000 )

   Cartesian axes

     site n.     atom                  positions (alat units)
         1           Na  tau(   1) = (   0.7998975   0.4000768   0.0000000  )
         2           Sr  tau(   2) = (   0.4020557   0.2010922   0.0000000  )
         3           Sr  tau(   3) = (   1.1977394   0.5990614   0.0000000  )
         4           La  tau(   4) = (   0.0000000   0.0000000   0.0000000  )
         5           Ti  tau(   5) = (   0.5012461   0.5007834   0.2236641  )
         6           Ti  tau(   6) = (   0.0985489   0.2993703   0.2236641  )
         7           Ti  tau(   7) = (   0.7013486   0.1007065   0.2236641  )
         8           Ti  tau(   8) = (   0.2986514  -0.1007065   0.2236641  )
         9           O   tau(   9) = (   0.2998975   0.4000768   0.2236641  )
        10           O   tau(  10) = (   0.8999488   0.2000384   0.2236641  )
        11           O   tau(  11) = (   0.5000000   0.0000000   0.2236641  )
        12           O   tau(  12) = (   0.6998463   0.6001152   0.2236641  )
        13           O   tau(  13) = (   0.1983354   0.0991994   0.2181275  )
        14           O   tau(  14) = (  -0.1983354  -0.0991994   0.2181275  )
        15           O   tau(  15) = (   0.9982329   0.4992763   0.2292006  )
        16           O   tau(  16) = (   0.6015621   0.3008774   0.2292006  )
        17           O   tau(  17) = (   0.8957050   0.7042664   0.0000000  )
        18           O   tau(  18) = (   0.4990342   0.5058675   0.0000000  )
        19           O   tau(  19) = (   1.1007608   0.2942861   0.0000000  )
        20           O   tau(  20) = (   0.7040900   0.0958872   0.0000000  )

   Crystallographic axes

     site n.     atom                  positions (cryst. coord.)
         1           Na  tau(   1) = (  0.5000000  0.5000000  0.0000000  )
         2           Sr  tau(   2) = (  0.2513170  0.2513170  0.0000000  )
         3           Sr  tau(   3) = (  0.7486830  0.7486830  0.0000000  )
         4           La  tau(   4) = (  0.0000000  0.0000000  0.0000000  )
         5           Ti  tau(   5) = (  0.3758590  0.8758590  0.5000000  )
         6           Ti  tau(   6) = (  0.1241410  0.6241410  0.5000000  )
         7           Ti  tau(   7) = (  0.8758590  0.3758590  0.5000000  )
         8           Ti  tau(   8) = (  0.6241410  0.1241410  0.5000000  )
         9           O   tau(   9) = (  0.2500000  0.7500000  0.5000000  )
        10           O   tau(  10) = (  1.0000000  0.5000000  0.5000000  )
        11           O   tau(  11) = (  0.7500000  0.2500000  0.5000000  )
        12           O   tau(  12) = (  0.5000000  1.0000000  0.5000000  )
        13           O   tau(  13) = (  0.3677870  0.3677870  0.4876230  )
        14           O   tau(  14) = (  0.1198360  0.1198360  0.4876230  )
        15           O   tau(  15) = (  0.8801640  0.8801640  0.5123770  )
        16           O   tau(  16) = (  0.6322130  0.6322130  0.5123770  )
        17           O   tau(  17) = (  0.3677870  0.8801640  0.0000000  )
        18           O   tau(  18) = (  0.1198360  0.6322130  0.0000000  )
        19           O   tau(  19) = (  0.8801640  0.3677870  0.0000000  )
        20           O   tau(  20) = (  0.6322130  0.1198360  0.0000000  )

     number of k points=    10
                       cart. coord. in units 2pi/alat
        k(    1) = (   0.0000000   0.0000000   0.0000000), wk =   0.0740741
        k(    2) = (   0.0000000   0.0000000   0.7451651), wk =   0.1481481
        k(    3) = (   0.0000000   0.4165867   0.3725826), wk =   0.2962963
        k(    4) = (   0.0000000   0.4165867   1.1177477), wk =   0.1481481
        k(    5) = (   0.3333333  -0.2498666   0.3725826), wk =   0.2962963
        k(    6) = (   0.3333333  -0.2498666   1.1177477), wk =   0.1481481
        k(    7) = (   0.3333333   0.1667200   0.7451651), wk =   0.2962963
        k(    8) = (   0.3333333   0.1667200  -0.0000000), wk =   0.1481481
        k(    9) = (   0.3333333  -0.6664533  -0.0000000), wk =   0.1481481
        k(   10) = (   0.3333333  -0.6664533   0.7451651), wk =   0.2962963

                       cryst. coord.
        k(    1) = (   0.0000000   0.0000000   0.0000000), wk =   0.0740741
        k(    2) = (   0.0000000   0.0000000   0.3333333), wk =   0.1481481
        k(    3) = (   0.0000000   0.3333333   0.0000000), wk =   0.2962963
        k(    4) = (   0.0000000   0.3333333   0.3333333), wk =   0.1481481
        k(    5) = (   0.3333333   0.0000000   0.0000000), wk =   0.2962963
        k(    6) = (   0.3333333   0.0000000   0.3333333), wk =   0.1481481
        k(    7) = (   0.3333333   0.3333333   0.0000000), wk =   0.2962963
        k(    8) = (   0.3333333   0.3333333  -0.3333333), wk =   0.1481481
        k(    9) = (   0.3333333  -0.3333333   0.0000000), wk =   0.1481481
        k(   10) = (   0.3333333  -0.3333333   0.3333333), wk =   0.2962963

     Check: negative core charge=   -0.000015

     Initial potential from superposition of free atoms

     starting charge     155.9177, renormalised to     160.0000

     negative rho (up, down):  1.348E-01 0.000E+00
     Starting wfcs are  151 randomized atomic wfcs +  105 random wfcs
     Checking if some PAW data can be deallocated...

     Self-consistent Calculation

     iteration #  1     ecut=    30.00 Ry     beta= 0.70
     Davidson diagonalization with overlap

     ethr =  1.00E-02,  avg # of iterations =  6.2

     negative rho (up, down):  1.346E-01 0.000E+00

     total energy              =   -1671.42199856 Ry
     estimated scf accuracy    <       3.12154775 Ry

[...]

     c_bands:  1 eigenvalues not converged
     c_bands:  1 eigenvalues not converged
     ethr =  2.90E-05,  avg # of iterations = 12.4

[...]

     total energy              =   -1672.91830306 Ry
     estimated scf accuracy    <       0.00000154 Ry

     iteration # 11     ecut=    30.00 Ry     beta= 0.70
     Davidson diagonalization with overlap

     ethr =  9.65E-10,  avg # of iterations =  2.7

     negative rho (up, down):  1.379E-01 0.000E+00

     End of self-consistent calculation

          k = 0.0000 0.0000 0.0000 (  4537 PWs)   bands (ev):

   -47.0942 -47.0929 -47.0908 -47.0907 -40.5882 -23.4768 -23.4105 -23.4105
   -23.4101 -23.4101 -23.3760 -23.3702 -23.3568 -23.3444 -23.3439 -23.3439
   -23.3413 -23.3413 -23.3310 -21.4964 -12.4993 -12.4939 -12.4939  -8.2826
    -8.0828  -7.1821  -7.1489  -7.1309  -7.1160  -7.0954  -7.0561  -7.0560
    -7.0416  -7.0415  -6.8328  -5.4594  -5.3684  -5.3684  -5.3152  -5.3152
    -5.3145  -4.9728  -4.9728  -4.6951   4.9448   4.9451   5.1057   5.2905
     5.2908   5.3070   5.3405   5.9851   5.9851   6.0015   6.0015   6.1959
     6.3047   6.6214   6.6214   6.6252   6.6610   6.6610   6.9600   7.0744
     7.0744   7.4756   8.1296   8.1297   8.1683   8.6238   8.6238   8.7732
     8.7732   8.7971   8.7971   9.0344   9.0559   9.0560   9.3574   9.3805
    11.2719  11.2719  11.2739  11.3998  13.0696  13.0696  13.2751  13.2751
    13.2891  13.3932  13.3932  13.3964  13.4540  13.5532  13.5554  13.5554
    13.6172  13.6297  13.6741  13.6936  13.6936  13.7754  14.5837  14.7616
    15.0963  15.1136  15.7750  16.0262  16.2213  16.2213  16.2276  16.3013
    16.3933  16.9603  17.3339  17.3339  17.5668  17.6135  17.6141  18.1615
    18.2893  18.2893  18.9792  19.1100  19.2418  20.2003  20.6653  21.5851
    21.5851  22.0021  22.0021  23.4473  23.7565  23.9106  23.9748  23.9748
    24.4880  24.9756  25.1994  25.2845  25.5403  25.7979  25.7979  26.2405
    26.2405  26.4398  26.4398  26.6669  26.6851  26.9507  27.2599  27.2599
    27.8868  28.7767  28.7772  28.7772  29.4921  29.5897  29.5897  29.8731
    29.9731  30.1740  30.1740  30.3543  30.7457  30.9252  31.1786  31.4313
    31.4313  31.4863  31.7956  32.3505  32.3862  32.3862  32.6074  32.6075
    32.7208  33.6356  33.6356  34.2550  34.5952  34.5952  34.6436  34.9217
    35.5538  35.5538  35.5575  35.5575  35.8999  35.8999  35.9691  36.1691
    36.1691  36.3624  37.0409  37.2105  37.2994  37.6053  37.7526  37.7526
    38.0371  38.1212  39.2476  39.5548  39.5548  39.7668  39.7668  39.7760
    39.9698  40.2646  40.2647  40.3415  40.7768  41.4692  41.5659  41.5659
    41.7028  41.7622  41.9961  42.3424  42.7494  42.7494  42.7603  43.0669
    43.2428  43.5382  43.5382  43.6408  43.6802  43.9735  44.0406  44.2626
    44.2626  44.7145  44.7145  44.7432  44.7456  44.7990  44.7990  45.1826
    45.9094  45.9472  45.9472  46.1551  46.1890  46.1890  46.6276  46.6405
    46.6531  46.6531  46.6565  46.7866  46.7897  47.2371  47.3513  47.3515

     occupation numbers
     1.0000   1.0000   1.0000   1.0000   1.0000   1.0000   1.0000   1.0000
     1.0000   1.0000   1.0000   1.0000   1.0000   1.0000   1.0000   1.0000
     1.0000   1.0000   1.0000   1.0000   1.0000   1.0000   1.0000   1.0000
     1.0000   1.0000   1.0000   1.0000   1.0000   1.0000   1.0000   1.0000
     1.0000   1.0000   1.0000   1.0000   1.0000   1.0000   1.0000   1.0000
     1.0000   1.0000   1.0000   1.0000   1.0000   1.0000   1.0000   1.0000
     1.0000   1.0000   1.0000   1.0000   1.0000   1.0000   1.0000   1.0000
     1.0000   1.0000   1.0000   1.0000   1.0000   1.0000   1.0000   1.0000
     1.0000   1.0000   1.0000   1.0000   1.0000   1.0000   1.0000   1.0000
     1.0000   1.0000   1.0000   1.0000   1.0000   1.0000   1.0000   1.0000
     0.0000   0.0000   0.0000   0.0000   0.0000   0.0000   0.0000   0.0000
     0.0000   0.0000   0.0000   0.0000   0.0000   0.0000   0.0000   0.0000
     0.0000   0.0000   0.0000   0.0000   0.0000   0.0000   0.0000   0.0000
     0.0000   0.0000   0.0000   0.0000   0.0000   0.0000   0.0000   0.0000
     0.0000   0.0000   0.0000   0.0000   0.0000   0.0000   0.0000   0.0000
     0.0000   0.0000   0.0000   0.0000   0.0000   0.0000   0.0000   0.0000
     0.0000   0.0000   0.0000   0.0000   0.0000   0.0000   0.0000   0.0000
     0.0000   0.0000   0.0000   0.0000   0.0000   0.0000   0.0000   0.0000
     0.0000   0.0000   0.0000   0.0000   0.0000   0.0000   0.0000   0.0000
     0.0000   0.0000   0.0000   0.0000   0.0000   0.0000   0.0000   0.0000
     0.0000   0.0000   0.0000   0.0000   0.0000   0.0000   0.0000   0.0000
     0.0000   0.0000   0.0000   0.0000   0.0000   0.0000   0.0000   0.0000
     0.0000   0.0000   0.0000   0.0000   0.0000   0.0000   0.0000   0.0000
     0.0000   0.0000   0.0000   0.0000   0.0000   0.0000   0.0000   0.0000
     0.0000   0.0000   0.0000   0.0000   0.0000   0.0000   0.0000   0.0000
     0.0000   0.0000   0.0000   0.0000   0.0000   0.0000   0.0000   0.0000
     0.0000   0.0000   0.0000   0.0000   0.0000   0.0000   0.0000   0.0000
     0.0000   0.0000   0.0000   0.0000   0.0000   0.0000   0.0000   0.0000
     0.0000   0.0000   0.0000   0.0000   0.0000   0.0000   0.0000   0.0000
     0.0000   0.0000   0.0000   0.0000   0.0000   0.0000   0.0000   0.0000
     0.0000   0.0000   0.0000   0.0000   0.0000   0.0000   0.0000   0.0000
     0.0000   0.0000   0.0000   0.0000   0.0000   0.0000   0.0000   0.0000

[...]

          k = 0.3333-0.6665 0.7452 (  4539 PWs)   bands (ev):

   -47.0929 -47.0928 -47.0923 -47.0908 -40.5883 -23.4476 -23.4331 -23.4072
   -23.3974 -23.3943 -23.3939 -23.3819 -23.3638 -23.3618 -23.3574 -23.3570
   -23.3407 -23.3286 -23.3041 -21.4934 -12.4974 -12.4974 -12.4940  -8.0048
    -7.9957  -7.7916  -7.2933  -7.2695  -7.1562  -7.1037  -7.0612  -7.0239
    -7.0220  -6.9271  -6.8803  -5.4525  -5.3608  -5.3309  -5.2278  -5.2062
    -5.1658  -4.9045  -4.7738  -4.6777   5.0542   5.2521   5.5051   5.5651
     5.6086   5.6606   5.6858   5.7075   5.7123   5.8174   6.0227   6.2379
     6.2817   6.4038   6.4130   6.5554   6.6935   6.8272   6.8727   6.9146
     7.0821   7.4226   7.4621   7.7274   7.8657   7.9907   8.3977   8.3979
     8.4169   8.4712   8.5004   8.5333   8.9182   9.0081   9.0400   9.2036
    12.1199  12.1361  12.4153  12.4532  12.4533  12.4673  12.6320  12.7555
    13.0419  13.2029  13.3211  13.3748  13.4601  13.5166  13.5652  13.5755
    13.5808  13.5900  13.6844  14.4124  14.7491  14.7580  15.2566  15.3749
    15.4225  15.5392  15.8683  15.9226  16.0904  16.4384  16.4962  16.5088
    16.6778  16.8467  17.1892  17.2457  17.5382  17.8388  17.9240  17.9317
    17.9522  18.1577  18.3002  18.3532  19.0642  20.0049  21.5715  21.6095
    21.8253  22.7227  23.0754  23.1284  23.3745  23.9292  23.9531  24.2557
    24.3434  24.6106  24.6261  25.4388  25.4610  25.5335  25.5916  25.6962
    25.8662  26.2940  26.4006  26.8988  26.9727  27.0332  27.2143  27.3852
    27.7890  27.9620  28.1319  28.2938  28.5422  29.0553  29.1417  29.4052
    29.7694  30.4529  30.5324  30.5632  30.7715  30.9790  31.0413  31.2288
    31.7259  31.7950  31.9206  32.1918  32.2198  32.7707  32.8643  32.9769
    32.9993  33.1484  33.5538  33.6847  34.0766  34.2207  34.4063  34.7616
    34.7724  34.8507  35.3479  35.6275  35.7655  36.0560  36.2567  36.7227
    36.9586  37.1275  37.5710  37.5894  37.6504  37.7389  38.0826  38.4848
    38.9162  39.0594  39.1818  39.1988  39.2942  39.3204  39.7247  39.9050
    39.9436  40.1327  40.4547  40.4868  40.5264  40.6337  41.6342  41.6620
    41.8371  41.8942  42.3012  42.4625  42.6026  42.6660  42.7014  42.7176
    43.0266  43.1389  43.4585  43.4992  43.7334  43.7483  43.9644  43.9735
    44.2811  44.3485  44.4955  44.8411  45.1475  45.1645  45.2632  45.6777
    45.7157  45.8642  46.2448  46.3406  46.3657  46.5729  46.6437  46.6612
    46.7101  46.8436  46.8473  46.8975  46.9537  47.3584  47.6241  47.6388

     occupation numbers
     1.0000   1.0000   1.0000   1.0000   1.0000   1.0000   1.0000   1.0000
     1.0000   1.0000   1.0000   1.0000   1.0000   1.0000   1.0000   1.0000
     1.0000   1.0000   1.0000   1.0000   1.0000   1.0000   1.0000   1.0000
     1.0000   1.0000   1.0000   1.0000   1.0000   1.0000   1.0000   1.0000
     1.0000   1.0000   1.0000   1.0000   1.0000   1.0000   1.0000   1.0000
     1.0000   1.0000   1.0000   1.0000   1.0000   1.0000   1.0000   1.0000
     1.0000   1.0000   1.0000   1.0000   1.0000   1.0000   1.0000   1.0000
     1.0000   1.0000   1.0000   1.0000   1.0000   1.0000   1.0000   1.0000
     1.0000   1.0000   1.0000   1.0000   1.0000   1.0000   1.0000   1.0000
     1.0000   1.0000   1.0000   1.0000   1.0000   1.0000   1.0000   1.0000
     0.0000   0.0000   0.0000   0.0000   0.0000   0.0000   0.0000   0.0000
     0.0000   0.0000   0.0000   0.0000   0.0000   0.0000   0.0000   0.0000
     0.0000   0.0000   0.0000   0.0000   0.0000   0.0000   0.0000   0.0000
     0.0000   0.0000   0.0000   0.0000   0.0000   0.0000   0.0000   0.0000
     0.0000   0.0000   0.0000   0.0000   0.0000   0.0000   0.0000   0.0000
     0.0000   0.0000   0.0000   0.0000   0.0000   0.0000   0.0000   0.0000
     0.0000   0.0000   0.0000   0.0000   0.0000   0.0000   0.0000   0.0000
     0.0000   0.0000   0.0000   0.0000   0.0000   0.0000   0.0000   0.0000
     0.0000   0.0000   0.0000   0.0000   0.0000   0.0000   0.0000   0.0000
     0.0000   0.0000   0.0000   0.0000   0.0000   0.0000   0.0000   0.0000
     0.0000   0.0000   0.0000   0.0000   0.0000   0.0000   0.0000   0.0000
     0.0000   0.0000   0.0000   0.0000   0.0000   0.0000   0.0000   0.0000
     0.0000   0.0000   0.0000   0.0000   0.0000   0.0000   0.0000   0.0000
     0.0000   0.0000   0.0000   0.0000   0.0000   0.0000   0.0000   0.0000
     0.0000   0.0000   0.0000   0.0000   0.0000   0.0000   0.0000   0.0000
     0.0000   0.0000   0.0000   0.0000   0.0000   0.0000   0.0000   0.0000
     0.0000   0.0000   0.0000   0.0000   0.0000   0.0000   0.0000   0.0000
     0.0000   0.0000   0.0000   0.0000   0.0000   0.0000   0.0000   0.0000
     0.0000   0.0000   0.0000   0.0000   0.0000   0.0000   0.0000   0.0000
     0.0000   0.0000   0.0000   0.0000   0.0000   0.0000   0.0000   0.0000
     0.0000   0.0000   0.0000   0.0000   0.0000   0.0000   0.0000   0.0000
     0.0000   0.0000   0.0000   0.0000   0.0000   0.0000   0.0000   0.0000

     highest occupied, lowest unoccupied level (ev):     9.4126   11.2719

!    total energy              =   -1672.91830310 Ry
     estimated scf accuracy    <       0.00000048 Ry

     The total energy is the sum of the following terms:
     one-electron contribution =    -364.62976760 Ry
     hartree contribution      =     270.72657984 Ry
     xc contribution           =    -225.98958681 Ry
     ewald contribution        =    -845.16224366 Ry
     one-center paw contrib.   =    -507.86328487 Ry
      -> PAW hartree energy AE =       0.00000000 Ry
      -> PAW hartree energy PS =       0.00000000 Ry
      -> PAW xc energy AE      =       0.00000000 Ry
      -> PAW xc energy PS      =       0.00000000 Ry
      -> total E_H with PAW    =     270.72657984 Ry
      -> total E_XC with PAW   =    -225.98958681 Ry

     convergence has been achieved in  11 iterations

     Writing all to output data dir bands_nm/myprefix.save/

     General routines

     Parallel routines

     PAW routines

   This run was terminated on:  21:46:19  15Jul2023

   JOB DONE.