     Program PWSCF v.7.0 starts on  7Jun2023 at  8:37:59

     K-points division:     npool     =       2
     R & G space division:  proc/nbgrp/npool/nimage =       4

     Reading input from espresso_8143.pwi
Warning: card &CELL ignored
Warning: card / ignored

     Current dimensions of program PWSCF are:
     Max number of different atomic species (ntypx) = 10
     Max number of k-points (npk) =  40000
     Max angular momentum in pseudopotentials (lmaxx) =  4
     file Ba.pbe-spn-kjpaw_psl.1.0.0.UPF: wavefunction(s)  5S 6S renormalized
     Message from routine setup:
     using ibrav=0 with symmetry is DISCOURAGED, use correct ibrav instead

     Using Slab Decomposition

     bravais-lattice index     =            0
     lattice parameter (alat)  =      13.6816  a.u.
     unit-cell volume          =    2097.7741 (a.u.)^3
     number of atoms/cell      =           12
     number of atomic types    =            4
     number of electrons       =       122.00
     number of Kohn-Sham states=           64
     kinetic-energy cutoff     =      30.0000  Ry
     charge density cutoff     =     240.0000  Ry
     scf convergence threshold =      1.0E-06
     mixing beta               =       0.7000
     number of iterations used =            8  plain     mixing
     Exchange-correlation=  SLA  PW   PBX  PBC
                           (   1   4   3   4   0   0   0)

     celldm(1)=  13.681624  celldm(2)=   0.000000  celldm(3)=   0.000000
     celldm(4)=   0.000000  celldm(5)=   0.000000  celldm(6)=   0.000000

     crystal axes: (cart. coord. in units of alat)
               a(1) = (   1.000000   0.000000   0.000000 )
               a(2) = (  -0.830564   0.556923   0.000000 )
               a(3) = (   0.000000   0.000000   1.470789 )

     reciprocal axes: (cart. coord. in units 2 pi/alat)
               b(1) = (  1.000000  1.491343  0.000000 )
               b(2) = (  0.000000  1.795579  0.000000 )
               b(3) = (  0.000000  0.000000  0.679907 )

     PseudoPot. # 1 for Ba read from file:
     /home/pragov/projects/rrg-bengioy-ad/pragov/crystal_structure_design/SSSP/Ba.pbe-spn-kjpaw_psl.1.0.0.UPF
     MD5 check sum: c432291d3e53af55f19d5e8866385beb
     Pseudo is Projector augmented-wave + core cor, Zval = 10.0
     Generated using "atomic" code by A. Dal Corso  v.5.1
     Shape of augmentation charge: PSQ
     Using radial grid of 1251 points,  7 beta functions with:
                l(1) =   0
                l(2) =   0
                l(3) =   0
                l(4) =   1
                l(5) =   1
                l(6) =   2
                l(7) =   2
     Q(r) pseudized with 0 coefficients

     PseudoPot. # 2 for Nd read from file:
     /home/pragov/projects/rrg-bengioy-ad/pragov/crystal_structure_design/SSSP/Nd.GGA-PBE-paw-v1.0.UPF
     MD5 check sum: 1d1e94942b6eb1cde76049b71bb7dcb0
     Pseudo is Projector augmented-wave + core cor, Zval = 14.0
     Generated using ATOMPAW code
     Shape of augmentation charge: BESSEL
     Using radial grid of 1105 points,  8 beta functions with:
                l(1) =   0
                l(2) =   0
                l(3) =   1
                l(4) =   1
                l(5) =   2
                l(6) =   2
                l(7) =   3
                l(8) =   3
     Q(r) pseudized with 0 coefficients

     PseudoPot. # 3 for Ag read from file:
     /home/pragov/projects/rrg-bengioy-ad/pragov/crystal_structure_design/SSSP/Ag_ONCV_PBE-1.0.oncvpsp.upf
     MD5 check sum: 94f47bd0669c641108e45594df92fabc
     Pseudo is Norm-conserving, Zval = 19.0
     Generated using ONCVPSP code by D. R. Hamann
     Using radial grid of 1398 points,  6 beta functions with:
                l(1) =   0
                l(2) =   0
                l(3) =   1
                l(4) =   1
                l(5) =   2
                l(6) =   2

     PseudoPot. # 4 for S  read from file:
     /home/pragov/projects/rrg-bengioy-ad/pragov/crystal_structure_design/SSSP/s_pbe_v1.4.uspp.F.UPF
     MD5 check sum: 88d86576ff6df21479756cfb9bdac1df
     Pseudo is Ultrasoft + core correction, Zval =  6.0
     Generated by new atomic code, or converted to UPF format
     Using radial grid of  907 points,  6 beta functions with:
                l(1) =   0
                l(2) =   0
                l(3) =   1
                l(4) =   1
                l(5) =   2
                l(6) =   2
     Q(r) pseudized with  8 coefficients,  rinner =    1.300   1.300   1.300
                                                       1.300   1.300

     atomic species   valence    mass     pseudopotential
        Ba            10.00   137.32700     Ba( 1.00)
        Nd            14.00   144.24200     Nd( 1.00)
        Ag            19.00   107.86820     Ag( 1.00)
        S              6.00    32.06000     S ( 1.00)

      4 Sym. Ops., with inversion, found ( 2 have fractional translation)

                                    s                        frac. trans.

      isym =  1     identity

 cryst.   s( 1) = (     1          0          0      )
                  (     0          1          0      )
                  (     0          0          1      )

 cart.    s( 1) = (  1.0000000  0.0000000  0.0000000 )
                  (  0.0000000  1.0000000  0.0000000 )
                  (  0.0000000  0.0000000  1.0000000 )

      isym =  2     180 deg rotation - cart. axis [0,0,1]

 cryst.   s( 2) = (    -1          0          0      )    f =(  0.0000000 )
                  (     0         -1          0      )       (  0.0000000 )
                  (     0          0          1      )       (  0.5000000 )

 cart.    s( 2) = ( -1.0000000 -0.0000000  0.0000000 )    f =(  0.0000000 )
                  (  0.0000000 -1.0000000  0.0000000 )       (  0.0000000 )
                  (  0.0000000  0.0000000  1.0000000 )       (  0.7353945 )

      isym =  3     inversion

 cryst.   s( 3) = (    -1          0          0      )
                  (     0         -1          0      )
                  (     0          0         -1      )

 cart.    s( 3) = ( -1.0000000 -0.0000000  0.0000000 )
                  (  0.0000000 -1.0000000  0.0000000 )
                  (  0.0000000  0.0000000 -1.0000000 )

      isym =  4     inv. 180 deg rotation - cart. axis [0,0,1]

 cryst.   s( 4) = (     1          0          0      )    f =(  0.0000000 )
                  (     0          1          0      )       (  0.0000000 )
                  (     0          0         -1      )       ( -0.5000000 )

 cart.    s( 4) = (  1.0000000  0.0000000  0.0000000 )    f =(  0.0000000 )
                  (  0.0000000  1.0000000  0.0000000 )       (  0.0000000 )
                  (  0.0000000  0.0000000 -1.0000000 )       ( -0.7353945 )

   Cartesian axes

     site n.     atom                  positions (alat units)
         1           Ba  tau(   1) = (  -0.3641270   0.4150165   0.3676972  )
         2           Ba  tau(   2) = (   0.5335632   0.1419069   1.1030917  )
         3           Nd  tau(   3) = (   0.0000000   0.0000000   0.7353945  )
         4           Nd  tau(   4) = (   0.0000000   0.0000000   0.0000000  )
         5           Ag  tau(   5) = (   0.1437958   0.2604881   0.3676972  )
         6           Ag  tau(   6) = (   0.0256403   0.2964353   1.1030917  )
         7           S   tau(   7) = (   0.3346687   0.2024177   0.6526170  )
         8           S   tau(   8) = (  -0.1652326   0.3545057   0.8181719  )
         9           S   tau(   9) = (   0.3346687   0.2024177   0.0827775  )
        10           S   tau(  10) = (  -0.1652326   0.3545057   1.3880115  )
        11           S   tau(  11) = (   0.8585670   0.0430290   0.3676972  )
        12           S   tau(  12) = (  -0.6891309   0.5138944   1.1030917  )

   Crystallographic axes

     site n.     atom                  positions (cryst. coord.)
         1           Ba  tau(   1) = (  0.2548050  0.7451950  0.2500000  )
         2           Ba  tau(   2) = (  0.7451950  0.2548050  0.7500000  )
         3           Nd  tau(   3) = (  0.0000000  0.0000000  0.5000000  )
         4           Nd  tau(   4) = (  0.0000000  0.0000000  0.0000000  )
         5           Ag  tau(   5) = (  0.5322730  0.4677270  0.2500000  )
         6           Ag  tau(   6) = (  0.4677270  0.5322730  0.7500000  )
         7           S   tau(   7) = (  0.6365430  0.3634570  0.4437190  )
         8           S   tau(   8) = (  0.3634570  0.6365430  0.5562810  )
         9           S   tau(   9) = (  0.6365430  0.3634570  0.0562810  )
        10           S   tau(  10) = (  0.3634570  0.6365430  0.9437190  )
        11           S   tau(  11) = (  0.9227380  0.0772620  0.2500000  )
        12           S   tau(  12) = (  0.0772620  0.9227380  0.7500000  )

     number of k points=    10
                       cart. coord. in units 2pi/alat
        k(    1) = (   0.0000000   0.0000000   0.0000000), wk =   0.0740741
        k(    2) = (   0.0000000   0.0000000   0.2266357), wk =   0.1481481
        k(    3) = (   0.0000000   0.5985264   0.0000000), wk =   0.1481481
        k(    4) = (   0.0000000   0.5985264   0.2266357), wk =   0.2962963
        k(    5) = (   0.3333333   0.4971144   0.0000000), wk =   0.1481481
        k(    6) = (   0.3333333   0.4971144   0.2266357), wk =   0.2962963
        k(    7) = (   0.3333333   1.0956408   0.0000000), wk =   0.1481481
        k(    8) = (   0.3333333   1.0956408   0.2266357), wk =   0.2962963
        k(    9) = (   0.3333333  -0.1014120   0.0000000), wk =   0.1481481
        k(   10) = (   0.3333333  -0.1014120   0.2266357), wk =   0.2962963

                       cryst. coord.
        k(    1) = (   0.0000000   0.0000000   0.0000000), wk =   0.0740741
        k(    2) = (   0.0000000   0.0000000   0.3333333), wk =   0.1481481
        k(    3) = (   0.0000000   0.3333333   0.0000000), wk =   0.1481481
        k(    4) = (   0.0000000   0.3333333   0.3333333), wk =   0.2962963
        k(    5) = (   0.3333333   0.0000000   0.0000000), wk =   0.1481481
        k(    6) = (   0.3333333   0.0000000   0.3333333), wk =   0.2962963
        k(    7) = (   0.3333333   0.3333333   0.0000000), wk =   0.1481481
        k(    8) = (   0.3333333   0.3333333   0.3333333), wk =   0.2962963
        k(    9) = (   0.3333333  -0.3333333   0.0000000), wk =   0.1481481
        k(   10) = (   0.3333333  -0.3333333   0.3333333), wk =   0.2962963

     Initial potential from superposition of free atoms

     starting charge     121.9528, renormalised to     122.0000
     Starting wfcs are  118 randomized atomic wfcs
     Checking if some PAW data can be deallocated...

     Self-consistent Calculation

     iteration #  1     ecut=    30.00 Ry     beta= 0.70
     Davidson diagonalization with overlap

     ethr =  1.00E-02,  avg # of iterations =  2.0

     Threshold (ethr) on eigenvalues was too large:
     Diagonalizing with lowered threshold

     Davidson diagonalization with overlap

[...]

     negative rho (up, down):  4.073E-02 0.000E+00

     total energy              =   -2666.62715648 Ry
     estimated scf accuracy    <       0.65620061 Ry

[...]

     c_bands:  1 eigenvalues not converged
     c_bands:  1 eigenvalues not converged
     c_bands:  1 eigenvalues not converged
     ethr =  1.63E-04,  avg # of iterations = 16.5

[...]

     negative rho (up, down):  2.563E-04 0.000E+00

[...]

     c_bands:  1 eigenvalues not converged
     ethr =  9.80E-07,  avg # of iterations = 10.2

[...]

     total energy              =   -2667.03403855 Ry
     estimated scf accuracy    <       0.00000214 Ry

     iteration # 50     ecut=    30.00 Ry     beta= 0.70
     Davidson diagonalization with overlap

     ethr =  1.76E-09,  avg # of iterations = 10.6

     End of self-consistent calculation

          k = 0.0000 0.0000 0.0000 (  5771 PWs)   bands (ev):

   -83.9696 -83.9696 -47.0315 -47.0298 -47.0131 -47.0118 -46.9989 -46.9974
   -27.7503 -27.7495 -18.6740 -18.6727  -9.2624  -9.1698  -9.1344  -9.1051
    -8.9397  -8.9389  -4.3882  -4.3388  -4.2134  -3.8795  -3.7130  -3.7078
    -3.5338  -3.0162  -2.8138  -2.6647  -2.5194  -2.3634   3.9444   4.0114
     4.0152   4.0456   4.1292   4.1957   4.4902   4.5056   4.5761   4.6818
     5.0940   5.3976   5.4739   5.9575   6.1218   6.2118   6.2883   6.6446
     6.6698   6.7677   7.3128   7.3858   7.4581   7.4716   7.5891   8.0153
     8.0660   8.1025   9.4262   9.4454   9.4910   9.5366   9.6243   9.6289

     occupation numbers
     1.0000   1.0000   1.0000   1.0000   1.0000   1.0000   1.0000   1.0000
     1.0000   1.0000   1.0000   1.0000   1.0000   1.0000   1.0000   1.0000
     1.0000   1.0000   1.0000   1.0000   1.0000   1.0000   1.0000   1.0000
     1.0000   1.0000   1.0000   1.0000   1.0000   1.0000   1.0000   1.0000
     1.0000   1.0000   1.0000   1.0000   1.0000   1.0000   1.0000   1.0000
     1.0000   1.0000   1.0000   1.0000   1.0000   1.0000   1.0000   1.0000
     1.0000   1.0000   1.0000   1.0000   1.0000   1.0000   1.0000   1.0000
     1.0000   1.0000   1.0000   1.0000   1.0000   0.0000   0.0000   0.0000

[...]

          k = 0.3333-0.1014 0.2266 (  5806 PWs)   bands (ev):

   -83.9696 -83.9696 -47.0325 -47.0313 -47.0131 -47.0126 -47.0000 -46.9995
   -27.7501 -27.7497 -18.6736 -18.6729  -9.2384  -9.1898  -9.1304  -9.1186
    -8.9396  -8.9392  -4.4854  -4.3916  -4.0967  -3.9703  -3.7106  -3.7083
    -3.1564  -3.1136  -2.8141  -2.7200  -2.5291  -2.4318   3.9653   3.9914
     4.0171   4.0320   4.1308   4.2711   4.3848   4.4869   4.5309   4.6195
     5.0073   5.0986   5.7068   5.8806   6.2456   6.3664   6.5262   6.6883
     7.0426   7.0984   7.1324   7.2238   7.4174   7.5378   7.6694   7.6879
     7.7681   7.8695   9.4310   9.4419   9.4951   9.5187   9.6339   9.6387

     occupation numbers
     1.0000   1.0000   1.0000   1.0000   1.0000   1.0000   1.0000   1.0000
     1.0000   1.0000   1.0000   1.0000   1.0000   1.0000   1.0000   1.0000
     1.0000   1.0000   1.0000   1.0000   1.0000   1.0000   1.0000   1.0000
     1.0000   1.0000   1.0000   1.0000   1.0000   1.0000   1.0000   1.0000
     1.0000   1.0000   1.0000   1.0000   1.0000   1.0000   1.0000   1.0000
     1.0000   1.0000   1.0000   1.0000   1.0000   1.0000   1.0000   1.0000
     1.0000   1.0000   1.0000   1.0000   1.0000   1.0000   1.0000   1.0000
     1.0000   1.0000   1.0000   1.0000   1.0000   0.0000   0.0000   0.0000

     highest occupied, lowest unoccupied level (ev):     9.5004    9.4882

!    total energy              =   -2667.03403795 Ry
     estimated scf accuracy    <       0.00000088 Ry

     The total energy is the sum of the following terms:
     one-electron contribution =    -586.66574814 Ry
     hartree contribution      =     351.22189707 Ry
     xc contribution           =    -173.27305816 Ry
     ewald contribution        =    -648.25036024 Ry
     one-center paw contrib.   =   -1610.06676848 Ry
      -> PAW hartree energy AE =      57.13179558 Ry
      -> PAW hartree energy PS =     -56.90972178 Ry
      -> PAW xc energy AE      =    -788.40388226 Ry
      -> PAW xc energy PS      =      38.27691492 Ry
      -> total E_H with PAW    =     351.44397087 Ry
      -> total E_XC with PAW   =    -923.40002550 Ry

     convergence has been achieved in  50 iterations

     Writing all to output data dir calculations_bands/myprefix.save/

     General routines

     Parallel routines

     PAW routines

   This run was terminated on:   8:40: 7   7Jun2023

   JOB DONE.