     Program PWSCF v.7.1 starts on 16Jul2023 at 14:16: 2

     Reading input from espresso_24149.pwi
Warning: card &CELL ignored
Warning: card / ignored

     Current dimensions of program PWSCF are:
     Max number of different atomic species (ntypx) = 10
     Max number of k-points (npk) =  40000
     Max angular momentum in pseudopotentials (lmaxx) =  4
     file Ba.pbe-spn-kjpaw_psl.1.0.0.UPF: wavefunction(s)  5S 6S renormalized
     Message from routine setup:
     using ibrav=0 with symmetry is DISCOURAGED, use correct ibrav instead

     K-points division:     npool     =       2
     R & G space division:  proc/nbgrp/npool/nimage =       4
     Subspace diagonalization in iterative solution of the eigenvalue problem:
     a serial algorithm will be used

     Using Slab Decomposition

     bravais-lattice index     =            0
     lattice parameter (alat)  =      13.7716  a.u.
     unit-cell volume          =    3349.9469 (a.u.)^3
     number of atoms/cell      =           14
     number of atomic types    =            4
     number of electrons       =       116.00
     number of Kohn-Sham states=           64
     kinetic-energy cutoff     =      30.0000  Ry
     charge density cutoff     =     240.0000  Ry
     scf convergence threshold =      1.0E-06
     mixing beta               =       0.7000
     number of iterations used =            8  plain     mixing
     Exchange-correlation= SLA  PW   PBE  PBE
                           (   1   4   3   4   0   0   0)

     celldm(1)=  13.771562  celldm(2)=   0.000000  celldm(3)=   0.000000
     celldm(4)=   0.000000  celldm(5)=   0.000000  celldm(6)=   0.000000

     crystal axes: (cart. coord. in units of alat)
               a(1) = (   1.000000   0.000000   0.000000 )
               a(2) = (   0.000000   1.037904   0.000000 )
               a(3) = (   0.000000   0.412408   1.235752 )

     reciprocal axes: (cart. coord. in units 2 pi/alat)
               b(1) = (  1.000000  0.000000  0.000000 )
               b(2) = (  0.000000  0.963480 -0.321543 )
               b(3) = (  0.000000  0.000000  0.809224 )

     PseudoPot. # 1 for Ba read from file:
     /lustre07/scratch/pragov/crystal_structure_design/utils/SSSP/Ba.pbe-spn-kjpaw_psl.1.0.0.UPF
     MD5 check sum: c432291d3e53af55f19d5e8866385beb
     Pseudo is Projector augmented-wave + core cor, Zval = 10.0
     Generated using "atomic" code by A. Dal Corso  v.5.1
     Shape of augmentation charge: PSQ
     Using radial grid of 1251 points,  7 beta functions with:
                l(1) =   0
                l(2) =   0
                l(3) =   0
                l(4) =   1
                l(5) =   1
                l(6) =   2
                l(7) =   2
     Q(r) pseudized with 0 coefficients

     PseudoPot. # 2 for Ge read from file:
     /lustre07/scratch/pragov/crystal_structure_design/utils/SSSP/ge_pbe_v1.4.uspp.F.UPF
     MD5 check sum: 9c9eaa91e581c3f09632fb3098b2c6b2
     Pseudo is Ultrasoft + core correction, Zval = 14.0
     Generated by new atomic code, or converted to UPF format
     Using radial grid of  873 points,  6 beta functions with:
                l(1) =   0
                l(2) =   0
                l(3) =   1
                l(4) =   1
                l(5) =   2
                l(6) =   2
     Q(r) pseudized with  8 coefficients,  rinner =    1.400   1.400   1.400
                                                       1.400   1.400

     PseudoPot. # 3 for Te read from file:
     /lustre07/scratch/pragov/crystal_structure_design/utils/SSSP/Te_pbe_v1.uspp.F.UPF
     MD5 check sum: c319670d6894cc26e93307826a071b75
     Pseudo is Ultrasoft + core correction, Zval =  6.0
     Generated by new atomic code, or converted to UPF format
     Using radial grid of  891 points,  5 beta functions with:
                l(1) =   0
                l(2) =   0
                l(3) =   1
                l(4) =   1
                l(5) =   2
     Q(r) pseudized with  6 coefficients,  rinner =    1.800   1.800   1.800
                                                       1.800   1.800

     PseudoPot. # 4 for Se read from file:
     /lustre07/scratch/pragov/crystal_structure_design/utils/SSSP/Se_pbe_v1.uspp.F.UPF
     MD5 check sum: 1b3568f3a8ae88f9a2a0ad0698632c85
     Pseudo is Ultrasoft + core correction, Zval =  6.0
     Generated by new atomic code, or converted to UPF format
     Using radial grid of  877 points,  6 beta functions with:
                l(1) =   0
                l(2) =   0
                l(3) =   1
                l(4) =   1
                l(5) =   2
                l(6) =   2
     Q(r) pseudized with  8 coefficients,  rinner =    1.300   1.300   1.300
                                                       1.300   1.300

     atomic species   valence    mass     pseudopotential
        Ba            10.00   137.32700     Ba( 1.00)
        Ge            14.00    72.63000     Ge( 1.00)
        Te             6.00   127.60000     Te( 1.00)
        Se             6.00    78.97100     Se( 1.00)

      4 Sym. Ops., with inversion, found ( 2 have fractional translation)

                                    s                        frac. trans.

      isym =  1     identity

 cryst.   s( 1) = (     1          0          0      )
                  (     0          1          0      )
                  (     0          0          1      )

 cart.    s( 1) = (  1.0000000  0.0000000  0.0000000 )
                  (  0.0000000  1.0000000  0.0000000 )
                  (  0.0000000  0.0000000  1.0000000 )

      isym =  2     180 deg rotation - cart. axis [1,0,0]

 cryst.   s( 2) = (     1          0          0      )    f =( -0.5000000 )
                  (     0         -1          0      )       ( -0.0000000 )
                  (     0          0         -1      )       (  0.0000000 )

 cart.    s( 2) = (  1.0000000  0.0000000  0.0000000 )    f =( -0.5000000 )
                  (  0.0000000 -1.0000000  0.0000000 )       ( -0.0000000 )
                  (  0.0000000  0.0000000 -1.0000000 )       (  0.0000000 )

      isym =  3     inversion

 cryst.   s( 3) = (    -1          0          0      )
                  (     0         -1          0      )
                  (     0          0         -1      )

 cart.    s( 3) = ( -1.0000000  0.0000000  0.0000000 )
                  (  0.0000000 -1.0000000  0.0000000 )
                  (  0.0000000  0.0000000 -1.0000000 )

      isym =  4     inv. 180 deg rotation - cart. axis [1,0,0]

 cryst.   s( 4) = (    -1          0          0      )    f =(  0.5000000 )
                  (     0          1          0      )       (  0.0000000 )
                  (     0          0          1      )       (  0.0000000 )

 cart.    s( 4) = ( -1.0000000  0.0000000  0.0000000 )    f =(  0.5000000 )
                  (  0.0000000  1.0000000  0.0000000 )       (  0.0000000 )
                  (  0.0000000  0.0000000  1.0000000 )       (  0.0000000 )

   Cartesian axes

     site n.     atom                  positions (alat units)
         1           Ba  tau(   1) = (   0.2500000   0.8155839   0.0738226  )
         2           Ba  tau(   2) = (   0.2500000   1.0433770   0.6810857  )
         3           Ba  tau(   3) = (   0.7500000   0.4069350   0.5546658  )
         4           Ba  tau(   4) = (   0.7500000   0.6347280   1.1619290  )
         5           Ge  tau(   5) = (   0.2500000   0.5092648   0.8687135  )
         6           Ge  tau(   6) = (   0.7500000   0.9410471   0.3670380  )
         7           Te  tau(   7) = (   0.2500000   0.7834392   1.0981592  )
         8           Te  tau(   8) = (   0.2500000   0.5657529   0.5162228  )
         9           Te  tau(   9) = (   0.7500000   0.8845591   0.7195287  )
        10           Te  tau(  10) = (   0.7500000   0.6668728   0.1375923  )
        11           Se  tau(  11) = (   0.5048030   0.3159620   0.9389858  )
        12           Se  tau(  12) = (   0.0048030   1.1343499   0.2967657  )
        13           Se  tau(  13) = (   0.4951970   1.1343499   0.2967657  )
        14           Se  tau(  14) = (   0.9951970   0.3159620   0.9389858  )

   Crystallographic axes

     site n.     atom                  positions (cryst. coord.)
         1           Ba  tau(   1) = (  0.2500000  0.7620620  0.0597390  )
         2           Ba  tau(   2) = (  0.2500000  0.7862750  0.5511510  )
         3           Ba  tau(   3) = (  0.7500000  0.2137250  0.4488490  )
         4           Ba  tau(   4) = (  0.7500000  0.2379380  0.9402610  )
         5           Ge  tau(   5) = (  0.2500000  0.2113380  0.7029840  )
         6           Ge  tau(   6) = (  0.7500000  0.7886620  0.2970160  )
         7           Te  tau(   7) = (  0.2500000  0.4017230  0.8886570  )
         8           Te  tau(   8) = (  0.2500000  0.3791040  0.4177400  )
         9           Te  tau(   9) = (  0.7500000  0.6208960  0.5822600  )
        10           Te  tau(  10) = (  0.7500000  0.5982770  0.1113430  )
        11           Se  tau(  11) = (  0.5048030  0.0024990  0.7598500  )
        12           Se  tau(  12) = (  0.0048030  0.9975010  0.2401500  )
        13           Se  tau(  13) = (  0.4951970  0.9975010  0.2401500  )
        14           Se  tau(  14) = (  0.9951970  0.0024990  0.7598500  )

     number of k points=    10
                       cart. coord. in units 2pi/alat
        k(    1) = (   0.0000000   0.0000000   0.0000000), wk =   0.0740741
        k(    2) = (   0.0000000   0.0000000   0.2697414), wk =   0.1481481
        k(    3) = (   0.0000000   0.3211601  -0.1071810), wk =   0.1481481
        k(    4) = (   0.0000000   0.3211601   0.1625604), wk =   0.1481481
        k(    5) = (   0.0000000   0.3211601  -0.3769224), wk =   0.1481481
        k(    6) = (   0.3333333   0.0000000   0.0000000), wk =   0.1481481
        k(    7) = (   0.3333333   0.0000000   0.2697414), wk =   0.2962963
        k(    8) = (   0.3333333   0.3211601  -0.1071810), wk =   0.2962963
        k(    9) = (   0.3333333   0.3211601   0.1625604), wk =   0.2962963
        k(   10) = (   0.3333333   0.3211601  -0.3769224), wk =   0.2962963

                       cryst. coord.
        k(    1) = (   0.0000000   0.0000000   0.0000000), wk =   0.0740741
        k(    2) = (   0.0000000   0.0000000   0.3333333), wk =   0.1481481
        k(    3) = (   0.0000000   0.3333333   0.0000000), wk =   0.1481481
        k(    4) = (   0.0000000   0.3333333   0.3333333), wk =   0.1481481
        k(    5) = (   0.0000000   0.3333333  -0.3333333), wk =   0.1481481
        k(    6) = (   0.3333333   0.0000000   0.0000000), wk =   0.1481481
        k(    7) = (   0.3333333   0.0000000   0.3333333), wk =   0.2962963
        k(    8) = (   0.3333333   0.3333333   0.0000000), wk =   0.2962963
        k(    9) = (   0.3333333   0.3333333   0.3333333), wk =   0.2962963
        k(   10) = (   0.3333333   0.3333333  -0.3333333), wk =   0.2962963

     Initial potential from superposition of free atoms

     starting charge     115.9291, renormalised to     116.0000
     Starting wfcs are   70 randomized atomic wfcs
     Checking if some PAW data can be deallocated...

     Self-consistent Calculation

     iteration #  1     ecut=    30.00 Ry     beta= 0.70
     Davidson diagonalization with overlap

     ethr =  1.00E-02,  avg # of iterations =  5.9

     Threshold (ethr) on eigenvalues was too large:
     Diagonalizing with lowered threshold

     Davidson diagonalization with overlap

[...]

     negative rho (up, down):  6.257E-02 0.000E+00

     total energy              =   -2453.51127946 Ry
     estimated scf accuracy    <       0.54598826 Ry

[...]

     negative rho (up, down):  6.230E-03 0.000E+00

[...]

     total energy              =   -2453.65006174 Ry
     estimated scf accuracy    <       0.00000412 Ry

     iteration # 18     ecut=    30.00 Ry     beta= 0.70
     Davidson diagonalization with overlap

     ethr =  3.56E-09,  avg # of iterations =  1.0

     End of self-consistent calculation

          k = 0.0000 0.0000 0.0000 (  9301 PWs)   bands (ev):

   -21.9613 -21.9568 -21.7453 -21.7382 -19.2914 -19.2902 -19.2858 -19.2853
   -19.2826 -19.2819 -19.2611 -19.2605 -19.2538 -19.2525  -7.8566  -7.6629
    -7.3828  -7.2162  -7.1964  -7.0916  -7.0908  -7.0347  -6.9895  -6.9583
    -6.9112  -6.8920  -6.8412  -6.4108  -6.1916  -5.8480  -4.8167  -4.6985
    -4.3511  -4.3140  -1.7473  -1.3995   1.8117   2.2053   2.2807   2.4050
     2.5320   2.6526   3.0595   3.6823   3.7026   3.8477   4.0708   4.1146
     4.1371   4.2224   4.5587   4.6554   4.9508   5.1056   5.1083   5.1319
     5.2703   5.6798   6.4898   6.9132   8.3421   8.3611   8.6146   8.6502

     occupation numbers
     1.0000   1.0000   1.0000   1.0000   1.0000   1.0000   1.0000   1.0000
     1.0000   1.0000   1.0000   1.0000   1.0000   1.0000   1.0000   1.0000
     1.0000   1.0000   1.0000   1.0000   1.0000   1.0000   1.0000   1.0000
     1.0000   1.0000   1.0000   1.0000   1.0000   1.0000   1.0000   1.0000
     1.0000   1.0000   1.0000   1.0000   1.0000   1.0000   1.0000   1.0000
     1.0000   1.0000   1.0000   1.0000   1.0000   1.0000   1.0000   1.0000
     1.0000   1.0000   1.0000   1.0000   1.0000   1.0000   1.0000   1.0000
     1.0000   1.0000   0.0000   0.0000   0.0000   0.0000   0.0000   0.0000

[...]

          k = 0.3333 0.3212-0.3769 (  9296 PWs)   bands (ev):

   -21.9599 -21.9581 -21.7434 -21.7401 -19.2914 -19.2911 -19.2859 -19.2851
   -19.2816 -19.2813 -19.2607 -19.2598 -19.2539 -19.2532  -7.7263  -7.6869
    -7.4409  -7.3415  -7.1716  -7.1608  -7.1034  -7.0866  -7.0615  -6.9870
    -6.9444  -6.9085  -6.5086  -6.4498  -6.0719  -5.9969  -4.7718  -4.7123
    -4.3281  -4.2939  -1.4444  -1.3485   2.0359   2.0772   2.1901   2.3573
     2.5193   2.6741   3.2828   3.4745   3.6585   3.7769   3.8790   4.0523
     4.1505   4.2019   4.4729   4.5733   4.5817   4.6999   4.8673   4.9220
     5.0099   5.1084   7.0973   7.2559   8.2008   8.4488   8.5470   8.9023

     occupation numbers
     1.0000   1.0000   1.0000   1.0000   1.0000   1.0000   1.0000   1.0000
     1.0000   1.0000   1.0000   1.0000   1.0000   1.0000   1.0000   1.0000
     1.0000   1.0000   1.0000   1.0000   1.0000   1.0000   1.0000   1.0000
     1.0000   1.0000   1.0000   1.0000   1.0000   1.0000   1.0000   1.0000
     1.0000   1.0000   1.0000   1.0000   1.0000   1.0000   1.0000   1.0000
     1.0000   1.0000   1.0000   1.0000   1.0000   1.0000   1.0000   1.0000
     1.0000   1.0000   1.0000   1.0000   1.0000   1.0000   1.0000   1.0000
     1.0000   1.0000   0.0000   0.0000   0.0000   0.0000   0.0000   0.0000

     highest occupied, lowest unoccupied level (ev):     5.6798    6.4898

!    total energy              =   -2453.65006183 Ry
     estimated scf accuracy    <          6.9E-09 Ry

     The total energy is the sum of the following terms:
     one-electron contribution =    -418.45093054 Ry
     hartree contribution      =     270.17526949 Ry
     xc contribution           =    -374.36457671 Ry
     ewald contribution        =    -431.20390370 Ry
     one-center paw contrib.   =   -1499.80592036 Ry
      -> PAW hartree energy AE =      57.05496912 Ry
      -> PAW hartree energy PS =     -56.83398674 Ry
      -> PAW xc energy AE      =    -788.38941200 Ry
      -> PAW xc energy PS      =      38.26546944 Ry
      -> total E_H with PAW    =     270.39625187 Ry
      -> total E_XC with PAW   =   -1124.48851928 Ry

     convergence has been achieved in  18 iterations

     Writing all to output data dir bands_nm/myprefix.save/

     General routines

     Parallel routines

     PAW routines

   This run was terminated on:  14:16:32  16Jul2023

   JOB DONE.