     Program PWSCF v.7.1 starts on 14Jul2023 at 17: 1: 0

     Reading input from espresso_11637.pwi
Warning: card &CELL ignored
Warning: card / ignored

     Current dimensions of program PWSCF are:
     Max number of different atomic species (ntypx) = 10
     Max number of k-points (npk) =  40000
     Max angular momentum in pseudopotentials (lmaxx) =  4
     file O.pbe-n-kjpaw_psl.0.1.UPF: wavefunction(s)  2P renormalized

     K-points division:     npool     =       2
     R & G space division:  proc/nbgrp/npool/nimage =       4
     Subspace diagonalization in iterative solution of the eigenvalue problem:
     a serial algorithm will be used

     Using Slab Decomposition

     bravais-lattice index     =            0
     lattice parameter (alat)  =      11.5593  a.u.
     unit-cell volume          =    1069.9404 (a.u.)^3
     number of atoms/cell      =            7
     number of atomic types    =            4
     number of electrons       =        50.00
     number of Kohn-Sham states=           64
     kinetic-energy cutoff     =      30.0000  Ry
     charge density cutoff     =     240.0000  Ry
     scf convergence threshold =      1.0E-06
     mixing beta               =       0.7000
     number of iterations used =            8  plain     mixing
     Exchange-correlation= SLA  PW   PBX  PBC
                           (   1   4   3   4   0   0   0)

     celldm(1)=  11.559310  celldm(2)=   0.000000  celldm(3)=   0.000000
     celldm(4)=   0.000000  celldm(5)=   0.000000  celldm(6)=   0.000000

     crystal axes: (cart. coord. in units of alat)
               a(1) = (   1.000000   0.000000   0.000000 )
               a(2) = (   0.038804   0.999247   0.000000 )
               a(3) = (  -0.519402  -0.499623   0.693252 )

     reciprocal axes: (cart. coord. in units 2 pi/alat)
               b(1) = (  1.000000 -0.038833  0.721239 )
               b(2) = (  0.000000  1.000754  0.721239 )
               b(3) = (  0.000000  0.000000  1.442477 )

     PseudoPot. # 1 for Cs read from file:
     /lustre07/scratch/pragov/crystal_structure_design/utils/SSSP/Cs_pbe_v1.uspp.F.UPF
     MD5 check sum: 3476d69cb178dfad3ffaa59df4e07ca4
     Pseudo is Ultrasoft + core correction, Zval =  9.0
     Generated by new atomic code, or converted to UPF format
     Using radial grid of  905 points,  6 beta functions with:
                l(1) =   0
                l(2) =   0
                l(3) =   1
                l(4) =   1
                l(5) =   2
                l(6) =   2
     Q(r) pseudized with  6 coefficients,  rinner =    1.500   1.500   1.500
                                                       1.500   1.500

     PseudoPot. # 2 for Li read from file:
     /lustre07/scratch/pragov/crystal_structure_design/utils/SSSP/li_pbe_v1.4.uspp.F.UPF
     MD5 check sum: e912e257baa3777c20ea3d68f190483c
     Pseudo is Ultrasoft, Zval =  3.0
     Generated by new atomic code, or converted to UPF format
     Using radial grid of  751 points,  5 beta functions with:
                l(1) =   0
                l(2) =   0
                l(3) =   0
                l(4) =   1
                l(5) =   1
     Q(r) pseudized with 10 coefficients,  rinner =    1.150   1.150   1.150

     PseudoPot. # 3 for W  read from file:
     /lustre07/scratch/pragov/crystal_structure_design/utils/SSSP/W_pbe_v1.2.uspp.F.UPF
     MD5 check sum: 9c083fa34c2a2ea0f02f1f893e16e1c8
     Pseudo is Ultrasoft + core correction, Zval = 14.0
     Generated by new atomic code, or converted to UPF format
     Using radial grid of  923 points,  8 beta functions with:
                l(1) =   0
                l(2) =   0
                l(3) =   0
                l(4) =   1
                l(5) =   1
                l(6) =   2
                l(7) =   2
                l(8) =   3
     Q(r) pseudized with  6 coefficients,  rinner =    1.350   1.350   1.350
                                                       1.350   1.350   1.350
                                                       1.350

     PseudoPot. # 4 for O  read from file:
     /lustre07/scratch/pragov/crystal_structure_design/utils/SSSP/O.pbe-n-kjpaw_psl.0.1.UPF
     MD5 check sum: 0234752ac141de4415c5fc33072bef88
     Pseudo is Projector augmented-wave + core cor, Zval =  6.0
     Generated using "atomic" code by A. Dal Corso  v.5.0.99 svn rev. 10869
     Shape of augmentation charge: BESSEL
     Using radial grid of 1095 points,  4 beta functions with:
                l(1) =   0
                l(2) =   0
                l(3) =   1
                l(4) =   1
     Q(r) pseudized with 0 coefficients

     atomic species   valence    mass     pseudopotential
        Cs             9.00   132.90545     Cs( 1.00)
        Li             3.00     6.94000     Li( 1.00)
        W             14.00   183.84000     W ( 1.00)
        O              6.00    15.99900     O ( 1.00)

     No symmetry found

                                    s                        frac. trans.

      isym =  1     identity

 cryst.   s( 1) = (     1          0          0      )
                  (     0          1          0      )
                  (     0          0          1      )

 cart.    s( 1) = (  1.0000000  0.0000000  0.0000000 )
                  (  0.0000000  1.0000000  0.0000000 )
                  (  0.0000000  0.0000000  1.0000000 )

   Cartesian axes

     site n.     atom                  positions (alat units)
         1           Cs  tau(   1) = (   0.0000000   0.0000000   0.0000000  )
         2           Li  tau(   2) = (   0.5000000  -0.0000000   0.3466260  )
         3           W   tau(   3) = (   0.5194018   0.4996234   0.0000000  )
         4           O   tau(   4) = (   0.4957107   0.2790876   0.1970541  )
         5           O   tau(   5) = (  -0.2212900  -0.0151156   0.4961978  )
         6           O   tau(   6) = (   0.5052837   0.7594661   0.1425153  )
         7           O   tau(   7) = (   0.2590981  -0.0241903   0.5507367  )

   Crystallographic axes

     site n.     atom                  positions (cryst. coord.)
         1           Cs  tau(   1) = (  0.0000000  0.0000000  0.0000000  )
         2           Li  tau(   2) = (  0.7500000  0.2500000  0.5000000  )
         3           W   tau(   3) = (  0.5000000  0.5000000  0.0000000  )
         4           O   tau(   4) = (  0.6269960  0.4214210  0.2842460  )
         5           O   tau(   5) = (  0.1371740  0.3427500  0.7157540  )
         6           O   tau(   6) = (  0.5785790  0.8628260  0.2055750  )
         7           O   tau(   7) = (  0.6572500  0.3730040  0.7944250  )

     number of k points=    14
                       cart. coord. in units 2pi/alat
        k(    1) = (   0.0000000   0.0000000   0.0000000), wk =   0.0740741
        k(    2) = (   0.0000000   0.0000000   0.4808257), wk =   0.1481481
        k(    3) = (   0.0000000   0.3335846   0.2404128), wk =   0.1481481
        k(    4) = (   0.0000000   0.3335846   0.7212385), wk =   0.1481481
        k(    5) = (   0.3333333  -0.0129443   0.2404128), wk =   0.1481481
        k(    6) = (   0.3333333  -0.0129443   0.7212385), wk =   0.1481481
        k(    7) = (   0.3333333   0.3206403   0.4808257), wk =   0.1481481
        k(    8) = (   0.3333333   0.3206403   0.0000000), wk =   0.1481481
        k(    9) = (   0.3333333  -0.3465288   0.0000000), wk =   0.1481481
        k(   10) = (   0.3333333  -0.3465288   0.4808257), wk =   0.1481481
        k(   11) = (   0.0000000  -0.3335846   0.2404128), wk =   0.1481481
        k(   12) = (  -0.3333333   0.0129443   0.2404128), wk =   0.1481481
        k(   13) = (  -0.3333333  -0.3206403   0.4808257), wk =   0.1481481
        k(   14) = (  -0.3333333   0.3465288   0.4808257), wk =   0.1481481

                       cryst. coord.
        k(    1) = (   0.0000000   0.0000000   0.0000000), wk =   0.0740741
        k(    2) = (   0.0000000   0.0000000   0.3333333), wk =   0.1481481
        k(    3) = (   0.0000000   0.3333333   0.0000000), wk =   0.1481481
        k(    4) = (   0.0000000   0.3333333   0.3333333), wk =   0.1481481
        k(    5) = (   0.3333333   0.0000000   0.0000000), wk =   0.1481481
        k(    6) = (   0.3333333   0.0000000   0.3333333), wk =   0.1481481
        k(    7) = (   0.3333333   0.3333333   0.0000000), wk =   0.1481481
        k(    8) = (   0.3333333   0.3333333  -0.3333333), wk =   0.1481481
        k(    9) = (   0.3333333  -0.3333333   0.0000000), wk =   0.1481481
        k(   10) = (   0.3333333  -0.3333333   0.3333333), wk =   0.1481481
        k(   11) = (   0.0000000  -0.3333333   0.3333333), wk =   0.1481481
        k(   12) = (  -0.3333333  -0.0000000   0.3333333), wk =   0.1481481
        k(   13) = (  -0.3333333  -0.3333333   0.6666667), wk =   0.1481481
        k(   14) = (  -0.3333333   0.3333333   0.3333333), wk =   0.1481481

     Check: negative core charge=   -0.000008

     Initial potential from superposition of free atoms

     starting charge      49.4095, renormalised to      50.0000

     negative rho (up, down):  6.414E-02 0.000E+00
     Starting wfcs are   47 randomized atomic wfcs +   17 random wfcs
     Checking if some PAW data can be deallocated...

     Self-consistent Calculation

     iteration #  1     ecut=    30.00 Ry     beta= 0.70
     Davidson diagonalization with overlap

     ethr =  1.00E-02,  avg # of iterations =  6.7

     negative rho (up, down):  5.954E-02 0.000E+00

     total energy              =    -402.15165427 Ry
     estimated scf accuracy    <       2.70828498 Ry

[...]

     total energy              =    -403.67466127 Ry
     estimated scf accuracy    <       0.00000200 Ry

     iteration #  9     ecut=    30.00 Ry     beta= 0.70
     Davidson diagonalization with overlap

     ethr =  4.00E-09,  avg # of iterations =  1.1

     negative rho (up, down):  6.069E-02 0.000E+00

     End of self-consistent calculation

          k = 0.0000 0.0000 0.0000 (  2959 PWs)   bands (ev):

   -71.3672 -40.0304 -35.7695 -35.7694 -35.7616 -17.4717 -14.5383 -13.9700
   -13.9370 -13.9362  -4.2999  -4.2968  -4.2968  -1.1565  -1.0833  -1.0642
    -1.0277  -1.0273  -1.0078   0.4801   0.5138   0.5139   1.6805   1.7571
     1.7575   6.2023   6.7670   6.7958   8.4119   8.4120   8.5149   9.5960
     9.6869   9.6870  10.4867  10.7715  12.9534  13.4042  13.7429  13.7430
    13.8059  14.1306  14.1307  14.1725  16.2522  16.2522  16.8000  17.4264
    17.5267  17.7657  17.8807  17.8808  17.9826  20.1456  20.1456  20.1957
    20.1959  21.1953  21.6259  21.7719  22.1147  22.1148  22.3677  22.3683

     occupation numbers
     1.0000   1.0000   1.0000   1.0000   1.0000   1.0000   1.0000   1.0000
     1.0000   1.0000   1.0000   1.0000   1.0000   1.0000   1.0000   1.0000
     1.0000   1.0000   1.0000   1.0000   1.0000   1.0000   1.0000   1.0000
     1.0000   0.0000   0.0000   0.0000   0.0000   0.0000   0.0000   0.0000
     0.0000   0.0000   0.0000   0.0000   0.0000   0.0000   0.0000   0.0000
     0.0000   0.0000   0.0000   0.0000   0.0000   0.0000   0.0000   0.0000
     0.0000   0.0000   0.0000   0.0000   0.0000   0.0000   0.0000   0.0000
     0.0000   0.0000   0.0000   0.0000   0.0000   0.0000   0.0000   0.0000

[...]

          k = 0.0000-0.3336 0.2404 (  2974 PWs)   bands (ev):

[...]

          k =-0.3333 0.0129 0.2404 (  2974 PWs)   bands (ev):

[...]

          k =-0.3333 0.3465 0.4808 (  2988 PWs)   bands (ev):

   -71.3673 -40.0310 -35.7695 -35.7695 -35.7617 -17.4634 -14.4819 -14.0361
   -13.9461 -13.9350  -4.3417  -4.3234  -4.2843  -1.5336  -1.4165  -1.2138
    -0.9127  -0.8356  -0.6724   0.7661   0.8465   0.9097   1.3318   1.4613
     1.5646   6.7695   6.9804   7.6946   8.2455   8.3909   8.4169   9.1617
     9.6184  10.1670  10.2372  10.4027  11.1820  11.3440  12.5955  13.4714
    14.1940  14.5685  15.3264  15.8368  16.0200  16.3322  16.5765  17.0059
    17.6530  18.2797  18.5082  18.7510  18.9506  19.8370  19.8667  20.0538
    20.5190  20.7130  20.8417  21.0104  21.3055  21.6493  21.7070  22.6314

     occupation numbers
     1.0000   1.0000   1.0000   1.0000   1.0000   1.0000   1.0000   1.0000
     1.0000   1.0000   1.0000   1.0000   1.0000   1.0000   1.0000   1.0000
     1.0000   1.0000   1.0000   1.0000   1.0000   1.0000   1.0000   1.0000
     1.0000   0.0000   0.0000   0.0000   0.0000   0.0000   0.0000   0.0000
     0.0000   0.0000   0.0000   0.0000   0.0000   0.0000   0.0000   0.0000
     0.0000   0.0000   0.0000   0.0000   0.0000   0.0000   0.0000   0.0000
     0.0000   0.0000   0.0000   0.0000   0.0000   0.0000   0.0000   0.0000
     0.0000   0.0000   0.0000   0.0000   0.0000   0.0000   0.0000   0.0000

     highest occupied, lowest unoccupied level (ev):     1.7575    6.2023

!    total energy              =    -403.67466130 Ry
     estimated scf accuracy    <       0.00000027 Ry

     The total energy is the sum of the following terms:
     one-electron contribution =    -234.24093216 Ry
     hartree contribution      =     131.80709407 Ry
     xc contribution           =    -104.44157971 Ry
     ewald contribution        =    -158.69072472 Ry
     one-center paw contrib.   =     -38.10851877 Ry
      -> PAW hartree energy AE =       0.00000000 Ry
      -> PAW hartree energy PS =       0.00000000 Ry
      -> PAW xc energy AE      =       0.00000000 Ry
      -> PAW xc energy PS      =       0.00000000 Ry
      -> total E_H with PAW    =     131.80709407 Ry
      -> total E_XC with PAW   =    -104.44157971 Ry

     convergence has been achieved in   9 iterations

     Writing all to output data dir bands_nm/myprefix.save/

     General routines

     Parallel routines

     PAW routines

   This run was terminated on:  17: 1:39  14Jul2023

   JOB DONE.