     Program PWSCF v.7.1 starts on 15Jul2023 at 13:55:17

     Reading input from espresso_14439.pwi
Warning: card &CELL ignored
Warning: card / ignored

     Current dimensions of program PWSCF are:
     Max number of different atomic species (ntypx) = 10
     Max number of k-points (npk) =  40000
     Max angular momentum in pseudopotentials (lmaxx) =  4
     file O.pbe-n-kjpaw_psl.0.1.UPF: wavefunction(s)  2P renormalized
     Message from routine setup:
     the system is metallic, specify occupations

     K-points division:     npool     =       2
     R & G space division:  proc/nbgrp/npool/nimage =       4
     Subspace diagonalization in iterative solution of the eigenvalue problem:
     a serial algorithm will be used

     Using Slab Decomposition

     bravais-lattice index     =            0
     lattice parameter (alat)  =      12.2614  a.u.
     unit-cell volume          =    2255.0853 (a.u.)^3
     number of atoms/cell      =           11
     number of atomic types    =            3
     number of electrons       =        89.00 (up:  45.00, down:  44.00)
     number of Kohn-Sham states=           64
     kinetic-energy cutoff     =      30.0000  Ry
     charge density cutoff     =     240.0000  Ry
     scf convergence threshold =      1.0E-06
     mixing beta               =       0.7000
     number of iterations used =            8  plain     mixing
     Exchange-correlation= SLA  PW   PBX  PBC
                           (   1   4   3   4   0   0   0)

     celldm(1)=  12.261372  celldm(2)=   0.000000  celldm(3)=   0.000000
     celldm(4)=   0.000000  celldm(5)=   0.000000  celldm(6)=   0.000000

     crystal axes: (cart. coord. in units of alat)
               a(1) = (   1.000000   0.000000   0.000000 )
               a(2) = (   0.095576   1.007232   0.000000 )
               a(3) = (   0.188792   0.442754   1.214552 )

     reciprocal axes: (cart. coord. in units 2 pi/alat)
               b(1) = (  1.000000 -0.094890 -0.120850 )
               b(2) = (  0.000000  0.992819 -0.361923 )
               b(3) = (  0.000000  0.000000  0.823349 )

     PseudoPot. # 1 for Re read from file:
     /lustre07/scratch/pragov/crystal_structure_design/utils/SSSP/Re_pbe_v1.2.uspp.F.UPF
     MD5 check sum: 85f993410f3e006da9d71c142b4ad953
     Pseudo is Ultrasoft + core correction, Zval = 15.0
     Generated by new atomic code, or converted to UPF format
     Using radial grid of  981 points,  8 beta functions with:
                l(1) =   0
                l(2) =   0
                l(3) =   1
                l(4) =   1
                l(5) =   2
                l(6) =   2
                l(7) =   3
                l(8) =   3
     Q(r) pseudized with  8 coefficients,  rinner =    1.150   1.150   1.150
                                                       1.150   1.150   1.150
                                                       1.150

     PseudoPot. # 2 for Cl read from file:
     /lustre07/scratch/pragov/crystal_structure_design/utils/SSSP/cl_pbe_v1.4.uspp.F.UPF
     MD5 check sum: fc6f6913ecf08c9257cb748ef0700058
     Pseudo is Ultrasoft + core correction, Zval =  7.0
     Generated by new atomic code, or converted to UPF format
     Using radial grid of  909 points,  6 beta functions with:
                l(1) =   0
                l(2) =   0
                l(3) =   1
                l(4) =   1
                l(5) =   2
                l(6) =   2
     Q(r) pseudized with  8 coefficients,  rinner =    1.300   1.300   1.300
                                                       1.300   1.300

     PseudoPot. # 3 for O  read from file:
     /lustre07/scratch/pragov/crystal_structure_design/utils/SSSP/O.pbe-n-kjpaw_psl.0.1.UPF
     MD5 check sum: 0234752ac141de4415c5fc33072bef88
     Pseudo is Projector augmented-wave + core cor, Zval =  6.0
     Generated using "atomic" code by A. Dal Corso  v.5.0.99 svn rev. 10869
     Shape of augmentation charge: BESSEL
     Using radial grid of 1095 points,  4 beta functions with:
                l(1) =   0
                l(2) =   0
                l(3) =   1
                l(4) =   1
     Q(r) pseudized with 0 coefficients

     atomic species   valence    mass     pseudopotential
        Re            15.00   186.20700     Re( 1.00)
        Cl             7.00    35.45000     Cl( 1.00)
        O              6.00    15.99900     O ( 1.00)

     Starting magnetic structure
     atomic species   magnetization
        Re           0.000
        Cl           0.000
        O            0.000

     No symmetry found

                                    s                        frac. trans.

      isym =  1     identity

 cryst.   s( 1) = (     1          0          0      )
                  (     0          1          0      )
                  (     0          0          1      )

 cart.    s( 1) = (  1.0000000  0.0000000  0.0000000 )
                  (  0.0000000  1.0000000  0.0000000 )
                  (  0.0000000  0.0000000  1.0000000 )

   Cartesian axes

     site n.     atom                  positions (alat units)
         1           Re  tau(   1) = (   0.5175075   0.7115976   0.6858744  )
         2           Re  tau(   2) = (   0.1045117   1.0007452   0.0041040  )
         3           Cl  tau(   3) = (   1.1906892   1.3109938   0.9066180  )
         4           Cl  tau(   4) = (   0.1957698   0.2041060   0.2168400  )
         5           Cl  tau(   5) = (   0.5738503   1.2311764   1.2004448  )
         6           Cl  tau(   6) = (   1.0102197   0.7243547   1.1329376  )
         7           Cl  tau(   7) = (   0.6898870   0.4831543   0.4982492  )
         8           O   tau(   8) = (   0.4805753   0.6261895   0.9368397  )
         9           O   tau(   9) = (   0.9514263   0.8740121   0.1713793  )
        10           O   tau(  10) = (   0.2797925   0.7544593   0.5763401  )
        11           O   tau(  11) = (   0.6527913   0.9396809   0.6893906  )

   Crystallographic axes

     site n.     atom                  positions (cryst. coord.)
         1           Re  tau(   1) = (  0.3670960  0.4582540  0.5647140  )
         2           Re  tau(   2) = (  0.0090550  0.9920740  0.0033790  )
         3           Cl  tau(   3) = (  0.9567240  0.9734540  0.7464630  )
         4           Cl  tau(   4) = (  0.1501970  0.1241610  0.1785350  )
         5           Cl  tau(   5) = (  0.3119500  0.7878670  0.9883850  )
         6           Cl  tau(   6) = (  0.8045700  0.3091170  0.9328030  )
         7           Cl  tau(   7) = (  0.5838270  0.2993570  0.4102330  )
         8           O   tau(   8) = (  0.3079390  0.2826290  0.7713460  )
         9           O   tau(   9) = (  0.8477800  0.8057100  0.1411050  )
        10           O   tau(  10) = (  0.1385510  0.5404510  0.4745290  )
        11           O   tau(  11) = (  0.4803120  0.6834270  0.5676090  )

     number of k points=    14
                       cart. coord. in units 2pi/alat
        k(    1) = (   0.0000000   0.0000000   0.0000000), wk =   0.0370370
        k(    2) = (   0.0000000   0.0000000   0.2744497), wk =   0.0740741
        k(    3) = (   0.0000000   0.3309398  -0.1206411), wk =   0.0740741
        k(    4) = (   0.0000000   0.3309398   0.1538086), wk =   0.0740741
        k(    5) = (   0.0000000   0.3309398  -0.3950907), wk =   0.0740741
        k(    6) = (   0.3333333  -0.0316300  -0.0402834), wk =   0.0740741
        k(    7) = (   0.3333333  -0.0316300   0.2341663), wk =   0.0740741
        k(    8) = (   0.3333333  -0.0316300  -0.3147330), wk =   0.0740741
        k(    9) = (   0.3333333   0.2993098  -0.1609245), wk =   0.0740741
        k(   10) = (   0.3333333   0.2993098   0.1135252), wk =   0.0740741
        k(   11) = (   0.3333333   0.2993098  -0.4353741), wk =   0.0740741
        k(   12) = (   0.3333333  -0.3625698   0.0803577), wk =   0.0740741
        k(   13) = (   0.3333333  -0.3625698   0.3548074), wk =   0.0740741
        k(   14) = (   0.3333333  -0.3625698  -0.1940919), wk =   0.0740741

                       cryst. coord.
        k(    1) = (   0.0000000   0.0000000   0.0000000), wk =   0.0370370
        k(    2) = (   0.0000000   0.0000000   0.3333333), wk =   0.0740741
        k(    3) = (   0.0000000   0.3333333   0.0000000), wk =   0.0740741
        k(    4) = (   0.0000000   0.3333333   0.3333333), wk =   0.0740741
        k(    5) = (   0.0000000   0.3333333  -0.3333333), wk =   0.0740741
        k(    6) = (   0.3333333   0.0000000   0.0000000), wk =   0.0740741
        k(    7) = (   0.3333333   0.0000000   0.3333333), wk =   0.0740741
        k(    8) = (   0.3333333   0.0000000  -0.3333333), wk =   0.0740741
        k(    9) = (   0.3333333   0.3333333   0.0000000), wk =   0.0740741
        k(   10) = (   0.3333333   0.3333333   0.3333333), wk =   0.0740741
        k(   11) = (   0.3333333   0.3333333  -0.3333333), wk =   0.0740741
        k(   12) = (   0.3333333  -0.3333333   0.0000000), wk =   0.0740741
        k(   13) = (   0.3333333  -0.3333333   0.3333333), wk =   0.0740741
        k(   14) = (   0.3333333  -0.3333333  -0.3333333), wk =   0.0740741

     Check: negative core charge=   -0.000005
     Generating pointlists ...
     new r_m :   0.1072 (alat units)  1.3138 (a.u.) for type    1
     new r_m :   0.1412 (alat units)  1.7308 (a.u.) for type    2
     new r_m :   0.1072 (alat units)  1.3138 (a.u.) for type    3

     Initial potential from superposition of free atoms

     starting charge      87.9999, renormalised to      89.0000

     negative rho (up, down):  1.698E-01 1.698E-01
     Starting wfcs are   62 randomized atomic wfcs +    2 random wfcs
     Checking if some PAW data can be deallocated...

     Self-consistent Calculation

     iteration #  1     ecut=    30.00 Ry     beta= 0.70
     Davidson diagonalization with overlap

     ethr =  1.00E-02,  avg # of iterations =  6.9

     negative rho (up, down):  1.801E-01 1.873E-01

     total energy              =    -712.93741507 Ry
     estimated scf accuracy    <       2.50785976 Ry

     total magnetization       =     1.00 Bohr mag/cell
     absolute magnetization    =     1.00 Bohr mag/cell

[...]

     total energy              =    -714.49187374 Ry
     estimated scf accuracy    <       0.00000165 Ry

[...]

     iteration # 14     ecut=    30.00 Ry     beta= 0.70
     Davidson diagonalization with overlap

     ethr =  1.85E-09,  avg # of iterations =  1.9

     negative rho (up, down):  1.675E-01 1.790E-01

     Magnetic moment per site  (integrated on atomic sphere of radius R)
     atom   1 (R=0.107)  charge=  7.8759  magn=  0.0000
     atom   2 (R=0.107)  charge=  7.8744  magn=  0.2932
     atom   3 (R=0.141)  charge=  4.7103  magn=  0.0436
     atom   4 (R=0.141)  charge=  4.7098  magn=  0.0475
     atom   5 (R=0.141)  charge=  4.7106  magn=  0.0507
     atom   6 (R=0.141)  charge=  4.7087  magn=  0.0401
     atom   7 (R=0.141)  charge=  4.7129  magn=  0.0009
     atom   8 (R=0.107)  charge=  4.6319  magn=  0.0004
     atom   9 (R=0.107)  charge=  4.6166  magn= -0.0367
     atom  10 (R=0.107)  charge=  4.6181  magn=  0.0003
     atom  11 (R=0.107)  charge=  4.6206  magn=  0.0008

     End of self-consistent calculation

 ------ SPIN UP ------------

          k = 0.0000 0.0000 0.0000 (  6271 PWs)   bands (ev):

   -81.4652 -81.2501 -43.5493 -43.4814 -43.4661 -43.3492 -42.9438 -42.9411
   -18.2598 -17.8284 -17.4164 -17.3411 -14.7173 -14.1985 -13.5922 -13.5347
   -13.5226  -5.2998  -4.9407  -4.9286  -4.8024  -4.7252  -4.6043  -4.5640
    -4.5381  -4.1818  -4.1795  -3.8776  -3.7252  -2.6685  -2.6438  -2.4609
    -2.3478  -2.2387  -1.8275  -1.7196  -1.4826  -1.4208  -1.1781  -1.1381
    -1.0743  -0.9582  -0.9513  -0.2894   0.7343   2.2621   2.3294   2.6842
     2.7363   3.5292   4.0643   4.0947   5.0618   5.1587   5.4153   8.0519
     8.5478   8.7446   9.0038   9.1802   9.3342   9.6761   9.9179  10.0758

     occupation numbers
     1.0000   1.0000   1.0000   1.0000   1.0000   1.0000   1.0000   1.0000
     1.0000   1.0000   1.0000   1.0000   1.0000   1.0000   1.0000   1.0000
     1.0000   1.0000   1.0000   1.0000   1.0000   1.0000   1.0000   1.0000
     1.0000   1.0000   1.0000   1.0000   1.0000   1.0000   1.0000   1.0000
     1.0000   1.0000   1.0000   1.0000   1.0000   1.0000   1.0000   1.0000
     1.0000   1.0000   1.0000   1.0000   1.0000   0.0000   0.0000   0.0000
     0.0000   0.0000   0.0000   0.0000   0.0000   0.0000   0.0000   0.0000
     0.0000   0.0000   0.0000   0.0000   0.0000   0.0000   0.0000   0.0000

[...]

 ------ SPIN DOWN ----------

[...]

          k = 0.3333-0.3626-0.1941 (  6260 PWs)   bands (ev):

   -81.4653 -80.9050 -43.4817 -43.4663 -43.3587 -43.3493 -42.3655 -42.3615
   -18.3108 -17.8258 -17.4151 -17.3409 -14.7171 -14.1020 -13.5348 -13.4776
   -13.4726  -5.2615  -4.9526  -4.9142  -4.7633  -4.6785  -4.5846  -4.5146
    -4.4651  -4.1067  -4.0563  -3.8163  -3.2354  -2.6905  -2.6257  -2.4580
    -2.2795  -2.1971  -1.8231  -1.6832  -1.5938  -1.4329  -1.1777  -1.1109
    -0.9192  -0.8820  -0.8478  -0.1510   1.5594   2.4665   2.5071   2.6801
     2.7391   3.5095   4.1855   4.3301   5.0632   5.1773   6.6879   7.7890
     8.2383   8.3791   8.5938   9.0669   9.3995   9.5995   9.6466   9.8509

     occupation numbers
     1.0000   1.0000   1.0000   1.0000   1.0000   1.0000   1.0000   1.0000
     1.0000   1.0000   1.0000   1.0000   1.0000   1.0000   1.0000   1.0000
     1.0000   1.0000   1.0000   1.0000   1.0000   1.0000   1.0000   1.0000
     1.0000   1.0000   1.0000   1.0000   1.0000   1.0000   1.0000   1.0000
     1.0000   1.0000   1.0000   1.0000   1.0000   1.0000   1.0000   1.0000
     1.0000   1.0000   1.0000   1.0000   0.0000   0.0000   0.0000   0.0000
     0.0000   0.0000   0.0000   0.0000   0.0000   0.0000   0.0000   0.0000
     0.0000   0.0000   0.0000   0.0000   0.0000   0.0000   0.0000   0.0000

     highest occupied, lowest unoccupied level (ev):     0.7489    1.5444

!    total energy              =    -714.49187406 Ry
     estimated scf accuracy    <       0.00000009 Ry

     The total energy is the sum of the following terms:
     one-electron contribution =    -508.98532000 Ry
     hartree contribution      =     270.65845173 Ry
     xc contribution           =    -180.87428651 Ry
     ewald contribution        =    -257.12351237 Ry
     one-center paw contrib.   =     -38.16720691 Ry
      -> PAW hartree energy AE =       0.00000000 Ry
      -> PAW hartree energy PS =       0.00000000 Ry
      -> PAW xc energy AE      =       0.00000000 Ry
      -> PAW xc energy PS      =       0.00000000 Ry
      -> total E_H with PAW    =     270.65845173 Ry
      -> total E_XC with PAW   =    -180.87428651 Ry

     total magnetization       =     1.00 Bohr mag/cell
     absolute magnetization    =     1.18 Bohr mag/cell

     convergence has been achieved in  14 iterations

     Writing all to output data dir bands_nm/myprefix.save/

     General routines

     Parallel routines

     PAW routines

   This run was terminated on:  13:56:21  15Jul2023

   JOB DONE.