     Program PWSCF v.7.0 starts on 23Jun2023 at  5: 5:52

     K-points division:     npool     =       2
     R & G space division:  proc/nbgrp/npool/nimage =       4

     Reading input from espresso_152.pwi
Warning: card &CELL ignored
Warning: card / ignored

     Current dimensions of program PWSCF are:
     Max number of different atomic species (ntypx) = 10
     Max number of k-points (npk) =  40000
     Max angular momentum in pseudopotentials (lmaxx) =  4
     file Fe.pbe-spn-kjpaw_psl.0.2.1.UPF: wavefunction(s)  3D renormalized
     file O.pbe-n-kjpaw_psl.0.1.UPF: wavefunction(s)  2P renormalized
     Message from routine setup:
     using ibrav=0 with symmetry is DISCOURAGED, use correct ibrav instead

     Using Slab Decomposition

     bravais-lattice index     =            0
     lattice parameter (alat)  =      11.2248  a.u.
     unit-cell volume          =    1011.5059 (a.u.)^3
     number of atoms/cell      =           14
     number of atomic types    =            3
     number of electrons       =       148.00
     number of Kohn-Sham states=           90
     kinetic-energy cutoff     =      30.0000  Ry
     charge density cutoff     =     240.0000  Ry
     scf convergence threshold =      1.0E-06
     mixing beta               =       0.7000
     number of iterations used =            8  plain     mixing
     Exchange-correlation= SLA  PW   PBX  PBC
                           (   1   4   3   4   0   0   0)

     celldm(1)=  11.224771  celldm(2)=   0.000000  celldm(3)=   0.000000
     celldm(4)=   0.000000  celldm(5)=   0.000000  celldm(6)=   0.000000

     crystal axes: (cart. coord. in units of alat)
               a(1) = (   1.000000   0.000000   0.000000 )
               a(2) = (  -0.489483   0.872013   0.000000 )
               a(3) = (   0.023641   0.571606   0.820187 )

     reciprocal axes: (cart. coord. in units 2 pi/alat)
               b(1) = (  1.000000  0.561325 -0.420023 )
               b(2) = (  0.000000  1.146772 -0.799210 )
               b(3) = (  0.000000  0.000000  1.219234 )

     PseudoPot. # 1 for Fe read from file:
     /home/pragov/projects/rrg-bengioy-ad/pragov/crystal_structure_design/SSSP/Fe.pbe-spn-kjpaw_psl.0.2.1.UPF
     MD5 check sum: e86618425769142926afa95317d90200
     Pseudo is Projector augmented-wave + core cor, Zval = 16.0
     Generated using "atomic" code by A. Dal Corso  v.5.0.99 svn rev. 10869
     Shape of augmentation charge: PSQ
     Using radial grid of 1191 points,  6 beta functions with:
                l(1) =   0
                l(2) =   0
                l(3) =   1
                l(4) =   1
                l(5) =   2
                l(6) =   2
     Q(r) pseudized with 0 coefficients

     PseudoPot. # 2 for Co read from file:
     /home/pragov/projects/rrg-bengioy-ad/pragov/crystal_structure_design/SSSP/Co_pbe_v1.2.uspp.F.UPF
     MD5 check sum: 5f91765df6ddd3222702df6e7b74a16d
     Pseudo is Ultrasoft + core correction, Zval = 17.0
     Generated by new atomic code, or converted to UPF format
     Using radial grid of  863 points,  6 beta functions with:
                l(1) =   0
                l(2) =   0
                l(3) =   1
                l(4) =   1
                l(5) =   2
                l(6) =   2
     Q(r) pseudized with  8 coefficients,  rinner =    1.200   1.200   1.200
                                                       1.200   1.200

     PseudoPot. # 3 for O  read from file:
     /home/pragov/projects/rrg-bengioy-ad/pragov/crystal_structure_design/SSSP/O.pbe-n-kjpaw_psl.0.1.UPF
     MD5 check sum: 0234752ac141de4415c5fc33072bef88
     Pseudo is Projector augmented-wave + core cor, Zval =  6.0
     Generated using "atomic" code by A. Dal Corso  v.5.0.99 svn rev. 10869
     Shape of augmentation charge: BESSEL
     Using radial grid of 1095 points,  4 beta functions with:
                l(1) =   0
                l(2) =   0
                l(3) =   1
                l(4) =   1
     Q(r) pseudized with 0 coefficients

     atomic species   valence    mass     pseudopotential
        Fe            16.00    55.84500     Fe( 1.00)
        Co            17.00    58.93319     Co( 1.00)
        O              6.00    15.99900     O ( 1.00)

      2 Sym. Ops., with inversion, found

                                    s                        frac. trans.

      isym =  1     identity

 cryst.   s( 1) = (     1          0          0      )
                  (     0          1          0      )
                  (     0          0          1      )

 cart.    s( 1) = (  1.0000000 -0.0000000  0.0000000 )
                  (  0.0000000  1.0000000  0.0000000 )
                  (  0.0000000  0.0000000  1.0000000 )

      isym =  2     inversion

 cryst.   s( 2) = (    -1          0          0      )
                  (     0         -1          0      )
                  (     0          0         -1      )

 cart.    s( 2) = ( -1.0000000  0.0000000 -0.0000000 )
                  (  0.0000000 -1.0000000 -0.0000000 )
                  (  0.0000000  0.0000000 -1.0000000 )

   Cartesian axes

     site n.     atom                  positions (alat units)
         1           Fe  tau(   1) = (   0.5000000   0.0000000   0.0000000  )
         2           Fe  tau(   2) = (   0.2670788   0.7218097   0.4100936  )
         3           Co  tau(   3) = (   0.5118203   0.2858032   0.4100936  )
         4           Co  tau(   4) = (   0.0022764   0.2913906   0.1053022  )
         5           Co  tau(   5) = (   0.5318812   1.1522287   0.7148851  )
         6           Co  tau(   6) = (  -0.2329212   0.7218097   0.4100936  )
         7           O   tau(   7) = (   0.5123902   0.5781929   0.2277291  )
         8           O   tau(   8) = (   0.7495065   0.4393733   0.6067401  )
         9           O   tau(   9) = (   0.5284272   0.8398232   0.6026220  )
        10           O   tau(  10) = (   0.2920955   0.4361440   0.6026220  )
        11           O   tau(  11) = (   0.2420621   1.0074753   0.2175653  )
        12           O   tau(  12) = (   0.0057304   0.6037961   0.2175653  )
        13           O   tau(  13) = (  -0.2153489   1.0042460   0.2134472  )
        14           O   tau(  14) = (   0.0217674   0.8654264   0.5924582  )

   Crystallographic axes

     site n.     atom                  positions (cryst. coord.)
         1           Fe  tau(   1) = (  0.5000000  0.0000000  0.0000000  )
         2           Fe  tau(   2) = (  0.5000000  0.5000000  0.5000000  )
         3           Co  tau(   3) = (  0.5000000 -0.0000000  0.5000000  )
         4           Co  tau(   4) = (  0.1216120  0.2500000  0.1283880  )
         5           Co  tau(   5) = (  0.8783880  0.7500000  0.8716120  )
         6           Co  tau(   6) = (  0.0000000  0.5000000  0.5000000  )
         7           O   tau(   7) = (  0.7412930  0.4810520  0.2776550  )
         8           O   tau(   8) = (  0.7412930  0.0189480  0.7397580  )
         9           O   tau(   9) = (  0.7467260  0.4814640  0.7347370  )
        10           O   tau(  10) = (  0.2837990  0.0185360  0.7347370  )
        11           O   tau(  11) = (  0.7162010  0.9814640  0.2652630  )
        12           O   tau(  12) = (  0.2532740  0.5185360  0.2652630  )
        13           O   tau(  13) = (  0.2587070  0.9810520  0.2602420  )
        14           O   tau(  14) = (  0.2587070  0.5189480  0.7223450  )

     number of k points=    14
                       cart. coord. in units 2pi/alat
        k(    1) = (   0.0000000   0.0000000   0.0000000), wk =   0.0740741
        k(    2) = (   0.0000000   0.0000000   0.4064112), wk =   0.1481481
        k(    3) = (   0.0000000   0.3822573  -0.2664035), wk =   0.1481481
        k(    4) = (   0.0000000   0.3822573   0.1400077), wk =   0.1481481
        k(    5) = (   0.0000000   0.3822573  -0.6728147), wk =   0.1481481
        k(    6) = (   0.3333333   0.1871084  -0.1400077), wk =   0.1481481
        k(    7) = (   0.3333333   0.1871084   0.2664035), wk =   0.1481481
        k(    8) = (   0.3333333   0.1871084  -0.5464190), wk =   0.1481481
        k(    9) = (   0.3333333   0.5693658  -0.4064112), wk =   0.1481481
        k(   10) = (   0.3333333   0.5693658   0.0000000), wk =   0.1481481
        k(   11) = (   0.3333333   0.5693658  -0.8128225), wk =   0.1481481
        k(   12) = (   0.3333333  -0.1951489   0.1263958), wk =   0.1481481
        k(   13) = (   0.3333333  -0.1951489   0.5328070), wk =   0.1481481
        k(   14) = (   0.3333333  -0.1951489  -0.2800155), wk =   0.1481481

                       cryst. coord.
        k(    1) = (   0.0000000   0.0000000   0.0000000), wk =   0.0740741
        k(    2) = (   0.0000000   0.0000000   0.3333333), wk =   0.1481481
        k(    3) = (   0.0000000   0.3333333   0.0000000), wk =   0.1481481
        k(    4) = (   0.0000000   0.3333333   0.3333333), wk =   0.1481481
        k(    5) = (   0.0000000   0.3333333  -0.3333333), wk =   0.1481481
        k(    6) = (   0.3333333  -0.0000000   0.0000000), wk =   0.1481481
        k(    7) = (   0.3333333  -0.0000000   0.3333333), wk =   0.1481481
        k(    8) = (   0.3333333  -0.0000000  -0.3333333), wk =   0.1481481
        k(    9) = (   0.3333333   0.3333333   0.0000000), wk =   0.1481481
        k(   10) = (   0.3333333   0.3333333   0.3333333), wk =   0.1481481
        k(   11) = (   0.3333333   0.3333333  -0.3333333), wk =   0.1481481
        k(   12) = (   0.3333333  -0.3333333  -0.0000000), wk =   0.1481481
        k(   13) = (   0.3333333  -0.3333333   0.3333333), wk =   0.1481481
        k(   14) = (   0.3333333  -0.3333333  -0.3333333), wk =   0.1481481

     Check: negative core charge=   -0.000101

     Initial potential from superposition of free atoms

     starting charge     143.9991, renormalised to     148.0000
     Starting wfcs are  110 randomized atomic wfcs
     Checking if some PAW data can be deallocated...

     Self-consistent Calculation

     iteration #  1     ecut=    30.00 Ry     beta= 0.70
     Davidson diagonalization with overlap

     ethr =  1.00E-02,  avg # of iterations =  2.0

     negative rho (up, down):  1.734E-03 0.000E+00

     total energy              =   -2152.77435275 Ry
     estimated scf accuracy    <      40.55703227 Ry

[...]

     negative rho (up, down):  2.382E-06 0.000E+00

[...]

     total energy              =   -2184.25970982 Ry
     estimated scf accuracy    <       0.00000114 Ry

     iteration # 30     ecut=    30.00 Ry     beta= 0.70
     Davidson diagonalization with overlap

     ethr =  7.67E-10,  avg # of iterations =  1.0

     End of self-consistent calculation

          k = 0.0000 0.0000 0.0000 (  2769 PWs)   bands (ev):

   -85.0565 -85.0549 -84.8176 -84.8175 -76.8550 -76.8543 -48.3872 -48.3786
   -48.2990 -48.2732 -48.2163 -48.2094 -48.0805 -48.0797 -48.0736 -48.0734
   -48.0731 -48.0728 -42.5381 -42.4623 -42.3943 -42.3929 -42.3832 -42.3517
    -9.5183  -8.4224  -8.3463  -8.2625  -8.2469  -8.2377  -8.2365  -8.2281
     2.8472   3.6291   3.7174   3.7758   4.0743   4.6185   4.6687   5.2365
     5.3760   5.4055   5.4546   5.5637   5.8122   5.9010   5.9907   6.0840
     6.0977   6.1166   6.9492   7.1457   7.2194   7.3388   7.3941   7.4632
     8.5350   8.6039   9.1054   9.1317   9.3224   9.3558   9.4051   9.4400
     9.5590   9.5903   9.5994   9.6593   9.7471   9.7975   9.8279   9.9042
     9.9274   9.9663  10.0022  10.6531  10.6634  10.6642  11.6213  11.6819
    11.8232  11.9020  12.1808  12.3010  12.3991  12.4841  13.4186  17.9033
    18.1321  18.3588

     occupation numbers
     1.0000   1.0000   1.0000   1.0000   1.0000   1.0000   1.0000   1.0000
     1.0000   1.0000   1.0000   1.0000   1.0000   1.0000   1.0000   1.0000
     1.0000   1.0000   1.0000   1.0000   1.0000   1.0000   1.0000   1.0000
     1.0000   1.0000   1.0000   1.0000   1.0000   1.0000   1.0000   1.0000
     1.0000   1.0000   1.0000   1.0000   1.0000   1.0000   1.0000   1.0000
     1.0000   1.0000   1.0000   1.0000   1.0000   1.0000   1.0000   1.0000
     1.0000   1.0000   1.0000   1.0000   1.0000   1.0000   1.0000   1.0000
     1.0000   1.0000   1.0000   1.0000   1.0000   1.0000   1.0000   1.0000
     1.0000   1.0000   1.0000   1.0000   1.0000   1.0000   1.0000   1.0000
     1.0000   1.0000   0.0000   0.0000   0.0000   0.0000   0.0000   0.0000
     0.0000   0.0000   0.0000   0.0000   0.0000   0.0000   0.0000   0.0000
     0.0000   0.0000

[...]

          k = 0.3333-0.1951-0.2800 (  2818 PWs)   bands (ev):

   -85.0568 -85.0558 -84.8181 -84.8180 -76.8613 -76.8575 -48.3860 -48.3846
   -48.3022 -48.2786 -48.2168 -48.2163 -48.0880 -48.0809 -48.0792 -48.0764
   -48.0744 -48.0738 -42.5455 -42.4919 -42.4198 -42.4016 -42.3889 -42.3825
    -9.2014  -8.6244  -8.3883  -8.3618  -8.3578  -8.3038  -8.2291  -8.1333
     3.4556   4.0836   4.1535   4.2344   4.3729   4.5445   4.7821   4.9182
     5.1388   5.3036   5.4604   5.5663   5.6054   5.7998   5.9730   5.9879
     5.9964   6.0634   6.2181   6.3597   6.6056   6.7756   7.3003   7.4459
     8.8089   9.0115   9.1211   9.2104   9.2586   9.3371   9.3540   9.4350
     9.5190   9.5443   9.5953   9.6809   9.7444   9.8788   9.8973   9.9474
    10.0639  10.1206  10.2393  10.4671  10.5810  10.6567  11.1847  11.4927
    11.5817  11.6133  11.8743  12.0796  12.1701  12.1934  15.3218  17.4257
    18.4137  18.4332

     occupation numbers
     1.0000   1.0000   1.0000   1.0000   1.0000   1.0000   1.0000   1.0000
     1.0000   1.0000   1.0000   1.0000   1.0000   1.0000   1.0000   1.0000
     1.0000   1.0000   1.0000   1.0000   1.0000   1.0000   1.0000   1.0000
     1.0000   1.0000   1.0000   1.0000   1.0000   1.0000   1.0000   1.0000
     1.0000   1.0000   1.0000   1.0000   1.0000   1.0000   1.0000   1.0000
     1.0000   1.0000   1.0000   1.0000   1.0000   1.0000   1.0000   1.0000
     1.0000   1.0000   1.0000   1.0000   1.0000   1.0000   1.0000   1.0000
     1.0000   1.0000   1.0000   1.0000   1.0000   1.0000   1.0000   1.0000
     1.0000   1.0000   1.0000   1.0000   1.0000   1.0000   1.0000   1.0000
     1.0000   1.0000   0.0000   0.0000   0.0000   0.0000   0.0000   0.0000
     0.0000   0.0000   0.0000   0.0000   0.0000   0.0000   0.0000   0.0000
     0.0000   0.0000

     highest occupied, lowest unoccupied level (ev):    10.3394   10.0022

!    total energy              =   -2184.25970913 Ry
     estimated scf accuracy    <       0.00000091 Ry

     The total energy is the sum of the following terms:
     one-electron contribution =   -1207.08356365 Ry
     hartree contribution      =     677.44937155 Ry
     xc contribution           =    -258.01459111 Ry
     ewald contribution        =   -1168.23306897 Ry
     one-center paw contrib.   =    -228.37785696 Ry
      -> PAW hartree energy AE =     416.82192884 Ry
      -> PAW hartree energy PS =    -415.24801129 Ry
      -> PAW xc energy AE      =    -222.10370527 Ry
      -> PAW xc energy PS      =      68.38386796 Ry
      -> total E_H with PAW    =     679.02328910 Ry
      -> total E_XC with PAW   =    -411.73442842 Ry

     convergence has been achieved in  30 iterations

     Writing all to output data dir calculations_bands/myprefix.save/

     General routines

     Parallel routines

     PAW routines

   This run was terminated on:   5: 6:35  23Jun2023

   JOB DONE.