     Program PWSCF v.7.1 starts on 17Jul2023 at  1:36:31

     Reading input from espresso_15075.pwi
Warning: card &CELL ignored
Warning: card / ignored

     Current dimensions of program PWSCF are:
     Max number of different atomic species (ntypx) = 10
     Max number of k-points (npk) =  40000
     Max angular momentum in pseudopotentials (lmaxx) =  4
     file In.pbe-dn-rrkjus_psl.0.2.2.UPF: wavefunction(s)  5S renormalized
     file O.pbe-n-kjpaw_psl.0.1.UPF: wavefunction(s)  2P renormalized
     Message from routine setup:
     using ibrav=0 with symmetry is DISCOURAGED, use correct ibrav instead

     K-points division:     npool     =       2
     R & G space division:  proc/nbgrp/npool/nimage =       4
     Subspace diagonalization in iterative solution of the eigenvalue problem:
     one sub-group per band group will be used

     Using Slab Decomposition

     bravais-lattice index     =            0
     lattice parameter (alat)  =      12.0999  a.u.
     unit-cell volume          =    1252.6363 (a.u.)^3
     number of atoms/cell      =           14
     number of atomic types    =            3
     number of electrons       =       140.00
     number of Kohn-Sham states=          256
     kinetic-energy cutoff     =      30.0000  Ry
     charge density cutoff     =     240.0000  Ry
     scf convergence threshold =      1.0E-06
     mixing beta               =       0.7000
     number of iterations used =            8  plain     mixing
     Exchange-correlation= SLA  PW   PBX  PBC
                           (   1   4   3   4   0   0   0)

     celldm(1)=  12.099850  celldm(2)=   0.000000  celldm(3)=   0.000000
     celldm(4)=   0.000000  celldm(5)=   0.000000  celldm(6)=   0.000000

     crystal axes: (cart. coord. in units of alat)
               a(1) = (   1.000000   0.000000   0.000000 )
               a(2) = (   0.500000   0.866025   0.000000 )
               a(3) = (   0.500000   0.288675   0.816497 )

     reciprocal axes: (cart. coord. in units 2 pi/alat)
               b(1) = (  1.000000 -0.577350 -0.408248 )
               b(2) = (  0.000000  1.154701 -0.408248 )
               b(3) = (  0.000000  0.000000  1.224745 )

     PseudoPot. # 1 for Zn read from file:
     /lustre07/scratch/pragov/crystal_structure_design/utils/SSSP/Zn_pbe_v1.uspp.F.UPF
     MD5 check sum: df62231357ef9e81f77b2b3087fa5675
     Pseudo is Ultrasoft, Zval = 20.0
     Generated by new atomic code, or converted to UPF format
     Using radial grid of  943 points,  6 beta functions with:
                l(1) =   0
                l(2) =   0
                l(3) =   1
                l(4) =   1
                l(5) =   2
                l(6) =   2
     Q(r) pseudized with  8 coefficients,  rinner =    1.100   1.100   1.100
                                                       1.100   1.100

     PseudoPot. # 2 for In read from file:
     /lustre07/scratch/pragov/crystal_structure_design/utils/SSSP/In.pbe-dn-rrkjus_psl.0.2.2.UPF
     MD5 check sum: 25e7c42c3b55b68f4bf926be2e7201a4
     Pseudo is Ultrasoft + core correction, Zval = 13.0
     Generated using "atomic" code by A. Dal Corso  v.5.0.99 svn rev. 10869
     Using radial grid of 1241 points,  6 beta functions with:
                l(1) =   0
                l(2) =   0
                l(3) =   1
                l(4) =   1
                l(5) =   2
                l(6) =   2
     Q(r) pseudized with 0 coefficients

     PseudoPot. # 3 for O  read from file:
     /lustre07/scratch/pragov/crystal_structure_design/utils/SSSP/O.pbe-n-kjpaw_psl.0.1.UPF
     MD5 check sum: 0234752ac141de4415c5fc33072bef88
     Pseudo is Projector augmented-wave + core cor, Zval =  6.0
     Generated using "atomic" code by A. Dal Corso  v.5.0.99 svn rev. 10869
     Shape of augmentation charge: BESSEL
     Using radial grid of 1095 points,  4 beta functions with:
                l(1) =   0
                l(2) =   0
                l(3) =   1
                l(4) =   1
     Q(r) pseudized with 0 coefficients

     atomic species   valence    mass     pseudopotential
        Zn            20.00    65.38000     Zn( 1.00)
        In            13.00   114.81800     In( 1.00)
        O              6.00    15.99900     O ( 1.00)

     12 Sym. Ops., with inversion, found ( 6 have fractional translation)

                                    s                        frac. trans.

      isym =  1     identity

 cryst.   s( 1) = (     1          0          0      )
                  (     0          1          0      )
                  (     0          0          1      )

 cart.    s( 1) = (  1.0000000  0.0000000  0.0000000 )
                  (  0.0000000  1.0000000  0.0000000 )
                  (  0.0000000  0.0000000  1.0000000 )

      isym =  2     180 deg rotation - cart. axis [1,0,0]

 cryst.   s( 2) = (     1          0          0      )    f =( -0.2500000 )
                  (     1         -1          0      )       ( -0.2500000 )
                  (     1          0         -1      )       ( -0.2500000 )

 cart.    s( 2) = (  1.0000000  0.0000000  0.0000000 )    f =( -0.5000000 )
                  (  0.0000000 -1.0000000 -0.0000000 )       ( -0.2886751 )
                  (  0.0000000  0.0000000 -1.0000000 )       ( -0.2041241 )

      isym =  3     120 deg rotation - cryst. axis [0,0,1]

[...]

      isym =  6     180 deg rotation - cryst. axis [1,1,0]

[...]

      isym =  7     inversion

[...]

      isym =  8     inv. 180 deg rotation - cart. axis [1,0,0]

 cryst.   s( 8) = (    -1          0          0      )
                  (    -1          1          0      )
                  (    -1          0          1      )

 cart.    s( 8) = ( -1.0000000  0.0000000 -0.0000000 )
                  (  0.0000000  1.0000000  0.0000000 )
                  (  0.0000000  0.0000000  1.0000000 )

      isym =  9     inv. 120 deg rotation - cryst. axis [0,0,1]

 cryst.   s( 9) = (     1         -1          0      )    f =( -0.2500000 )
                  (     1          0          0      )       ( -0.2500000 )
                  (     1          0         -1      )       ( -0.2500000 )

 cart.    s( 9) = (  0.5000000  0.8660254  0.0000000 )    f =( -0.5000000 )
                  ( -0.8660254  0.5000000 -0.0000000 )       ( -0.2886751 )
                  (  0.0000000  0.0000000 -1.0000000 )       ( -0.2041241 )

[...]

 cryst.   s(10) = (     0          1          0      )    f =( -0.2500000 )
                  (    -1          1          0      )       ( -0.2500000 )
                  (     0          1         -1      )       ( -0.2500000 )

 cart.    s(10) = (  0.5000000 -0.8660254  0.0000000 )    f =( -0.5000000 )
                  (  0.8660254  0.5000000  0.0000000 )       ( -0.2886751 )
                  (  0.0000000  0.0000000 -1.0000000 )       ( -0.2041241 )

[...]

 cryst.   s(11) = (     0          1          0      )
                  (     1          0          0      )
                  (     0          0          1      )

 cart.    s(11) = (  0.5000000  0.8660254  0.0000000 )
                  (  0.8660254 -0.5000000  0.0000000 )
                  (  0.0000000  0.0000000  1.0000000 )

      isym = 12     inv. 180 deg rotation - cryst. axis [1,1,0]

 cryst.   s(12) = (     1         -1          0      )
                  (     0         -1          0      )
                  (     0         -1          1      )

 cart.    s(12) = (  0.5000000 -0.8660254  0.0000000 )
                  ( -0.8660254 -0.5000000 -0.0000000 )
                  (  0.0000000  0.0000000  1.0000000 )

   Cartesian axes

     site n.     atom                  positions (alat units)
         1           Zn  tau(   1) = (   1.5000000   0.8660254   0.6123724  )
         2           Zn  tau(   2) = (   1.0000000   0.5773503   0.4082483  )
         3           In  tau(   3) = (   0.5000000   0.2886751   0.5103104  )
         4           In  tau(   4) = (   0.5000000   0.5773503   0.1020621  )
         5           In  tau(   5) = (   0.7500000   0.1443376   0.1020621  )
         6           In  tau(   6) = (   0.2500000   0.1443376   0.1020621  )
         7           O   tau(   7) = (   1.7622100   1.0174124   0.7194192  )
         8           O   tau(   8) = (   1.2377900   1.0174124   0.7194192  )
         9           O   tau(   9) = (   1.5000000   0.5632514   0.7194192  )
        10           O   tau(  10) = (   1.5000000   0.8660254   0.2912321  )
        11           O   tau(  11) = (   1.0000000   0.5773503   0.7293886  )
        12           O   tau(  12) = (   1.0000000   0.8801243   0.3012015  )
        13           O   tau(  13) = (   0.7377900   0.4259633   0.3012015  )
        14           O   tau(  14) = (   1.2622100   0.4259633   0.3012015  )

   Crystallographic axes

     site n.     atom                  positions (cryst. coord.)
         1           Zn  tau(   1) = (  0.7500000  0.7500000  0.7500000  )
         2           Zn  tau(   2) = (  0.5000000  0.5000000  0.5000000  )
         3           In  tau(   3) = (  0.1250000  0.1250000  0.6250000  )
         4           In  tau(   4) = (  0.1250000  0.6250000  0.1250000  )
         5           In  tau(   5) = (  0.6250000  0.1250000  0.1250000  )
         6           In  tau(   6) = (  0.1250000  0.1250000  0.1250000  )
         7           O   tau(   7) = (  0.8811050  0.8811050  0.8811050  )
         8           O   tau(   8) = (  0.3566850  0.8811050  0.8811050  )
         9           O   tau(   9) = (  0.8811050  0.3566850  0.8811050  )
        10           O   tau(  10) = (  0.8811050  0.8811050  0.3566850  )
        11           O   tau(  11) = (  0.3688950  0.3688950  0.8933150  )
        12           O   tau(  12) = (  0.3688950  0.8933150  0.3688950  )
        13           O   tau(  13) = (  0.3688950  0.3688950  0.3688950  )
        14           O   tau(  14) = (  0.8933150  0.3688950  0.3688950  )

     number of k points=     6
                       cart. coord. in units 2pi/alat
        k(    1) = (   0.0000000   0.0000000   0.0000000), wk =   0.0740741
        k(    2) = (   0.0000000   0.0000000   0.4082483), wk =   0.1481481
        k(    3) = (   0.0000000   0.3849002  -0.1360828), wk =   0.4444444
        k(    4) = (   0.0000000   0.3849002   0.2721655), wk =   0.4444444
        k(    5) = (   0.0000000   0.3849002  -0.5443311), wk =   0.4444444
        k(    6) = (   0.3333333  -0.5773503   0.0000000), wk =   0.4444444

                       cryst. coord.
        k(    1) = (   0.0000000   0.0000000   0.0000000), wk =   0.0740741
        k(    2) = (   0.0000000   0.0000000   0.3333333), wk =   0.1481481
        k(    3) = (   0.0000000   0.3333333   0.0000000), wk =   0.4444444
        k(    4) = (   0.0000000   0.3333333   0.3333333), wk =   0.4444444
        k(    5) = (   0.0000000   0.3333333  -0.3333333), wk =   0.4444444
        k(    6) = (   0.3333333  -0.3333333  -0.0000000), wk =   0.4444444

     Check: negative core charge=   -0.000009

     Initial potential from superposition of free atoms

     starting charge     139.9848, renormalised to     140.0000
     Starting wfcs are   94 randomized atomic wfcs +  162 random wfcs
     Checking if some PAW data can be deallocated...

     Self-consistent Calculation

     iteration #  1     ecut=    30.00 Ry     beta= 0.70
     Davidson diagonalization with overlap

     ethr =  1.00E-02,  avg # of iterations =  7.0

     total energy              =   -1834.08211803 Ry
     estimated scf accuracy    <       3.00462049 Ry

[...]

     total energy              =   -1835.53394678 Ry
     estimated scf accuracy    <       0.00000176 Ry

     iteration #  9     ecut=    30.00 Ry     beta= 0.70
     Davidson diagonalization with overlap

     ethr =  1.26E-09,  avg # of iterations =  1.2

     End of self-consistent calculation

          k = 0.0000 0.0000 0.0000 (  3479 PWs)   bands (ev):

  -115.4244-115.4237 -69.5557 -69.5557 -69.5557 -69.5528 -69.5528 -69.5528
    -9.7485  -9.1438  -9.1438  -9.1438  -8.8361  -8.6847  -8.6847  -8.6846
    -4.8657  -4.7274  -4.7274  -4.5072  -4.5072  -4.5072  -4.4294  -4.4294
    -4.4294  -4.3060  -4.3060  -4.2693  -4.2693  -4.2693  -4.0757  -4.0757
    -4.0757  -3.5202  -3.5202  -3.5202   2.4792   2.7928   3.0368   3.0368
     3.0368   3.0881   3.0881   3.2952   3.2952   3.2952   3.4077   3.4077
     3.4077   3.6128   3.6128   4.6660   4.6660   5.7586   5.7586   5.7586
     6.1221   6.1221   6.1221   7.3473   7.3473   7.3473   7.4368   7.4368
     7.4368   7.6463   7.6463   7.6463   7.7574   7.7574   8.8465  12.3150
    13.1094  13.1094  13.1094  14.1322  14.1322  14.1322  15.5183  17.0502
    17.0502  17.0502  17.5823  18.4781  18.4781  18.9347  19.7843  19.7843
    20.2712  20.2712  20.2712  21.0354  21.0354  21.0354  22.2900  22.2900
    22.2900  22.6766  22.6766  24.9211  24.9211  24.9211  25.1230  25.6028
    25.6028  25.6028  26.6152  26.6828  26.6828  26.6828  28.9627  28.9627
    28.9627  29.6147  29.6147  29.6147  31.1716  31.1716  31.8807  31.8807
    31.8807  32.1175  32.1175  32.1175  32.3666  32.3666  32.6019  32.6019
    32.6019  32.6332  33.1297  33.1297  33.8451  33.8451  33.8451  34.5599
    34.5599  34.5599  35.1093  37.3474  37.3474  37.3474  37.6130  37.6504
    37.6504  37.6504  37.7417  37.7417  38.7714  38.7714  38.7714  39.7861
    39.7861  39.7861  42.4579  42.4579  42.6638  42.6638  42.6638  42.6726
    42.6726  42.6726  42.9715  42.9715  42.9715  43.0844  43.0844  43.0844
    43.5409  43.8614  44.2349  44.2349  44.2349  44.4362  44.4362  44.4362
    45.1754  45.1754  45.9191  45.9191  45.9191  46.2695  46.2695  46.2695
    46.8848  46.8848  46.9158  46.9158  46.9158  47.0160  47.0160  47.0160
    47.0246  47.1713  47.6101  47.6101  47.6101  47.6472  47.6472  47.6472
    48.0365  48.0365  48.0661  48.0661  48.0661  49.9662  49.9662  49.9662
    50.1494  50.3834  50.3834  50.3834  50.9491  52.9657  52.9657  52.9657
    53.0832  53.0832  54.1045  54.1045  54.1045  54.1677  54.1677  54.1677
    54.5798  54.7450  54.7450  54.7450  57.3993  57.3993  57.3993  57.7881
    58.0602  58.0602  58.3613  58.3613  58.3613  59.0772  59.0772  59.0772
    59.1653  59.1653  59.1653  59.2058  59.2058  59.3851  59.3851  59.3851
    59.7468  59.7468  60.0880  60.5425  60.5425  60.5425  60.6558  61.5183

     occupation numbers
     1.0000   1.0000   1.0000   1.0000   1.0000   1.0000   1.0000   1.0000
     1.0000   1.0000   1.0000   1.0000   1.0000   1.0000   1.0000   1.0000
     1.0000   1.0000   1.0000   1.0000   1.0000   1.0000   1.0000   1.0000
     1.0000   1.0000   1.0000   1.0000   1.0000   1.0000   1.0000   1.0000
     1.0000   1.0000   1.0000   1.0000   1.0000   1.0000   1.0000   1.0000
     1.0000   1.0000   1.0000   1.0000   1.0000   1.0000   1.0000   1.0000
     1.0000   1.0000   1.0000   1.0000   1.0000   1.0000   1.0000   1.0000
     1.0000   1.0000   1.0000   1.0000   1.0000   1.0000   1.0000   1.0000
     1.0000   1.0000   1.0000   1.0000   1.0000   1.0000   0.0000   0.0000
     0.0000   0.0000   0.0000   0.0000   0.0000   0.0000   0.0000   0.0000
     0.0000   0.0000   0.0000   0.0000   0.0000   0.0000   0.0000   0.0000
     0.0000   0.0000   0.0000   0.0000   0.0000   0.0000   0.0000   0.0000
     0.0000   0.0000   0.0000   0.0000   0.0000   0.0000   0.0000   0.0000
     0.0000   0.0000   0.0000   0.0000   0.0000   0.0000   0.0000   0.0000
     0.0000   0.0000   0.0000   0.0000   0.0000   0.0000   0.0000   0.0000
     0.0000   0.0000   0.0000   0.0000   0.0000   0.0000   0.0000   0.0000
     0.0000   0.0000   0.0000   0.0000   0.0000   0.0000   0.0000   0.0000
     0.0000   0.0000   0.0000   0.0000   0.0000   0.0000   0.0000   0.0000
     0.0000   0.0000   0.0000   0.0000   0.0000   0.0000   0.0000   0.0000
     0.0000   0.0000   0.0000   0.0000   0.0000   0.0000   0.0000   0.0000
     0.0000   0.0000   0.0000   0.0000   0.0000   0.0000   0.0000   0.0000
     0.0000   0.0000   0.0000   0.0000   0.0000   0.0000   0.0000   0.0000
     0.0000   0.0000   0.0000   0.0000   0.0000   0.0000   0.0000   0.0000
     0.0000   0.0000   0.0000   0.0000   0.0000   0.0000   0.0000   0.0000
     0.0000   0.0000   0.0000   0.0000   0.0000   0.0000   0.0000   0.0000
     0.0000   0.0000   0.0000   0.0000   0.0000   0.0000   0.0000   0.0000
     0.0000   0.0000   0.0000   0.0000   0.0000   0.0000   0.0000   0.0000
     0.0000   0.0000   0.0000   0.0000   0.0000   0.0000   0.0000   0.0000
     0.0000   0.0000   0.0000   0.0000   0.0000   0.0000   0.0000   0.0000
     0.0000   0.0000   0.0000   0.0000   0.0000   0.0000   0.0000   0.0000
     0.0000   0.0000   0.0000   0.0000   0.0000   0.0000   0.0000   0.0000
     0.0000   0.0000   0.0000   0.0000   0.0000   0.0000   0.0000   0.0000

[...]

          k = 0.3333-0.5774 0.0000 (  3480 PWs)   bands (ev):

  -115.4241-115.4239 -69.5586 -69.5571 -69.5543 -69.5536 -69.5513 -69.5494
    -9.3510  -9.1705  -9.0998  -9.0655  -8.9590  -8.9026  -8.8520  -8.8080
    -4.6535  -4.5821  -4.5610  -4.5221  -4.4984  -4.4651  -4.3820  -4.3582
    -4.3182  -4.3107  -4.2817  -4.2817  -4.2594  -4.2441  -4.1899  -4.1487
    -4.0010  -3.8981  -3.8257  -3.6782   2.4989   2.5337   2.8944   3.1285
     3.1665   3.3287   3.3556   3.3973   3.4206   3.5198   3.6077   4.0580
     4.0746   4.3651   4.6350   4.7942   4.8173   5.0391   5.0998   5.3426
     5.6605   5.8196   5.9612   6.5873   6.6580   6.6993   6.7413   6.7831
     6.8917   7.0931   7.1834   7.1863   7.4693   7.7435  12.1164  12.6553
    12.9949  14.0649  14.1615  14.7817  16.0089  16.1138  16.1765  16.7698
    16.8182  17.2712  17.6262  18.1411  18.2337  18.5184  18.5830  18.7853
    18.8729  18.8916  19.9675  20.6618  20.6846  21.0894  21.3387  21.6076
    21.7184  22.0182  22.9066  23.9192  24.2612  24.5749  24.8372  25.2734
    25.3969  26.3145  26.6909  26.9094  26.9192  27.7656  28.7380  28.7667
    29.1370  29.4756  30.0076  30.2045  30.7230  30.7450  31.3215  31.9085
    32.0928  32.6489  33.0196  33.3150  33.3729  33.3730  33.6672  34.2622
    34.5266  34.5273  34.5962  34.8327  35.0519  35.2703  35.4759  35.5217
    35.5523  35.7092  35.7207  35.8577  36.1637  36.7427  36.8309  36.9468
    37.0173  37.1609  37.3016  37.4244  37.6263  37.6293  37.8484  38.4273
    38.7169  39.1764  39.4620  39.4699  39.8243  40.0556  40.2642  41.0378
    41.3216  41.6799  42.3755  42.4438  42.5685  42.6150  42.6243  43.1066
    43.1125  43.4018  43.7275  44.1586  44.2439  44.3167  44.5083  44.9842
    45.1843  45.2125  45.8179  46.0497  46.1565  46.2882  46.7571  46.8576
    46.9318  46.9752  47.0148  47.0249  47.0261  47.0684  47.7205  47.8734
    48.0851  48.3955  48.4179  48.4343  48.7039  48.7048  49.0867  49.1669
    49.5546  49.5578  49.8781  50.3258  50.3325  50.5357  51.0410  51.0416
    51.0737  51.3672  51.4497  51.7593  52.1890  52.2820  52.3168  52.7085
    52.7446  53.2714  53.3052  53.7791  54.2192  54.2820  54.5611  54.5872
    54.9193  55.3127  55.6371  55.7587  56.1022  56.1667  56.2903  56.5324
    57.1789  57.3137  57.3282  57.4939  57.7990  57.8091  57.8991  58.2026
    58.2525  58.5246  58.8363  59.1171  59.2476  59.2601  59.3428  59.5757
    59.7619  59.8543  60.0278  60.3782  60.4662  60.4710  60.6784  61.0170

     occupation numbers
     1.0000   1.0000   1.0000   1.0000   1.0000   1.0000   1.0000   1.0000
     1.0000   1.0000   1.0000   1.0000   1.0000   1.0000   1.0000   1.0000
     1.0000   1.0000   1.0000   1.0000   1.0000   1.0000   1.0000   1.0000
     1.0000   1.0000   1.0000   1.0000   1.0000   1.0000   1.0000   1.0000
     1.0000   1.0000   1.0000   1.0000   1.0000   1.0000   1.0000   1.0000
     1.0000   1.0000   1.0000   1.0000   1.0000   1.0000   1.0000   1.0000
     1.0000   1.0000   1.0000   1.0000   1.0000   1.0000   1.0000   1.0000
     1.0000   1.0000   1.0000   1.0000   1.0000   1.0000   1.0000   1.0000
     1.0000   1.0000   1.0000   1.0000   1.0000   1.0000   0.0000   0.0000
     0.0000   0.0000   0.0000   0.0000   0.0000   0.0000   0.0000   0.0000
     0.0000   0.0000   0.0000   0.0000   0.0000   0.0000   0.0000   0.0000
     0.0000   0.0000   0.0000   0.0000   0.0000   0.0000   0.0000   0.0000
     0.0000   0.0000   0.0000   0.0000   0.0000   0.0000   0.0000   0.0000
     0.0000   0.0000   0.0000   0.0000   0.0000   0.0000   0.0000   0.0000
     0.0000   0.0000   0.0000   0.0000   0.0000   0.0000   0.0000   0.0000
     0.0000   0.0000   0.0000   0.0000   0.0000   0.0000   0.0000   0.0000
     0.0000   0.0000   0.0000   0.0000   0.0000   0.0000   0.0000   0.0000
     0.0000   0.0000   0.0000   0.0000   0.0000   0.0000   0.0000   0.0000
     0.0000   0.0000   0.0000   0.0000   0.0000   0.0000   0.0000   0.0000
     0.0000   0.0000   0.0000   0.0000   0.0000   0.0000   0.0000   0.0000
     0.0000   0.0000   0.0000   0.0000   0.0000   0.0000   0.0000   0.0000
     0.0000   0.0000   0.0000   0.0000   0.0000   0.0000   0.0000   0.0000
     0.0000   0.0000   0.0000   0.0000   0.0000   0.0000   0.0000   0.0000
     0.0000   0.0000   0.0000   0.0000   0.0000   0.0000   0.0000   0.0000
     0.0000   0.0000   0.0000   0.0000   0.0000   0.0000   0.0000   0.0000
     0.0000   0.0000   0.0000   0.0000   0.0000   0.0000   0.0000   0.0000
     0.0000   0.0000   0.0000   0.0000   0.0000   0.0000   0.0000   0.0000
     0.0000   0.0000   0.0000   0.0000   0.0000   0.0000   0.0000   0.0000
     0.0000   0.0000   0.0000   0.0000   0.0000   0.0000   0.0000   0.0000
     0.0000   0.0000   0.0000   0.0000   0.0000   0.0000   0.0000   0.0000
     0.0000   0.0000   0.0000   0.0000   0.0000   0.0000   0.0000   0.0000
     0.0000   0.0000   0.0000   0.0000   0.0000   0.0000   0.0000   0.0000

     highest occupied, lowest unoccupied level (ev):     7.7751    8.8465

!    total energy              =   -1835.53394702 Ry
     estimated scf accuracy    <       0.00000001 Ry

     The total energy is the sum of the following terms:
     one-electron contribution =   -1069.42217783 Ry
     hartree contribution      =     632.43799482 Ry
     xc contribution           =    -335.08410026 Ry
     ewald contribution        =    -987.25264902 Ry
     one-center paw contrib.   =     -76.21301473 Ry
      -> PAW hartree energy AE =       0.00000000 Ry
      -> PAW hartree energy PS =       0.00000000 Ry
      -> PAW xc energy AE      =       0.00000000 Ry
      -> PAW xc energy PS      =       0.00000000 Ry
      -> total E_H with PAW    =     632.43799482 Ry
      -> total E_XC with PAW   =    -335.08410026 Ry

     convergence has been achieved in   9 iterations

     Writing all to output data dir bands_nm/myprefix.save/

     General routines

     Parallel routines

     PAW routines

   This run was terminated on:   1:37: 6  17Jul2023

   JOB DONE.