     Program PWSCF v.7.0 starts on 23Jun2023 at  5: 5:15

     K-points division:     npool     =       2
     R & G space division:  proc/nbgrp/npool/nimage =       4

     Reading input from espresso_2232.pwi
Warning: card &CELL ignored
Warning: card / ignored

     Current dimensions of program PWSCF are:
     Max number of different atomic species (ntypx) = 10
     Max number of k-points (npk) =  40000
     Max angular momentum in pseudopotentials (lmaxx) =  4
     file C.pbe-n-kjpaw_psl.1.0.0.UPF: wavefunction(s)  2S 2P renormalized
     file O.pbe-n-kjpaw_psl.0.1.UPF: wavefunction(s)  2P renormalized
     Message from routine setup:
     using ibrav=0 with symmetry is DISCOURAGED, use correct ibrav instead

     Using Slab Decomposition

     bravais-lattice index     =            0
     lattice parameter (alat)  =       9.8032  a.u.
     unit-cell volume          =    1622.0824 (a.u.)^3
     number of atoms/cell      =           20
     number of atomic types    =            4
     number of electrons       =       132.00
     number of Kohn-Sham states=           90
     kinetic-energy cutoff     =      30.0000  Ry
     charge density cutoff     =     240.0000  Ry
     scf convergence threshold =      1.0E-06
     mixing beta               =       0.7000
     number of iterations used =            8  plain     mixing
     Exchange-correlation= SLA  PW   PBX  PBC
                           (   1   4   3   4   0   0   0)

     celldm(1)=   9.803213  celldm(2)=   0.000000  celldm(3)=   0.000000
     celldm(4)=   0.000000  celldm(5)=   0.000000  celldm(6)=   0.000000

     crystal axes: (cart. coord. in units of alat)
               a(1) = (   1.000000   0.000000   0.000000 )
               a(2) = (   0.000000   1.240269   0.000000 )
               a(3) = (   0.000000   0.000000   1.388199 )

     reciprocal axes: (cart. coord. in units 2 pi/alat)
               b(1) = (  1.000000  0.000000  0.000000 )
               b(2) = (  0.000000  0.806277  0.000000 )
               b(3) = (  0.000000  0.000000  0.720358 )

     PseudoPot. # 1 for Na read from file:
     /home/pragov/projects/rrg-bengioy-ad/pragov/crystal_structure_design/SSSP/na_pbe_v1.5.uspp.F.UPF
     MD5 check sum: 44600605ef58000f06b90626533354dc
     Pseudo is Ultrasoft, Zval =  9.0
     Generated by new atomic code, or converted to UPF format
     Using radial grid of  819 points,  5 beta functions with:
                l(1) =   0
                l(2) =   0
                l(3) =   1
                l(4) =   1
                l(5) =   2
     Q(r) pseudized with  8 coefficients,  rinner =    1.250   1.250   1.250
                                                       1.250   1.250

     PseudoPot. # 2 for Pr read from file:
     /home/pragov/projects/rrg-bengioy-ad/pragov/crystal_structure_design/SSSP/Pr.GGA-PBE-paw-v1.0.UPF
     MD5 check sum: b5e1e58e76df433569641143f671cc27
     Pseudo is Projector augmented-wave + core cor, Zval = 13.0
     Generated using ATOMPAW code
     Shape of augmentation charge: BESSEL
     Using radial grid of 1103 points,  8 beta functions with:
                l(1) =   0
                l(2) =   0
                l(3) =   1
                l(4) =   1
                l(5) =   2
                l(6) =   2
                l(7) =   3
                l(8) =   3
     Q(r) pseudized with 0 coefficients

     PseudoPot. # 3 for C  read from file:
     /home/pragov/projects/rrg-bengioy-ad/pragov/crystal_structure_design/SSSP/C.pbe-n-kjpaw_psl.1.0.0.UPF
     MD5 check sum: 5d2aebdfa2cae82b50a7e79e9516da0f
     Pseudo is Projector augmented-wave + core cor, Zval =  4.0
     Generated using "atomic" code by A. Dal Corso  v.5.1
     Shape of augmentation charge: PSQ
     Using radial grid of 1073 points,  4 beta functions with:
                l(1) =   0
                l(2) =   0
                l(3) =   1
                l(4) =   1
     Q(r) pseudized with 0 coefficients

     PseudoPot. # 4 for O  read from file:
     /home/pragov/projects/rrg-bengioy-ad/pragov/crystal_structure_design/SSSP/O.pbe-n-kjpaw_psl.0.1.UPF
     MD5 check sum: 0234752ac141de4415c5fc33072bef88
     Pseudo is Projector augmented-wave + core cor, Zval =  6.0
     Generated using "atomic" code by A. Dal Corso  v.5.0.99 svn rev. 10869
     Shape of augmentation charge: BESSEL
     Using radial grid of 1095 points,  4 beta functions with:
                l(1) =   0
                l(2) =   0
                l(3) =   1
                l(4) =   1
     Q(r) pseudized with 0 coefficients

     atomic species   valence    mass     pseudopotential
        Na             9.00    22.98977     Na( 1.00)
        Pr            13.00   140.90766     Pr( 1.00)
        C              4.00    12.01100     C ( 1.00)
        O              6.00    15.99900     O ( 1.00)

      4 Sym. Ops. (no inversion) found ( 2 have fractional translation)

                                    s                        frac. trans.

      isym =  1     identity

 cryst.   s( 1) = (     1          0          0      )
                  (     0          1          0      )
                  (     0          0          1      )

 cart.    s( 1) = (  1.0000000  0.0000000  0.0000000 )
                  (  0.0000000  1.0000000  0.0000000 )
                  (  0.0000000  0.0000000  1.0000000 )

      isym =  2     180 deg rotation - cart. axis [0,0,1]

 cryst.   s( 2) = (    -1          0          0      )    f =(  0.0000000 )
                  (     0         -1          0      )       (  0.0000000 )
                  (     0          0          1      )       (  0.5000000 )

 cart.    s( 2) = ( -1.0000000  0.0000000  0.0000000 )    f =(  0.0000000 )
                  (  0.0000000 -1.0000000  0.0000000 )       (  0.0000000 )
                  (  0.0000000  0.0000000  1.0000000 )       (  0.6940994 )

      isym =  3     inv. 180 deg rotation - cart. axis [0,1,0]

 cryst.   s( 3) = (     1          0          0      )    f =(  0.0000000 )
                  (     0         -1          0      )       (  0.0000000 )
                  (     0          0          1      )       (  0.5000000 )

 cart.    s( 3) = (  1.0000000  0.0000000  0.0000000 )    f =(  0.0000000 )
                  (  0.0000000 -1.0000000  0.0000000 )       (  0.0000000 )
                  (  0.0000000  0.0000000  1.0000000 )       (  0.6940994 )

      isym =  4     inv. 180 deg rotation - cart. axis [1,0,0]

 cryst.   s( 4) = (    -1          0          0      )
                  (     0          1          0      )
                  (     0          0          1      )

 cart.    s( 4) = ( -1.0000000  0.0000000  0.0000000 )
                  (  0.0000000  1.0000000  0.0000000 )
                  (  0.0000000  0.0000000  1.0000000 )

   Cartesian axes

     site n.     atom                  positions (alat units)
         1           Na  tau(   1) = (   0.0000000   0.5980739   0.0384934  )
         2           Na  tau(   2) = (   0.0000000   0.6421952   0.7325927  )
         3           Pr  tau(   3) = (   0.5000000   0.1601547   0.4550224  )
         4           Pr  tau(   4) = (   0.5000000   1.0801144   1.1491217  )
         5           C   tau(   5) = (   0.5000000   0.7204525   0.3373920  )
         6           C   tau(   6) = (   0.5000000   0.5198166   1.0314913  )
         7           C   tau(   7) = (   0.0000000   0.0458242   1.3861428  )
         8           C   tau(   8) = (   0.0000000   1.1944449   0.6920434  )
         9           O   tau(   9) = (   0.0000000   0.1754857   0.5764648  )
        10           O   tau(  10) = (   0.0000000   1.0647834   1.2705641  )
        11           O   tau(  11) = (   0.2873680   0.6005631   0.3890455  )
        12           O   tau(  12) = (   0.7126320   0.6397060   1.0831448  )
        13           O   tau(  13) = (   0.2873680   0.6397060   1.0831448  )
        14           O   tau(  14) = (   0.7126320   0.6005631   0.3890455  )
        15           O   tau(  15) = (   0.2198130   0.1558721   0.0470933  )
        16           O   tau(  16) = (   0.7801870   1.0843971   0.7411926  )
        17           O   tau(  17) = (   0.2198130   1.0843971   0.7411926  )
        18           O   tau(  18) = (   0.7801870   0.1558721   0.0470933  )
        19           O   tau(  19) = (   0.5000000   0.2925658   0.9235950  )
        20           O   tau(  20) = (   0.5000000   0.9477033   0.2294956  )

   Crystallographic axes

     site n.     atom                  positions (cryst. coord.)
         1           Na  tau(   1) = (  0.0000000  0.4822130  0.0277290  )
         2           Na  tau(   2) = (  0.0000000  0.5177870  0.5277290  )
         3           Pr  tau(   3) = (  0.5000000  0.1291290  0.3277790  )
         4           Pr  tau(   4) = (  0.5000000  0.8708710  0.8277790  )
         5           C   tau(   5) = (  0.5000000  0.5808840  0.2430430  )
         6           C   tau(   6) = (  0.5000000  0.4191160  0.7430430  )
         7           C   tau(   7) = (  0.0000000  0.0369470  0.9985190  )
         8           C   tau(   8) = (  0.0000000  0.9630530  0.4985190  )
         9           O   tau(   9) = (  0.0000000  0.1414900  0.4152610  )
        10           O   tau(  10) = (  0.0000000  0.8585100  0.9152610  )
        11           O   tau(  11) = (  0.2873680  0.4842200  0.2802520  )
        12           O   tau(  12) = (  0.7126320  0.5157800  0.7802520  )
        13           O   tau(  13) = (  0.2873680  0.5157800  0.7802520  )
        14           O   tau(  14) = (  0.7126320  0.4842200  0.2802520  )
        15           O   tau(  15) = (  0.2198130  0.1256760  0.0339240  )
        16           O   tau(  16) = (  0.7801870  0.8743240  0.5339240  )
        17           O   tau(  17) = (  0.2198130  0.8743240  0.5339240  )
        18           O   tau(  18) = (  0.7801870  0.1256760  0.0339240  )
        19           O   tau(  19) = (  0.5000000  0.2358890  0.6653190  )
        20           O   tau(  20) = (  0.5000000  0.7641110  0.1653190  )

     number of k points=     8
                       cart. coord. in units 2pi/alat
        k(    1) = (   0.0000000   0.0000000   0.0000000), wk =   0.0740741
        k(    2) = (   0.0000000   0.0000000   0.2401193), wk =   0.1481481
        k(    3) = (   0.0000000   0.2687589   0.0000000), wk =   0.1481481
        k(    4) = (   0.0000000   0.2687589   0.2401193), wk =   0.2962963
        k(    5) = (   0.3333333   0.0000000   0.0000000), wk =   0.1481481
        k(    6) = (   0.3333333   0.0000000   0.2401193), wk =   0.2962963
        k(    7) = (   0.3333333   0.2687589   0.0000000), wk =   0.2962963
        k(    8) = (   0.3333333   0.2687589   0.2401193), wk =   0.5925926

                       cryst. coord.
        k(    1) = (   0.0000000   0.0000000   0.0000000), wk =   0.0740741
        k(    2) = (   0.0000000   0.0000000   0.3333333), wk =   0.1481481
        k(    3) = (   0.0000000   0.3333333   0.0000000), wk =   0.1481481
        k(    4) = (   0.0000000   0.3333333   0.3333333), wk =   0.2962963
        k(    5) = (   0.3333333   0.0000000   0.0000000), wk =   0.1481481
        k(    6) = (   0.3333333   0.0000000   0.3333333), wk =   0.2962963
        k(    7) = (   0.3333333   0.3333333   0.0000000), wk =   0.2962963
        k(    8) = (   0.3333333   0.3333333   0.3333333), wk =   0.5925926

     Check: negative core charge=   -0.000019

     Initial potential from superposition of free atoms

     starting charge     131.9724, renormalised to     132.0000
     Starting wfcs are  138 randomized atomic wfcs
     Checking if some PAW data can be deallocated...

     Self-consistent Calculation

     iteration #  1     ecut=    30.00 Ry     beta= 0.70
     Davidson diagonalization with overlap

     ethr =  1.00E-02,  avg # of iterations =  2.0

     total energy              =   -1780.15891506 Ry
     estimated scf accuracy    <       2.90898000 Ry

[...]

     total energy              =   -1781.55909732 Ry
     estimated scf accuracy    <       0.00000336 Ry

     iteration # 38     ecut=    30.00 Ry     beta= 0.70
     Davidson diagonalization with overlap

     ethr =  2.55E-09,  avg # of iterations =  1.0

     End of self-consistent calculation

          k = 0.0000 0.0000 0.0000 (  4507 PWs)   bands (ev):

   -43.3692 -43.3680 -28.3907 -28.3605 -16.5623 -16.5244 -16.2754 -16.2545
   -15.3582 -15.3273 -15.3202 -15.3032 -15.2453 -15.2273 -13.6893 -13.5555
   -13.4928 -13.4202 -13.3763 -13.2475 -12.9479 -12.8907 -10.4697 -10.4004
   -10.3171 -10.1531 -10.1155 -10.0208  -2.8079  -2.3978  -2.0056  -1.9946
    -1.1374  -0.6860  -0.5945  -0.5687  -0.4185  -0.3662  -0.3503  -0.2188
    -0.0537  -0.0115   0.1092   0.4999   2.6778   2.8954   3.2796   3.3396
     3.3991   3.4461   3.5285   3.6159   3.6362   3.8139   3.8529   3.8973
     4.2160   4.2854   4.3565   4.3991   4.7330   5.0360   5.3213   5.3448
     7.8310   7.8328   7.8867   7.8916   7.9298   7.9530   7.9832   7.9928
     8.0236   8.0280   8.1191   8.1359   8.2938   8.3332  10.4251  10.4634
    10.9237  10.9575  11.1341  11.4824  11.6735  11.6941  12.0988  12.3197
    12.5055  13.0066

     occupation numbers
     1.0000   1.0000   1.0000   1.0000   1.0000   1.0000   1.0000   1.0000
     1.0000   1.0000   1.0000   1.0000   1.0000   1.0000   1.0000   1.0000
     1.0000   1.0000   1.0000   1.0000   1.0000   1.0000   1.0000   1.0000
     1.0000   1.0000   1.0000   1.0000   1.0000   1.0000   1.0000   1.0000
     1.0000   1.0000   1.0000   1.0000   1.0000   1.0000   1.0000   1.0000
     1.0000   1.0000   1.0000   1.0000   1.0000   1.0000   1.0000   1.0000
     1.0000   1.0000   1.0000   1.0000   1.0000   1.0000   1.0000   1.0000
     1.0000   1.0000   1.0000   1.0000   1.0000   1.0000   1.0000   1.0000
     1.0000   1.0000   0.0000   0.0000   0.0000   0.0000   0.0000   0.0000
     0.0000   0.0000   0.0000   0.0000   0.0000   0.0000   0.0000   0.0000
     0.0000   0.0000   0.0000   0.0000   0.0000   0.0000   0.0000   0.0000
     0.0000   0.0000

[...]

          k = 0.3333 0.2688 0.2401 (  4488 PWs)   bands (ev):

   -43.3687 -43.3681 -28.3812 -28.3664 -16.5986 -16.5297 -16.3139 -16.2644
   -15.3215 -15.3024 -15.2986 -15.2910 -15.2722 -15.2471 -13.7663 -13.6843
   -13.4092 -13.3569 -13.2960 -13.2769 -12.9543 -12.9233 -10.3666 -10.3498
   -10.2179 -10.1997 -10.1275 -10.0976  -2.2690  -2.2015  -1.9316  -1.8018
    -1.0463  -0.9216  -0.6782  -0.6327  -0.4564  -0.3012  -0.2125  -0.1331
     0.0137   0.0477   0.1023   0.1829   2.6983   2.7715   2.9841   3.1057
     3.2579   3.4084   3.4673   3.5897   3.6858   3.7146   3.8395   3.9499
     3.9744   4.0850   4.2483   4.3055   4.6069   4.6919   5.0599   5.1342
     7.8739   7.8743   7.8818   7.8892   7.9447   7.9531   7.9603   7.9706
     8.0040   8.0157   8.0917   8.1320   8.2294   8.2364  10.7004  10.8038
    11.0555  11.1556  11.6597  11.7693  11.8302  12.1575  12.4225  12.5683
    12.8683  12.9341

     occupation numbers
     1.0000   1.0000   1.0000   1.0000   1.0000   1.0000   1.0000   1.0000
     1.0000   1.0000   1.0000   1.0000   1.0000   1.0000   1.0000   1.0000
     1.0000   1.0000   1.0000   1.0000   1.0000   1.0000   1.0000   1.0000
     1.0000   1.0000   1.0000   1.0000   1.0000   1.0000   1.0000   1.0000
     1.0000   1.0000   1.0000   1.0000   1.0000   1.0000   1.0000   1.0000
     1.0000   1.0000   1.0000   1.0000   1.0000   1.0000   1.0000   1.0000
     1.0000   1.0000   1.0000   1.0000   1.0000   1.0000   1.0000   1.0000
     1.0000   1.0000   1.0000   1.0000   1.0000   1.0000   1.0000   1.0000
     1.0000   1.0000   0.0000   0.0000   0.0000   0.0000   0.0000   0.0000
     0.0000   0.0000   0.0000   0.0000   0.0000   0.0000   0.0000   0.0000
     0.0000   0.0000   0.0000   0.0000   0.0000   0.0000   0.0000   0.0000
     0.0000   0.0000

     highest occupied, lowest unoccupied level (ev):     7.8764    7.8756

!    total energy              =   -1781.55909549 Ry
     estimated scf accuracy    <       0.00000098 Ry

     The total energy is the sum of the following terms:
     one-electron contribution =    -325.45368896 Ry
     hartree contribution      =     240.61663151 Ry
     xc contribution           =    -160.75722687 Ry
     ewald contribution        =    -557.96385376 Ry
     one-center paw contrib.   =    -978.00095741 Ry
      -> PAW hartree energy AE =      61.79769629 Ry
      -> PAW hartree energy PS =     -61.78390171 Ry
      -> PAW xc energy AE      =    -430.06692583 Ry
      -> PAW xc energy PS      =      10.49706296 Ry
      -> total E_H with PAW    =     240.63042609 Ry
      -> total E_XC with PAW   =    -580.32708974 Ry

     convergence has been achieved in  38 iterations

     Writing all to output data dir calculations_bands/myprefix.save/

     General routines

     Parallel routines

     PAW routines

   This run was terminated on:   5: 6:17  23Jun2023

   JOB DONE.