     Program PWSCF v.7.1 starts on 14Jul2023 at 17:51:11

     Reading input from espresso_14516.pwi
Warning: card &CELL ignored
Warning: card / ignored

     Current dimensions of program PWSCF are:
     Max number of different atomic species (ntypx) = 10
     Max number of k-points (npk) =  40000
     Max angular momentum in pseudopotentials (lmaxx) =  4
     Message from routine setup:
     using ibrav=0 with symmetry is DISCOURAGED, use correct ibrav instead

     K-points division:     npool     =       2
     R & G space division:  proc/nbgrp/npool/nimage =       4
     Subspace diagonalization in iterative solution of the eigenvalue problem:
     a serial algorithm will be used

     Using Slab Decomposition

     bravais-lattice index     =            0
     lattice parameter (alat)  =      10.3734  a.u.
     unit-cell volume          =     799.0541 (a.u.)^3
     number of atoms/cell      =            9
     number of atomic types    =            2
     number of electrons       =        12.00
     number of Kohn-Sham states=           64
     kinetic-energy cutoff     =      30.0000  Ry
     charge density cutoff     =     240.0000  Ry
     scf convergence threshold =      1.0E-06
     mixing beta               =       0.7000
     number of iterations used =            8  plain     mixing
     Exchange-correlation= PBE
                           (   1   4   3   4   0   0   0)

     celldm(1)=  10.373409  celldm(2)=   0.000000  celldm(3)=   0.000000
     celldm(4)=   0.000000  celldm(5)=   0.000000  celldm(6)=   0.000000

     crystal axes: (cart. coord. in units of alat)
               a(1) = (   1.000000   0.000000   0.000000 )
               a(2) = (  -0.025501   0.999675   0.000000 )
               a(3) = (  -0.487250  -0.499837   0.716066 )

     reciprocal axes: (cart. coord. in units 2 pi/alat)
               b(1) = (  1.000000  0.025509  0.698260 )
               b(2) = (  0.000000  1.000325  0.698260 )
               b(3) = (  0.000000  0.000000  1.396520 )

     PseudoPot. # 1 for Si read from file:
     /lustre07/scratch/pragov/crystal_structure_design/utils/SSSP/Si.pbe-n-rrkjus_psl.1.0.0.UPF
     MD5 check sum: 0b0bb1205258b0d07b9f9672cf965d36
     Pseudo is Ultrasoft + core correction, Zval =  4.0
     Generated using "atomic" code by A. Dal Corso  v.5.1
     Using radial grid of 1141 points,  6 beta functions with:
                l(1) =   0
                l(2) =   0
                l(3) =   1
                l(4) =   1
                l(5) =   2
                l(6) =   2
     Q(r) pseudized with 0 coefficients

     PseudoPot. # 2 for H  read from file:
     /lustre07/scratch/pragov/crystal_structure_design/utils/SSSP/H.pbe-rrkjus_psl.1.0.0.UPF
     MD5 check sum: f52b6d4d1c606e5624b1dc7b2218f220
     Pseudo is Ultrasoft, Zval =  1.0
     Generated using "atomic" code by A. Dal Corso  v.5.1
     Using radial grid of  929 points,  2 beta functions with:
                l(1) =   0
                l(2) =   0
     Q(r) pseudized with 0 coefficients

     atomic species   valence    mass     pseudopotential
        Si             4.00    28.08500     Si( 1.00)
        H              1.00     1.00800     H ( 1.00)

      2 Sym. Ops. (no inversion) found

                                    s                        frac. trans.

      isym =  1     identity

 cryst.   s( 1) = (     1          0          0      )
                  (     0          1          0      )
                  (     0          0          1      )

 cart.    s( 1) = (  1.0000000 -0.0000000 -0.0000000 )
                  (  0.0000000  1.0000000  0.0000000 )
                  (  0.0000000  0.0000000  1.0000000 )

      isym =  2     180 deg rotation - cart. axis [0,0,1]

 cryst.   s( 2) = (    -1          0          0      )
                  (     0         -1          0      )
                  (     1          1          1      )

 cart.    s( 2) = ( -1.0000000  0.0000000  0.0000000 )
                  (  0.0000000 -1.0000000  0.0000000 )
                  (  0.0000000  0.0000000  1.0000000 )

   Cartesian axes

     site n.     atom                  positions (alat units)
         1           Si  tau(   1) = (   0.0000000   0.0000000   0.0000000  )
         2           H   tau(   2) = (   0.4396093   0.4509663   0.0000000  )
         3           H   tau(   3) = (   0.5348901   0.5487085   0.0000000  )
         4           H   tau(   4) = (   0.4522174  -0.0490171   0.3580329  )
         5           H   tau(   5) = (   0.5477826   0.0490171   0.3580329  )
         6           H   tau(   6) = (  -0.0011625   0.2224526   0.1561109  )
         7           H   tau(   7) = (  -0.2903414   0.5043479   0.5599549  )
         8           H   tau(   8) = (   0.2648398   0.4953269   0.5599549  )
         9           H   tau(   9) = (  -0.0243381   0.7772232   0.1561109  )

   Crystallographic axes

     site n.     atom                  positions (cryst. coord.)
         1           Si  tau(   1) = (  0.0000000  0.0000000  0.0000000  )
         2           H   tau(   2) = (  0.4511130  0.4511130  0.0000000  )
         3           H   tau(   3) = (  0.5488870  0.5488870  0.0000000  )
         4           H   tau(   4) = (  0.7009670  0.2009670  0.5000000  )
         5           H   tau(   5) = (  0.7990330  0.2990330  0.5000000  )
         6           H   tau(   6) = (  0.1135180  0.3315310  0.2180120  )
         7           H   tau(   7) = (  0.1135180  0.8955060  0.7819880  )
         8           H   tau(   8) = (  0.6684690  0.8864820  0.7819880  )
         9           H   tau(   9) = (  0.1044940  0.8864820  0.2180120  )

     number of k points=    10
                       cart. coord. in units 2pi/alat
        k(    1) = (   0.0000000   0.0000000   0.0000000), wk =   0.0740741
        k(    2) = (   0.0000000   0.0000000   0.4655065), wk =   0.1481481
        k(    3) = (   0.0000000   0.3334418   0.2327533), wk =   0.2962963
        k(    4) = (   0.0000000   0.3334418   0.6982598), wk =   0.1481481
        k(    5) = (   0.3333333   0.0085030   0.2327533), wk =   0.2962963
        k(    6) = (   0.3333333   0.0085030   0.6982598), wk =   0.1481481
        k(    7) = (   0.3333333   0.3419447   0.4655065), wk =   0.2962963
        k(    8) = (   0.3333333   0.3419447  -0.0000000), wk =   0.1481481
        k(    9) = (   0.3333333  -0.3249388   0.0000000), wk =   0.1481481
        k(   10) = (   0.3333333  -0.3249388   0.4655065), wk =   0.2962963

                       cryst. coord.
        k(    1) = (   0.0000000   0.0000000   0.0000000), wk =   0.0740741
        k(    2) = (   0.0000000   0.0000000   0.3333333), wk =   0.1481481
        k(    3) = (   0.0000000   0.3333333   0.0000000), wk =   0.2962963
        k(    4) = (   0.0000000   0.3333333   0.3333333), wk =   0.1481481
        k(    5) = (   0.3333333   0.0000000  -0.0000000), wk =   0.2962963
        k(    6) = (   0.3333333   0.0000000   0.3333333), wk =   0.1481481
        k(    7) = (   0.3333333   0.3333333  -0.0000000), wk =   0.2962963
        k(    8) = (   0.3333333   0.3333333  -0.3333333), wk =   0.1481481
        k(    9) = (   0.3333333  -0.3333333  -0.0000000), wk =   0.1481481
        k(   10) = (   0.3333333  -0.3333333   0.3333333), wk =   0.2962963

     Initial potential from superposition of free atoms

     starting charge      11.9994, renormalised to      12.0000
     Starting wfcs are   12 randomized atomic wfcs +   52 random wfcs

     Self-consistent Calculation

     iteration #  1     ecut=    30.00 Ry     beta= 0.70
     Davidson diagonalization with overlap

     ethr =  1.00E-02,  avg # of iterations =  6.7

     total energy              =     -20.70783901 Ry
     estimated scf accuracy    <       0.45312896 Ry

[...]

     total energy              =     -20.73240159 Ry
     estimated scf accuracy    <       0.00001090 Ry

     iteration #  5     ecut=    30.00 Ry     beta= 0.70
     Davidson diagonalization with overlap

     ethr =  9.08E-08,  avg # of iterations =  1.0

     End of self-consistent calculation

          k = 0.0000 0.0000 0.0000 (  2205 PWs)   bands (ev):

   -10.7106  -7.5647  -6.9898  -5.2744  -5.2321  -5.2321   2.2810   2.3552
     2.6990   2.6990   4.4221   5.7725   5.7932   6.2652   6.2652   8.4794
     8.7314  10.6667  10.6667  12.0989  12.2714  12.2714  14.1324  14.9179
    15.2265  15.7241  15.7437  15.7437  16.0435  17.6741  17.7411  18.0908
    18.0908  19.4408  19.5408  19.5408  19.9475  20.9451  21.0767  21.0767
    22.7982  23.0442  23.7010  23.8300  23.8300  24.3199  24.3372  24.4157
    24.5254  24.6303  24.6303  24.6710  24.6710  25.1290  25.1290  25.9511
    25.9512  26.0663  27.1856  31.3921  31.8894  32.7684  33.0748  33.3637

     occupation numbers
     1.0000   1.0000   1.0000   1.0000   1.0000   1.0000   0.0000   0.0000
     0.0000   0.0000   0.0000   0.0000   0.0000   0.0000   0.0000   0.0000
     0.0000   0.0000   0.0000   0.0000   0.0000   0.0000   0.0000   0.0000
     0.0000   0.0000   0.0000   0.0000   0.0000   0.0000   0.0000   0.0000
     0.0000   0.0000   0.0000   0.0000   0.0000   0.0000   0.0000   0.0000
     0.0000   0.0000   0.0000   0.0000   0.0000   0.0000   0.0000   0.0000
     0.0000   0.0000   0.0000   0.0000   0.0000   0.0000   0.0000   0.0000
     0.0000   0.0000   0.0000   0.0000   0.0000   0.0000   0.0000   0.0000

[...]

          k = 0.3333-0.3249 0.4655 (  2245 PWs)   bands (ev):

   -10.3921  -7.7306  -7.3044  -5.8045  -5.3338  -5.2362   2.5538   3.4549
     3.5279   4.0345   4.4658   4.7569   5.6067   6.8651   7.4874   8.8864
     9.5185   9.5846  10.0825  11.5299  11.6941  11.7488  12.0613  13.4977
    13.6191  13.9251  15.0456  15.1126  15.2171  16.6198  17.2472  17.4414
    18.3268  18.6434  18.8039  20.2441  20.5889  20.6108  21.4313  21.8854
    22.9326  23.0834  23.3776  23.6311  24.4120  25.3455  25.5905  26.2102
    26.5328  26.8224  27.0380  27.3663  27.6126  27.6232  28.1795  28.3953
    28.8207  29.6936  30.0209  30.3857  30.7800  31.7179  32.0160  32.1422

     occupation numbers
     1.0000   1.0000   1.0000   1.0000   1.0000   1.0000   0.0000   0.0000
     0.0000   0.0000   0.0000   0.0000   0.0000   0.0000   0.0000   0.0000
     0.0000   0.0000   0.0000   0.0000   0.0000   0.0000   0.0000   0.0000
     0.0000   0.0000   0.0000   0.0000   0.0000   0.0000   0.0000   0.0000
     0.0000   0.0000   0.0000   0.0000   0.0000   0.0000   0.0000   0.0000
     0.0000   0.0000   0.0000   0.0000   0.0000   0.0000   0.0000   0.0000
     0.0000   0.0000   0.0000   0.0000   0.0000   0.0000   0.0000   0.0000
     0.0000   0.0000   0.0000   0.0000   0.0000   0.0000   0.0000   0.0000

     highest occupied, lowest unoccupied level (ev):    -5.1948    2.2684

!    total energy              =     -20.73240287 Ry
     estimated scf accuracy    <       0.00000011 Ry

     The total energy is the sum of the following terms:
     one-electron contribution =      -5.60247750 Ry
     hartree contribution      =       4.94759012 Ry
     xc contribution           =     -11.65990537 Ry
     ewald contribution        =      -8.41761012 Ry

     convergence has been achieved in   5 iterations

     Writing all to output data dir bands_nm/myprefix.save/

     General routines

     Parallel routines

   This run was terminated on:  17:51:21  14Jul2023

   JOB DONE.