     Program PWSCF v.7.1 starts on 13Jul2023 at  2:28:43

     Reading input from espresso_12628.pwi
Warning: card &CELL ignored
Warning: card / ignored

     Current dimensions of program PWSCF are:
     Max number of different atomic species (ntypx) = 10
     Max number of k-points (npk) =  40000
     Max angular momentum in pseudopotentials (lmaxx) =  4
     file O.pbe-n-kjpaw_psl.0.1.UPF: wavefunction(s)  2P renormalized
     Message from routine setup:
     using ibrav=0 with symmetry is DISCOURAGED, use correct ibrav instead

     K-points division:     npool     =       2
     R & G space division:  proc/nbgrp/npool/nimage =       8
     Subspace diagonalization in iterative solution of the eigenvalue problem:
     a serial algorithm will be used

     Using Slab Decomposition

     bravais-lattice index     =            0
     lattice parameter (alat)  =       9.4970  a.u.
     unit-cell volume          =     958.2078 (a.u.)^3
     number of atoms/cell      =           12
     number of atomic types    =            3
     number of electrons       =       120.00
     number of Kohn-Sham states=           64
     kinetic-energy cutoff     =      30.0000  Ry
     charge density cutoff     =     240.0000  Ry
     scf convergence threshold =      1.0E-06
     mixing beta               =       0.7000
     number of iterations used =            8  plain     mixing
     Exchange-correlation= SLA  PW   PBX  PBC
                           (   1   4   3   4   0   0   0)

     celldm(1)=   9.496966  celldm(2)=   0.000000  celldm(3)=   0.000000
     celldm(4)=   0.000000  celldm(5)=   0.000000  celldm(6)=   0.000000

     crystal axes: (cart. coord. in units of alat)
               a(1) = (   1.000000   0.000000   0.000000 )
               a(2) = (   0.000000   1.000000   0.000000 )
               a(3) = (  -0.500000  -0.500000   1.118678 )

     reciprocal axes: (cart. coord. in units 2 pi/alat)
               b(1) = (  1.000000  0.000000  0.446956 )
               b(2) = (  0.000000  1.000000  0.446956 )
               b(3) = (  0.000000  0.000000  0.893912 )

     PseudoPot. # 1 for Er read from file:
     /lustre07/scratch/pragov/crystal_structure_design/utils/SSSP/Er.GGA-PBE-paw-v1.0.UPF
     MD5 check sum: 5952a841f12bc97f67d25f9d1b2e7e35
     Pseudo is Projector augmented-wave + core cor, Zval = 22.0
     Generated using ATOMPAW code
     Shape of augmentation charge: BESSEL
     Using radial grid of 1114 points,  8 beta functions with:
                l(1) =   0
                l(2) =   0
                l(3) =   1
                l(4) =   1
                l(5) =   2
                l(6) =   2
                l(7) =   3
                l(8) =   3
     Q(r) pseudized with 0 coefficients

     PseudoPot. # 2 for Cr read from file:
     /lustre07/scratch/pragov/crystal_structure_design/utils/SSSP/cr_pbe_v1.5.uspp.F.UPF
     MD5 check sum: 0d52af634a40206e4dee301ad30da4bf
     Pseudo is Ultrasoft + core correction, Zval = 14.0
     Generated by new atomic code, or converted to UPF format
     Using radial grid of  857 points,  6 beta functions with:
                l(1) =   0
                l(2) =   0
                l(3) =   1
                l(4) =   1
                l(5) =   2
                l(6) =   2
     Q(r) pseudized with  8 coefficients,  rinner =    0.950   0.950   0.950
                                                       0.950   0.950

     PseudoPot. # 3 for O  read from file:
     /lustre07/scratch/pragov/crystal_structure_design/utils/SSSP/O.pbe-n-kjpaw_psl.0.1.UPF
     MD5 check sum: 0234752ac141de4415c5fc33072bef88
     Pseudo is Projector augmented-wave + core cor, Zval =  6.0
     Generated using "atomic" code by A. Dal Corso  v.5.0.99 svn rev. 10869
     Shape of augmentation charge: BESSEL
     Using radial grid of 1095 points,  4 beta functions with:
                l(1) =   0
                l(2) =   0
                l(3) =   1
                l(4) =   1
     Q(r) pseudized with 0 coefficients

     atomic species   valence    mass     pseudopotential
        Er            22.00   167.25900     Er( 1.00)
        Cr            14.00    51.99610     Cr( 1.00)
        O              6.00    15.99900     O ( 1.00)

      8 Sym. Ops., with inversion, found ( 6 have fractional translation)

                                    s                        frac. trans.

      isym =  1     identity

 cryst.   s( 1) = (     1          0          0      )
                  (     0          1          0      )
                  (     0          0          1      )

 cart.    s( 1) = (  1.0000000  0.0000000  0.0000000 )
                  (  0.0000000  1.0000000  0.0000000 )
                  (  0.0000000  0.0000000  1.0000000 )

      isym =  2     180 deg rotation - cart. axis [0,0,1]

 cryst.   s( 2) = (    -1          0          0      )    f =(  0.0000000 )
                  (     0         -1          0      )       ( -0.5000000 )
                  (     1          1          1      )       (  0.0000000 )

 cart.    s( 2) = ( -1.0000000  0.0000000  0.0000000 )    f =(  0.0000000 )
                  (  0.0000000 -1.0000000  0.0000000 )       ( -0.5000000 )
                  (  0.0000000  0.0000000  1.0000000 )       (  0.0000000 )

[...]

      isym =  4      90 deg rotation - cart. axis [0,0,1]

[...]

      isym =  5     inversion

 cryst.   s( 5) = (    -1          0          0      )
                  (     0         -1          0      )
                  (     0          0         -1      )

 cart.    s( 5) = ( -1.0000000  0.0000000  0.0000000 )
                  (  0.0000000 -1.0000000  0.0000000 )
                  (  0.0000000  0.0000000 -1.0000000 )

      isym =  6     inv. 180 deg rotation - cart. axis [0,0,1]

[...]

      isym =  8     inv.  90 deg rotation - cart. axis [0,0,1]

 cryst.   s( 8) = (     0         -1          0      )    f =( -0.0000000 )
                  (     1          0          0      )       (  0.5000000 )
                  (    -1          0         -1      )       (  0.5000000 )

 cart.    s( 8) = (  0.0000000  1.0000000 -0.0000000 )    f =( -0.2500000 )
                  ( -1.0000000  0.0000000  0.0000000 )       (  0.2500000 )
                  (  0.0000000  0.0000000 -1.0000000 )       (  0.5593389 )

   Cartesian axes

     site n.     atom                  positions (alat units)
         1           Er  tau(   1) = (   0.5000000   0.7500000   0.2796695  )
         2           Er  tau(   2) = (   0.0000000  -0.2500000   0.8390084  )
         3           Cr  tau(   3) = (   0.0000000   0.2500000   0.2796695  )
         4           Cr  tau(   4) = (   0.5000000   0.2500000   0.8390084  )
         5           O   tau(   5) = (   0.1461495  -0.0091935   0.4543633  )
         6           O   tau(   6) = (  -0.1461495   0.5091935   0.4543633  )
         7           O   tau(   7) = (   0.2408065   0.1038505   1.0137023  )
         8           O   tau(   8) = (  -0.2408065   0.3961495   1.0137023  )
         9           O   tau(   9) = (   0.3538505   0.5091935   0.6643146  )
        10           O   tau(  10) = (   0.6461495  -0.0091935   0.6643146  )
        11           O   tau(  11) = (   0.2591935   0.3961495   0.1049756  )
        12           O   tau(  12) = (   0.7408065   0.1038505   0.1049756  )

   Crystallographic axes

     site n.     atom                  positions (cryst. coord.)
         1           Er  tau(   1) = (  0.6250000  0.8750000  0.2500000  )
         2           Er  tau(   2) = (  0.3750000  0.1250000  0.7500000  )
         3           Cr  tau(   3) = (  0.1250000  0.3750000  0.2500000  )
         4           Cr  tau(   4) = (  0.8750000  0.6250000  0.7500000  )
         5           O   tau(   5) = (  0.3492300  0.1938870  0.4061610  )
         6           O   tau(   6) = (  0.0569310  0.7122740  0.4061610  )
         7           O   tau(   7) = (  0.6938870  0.5569310  0.9061610  )
         8           O   tau(   8) = (  0.2122740  0.8492300  0.9061610  )
         9           O   tau(   9) = (  0.6507700  0.8061130  0.5938390  )
        10           O   tau(  10) = (  0.9430690  0.2877260  0.5938390  )
        11           O   tau(  11) = (  0.3061130  0.4430690  0.0938390  )
        12           O   tau(  12) = (  0.7877260  0.1507700  0.0938390  )

     number of k points=     6
                       cart. coord. in units 2pi/alat
        k(    1) = (   0.0000000   0.0000000   0.0000000), wk =   0.0740741
        k(    2) = (   0.0000000   0.0000000   0.2979708), wk =   0.1481481
        k(    3) = (   0.0000000   0.3333333   0.1489854), wk =   0.5925926
        k(    4) = (   0.0000000   0.3333333   0.4469562), wk =   0.2962963
        k(    5) = (   0.3333333   0.3333333   0.2979708), wk =   0.5925926
        k(    6) = (   0.3333333   0.3333333  -0.0000000), wk =   0.2962963

                       cryst. coord.
        k(    1) = (   0.0000000   0.0000000   0.0000000), wk =   0.0740741
        k(    2) = (   0.0000000   0.0000000   0.3333333), wk =   0.1481481
        k(    3) = (   0.0000000   0.3333333   0.0000000), wk =   0.5925926
        k(    4) = (   0.0000000   0.3333333   0.3333333), wk =   0.2962963
        k(    5) = (   0.3333333   0.3333333   0.0000000), wk =   0.5925926
        k(    6) = (   0.3333333   0.3333333  -0.3333333), wk =   0.2962963

     Check: negative core charge=   -0.000017

     Initial potential from superposition of free atoms

     starting charge     117.9916, renormalised to     120.0000

     negative rho (up, down):  4.201E-03 0.000E+00
     Starting wfcs are  116 randomized atomic wfcs
     Checking if some PAW data can be deallocated...

     Self-consistent Calculation

     iteration #  1     ecut=    30.00 Ry     beta= 0.70
     Davidson diagonalization with overlap

     ethr =  1.00E-02,  avg # of iterations =  2.0

     total energy              =   -2291.60526669 Ry
     estimated scf accuracy    <     146.40308892 Ry

[...]

     c_bands:  2 eigenvalues not converged
     c_bands:  2 eigenvalues not converged
     c_bands:  2 eigenvalues not converged
     ethr =  1.00E-02,  avg # of iterations = 20.0

[...]

     negative rho (up, down):  5.084E-04 0.000E+00

[...]

     total energy              =   -2456.34640210 Ry
     estimated scf accuracy    <       0.00000134 Ry

     iteration # 47     ecut=    30.00 Ry     beta= 0.70
     Davidson diagonalization with overlap

     ethr =  1.08E-09,  avg # of iterations =  1.3

     negative rho (up, down):  5.190E-03 0.000E+00

     End of self-consistent calculation

          k = 0.0000 0.0000 0.0000 (  2607 PWs)   bands (ev):

   -62.4980 -62.4975 -36.6327 -36.6159 -33.8844 -33.8844 -33.8831 -33.8831
   -33.7514 -33.7443 -11.3840 -11.1066 -11.1066 -11.0681 -11.0681 -10.7755
    -8.2784  -7.1946  -7.0918  -6.8315  -6.8315  -6.7881  -6.6853  -6.6853
     5.1687   5.1876   5.3233   5.3743   5.3743   5.4126   5.4869   6.1360
     6.4184   6.5555   6.5555   6.7376   6.8543   7.0265   7.0265   7.6451
     7.6470   7.6470   8.2238   8.2238   8.3325   8.8375   9.2464   9.2464
    10.9946  11.0059  11.0331  11.0505  11.0544  11.0634  11.0634  11.0644
    11.0644  11.0924  11.1217  11.1217  11.1805  11.1805  11.2221  11.4618

     occupation numbers
     1.0000   1.0000   1.0000   1.0000   1.0000   1.0000   1.0000   1.0000
     1.0000   1.0000   1.0000   1.0000   1.0000   1.0000   1.0000   1.0000
     1.0000   1.0000   1.0000   1.0000   1.0000   1.0000   1.0000   1.0000
     1.0000   1.0000   1.0000   1.0000   1.0000   1.0000   1.0000   1.0000
     1.0000   1.0000   1.0000   1.0000   1.0000   1.0000   1.0000   1.0000
     1.0000   1.0000   1.0000   1.0000   1.0000   1.0000   1.0000   1.0000
     1.0000   1.0000   1.0000   1.0000   1.0000   1.0000   1.0000   1.0000
     1.0000   1.0000   1.0000   1.0000   0.0000   0.0000   0.0000   0.0000

[...]

          k = 0.3333 0.3333-0.0000 (  2660 PWs)   bands (ev):

   -62.4983 -62.4980 -36.6284 -36.6200 -33.8873 -33.8869 -33.8865 -33.8860
   -33.7538 -33.7499 -11.3782 -11.2512 -11.1326 -11.1201 -10.9372 -10.7811
    -7.5819  -7.4137  -7.2812  -6.9751  -6.9690  -6.8421  -6.6771  -6.6127
     5.1203   5.1241   5.4309   5.4530   5.5657   5.7631   5.8380   6.1015
     6.1257   6.2662   6.4927   6.6377   6.6980   6.9123   7.0456   7.5659
     7.7648   7.8488   8.2320   8.2334   8.4079   8.7174   8.8643   8.9537
    10.9529  10.9567  11.0116  11.0263  11.0399  11.0725  11.0819  11.1008
    11.1167  11.1301  11.1315  11.1449  11.1869  11.1993  11.4752  11.7185

     occupation numbers
     1.0000   1.0000   1.0000   1.0000   1.0000   1.0000   1.0000   1.0000
     1.0000   1.0000   1.0000   1.0000   1.0000   1.0000   1.0000   1.0000
     1.0000   1.0000   1.0000   1.0000   1.0000   1.0000   1.0000   1.0000
     1.0000   1.0000   1.0000   1.0000   1.0000   1.0000   1.0000   1.0000
     1.0000   1.0000   1.0000   1.0000   1.0000   1.0000   1.0000   1.0000
     1.0000   1.0000   1.0000   1.0000   1.0000   1.0000   1.0000   1.0000
     1.0000   1.0000   1.0000   1.0000   1.0000   1.0000   1.0000   1.0000
     1.0000   1.0000   1.0000   1.0000   0.0000   0.0000   0.0000   0.0000

     highest occupied, lowest unoccupied level (ev):    11.1684   11.1512

!    total energy              =   -2456.34640141 Ry
     estimated scf accuracy    <       0.00000069 Ry

     The total energy is the sum of the following terms:
     one-electron contribution =    -730.98456351 Ry
     hartree contribution      =     405.17733107 Ry
     xc contribution           =    -169.44144593 Ry
     ewald contribution        =    -912.56799236 Ry
     one-center paw contrib.   =   -1048.52973068 Ry
      -> PAW hartree energy AE =     341.18583183 Ry
      -> PAW hartree energy PS =    -304.77721382 Ry
      -> PAW xc energy AE      =    -554.16977141 Ry
      -> PAW xc energy PS      =      31.61177195 Ry
      -> total E_H with PAW    =     441.58594908 Ry
      -> total E_XC with PAW   =    -691.99944539 Ry

     convergence has been achieved in  47 iterations

     Writing all to output data dir bands_nm/myprefix.save/

     General routines

     Parallel routines

     PAW routines

   This run was terminated on:   2:29: 2  13Jul2023

   JOB DONE.