     Program PWSCF v.7.1 starts on 17Jul2023 at  4:32:51

     Reading input from espresso_26652.pwi
Warning: card &CELL ignored
Warning: card / ignored

     Current dimensions of program PWSCF are:
     Max number of different atomic species (ntypx) = 10
     Max number of k-points (npk) =  40000
     Max angular momentum in pseudopotentials (lmaxx) =  4
     file O.pbe-n-kjpaw_psl.0.1.UPF: wavefunction(s)  2P renormalized

     K-points division:     npool     =       2
     R & G space division:  proc/nbgrp/npool/nimage =       4
     Subspace diagonalization in iterative solution of the eigenvalue problem:
     one sub-group per band group will be used

     Using Slab Decomposition

     bravais-lattice index     =            0
     lattice parameter (alat)  =       5.2681  a.u.
     unit-cell volume          =     946.4561 (a.u.)^3
     number of atoms/cell      =           16
     number of atomic types    =            3
     number of electrons       =       132.00
     number of Kohn-Sham states=          256
     kinetic-energy cutoff     =      30.0000  Ry
     charge density cutoff     =     240.0000  Ry
     scf convergence threshold =      1.0E-06
     mixing beta               =       0.7000
     number of iterations used =            8  plain     mixing
     Exchange-correlation= SLA  PW   PBX  PBC
                           (   1   4   3   4   0   0   0)

     celldm(1)=   5.268129  celldm(2)=   0.000000  celldm(3)=   0.000000
     celldm(4)=   0.000000  celldm(5)=   0.000000  celldm(6)=   0.000000

     crystal axes: (cart. coord. in units of alat)
               a(1) = (   1.000000   0.000000   0.000000 )
               a(2) = (  -0.000097   1.854167   0.000000 )
               a(3) = (   0.500464   0.926821   3.491262 )

     reciprocal axes: (cart. coord. in units 2 pi/alat)
               b(1) = (  1.000000  0.000052 -0.143361 )
               b(2) = (  0.000000  0.539326 -0.143174 )
               b(3) = (  0.000000  0.000000  0.286429 )

     PseudoPot. # 1 for Li read from file:
     /lustre07/scratch/pragov/crystal_structure_design/utils/SSSP/li_pbe_v1.4.uspp.F.UPF
     MD5 check sum: e912e257baa3777c20ea3d68f190483c
     Pseudo is Ultrasoft, Zval =  3.0
     Generated by new atomic code, or converted to UPF format
     Using radial grid of  751 points,  5 beta functions with:
                l(1) =   0
                l(2) =   0
                l(3) =   0
                l(4) =   1
                l(5) =   1
     Q(r) pseudized with 10 coefficients,  rinner =    1.150   1.150   1.150

     PseudoPot. # 2 for Ni read from file:
     /lustre07/scratch/pragov/crystal_structure_design/utils/SSSP/ni_pbe_v1.4.uspp.F.UPF
     MD5 check sum: 1ee80287db30b12d2bc1f57a5b5d6409
     Pseudo is Ultrasoft + core correction, Zval = 18.0
     Generated by new atomic code, or converted to UPF format
     Using radial grid of  865 points,  6 beta functions with:
                l(1) =   0
                l(2) =   0
                l(3) =   1
                l(4) =   1
                l(5) =   2
                l(6) =   2
     Q(r) pseudized with 10 coefficients,  rinner =    0.980   0.980   0.980
                                                       0.980   0.980

     PseudoPot. # 3 for O  read from file:
     /lustre07/scratch/pragov/crystal_structure_design/utils/SSSP/O.pbe-n-kjpaw_psl.0.1.UPF
     MD5 check sum: 0234752ac141de4415c5fc33072bef88
     Pseudo is Projector augmented-wave + core cor, Zval =  6.0
     Generated using "atomic" code by A. Dal Corso  v.5.0.99 svn rev. 10869
     Shape of augmentation charge: BESSEL
     Using radial grid of 1095 points,  4 beta functions with:
                l(1) =   0
                l(2) =   0
                l(3) =   1
                l(4) =   1
     Q(r) pseudized with 0 coefficients

     atomic species   valence    mass     pseudopotential
        Li             3.00     6.94000     Li( 1.00)
        Ni            18.00    58.69340     Ni( 1.00)
        O              6.00    15.99900     O ( 1.00)

     No symmetry found

                                    s                        frac. trans.

      isym =  1     identity

 cryst.   s( 1) = (     1          0          0      )
                  (     0          1          0      )
                  (     0          0          1      )

 cart.    s( 1) = (  1.0000000  0.0000000  0.0000000 )
                  (  0.0000000  1.0000000  0.0000000 )
                  (  0.0000000  0.0000000  1.0000000 )

   Cartesian axes

     site n.     atom                  positions (alat units)
         1           Li  tau(   1) = (   0.4992000   0.2925147   0.8476576  )
         2           Li  tau(   2) = (   0.9991527   1.2194962   0.8477134  )
         3           Li  tau(   3) = (   1.0014652   2.4890525   2.5918853  )
         4           Li  tau(   4) = (   0.5015135   1.5619226   2.5918713  )
         5           Ni  tau(   5) = (   0.9997035   0.6220663   0.0031037  )
         6           Ni  tau(   6) = (   1.0003697   1.2314389   1.7490771  )
         7           Ni  tau(   7) = (   0.4996307   1.5491841   0.0031491  )
         8           Ni  tau(   8) = (   0.5002958   2.1590017   1.7486407  )
         9           O   tau(   9) = (   0.4994384   0.8821988   0.3951865  )
        10           O   tau(  10) = (   0.9994280   1.8094362   0.3949491  )
        11           O   tau(  11) = (   1.0000004   1.8988725   2.1412366  )
        12           O   tau(  12) = (   0.4999928   0.9716499   2.1414531  )
        13           O   tau(  13) = (   1.0006800   0.5678322   1.3582721  )
        14           O   tau(  14) = (   0.5008522   1.4947034   1.3581988  )
        15           O   tau(  15) = (   0.5001499   2.2125687   3.1056525  )
        16           O   tau(  16) = (   1.0003067   1.2858070   3.1050764  )

   Crystallographic axes

     site n.     atom                  positions (cryst. coord.)
         1           Li  tau(   1) = (  0.3776940  0.0363980  0.2427940  )
         2           Li  tau(   2) = (  0.8776870  0.5363350  0.2428100  )
         3           Li  tau(   3) = (  0.6300190  0.9713190  0.7423920  )
         4           Li  tau(   4) = (  0.1300210  0.4712960  0.7423880  )
         5           Ni  tau(   5) = (  0.9992910  0.3350520  0.0008890  )
         6           Ni  tau(   6) = (  0.7496840  0.4137240  0.5009870  )
         7           Ni  tau(   7) = (  0.4992600  0.8350640  0.0009020  )
         8           Ni  tau(   8) = (  0.2497210  0.9140450  0.5008620  )
         9           O   tau(   9) = (  0.4428300  0.4192120  0.1131930  )
        10           O   tau(  10) = (  0.9429020  0.9193290  0.1131250  )
        11           O   tau(  11) = (  0.6931290  0.7175410  0.6133130  )
        12           O   tau(  12) = (  0.1930420  0.2174350  0.6133750  )
        13           O   tau(  13) = (  0.8059860  0.1117770  0.3890490  )
        14           O   tau(  14) = (  0.3062170  0.6116730  0.3890280  )
        15           O   tau(  15) = (  0.0550350  0.7486460  0.8895500  )
        16           O   tau(  16) = (  0.5552260  0.2489020  0.8893850  )

     number of k points=    14
                       cart. coord. in units 2pi/alat
        k(    1) = (   0.0000000   0.0000000   0.0000000), wk =   0.0740741
        k(    2) = (   0.0000000   0.0000000   0.0954764), wk =   0.1481481
        k(    3) = (   0.0000000   0.1797752  -0.0477247), wk =   0.1481481
        k(    4) = (   0.0000000   0.1797752   0.0477517), wk =   0.1481481
        k(    5) = (   0.0000000   0.1797752  -0.1432012), wk =   0.1481481
        k(    6) = (   0.3333333   0.0000174  -0.0477871), wk =   0.1481481
        k(    7) = (   0.3333333   0.0000174   0.0476894), wk =   0.1481481
        k(    8) = (   0.3333333   0.0000174  -0.1432635), wk =   0.1481481
        k(    9) = (   0.3333333   0.1797926  -0.0955118), wk =   0.1481481
        k(   10) = (   0.3333333   0.1797926  -0.0000354), wk =   0.1481481
        k(   11) = (   0.3333333   0.1797926  -0.1909883), wk =   0.1481481
        k(   12) = (   0.3333333  -0.1797579  -0.0000624), wk =   0.1481481
        k(   13) = (   0.3333333  -0.1797579   0.0954141), wk =   0.1481481
        k(   14) = (   0.3333333  -0.1797579  -0.0955388), wk =   0.1481481

                       cryst. coord.
        k(    1) = (   0.0000000   0.0000000   0.0000000), wk =   0.0740741
        k(    2) = (   0.0000000   0.0000000   0.3333333), wk =   0.1481481
        k(    3) = (   0.0000000   0.3333333   0.0000000), wk =   0.1481481
        k(    4) = (   0.0000000   0.3333333   0.3333333), wk =   0.1481481
        k(    5) = (   0.0000000   0.3333333  -0.3333333), wk =   0.1481481
        k(    6) = (   0.3333333   0.0000000   0.0000000), wk =   0.1481481
        k(    7) = (   0.3333333   0.0000000   0.3333333), wk =   0.1481481
        k(    8) = (   0.3333333   0.0000000  -0.3333333), wk =   0.1481481
        k(    9) = (   0.3333333   0.3333333   0.0000000), wk =   0.1481481
        k(   10) = (   0.3333333   0.3333333   0.3333333), wk =   0.1481481
        k(   11) = (   0.3333333   0.3333333  -0.3333333), wk =   0.1481481
        k(   12) = (   0.3333333  -0.3333333  -0.0000000), wk =   0.1481481
        k(   13) = (   0.3333333  -0.3333333   0.3333333), wk =   0.1481481
        k(   14) = (   0.3333333  -0.3333333  -0.3333333), wk =   0.1481481

     Check: negative core charge=   -0.000019

     Initial potential from superposition of free atoms

     starting charge     122.1970, renormalised to     132.0000
     Starting wfcs are  104 randomized atomic wfcs +  152 random wfcs
     Checking if some PAW data can be deallocated...

     Self-consistent Calculation

     iteration #  1     ecut=    30.00 Ry     beta= 0.70
     Davidson diagonalization with overlap

     ethr =  1.00E-02,  avg # of iterations =  6.1

     total energy              =   -1611.67813864 Ry
     estimated scf accuracy    <     205.09545896 Ry

[...]

     c_bands:  1 eigenvalues not converged
     ethr =  1.95E-07,  avg # of iterations =  2.4

[...]

     c_bands:  1 eigenvalues not converged
     ethr =  1.95E-07,  avg # of iterations =  2.4

[...]

     total energy              =   -1763.47989307 Ry
     estimated scf accuracy    <       0.00108005 Ry

     iteration #345     ecut=    30.00 Ry     beta= 0.70
     Davidson diagonalization with overlap

     ethr =  9.28E-10,  avg # of iterations =  1.0

     End of self-consistent calculation

          k = 0.0000 0.0000 0.0000 (  2641 PWs)   bands (ev):

   -94.9890 -94.9857 -94.9787 -94.9773 -55.5159 -55.5082 -55.5054 -55.4982
   -55.4914 -55.4898 -55.4809 -55.4738 -54.8815 -54.8714 -54.8602 -54.8507
   -35.3177 -35.3091 -35.2952 -35.2867 -10.3860 -10.2612  -9.2010  -9.1919
    -9.1869  -9.0055  -8.9229  -8.9074   2.5023   2.5211   2.6528   3.4623
     3.5125   3.5263   4.2163   4.2387   4.2504   4.2678   4.5860   4.5935
     4.6226   4.6553   5.7138   6.1067   6.1106   6.3173   6.3321   7.1587
     7.2112   7.2252   7.2283   7.2302   7.2313   7.2758   7.3694   7.3950
     7.4208   7.4326   7.8144   7.8226   7.9303   8.1771   8.1908   8.2022
     9.7226   9.7237   9.9123   9.9272  10.4732  10.4771  10.5995  10.6622
    14.1314  15.4008  16.5722  16.6367  17.0604  17.0731  19.3563  19.3614
    20.4765  20.4960  20.9710  21.1675  21.1824  21.3401  22.7791  22.7935
    23.5842  23.5903  23.8287  23.8546  24.9074  24.9180  25.2235  25.5025
    25.9058  25.9722  27.7824  27.8369  27.8607  28.3188  28.4191  28.4381
    28.6971  29.3597  29.6443  30.1106  30.2746  30.9633  31.1345  31.5078
    31.7171  31.7233  32.6647  33.0913  33.5287  33.6887  34.6967  35.0129
    35.1799  35.4185  35.4247  36.0319  36.6408  36.6635  37.4655  37.9571
    38.0271  38.0305  38.6888  38.6945  39.2709  39.6289  39.6435  40.0748
    40.0857  40.0963  40.3357  40.3525  40.5733  41.8095  41.8330  42.5768
    42.5978  42.6524  42.7908  43.1337  43.2128  43.4231  43.4348  43.5700
    45.0542  45.2367  45.2638  46.3562  46.5978  47.3589  47.3669  47.5048
    47.5140  48.2678  48.5432  48.6690  48.9384  48.9531  49.0066  49.1125
    49.1344  50.2612  50.5263  50.6943  50.7017  50.7803  51.1577  51.4165
    51.7878  51.7973  52.3378  52.3601  53.3917  53.4009  53.7132  53.7225
    53.8100  53.8705  54.1410  54.1468  54.7975  54.8204  55.0287  55.6017
    56.1516  56.3728  56.3923  57.3482  57.5944  57.6134  57.7837  57.7991
    58.7492  58.7741  58.8543  60.9067  60.9460  61.3010  61.3203  61.3443
    61.3852  61.3996  62.1862  62.1900  62.2918  62.4063  62.7912  62.9105
    63.4043  63.4273  63.9950  64.1582  65.1770  65.9363  65.9460  66.1210
    66.1389  66.3657  66.3866  66.3968  66.5853  67.3568  67.8306  68.4575
    68.4682  68.4953  68.5006  68.7024  68.8772  69.2211  69.5096  70.3377
    70.3565  70.7796  70.8112  70.8815  71.0310  71.2231  71.8255  72.0981
    72.3176  72.3312  73.2924  73.2994  73.3382  73.5709  74.0404  74.1681

     occupation numbers
     1.0000   1.0000   1.0000   1.0000   1.0000   1.0000   1.0000   1.0000
     1.0000   1.0000   1.0000   1.0000   1.0000   1.0000   1.0000   1.0000
     1.0000   1.0000   1.0000   1.0000   1.0000   1.0000   1.0000   1.0000
     1.0000   1.0000   1.0000   1.0000   1.0000   1.0000   1.0000   1.0000
     1.0000   1.0000   1.0000   1.0000   1.0000   1.0000   1.0000   1.0000
     1.0000   1.0000   1.0000   1.0000   1.0000   1.0000   1.0000   1.0000
     1.0000   1.0000   1.0000   1.0000   1.0000   1.0000   1.0000   1.0000
     1.0000   1.0000   1.0000   1.0000   1.0000   1.0000   1.0000   1.0000
     1.0000   1.0000   0.0000   0.0000   0.0000   0.0000   0.0000   0.0000
     0.0000   0.0000   0.0000   0.0000   0.0000   0.0000   0.0000   0.0000
     0.0000   0.0000   0.0000   0.0000   0.0000   0.0000   0.0000   0.0000
     0.0000   0.0000   0.0000   0.0000   0.0000   0.0000   0.0000   0.0000
     0.0000   0.0000   0.0000   0.0000   0.0000   0.0000   0.0000   0.0000
     0.0000   0.0000   0.0000   0.0000   0.0000   0.0000   0.0000   0.0000
     0.0000   0.0000   0.0000   0.0000   0.0000   0.0000   0.0000   0.0000
     0.0000   0.0000   0.0000   0.0000   0.0000   0.0000   0.0000   0.0000
     0.0000   0.0000   0.0000   0.0000   0.0000   0.0000   0.0000   0.0000
     0.0000   0.0000   0.0000   0.0000   0.0000   0.0000   0.0000   0.0000
     0.0000   0.0000   0.0000   0.0000   0.0000   0.0000   0.0000   0.0000
     0.0000   0.0000   0.0000   0.0000   0.0000   0.0000   0.0000   0.0000
     0.0000   0.0000   0.0000   0.0000   0.0000   0.0000   0.0000   0.0000
     0.0000   0.0000   0.0000   0.0000   0.0000   0.0000   0.0000   0.0000
     0.0000   0.0000   0.0000   0.0000   0.0000   0.0000   0.0000   0.0000
     0.0000   0.0000   0.0000   0.0000   0.0000   0.0000   0.0000   0.0000
     0.0000   0.0000   0.0000   0.0000   0.0000   0.0000   0.0000   0.0000
     0.0000   0.0000   0.0000   0.0000   0.0000   0.0000   0.0000   0.0000
     0.0000   0.0000   0.0000   0.0000   0.0000   0.0000   0.0000   0.0000
     0.0000   0.0000   0.0000   0.0000   0.0000   0.0000   0.0000   0.0000
     0.0000   0.0000   0.0000   0.0000   0.0000   0.0000   0.0000   0.0000
     0.0000   0.0000   0.0000   0.0000   0.0000   0.0000   0.0000   0.0000
     0.0000   0.0000   0.0000   0.0000   0.0000   0.0000   0.0000   0.0000
     0.0000   0.0000   0.0000   0.0000   0.0000   0.0000   0.0000   0.0000

[...]

          k = 0.3333-0.1798-0.0955 (  2621 PWs)   bands (ev):

   -94.9863 -94.9822 -94.9765 -94.9741 -55.5113 -55.5094 -55.5078 -55.5063
   -55.5009 -55.4976 -55.4954 -55.4917 -54.8704 -54.8646 -54.8586 -54.8550
   -35.2951 -35.2884 -35.2866 -35.2799  -9.4314  -9.3719  -9.1277  -9.0580
    -8.8978  -8.8468  -8.8305  -8.7748   2.9419   3.0478   3.1984   3.2348
     3.5025   3.5945   3.6233   3.7035   4.2899   4.3897   4.4470   4.6062
     4.6185   4.8149   4.8352   4.8671   5.2559   5.3573   5.7475   5.8782
     5.9186   5.9887   6.1410   6.2786   7.4328   7.4455   7.6938   7.7078
     7.9166   7.9502   7.9757   8.0069   8.0763   8.1757   8.2083   8.2845
     9.5022   9.5879   9.6464   9.6537   9.8543  10.0084  10.1179  10.1375
    16.6214  17.2310  17.3011  18.0701  18.8349  19.3076  19.3884  20.1494
    20.2393  20.5921  20.7957  20.9627  21.0767  21.1284  21.9024  22.0372
    22.2021  22.6507  22.6740  22.7637  23.1219  23.3142  23.8158  23.9999
    24.4418  24.5822  24.6940  24.6957  26.6468  26.8078  27.1864  27.3270
    28.1008  28.4046  28.5944  29.5122  30.8851  31.7979  31.8800  32.3324
    33.2761  33.4050  33.8665  34.1186  34.4416  34.9445  35.0447  36.0516
    36.4287  36.7524  37.3686  37.8266  37.8413  38.4641  38.5039  38.9993
    39.3524  39.6025  39.8207  40.2885  40.3660  40.7837  40.8349  40.9170
    41.7791  42.1453  42.3720  42.4018  42.9519  42.9952  43.4090  43.4704
    43.8800  44.0901  44.3231  44.3318  44.9448  45.0414  45.5970  45.6603
    46.0040  46.4241  46.6466  46.9553  47.0769  47.2785  47.5139  47.7934
    48.0889  48.4182  48.7999  49.1249  49.2279  49.4069  49.8158  49.8951
    50.2069  50.3724  51.1703  51.1742  51.3631  51.5565  51.9310  52.0652
    52.3965  52.6279  52.7982  53.1282  53.3869  53.6076  53.7133  54.0719
    54.2158  54.6361  54.8356  55.3426  55.4416  55.7410  55.8888  56.0638
    56.5571  56.6919  57.0087  57.0419  57.4532  57.7937  58.2842  58.6720
    58.8935  59.0807  59.4245  59.7814  60.0727  60.5877  60.7839  61.3281
    61.4242  61.6833  61.7968  61.9430  62.2016  62.4680  62.7327  62.9212
    63.0842  63.4817  63.6725  63.9881  64.2913  64.4731  64.6825  64.9206
    64.9969  65.3601  65.4923  65.8383  66.0793  66.1881  66.4915  66.7147
    66.9233  67.2339  67.2525  67.6361  67.6782  68.0211  68.2530  68.4023
    68.5348  68.7974  68.9612  69.2843  69.5328  69.6897  69.8354  69.8865
    70.1857  70.4042  70.6093  71.0460  71.1666  71.4035  71.4143  72.0187

     occupation numbers
     1.0000   1.0000   1.0000   1.0000   1.0000   1.0000   1.0000   1.0000
     1.0000   1.0000   1.0000   1.0000   1.0000   1.0000   1.0000   1.0000
     1.0000   1.0000   1.0000   1.0000   1.0000   1.0000   1.0000   1.0000
     1.0000   1.0000   1.0000   1.0000   1.0000   1.0000   1.0000   1.0000
     1.0000   1.0000   1.0000   1.0000   1.0000   1.0000   1.0000   1.0000
     1.0000   1.0000   1.0000   1.0000   1.0000   1.0000   1.0000   1.0000
     1.0000   1.0000   1.0000   1.0000   1.0000   1.0000   1.0000   1.0000
     1.0000   1.0000   1.0000   1.0000   1.0000   1.0000   1.0000   1.0000
     1.0000   1.0000   0.0000   0.0000   0.0000   0.0000   0.0000   0.0000
     0.0000   0.0000   0.0000   0.0000   0.0000   0.0000   0.0000   0.0000
     0.0000   0.0000   0.0000   0.0000   0.0000   0.0000   0.0000   0.0000
     0.0000   0.0000   0.0000   0.0000   0.0000   0.0000   0.0000   0.0000
     0.0000   0.0000   0.0000   0.0000   0.0000   0.0000   0.0000   0.0000
     0.0000   0.0000   0.0000   0.0000   0.0000   0.0000   0.0000   0.0000
     0.0000   0.0000   0.0000   0.0000   0.0000   0.0000   0.0000   0.0000
     0.0000   0.0000   0.0000   0.0000   0.0000   0.0000   0.0000   0.0000
     0.0000   0.0000   0.0000   0.0000   0.0000   0.0000   0.0000   0.0000
     0.0000   0.0000   0.0000   0.0000   0.0000   0.0000   0.0000   0.0000
     0.0000   0.0000   0.0000   0.0000   0.0000   0.0000   0.0000   0.0000
     0.0000   0.0000   0.0000   0.0000   0.0000   0.0000   0.0000   0.0000
     0.0000   0.0000   0.0000   0.0000   0.0000   0.0000   0.0000   0.0000
     0.0000   0.0000   0.0000   0.0000   0.0000   0.0000   0.0000   0.0000
     0.0000   0.0000   0.0000   0.0000   0.0000   0.0000   0.0000   0.0000
     0.0000   0.0000   0.0000   0.0000   0.0000   0.0000   0.0000   0.0000
     0.0000   0.0000   0.0000   0.0000   0.0000   0.0000   0.0000   0.0000
     0.0000   0.0000   0.0000   0.0000   0.0000   0.0000   0.0000   0.0000
     0.0000   0.0000   0.0000   0.0000   0.0000   0.0000   0.0000   0.0000
     0.0000   0.0000   0.0000   0.0000   0.0000   0.0000   0.0000   0.0000
     0.0000   0.0000   0.0000   0.0000   0.0000   0.0000   0.0000   0.0000
     0.0000   0.0000   0.0000   0.0000   0.0000   0.0000   0.0000   0.0000
     0.0000   0.0000   0.0000   0.0000   0.0000   0.0000   0.0000   0.0000
     0.0000   0.0000   0.0000   0.0000   0.0000   0.0000   0.0000   0.0000

     highest occupied, lowest unoccupied level (ev):     9.8376    9.3883

!    total energy              =   -1763.47989544 Ry
     estimated scf accuracy    <       0.00000072 Ry

     The total energy is the sum of the following terms:
     one-electron contribution =   -1295.91825362 Ry
     hartree contribution      =     707.49481227 Ry
     xc contribution           =    -214.86254696 Ry
     ewald contribution        =    -883.96758745 Ry
     one-center paw contrib.   =     -76.22631969 Ry
      -> PAW hartree energy AE =       0.00000000 Ry
      -> PAW hartree energy PS =       0.00000000 Ry
      -> PAW xc energy AE      =       0.00000000 Ry
      -> PAW xc energy PS      =       0.00000000 Ry
      -> total E_H with PAW    =     707.49481227 Ry
      -> total E_XC with PAW   =    -214.86254696 Ry

     convergence has been achieved in 345 iterations

     Writing all to output data dir bands_nm/myprefix.save/

     General routines

     Parallel routines

     PAW routines

   This run was terminated on:   4:51:37  17Jul2023

   JOB DONE.