     Program PWSCF v.7.1 starts on 15Jul2023 at 20:37:47

     Reading input from espresso_1302.pwi
Warning: card &CELL ignored
Warning: card / ignored

     Current dimensions of program PWSCF are:
     Max number of different atomic species (ntypx) = 10
     Max number of k-points (npk) =  40000
     Max angular momentum in pseudopotentials (lmaxx) =  4
     file Ba.pbe-spn-kjpaw_psl.1.0.0.UPF: wavefunction(s)  5S 6S renormalized

     K-points division:     npool     =       2
     R & G space division:  proc/nbgrp/npool/nimage =       4
     Subspace diagonalization in iterative solution of the eigenvalue problem:
     one sub-group per band group will be used

     Using Slab Decomposition

     bravais-lattice index     =            0
     lattice parameter (alat)  =       8.3229  a.u.
     unit-cell volume          =    2049.1875 (a.u.)^3
     number of atoms/cell      =           17
     number of atomic types    =            3
     number of electrons       =       144.00
     number of Kohn-Sham states=          256
     kinetic-energy cutoff     =      30.0000  Ry
     charge density cutoff     =     240.0000  Ry
     scf convergence threshold =      1.0E-06
     mixing beta               =       0.7000
     number of iterations used =            8  plain     mixing
     Exchange-correlation=  SLA  PW   PBX  PBC
                           (   1   4   3   4   0   0   0)

     celldm(1)=   8.322860  celldm(2)=   0.000000  celldm(3)=   0.000000
     celldm(4)=   0.000000  celldm(5)=   0.000000  celldm(6)=   0.000000

     crystal axes: (cart. coord. in units of alat)
               a(1) = (   1.000000   0.000000   0.000000 )
               a(2) = (  -0.491824   0.883401   0.000000 )
               a(3) = (  -0.353990  -0.310824   4.023518 )

     reciprocal axes: (cart. coord. in units 2 pi/alat)
               b(1) = (  1.000000  0.556739  0.130989 )
               b(2) = (  0.000000  1.131989  0.087448 )
               b(3) = (  0.000000  0.000000  0.248539 )

     PseudoPot. # 1 for Ba read from file:
     /lustre07/scratch/pragov/crystal_structure_design/utils/SSSP/Ba.pbe-spn-kjpaw_psl.1.0.0.UPF
     MD5 check sum: c432291d3e53af55f19d5e8866385beb
     Pseudo is Projector augmented-wave + core cor, Zval = 10.0
     Generated using "atomic" code by A. Dal Corso  v.5.1
     Shape of augmentation charge: PSQ
     Using radial grid of 1251 points,  7 beta functions with:
                l(1) =   0
                l(2) =   0
                l(3) =   0
                l(4) =   1
                l(5) =   1
                l(6) =   2
                l(7) =   2
     Q(r) pseudized with 0 coefficients

     PseudoPot. # 2 for Bi read from file:
     /lustre07/scratch/pragov/crystal_structure_design/utils/SSSP/Bi_pbe_v1.uspp.F.UPF
     MD5 check sum: cceb9f28ec65b6d7ff33140f5b0b1758
     Pseudo is Ultrasoft + core correction, Zval = 15.0
     Generated by new atomic code, or converted to UPF format
     Using radial grid of  899 points,  6 beta functions with:
                l(1) =   0
                l(2) =   0
                l(3) =   1
                l(4) =   1
                l(5) =   2
                l(6) =   2
     Q(r) pseudized with  6 coefficients,  rinner =    1.000   1.000   1.000
                                                       1.000   1.000

     PseudoPot. # 3 for F  read from file:
     /lustre07/scratch/pragov/crystal_structure_design/utils/SSSP/f_pbe_v1.4.uspp.F.UPF
     MD5 check sum: 4c38b6a325caf53ec0e86aed9459de46
     Pseudo is Ultrasoft, Zval =  7.0
     Generated by new atomic code, or converted to UPF format
     Using radial grid of  799 points,  4 beta functions with:
                l(1) =   0
                l(2) =   0
                l(3) =   1
                l(4) =   1
     Q(r) pseudized with  8 coefficients,  rinner =    0.950   0.950   0.950

     atomic species   valence    mass     pseudopotential
        Ba            10.00   137.32700     Ba( 1.00)
        Bi            15.00   208.98040     Bi( 1.00)
        F              7.00    18.99840     F ( 1.00)

     No symmetry found

                                    s                        frac. trans.

      isym =  1     identity

 cryst.   s( 1) = (     1          0          0      )
                  (     0          1          0      )
                  (     0          0          1      )

 cart.    s( 1) = (  1.0000000  0.0000000  0.0000000 )
                  (  0.0000000  1.0000000  0.0000000 )
                  (  0.0000000  0.0000000  1.0000000 )

   Cartesian axes

     site n.     atom                  positions (alat units)
         1           Ba  tau(   1) = (  -0.3985533   0.8686965   0.0232640  )
         2           Ba  tau(   2) = (   0.6236404   0.2911731   0.8518351  )
         3           Ba  tau(   3) = (   0.1144874   0.5913571   1.6765195  )
         4           Bi  tau(   4) = (   0.0732389   0.0811131   2.4978242  )
         5           Bi  tau(   5) = (  -0.2634731   0.3843782   3.3041694  )
         6           F   tau(   6) = (   0.5999113   0.2804940   0.2521257  )
         7           F   tau(   7) = (   0.1162628  -0.0083935   0.6499551  )
         8           F   tau(   8) = (   0.1263842   0.5910019   1.0649810  )
         9           F   tau(   9) = (  -0.4364795   0.2235716   2.5201869  )
        10           F   tau(  10) = (   0.6134842   0.2940734   1.4803328  )
        11           F   tau(  11) = (   0.0990130  -0.0007055   1.9234227  )
        12           F   tau(  12) = (   0.0754585   0.5250081   2.2646895  )
        13           F   tau(  13) = (   0.2195914   0.4874166   3.4298279  )
        14           F   tau(  14) = (   0.0404801   0.4369340   2.8427805  )
        15           F   tau(  15) = (   0.0680375  -0.1141951   3.0063164  )
        16           F   tau(  16) = (   0.2249730  -0.1035254   3.5876101  )
        17           F   tau(  17) = (  -0.2617562   0.2434914   3.8299466  )

   Crystallographic axes

     site n.     atom                  positions (cryst. coord.)
         1           Ba  tau(   1) = (  0.0881310  0.9853890  0.0057820  )
         2           Ba  tau(   2) = (  0.8973290  0.4040960  0.2117140  )
         3           Ba  tau(   3) = (  0.6633250  0.8160180  0.4166800  )
         4           Bi  tau(   4) = (  0.4455860  0.3102490  0.6208060  )
         5           Bi  tau(   5) = (  0.3833360  0.7240550  0.8212140  )
         6           F   tau(   6) = (  0.7890990  0.3395640  0.0626630  )
         7           F   tau(   7) = (  0.1967270  0.0473360  0.1615390  )
         8           F   tau(   8) = (  0.5949190  0.7621380  0.2646890  )
         9           F   tau(   9) = (  0.0181090  0.4734660  0.6263640  )
        10           F   tau(  10) = (  0.9711140  0.4623400  0.3679200  )
        11           F   tau(  11) = (  0.3505680  0.1674010  0.4780450  )
        12           F   tau(  12) = (  0.6644010  0.7923460  0.5628630  )
        13           F   tau(  13) = (  0.9402260  0.8516820  0.8524450  )
        14           F   tau(  14) = (  0.6561120  0.7432000  0.7065410  )
        15           F   tau(  15) = (  0.3982560  0.1336290  0.7471860  )
        16           F   tau(  16) = (  0.6372750  0.1965400  0.8916600  )
        17           F   tau(  17) = (  0.3754870  0.6105510  0.9518900  )

     number of k points=    14
                       cart. coord. in units 2pi/alat
        k(    1) = (   0.0000000   0.0000000   0.0000000), wk =   0.0740741
        k(    2) = (   0.0000000   0.0000000   0.0828462), wk =   0.1481481
        k(    3) = (   0.0000000   0.3773296   0.0291494), wk =   0.1481481
        k(    4) = (   0.0000000   0.3773296   0.1119956), wk =   0.1481481
        k(    5) = (   0.0000000   0.3773296  -0.0536969), wk =   0.1481481
        k(    6) = (   0.3333333   0.1855796   0.0436631), wk =   0.1481481
        k(    7) = (   0.3333333   0.1855796   0.1265093), wk =   0.1481481
        k(    8) = (   0.3333333   0.1855796  -0.0391831), wk =   0.1481481
        k(    9) = (   0.3333333   0.5629092   0.0728125), wk =   0.1481481
        k(   10) = (   0.3333333   0.5629092   0.1556587), wk =   0.1481481
        k(   11) = (   0.3333333   0.5629092  -0.0100338), wk =   0.1481481
        k(   12) = (   0.3333333  -0.1917500   0.0145137), wk =   0.1481481
        k(   13) = (   0.3333333  -0.1917500   0.0973600), wk =   0.1481481
        k(   14) = (   0.3333333  -0.1917500  -0.0683325), wk =   0.1481481

                       cryst. coord.
        k(    1) = (   0.0000000   0.0000000   0.0000000), wk =   0.0740741
        k(    2) = (   0.0000000   0.0000000   0.3333333), wk =   0.1481481
        k(    3) = (   0.0000000   0.3333333   0.0000000), wk =   0.1481481
        k(    4) = (   0.0000000   0.3333333   0.3333333), wk =   0.1481481
        k(    5) = (   0.0000000   0.3333333  -0.3333333), wk =   0.1481481
        k(    6) = (   0.3333333  -0.0000000  -0.0000000), wk =   0.1481481
        k(    7) = (   0.3333333  -0.0000000   0.3333333), wk =   0.1481481
        k(    8) = (   0.3333333  -0.0000000  -0.3333333), wk =   0.1481481
        k(    9) = (   0.3333333   0.3333333   0.0000000), wk =   0.1481481
        k(   10) = (   0.3333333   0.3333333   0.3333333), wk =   0.1481481
        k(   11) = (   0.3333333   0.3333333  -0.3333333), wk =   0.1481481
        k(   12) = (   0.3333333  -0.3333333  -0.0000000), wk =   0.1481481
        k(   13) = (   0.3333333  -0.3333333   0.3333333), wk =   0.1481481
        k(   14) = (   0.3333333  -0.3333333  -0.3333333), wk =   0.1481481

     Check: negative core charge=   -0.000003

     Initial potential from superposition of free atoms

     starting charge     141.9489, renormalised to     144.0000

     negative rho (up, down):  8.449E-02 0.000E+00
     Starting wfcs are   81 randomized atomic wfcs +  175 random wfcs
     Checking if some PAW data can be deallocated...

     Self-consistent Calculation

     iteration #  1     ecut=    30.00 Ry     beta= 0.70
     Davidson diagonalization with overlap

     ethr =  1.00E-02,  avg # of iterations =  8.6

     negative rho (up, down):  4.063E-01 0.000E+00

     total energy              =   -2069.04967871 Ry
     estimated scf accuracy    <     226.65900135 Ry

[...]

     total energy              =   -2264.34590065 Ry
     estimated scf accuracy    <       0.00000870 Ry

     iteration # 22     ecut=    30.00 Ry     beta= 0.70
     Davidson diagonalization with overlap

     ethr =  6.04E-09,  avg # of iterations =  2.0

     negative rho (up, down):  7.983E-02 0.000E+00

     End of self-consistent calculation

          k = 0.0000 0.0000 0.0000 (  5727 PWs)   bands (ev):

   -19.8297 -19.6350 -19.5555 -17.7318 -17.5703 -17.3728 -17.2825 -17.1785
   -17.1156 -16.9275 -16.9141 -16.8615 -16.8495 -16.7957 -16.5120 -16.0427
   -15.7285 -15.6655 -15.6469 -15.5773 -15.5525 -15.4664 -15.4130 -15.3233
   -15.2508  -4.8811  -4.8632  -4.8498  -4.6688  -4.6628  -4.6427  -4.6214
    -4.5880  -4.5734  -4.0046  -3.2074  -0.0198   0.0416   0.7556   1.0223
     1.2071   1.5707   1.7209   1.8405   1.9974   2.1032   2.1238   2.1557
     2.2155   2.2552   2.3041   2.3789   2.4280   2.4896   2.5442   2.5954
     2.7082   2.8075   2.8822   2.9653   3.0117   3.0397   3.1029   3.1237
     3.1945   3.3344   3.3528   3.3658   3.4318   3.4838   3.6534   3.7303
     9.4447  10.1466  10.5374  10.5999  10.8925  11.0637  11.5748  11.8233
    12.2673  12.3670  12.4353  12.4652  12.5521  12.6405  12.8075  13.6015
    13.8836  14.2174  14.2408  14.3892  14.4655  14.5414  14.6247  14.7359
    14.9445  16.3774  16.8840  17.0265  17.6548  17.8535  18.0760  18.5165
    18.6747  19.0347  19.1252  19.2674  19.5627  19.8027  20.0316  20.1492
    20.2832  20.3366  20.8335  21.0003  21.4364  21.7474  21.8798  22.1377
    22.3579  22.7063  22.8701  23.2500  23.9153  24.0265  24.1493  24.3422
    24.5144  24.6914  24.7981  24.8842  25.2359  25.4768  25.5915  25.9827
    26.3023  26.3465  26.4187  26.5700  26.7251  26.7630  26.8654  27.0446
    27.1504  27.2662  27.3116  27.4439  27.5171  27.5300  27.5972  27.6791
    27.7217  27.8147  27.8412  27.9364  28.1184  28.1476  28.1755  28.5666
    28.6360  28.8142  28.9694  29.0519  29.2758  29.5059  29.5939  29.8001
    30.0980  30.3596  30.7255  30.9383  31.3368  31.8453  31.8871  31.9755
    31.9978  32.2382  32.2781  32.8343  33.0141  33.1533  33.3809  33.6823
    33.7022  33.8411  33.9822  34.0840  34.2495  34.3010  34.5053  34.6461
    34.7518  34.8683  35.0936  35.2933  35.3621  35.4664  35.5883  35.6554
    35.8012  36.0756  36.2106  36.3188  36.3639  36.4089  36.6429  36.7692
    37.0409  37.1487  37.2679  37.4953  37.5598  37.6616  37.7126  38.0352
    38.0689  38.1152  38.3309  38.4782  38.5226  38.5715  38.8777  39.0358
    39.0934  39.1947  39.3262  39.3688  39.5921  39.7172  39.8259  39.9263
    40.0045  40.0427  40.2444  40.3312  40.5196  40.5564  40.8943  41.0696
    41.2453  41.3524  41.4926  41.5538  41.7709  41.9057  41.9858  42.0621
    42.1517  42.3245  42.4021  42.5457  42.5882  42.7026  42.8518  42.9875

     occupation numbers
     1.0000   1.0000   1.0000   1.0000   1.0000   1.0000   1.0000   1.0000
     1.0000   1.0000   1.0000   1.0000   1.0000   1.0000   1.0000   1.0000
     1.0000   1.0000   1.0000   1.0000   1.0000   1.0000   1.0000   1.0000
     1.0000   1.0000   1.0000   1.0000   1.0000   1.0000   1.0000   1.0000
     1.0000   1.0000   1.0000   1.0000   1.0000   1.0000   1.0000   1.0000
     1.0000   1.0000   1.0000   1.0000   1.0000   1.0000   1.0000   1.0000
     1.0000   1.0000   1.0000   1.0000   1.0000   1.0000   1.0000   1.0000
     1.0000   1.0000   1.0000   1.0000   1.0000   1.0000   1.0000   1.0000
     1.0000   1.0000   1.0000   1.0000   1.0000   1.0000   1.0000   1.0000
     0.0000   0.0000   0.0000   0.0000   0.0000   0.0000   0.0000   0.0000
     0.0000   0.0000   0.0000   0.0000   0.0000   0.0000   0.0000   0.0000
     0.0000   0.0000   0.0000   0.0000   0.0000   0.0000   0.0000   0.0000
     0.0000   0.0000   0.0000   0.0000   0.0000   0.0000   0.0000   0.0000
     0.0000   0.0000   0.0000   0.0000   0.0000   0.0000   0.0000   0.0000
     0.0000   0.0000   0.0000   0.0000   0.0000   0.0000   0.0000   0.0000
     0.0000   0.0000   0.0000   0.0000   0.0000   0.0000   0.0000   0.0000
     0.0000   0.0000   0.0000   0.0000   0.0000   0.0000   0.0000   0.0000
     0.0000   0.0000   0.0000   0.0000   0.0000   0.0000   0.0000   0.0000
     0.0000   0.0000   0.0000   0.0000   0.0000   0.0000   0.0000   0.0000
     0.0000   0.0000   0.0000   0.0000   0.0000   0.0000   0.0000   0.0000
     0.0000   0.0000   0.0000   0.0000   0.0000   0.0000   0.0000   0.0000
     0.0000   0.0000   0.0000   0.0000   0.0000   0.0000   0.0000   0.0000
     0.0000   0.0000   0.0000   0.0000   0.0000   0.0000   0.0000   0.0000
     0.0000   0.0000   0.0000   0.0000   0.0000   0.0000   0.0000   0.0000
     0.0000   0.0000   0.0000   0.0000   0.0000   0.0000   0.0000   0.0000
     0.0000   0.0000   0.0000   0.0000   0.0000   0.0000   0.0000   0.0000
     0.0000   0.0000   0.0000   0.0000   0.0000   0.0000   0.0000   0.0000
     0.0000   0.0000   0.0000   0.0000   0.0000   0.0000   0.0000   0.0000
     0.0000   0.0000   0.0000   0.0000   0.0000   0.0000   0.0000   0.0000
     0.0000   0.0000   0.0000   0.0000   0.0000   0.0000   0.0000   0.0000
     0.0000   0.0000   0.0000   0.0000   0.0000   0.0000   0.0000   0.0000
     0.0000   0.0000   0.0000   0.0000   0.0000   0.0000   0.0000   0.0000

[...]

          k = 0.3333-0.1917-0.0683 (  5681 PWs)   bands (ev):

   -19.7463 -19.5363 -19.4895 -17.5092 -17.4146 -17.3706 -17.3025 -17.1925
   -17.1084 -16.9296 -16.9066 -16.8906 -16.8421 -16.6249 -16.4112 -16.0050
   -15.9397 -15.8309 -15.7927 -15.7398 -15.6316 -15.5668 -15.4845 -15.3891
   -15.3186  -5.0168  -4.9869  -4.8859  -4.8093  -4.7868  -4.7397  -4.7071
    -4.6853  -4.5635  -4.5245  -4.2721   0.5032   0.7501   1.0388   1.3352
     1.3683   1.6339   1.7051   1.8173   1.9000   2.1294   2.1950   2.2952
     2.3583   2.4678   2.5267   2.5545   2.6366   2.6878   2.7438   2.8070
     2.8772   2.9229   2.9563   2.9991   3.0557   3.0857   3.1672   3.1959
     3.2443   3.3070   3.3769   3.3903   3.4727   3.5513   3.7598   3.8479
     9.3134   9.7025  10.0627  10.5398  10.9328  11.0861  11.3156  11.4183
    12.1268  12.5273  12.5724  12.7361  12.9867  13.1255  13.4093  13.5275
    13.6512  14.2389  14.4580  14.6639  14.7075  14.8373  14.8667  15.5952
    16.1198  16.5779  16.9619  17.1828  17.4578  17.8238  18.2023  18.5053
    18.6852  18.9258  19.2406  19.4142  19.6746  19.9079  20.0999  20.3963
    20.5499  20.7776  20.8837  21.0479  21.2021  21.3474  21.6584  21.9167
    22.1106  22.3301  22.4647  22.6046  22.8941  23.1454  23.3061  23.5594
    23.7460  23.8610  24.1351  24.3088  24.5398  24.7094  24.8416  24.9874
    25.2723  25.6335  25.7269  26.1285  26.2831  26.3963  26.5711  26.6819
    26.7054  26.8329  27.0266  27.1019  27.2794  27.4559  27.5409  27.6089
    27.7724  27.8569  28.0448  28.1438  28.3765  28.4965  28.6812  28.9218
    28.9976  29.1797  29.3213  29.3962  29.5895  29.6879  30.1211  30.2074
    30.3637  30.5589  30.8151  30.8909  31.1510  31.4095  31.5416  31.7189
    31.8983  31.9883  32.0470  32.4092  32.5031  32.6065  32.7808  33.1778
    33.3098  33.4958  33.5457  33.7124  33.8576  33.9575  34.1917  34.2487
    34.3847  34.4885  34.6487  34.7962  34.8796  35.0303  35.2165  35.3474
    35.6289  35.7247  35.7574  36.0844  36.2054  36.3512  36.5167  36.6354
    36.7957  36.9105  36.9963  37.1614  37.3036  37.4369  37.5380  37.6479
    37.7104  38.0261  38.1201  38.2245  38.4754  38.5435  38.7565  38.8068
    39.0132  39.0582  39.1584  39.3242  39.4720  39.5866  39.6848  39.8488
    39.9894  40.1233  40.3005  40.4189  40.6277  40.8632  41.0285  41.1549
    41.3590  41.3966  41.6748  41.7412  41.9737  42.0580  42.2695  42.4956
    42.6834  42.8151  42.9225  43.1344  43.3585  43.4275  43.5492  43.7235

     occupation numbers
     1.0000   1.0000   1.0000   1.0000   1.0000   1.0000   1.0000   1.0000
     1.0000   1.0000   1.0000   1.0000   1.0000   1.0000   1.0000   1.0000
     1.0000   1.0000   1.0000   1.0000   1.0000   1.0000   1.0000   1.0000
     1.0000   1.0000   1.0000   1.0000   1.0000   1.0000   1.0000   1.0000
     1.0000   1.0000   1.0000   1.0000   1.0000   1.0000   1.0000   1.0000
     1.0000   1.0000   1.0000   1.0000   1.0000   1.0000   1.0000   1.0000
     1.0000   1.0000   1.0000   1.0000   1.0000   1.0000   1.0000   1.0000
     1.0000   1.0000   1.0000   1.0000   1.0000   1.0000   1.0000   1.0000
     1.0000   1.0000   1.0000   1.0000   1.0000   1.0000   1.0000   1.0000
     0.0000   0.0000   0.0000   0.0000   0.0000   0.0000   0.0000   0.0000
     0.0000   0.0000   0.0000   0.0000   0.0000   0.0000   0.0000   0.0000
     0.0000   0.0000   0.0000   0.0000   0.0000   0.0000   0.0000   0.0000
     0.0000   0.0000   0.0000   0.0000   0.0000   0.0000   0.0000   0.0000
     0.0000   0.0000   0.0000   0.0000   0.0000   0.0000   0.0000   0.0000
     0.0000   0.0000   0.0000   0.0000   0.0000   0.0000   0.0000   0.0000
     0.0000   0.0000   0.0000   0.0000   0.0000   0.0000   0.0000   0.0000
     0.0000   0.0000   0.0000   0.0000   0.0000   0.0000   0.0000   0.0000
     0.0000   0.0000   0.0000   0.0000   0.0000   0.0000   0.0000   0.0000
     0.0000   0.0000   0.0000   0.0000   0.0000   0.0000   0.0000   0.0000
     0.0000   0.0000   0.0000   0.0000   0.0000   0.0000   0.0000   0.0000
     0.0000   0.0000   0.0000   0.0000   0.0000   0.0000   0.0000   0.0000
     0.0000   0.0000   0.0000   0.0000   0.0000   0.0000   0.0000   0.0000
     0.0000   0.0000   0.0000   0.0000   0.0000   0.0000   0.0000   0.0000
     0.0000   0.0000   0.0000   0.0000   0.0000   0.0000   0.0000   0.0000
     0.0000   0.0000   0.0000   0.0000   0.0000   0.0000   0.0000   0.0000
     0.0000   0.0000   0.0000   0.0000   0.0000   0.0000   0.0000   0.0000
     0.0000   0.0000   0.0000   0.0000   0.0000   0.0000   0.0000   0.0000
     0.0000   0.0000   0.0000   0.0000   0.0000   0.0000   0.0000   0.0000
     0.0000   0.0000   0.0000   0.0000   0.0000   0.0000   0.0000   0.0000
     0.0000   0.0000   0.0000   0.0000   0.0000   0.0000   0.0000   0.0000
     0.0000   0.0000   0.0000   0.0000   0.0000   0.0000   0.0000   0.0000
     0.0000   0.0000   0.0000   0.0000   0.0000   0.0000   0.0000   0.0000

     highest occupied, lowest unoccupied level (ev):     3.8930    9.3132

!    total energy              =   -2264.34590217 Ry
     estimated scf accuracy    <       0.00000099 Ry

     The total energy is the sum of the following terms:
     one-electron contribution =    -710.43637816 Ry
     hartree contribution      =     445.22032853 Ry
     xc contribution           =    -302.91752726 Ry
     ewald contribution        =    -571.34328771 Ry
     one-center paw contrib.   =   -1124.86903756 Ry
      -> PAW hartree energy AE =      85.88908381 Ry
      -> PAW hartree energy PS =     -85.54709751 Ry
      -> PAW xc energy AE      =   -1182.66067453 Ry
      -> PAW xc energy PS      =      57.44965066 Ry
      -> total E_H with PAW    =     445.56231483 Ry
      -> total E_XC with PAW   =   -1428.12855113 Ry

     convergence has been achieved in  22 iterations

     Writing all to output data dir bands_nm/myprefix.save/

     General routines

     Parallel routines

     PAW routines

   This run was terminated on:  20:41: 1  15Jul2023

   JOB DONE.