     Program PWSCF v.7.1 starts on 15Jul2023 at 22:10: 3

     Reading input from espresso_20771.pwi
Warning: card &CELL ignored
Warning: card / ignored

     Current dimensions of program PWSCF are:
     Max number of different atomic species (ntypx) = 10
     Max number of k-points (npk) =  40000
     Max angular momentum in pseudopotentials (lmaxx) =  4
     file O.pbe-n-kjpaw_psl.0.1.UPF: wavefunction(s)  2P renormalized
     Message from routine setup:
     using ibrav=0 with symmetry is DISCOURAGED, use correct ibrav instead

     K-points division:     npool     =       2
     R & G space division:  proc/nbgrp/npool/nimage =       4
     Subspace diagonalization in iterative solution of the eigenvalue problem:
     one sub-group per band group will be used

     Using Slab Decomposition

     bravais-lattice index     =            0
     lattice parameter (alat)  =      10.7958  a.u.
     unit-cell volume          =    1692.2607 (a.u.)^3
     number of atoms/cell      =           20
     number of atomic types    =            4
     number of electrons       =       160.00
     number of Kohn-Sham states=          256
     kinetic-energy cutoff     =      30.0000  Ry
     charge density cutoff     =     240.0000  Ry
     scf convergence threshold =      1.0E-06
     mixing beta               =       0.7000
     number of iterations used =            8  plain     mixing
     Exchange-correlation= SLA  PW   PBX  PBC
                           (   1   4   3   4   0   0   0)

     celldm(1)=  10.795849  celldm(2)=   0.000000  celldm(3)=   0.000000
     celldm(4)=   0.000000  celldm(5)=   0.000000  celldm(6)=   0.000000

     crystal axes: (cart. coord. in units of alat)
               a(1) = (   1.000000   0.000000   0.000000 )
               a(2) = (   0.000000   0.968585   0.000000 )
               a(3) = (   0.000000   0.969559   1.388543 )

     reciprocal axes: (cart. coord. in units 2 pi/alat)
               b(1) = (  1.000000  0.000000  0.000000 )
               b(2) = (  0.000000  1.032434 -0.720904 )
               b(3) = (  0.000000  0.000000  0.720180 )

     PseudoPot. # 1 for Ca read from file:
     /lustre07/scratch/pragov/crystal_structure_design/utils/SSSP/Ca_pbe_v1.uspp.F.UPF
     MD5 check sum: 403a4c14b9e4d4dfdc3024c9a3812218
     Pseudo is Ultrasoft + core correction, Zval = 10.0
     Generated by new atomic code, or converted to UPF format
     Using radial grid of  845 points,  6 beta functions with:
                l(1) =   0
                l(2) =   0
                l(3) =   1
                l(4) =   1
                l(5) =   2
                l(6) =   2
     Q(r) pseudized with  8 coefficients,  rinner =    1.500   1.500   1.500
                                                       1.500   1.500

     PseudoPot. # 2 for Sc read from file:
     /lustre07/scratch/pragov/crystal_structure_design/utils/SSSP/Sc_ONCV_PBE-1.0.oncvpsp.upf
     MD5 check sum: e21af8023abb52e52cb7cd3133e4a229
     Pseudo is Norm-conserving, Zval = 11.0
     Generated using ONCVPSP code by D. R. Hamann
     Using radial grid of 1662 points,  6 beta functions with:
                l(1) =   0
                l(2) =   0
                l(3) =   1
                l(4) =   1
                l(5) =   2
                l(6) =   2

     PseudoPot. # 3 for Ta read from file:
     /lustre07/scratch/pragov/crystal_structure_design/utils/SSSP/Ta_pbe_v1.uspp.F.UPF
     MD5 check sum: f8bbe9446314a3b8ea5d9f3e3836c939
     Pseudo is Ultrasoft + core correction, Zval = 13.0
     Generated by new atomic code, or converted to UPF format
     Using radial grid of  921 points,  7 beta functions with:
                l(1) =   0
                l(2) =   0
                l(3) =   1
                l(4) =   1
                l(5) =   2
                l(6) =   2
                l(7) =   3
     Q(r) pseudized with  6 coefficients,  rinner =    1.300   1.300   1.300
                                                       1.300   1.300   1.300
                                                       1.300

     PseudoPot. # 4 for O  read from file:
     /lustre07/scratch/pragov/crystal_structure_design/utils/SSSP/O.pbe-n-kjpaw_psl.0.1.UPF
     MD5 check sum: 0234752ac141de4415c5fc33072bef88
     Pseudo is Projector augmented-wave + core cor, Zval =  6.0
     Generated using "atomic" code by A. Dal Corso  v.5.0.99 svn rev. 10869
     Shape of augmentation charge: BESSEL
     Using radial grid of 1095 points,  4 beta functions with:
                l(1) =   0
                l(2) =   0
                l(3) =   1
                l(4) =   1
     Q(r) pseudized with 0 coefficients

     atomic species   valence    mass     pseudopotential
        Ca            10.00    40.07800     Ca( 1.00)
        Sc            11.00    44.95591     Sc( 1.00)
        Ta            13.00   180.94788     Ta( 1.00)
        O              6.00    15.99900     O ( 1.00)

      4 Sym. Ops., with inversion, found ( 2 have fractional translation)

                                    s                        frac. trans.

      isym =  1     identity

 cryst.   s( 1) = (     1          0          0      )
                  (     0          1          0      )
                  (     0          0          1      )

 cart.    s( 1) = (  1.0000000  0.0000000  0.0000000 )
                  (  0.0000000  1.0000000  0.0000000 )
                  (  0.0000000  0.0000000  1.0000000 )

      isym =  2     180 deg rotation - cart. axis [1,0,0]

 cryst.   s( 2) = (     1          0          0      )    f =( -0.5000000 )
                  (     0         -1          0      )       ( -0.0000000 )
                  (     0          0         -1      )       (  0.5000000 )

 cart.    s( 2) = (  1.0000000  0.0000000  0.0000000 )    f =( -0.5000000 )
                  (  0.0000000 -1.0000000  0.0000000 )       (  0.4847796 )
                  (  0.0000000  0.0000000 -1.0000000 )       (  0.6942713 )

      isym =  3     inversion

 cryst.   s( 3) = (    -1          0          0      )
                  (     0         -1          0      )
                  (     0          0         -1      )

 cart.    s( 3) = ( -1.0000000  0.0000000  0.0000000 )
                  (  0.0000000 -1.0000000  0.0000000 )
                  (  0.0000000  0.0000000 -1.0000000 )

      isym =  4     inv. 180 deg rotation - cart. axis [1,0,0]

 cryst.   s( 4) = (    -1          0          0      )    f =(  0.5000000 )
                  (     0          1          0      )       ( -0.0000000 )
                  (     0          0          1      )       (  0.5000000 )

 cart.    s( 4) = ( -1.0000000  0.0000000  0.0000000 )    f =(  0.5000000 )
                  (  0.0000000  1.0000000  0.0000000 )       (  0.4847796 )
                  (  0.0000000  0.0000000  1.0000000 )       (  0.6942713 )

   Cartesian axes

     site n.     atom                  positions (alat units)
         1           Ca  tau(   1) = (   0.4483470   0.9565036   1.0419944  )
         2           Ca  tau(   2) = (   0.5516530   0.9816405   0.3465483  )
         3           Ca  tau(   3) = (   0.9483470   1.4664201   1.0408196  )
         4           Ca  tau(   4) = (   0.0516530   0.4717240   0.3477230  )
         5           Sc  tau(   5) = (   0.0000000   0.0000000   0.0000000  )
         6           Sc  tau(   6) = (   0.5000000   0.4847796   0.6942713  )
         7           Ta  tau(   7) = (   0.0000000   0.9690720   0.6942713  )
         8           Ta  tau(   8) = (   0.5000000   0.4842924   0.0000000  )
         9           O   tau(   9) = (   0.0329180   1.0642028   1.0314137  )
        10           O   tau(  10) = (   0.9670820   0.8739413   0.3571290  )
        11           O   tau(  11) = (   0.5329180   1.3587208   1.0514003  )
        12           O   tau(  12) = (   0.4670820   0.5794232   0.3371423  )
        13           O   tau(  13) = (   0.6967620   1.7361529   1.3187615  )
        14           O   tau(  14) = (   0.3032380   0.2019912   0.0697812  )
        15           O   tau(  15) = (   0.1967620   0.6867707   0.7640525  )
        16           O   tau(  16) = (   0.8032380   1.2513733   0.6244901  )
        17           O   tau(  17) = (   0.2103990   1.6414396   1.3143042  )
        18           O   tau(  18) = (   0.7896010   0.2967045   0.0742384  )
        19           O   tau(  19) = (   0.7103990   0.7814840   0.7685098  )
        20           O   tau(  20) = (   0.2896010   1.1566600   0.6200329  )

   Crystallographic axes

     site n.     atom                  positions (cryst. coord.)
         1           Ca  tau(   1) = (  0.4483470  0.2363490  0.7504230  )
         2           Ca  tau(   2) = (  0.5516530  0.7636510  0.2495770  )
         3           Ca  tau(   3) = (  0.9483470  0.7636510  0.7495770  )
         4           Ca  tau(   4) = (  0.0516530  0.2363490  0.2504230  )
         5           Sc  tau(   5) = (  0.0000000  0.0000000  0.0000000  )
         6           Sc  tau(   6) = (  0.5000000 -0.0000000  0.5000000  )
         7           Ta  tau(   7) = (  0.0000000  0.5000000  0.5000000  )
         8           Ta  tau(   8) = (  0.5000000  0.5000000  0.0000000  )
         9           O   tau(   9) = (  0.0329180  0.3551690  0.7428030  )
        10           O   tau(  10) = (  0.9670820  0.6448310  0.2571970  )
        11           O   tau(  11) = (  0.5329180  0.6448310  0.7571970  )
        12           O   tau(  12) = (  0.4670820  0.3551690  0.2428030  )
        13           O   tau(  13) = (  0.6967620  0.8417630  0.9497450  )
        14           O   tau(  14) = (  0.3032380  0.1582370  0.0502550  )
        15           O   tau(  15) = (  0.1967620  0.1582370  0.5502550  )
        16           O   tau(  16) = (  0.8032380  0.8417630  0.4497450  )
        17           O   tau(  17) = (  0.2103990  0.7471910  0.9465350  )
        18           O   tau(  18) = (  0.7896010  0.2528090  0.0534650  )
        19           O   tau(  19) = (  0.7103990  0.2528090  0.5534650  )
        20           O   tau(  20) = (  0.2896010  0.7471910  0.4465350  )

     number of k points=    10
                       cart. coord. in units 2pi/alat
        k(    1) = (   0.0000000   0.0000000   0.0000000), wk =   0.0740741
        k(    2) = (   0.0000000   0.0000000   0.2400598), wk =   0.1481481
        k(    3) = (   0.0000000   0.3441447  -0.2403013), wk =   0.1481481
        k(    4) = (   0.0000000   0.3441447  -0.0002415), wk =   0.1481481
        k(    5) = (   0.0000000   0.3441447  -0.4803612), wk =   0.1481481
        k(    6) = (   0.3333333   0.0000000   0.0000000), wk =   0.1481481
        k(    7) = (   0.3333333   0.0000000   0.2400598), wk =   0.2962963
        k(    8) = (   0.3333333   0.3441447  -0.2403013), wk =   0.2962963
        k(    9) = (   0.3333333   0.3441447  -0.0002415), wk =   0.2962963
        k(   10) = (   0.3333333   0.3441447  -0.4803612), wk =   0.2962963

                       cryst. coord.
        k(    1) = (   0.0000000   0.0000000   0.0000000), wk =   0.0740741
        k(    2) = (   0.0000000   0.0000000   0.3333333), wk =   0.1481481
        k(    3) = (   0.0000000   0.3333333   0.0000000), wk =   0.1481481
        k(    4) = (   0.0000000   0.3333333   0.3333333), wk =   0.1481481
        k(    5) = (   0.0000000   0.3333333  -0.3333333), wk =   0.1481481
        k(    6) = (   0.3333333   0.0000000   0.0000000), wk =   0.1481481
        k(    7) = (   0.3333333   0.0000000   0.3333333), wk =   0.2962963
        k(    8) = (   0.3333333   0.3333333   0.0000000), wk =   0.2962963
        k(    9) = (   0.3333333   0.3333333   0.3333333), wk =   0.2962963
        k(   10) = (   0.3333333   0.3333333  -0.3333333), wk =   0.2962963

     Check: negative core charge=   -0.000011

     Initial potential from superposition of free atoms

     starting charge     159.9706, renormalised to     160.0000

     negative rho (up, down):  1.873E-01 0.000E+00
     Starting wfcs are  134 randomized atomic wfcs +  122 random wfcs
     Checking if some PAW data can be deallocated...

     Self-consistent Calculation

     iteration #  1     ecut=    30.00 Ry     beta= 0.70
     Davidson diagonalization with overlap

     ethr =  1.00E-02,  avg # of iterations =  6.1

     negative rho (up, down):  1.876E-01 0.000E+00

     total energy              =   -1266.72966638 Ry
     estimated scf accuracy    <       5.41002600 Ry

[...]

     total energy              =   -1269.41942260 Ry
     estimated scf accuracy    <       0.00001332 Ry

     iteration #  9     ecut=    30.00 Ry     beta= 0.70
     Davidson diagonalization with overlap

     ethr =  8.33E-09,  avg # of iterations =  1.0

     negative rho (up, down):  1.907E-01 0.000E+00

     End of self-consistent calculation

          k = 0.0000 0.0000 0.0000 (  4679 PWs)   bands (ev):

   -58.5552 -58.5551 -38.6121 -38.6120 -29.3340 -29.3303 -29.3221 -29.3180
   -25.1097 -25.1084 -25.0951 -25.0947 -25.0761 -25.0761 -17.3348 -17.3322
   -17.3205 -17.3185 -17.3001 -17.2996 -10.7150 -10.6039 -10.6026 -10.5874
   -10.5853 -10.4874 -10.4241 -10.3910 -10.3703 -10.3659 -10.3608 -10.3572
    -8.4135  -7.7923  -7.7001  -7.5607  -7.5058  -7.4534  -7.1379  -6.9982
    -6.9669  -6.9284  -6.8100  -6.7574   4.4420   4.5195   4.6808   4.7704
     4.8543   4.9195   4.9891   5.0899   5.1483   5.1581   6.0620   6.1366
     6.1436   6.4510   6.5547   6.6072   6.6351   6.7239   6.9131   7.2893
     7.3021   7.3169   7.4163   7.5067   7.6468   7.8047   7.9512   8.0819
     8.0942   8.0954   8.1734   8.2206   8.2805   8.3645   8.4138   8.4683
    12.2490  12.3383  12.4164  12.6506  13.2911  13.5516  14.1029  14.1734
    14.3331  14.3482  14.3865  14.6384  15.0014  15.2925  15.4130  15.4584
    15.4852  15.5414  15.6475  15.8434  16.0408  16.1870  16.2534  16.2951
    16.4229  16.5499  16.5535  16.6112  16.6579  16.7390  16.8144  16.8495
    16.9147  17.0424  17.2563  17.3545  17.3667  17.3952  18.2687  18.9182
    19.3231  19.5813  19.5853  19.6930  19.9186  20.2409  20.3210  22.2650
    22.3086  22.3644  22.7452  22.7879  22.8622  23.0814  23.1805  23.3139
    23.3367  23.8279  23.9009  23.9580  24.2836  24.3201  24.4169  24.7764
    24.8181  25.3121  25.4717  25.7972  25.8965  26.3895  26.7608  26.7648
    27.5319  27.8458  27.9652  28.2322  28.5071  29.0098  29.6789  29.7967
    29.9639  30.0697  30.5011  30.6502  31.0437  31.1335  31.1987  31.3959
    31.6868  31.9626  31.9763  32.0847  32.1728  32.3400  32.5882  32.6914
    32.7912  33.3987  33.7947  33.9442  34.0849  34.3050  34.3844  34.6224
    34.7602  35.0114  35.1573  35.4311  35.5077  35.8380  36.2910  36.3512
    36.7084  37.4248  37.5001  37.5362  37.7372  37.7797  37.8426  37.8939
    38.0574  38.0624  38.3133  38.5929  38.8710  39.0482  39.0560  39.3337
    39.3620  39.4202  39.4519  39.5835  39.8155  40.2710  40.4594  40.5382
    40.6180  41.0007  41.3425  41.6890  41.8430  41.8967  41.9174  41.9216
    41.9227  42.1154  42.3673  42.4293  42.8050  42.8117  43.0193  43.3078
    43.3290  43.6327  43.7283  43.7802  43.8218  44.2482  44.3585  44.4929
    44.8236  44.8595  45.1631  45.3343  45.4144  45.4668  45.5835  45.8019
    45.8405  45.9012  46.0498  46.3012  46.4588  46.6035  46.7515  46.8114

     occupation numbers
     1.0000   1.0000   1.0000   1.0000   1.0000   1.0000   1.0000   1.0000
     1.0000   1.0000   1.0000   1.0000   1.0000   1.0000   1.0000   1.0000
     1.0000   1.0000   1.0000   1.0000   1.0000   1.0000   1.0000   1.0000
     1.0000   1.0000   1.0000   1.0000   1.0000   1.0000   1.0000   1.0000
     1.0000   1.0000   1.0000   1.0000   1.0000   1.0000   1.0000   1.0000
     1.0000   1.0000   1.0000   1.0000   1.0000   1.0000   1.0000   1.0000
     1.0000   1.0000   1.0000   1.0000   1.0000   1.0000   1.0000   1.0000
     1.0000   1.0000   1.0000   1.0000   1.0000   1.0000   1.0000   1.0000
     1.0000   1.0000   1.0000   1.0000   1.0000   1.0000   1.0000   1.0000
     1.0000   1.0000   1.0000   1.0000   1.0000   1.0000   1.0000   1.0000
     0.0000   0.0000   0.0000   0.0000   0.0000   0.0000   0.0000   0.0000
     0.0000   0.0000   0.0000   0.0000   0.0000   0.0000   0.0000   0.0000
     0.0000   0.0000   0.0000   0.0000   0.0000   0.0000   0.0000   0.0000
     0.0000   0.0000   0.0000   0.0000   0.0000   0.0000   0.0000   0.0000
     0.0000   0.0000   0.0000   0.0000   0.0000   0.0000   0.0000   0.0000
     0.0000   0.0000   0.0000   0.0000   0.0000   0.0000   0.0000   0.0000
     0.0000   0.0000   0.0000   0.0000   0.0000   0.0000   0.0000   0.0000
     0.0000   0.0000   0.0000   0.0000   0.0000   0.0000   0.0000   0.0000
     0.0000   0.0000   0.0000   0.0000   0.0000   0.0000   0.0000   0.0000
     0.0000   0.0000   0.0000   0.0000   0.0000   0.0000   0.0000   0.0000
     0.0000   0.0000   0.0000   0.0000   0.0000   0.0000   0.0000   0.0000
     0.0000   0.0000   0.0000   0.0000   0.0000   0.0000   0.0000   0.0000
     0.0000   0.0000   0.0000   0.0000   0.0000   0.0000   0.0000   0.0000
     0.0000   0.0000   0.0000   0.0000   0.0000   0.0000   0.0000   0.0000
     0.0000   0.0000   0.0000   0.0000   0.0000   0.0000   0.0000   0.0000
     0.0000   0.0000   0.0000   0.0000   0.0000   0.0000   0.0000   0.0000
     0.0000   0.0000   0.0000   0.0000   0.0000   0.0000   0.0000   0.0000
     0.0000   0.0000   0.0000   0.0000   0.0000   0.0000   0.0000   0.0000
     0.0000   0.0000   0.0000   0.0000   0.0000   0.0000   0.0000   0.0000
     0.0000   0.0000   0.0000   0.0000   0.0000   0.0000   0.0000   0.0000
     0.0000   0.0000   0.0000   0.0000   0.0000   0.0000   0.0000   0.0000
     0.0000   0.0000   0.0000   0.0000   0.0000   0.0000   0.0000   0.0000

[...]

          k = 0.3333 0.3441-0.4804 (  4696 PWs)   bands (ev):

   -58.5552 -58.5552 -38.6121 -38.6121 -29.3289 -29.3270 -29.3253 -29.3233
   -25.1096 -25.1089 -25.0948 -25.0945 -25.0763 -25.0763 -17.3356 -17.3350
   -17.3210 -17.3200 -17.3019 -17.3012 -10.6910 -10.6457 -10.6241 -10.5870
   -10.5315 -10.5005 -10.4422 -10.4278 -10.4187 -10.4024 -10.3599 -10.3508
    -7.8457  -7.7557  -7.5952  -7.5534  -7.5045  -7.4776  -7.2244  -7.1016
    -7.0227  -6.9664  -6.9388  -6.8978   4.6553   4.7061   4.8876   4.9355
     5.0789   5.1029   5.1671   5.3038   5.4164   5.6431   5.6652   5.7209
     6.1625   6.3545   6.3985   6.4818   6.5539   6.6125   6.8882   6.9575
     7.0522   7.2073   7.2365   7.3457   7.3963   7.5857   7.6619   7.7722
     7.8213   7.9586   7.9783   8.0431   8.1129   8.1516   8.2667   8.3586
    12.7463  13.0370  13.2022  13.2888  13.3751  13.4126  13.9915  14.1258
    14.1991  14.3084  14.3390  14.4996  15.4694  15.5317  15.6001  15.7312
    15.8109  15.8978  15.9151  16.0072  16.1385  16.2039  16.3143  16.3548
    16.4837  16.5962  16.6173  16.7338  16.8074  16.8512  16.8808  16.9383
    17.0027  17.1137  17.2474  17.3497  17.5391  18.0754  18.2002  18.2846
    18.8016  18.9504  19.1401  19.5765  19.9289  20.0772  20.5402  20.7416
    21.1094  21.5710  22.6319  22.7827  23.1581  23.2760  23.5117  23.6896
    23.8266  23.8945  24.1091  24.1830  24.4893  24.7195  24.8766  25.1403
    25.5052  25.6218  25.6994  25.8911  26.0745  26.1611  26.5066  26.7776
    27.0782  27.5943  27.7801  28.0434  28.2568  28.4609  28.8739  29.0861
    29.3871  29.6750  29.8419  30.2380  30.5256  30.8691  31.0141  31.3954
    31.4473  31.7786  32.1267  32.4398  32.4636  32.6255  32.9374  33.1666
    33.3113  33.6464  33.8057  34.0252  34.0740  34.4453  34.6761  34.8328
    34.9107  35.0792  35.1960  35.3469  35.6987  35.9072  36.0734  36.2937
    36.4034  36.6173  36.8491  37.0470  37.0713  37.3636  37.5234  37.6548
    37.9289  38.2159  38.4385  38.4940  38.7842  39.0462  39.0932  39.1866
    39.4703  39.6989  39.8970  40.0612  40.3888  40.6547  40.8455  40.9270
    41.1605  41.2442  41.4425  41.7175  41.8727  42.0036  42.0809  42.2750
    42.5606  42.6350  42.7647  42.8279  42.9517  43.1515  43.2588  43.4491
    43.7524  43.7685  43.8780  43.9396  44.2709  44.2909  44.5311  44.5723
    44.6402  44.7900  44.9386  45.1187  45.3926  45.5671  45.5962  45.7332
    45.8003  46.0484  46.1473  46.1824  46.3227  46.5521  46.7540  46.7865

     occupation numbers
     1.0000   1.0000   1.0000   1.0000   1.0000   1.0000   1.0000   1.0000
     1.0000   1.0000   1.0000   1.0000   1.0000   1.0000   1.0000   1.0000
     1.0000   1.0000   1.0000   1.0000   1.0000   1.0000   1.0000   1.0000
     1.0000   1.0000   1.0000   1.0000   1.0000   1.0000   1.0000   1.0000
     1.0000   1.0000   1.0000   1.0000   1.0000   1.0000   1.0000   1.0000
     1.0000   1.0000   1.0000   1.0000   1.0000   1.0000   1.0000   1.0000
     1.0000   1.0000   1.0000   1.0000   1.0000   1.0000   1.0000   1.0000
     1.0000   1.0000   1.0000   1.0000   1.0000   1.0000   1.0000   1.0000
     1.0000   1.0000   1.0000   1.0000   1.0000   1.0000   1.0000   1.0000
     1.0000   1.0000   1.0000   1.0000   1.0000   1.0000   1.0000   1.0000
     0.0000   0.0000   0.0000   0.0000   0.0000   0.0000   0.0000   0.0000
     0.0000   0.0000   0.0000   0.0000   0.0000   0.0000   0.0000   0.0000
     0.0000   0.0000   0.0000   0.0000   0.0000   0.0000   0.0000   0.0000
     0.0000   0.0000   0.0000   0.0000   0.0000   0.0000   0.0000   0.0000
     0.0000   0.0000   0.0000   0.0000   0.0000   0.0000   0.0000   0.0000
     0.0000   0.0000   0.0000   0.0000   0.0000   0.0000   0.0000   0.0000
     0.0000   0.0000   0.0000   0.0000   0.0000   0.0000   0.0000   0.0000
     0.0000   0.0000   0.0000   0.0000   0.0000   0.0000   0.0000   0.0000
     0.0000   0.0000   0.0000   0.0000   0.0000   0.0000   0.0000   0.0000
     0.0000   0.0000   0.0000   0.0000   0.0000   0.0000   0.0000   0.0000
     0.0000   0.0000   0.0000   0.0000   0.0000   0.0000   0.0000   0.0000
     0.0000   0.0000   0.0000   0.0000   0.0000   0.0000   0.0000   0.0000
     0.0000   0.0000   0.0000   0.0000   0.0000   0.0000   0.0000   0.0000
     0.0000   0.0000   0.0000   0.0000   0.0000   0.0000   0.0000   0.0000
     0.0000   0.0000   0.0000   0.0000   0.0000   0.0000   0.0000   0.0000
     0.0000   0.0000   0.0000   0.0000   0.0000   0.0000   0.0000   0.0000
     0.0000   0.0000   0.0000   0.0000   0.0000   0.0000   0.0000   0.0000
     0.0000   0.0000   0.0000   0.0000   0.0000   0.0000   0.0000   0.0000
     0.0000   0.0000   0.0000   0.0000   0.0000   0.0000   0.0000   0.0000
     0.0000   0.0000   0.0000   0.0000   0.0000   0.0000   0.0000   0.0000
     0.0000   0.0000   0.0000   0.0000   0.0000   0.0000   0.0000   0.0000
     0.0000   0.0000   0.0000   0.0000   0.0000   0.0000   0.0000   0.0000

     highest occupied, lowest unoccupied level (ev):     8.4683   12.2490

!    total energy              =   -1269.41942519 Ry
     estimated scf accuracy    <       0.00000081 Ry

     The total energy is the sum of the following terms:
     one-electron contribution =    -291.10633543 Ry
     hartree contribution      =     226.47472288 Ry
     xc contribution           =    -246.09450522 Ry
     ewald contribution        =    -844.45991100 Ry
     one-center paw contrib.   =    -114.23339643 Ry
      -> PAW hartree energy AE =       0.00000000 Ry
      -> PAW hartree energy PS =       0.00000000 Ry
      -> PAW xc energy AE      =       0.00000000 Ry
      -> PAW xc energy PS      =       0.00000000 Ry
      -> total E_H with PAW    =     226.47472288 Ry
      -> total E_XC with PAW   =    -246.09450522 Ry

     convergence has been achieved in   9 iterations

     Writing all to output data dir bands_nm/myprefix.save/

     General routines

     Parallel routines

     PAW routines

   This run was terminated on:  22:10:55  15Jul2023

   JOB DONE.