     Program PWSCF v.7.1 starts on 14Jul2023 at 17:29:57

     Reading input from espresso_20381.pwi
Warning: card &CELL ignored
Warning: card / ignored

     Current dimensions of program PWSCF are:
     Max number of different atomic species (ntypx) = 10
     Max number of k-points (npk) =  40000
     Max angular momentum in pseudopotentials (lmaxx) =  4
     file O.pbe-n-kjpaw_psl.0.1.UPF: wavefunction(s)  2P renormalized
     Message from routine setup:
     using ibrav=0 with symmetry is DISCOURAGED, use correct ibrav instead

     K-points division:     npool     =       2
     R & G space division:  proc/nbgrp/npool/nimage =       4
     Subspace diagonalization in iterative solution of the eigenvalue problem:
     a serial algorithm will be used

     Using Slab Decomposition

     bravais-lattice index     =            0
     lattice parameter (alat)  =      11.2720  a.u.
     unit-cell volume          =     889.4248 (a.u.)^3
     number of atoms/cell      =           15
     number of atomic types    =            3
     number of electrons       =        76.00
     number of Kohn-Sham states=           64
     kinetic-energy cutoff     =      30.0000  Ry
     charge density cutoff     =     240.0000  Ry
     scf convergence threshold =      1.0E-06
     mixing beta               =       0.7000
     number of iterations used =            8  plain     mixing
     Exchange-correlation= SLA  PW   PBX  PBC
                           (   1   4   3   4   0   0   0)

     celldm(1)=  11.272021  celldm(2)=   0.000000  celldm(3)=   0.000000
     celldm(4)=   0.000000  celldm(5)=   0.000000  celldm(6)=   0.000000

     crystal axes: (cart. coord. in units of alat)
               a(1) = (   1.000000   0.000000   0.000000 )
               a(2) = (   0.576829   0.816865   0.000000 )
               a(3) = (   0.576829   0.298822   0.760245 )

     reciprocal axes: (cart. coord. in units 2 pi/alat)
               b(1) = (  1.000000 -0.706151 -0.481181 )
               b(2) = (  0.000000  1.224193 -0.481181 )
               b(3) = (  0.000000  0.000000  1.315365 )

     PseudoPot. # 1 for Li read from file:
     /lustre07/scratch/pragov/crystal_structure_design/utils/SSSP/li_pbe_v1.4.uspp.F.UPF
     MD5 check sum: e912e257baa3777c20ea3d68f190483c
     Pseudo is Ultrasoft, Zval =  3.0
     Generated by new atomic code, or converted to UPF format
     Using radial grid of  751 points,  5 beta functions with:
                l(1) =   0
                l(2) =   0
                l(3) =   0
                l(4) =   1
                l(5) =   1
     Q(r) pseudized with 10 coefficients,  rinner =    1.150   1.150   1.150

     PseudoPot. # 2 for Pt read from file:
     /lustre07/scratch/pragov/crystal_structure_design/utils/SSSP/pt_pbe_v1.4.uspp.F.UPF
     MD5 check sum: f09d6de1a584b5a045c4fc126da2d0c4
     Pseudo is Ultrasoft + core correction, Zval = 16.0
     Generated by new atomic code, or converted to UPF format
     Using radial grid of  985 points,  6 beta functions with:
                l(1) =   0
                l(2) =   0
                l(3) =   1
                l(4) =   1
                l(5) =   2
                l(6) =   2
     Q(r) pseudized with  8 coefficients,  rinner =    1.300   1.300   1.300
                                                       1.300   1.300

     PseudoPot. # 3 for O  read from file:
     /lustre07/scratch/pragov/crystal_structure_design/utils/SSSP/O.pbe-n-kjpaw_psl.0.1.UPF
     MD5 check sum: 0234752ac141de4415c5fc33072bef88
     Pseudo is Projector augmented-wave + core cor, Zval =  6.0
     Generated using "atomic" code by A. Dal Corso  v.5.0.99 svn rev. 10869
     Shape of augmentation charge: BESSEL
     Using radial grid of 1095 points,  4 beta functions with:
                l(1) =   0
                l(2) =   0
                l(3) =   1
                l(4) =   1
     Q(r) pseudized with 0 coefficients

     atomic species   valence    mass     pseudopotential
        Li             3.00     6.94000     Li( 1.00)
        Pt            16.00   195.08400     Pt( 1.00)
        O              6.00    15.99900     O ( 1.00)

      2 Sym. Ops., with inversion, found

                                    s                        frac. trans.

      isym =  1     identity

 cryst.   s( 1) = (     1          0          0      )
                  (     0          1          0      )
                  (     0          0          1      )

 cart.    s( 1) = (  1.0000000  0.0000000 -0.0000000 )
                  (  0.0000000  1.0000000  0.0000000 )
                  (  0.0000000  0.0000000  1.0000000 )

      isym =  2     inversion

 cryst.   s( 2) = (    -1          0          0      )
                  (     0         -1          0      )
                  (     0          0         -1      )

 cart.    s( 2) = ( -1.0000000  0.0000000  0.0000000 )
                  (  0.0000000 -1.0000000  0.0000000 )
                  (  0.0000000  0.0000000 -1.0000000 )

   Cartesian axes

     site n.     atom                  positions (alat units)
         1           Li  tau(   1) = (   0.7381106   0.3823726   0.2605543  )
         2           Li  tau(   2) = (   1.3323148   0.4896759   0.1770680  )
         3           Li  tau(   3) = (   1.1685172   0.4595919   0.6852304  )
         4           Li  tau(   4) = (   1.0494595   0.8899340   0.3909607  )
         5           Li  tau(   5) = (   0.8213441   0.6260108   0.5831774  )
         6           Li  tau(   6) = (   0.9851416   0.6560949   0.0750149  )
         7           Li  tau(   7) = (   1.4155483   0.7333141   0.4996910  )
         8           Li  tau(   8) = (   1.1041993   0.2257527   0.3692846  )
         9           Pt  tau(   9) = (   0.0000000   0.0000000   0.0000000  )
        10           O   tau(  10) = (   1.3986996   0.3772336   0.4683697  )
        11           O   tau(  11) = (   0.8780460   0.3041831   0.5804960  )
        12           O   tau(  12) = (   0.7549593   0.7384531   0.2918757  )
        13           O   tau(  13) = (   1.1149599   0.7742667   0.6895007  )
        14           O   tau(  14) = (   1.2756128   0.8115036   0.1797494  )
        15           O   tau(  15) = (   1.0386989   0.3414200   0.0707446  )

   Crystallographic axes

     site n.     atom                  positions (cryst. coord.)
         1           Li  tau(   1) = (  0.3427240  0.3427240  0.3427240  )
         2           Li  tau(   2) = (  0.9013280  0.5142560  0.2329090  )
         3           Li  tau(   3) = (  0.5142560  0.2329090  0.9013280  )
         4           Li  tau(   4) = (  0.2329090  0.9013280  0.5142560  )
         5           Li  tau(   5) = (  0.0986720  0.4857440  0.7670910  )
         6           Li  tau(   6) = (  0.4857440  0.7670910  0.0986720  )
         7           Li  tau(   7) = (  0.6572760  0.6572760  0.6572760  )
         8           Li  tau(   8) = (  0.7670910  0.0986720  0.4857440  )
         9           Pt  tau(   9) = (  0.0000000  0.0000000  0.0000000  )
        10           O   tau(  10) = (  0.9069450  0.2364360  0.6160770  )
        11           O   tau(  11) = (  0.3839230  0.0930550  0.7635640  )
        12           O   tau(  12) = (  0.0930550  0.7635640  0.3839230  )
        13           O   tau(  13) = (  0.2364360  0.6160770  0.9069450  )
        14           O   tau(  14) = (  0.6160770  0.9069450  0.2364360  )
        15           O   tau(  15) = (  0.7635640  0.3839230  0.0930550  )

     number of k points=    14
                       cart. coord. in units 2pi/alat
        k(    1) = (   0.0000000   0.0000000   0.0000000), wk =   0.0740741
        k(    2) = (   0.0000000   0.0000000   0.4384549), wk =   0.1481481
        k(    3) = (   0.0000000   0.4080644  -0.1603938), wk =   0.1481481
        k(    4) = (   0.0000000   0.4080644   0.2780611), wk =   0.1481481
        k(    5) = (   0.0000000   0.4080644  -0.5988488), wk =   0.1481481
        k(    6) = (   0.3333333  -0.2353835  -0.1603938), wk =   0.1481481
        k(    7) = (   0.3333333  -0.2353835   0.2780611), wk =   0.1481481
        k(    8) = (   0.3333333  -0.2353835  -0.5988488), wk =   0.1481481
        k(    9) = (   0.3333333   0.1726808  -0.3207876), wk =   0.1481481
        k(   10) = (   0.3333333   0.1726808   0.1176673), wk =   0.1481481
        k(   11) = (   0.3333333   0.1726808  -0.7592426), wk =   0.1481481
        k(   12) = (   0.3333333  -0.6434479   0.0000000), wk =   0.1481481
        k(   13) = (   0.3333333  -0.6434479   0.4384549), wk =   0.1481481
        k(   14) = (   0.3333333  -0.6434479  -0.4384549), wk =   0.1481481

                       cryst. coord.
        k(    1) = (   0.0000000   0.0000000   0.0000000), wk =   0.0740741
        k(    2) = (   0.0000000   0.0000000   0.3333333), wk =   0.1481481
        k(    3) = (   0.0000000   0.3333333  -0.0000000), wk =   0.1481481
        k(    4) = (   0.0000000   0.3333333   0.3333333), wk =   0.1481481
        k(    5) = (   0.0000000   0.3333333  -0.3333333), wk =   0.1481481
        k(    6) = (   0.3333333   0.0000000   0.0000000), wk =   0.1481481
        k(    7) = (   0.3333333   0.0000000   0.3333333), wk =   0.1481481
        k(    8) = (   0.3333333   0.0000000  -0.3333333), wk =   0.1481481
        k(    9) = (   0.3333333   0.3333333   0.0000000), wk =   0.1481481
        k(   10) = (   0.3333333   0.3333333   0.3333333), wk =   0.1481481
        k(   11) = (   0.3333333   0.3333333  -0.3333333), wk =   0.1481481
        k(   12) = (   0.3333333  -0.3333333   0.0000000), wk =   0.1481481
        k(   13) = (   0.3333333  -0.3333333   0.3333333), wk =   0.1481481
        k(   14) = (   0.3333333  -0.3333333  -0.3333333), wk =   0.1481481

     Check: negative core charge=   -0.000013

     Initial potential from superposition of free atoms

     starting charge      71.8940, renormalised to      76.0000

     negative rho (up, down):  1.945E-01 0.000E+00
     Starting wfcs are   76 randomized atomic wfcs
     Checking if some PAW data can be deallocated...

     Self-consistent Calculation

     iteration #  1     ecut=    30.00 Ry     beta= 0.70
     Davidson diagonalization with overlap

     ethr =  1.00E-02,  avg # of iterations =  5.0

     negative rho (up, down):  1.505E-01 0.000E+00

     total energy              =    -555.71028929 Ry
     estimated scf accuracy    <      29.52797441 Ry

[...]

     total energy              =    -577.05055537 Ry
     estimated scf accuracy    <       0.00000719 Ry

     iteration # 10     ecut=    30.00 Ry     beta= 0.70
     Davidson diagonalization with overlap

     ethr =  9.46E-09,  avg # of iterations =  4.6

     negative rho (up, down):  1.774E-01 0.000E+00

     End of self-consistent calculation

          k = 0.0000 0.0000 0.0000 (  2471 PWs)   bands (ev):

   -47.1986 -47.1968 -47.1968 -38.1831 -38.1717 -37.7731 -37.6935 -37.6934
   -37.6927 -37.6926 -37.6460 -11.6258 -11.0450 -11.0450 -10.8430 -10.8396
   -10.8395   0.5468   0.8034   0.8035   0.9367   1.2349   1.2349   2.1389
     2.5680   2.5681   3.0407   3.0808   4.3373   4.3373   4.4199   4.4199
     4.6906   4.6907   4.8622   5.0906   5.5574   5.5575   8.4339   8.4339
    10.2072  13.1542  13.2304  13.8754  14.7806  14.7807  14.9417  14.9417
    15.4717  16.2702  17.7871  18.5499  18.5499  18.6912  18.6913  18.8128
    18.8402  18.8403  20.1593  20.5848  20.5848  21.4421  22.9841  22.9849

     occupation numbers
     1.0000   1.0000   1.0000   1.0000   1.0000   1.0000   1.0000   1.0000
     1.0000   1.0000   1.0000   1.0000   1.0000   1.0000   1.0000   1.0000
     1.0000   1.0000   1.0000   1.0000   1.0000   1.0000   1.0000   1.0000
     1.0000   1.0000   1.0000   1.0000   1.0000   1.0000   1.0000   1.0000
     1.0000   1.0000   1.0000   1.0000   1.0000   1.0000   0.0000   0.0000
     0.0000   0.0000   0.0000   0.0000   0.0000   0.0000   0.0000   0.0000
     0.0000   0.0000   0.0000   0.0000   0.0000   0.0000   0.0000   0.0000
     0.0000   0.0000   0.0000   0.0000   0.0000   0.0000   0.0000   0.0000

[...]

          k = 0.3333-0.6434-0.4385 (  2472 PWs)   bands (ev):

   -47.1985 -47.1968 -47.1968 -38.1796 -38.1738 -37.7612 -37.7253 -37.7130
   -37.6758 -37.6673 -37.6491 -11.4756 -11.0610 -11.0218 -10.9376 -10.9295
   -10.8584   0.5869   0.6872   0.9240   1.2170   1.3873   1.4257   2.2428
     2.6797   2.8371   3.3261   3.5137   3.6116   3.7570   3.9992   4.2324
     4.2673   4.4618   4.4994   5.3903   5.7220   5.7993   8.1467   8.3225
    12.2251  12.4127  12.7240  12.9623  14.6157  14.6786  15.4336  15.7238
    16.2788  16.7961  17.3506  17.4058  18.1059  18.2052  18.6430  18.7582
    19.0814  19.4386  19.6977  20.0108  20.2683  21.2219  22.0514  22.3438

     occupation numbers
     1.0000   1.0000   1.0000   1.0000   1.0000   1.0000   1.0000   1.0000
     1.0000   1.0000   1.0000   1.0000   1.0000   1.0000   1.0000   1.0000
     1.0000   1.0000   1.0000   1.0000   1.0000   1.0000   1.0000   1.0000
     1.0000   1.0000   1.0000   1.0000   1.0000   1.0000   1.0000   1.0000
     1.0000   1.0000   1.0000   1.0000   1.0000   1.0000   0.0000   0.0000
     0.0000   0.0000   0.0000   0.0000   0.0000   0.0000   0.0000   0.0000
     0.0000   0.0000   0.0000   0.0000   0.0000   0.0000   0.0000   0.0000
     0.0000   0.0000   0.0000   0.0000   0.0000   0.0000   0.0000   0.0000

     highest occupied, lowest unoccupied level (ev):     5.8472    8.1237

!    total energy              =    -577.05055957 Ry
     estimated scf accuracy    <       0.00000043 Ry

     The total energy is the sum of the following terms:
     one-electron contribution =    -206.18682794 Ry
     hartree contribution      =     131.00303181 Ry
     xc contribution           =    -129.51435959 Ry
     ewald contribution        =    -315.23880934 Ry
     one-center paw contrib.   =     -57.11359451 Ry
      -> PAW hartree energy AE =       0.00000000 Ry
      -> PAW hartree energy PS =       0.00000000 Ry
      -> PAW xc energy AE      =       0.00000000 Ry
      -> PAW xc energy PS      =       0.00000000 Ry
      -> total E_H with PAW    =     131.00303181 Ry
      -> total E_XC with PAW   =    -129.51435959 Ry

     convergence has been achieved in  10 iterations

     Writing all to output data dir bands_nm/myprefix.save/

     General routines

     Parallel routines

     PAW routines

   This run was terminated on:  17:30:36  14Jul2023

   JOB DONE.