     Program PWSCF v.7.1 starts on 15Jul2023 at 18:58: 4

     Reading input from espresso_21443.pwi
Warning: card &CELL ignored
Warning: card / ignored

     Current dimensions of program PWSCF are:
     Max number of different atomic species (ntypx) = 10
     Max number of k-points (npk) =  40000
     Max angular momentum in pseudopotentials (lmaxx) =  4
     file Pb.pbe-dn-kjpaw_psl.0.2.2.UPF: wavefunction(s)  6S renormalized
     file O.pbe-n-kjpaw_psl.0.1.UPF: wavefunction(s)  2P renormalized
     Message from routine setup:
     using ibrav=0 with symmetry is DISCOURAGED, use correct ibrav instead

     K-points division:     npool     =       2
     R & G space division:  proc/nbgrp/npool/nimage =       4
     Subspace diagonalization in iterative solution of the eigenvalue problem:
     one sub-group per band group will be used

     Using Slab Decomposition

     bravais-lattice index     =            0
     lattice parameter (alat)  =      10.8855  a.u.
     unit-cell volume          =    1923.9067 (a.u.)^3
     number of atoms/cell      =           20
     number of atomic types    =            3
     number of electrons       =       168.00
     number of Kohn-Sham states=          256
     kinetic-energy cutoff     =      30.0000  Ry
     charge density cutoff     =     240.0000  Ry
     scf convergence threshold =      1.0E-06
     mixing beta               =       0.7000
     number of iterations used =            8  plain     mixing
     Exchange-correlation= SLA  PW   PBX  PBC
                           (   1   4   3   4   0   0   0)

     celldm(1)=  10.885546  celldm(2)=   0.000000  celldm(3)=   0.000000
     celldm(4)=   0.000000  celldm(5)=   0.000000  celldm(6)=   0.000000

     crystal axes: (cart. coord. in units of alat)
               a(1) = (   1.000000   0.000000   0.000000 )
               a(2) = (   0.000000   1.038434   0.000000 )
               a(3) = (   0.000000   0.000000   1.436331 )

     reciprocal axes: (cart. coord. in units 2 pi/alat)
               b(1) = (  1.000000  0.000000  0.000000 )
               b(2) = (  0.000000  0.962988  0.000000 )
               b(3) = (  0.000000  0.000000  0.696219 )

     PseudoPot. # 1 for Ca read from file:
     /lustre07/scratch/pragov/crystal_structure_design/utils/SSSP/Ca_pbe_v1.uspp.F.UPF
     MD5 check sum: 403a4c14b9e4d4dfdc3024c9a3812218
     Pseudo is Ultrasoft + core correction, Zval = 10.0
     Generated by new atomic code, or converted to UPF format
     Using radial grid of  845 points,  6 beta functions with:
                l(1) =   0
                l(2) =   0
                l(3) =   1
                l(4) =   1
                l(5) =   2
                l(6) =   2
     Q(r) pseudized with  8 coefficients,  rinner =    1.500   1.500   1.500
                                                       1.500   1.500

     PseudoPot. # 2 for Pb read from file:
     /lustre07/scratch/pragov/crystal_structure_design/utils/SSSP/Pb.pbe-dn-kjpaw_psl.0.2.2.UPF
     MD5 check sum: 9d431e6316058b74ade52399a6cf67da
     Pseudo is Projector augmented-wave + core cor, Zval = 14.0
     Generated using "atomic" code by A. Dal Corso  v.5.0.99 svn rev. 10869
     Shape of augmentation charge: PSQ
     Using radial grid of 1281 points,  6 beta functions with:
                l(1) =   0
                l(2) =   0
                l(3) =   1
                l(4) =   1
                l(5) =   2
                l(6) =   2
     Q(r) pseudized with 0 coefficients

     PseudoPot. # 3 for O  read from file:
     /lustre07/scratch/pragov/crystal_structure_design/utils/SSSP/O.pbe-n-kjpaw_psl.0.1.UPF
     MD5 check sum: 0234752ac141de4415c5fc33072bef88
     Pseudo is Projector augmented-wave + core cor, Zval =  6.0
     Generated using "atomic" code by A. Dal Corso  v.5.0.99 svn rev. 10869
     Shape of augmentation charge: BESSEL
     Using radial grid of 1095 points,  4 beta functions with:
                l(1) =   0
                l(2) =   0
                l(3) =   1
                l(4) =   1
     Q(r) pseudized with 0 coefficients

     atomic species   valence    mass     pseudopotential
        Ca            10.00    40.07800     Ca( 1.00)
        Pb            14.00   207.20000     Pb( 1.00)
        O              6.00    15.99900     O ( 1.00)

      8 Sym. Ops., with inversion, found ( 6 have fractional translation)

                                    s                        frac. trans.

      isym =  1     identity

 cryst.   s( 1) = (     1          0          0      )
                  (     0          1          0      )
                  (     0          0          1      )

 cart.    s( 1) = (  1.0000000  0.0000000  0.0000000 )
                  (  0.0000000  1.0000000  0.0000000 )
                  (  0.0000000  0.0000000  1.0000000 )

      isym =  2     180 deg rotation - cart. axis [0,0,1]

 cryst.   s( 2) = (    -1          0          0      )    f =(  0.0000000 )
                  (     0         -1          0      )       (  0.0000000 )
                  (     0          0          1      )       ( -0.5000000 )

 cart.    s( 2) = ( -1.0000000  0.0000000  0.0000000 )    f =(  0.0000000 )
                  (  0.0000000 -1.0000000  0.0000000 )       (  0.0000000 )
                  (  0.0000000  0.0000000  1.0000000 )       ( -0.7181653 )

[...]

      isym =  4     180 deg rotation - cart. axis [1,0,0]

[...]

      isym =  5     inversion

 cryst.   s( 5) = (    -1          0          0      )
                  (     0         -1          0      )
                  (     0          0         -1      )

 cart.    s( 5) = ( -1.0000000  0.0000000  0.0000000 )
                  (  0.0000000 -1.0000000  0.0000000 )
                  (  0.0000000  0.0000000 -1.0000000 )

      isym =  6     inv. 180 deg rotation - cart. axis [0,0,1]

[...]

      isym =  8     inv. 180 deg rotation - cart. axis [1,0,0]

 cryst.   s( 8) = (    -1          0          0      )    f =(  0.5000000 )
                  (     0          1          0      )       ( -0.5000000 )
                  (     0          0          1      )       (  0.0000000 )

 cart.    s( 8) = ( -1.0000000  0.0000000  0.0000000 )    f =(  0.5000000 )
                  (  0.0000000  1.0000000  0.0000000 )       ( -0.5192170 )
                  (  0.0000000  0.0000000  1.0000000 )       (  0.0000000 )

   Cartesian axes

     site n.     atom                  positions (alat units)
         1           Ca  tau(   1) = (   0.9841850   0.0609166   0.3590826  )
         2           Ca  tau(   2) = (   0.4841850   0.4583004   1.0772479  )
         3           Ca  tau(   3) = (   0.5158150   0.5801337   0.3590826  )
         4           Ca  tau(   4) = (   0.0158150   0.9775175   1.0772479  )
         5           Pb  tau(   5) = (   0.5000000   0.0000000   0.0000000  )
         6           Pb  tau(   6) = (   0.0000000   0.5192170   0.0000000  )
         7           Pb  tau(   7) = (   0.0000000   0.5192170   0.7181653  )
         8           Pb  tau(   8) = (   0.5000000   0.0000000   0.7181653  )
         9           O   tau(   9) = (   0.6887140   0.3183912   0.6215720  )
        10           O   tau(  10) = (   0.1887140   0.2008259   0.8147585  )
        11           O   tau(  11) = (   0.8112860   0.8376082   0.0965932  )
        12           O   tau(  12) = (   0.3112860   0.7200429   1.3397373  )
        13           O   tau(  13) = (   0.3112860   0.7200429   0.8147585  )
        14           O   tau(  14) = (   0.8112860   0.8376082   0.6215720  )
        15           O   tau(  15) = (   0.1887140   0.2008259   1.3397373  )
        16           O   tau(  16) = (   0.6887140   0.3183912   0.0965932  )
        17           O   tau(  17) = (   0.1284180   0.4535901   0.3590826  )
        18           O   tau(  18) = (   0.6284180   0.0656270   1.0772479  )
        19           O   tau(  19) = (   0.3715820   0.9728071   0.3590826  )
        20           O   tau(  20) = (   0.8715820   0.5848440   1.0772479  )

   Crystallographic axes

     site n.     atom                  positions (cryst. coord.)
         1           Ca  tau(   1) = (  0.9841850  0.0586620  0.2500000  )
         2           Ca  tau(   2) = (  0.4841850  0.4413380  0.7500000  )
         3           Ca  tau(   3) = (  0.5158150  0.5586620  0.2500000  )
         4           Ca  tau(   4) = (  0.0158150  0.9413380  0.7500000  )
         5           Pb  tau(   5) = (  0.5000000  0.0000000  0.0000000  )
         6           Pb  tau(   6) = (  0.0000000  0.5000000  0.0000000  )
         7           Pb  tau(   7) = (  0.0000000  0.5000000  0.5000000  )
         8           Pb  tau(   8) = (  0.5000000  0.0000000  0.5000000  )
         9           O   tau(   9) = (  0.6887140  0.3066070  0.4327500  )
        10           O   tau(  10) = (  0.1887140  0.1933930  0.5672500  )
        11           O   tau(  11) = (  0.8112860  0.8066070  0.0672500  )
        12           O   tau(  12) = (  0.3112860  0.6933930  0.9327500  )
        13           O   tau(  13) = (  0.3112860  0.6933930  0.5672500  )
        14           O   tau(  14) = (  0.8112860  0.8066070  0.4327500  )
        15           O   tau(  15) = (  0.1887140  0.1933930  0.9327500  )
        16           O   tau(  16) = (  0.6887140  0.3066070  0.0672500  )
        17           O   tau(  17) = (  0.1284180  0.4368020  0.2500000  )
        18           O   tau(  18) = (  0.6284180  0.0631980  0.7500000  )
        19           O   tau(  19) = (  0.3715820  0.9368020  0.2500000  )
        20           O   tau(  20) = (  0.8715820  0.5631980  0.7500000  )

     number of k points=     8
                       cart. coord. in units 2pi/alat
        k(    1) = (   0.0000000   0.0000000   0.0000000), wk =   0.0740741
        k(    2) = (   0.0000000   0.0000000   0.2320729), wk =   0.1481481
        k(    3) = (   0.0000000   0.3209961   0.0000000), wk =   0.1481481
        k(    4) = (   0.0000000   0.3209961   0.2320729), wk =   0.2962963
        k(    5) = (   0.3333333   0.0000000   0.0000000), wk =   0.1481481
        k(    6) = (   0.3333333   0.0000000   0.2320729), wk =   0.2962963
        k(    7) = (   0.3333333   0.3209961   0.0000000), wk =   0.2962963
        k(    8) = (   0.3333333   0.3209961   0.2320729), wk =   0.5925926

                       cryst. coord.
        k(    1) = (   0.0000000   0.0000000   0.0000000), wk =   0.0740741
        k(    2) = (   0.0000000   0.0000000   0.3333333), wk =   0.1481481
        k(    3) = (   0.0000000   0.3333333   0.0000000), wk =   0.1481481
        k(    4) = (   0.0000000   0.3333333   0.3333333), wk =   0.2962963
        k(    5) = (   0.3333333   0.0000000   0.0000000), wk =   0.1481481
        k(    6) = (   0.3333333   0.0000000   0.3333333), wk =   0.2962963
        k(    7) = (   0.3333333   0.3333333   0.0000000), wk =   0.2962963
        k(    8) = (   0.3333333   0.3333333   0.3333333), wk =   0.5925926

     Check: negative core charge=   -0.000011

     Initial potential from superposition of free atoms

     starting charge     167.9687, renormalised to     168.0000
     Starting wfcs are  124 randomized atomic wfcs +  132 random wfcs
     Checking if some PAW data can be deallocated...

     Self-consistent Calculation

     iteration #  1     ecut=    30.00 Ry     beta= 0.70
     Davidson diagonalization with overlap

     ethr =  1.00E-02,  avg # of iterations =  6.0

     total energy              =   -4279.80483306 Ry
     estimated scf accuracy    <       4.34835332 Ry

[...]

     total energy              =   -4281.90313562 Ry
     estimated scf accuracy    <       0.00000273 Ry

     iteration #  8     ecut=    30.00 Ry     beta= 0.70
     Davidson diagonalization with overlap

     ethr =  1.62E-09,  avg # of iterations =  2.0

     End of self-consistent calculation

          k = 0.0000 0.0000 0.0000 (  5363 PWs)   bands (ev):

   -29.9479 -29.9452 -29.9401 -29.9379 -11.3085 -11.2739 -11.2631 -11.2600
   -11.2490 -11.1214 -11.0908 -11.0198 -11.0148 -11.0044 -10.9776 -10.9772
    -9.4396  -9.4146  -9.3782  -9.1558  -9.0843  -9.0708  -8.3869  -8.2040
    -8.1491  -8.1473  -8.0210  -7.9736  -7.3977  -7.3932  -7.3698  -7.1699
    -7.1622  -7.1508  -7.1470  -7.1353  -7.1299  -7.1279  -7.1128  -7.1046
    -7.0805  -7.0749  -7.0708  -6.6998  -6.1544  -5.2590  -5.2130  -5.1732
    -0.4358   0.7413   2.3649   3.7611   4.1399   4.1745   4.2135   4.2283
     4.4624   4.8555   5.5237   5.6397   5.6957   6.0314   6.1570   6.2069
     6.3381   6.4469   6.7668   6.9568   7.0143   7.0154   7.0266   7.1648
     7.2055   7.2390   7.2539   7.3771   7.3857   7.4458   7.4785   7.6207
     7.6472   7.6508   7.6684   7.7741   8.6505  10.2974  11.7987  13.0238
    13.7224  13.8657  13.9555  14.0314  14.5875  14.6552  14.8090  14.9294
    15.2777  15.3847  15.3869  15.5330  15.5350  15.6242  15.8728  15.8745
    15.9760  15.9797  16.0702  16.2597  16.2731  16.4736  16.4872  16.8319
    16.8355  16.8500  17.1373  17.7431  18.3249  18.3328  18.4584  18.6135
    18.6241  19.2443  19.2980  19.4412  19.7849  19.8921  19.9989  20.5428
    20.8315  21.5158  21.8650  21.9558  22.2661  22.2706  22.9073  22.9292
    23.3542  23.3750  23.3844  23.9553  24.0466  24.5371  24.5593  24.5808
    25.2863  25.3789  26.1408  26.1700  26.2222  26.3075  26.9253  27.0058
    27.2746  27.3899  28.0234  28.2305  28.3296  28.7275  28.8164  28.9049
    29.1511  29.4228  29.4504  29.7447  29.7908  30.2164  30.2857  30.3467
    30.4838  30.4899  30.5264  30.7381  30.9168  31.0220  31.2072  31.4714
    31.6298  32.1246  32.3692  32.6326  32.9589  33.0236  33.0665  33.1256
    33.2360  34.0468  34.0898  34.1653  34.1662  34.4463  34.4823  34.5849
    34.6114  34.8533  34.9117  34.9572  35.0171  35.7654  35.8438  36.5137
    36.5570  36.6306  36.6429  36.6848  36.8942  37.2705  37.3876  37.5608
    37.6288  37.7070  37.7416  38.1820  38.2790  38.4124  38.5438  38.8082
    38.8500  38.9462  39.1739  39.1848  39.3105  39.3242  39.4885  39.7924
    40.1342  40.2171  40.2976  40.4602  40.5292  40.6083  40.7360  40.8823
    41.0676  41.1470  41.2473  41.5756  41.5906  41.5935  41.7292  41.9382
    42.1177  42.3962  42.4359  42.4457  42.5010  42.5612  42.9199  42.9374
    42.9761  43.0528  43.1668  43.7053  43.7584  44.0633  44.0806  44.4890

     occupation numbers
     1.0000   1.0000   1.0000   1.0000   1.0000   1.0000   1.0000   1.0000
     1.0000   1.0000   1.0000   1.0000   1.0000   1.0000   1.0000   1.0000
     1.0000   1.0000   1.0000   1.0000   1.0000   1.0000   1.0000   1.0000
     1.0000   1.0000   1.0000   1.0000   1.0000   1.0000   1.0000   1.0000
     1.0000   1.0000   1.0000   1.0000   1.0000   1.0000   1.0000   1.0000
     1.0000   1.0000   1.0000   1.0000   1.0000   1.0000   1.0000   1.0000
     1.0000   1.0000   1.0000   1.0000   1.0000   1.0000   1.0000   1.0000
     1.0000   1.0000   1.0000   1.0000   1.0000   1.0000   1.0000   1.0000
     1.0000   1.0000   1.0000   1.0000   1.0000   1.0000   1.0000   1.0000
     1.0000   1.0000   1.0000   1.0000   1.0000   1.0000   1.0000   1.0000
     1.0000   1.0000   1.0000   1.0000   0.0000   0.0000   0.0000   0.0000
     0.0000   0.0000   0.0000   0.0000   0.0000   0.0000   0.0000   0.0000
     0.0000   0.0000   0.0000   0.0000   0.0000   0.0000   0.0000   0.0000
     0.0000   0.0000   0.0000   0.0000   0.0000   0.0000   0.0000   0.0000
     0.0000   0.0000   0.0000   0.0000   0.0000   0.0000   0.0000   0.0000
     0.0000   0.0000   0.0000   0.0000   0.0000   0.0000   0.0000   0.0000
     0.0000   0.0000   0.0000   0.0000   0.0000   0.0000   0.0000   0.0000
     0.0000   0.0000   0.0000   0.0000   0.0000   0.0000   0.0000   0.0000
     0.0000   0.0000   0.0000   0.0000   0.0000   0.0000   0.0000   0.0000
     0.0000   0.0000   0.0000   0.0000   0.0000   0.0000   0.0000   0.0000
     0.0000   0.0000   0.0000   0.0000   0.0000   0.0000   0.0000   0.0000
     0.0000   0.0000   0.0000   0.0000   0.0000   0.0000   0.0000   0.0000
     0.0000   0.0000   0.0000   0.0000   0.0000   0.0000   0.0000   0.0000
     0.0000   0.0000   0.0000   0.0000   0.0000   0.0000   0.0000   0.0000
     0.0000   0.0000   0.0000   0.0000   0.0000   0.0000   0.0000   0.0000
     0.0000   0.0000   0.0000   0.0000   0.0000   0.0000   0.0000   0.0000
     0.0000   0.0000   0.0000   0.0000   0.0000   0.0000   0.0000   0.0000
     0.0000   0.0000   0.0000   0.0000   0.0000   0.0000   0.0000   0.0000
     0.0000   0.0000   0.0000   0.0000   0.0000   0.0000   0.0000   0.0000
     0.0000   0.0000   0.0000   0.0000   0.0000   0.0000   0.0000   0.0000
     0.0000   0.0000   0.0000   0.0000   0.0000   0.0000   0.0000   0.0000
     0.0000   0.0000   0.0000   0.0000   0.0000   0.0000   0.0000   0.0000

[...]

          k = 0.3333 0.3210 0.2321 (  5335 PWs)   bands (ev):

   -29.9443 -29.9433 -29.9422 -29.9411 -11.3234 -11.2827 -11.2623 -11.2234
   -11.1743 -11.1450 -11.0959 -11.0761 -11.0563 -11.0465 -10.9862 -10.9780
    -9.3334  -9.3120  -9.2293  -9.1567  -8.9315  -8.8421  -8.7046  -8.6074
    -8.4671  -8.4007  -8.1769  -8.1419  -7.1633  -7.1531  -7.1495  -7.1381
    -7.1327  -7.1234  -7.1224  -7.1187  -7.1184  -7.1097  -7.1037  -7.0995
    -7.0120  -6.8323  -6.6212  -6.3110  -6.1159  -5.7908  -5.7141  -5.4795
     0.6858   1.2061   1.3744   1.9036   4.2693   4.4641   4.7822   4.9044
     5.1335   5.3108   5.6024   5.6938   5.7555   5.7839   5.9158   5.9265
     6.3510   6.4781   6.6707   6.7083   6.7797   6.8957   6.9808   7.0388
     7.1287   7.2015   7.2368   7.3012   7.3615   7.3693   7.4409   7.5108
     7.5505   7.5919   7.6328   7.6359  10.1494  10.7077  10.9442  11.4919
    14.0733  14.1386  14.5275  14.5697  14.8118  14.8588  14.9731  15.0837
    15.1606  15.3364  15.4155  15.4635  15.5661  15.6633  15.7279  15.7450
    15.8007  15.9260  16.1135  16.2214  16.3970  16.4474  16.7037  16.9024
    16.9749  17.0322  17.4275  17.5772  17.9450  18.3222  18.7319  18.7812
    19.1265  19.4006  19.4296  19.7453  20.1441  20.1731  20.3343  20.6391
    20.8609  20.9504  21.3250  21.5124  21.6403  22.2902  22.4091  22.4828
    22.8038  22.9617  23.0949  23.2529  23.6031  24.0136  24.1326  24.3335
    25.0854  25.2971  25.6401  25.7652  26.5761  27.0329  27.1139  27.4006
    27.4547  27.7146  27.9866  28.1941  28.3769  28.7855  28.9469  28.9690
    29.2475  29.4738  29.5903  29.7312  29.9610  30.0518  30.3907  30.6134
    30.8317  30.8812  31.1764  31.2458  31.3680  31.6976  31.9512  31.9917
    32.3245  32.4070  32.4895  32.6092  32.8500  33.0499  33.2843  33.5147
    33.5239  33.5467  33.7969  33.9315  34.0687  34.0888  34.1933  34.3989
    34.6609  34.8179  35.0521  35.2761  35.4200  35.6880  35.8495  35.9879
    36.4178  36.5325  36.5899  36.9937  37.2076  37.3006  37.3526  37.4946
    37.7282  37.7637  37.8645  38.0618  38.1315  38.2251  38.5283  38.6284
    38.8813  39.0137  39.1547  39.2780  39.4030  39.6272  39.6882  39.8733
    39.9984  40.0763  40.1549  40.2472  40.3579  40.4716  40.5792  40.6527
    40.8781  40.9494  41.0218  41.1641  41.4427  41.4537  41.6175  41.7035
    41.8888  42.0045  42.1940  42.2502  42.5359  42.6943  42.9726  43.0446
    43.1101  43.1952  43.2215  43.4480  43.5685  43.6712  43.8678  43.9707

     occupation numbers
     1.0000   1.0000   1.0000   1.0000   1.0000   1.0000   1.0000   1.0000
     1.0000   1.0000   1.0000   1.0000   1.0000   1.0000   1.0000   1.0000
     1.0000   1.0000   1.0000   1.0000   1.0000   1.0000   1.0000   1.0000
     1.0000   1.0000   1.0000   1.0000   1.0000   1.0000   1.0000   1.0000
     1.0000   1.0000   1.0000   1.0000   1.0000   1.0000   1.0000   1.0000
     1.0000   1.0000   1.0000   1.0000   1.0000   1.0000   1.0000   1.0000
     1.0000   1.0000   1.0000   1.0000   1.0000   1.0000   1.0000   1.0000
     1.0000   1.0000   1.0000   1.0000   1.0000   1.0000   1.0000   1.0000
     1.0000   1.0000   1.0000   1.0000   1.0000   1.0000   1.0000   1.0000
     1.0000   1.0000   1.0000   1.0000   1.0000   1.0000   1.0000   1.0000
     1.0000   1.0000   1.0000   1.0000   0.0000   0.0000   0.0000   0.0000
     0.0000   0.0000   0.0000   0.0000   0.0000   0.0000   0.0000   0.0000
     0.0000   0.0000   0.0000   0.0000   0.0000   0.0000   0.0000   0.0000
     0.0000   0.0000   0.0000   0.0000   0.0000   0.0000   0.0000   0.0000
     0.0000   0.0000   0.0000   0.0000   0.0000   0.0000   0.0000   0.0000
     0.0000   0.0000   0.0000   0.0000   0.0000   0.0000   0.0000   0.0000
     0.0000   0.0000   0.0000   0.0000   0.0000   0.0000   0.0000   0.0000
     0.0000   0.0000   0.0000   0.0000   0.0000   0.0000   0.0000   0.0000
     0.0000   0.0000   0.0000   0.0000   0.0000   0.0000   0.0000   0.0000
     0.0000   0.0000   0.0000   0.0000   0.0000   0.0000   0.0000   0.0000
     0.0000   0.0000   0.0000   0.0000   0.0000   0.0000   0.0000   0.0000
     0.0000   0.0000   0.0000   0.0000   0.0000   0.0000   0.0000   0.0000
     0.0000   0.0000   0.0000   0.0000   0.0000   0.0000   0.0000   0.0000
     0.0000   0.0000   0.0000   0.0000   0.0000   0.0000   0.0000   0.0000
     0.0000   0.0000   0.0000   0.0000   0.0000   0.0000   0.0000   0.0000
     0.0000   0.0000   0.0000   0.0000   0.0000   0.0000   0.0000   0.0000
     0.0000   0.0000   0.0000   0.0000   0.0000   0.0000   0.0000   0.0000
     0.0000   0.0000   0.0000   0.0000   0.0000   0.0000   0.0000   0.0000
     0.0000   0.0000   0.0000   0.0000   0.0000   0.0000   0.0000   0.0000
     0.0000   0.0000   0.0000   0.0000   0.0000   0.0000   0.0000   0.0000
     0.0000   0.0000   0.0000   0.0000   0.0000   0.0000   0.0000   0.0000
     0.0000   0.0000   0.0000   0.0000   0.0000   0.0000   0.0000   0.0000

     highest occupied, lowest unoccupied level (ev):     7.7741    8.6505

!    total energy              =   -4281.90313639 Ry
     estimated scf accuracy    <       0.00000029 Ry

     The total energy is the sum of the following terms:
     one-electron contribution =    -280.30321323 Ry
     hartree contribution      =     258.52080894 Ry
     xc contribution           =    -315.22789820 Ry
     ewald contribution        =    -916.42994294 Ry
     one-center paw contrib.   =   -3028.46289096 Ry
      -> PAW hartree energy AE =       0.00000000 Ry
      -> PAW hartree energy PS =       0.00000000 Ry
      -> PAW xc energy AE      =       0.00000000 Ry
      -> PAW xc energy PS      =       0.00000000 Ry
      -> total E_H with PAW    =     258.52080894 Ry
      -> total E_XC with PAW   =    -315.22789820 Ry

     convergence has been achieved in   8 iterations

     Writing all to output data dir bands_nm/myprefix.save/

     General routines

     Parallel routines

     PAW routines

   This run was terminated on:  18:58:46  15Jul2023

   JOB DONE.