     Program PWSCF v.7.1 starts on 16Jul2023 at 21:16:18

     Reading input from espresso_26103.pwi
Warning: card &CELL ignored
Warning: card / ignored

     Current dimensions of program PWSCF are:
     Max number of different atomic species (ntypx) = 10
     Max number of k-points (npk) =  40000
     Max angular momentum in pseudopotentials (lmaxx) =  4
     file O.pbe-n-kjpaw_psl.0.1.UPF: wavefunction(s)  2P renormalized
     Message from routine setup:
     using ibrav=0 with symmetry is DISCOURAGED, use correct ibrav instead

     K-points division:     npool     =       2
     R & G space division:  proc/nbgrp/npool/nimage =       4
     Subspace diagonalization in iterative solution of the eigenvalue problem:
     one sub-group per band group will be used

     Using Slab Decomposition

     bravais-lattice index     =            0
     lattice parameter (alat)  =      14.8320  a.u.
     unit-cell volume          =    1615.6725 (a.u.)^3
     number of atoms/cell      =           20
     number of atomic types    =            3
     number of electrons       =       204.00
     number of Kohn-Sham states=          256
     kinetic-energy cutoff     =      30.0000  Ry
     charge density cutoff     =     240.0000  Ry
     scf convergence threshold =      1.0E-06
     mixing beta               =       0.7000
     number of iterations used =            8  plain     mixing
     Exchange-correlation= SLA  PW   PBX  PBC
                           (   1   4   3   4   0   0   0)

     celldm(1)=  14.832007  celldm(2)=   0.000000  celldm(3)=   0.000000
     celldm(4)=   0.000000  celldm(5)=   0.000000  celldm(6)=   0.000000

     crystal axes: (cart. coord. in units of alat)
               a(1) = (   1.000000   0.000000   0.000000 )
               a(2) = (   0.000000   0.683983   0.000000 )
               a(3) = (   0.000000   0.004285   0.723949 )

     reciprocal axes: (cart. coord. in units 2 pi/alat)
               b(1) = (  1.000000  0.000000  0.000000 )
               b(2) = (  0.000000  1.462024 -0.008654 )
               b(3) = (  0.000000  0.000000  1.381313 )

     PseudoPot. # 1 for Ni read from file:
     /lustre07/scratch/pragov/crystal_structure_design/utils/SSSP/ni_pbe_v1.4.uspp.F.UPF
     MD5 check sum: 1ee80287db30b12d2bc1f57a5b5d6409
     Pseudo is Ultrasoft + core correction, Zval = 18.0
     Generated by new atomic code, or converted to UPF format
     Using radial grid of  865 points,  6 beta functions with:
                l(1) =   0
                l(2) =   0
                l(3) =   1
                l(4) =   1
                l(5) =   2
                l(6) =   2
     Q(r) pseudized with 10 coefficients,  rinner =    0.980   0.980   0.980
                                                       0.980   0.980

     PseudoPot. # 2 for Bi read from file:
     /lustre07/scratch/pragov/crystal_structure_design/utils/SSSP/Bi_pbe_v1.uspp.F.UPF
     MD5 check sum: cceb9f28ec65b6d7ff33140f5b0b1758
     Pseudo is Ultrasoft + core correction, Zval = 15.0
     Generated by new atomic code, or converted to UPF format
     Using radial grid of  899 points,  6 beta functions with:
                l(1) =   0
                l(2) =   0
                l(3) =   1
                l(4) =   1
                l(5) =   2
                l(6) =   2
     Q(r) pseudized with  6 coefficients,  rinner =    1.000   1.000   1.000
                                                       1.000   1.000

     PseudoPot. # 3 for O  read from file:
     /lustre07/scratch/pragov/crystal_structure_design/utils/SSSP/O.pbe-n-kjpaw_psl.0.1.UPF
     MD5 check sum: 0234752ac141de4415c5fc33072bef88
     Pseudo is Projector augmented-wave + core cor, Zval =  6.0
     Generated using "atomic" code by A. Dal Corso  v.5.0.99 svn rev. 10869
     Shape of augmentation charge: BESSEL
     Using radial grid of 1095 points,  4 beta functions with:
                l(1) =   0
                l(2) =   0
                l(3) =   1
                l(4) =   1
     Q(r) pseudized with 0 coefficients

     atomic species   valence    mass     pseudopotential
        Ni            18.00    58.69340     Ni( 1.00)
        Bi            15.00   208.98040     Bi( 1.00)
        O              6.00    15.99900     O ( 1.00)

      4 Sym. Ops., with inversion, found ( 2 have fractional translation)

                                    s                        frac. trans.

      isym =  1     identity

 cryst.   s( 1) = (     1          0          0      )
                  (     0          1          0      )
                  (     0          0          1      )

 cart.    s( 1) = (  1.0000000  0.0000000  0.0000000 )
                  (  0.0000000  1.0000000  0.0000000 )
                  (  0.0000000  0.0000000  1.0000000 )

      isym =  2     180 deg rotation - cart. axis [1,0,0]

 cryst.   s( 2) = (     1          0          0      )    f =(  0.5000000 )
                  (     0         -1          0      )       (  0.0000000 )
                  (     0          0         -1      )       (  0.0000000 )

 cart.    s( 2) = (  1.0000000  0.0000000  0.0000000 )    f =(  0.5000000 )
                  (  0.0000000 -1.0000000 -0.0000000 )       (  0.0000000 )
                  (  0.0000000  0.0000000 -1.0000000 )       (  0.0000000 )

      isym =  3     inversion

 cryst.   s( 3) = (    -1          0          0      )
                  (     0         -1          0      )
                  (     0          0         -1      )

 cart.    s( 3) = ( -1.0000000  0.0000000  0.0000000 )
                  (  0.0000000 -1.0000000 -0.0000000 )
                  (  0.0000000  0.0000000 -1.0000000 )

      isym =  4     inv. 180 deg rotation - cart. axis [1,0,0]

 cryst.   s( 4) = (    -1          0          0      )    f =(  0.5000000 )
                  (     0          1          0      )       (  0.0000000 )
                  (     0          0          1      )       (  0.0000000 )

 cart.    s( 4) = ( -1.0000000  0.0000000  0.0000000 )    f =(  0.5000000 )
                  (  0.0000000  1.0000000  0.0000000 )       (  0.0000000 )
                  (  0.0000000  0.0000000  1.0000000 )       (  0.0000000 )

   Cartesian axes

     site n.     atom                  positions (alat units)
         1           Ni  tau(   1) = (   0.5000000   0.0000000   0.0000000  )
         2           Ni  tau(   2) = (   0.5000000   0.3441343   0.3619745  )
         3           Ni  tau(   3) = (   0.0000000   0.0000000   0.0000000  )
         4           Ni  tau(   4) = (   0.0000000   0.3441343   0.3619745  )
         5           Bi  tau(   5) = (   0.7500000   0.3671196   0.6736382  )
         6           Bi  tau(   6) = (   0.2500000   0.3211490   0.0503108  )
         7           Bi  tau(   7) = (   0.2500000   0.0162734   0.4039968  )
         8           Bi  tau(   8) = (   0.7500000   0.6719952   0.3199522  )
         9           O   tau(   9) = (   0.5643360   0.4657898   0.1320526  )
        10           O   tau(  10) = (   0.4356640   0.2224788   0.5918964  )
        11           O   tau(  11) = (   0.4278060   0.1387954   0.2120693  )
        12           O   tau(  12) = (   0.5721940   0.5494731   0.5118797  )
        13           O   tau(  13) = (   0.0643360   0.2224788   0.5918964  )
        14           O   tau(  14) = (   0.9356640   0.4657898   0.1320526  )
        15           O   tau(  15) = (   0.9278060   0.5494731   0.5118797  )
        16           O   tau(  16) = (   0.0721940   0.1387954   0.2120693  )
        17           O   tau(  17) = (   0.7500000   0.1030905   0.0274666  )
        18           O   tau(  18) = (   0.2500000   0.5851781   0.6964824  )
        19           O   tau(  19) = (   0.7500000   0.2643657   0.4135559  )
        20           O   tau(  20) = (   0.2500000   0.4239029   0.3103931  )

   Crystallographic axes

     site n.     atom                  positions (cryst. coord.)
         1           Ni  tau(   1) = (  0.5000000  0.0000000  0.0000000  )
         2           Ni  tau(   2) = (  0.5000000  0.5000000  0.5000000  )
         3           Ni  tau(   3) = (  0.0000000  0.0000000  0.0000000  )
         4           Ni  tau(   4) = (  0.0000000  0.5000000  0.5000000  )
         5           Bi  tau(   5) = (  0.7500000  0.5309080  0.9305050  )
         6           Bi  tau(   6) = (  0.2500000  0.4690920  0.0694950  )
         7           Bi  tau(   7) = (  0.2500000  0.0202960  0.5580460  )
         8           Bi  tau(   8) = (  0.7500000  0.9797040  0.4419540  )
         9           O   tau(   9) = (  0.5643360  0.6798530  0.1824060  )
        10           O   tau(  10) = (  0.4356640  0.3201470  0.8175940  )
        11           O   tau(  11) = (  0.4278060  0.2010870  0.2929340  )
        12           O   tau(  12) = (  0.5721940  0.7989130  0.7070660  )
        13           O   tau(  13) = (  0.0643360  0.3201470  0.8175940  )
        14           O   tau(  14) = (  0.9356640  0.6798530  0.1824060  )
        15           O   tau(  15) = (  0.9278060  0.7989130  0.7070660  )
        16           O   tau(  16) = (  0.0721940  0.2010870  0.2929340  )
        17           O   tau(  17) = (  0.7500000  0.1504830  0.0379400  )
        18           O   tau(  18) = (  0.2500000  0.8495170  0.9620600  )
        19           O   tau(  19) = (  0.7500000  0.3829300  0.5712500  )
        20           O   tau(  20) = (  0.2500000  0.6170700  0.4287500  )

     number of k points=    10
                       cart. coord. in units 2pi/alat
        k(    1) = (   0.0000000   0.0000000   0.0000000), wk =   0.0740741
        k(    2) = (   0.0000000   0.0000000   0.4604376), wk =   0.1481481
        k(    3) = (   0.0000000   0.4873412  -0.0028846), wk =   0.1481481
        k(    4) = (   0.0000000   0.4873412   0.4575530), wk =   0.1481481
        k(    5) = (   0.0000000   0.4873412  -0.4633222), wk =   0.1481481
        k(    6) = (   0.3333333   0.0000000   0.0000000), wk =   0.1481481
        k(    7) = (   0.3333333   0.0000000   0.4604376), wk =   0.2962963
        k(    8) = (   0.3333333   0.4873412  -0.0028846), wk =   0.2962963
        k(    9) = (   0.3333333   0.4873412   0.4575530), wk =   0.2962963
        k(   10) = (   0.3333333   0.4873412  -0.4633222), wk =   0.2962963

                       cryst. coord.
        k(    1) = (   0.0000000   0.0000000   0.0000000), wk =   0.0740741
        k(    2) = (   0.0000000   0.0000000   0.3333333), wk =   0.1481481
        k(    3) = (   0.0000000   0.3333333   0.0000000), wk =   0.1481481
        k(    4) = (   0.0000000   0.3333333   0.3333333), wk =   0.1481481
        k(    5) = (   0.0000000   0.3333333  -0.3333333), wk =   0.1481481
        k(    6) = (   0.3333333   0.0000000   0.0000000), wk =   0.1481481
        k(    7) = (   0.3333333   0.0000000   0.3333333), wk =   0.2962963
        k(    8) = (   0.3333333   0.3333333   0.0000000), wk =   0.2962963
        k(    9) = (   0.3333333   0.3333333   0.3333333), wk =   0.2962963
        k(   10) = (   0.3333333   0.3333333  -0.3333333), wk =   0.2962963

     Check: negative core charge=   -0.000014

     Initial potential from superposition of free atoms

     starting charge     191.9998, renormalised to     204.0000

     negative rho (up, down):  1.811E-01 0.000E+00
     Starting wfcs are  136 randomized atomic wfcs +  120 random wfcs
     Checking if some PAW data can be deallocated...

     Self-consistent Calculation

     iteration #  1     ecut=    30.00 Ry     beta= 0.70
     Davidson diagonalization with overlap

     ethr =  1.00E-02,  avg # of iterations =  6.0

     negative rho (up, down):  1.838E-01 0.000E+00

     total energy              =   -2481.34878290 Ry
     estimated scf accuracy    <     170.93231316 Ry

[...]

     total energy              =   -2612.33844324 Ry
     estimated scf accuracy    <       0.00000917 Ry

     iteration # 20     ecut=    30.00 Ry     beta= 0.70
     Davidson diagonalization with overlap

     ethr =  4.50E-09,  avg # of iterations =  1.0

     negative rho (up, down):  1.684E-01 0.000E+00

     End of self-consistent calculation

          k = 0.0000 0.0000 0.0000 (  4473 PWs)   bands (ev):

   -91.9004 -91.8997 -91.7384 -91.7377 -52.3047 -52.2978 -52.1905 -52.1890
   -52.1571 -52.1504 -52.1423 -52.1398 -52.0453 -52.0395 -51.9975 -51.9930
   -11.2202 -11.2008 -11.1307 -11.0948 -11.0934 -11.0814 -11.0616 -11.0513
   -11.0087 -10.9830 -10.9807 -10.9763 -10.9620 -10.9438 -10.9277 -10.9159
   -10.9133 -10.9107 -10.8314 -10.8280  -8.0060  -7.1564  -6.6889  -6.4643
    -6.4185  -6.3880  -6.1488  -5.9367  -5.7131  -5.6853  -5.6693  -5.6426
     0.5452   0.9359   2.4615   3.2542   5.2884   5.3495   5.6632   5.8651
     5.8692   5.9075   6.0148   6.4662   6.5410   6.9416   7.0629   7.2750
     7.3150   7.4095   7.5213   7.7798   7.7979   7.8280   8.3089   8.3161
     8.5180   8.5505   8.5914   8.8220   8.9641   9.1763   9.2048   9.3842
     9.4320   9.4973   9.5859   9.6736  10.0006  10.0754  10.2160  10.3249
    10.3418  10.3975  10.4975  10.5010  10.6399  10.6994  10.7660  10.8526
    10.8822  10.9787  11.1250  11.4309  11.6141  11.8172  11.8771  11.9708
    12.5014  12.9605  13.0998  13.2418  14.4865  15.7215  15.9091  16.0478
    16.1330  17.0023  17.5094  17.8907  18.0772  18.2947  18.5478  18.7210
    19.5886  19.9775  20.7701  20.8636  20.9731  21.1827  21.4584  21.9941
    22.0006  22.9009  23.0654  23.3761  23.4196  24.1561  24.2938  24.3351
    24.8098  24.8277  25.2136  25.5761  25.5782  25.9145  26.2237  26.3648
    26.5035  26.5174  26.5780  27.2958  27.5199  27.5506  28.3143  28.5901
    28.7409  29.1683  29.5078  29.6212  29.8166  29.8998  30.5580  30.5833
    30.5851  31.0366  31.2336  31.3997  31.5868  31.6406  31.9480  32.1046
    32.4914  32.5920  32.6807  32.8046  33.0572  33.2645  33.6530  33.7268
    34.0097  34.0169  34.1539  34.6910  34.7337  34.8280  34.8836  35.1469
    35.3693  35.4271  35.5699  35.8533  36.2808  36.3250  36.6150  36.8539
    37.1799  37.4826  37.6565  37.8140  37.8753  37.8870  37.9144  38.0252
    38.0437  38.0840  38.2890  38.5982  38.7993  38.8413  38.8845  39.3018
    39.4241  39.4939  39.7259  40.5496  40.7567  40.7602  40.8466  41.0565
    41.1418  41.5588  41.8418  41.9256  42.0089  42.3189  42.3711  42.4471
    43.0862  43.1050  43.1982  43.4137  43.5616  43.5622  43.8341  44.1765
    44.2912  44.6828  44.7162  44.7175  44.8829  44.8925  45.4388  45.8863
    45.9324  46.0231  46.0261  46.0765  46.4969  46.6081  46.7673  46.8048
    47.1843  47.3551  47.3891  47.5241  47.6627  48.1128  48.1614  48.4315

     occupation numbers
     1.0000   1.0000   1.0000   1.0000   1.0000   1.0000   1.0000   1.0000
     1.0000   1.0000   1.0000   1.0000   1.0000   1.0000   1.0000   1.0000
     1.0000   1.0000   1.0000   1.0000   1.0000   1.0000   1.0000   1.0000
     1.0000   1.0000   1.0000   1.0000   1.0000   1.0000   1.0000   1.0000
     1.0000   1.0000   1.0000   1.0000   1.0000   1.0000   1.0000   1.0000
     1.0000   1.0000   1.0000   1.0000   1.0000   1.0000   1.0000   1.0000
     1.0000   1.0000   1.0000   1.0000   1.0000   1.0000   1.0000   1.0000
     1.0000   1.0000   1.0000   1.0000   1.0000   1.0000   1.0000   1.0000
     1.0000   1.0000   1.0000   1.0000   1.0000   1.0000   1.0000   1.0000
     1.0000   1.0000   1.0000   1.0000   1.0000   1.0000   1.0000   1.0000
     1.0000   1.0000   1.0000   1.0000   1.0000   1.0000   1.0000   1.0000
     1.0000   1.0000   1.0000   1.0000   1.0000   1.0000   1.0000   1.0000
     1.0000   1.0000   1.0000   1.0000   1.0000   1.0000   0.0000   0.0000
     0.0000   0.0000   0.0000   0.0000   0.0000   0.0000   0.0000   0.0000
     0.0000   0.0000   0.0000   0.0000   0.0000   0.0000   0.0000   0.0000
     0.0000   0.0000   0.0000   0.0000   0.0000   0.0000   0.0000   0.0000
     0.0000   0.0000   0.0000   0.0000   0.0000   0.0000   0.0000   0.0000
     0.0000   0.0000   0.0000   0.0000   0.0000   0.0000   0.0000   0.0000
     0.0000   0.0000   0.0000   0.0000   0.0000   0.0000   0.0000   0.0000
     0.0000   0.0000   0.0000   0.0000   0.0000   0.0000   0.0000   0.0000
     0.0000   0.0000   0.0000   0.0000   0.0000   0.0000   0.0000   0.0000
     0.0000   0.0000   0.0000   0.0000   0.0000   0.0000   0.0000   0.0000
     0.0000   0.0000   0.0000   0.0000   0.0000   0.0000   0.0000   0.0000
     0.0000   0.0000   0.0000   0.0000   0.0000   0.0000   0.0000   0.0000
     0.0000   0.0000   0.0000   0.0000   0.0000   0.0000   0.0000   0.0000
     0.0000   0.0000   0.0000   0.0000   0.0000   0.0000   0.0000   0.0000
     0.0000   0.0000   0.0000   0.0000   0.0000   0.0000   0.0000   0.0000
     0.0000   0.0000   0.0000   0.0000   0.0000   0.0000   0.0000   0.0000
     0.0000   0.0000   0.0000   0.0000   0.0000   0.0000   0.0000   0.0000
     0.0000   0.0000   0.0000   0.0000   0.0000   0.0000   0.0000   0.0000
     0.0000   0.0000   0.0000   0.0000   0.0000   0.0000   0.0000   0.0000
     0.0000   0.0000   0.0000   0.0000   0.0000   0.0000   0.0000   0.0000

[...]

          k = 0.3333 0.4873-0.4633 (  4484 PWs)   bands (ev):

   -91.9006 -91.8998 -91.7386 -91.7379 -52.3037 -52.3031 -52.1887 -52.1868
   -52.1555 -52.1534 -52.1407 -52.1397 -52.0460 -52.0440 -51.9960 -51.9947
   -11.1582 -11.1495 -11.1179 -11.0968 -11.0894 -11.0840 -11.0771 -11.0666
   -11.0032 -10.9989 -10.9918 -10.9902 -10.9677 -10.9665 -10.9319 -10.9187
   -10.9152 -10.9091 -10.8457 -10.8431  -7.3789  -7.1254  -6.6702  -6.6141
    -6.5180  -6.4348  -6.1008  -6.0942  -5.9308  -5.9195  -5.7675  -5.7401
     1.3124   1.5001   1.7418   2.0099   5.6687   5.8466   5.9912   6.0874
     6.3495   6.4299   6.4934   6.5280   6.7870   6.8166   6.9842   7.1035
     7.4773   7.6096   7.6632   7.7873   7.8321   7.9954   8.1278   8.1632
     8.2172   8.3883   8.5479   8.6190   8.6601   8.8008   8.9560   9.1033
     9.1592   9.2414   9.4097   9.4208   9.9441  10.1909  10.2255  10.4106
    10.4577  10.5707  10.6139  10.6429  10.7220  10.7929  10.8288  10.8767
    11.0072  11.0799  11.3300  11.5987  11.7186  11.8250  12.0720  12.3521
    12.3537  12.4770  12.5104  12.8376  14.8333  15.3266  15.6309  15.7470
    16.4092  16.7308  17.2769  17.4829  17.9146  18.0819  18.3989  18.6564
    19.9026  20.0891  20.7200  20.8016  21.8590  22.2111  22.4085  22.6460
    22.7445  22.9806  23.2330  23.3479  23.4928  23.8263  23.9885  24.1412
    24.5132  24.5961  24.7389  24.8753  24.9574  25.1472  25.3135  25.6989
    26.0365  26.1010  26.5230  26.7245  27.4714  27.8423  28.2597  28.3778
    28.6337  28.8688  29.1072  29.2729  29.5097  29.8507  29.9462  30.3640
    30.7507  31.1750  31.3855  31.6396  31.7767  31.8538  32.2107  32.4057
    32.6278  33.0784  33.3037  33.4287  33.6965  33.7925  34.0530  34.2337
    34.3015  34.4768  34.9559  35.0304  35.2379  35.4002  35.5091  35.7720
    35.9502  36.0978  36.3808  36.4673  36.6540  36.9647  37.0568  37.2306
    37.4110  37.6331  37.8384  37.8788  37.8891  37.9943  38.0277  38.0353
    38.1641  38.3456  38.5681  38.5876  38.9581  39.1512  39.2897  39.5127
    39.5171  39.7381  39.9560  40.1799  40.2176  40.3192  40.6728  40.8794
    41.0137  41.2773  41.4060  41.8042  41.8627  42.0217  42.3115  42.6045
    42.6820  42.7915  43.0003  43.0997  43.1968  43.6181  43.6952  43.8578
    43.9906  44.1308  44.2210  44.3849  44.4770  44.7289  44.9090  44.9335
    45.1428  45.4975  45.5799  45.6795  45.9594  46.1395  46.2133  46.2932
    46.5432  46.8228  46.9341  47.2010  47.2595  47.3833  47.4473  47.7599

     occupation numbers
     1.0000   1.0000   1.0000   1.0000   1.0000   1.0000   1.0000   1.0000
     1.0000   1.0000   1.0000   1.0000   1.0000   1.0000   1.0000   1.0000
     1.0000   1.0000   1.0000   1.0000   1.0000   1.0000   1.0000   1.0000
     1.0000   1.0000   1.0000   1.0000   1.0000   1.0000   1.0000   1.0000
     1.0000   1.0000   1.0000   1.0000   1.0000   1.0000   1.0000   1.0000
     1.0000   1.0000   1.0000   1.0000   1.0000   1.0000   1.0000   1.0000
     1.0000   1.0000   1.0000   1.0000   1.0000   1.0000   1.0000   1.0000
     1.0000   1.0000   1.0000   1.0000   1.0000   1.0000   1.0000   1.0000
     1.0000   1.0000   1.0000   1.0000   1.0000   1.0000   1.0000   1.0000
     1.0000   1.0000   1.0000   1.0000   1.0000   1.0000   1.0000   1.0000
     1.0000   1.0000   1.0000   1.0000   1.0000   1.0000   1.0000   1.0000
     1.0000   1.0000   1.0000   1.0000   1.0000   1.0000   1.0000   1.0000
     1.0000   1.0000   1.0000   1.0000   1.0000   1.0000   0.0000   0.0000
     0.0000   0.0000   0.0000   0.0000   0.0000   0.0000   0.0000   0.0000
     0.0000   0.0000   0.0000   0.0000   0.0000   0.0000   0.0000   0.0000
     0.0000   0.0000   0.0000   0.0000   0.0000   0.0000   0.0000   0.0000
     0.0000   0.0000   0.0000   0.0000   0.0000   0.0000   0.0000   0.0000
     0.0000   0.0000   0.0000   0.0000   0.0000   0.0000   0.0000   0.0000
     0.0000   0.0000   0.0000   0.0000   0.0000   0.0000   0.0000   0.0000
     0.0000   0.0000   0.0000   0.0000   0.0000   0.0000   0.0000   0.0000
     0.0000   0.0000   0.0000   0.0000   0.0000   0.0000   0.0000   0.0000
     0.0000   0.0000   0.0000   0.0000   0.0000   0.0000   0.0000   0.0000
     0.0000   0.0000   0.0000   0.0000   0.0000   0.0000   0.0000   0.0000
     0.0000   0.0000   0.0000   0.0000   0.0000   0.0000   0.0000   0.0000
     0.0000   0.0000   0.0000   0.0000   0.0000   0.0000   0.0000   0.0000
     0.0000   0.0000   0.0000   0.0000   0.0000   0.0000   0.0000   0.0000
     0.0000   0.0000   0.0000   0.0000   0.0000   0.0000   0.0000   0.0000
     0.0000   0.0000   0.0000   0.0000   0.0000   0.0000   0.0000   0.0000
     0.0000   0.0000   0.0000   0.0000   0.0000   0.0000   0.0000   0.0000
     0.0000   0.0000   0.0000   0.0000   0.0000   0.0000   0.0000   0.0000
     0.0000   0.0000   0.0000   0.0000   0.0000   0.0000   0.0000   0.0000
     0.0000   0.0000   0.0000   0.0000   0.0000   0.0000   0.0000   0.0000

     highest occupied, lowest unoccupied level (ev):    11.9714   11.8771

!    total energy              =   -2612.33844373 Ry
     estimated scf accuracy    <       0.00000014 Ry

     The total energy is the sum of the following terms:
     one-electron contribution =   -1228.18125189 Ry
     hartree contribution      =     749.72730452 Ry
     xc contribution           =    -489.20843852 Ry
     ewald contribution        =   -1530.25224157 Ry
     one-center paw contrib.   =    -114.42381628 Ry
      -> PAW hartree energy AE =       0.00000000 Ry
      -> PAW hartree energy PS =       0.00000000 Ry
      -> PAW xc energy AE      =       0.00000000 Ry
      -> PAW xc energy PS      =       0.00000000 Ry
      -> total E_H with PAW    =     749.72730452 Ry
      -> total E_XC with PAW   =    -489.20843852 Ry

     convergence has been achieved in  20 iterations

     Writing all to output data dir bands_nm/myprefix.save/

     General routines

     Parallel routines

     PAW routines

   This run was terminated on:  21:17:41  16Jul2023

   JOB DONE.