     Program PWSCF v.7.1 starts on 14Jul2023 at 21: 8:41

     Reading input from espresso_22037.pwi
Warning: card &CELL ignored
Warning: card / ignored

     Current dimensions of program PWSCF are:
     Max number of different atomic species (ntypx) = 10
     Max number of k-points (npk) =  40000
     Max angular momentum in pseudopotentials (lmaxx) =  4
     file O.pbe-n-kjpaw_psl.0.1.UPF: wavefunction(s)  2P renormalized
     Message from routine setup:
     using ibrav=0 with symmetry is DISCOURAGED, use correct ibrav instead

     K-points division:     npool     =       2
     R & G space division:  proc/nbgrp/npool/nimage =       4
     Subspace diagonalization in iterative solution of the eigenvalue problem:
     a serial algorithm will be used

     Using Slab Decomposition

     bravais-lattice index     =            0
     lattice parameter (alat)  =       6.8088  a.u.
     unit-cell volume          =    1015.2838 (a.u.)^3
     number of atoms/cell      =            8
     number of atomic types    =            3
     number of electrons       =        92.00
     number of Kohn-Sham states=           64
     kinetic-energy cutoff     =      30.0000  Ry
     charge density cutoff     =     240.0000  Ry
     scf convergence threshold =      1.0E-06
     mixing beta               =       0.7000
     number of iterations used =            8  plain     mixing
     Exchange-correlation= SLA  PW   PBX  PBC
                           (   1   4   3   4   0   0   0)

     celldm(1)=   6.808816  celldm(2)=   0.000000  celldm(3)=   0.000000
     celldm(4)=   0.000000  celldm(5)=   0.000000  celldm(6)=   0.000000

     crystal axes: (cart. coord. in units of alat)
               a(1) = (   1.000000   0.000000   0.000000 )
               a(2) = (   0.000000   1.865337   0.000000 )
               a(3) = (   0.000000   0.755030   1.724310 )

     reciprocal axes: (cart. coord. in units 2 pi/alat)
               b(1) = (  1.000000  0.000000  0.000000 )
               b(2) = (  0.000000  0.536096 -0.234742 )
               b(3) = (  0.000000  0.000000  0.579942 )

     PseudoPot. # 1 for Ag read from file:
     /lustre07/scratch/pragov/crystal_structure_design/utils/SSSP/Ag_ONCV_PBE-1.0.oncvpsp.upf
     MD5 check sum: 94f47bd0669c641108e45594df92fabc
     Pseudo is Norm-conserving, Zval = 19.0
     Generated using ONCVPSP code by D. R. Hamann
     Using radial grid of 1398 points,  6 beta functions with:
                l(1) =   0
                l(2) =   0
                l(3) =   1
                l(4) =   1
                l(5) =   2
                l(6) =   2

     PseudoPot. # 2 for Bi read from file:
     /lustre07/scratch/pragov/crystal_structure_design/utils/SSSP/Bi_pbe_v1.uspp.F.UPF
     MD5 check sum: cceb9f28ec65b6d7ff33140f5b0b1758
     Pseudo is Ultrasoft + core correction, Zval = 15.0
     Generated by new atomic code, or converted to UPF format
     Using radial grid of  899 points,  6 beta functions with:
                l(1) =   0
                l(2) =   0
                l(3) =   1
                l(4) =   1
                l(5) =   2
                l(6) =   2
     Q(r) pseudized with  6 coefficients,  rinner =    1.000   1.000   1.000
                                                       1.000   1.000

     PseudoPot. # 3 for O  read from file:
     /lustre07/scratch/pragov/crystal_structure_design/utils/SSSP/O.pbe-n-kjpaw_psl.0.1.UPF
     MD5 check sum: 0234752ac141de4415c5fc33072bef88
     Pseudo is Projector augmented-wave + core cor, Zval =  6.0
     Generated using "atomic" code by A. Dal Corso  v.5.0.99 svn rev. 10869
     Shape of augmentation charge: BESSEL
     Using radial grid of 1095 points,  4 beta functions with:
                l(1) =   0
                l(2) =   0
                l(3) =   1
                l(4) =   1
     Q(r) pseudized with 0 coefficients

     atomic species   valence    mass     pseudopotential
        Ag            19.00   107.86820     Ag( 1.00)
        Bi            15.00   208.98040     Bi( 1.00)
        O              6.00    15.99900     O ( 1.00)

      4 Sym. Ops., with inversion, found ( 2 have fractional translation)

                                    s                        frac. trans.

      isym =  1     identity

 cryst.   s( 1) = (     1          0          0      )
                  (     0          1          0      )
                  (     0          0          1      )

 cart.    s( 1) = (  1.0000000  0.0000000  0.0000000 )
                  (  0.0000000  1.0000000  0.0000000 )
                  (  0.0000000  0.0000000  1.0000000 )

      isym =  2     180 deg rotation - cart. axis [1,0,0]

 cryst.   s( 2) = (     1          0          0      )    f =(  0.5000000 )
                  (     0         -1          0      )       ( -0.0000000 )
                  (     0          0         -1      )       ( -0.0000000 )

 cart.    s( 2) = (  1.0000000  0.0000000  0.0000000 )    f =(  0.5000000 )
                  (  0.0000000 -1.0000000  0.0000000 )       ( -0.0000000 )
                  (  0.0000000  0.0000000 -1.0000000 )       ( -0.0000000 )

      isym =  3     inversion

 cryst.   s( 3) = (    -1          0          0      )
                  (     0         -1          0      )
                  (     0          0         -1      )

 cart.    s( 3) = ( -1.0000000  0.0000000  0.0000000 )
                  (  0.0000000 -1.0000000  0.0000000 )
                  (  0.0000000  0.0000000 -1.0000000 )

      isym =  4     inv. 180 deg rotation - cart. axis [1,0,0]

 cryst.   s( 4) = (    -1          0          0      )    f =(  0.5000000 )
                  (     0          1          0      )       (  0.0000000 )
                  (     0          0          1      )       (  0.0000000 )

 cart.    s( 4) = ( -1.0000000  0.0000000  0.0000000 )    f =(  0.5000000 )
                  (  0.0000000  1.0000000  0.0000000 )       (  0.0000000 )
                  (  0.0000000  0.0000000  1.0000000 )       (  0.0000000 )

   Cartesian axes

     site n.     atom                  positions (alat units)
         1           Ag  tau(   1) = (   0.2500000   2.3440057   1.1759795  )
         2           Ag  tau(   2) = (   0.7500000   0.2763617   0.5483306  )
         3           Bi  tau(   3) = (   0.7500000   1.4200765   1.2986469  )
         4           Bi  tau(   4) = (   0.2500000   1.2002908   0.4256632  )
         5           O   tau(   5) = (   0.2500000   1.8030425   1.3885180  )
         6           O   tau(   6) = (   0.7500000   0.8173249   0.3357921  )
         7           O   tau(   7) = (   0.7500000   1.5824423   0.7105709  )
         8           O   tau(   8) = (   0.2500000   1.0379250   1.0137392  )

   Crystallographic axes

     site n.     atom                  positions (cryst. coord.)
         1           Ag  tau(   1) = (  0.2500000  0.9805600  0.6820000  )
         2           Ag  tau(   2) = (  0.7500000  0.0194400  0.3180000  )
         3           Bi  tau(   3) = (  0.7500000  0.4564500  0.7531400  )
         4           Bi  tau(   4) = (  0.2500000  0.5435500  0.2468600  )
         5           O   tau(   5) = (  0.2500000  0.6406600  0.8052600  )
         6           O   tau(   6) = (  0.7500000  0.3593400  0.1947400  )
         7           O   tau(   7) = (  0.7500000  0.6815400  0.4120900  )
         8           O   tau(   8) = (  0.2500000  0.3184600  0.5879100  )

     number of k points=    10
                       cart. coord. in units 2pi/alat
        k(    1) = (   0.0000000   0.0000000   0.0000000), wk =   0.0740741
        k(    2) = (   0.0000000   0.0000000   0.1933140), wk =   0.1481481
        k(    3) = (   0.0000000   0.1786987  -0.0782475), wk =   0.1481481
        k(    4) = (   0.0000000   0.1786987   0.1150666), wk =   0.1481481
        k(    5) = (   0.0000000   0.1786987  -0.2715615), wk =   0.1481481
        k(    6) = (   0.3333333   0.0000000   0.0000000), wk =   0.1481481
        k(    7) = (   0.3333333   0.0000000   0.1933140), wk =   0.2962963
        k(    8) = (   0.3333333   0.1786987  -0.0782475), wk =   0.2962963
        k(    9) = (   0.3333333   0.1786987   0.1150666), wk =   0.2962963
        k(   10) = (   0.3333333   0.1786987  -0.2715615), wk =   0.2962963

                       cryst. coord.
        k(    1) = (   0.0000000   0.0000000   0.0000000), wk =   0.0740741
        k(    2) = (   0.0000000   0.0000000   0.3333333), wk =   0.1481481
        k(    3) = (   0.0000000   0.3333333   0.0000000), wk =   0.1481481
        k(    4) = (   0.0000000   0.3333333   0.3333333), wk =   0.1481481
        k(    5) = (   0.0000000   0.3333333  -0.3333333), wk =   0.1481481
        k(    6) = (   0.3333333   0.0000000   0.0000000), wk =   0.1481481
        k(    7) = (   0.3333333   0.0000000   0.3333333), wk =   0.2962963
        k(    8) = (   0.3333333   0.3333333   0.0000000), wk =   0.2962963
        k(    9) = (   0.3333333   0.3333333   0.3333333), wk =   0.2962963
        k(   10) = (   0.3333333   0.3333333  -0.3333333), wk =   0.2962963

     Check: negative core charge=   -0.000010

     Initial potential from superposition of free atoms

     starting charge      89.9993, renormalised to      92.0000

     negative rho (up, down):  8.627E-02 0.000E+00
     Starting wfcs are   54 randomized atomic wfcs +   10 random wfcs
     Checking if some PAW data can be deallocated...

     Self-consistent Calculation

     iteration #  1     ecut=    30.00 Ry     beta= 0.70
     Davidson diagonalization with overlap

     ethr =  1.00E-02,  avg # of iterations =  6.9

     negative rho (up, down):  8.035E-02 0.000E+00

     total energy              =   -1109.10981223 Ry
     estimated scf accuracy    <       3.21460733 Ry

[...]

     total energy              =   -1111.02388140 Ry
     estimated scf accuracy    <       0.00000421 Ry

     iteration # 10     ecut=    30.00 Ry     beta= 0.70
     Davidson diagonalization with overlap

     ethr =  4.58E-09,  avg # of iterations =  3.3

     negative rho (up, down):  8.290E-02 0.000E+00

     End of self-consistent calculation

          k = 0.0000 0.0000 0.0000 (  2801 PWs)   bands (ev):

   -83.1124 -83.1091 -46.2662 -46.2626 -46.1191 -46.0918 -46.0890 -46.0759
   -13.7351 -13.6107 -13.5816 -13.5814 -13.5237 -13.5208 -13.5132 -13.4979
   -13.4826 -13.4384  -9.7388  -8.5992  -8.4859  -8.1352  -1.2357  -0.0958
     3.9020   4.1199   4.9065   5.0306   5.1478   5.1877   5.2562   5.2820
     5.3945   5.4623   5.5009   5.7511   6.0216   6.0623   6.2659   6.5754
     6.6370   7.3666   7.5325   7.7436   8.1292   8.3411  10.7613  11.3932
    11.9860  12.7354  13.4218  13.7314  14.5683  14.8846  15.6529  17.9411
    18.6962  18.7223  19.8954  20.0053  20.1553  20.3929  21.3485  21.8239

     occupation numbers
     1.0000   1.0000   1.0000   1.0000   1.0000   1.0000   1.0000   1.0000
     1.0000   1.0000   1.0000   1.0000   1.0000   1.0000   1.0000   1.0000
     1.0000   1.0000   1.0000   1.0000   1.0000   1.0000   1.0000   1.0000
     1.0000   1.0000   1.0000   1.0000   1.0000   1.0000   1.0000   1.0000
     1.0000   1.0000   1.0000   1.0000   1.0000   1.0000   1.0000   1.0000
     1.0000   1.0000   1.0000   1.0000   1.0000   1.0000   0.0000   0.0000
     0.0000   0.0000   0.0000   0.0000   0.0000   0.0000   0.0000   0.0000
     0.0000   0.0000   0.0000   0.0000   0.0000   0.0000   0.0000   0.0000

[...]

          k = 0.3333 0.1787-0.2716 (  2830 PWs)   bands (ev):

   -83.1115 -83.1099 -46.2672 -46.2648 -46.1180 -46.1084 -46.0822 -46.0796
   -13.7041 -13.6791 -13.6044 -13.5573 -13.5264 -13.5173 -13.5154 -13.5013
   -13.4720 -13.4607  -9.1008  -8.5232  -8.3384  -8.0844  -1.1838  -0.6997
     3.4170   3.6049   4.0007   4.4609   4.6549   4.8995   5.1049   5.2642
     5.4372   5.5801   5.7612   5.8490   6.1977   6.2809   6.3108   6.6034
     7.1919   7.3489   7.6128   8.0586   8.1589   8.4170  10.8879  11.7149
    12.4803  13.2412  13.6875  14.1623  14.2902  14.5748  15.5329  15.9741
    16.7752  18.3318  18.7530  18.9595  19.3852  20.0657  20.2763  21.6257

     occupation numbers
     1.0000   1.0000   1.0000   1.0000   1.0000   1.0000   1.0000   1.0000
     1.0000   1.0000   1.0000   1.0000   1.0000   1.0000   1.0000   1.0000
     1.0000   1.0000   1.0000   1.0000   1.0000   1.0000   1.0000   1.0000
     1.0000   1.0000   1.0000   1.0000   1.0000   1.0000   1.0000   1.0000
     1.0000   1.0000   1.0000   1.0000   1.0000   1.0000   1.0000   1.0000
     1.0000   1.0000   1.0000   1.0000   1.0000   1.0000   0.0000   0.0000
     0.0000   0.0000   0.0000   0.0000   0.0000   0.0000   0.0000   0.0000
     0.0000   0.0000   0.0000   0.0000   0.0000   0.0000   0.0000   0.0000

     highest occupied, lowest unoccupied level (ev):     8.5422   10.1767

!    total energy              =   -1111.02388235 Ry
     estimated scf accuracy    <       0.00000014 Ry

     The total energy is the sum of the following terms:
     one-electron contribution =    -533.74266407 Ry
     hartree contribution      =     311.44935813 Ry
     xc contribution           =    -212.92376037 Ry
     ewald contribution        =    -637.68450637 Ry
     one-center paw contrib.   =     -38.12230966 Ry
      -> PAW hartree energy AE =       0.00000000 Ry
      -> PAW hartree energy PS =       0.00000000 Ry
      -> PAW xc energy AE      =       0.00000000 Ry
      -> PAW xc energy PS      =       0.00000000 Ry
      -> total E_H with PAW    =     311.44935813 Ry
      -> total E_XC with PAW   =    -212.92376037 Ry

     convergence has been achieved in  10 iterations

     Writing all to output data dir bands_nm/myprefix.save/

     General routines

     Parallel routines

     PAW routines

   This run was terminated on:  21: 8:52  14Jul2023

   JOB DONE.