     Program PWSCF v.7.1 starts on 16Jul2023 at 23:19:46

     Reading input from espresso_26585.pwi
Warning: card &CELL ignored
Warning: card / ignored

     Current dimensions of program PWSCF are:
     Max number of different atomic species (ntypx) = 10
     Max number of k-points (npk) =  40000
     Max angular momentum in pseudopotentials (lmaxx) =  4
     file O.pbe-n-kjpaw_psl.0.1.UPF: wavefunction(s)  2P renormalized
     Message from routine setup:
     using ibrav=0 with symmetry is DISCOURAGED, use correct ibrav instead

     K-points division:     npool     =       2
     R & G space division:  proc/nbgrp/npool/nimage =       4
     Subspace diagonalization in iterative solution of the eigenvalue problem:
     one sub-group per band group will be used

     Using Slab Decomposition

     bravais-lattice index     =            0
     lattice parameter (alat)  =      10.7337  a.u.
     unit-cell volume          =    1498.1920 (a.u.)^3
     number of atoms/cell      =           16
     number of atomic types    =            4
     number of electrons       =       152.00
     number of Kohn-Sham states=          256
     kinetic-energy cutoff     =      30.0000  Ry
     charge density cutoff     =     240.0000  Ry
     scf convergence threshold =      1.0E-06
     mixing beta               =       0.7000
     number of iterations used =            8  plain     mixing
     Exchange-correlation= SLA  PW   PBX  PBC
                           (   1   4   3   4   0   0   0)

     celldm(1)=  10.733650  celldm(2)=   0.000000  celldm(3)=   0.000000
     celldm(4)=   0.000000  celldm(5)=   0.000000  celldm(6)=   0.000000

     crystal axes: (cart. coord. in units of alat)
               a(1) = (   1.000000   0.000000   0.000000 )
               a(2) = (   0.000000   0.955595   0.000000 )
               a(3) = (   0.000000   0.958346   1.267801 )

     reciprocal axes: (cart. coord. in units 2 pi/alat)
               b(1) = (  1.000000  0.000000  0.000000 )
               b(2) = (  0.000000  1.046468 -0.791038 )
               b(3) = (  0.000000  0.000000  0.788767 )

     PseudoPot. # 1 for Na read from file:
     /lustre07/scratch/pragov/crystal_structure_design/utils/SSSP/na_pbe_v1.5.uspp.F.UPF
     MD5 check sum: 44600605ef58000f06b90626533354dc
     Pseudo is Ultrasoft, Zval =  9.0
     Generated by new atomic code, or converted to UPF format
     Using radial grid of  819 points,  5 beta functions with:
                l(1) =   0
                l(2) =   0
                l(3) =   1
                l(4) =   1
                l(5) =   2
     Q(r) pseudized with  8 coefficients,  rinner =    1.250   1.250   1.250
                                                       1.250   1.250

     PseudoPot. # 2 for Zn read from file:
     /lustre07/scratch/pragov/crystal_structure_design/utils/SSSP/Zn_pbe_v1.uspp.F.UPF
     MD5 check sum: df62231357ef9e81f77b2b3087fa5675
     Pseudo is Ultrasoft, Zval = 20.0
     Generated by new atomic code, or converted to UPF format
     Using radial grid of  943 points,  6 beta functions with:
                l(1) =   0
                l(2) =   0
                l(3) =   1
                l(4) =   1
                l(5) =   2
                l(6) =   2
     Q(r) pseudized with  8 coefficients,  rinner =    1.100   1.100   1.100
                                                       1.100   1.100

     PseudoPot. # 3 for Ge read from file:
     /lustre07/scratch/pragov/crystal_structure_design/utils/SSSP/ge_pbe_v1.4.uspp.F.UPF
     MD5 check sum: 9c9eaa91e581c3f09632fb3098b2c6b2
     Pseudo is Ultrasoft + core correction, Zval = 14.0
     Generated by new atomic code, or converted to UPF format
     Using radial grid of  873 points,  6 beta functions with:
                l(1) =   0
                l(2) =   0
                l(3) =   1
                l(4) =   1
                l(5) =   2
                l(6) =   2
     Q(r) pseudized with  8 coefficients,  rinner =    1.400   1.400   1.400
                                                       1.400   1.400

     PseudoPot. # 4 for O  read from file:
     /lustre07/scratch/pragov/crystal_structure_design/utils/SSSP/O.pbe-n-kjpaw_psl.0.1.UPF
     MD5 check sum: 0234752ac141de4415c5fc33072bef88
     Pseudo is Projector augmented-wave + core cor, Zval =  6.0
     Generated using "atomic" code by A. Dal Corso  v.5.0.99 svn rev. 10869
     Shape of augmentation charge: BESSEL
     Using radial grid of 1095 points,  4 beta functions with:
                l(1) =   0
                l(2) =   0
                l(3) =   1
                l(4) =   1
     Q(r) pseudized with 0 coefficients

     atomic species   valence    mass     pseudopotential
        Na             9.00    22.98977     Na( 1.00)
        Zn            20.00    65.38000     Zn( 1.00)
        Ge            14.00    72.63000     Ge( 1.00)
        O              6.00    15.99900     O ( 1.00)

      2 Sym. Ops. (no inversion) found ( 1 have fractional translation)

                                    s                        frac. trans.

      isym =  1     identity

 cryst.   s( 1) = (     1          0          0      )
                  (     0          1          0      )
                  (     0          0          1      )

 cart.    s( 1) = (  1.0000000  0.0000000  0.0000000 )
                  (  0.0000000  1.0000000  0.0000000 )
                  (  0.0000000  0.0000000  1.0000000 )

      isym =  2     inv. 180 deg rotation - cart. axis [1,0,0]

 cryst.   s( 2) = (    -1          0          0      )    f =(  0.0000000 )
                  (     0          1          0      )       ( -0.0000000 )
                  (     0          0          1      )       ( -0.5000000 )

 cart.    s( 2) = ( -1.0000000  0.0000000  0.0000000 )    f =(  0.0000000 )
                  (  0.0000000  1.0000000  0.0000000 )       ( -0.4791730 )
                  (  0.0000000  0.0000000  1.0000000 )       ( -0.6339006 )

   Cartesian axes

     site n.     atom                  positions (alat units)
         1           Na  tau(   1) = (   0.1780460   1.4294813   1.2634590  )
         2           Na  tau(   2) = (   0.6759140   0.4695059   0.3192805  )
         3           Na  tau(   3) = (   0.8219540   0.9503083   0.6295584  )
         4           Na  tau(   4) = (   0.3240860   0.9486788   0.9531812  )
         5           Zn  tau(   5) = (   0.8129280   0.9570467   0.0025876  )
         6           Zn  tau(   6) = (   0.1870720   1.4362197   0.6364882  )
         7           Ge  tau(   7) = (   0.3143290   0.9611720   0.3161655  )
         8           Ge  tau(   8) = (   0.6856710   1.4403450   0.9500662  )
         9           O   tau(   9) = (   0.7056950   0.7965843   0.9822062  )
        10           O   tau(  10) = (   0.2943050   0.3174113   0.3483056  )
        11           O   tau(  11) = (   0.2045380   0.8275044   0.5774176  )
        12           O   tau(  12) = (   0.7954620   1.3066774   1.2113182  )
        13           O   tau(  13) = (   0.1528700   0.8784522   0.0586776  )
        14           O   tau(  14) = (   0.3829930   1.3594883   0.9175103  )
        15           O   tau(  15) = (   0.6170070   0.8803153   0.2836097  )
        16           O   tau(  16) = (   0.8471300   1.3576252   0.6925783  )

   Crystallographic axes

     site n.     atom                  positions (cryst. coord.)
         1           Na  tau(   1) = (  0.1780460  0.4964630  0.9965750  )
         2           Na  tau(   2) = (  0.6759140  0.2387600  0.2518380  )
         3           Na  tau(   3) = (  0.8219540  0.4964630  0.4965750  )
         4           Na  tau(   4) = (  0.3240860  0.2387600  0.7518380  )
         5           Zn  tau(   5) = (  0.8129280  0.9994720  0.0020410  )
         6           Zn  tau(   6) = (  0.1870720  0.9994720  0.5020410  )
         7           Ge  tau(   7) = (  0.3143290  0.7557370  0.2493810  )
         8           Ge  tau(   8) = (  0.6856710  0.7557370  0.7493810  )
         9           O   tau(   9) = (  0.7056950  0.0566380  0.7747320  )
        10           O   tau(  10) = (  0.2943050  0.0566380  0.2747320  )
        11           O   tau(  11) = (  0.2045380  0.4091980  0.4554480  )
        12           O   tau(  12) = (  0.7954620  0.4091980  0.9554480  )
        13           O   tau(  13) = (  0.1528700  0.8728560  0.0462830  )
        14           O   tau(  14) = (  0.3829930  0.6968760  0.7237020  )
        15           O   tau(  15) = (  0.6170070  0.6968760  0.2237020  )
        16           O   tau(  16) = (  0.8471300  0.8728560  0.5462830  )

     number of k points=    10
                       cart. coord. in units 2pi/alat
        k(    1) = (   0.0000000   0.0000000   0.0000000), wk =   0.0740741
        k(    2) = (   0.0000000   0.0000000   0.2629224), wk =   0.1481481
        k(    3) = (   0.0000000   0.3488227  -0.2636792), wk =   0.1481481
        k(    4) = (   0.0000000   0.3488227  -0.0007568), wk =   0.1481481
        k(    5) = (   0.0000000   0.3488227  -0.5266016), wk =   0.1481481
        k(    6) = (   0.3333333   0.0000000   0.0000000), wk =   0.1481481
        k(    7) = (   0.3333333   0.0000000   0.2629224), wk =   0.2962963
        k(    8) = (   0.3333333   0.3488227  -0.2636792), wk =   0.2962963
        k(    9) = (   0.3333333   0.3488227  -0.0007568), wk =   0.2962963
        k(   10) = (   0.3333333   0.3488227  -0.5266016), wk =   0.2962963

                       cryst. coord.
        k(    1) = (   0.0000000   0.0000000   0.0000000), wk =   0.0740741
        k(    2) = (   0.0000000   0.0000000   0.3333333), wk =   0.1481481
        k(    3) = (   0.0000000   0.3333333   0.0000000), wk =   0.1481481
        k(    4) = (   0.0000000   0.3333333   0.3333333), wk =   0.1481481
        k(    5) = (   0.0000000   0.3333333  -0.3333333), wk =   0.1481481
        k(    6) = (   0.3333333   0.0000000   0.0000000), wk =   0.1481481
        k(    7) = (   0.3333333   0.0000000   0.3333333), wk =   0.2962963
        k(    8) = (   0.3333333   0.3333333   0.0000000), wk =   0.2962963
        k(    9) = (   0.3333333   0.3333333   0.3333333), wk =   0.2962963
        k(   10) = (   0.3333333   0.3333333  -0.3333333), wk =   0.2962963

     Check: negative core charge=   -0.000011

     Initial potential from superposition of free atoms

     starting charge     151.9728, renormalised to     152.0000
     Starting wfcs are   96 randomized atomic wfcs +  160 random wfcs
     Checking if some PAW data can be deallocated...

     Self-consistent Calculation

     iteration #  1     ecut=    30.00 Ry     beta= 0.70
     Davidson diagonalization with overlap

     ethr =  1.00E-02,  avg # of iterations =  7.8

     total energy              =   -2063.79896572 Ry
     estimated scf accuracy    <       3.25013288 Ry

[...]

     total energy              =   -2065.31281648 Ry
     estimated scf accuracy    <       0.00000500 Ry

     iteration #  8     ecut=    30.00 Ry     beta= 0.70
     Davidson diagonalization with overlap

     ethr =  3.29E-09,  avg # of iterations =  2.0

     End of self-consistent calculation

          k = 0.0000 0.0000 0.0000 (  4145 PWs)   bands (ev):

  -118.6919-118.6915 -72.8300 -72.8291 -72.8247 -72.8244 -72.8167 -72.8138
   -44.9345 -44.9345 -44.7154 -44.7153 -18.7503 -18.7497 -18.7444 -18.7435
   -18.7310 -18.7294 -18.5181 -18.5169 -18.5148 -18.5137 -16.8914 -16.8907
   -16.8696 -16.8652 -16.8459 -16.8441 -16.6667 -16.6637 -16.6522 -16.6511
   -16.6499 -16.6437 -13.4382 -13.1704 -12.0738 -11.9446 -11.9034 -11.8797
   -11.8676 -11.8226  -2.4045  -2.1683  -0.4545  -0.3360  -0.2923  -0.2082
    -0.1743  -0.1157   0.0704   0.1219   0.1980   0.2347   0.4142   0.8663
     0.9332   1.2364   1.3454   1.6893   2.2300   2.3247   2.5313   2.9980
     3.0451   3.0564   3.1997   3.2356   3.6551   3.7036   3.7758   3.9470
     3.9826   3.9960   4.0164   4.0447   6.7655  10.0724  10.6277  11.2420
    11.9068  11.9355  12.6482  12.7749  12.8238  12.9468  13.2517  13.6706
    13.7123  14.1162  14.1561  15.0535  15.0989  15.1347  15.4669  15.6653
    16.1232  16.7490  16.9295  17.0681  17.3544  17.4822  18.1064  18.2984
    18.5663  19.2889  19.4527  20.5269  20.6733  20.7385  20.8764  21.1641
    21.5654  21.6515  22.1293  22.1502  23.1052  23.1261  23.3726  23.7842
    23.9969  24.4772  24.5235  24.7837  25.0203  25.3138  25.9283  26.1144
    26.6095  26.6210  26.7737  26.9293  27.2759  27.4277  27.5037  27.8093
    27.9358  28.0642  28.2407  28.2862  28.4006  28.4824  28.9952  29.1561
    29.1871  29.6295  29.6572  30.0526  30.1446  30.3044  30.4358  30.5380
    30.7475  31.2560  31.4604  31.6840  31.8289  32.5727  32.6027  32.7268
    33.0216  33.2296  33.3254  33.5829  33.8953  34.1149  34.2917  34.8290
    34.8319  35.4170  35.5717  35.8193  36.2528  36.2823  36.5905  36.6362
    36.7919  37.1365  37.1620  37.7992  37.8722  38.0145  38.1797  38.4359
    38.7265  38.9299  39.0612  39.0809  39.1374  39.4117  39.4744  39.7075
    40.0225  40.4732  40.7217  40.9813  41.2351  41.4772  41.6724  42.0368
    42.0863  42.4006  42.5862  43.1256  43.1840  43.4870  43.6859  43.7202
    44.5547  44.6525  44.7482  44.7994  44.9080  45.1231  45.1368  45.3313
    45.5037  45.8728  46.0063  46.2007  46.3635  46.6612  46.7763  47.0630
    47.1906  47.2133  47.5217  47.5527  47.9176  47.9883  48.1740  48.3201
    48.3225  48.4740  48.6728  48.7077  48.8231  49.0184  49.1503  49.2138
    49.3626  49.4001  49.7774  49.9843  50.0011  50.2222  50.2567  50.4253
    50.4405  50.5098  50.7267  50.8657  50.9250  51.2765  51.3759  51.4341

     occupation numbers
     1.0000   1.0000   1.0000   1.0000   1.0000   1.0000   1.0000   1.0000
     1.0000   1.0000   1.0000   1.0000   1.0000   1.0000   1.0000   1.0000
     1.0000   1.0000   1.0000   1.0000   1.0000   1.0000   1.0000   1.0000
     1.0000   1.0000   1.0000   1.0000   1.0000   1.0000   1.0000   1.0000
     1.0000   1.0000   1.0000   1.0000   1.0000   1.0000   1.0000   1.0000
     1.0000   1.0000   1.0000   1.0000   1.0000   1.0000   1.0000   1.0000
     1.0000   1.0000   1.0000   1.0000   1.0000   1.0000   1.0000   1.0000
     1.0000   1.0000   1.0000   1.0000   1.0000   1.0000   1.0000   1.0000
     1.0000   1.0000   1.0000   1.0000   1.0000   1.0000   1.0000   1.0000
     1.0000   1.0000   1.0000   1.0000   0.0000   0.0000   0.0000   0.0000
     0.0000   0.0000   0.0000   0.0000   0.0000   0.0000   0.0000   0.0000
     0.0000   0.0000   0.0000   0.0000   0.0000   0.0000   0.0000   0.0000
     0.0000   0.0000   0.0000   0.0000   0.0000   0.0000   0.0000   0.0000
     0.0000   0.0000   0.0000   0.0000   0.0000   0.0000   0.0000   0.0000
     0.0000   0.0000   0.0000   0.0000   0.0000   0.0000   0.0000   0.0000
     0.0000   0.0000   0.0000   0.0000   0.0000   0.0000   0.0000   0.0000
     0.0000   0.0000   0.0000   0.0000   0.0000   0.0000   0.0000   0.0000
     0.0000   0.0000   0.0000   0.0000   0.0000   0.0000   0.0000   0.0000
     0.0000   0.0000   0.0000   0.0000   0.0000   0.0000   0.0000   0.0000
     0.0000   0.0000   0.0000   0.0000   0.0000   0.0000   0.0000   0.0000
     0.0000   0.0000   0.0000   0.0000   0.0000   0.0000   0.0000   0.0000
     0.0000   0.0000   0.0000   0.0000   0.0000   0.0000   0.0000   0.0000
     0.0000   0.0000   0.0000   0.0000   0.0000   0.0000   0.0000   0.0000
     0.0000   0.0000   0.0000   0.0000   0.0000   0.0000   0.0000   0.0000
     0.0000   0.0000   0.0000   0.0000   0.0000   0.0000   0.0000   0.0000
     0.0000   0.0000   0.0000   0.0000   0.0000   0.0000   0.0000   0.0000
     0.0000   0.0000   0.0000   0.0000   0.0000   0.0000   0.0000   0.0000
     0.0000   0.0000   0.0000   0.0000   0.0000   0.0000   0.0000   0.0000
     0.0000   0.0000   0.0000   0.0000   0.0000   0.0000   0.0000   0.0000
     0.0000   0.0000   0.0000   0.0000   0.0000   0.0000   0.0000   0.0000
     0.0000   0.0000   0.0000   0.0000   0.0000   0.0000   0.0000   0.0000
     0.0000   0.0000   0.0000   0.0000   0.0000   0.0000   0.0000   0.0000

[...]

          k = 0.3333 0.3488-0.5266 (  4156 PWs)   bands (ev):

  -118.6921-118.6917 -72.8318 -72.8301 -72.8278 -72.8258 -72.8146 -72.8134
   -44.9346 -44.9345 -44.7154 -44.7154 -18.7521 -18.7514 -18.7431 -18.7421
   -18.7308 -18.7296 -18.5187 -18.5177 -18.5146 -18.5126 -16.8916 -16.8896
   -16.8741 -16.8725 -16.8499 -16.8478 -16.6688 -16.6660 -16.6559 -16.6546
   -16.6450 -16.6438 -13.2220 -13.1803 -12.0645 -12.0372 -11.9381 -11.9189
   -11.8885 -11.8796  -2.3181  -2.2902  -0.4698  -0.4183  -0.3282  -0.2741
    -0.1644  -0.0230   0.0928   0.1437   0.1854   0.2099   0.5060   0.7579
     1.3802   1.4209   1.6148   1.8619   2.0770   2.3387   2.4859   2.7568
     2.8531   3.1115   3.2146   3.2768   3.4214   3.5449   3.5924   3.6747
     3.7900   4.0019   4.0691   4.1389   9.0226   9.6385  10.5249  10.8533
    11.3597  11.5300  11.7532  11.9835  12.4813  12.7667  12.9886  13.6027
    13.9671  14.2088  14.8549  14.9861  15.2763  15.5470  15.7928  15.9267
    16.4112  16.7786  17.1727  17.3430  17.6340  17.8340  18.0477  18.5410
    18.8487  19.0499  19.4305  19.9311  20.5391  20.6513  20.8298  21.2100
    21.6171  21.9594  22.2987  22.5785  22.6817  22.8671  23.2372  23.4692
    23.9626  24.0937  24.2830  24.4825  24.8036  25.0248  25.3002  25.4494
    25.6107  25.7929  26.2685  26.4312  26.8173  26.9756  27.1858  27.5449
    27.7703  27.9481  28.3510  28.4518  28.7008  28.8359  29.1708  29.3096
    29.8069  30.1094  30.3796  30.6954  30.7379  30.9724  31.2470  31.5781
    31.7846  31.8718  32.1542  32.3344  32.5909  33.0077  33.0953  33.2271
    33.4755  33.7966  33.9350  34.0937  34.1586  34.4965  34.6092  34.8817
    35.2087  35.3733  35.7391  35.8977  36.1119  36.3370  36.5809  36.7583
    36.9013  37.2175  37.4579  37.5826  37.7141  38.0734  38.3258  38.5430
    38.6056  38.9613  39.1774  39.2841  39.3827  39.6832  39.9083  39.9423
    40.0962  40.2935  40.4052  40.5044  40.7689  40.9338  41.3264  41.4435
    41.7391  41.8281  42.0860  42.2903  42.3434  42.6712  42.8360  42.9870
    43.1241  43.2719  43.5069  43.7626  43.8414  44.1797  44.3798  44.5555
    44.6734  44.8713  45.0206  45.2535  45.4472  45.6728  45.8114  46.0155
    46.3013  46.4263  46.6657  46.9584  47.0538  47.2019  47.4260  47.6709
    47.7859  47.8774  48.2386  48.4014  48.4833  48.8060  48.9514  49.1728
    49.3194  49.5740  49.7341  49.9578  50.0956  50.2382  50.5424  50.6595
    51.0169  51.3330  51.3961  51.5937  51.6389  51.8077  51.9416  52.1351

     occupation numbers
     1.0000   1.0000   1.0000   1.0000   1.0000   1.0000   1.0000   1.0000
     1.0000   1.0000   1.0000   1.0000   1.0000   1.0000   1.0000   1.0000
     1.0000   1.0000   1.0000   1.0000   1.0000   1.0000   1.0000   1.0000
     1.0000   1.0000   1.0000   1.0000   1.0000   1.0000   1.0000   1.0000
     1.0000   1.0000   1.0000   1.0000   1.0000   1.0000   1.0000   1.0000
     1.0000   1.0000   1.0000   1.0000   1.0000   1.0000   1.0000   1.0000
     1.0000   1.0000   1.0000   1.0000   1.0000   1.0000   1.0000   1.0000
     1.0000   1.0000   1.0000   1.0000   1.0000   1.0000   1.0000   1.0000
     1.0000   1.0000   1.0000   1.0000   1.0000   1.0000   1.0000   1.0000
     1.0000   1.0000   1.0000   1.0000   0.0000   0.0000   0.0000   0.0000
     0.0000   0.0000   0.0000   0.0000   0.0000   0.0000   0.0000   0.0000
     0.0000   0.0000   0.0000   0.0000   0.0000   0.0000   0.0000   0.0000
     0.0000   0.0000   0.0000   0.0000   0.0000   0.0000   0.0000   0.0000
     0.0000   0.0000   0.0000   0.0000   0.0000   0.0000   0.0000   0.0000
     0.0000   0.0000   0.0000   0.0000   0.0000   0.0000   0.0000   0.0000
     0.0000   0.0000   0.0000   0.0000   0.0000   0.0000   0.0000   0.0000
     0.0000   0.0000   0.0000   0.0000   0.0000   0.0000   0.0000   0.0000
     0.0000   0.0000   0.0000   0.0000   0.0000   0.0000   0.0000   0.0000
     0.0000   0.0000   0.0000   0.0000   0.0000   0.0000   0.0000   0.0000
     0.0000   0.0000   0.0000   0.0000   0.0000   0.0000   0.0000   0.0000
     0.0000   0.0000   0.0000   0.0000   0.0000   0.0000   0.0000   0.0000
     0.0000   0.0000   0.0000   0.0000   0.0000   0.0000   0.0000   0.0000
     0.0000   0.0000   0.0000   0.0000   0.0000   0.0000   0.0000   0.0000
     0.0000   0.0000   0.0000   0.0000   0.0000   0.0000   0.0000   0.0000
     0.0000   0.0000   0.0000   0.0000   0.0000   0.0000   0.0000   0.0000
     0.0000   0.0000   0.0000   0.0000   0.0000   0.0000   0.0000   0.0000
     0.0000   0.0000   0.0000   0.0000   0.0000   0.0000   0.0000   0.0000
     0.0000   0.0000   0.0000   0.0000   0.0000   0.0000   0.0000   0.0000
     0.0000   0.0000   0.0000   0.0000   0.0000   0.0000   0.0000   0.0000
     0.0000   0.0000   0.0000   0.0000   0.0000   0.0000   0.0000   0.0000
     0.0000   0.0000   0.0000   0.0000   0.0000   0.0000   0.0000   0.0000
     0.0000   0.0000   0.0000   0.0000   0.0000   0.0000   0.0000   0.0000

     highest occupied, lowest unoccupied level (ev):     4.1389    6.7655

!    total energy              =   -2065.31281759 Ry
     estimated scf accuracy    <       0.00000056 Ry

     The total energy is the sum of the following terms:
     one-electron contribution =   -1599.00053280 Ry
     hartree contribution      =     872.81113492 Ry
     xc contribution           =    -318.77623224 Ry
     ewald contribution        =    -944.17755276 Ry
     one-center paw contrib.   =     -76.16963472 Ry
      -> PAW hartree energy AE =       0.00000000 Ry
      -> PAW hartree energy PS =       0.00000000 Ry
      -> PAW xc energy AE      =       0.00000000 Ry
      -> PAW xc energy PS      =       0.00000000 Ry
      -> total E_H with PAW    =     872.81113492 Ry
      -> total E_XC with PAW   =    -318.77623224 Ry

     convergence has been achieved in   8 iterations

     Writing all to output data dir bands_nm/myprefix.save/

     General routines

     Parallel routines

     PAW routines

   This run was terminated on:  23:20:23  16Jul2023

   JOB DONE.