     Program PWSCF v.7.1 starts on 13Jul2023 at  4:19:33

     Reading input from espresso_12977.pwi
Warning: card &CELL ignored
Warning: card / ignored

     Current dimensions of program PWSCF are:
     Max number of different atomic species (ntypx) = 10
     Max number of k-points (npk) =  40000
     Max angular momentum in pseudopotentials (lmaxx) =  4
     Message from routine setup:
     using ibrav=0 with symmetry is DISCOURAGED, use correct ibrav instead

     K-points division:     npool     =       2
     R & G space division:  proc/nbgrp/npool/nimage =       8
     Subspace diagonalization in iterative solution of the eigenvalue problem:
     a serial algorithm will be used

     Using Slab Decomposition

     bravais-lattice index     =            0
     lattice parameter (alat)  =       6.8649  a.u.
     unit-cell volume          =    1165.0487 (a.u.)^3
     number of atoms/cell      =            8
     number of atomic types    =            3
     number of electrons       =        60.00
     number of Kohn-Sham states=           64
     kinetic-energy cutoff     =      30.0000  Ry
     charge density cutoff     =     240.0000  Ry
     scf convergence threshold =      1.0E-06
     mixing beta               =       0.7000
     number of iterations used =            8  plain     mixing
     Exchange-correlation=  SLA  PW   PBX  PBC
                           (   1   4   3   4   0   0   0)

     celldm(1)=   6.864855  celldm(2)=   0.000000  celldm(3)=   0.000000
     celldm(4)=   0.000000  celldm(5)=   0.000000  celldm(6)=   0.000000

     crystal axes: (cart. coord. in units of alat)
               a(1) = (   1.000000   0.000000   0.000000 )
               a(2) = (   0.000000   1.425580   0.000000 )
               a(3) = (   0.000000   0.282589   2.526145 )

     reciprocal axes: (cart. coord. in units 2 pi/alat)
               b(1) = (  1.000000  0.000000  0.000000 )
               b(2) = (  0.000000  0.701469 -0.078470 )
               b(3) = (  0.000000  0.000000  0.395860 )

     PseudoPot. # 1 for Hf read from file:
     /lustre07/scratch/pragov/crystal_structure_design/utils/SSSP/Hf-sp.oncvpsp.upf
     MD5 check sum: 417ed15784afe83d2e06dacf143de3f8
     Pseudo is Norm-conserving + core correction, Zval = 12.0
     Generated using ONCVPSP code by D. R. Hamann
     Using radial grid of 1656 points,  8 beta functions with:
                l(1) =   0
                l(2) =   0
                l(3) =   1
                l(4) =   1
                l(5) =   2
                l(6) =   2
                l(7) =   3
                l(8) =   3

     PseudoPot. # 2 for Zr read from file:
     /lustre07/scratch/pragov/crystal_structure_design/utils/SSSP/Zr_pbe_v1.uspp.F.UPF
     MD5 check sum: 5db81b1e868ab7776c4564c113de050b
     Pseudo is Ultrasoft + core correction, Zval = 12.0
     Generated by new atomic code, or converted to UPF format
     Using radial grid of  887 points,  6 beta functions with:
                l(1) =   0
                l(2) =   0
                l(3) =   1
                l(4) =   1
                l(5) =   2
                l(6) =   2
     Q(r) pseudized with  6 coefficients,  rinner =    1.200   1.200   1.200
                                                       1.200   1.200

     PseudoPot. # 3 for S  read from file:
     /lustre07/scratch/pragov/crystal_structure_design/utils/SSSP/s_pbe_v1.4.uspp.F.UPF
     MD5 check sum: 88d86576ff6df21479756cfb9bdac1df
     Pseudo is Ultrasoft + core correction, Zval =  6.0
     Generated by new atomic code, or converted to UPF format
     Using radial grid of  907 points,  6 beta functions with:
                l(1) =   0
                l(2) =   0
                l(3) =   1
                l(4) =   1
                l(5) =   2
                l(6) =   2
     Q(r) pseudized with  8 coefficients,  rinner =    1.300   1.300   1.300
                                                       1.300   1.300

     atomic species   valence    mass     pseudopotential
        Hf            12.00   178.49000     Hf( 1.00)
        Zr            12.00    91.22400     Zr( 1.00)
        S              6.00    32.06000     S ( 1.00)

      2 Sym. Ops. (no inversion) found

                                    s                        frac. trans.

      isym =  1     identity

 cryst.   s( 1) = (     1          0          0      )
                  (     0          1          0      )
                  (     0          0          1      )

 cart.    s( 1) = (  1.0000000  0.0000000  0.0000000 )
                  (  0.0000000  1.0000000  0.0000000 )
                  (  0.0000000  0.0000000  1.0000000 )

      isym =  2     inv. 180 deg rotation - cart. axis [1,0,0]

 cryst.   s( 2) = (    -1          0          0      )
                  (     0          1          0      )
                  (     0          0          1      )

 cart.    s( 2) = ( -1.0000000  0.0000000  0.0000000 )
                  (  0.0000000  1.0000000  0.0000000 )
                  (  0.0000000  0.0000000  1.0000000 )

   Cartesian axes

     site n.     atom                  positions (alat units)
         1           Hf  tau(   1) = (   0.5000000   1.2132104   1.6449926  )
         2           Zr  tau(   2) = (   0.0000000   0.4946925   0.8828724  )
         3           S   tau(   3) = (   0.5000000   0.7856207   0.4518439  )
         4           S   tau(   4) = (   0.0000000   0.9224442   2.0682557  )
         5           S   tau(   5) = (   0.5000000   0.2160494   0.4405344  )
         6           S   tau(   6) = (   0.0000000   1.4946223   2.0781835  )
         7           S   tau(   7) = (   0.5000000   0.4980304   1.4035462  )
         8           S   tau(   8) = (   0.0000000   1.2080097   1.1343526  )

   Crystallographic axes

     site n.     atom                  positions (cryst. coord.)
         1           Hf  tau(   1) = (  0.5000000  0.7219460  0.6511870  )
         2           Zr  tau(   2) = (  0.0000000  0.2777320  0.3494940  )
         3           S   tau(   3) = (  0.5000000  0.5156320  0.1788670  )
         4           S   tau(   4) = (  0.0000000  0.4847690  0.8187400  )
         5           S   tau(   5) = (  0.5000000  0.1169830  0.1743900  )
         6           S   tau(   6) = (  0.0000000  0.8853550  0.8226700  )
         7           S   tau(   7) = (  0.5000000  0.2392160  0.5556080  )
         8           S   tau(   8) = (  0.0000000  0.7583680  0.4490450  )

     number of k points=    10
                       cart. coord. in units 2pi/alat
        k(    1) = (   0.0000000   0.0000000   0.0000000), wk =   0.0740741
        k(    2) = (   0.0000000   0.0000000   0.1319534), wk =   0.1481481
        k(    3) = (   0.0000000   0.2338229  -0.0261568), wk =   0.1481481
        k(    4) = (   0.0000000   0.2338229   0.1057966), wk =   0.1481481
        k(    5) = (   0.0000000   0.2338229  -0.1581102), wk =   0.1481481
        k(    6) = (   0.3333333   0.0000000   0.0000000), wk =   0.1481481
        k(    7) = (   0.3333333   0.0000000   0.1319534), wk =   0.2962963
        k(    8) = (   0.3333333   0.2338229  -0.0261568), wk =   0.2962963
        k(    9) = (   0.3333333   0.2338229   0.1057966), wk =   0.2962963
        k(   10) = (   0.3333333   0.2338229  -0.1581102), wk =   0.2962963

                       cryst. coord.
        k(    1) = (   0.0000000   0.0000000   0.0000000), wk =   0.0740741
        k(    2) = (   0.0000000   0.0000000   0.3333333), wk =   0.1481481
        k(    3) = (   0.0000000   0.3333333   0.0000000), wk =   0.1481481
        k(    4) = (   0.0000000   0.3333333   0.3333333), wk =   0.1481481
        k(    5) = (   0.0000000   0.3333333  -0.3333333), wk =   0.1481481
        k(    6) = (   0.3333333   0.0000000   0.0000000), wk =   0.1481481
        k(    7) = (   0.3333333   0.0000000   0.3333333), wk =   0.2962963
        k(    8) = (   0.3333333   0.3333333   0.0000000), wk =   0.2962963
        k(    9) = (   0.3333333   0.3333333   0.3333333), wk =   0.2962963
        k(   10) = (   0.3333333   0.3333333  -0.3333333), wk =   0.2962963

     Check: negative core charge=   -0.000001

     Initial potential from superposition of free atoms

     starting charge      59.9958, renormalised to      60.0000

     negative rho (up, down):  6.066E-02 0.000E+00
     Starting wfcs are   47 randomized atomic wfcs +   17 random wfcs

     Self-consistent Calculation

     iteration #  1     ecut=    30.00 Ry     beta= 0.70
     Davidson diagonalization with overlap

     ethr =  1.00E-02,  avg # of iterations =  6.6

     Threshold (ethr) on eigenvalues was too large:
     Diagonalizing with lowered threshold

     Davidson diagonalization with overlap

[...]

     negative rho (up, down):  6.217E-02 0.000E+00

     total energy              =    -357.06904085 Ry
     estimated scf accuracy    <       0.37218521 Ry

[...]

     total energy              =    -357.19862616 Ry
     estimated scf accuracy    <       0.00000144 Ry

     iteration #  9     ecut=    30.00 Ry     beta= 0.70
     Davidson diagonalization with overlap

     ethr =  2.39E-09,  avg # of iterations =  4.0

     negative rho (up, down):  6.312E-02 0.000E+00

     End of self-consistent calculation

          k = 0.0000 0.0000 0.0000 (  3219 PWs)   bands (ev):

   -54.6931 -41.6951 -23.4953 -23.3606 -23.3061 -19.8453 -19.6794 -19.6228
    -7.9586  -7.7291  -5.3975  -4.2325  -3.0422  -2.9927   1.3871   1.6780
     2.3687   2.7353   2.7999   3.5682   3.6867   4.7165   5.1155   5.9911
     6.4797   6.5180   6.5826   6.7189   6.9109   7.0176   8.1753   8.7230
    10.4933  10.5465  10.7889  11.2398  11.3137  11.3499  11.4315  11.9580
    12.1656  12.5755  12.6806  13.1097  13.5351  14.3224  15.0427  15.1801
    15.9864  16.2666  16.9665  17.1276  17.1415  17.8371  17.8581  17.9103
    18.3606  18.4826  18.5148  18.7791  18.9155  19.7124  20.0672  20.5771

     occupation numbers
     1.0000   1.0000   1.0000   1.0000   1.0000   1.0000   1.0000   1.0000
     1.0000   1.0000   1.0000   1.0000   1.0000   1.0000   1.0000   1.0000
     1.0000   1.0000   1.0000   1.0000   1.0000   1.0000   1.0000   1.0000
     1.0000   1.0000   1.0000   1.0000   1.0000   1.0000   0.0000   0.0000
     0.0000   0.0000   0.0000   0.0000   0.0000   0.0000   0.0000   0.0000
     0.0000   0.0000   0.0000   0.0000   0.0000   0.0000   0.0000   0.0000
     0.0000   0.0000   0.0000   0.0000   0.0000   0.0000   0.0000   0.0000
     0.0000   0.0000   0.0000   0.0000   0.0000   0.0000   0.0000   0.0000

[...]

          k = 0.3333 0.2338-0.1581 (  3240 PWs)   bands (ev):

   -54.6957 -41.6865 -23.4810 -23.4713 -23.2957 -19.8478 -19.8058 -19.6114
    -7.5019  -7.4484  -4.7840  -4.4040  -3.4299  -3.3847   2.1066   2.5899
     2.9726   3.0280   3.3177   3.3726   3.4952   4.0465   4.2460   4.5619
     5.1225   5.5112   5.6042   5.9603   6.1044   6.3214   9.5325   9.5545
     9.9916  10.0797  10.4659  10.6564  11.0065  11.4024  11.7262  11.8872
    12.4791  12.6122  14.1594  14.5706  14.8713  15.4139  15.6531  15.9912
    16.4038  16.6790  17.0816  17.2161  17.4697  17.7270  17.9112  18.2923
    18.4267  18.9242  19.1415  19.3055  19.5823  20.2812  20.3530  20.6700

     occupation numbers
     1.0000   1.0000   1.0000   1.0000   1.0000   1.0000   1.0000   1.0000
     1.0000   1.0000   1.0000   1.0000   1.0000   1.0000   1.0000   1.0000
     1.0000   1.0000   1.0000   1.0000   1.0000   1.0000   1.0000   1.0000
     1.0000   1.0000   1.0000   1.0000   1.0000   1.0000   0.0000   0.0000
     0.0000   0.0000   0.0000   0.0000   0.0000   0.0000   0.0000   0.0000
     0.0000   0.0000   0.0000   0.0000   0.0000   0.0000   0.0000   0.0000
     0.0000   0.0000   0.0000   0.0000   0.0000   0.0000   0.0000   0.0000
     0.0000   0.0000   0.0000   0.0000   0.0000   0.0000   0.0000   0.0000

     highest occupied, lowest unoccupied level (ev):     7.0176    8.1208

!    total energy              =    -357.19862690 Ry
     estimated scf accuracy    <       0.00000037 Ry

     The total energy is the sum of the following terms:
     one-electron contribution =    -126.97971021 Ry
     hartree contribution      =      85.56661181 Ry
     xc contribution           =     -97.05926705 Ry
     ewald contribution        =    -218.72626145 Ry

     convergence has been achieved in   9 iterations

     Writing all to output data dir bands_nm/myprefix.save/

     General routines

     Parallel routines

   This run was terminated on:   4:19:38  13Jul2023

   JOB DONE.