     Program PWSCF v.7.1 starts on 16Jul2023 at 14:53:42

     Reading input from espresso_23596.pwi
Warning: card &CELL ignored
Warning: card / ignored

     Current dimensions of program PWSCF are:
     Max number of different atomic species (ntypx) = 10
     Max number of k-points (npk) =  40000
     Max angular momentum in pseudopotentials (lmaxx) =  4
     file O.pbe-n-kjpaw_psl.0.1.UPF: wavefunction(s)  2P renormalized
     Message from routine setup:
     using ibrav=0 with symmetry is DISCOURAGED, use correct ibrav instead

     K-points division:     npool     =       2
     R & G space division:  proc/nbgrp/npool/nimage =       4
     Subspace diagonalization in iterative solution of the eigenvalue problem:
     a serial algorithm will be used

     Using Slab Decomposition

     bravais-lattice index     =            0
     lattice parameter (alat)  =       9.4433  a.u.
     unit-cell volume          =     613.4250 (a.u.)^3
     number of atoms/cell      =            8
     number of atomic types    =            4
     number of electrons       =        54.00
     number of Kohn-Sham states=           64
     kinetic-energy cutoff     =      30.0000  Ry
     charge density cutoff     =     240.0000  Ry
     scf convergence threshold =      1.0E-06
     mixing beta               =       0.7000
     number of iterations used =            8  plain     mixing
     Exchange-correlation= SLA  PW   PBX  PBC
                           (   1   4   3   4   0   0   0)

     celldm(1)=   9.443302  celldm(2)=   0.000000  celldm(3)=   0.000000
     celldm(4)=   0.000000  celldm(5)=   0.000000  celldm(6)=   0.000000

     crystal axes: (cart. coord. in units of alat)
               a(1) = (   1.000000   0.000000   0.000000 )
               a(2) = (  -0.065853   0.997829   0.000000 )
               a(3) = (  -0.467074  -0.498915   0.730018 )

     reciprocal axes: (cart. coord. in units 2 pi/alat)
               b(1) = (  1.000000  0.065996  0.684915 )
               b(2) = (  0.000000  1.002175  0.684915 )
               b(3) = (  0.000000  0.000000  1.369829 )

     PseudoPot. # 1 for Li read from file:
     /lustre07/scratch/pragov/crystal_structure_design/utils/SSSP/li_pbe_v1.4.uspp.F.UPF
     MD5 check sum: e912e257baa3777c20ea3d68f190483c
     Pseudo is Ultrasoft, Zval =  3.0
     Generated by new atomic code, or converted to UPF format
     Using radial grid of  751 points,  5 beta functions with:
                l(1) =   0
                l(2) =   0
                l(3) =   0
                l(4) =   1
                l(5) =   1
     Q(r) pseudized with 10 coefficients,  rinner =    1.150   1.150   1.150

     PseudoPot. # 2 for Ca read from file:
     /lustre07/scratch/pragov/crystal_structure_design/utils/SSSP/Ca_pbe_v1.uspp.F.UPF
     MD5 check sum: 403a4c14b9e4d4dfdc3024c9a3812218
     Pseudo is Ultrasoft + core correction, Zval = 10.0
     Generated by new atomic code, or converted to UPF format
     Using radial grid of  845 points,  6 beta functions with:
                l(1) =   0
                l(2) =   0
                l(3) =   1
                l(4) =   1
                l(5) =   2
                l(6) =   2
     Q(r) pseudized with  8 coefficients,  rinner =    1.500   1.500   1.500
                                                       1.500   1.500

     PseudoPot. # 3 for Ge read from file:
     /lustre07/scratch/pragov/crystal_structure_design/utils/SSSP/ge_pbe_v1.4.uspp.F.UPF
     MD5 check sum: 9c9eaa91e581c3f09632fb3098b2c6b2
     Pseudo is Ultrasoft + core correction, Zval = 14.0
     Generated by new atomic code, or converted to UPF format
     Using radial grid of  873 points,  6 beta functions with:
                l(1) =   0
                l(2) =   0
                l(3) =   1
                l(4) =   1
                l(5) =   2
                l(6) =   2
     Q(r) pseudized with  8 coefficients,  rinner =    1.400   1.400   1.400
                                                       1.400   1.400

     PseudoPot. # 4 for O  read from file:
     /lustre07/scratch/pragov/crystal_structure_design/utils/SSSP/O.pbe-n-kjpaw_psl.0.1.UPF
     MD5 check sum: 0234752ac141de4415c5fc33072bef88
     Pseudo is Projector augmented-wave + core cor, Zval =  6.0
     Generated using "atomic" code by A. Dal Corso  v.5.0.99 svn rev. 10869
     Shape of augmentation charge: BESSEL
     Using radial grid of 1095 points,  4 beta functions with:
                l(1) =   0
                l(2) =   0
                l(3) =   1
                l(4) =   1
     Q(r) pseudized with 0 coefficients

     atomic species   valence    mass     pseudopotential
        Li             3.00     6.94000     Li( 1.00)
        Ca            10.00    40.07800     Ca( 1.00)
        Ge            14.00    72.63000     Ge( 1.00)
        O              6.00    15.99900     O ( 1.00)

      2 Sym. Ops. (no inversion) found

                                    s                        frac. trans.

      isym =  1     identity

 cryst.   s( 1) = (     1          0          0      )
                  (     0          1          0      )
                  (     0          0          1      )

 cart.    s( 1) = (  1.0000000  0.0000000  0.0000000 )
                  (  0.0000000  1.0000000  0.0000000 )
                  (  0.0000000  0.0000000  1.0000000 )

      isym =  2     inv. 180 deg rotation - cart. axis [0,0,1]

 cryst.   s( 2) = (     1          0          0      )
                  (     0          1          0      )
                  (    -1         -1         -1      )

 cart.    s( 2) = (  1.0000000  0.0000000  0.0000000 )
                  (  0.0000000  1.0000000  0.0000000 )
                  (  0.0000000  0.0000000 -1.0000000 )

   Cartesian axes

     site n.     atom                  positions (alat units)
         1           Li  tau(   1) = (  -0.0329264   0.4989147   0.3650090  )
         2           Li  tau(   2) = (   0.5000000   0.0000000   0.3650090  )
         3           Ca  tau(   3) = (   0.4670736   0.4989147   0.0000000  )
         4           Ge  tau(   4) = (   0.0000000   0.0000000   0.0000000  )
         5           O   tau(   5) = (   0.9179209   0.3475370   0.0000000  )
         6           O   tau(   6) = (   0.2863350   0.9388147   0.0000000  )
         7           O   tau(   7) = (   0.3320197   0.3546540   0.4325817  )
         8           O   tau(   8) = (  -0.1350548  -0.1442617   0.2974364  )

   Crystallographic axes

     site n.     atom                  positions (cryst. coord.)
         1           Li  tau(   1) = (  0.2500000  0.7500000  0.5000000  )
         2           Li  tau(   2) = (  0.7500000  0.2500000  0.5000000  )
         3           Ca  tau(   3) = (  0.5000000  0.5000000  0.0000000  )
         4           Ge  tau(   4) = (  0.0000000  0.0000000  0.0000000  )
         5           O   tau(   5) = (  0.9408570  0.3482930  0.0000000  )
         6           O   tau(   6) = (  0.3482930  0.9408570  0.0000000  )
         7           O   tau(   7) = (  0.6517070  0.6517070  0.5925630  )
         8           O   tau(   8) = (  0.0591430  0.0591430  0.4074370  )

     number of k points=    10
                       cart. coord. in units 2pi/alat
        k(    1) = (   0.0000000   0.0000000   0.0000000), wk =   0.0740741
        k(    2) = (   0.0000000   0.0000000   0.4566097), wk =   0.1481481
        k(    3) = (   0.0000000   0.3340585   0.2283049), wk =   0.2962963
        k(    4) = (   0.0000000   0.3340585   0.6849146), wk =   0.1481481
        k(    5) = (   0.3333333   0.0219987   0.2283049), wk =   0.2962963
        k(    6) = (   0.3333333   0.0219987   0.6849146), wk =   0.1481481
        k(    7) = (   0.3333333   0.3560571   0.4566097), wk =   0.2962963
        k(    8) = (   0.3333333   0.3560571   0.0000000), wk =   0.1481481
        k(    9) = (   0.3333333  -0.3120598   0.0000000), wk =   0.1481481
        k(   10) = (   0.3333333  -0.3120598   0.4566097), wk =   0.2962963

                       cryst. coord.
        k(    1) = (   0.0000000   0.0000000   0.0000000), wk =   0.0740741
        k(    2) = (   0.0000000   0.0000000   0.3333333), wk =   0.1481481
        k(    3) = (   0.0000000   0.3333333   0.0000000), wk =   0.2962963
        k(    4) = (   0.0000000   0.3333333   0.3333333), wk =   0.1481481
        k(    5) = (   0.3333333   0.0000000   0.0000000), wk =   0.2962963
        k(    6) = (   0.3333333   0.0000000   0.3333333), wk =   0.1481481
        k(    7) = (   0.3333333   0.3333333   0.0000000), wk =   0.2962963
        k(    8) = (   0.3333333   0.3333333  -0.3333333), wk =   0.1481481
        k(    9) = (   0.3333333  -0.3333333   0.0000000), wk =   0.1481481
        k(   10) = (   0.3333333  -0.3333333   0.3333333), wk =   0.2962963

     Check: negative core charge=   -0.000012

     Initial potential from superposition of free atoms

     starting charge      53.0922, renormalised to      54.0000
     Starting wfcs are   45 randomized atomic wfcs +   19 random wfcs
     Checking if some PAW data can be deallocated...

     Self-consistent Calculation

     iteration #  1     ecut=    30.00 Ry     beta= 0.70
     Davidson diagonalization with overlap

     ethr =  1.00E-02,  avg # of iterations =  7.7

     total energy              =    -484.04624659 Ry
     estimated scf accuracy    <       1.38220502 Ry

[...]

     total energy              =    -484.67398068 Ry
     estimated scf accuracy    <       0.00000100 Ry

     iteration #  8     ecut=    30.00 Ry     beta= 0.70
     Davidson diagonalization with overlap

     ethr =  1.85E-09,  avg # of iterations =  3.8

     End of self-consistent calculation

          k = 0.0000 0.0000 0.0000 (  1699 PWs)   bands (ev):

   -37.0529 -37.0477 -32.6659 -17.4853 -17.4791 -17.4791 -17.2688 -17.2458
   -13.7751 -13.7751 -13.7365 -12.2628 -10.5382 -10.5382 -10.3549  -0.2556
     1.5890   1.5890   1.6913   3.7716   4.0307   4.2007   4.2667   4.2668
     4.9565   4.9566   5.1507   9.3288  11.7667  12.7058  12.9382  12.9493
    12.9493  14.3349  14.6870  16.1255  16.1255  16.6937  18.5470  18.8366
    19.0881  19.0881  20.1487  20.1487  20.5439  21.5130  22.8338  22.8338
    24.5050  24.8705  25.5494  25.5494  25.6825  26.0511  29.7187  29.7187
    30.4801  30.4801  30.5885  31.0273  31.5917  31.7122  31.7122  32.2571

     occupation numbers
     1.0000   1.0000   1.0000   1.0000   1.0000   1.0000   1.0000   1.0000
     1.0000   1.0000   1.0000   1.0000   1.0000   1.0000   1.0000   1.0000
     1.0000   1.0000   1.0000   1.0000   1.0000   1.0000   1.0000   1.0000
     1.0000   1.0000   1.0000   0.0000   0.0000   0.0000   0.0000   0.0000
     0.0000   0.0000   0.0000   0.0000   0.0000   0.0000   0.0000   0.0000
     0.0000   0.0000   0.0000   0.0000   0.0000   0.0000   0.0000   0.0000
     0.0000   0.0000   0.0000   0.0000   0.0000   0.0000   0.0000   0.0000
     0.0000   0.0000   0.0000   0.0000   0.0000   0.0000   0.0000   0.0000

[...]

          k = 0.3333-0.3121 0.4566 (  1710 PWs)   bands (ev):

   -37.0508 -37.0506 -32.6651 -17.4912 -17.4811 -17.4766 -17.2733 -17.2437
   -13.8791 -13.8396 -13.8001 -11.7548 -10.6682 -10.6445 -10.4631  -0.8083
     2.3084   2.5714   2.6647   2.9362   3.2251   3.9703   4.3143   4.3315
     4.7516   4.8562   5.0534  11.3788  11.9335  11.9337  12.4189  12.5903
    13.7063  13.7470  14.4657  14.9367  14.9704  17.0323  17.7681  18.2768
    18.8119  19.3000  19.9578  19.9846  21.6781  22.8565  23.0776  23.3889
    24.0742  24.5022  25.0202  25.1388  27.0700  27.2453  28.1965  28.2884
    29.0005  29.6624  29.8113  30.2069  30.9594  31.5531  32.2479  32.3844

     occupation numbers
     1.0000   1.0000   1.0000   1.0000   1.0000   1.0000   1.0000   1.0000
     1.0000   1.0000   1.0000   1.0000   1.0000   1.0000   1.0000   1.0000
     1.0000   1.0000   1.0000   1.0000   1.0000   1.0000   1.0000   1.0000
     1.0000   1.0000   1.0000   0.0000   0.0000   0.0000   0.0000   0.0000
     0.0000   0.0000   0.0000   0.0000   0.0000   0.0000   0.0000   0.0000
     0.0000   0.0000   0.0000   0.0000   0.0000   0.0000   0.0000   0.0000
     0.0000   0.0000   0.0000   0.0000   0.0000   0.0000   0.0000   0.0000
     0.0000   0.0000   0.0000   0.0000   0.0000   0.0000   0.0000   0.0000

     highest occupied, lowest unoccupied level (ev):     5.1507    9.3288

!    total energy              =    -484.67398096 Ry
     estimated scf accuracy    <       0.00000003 Ry

     The total energy is the sum of the following terms:
     one-electron contribution =    -228.15321560 Ry
     hartree contribution      =     145.51649438 Ry
     xc contribution           =    -107.35088406 Ry
     ewald contribution        =    -256.60437313 Ry
     one-center paw contrib.   =     -38.08200255 Ry
      -> PAW hartree energy AE =       0.00000000 Ry
      -> PAW hartree energy PS =       0.00000000 Ry
      -> PAW xc energy AE      =       0.00000000 Ry
      -> PAW xc energy PS      =       0.00000000 Ry
      -> total E_H with PAW    =     145.51649438 Ry
      -> total E_XC with PAW   =    -107.35088406 Ry

     convergence has been achieved in   8 iterations

     Writing all to output data dir bands_nm/myprefix.save/

     General routines

     Parallel routines

     PAW routines

   This run was terminated on:  14:53:46  16Jul2023

   JOB DONE.