     Program PWSCF v.7.1 starts on 15Jul2023 at 22:51:12

     Reading input from espresso_6942.pwi
Warning: card &CELL ignored
Warning: card / ignored

     Current dimensions of program PWSCF are:
     Max number of different atomic species (ntypx) = 10
     Max number of k-points (npk) =  40000
     Max angular momentum in pseudopotentials (lmaxx) =  4
     file O.pbe-n-kjpaw_psl.0.1.UPF: wavefunction(s)  2P renormalized
     Message from routine setup:
     using ibrav=0 with symmetry is DISCOURAGED, use correct ibrav instead

     K-points division:     npool     =       2
     R & G space division:  proc/nbgrp/npool/nimage =       4
     Subspace diagonalization in iterative solution of the eigenvalue problem:
     one sub-group per band group will be used

     Using Slab Decomposition

     bravais-lattice index     =            0
     lattice parameter (alat)  =      10.6095  a.u.
     unit-cell volume          =    1476.5301 (a.u.)^3
     number of atoms/cell      =           16
     number of atomic types    =            3
     number of electrons       =       156.00
     number of Kohn-Sham states=          256
     kinetic-energy cutoff     =      30.0000  Ry
     charge density cutoff     =     240.0000  Ry
     scf convergence threshold =      1.0E-06
     mixing beta               =       0.7000
     number of iterations used =            8  plain     mixing
     Exchange-correlation= SLA  PW   PBX  PBC
                           (   1   4   3   4   0   0   0)

     celldm(1)=  10.609481  celldm(2)=   0.000000  celldm(3)=   0.000000
     celldm(4)=   0.000000  celldm(5)=   0.000000  celldm(6)=   0.000000

     crystal axes: (cart. coord. in units of alat)
               a(1) = (   1.000000   0.000000   0.000000 )
               a(2) = (  -0.747010   0.664812   0.000000 )
               a(3) = (   0.000000   0.000000   1.859777 )

     reciprocal axes: (cart. coord. in units 2 pi/alat)
               b(1) = (  1.000000  1.123641  0.000000 )
               b(2) = (  0.000000  1.504184  0.000000 )
               b(3) = (  0.000000  0.000000  0.537699 )

     PseudoPot. # 1 for Zn read from file:
     /lustre07/scratch/pragov/crystal_structure_design/utils/SSSP/Zn_pbe_v1.uspp.F.UPF
     MD5 check sum: df62231357ef9e81f77b2b3087fa5675
     Pseudo is Ultrasoft, Zval = 20.0
     Generated by new atomic code, or converted to UPF format
     Using radial grid of  943 points,  6 beta functions with:
                l(1) =   0
                l(2) =   0
                l(3) =   1
                l(4) =   1
                l(5) =   2
                l(6) =   2
     Q(r) pseudized with  8 coefficients,  rinner =    1.100   1.100   1.100
                                                       1.100   1.100

     PseudoPot. # 2 for Sn read from file:
     /lustre07/scratch/pragov/crystal_structure_design/utils/SSSP/Sn_pbe_v1.uspp.F.UPF
     MD5 check sum: 4cf58ce39ec5d5d420df3dd08604eb00
     Pseudo is Ultrasoft + core correction, Zval = 14.0
     Generated by new atomic code, or converted to UPF format
     Using radial grid of  891 points,  6 beta functions with:
                l(1) =   0
                l(2) =   0
                l(3) =   1
                l(4) =   1
                l(5) =   2
                l(6) =   2
     Q(r) pseudized with  6 coefficients,  rinner =    1.200   1.200   1.200
                                                       1.200   1.200

     PseudoPot. # 3 for O  read from file:
     /lustre07/scratch/pragov/crystal_structure_design/utils/SSSP/O.pbe-n-kjpaw_psl.0.1.UPF
     MD5 check sum: 0234752ac141de4415c5fc33072bef88
     Pseudo is Projector augmented-wave + core cor, Zval =  6.0
     Generated using "atomic" code by A. Dal Corso  v.5.0.99 svn rev. 10869
     Shape of augmentation charge: BESSEL
     Using radial grid of 1095 points,  4 beta functions with:
                l(1) =   0
                l(2) =   0
                l(3) =   1
                l(4) =   1
     Q(r) pseudized with 0 coefficients

     atomic species   valence    mass     pseudopotential
        Zn            20.00    65.38000     Zn( 1.00)
        Sn            14.00   118.71000     Sn( 1.00)
        O              6.00    15.99900     O ( 1.00)

      4 Sym. Ops., with inversion, found ( 2 have fractional translation)

                                    s                        frac. trans.

      isym =  1     identity

 cryst.   s( 1) = (     1          0          0      )
                  (     0          1          0      )
                  (     0          0          1      )

 cart.    s( 1) = (  1.0000000  0.0000000  0.0000000 )
                  (  0.0000000  1.0000000  0.0000000 )
                  (  0.0000000  0.0000000  1.0000000 )

      isym =  2     180 deg rotation - cart. axis [0,0,1]

 cryst.   s( 2) = (    -1          0          0      )    f =(  0.0000000 )
                  (     0         -1          0      )       (  0.0000000 )
                  (     0          0          1      )       (  0.5000000 )

 cart.    s( 2) = ( -1.0000000  0.0000000  0.0000000 )    f =(  0.0000000 )
                  (  0.0000000 -1.0000000  0.0000000 )       (  0.0000000 )
                  (  0.0000000  0.0000000  1.0000000 )       (  0.9298885 )

      isym =  3     inversion

 cryst.   s( 3) = (    -1          0          0      )
                  (     0         -1          0      )
                  (     0          0         -1      )

 cart.    s( 3) = ( -1.0000000  0.0000000  0.0000000 )
                  (  0.0000000 -1.0000000  0.0000000 )
                  (  0.0000000  0.0000000 -1.0000000 )

      isym =  4     inv. 180 deg rotation - cart. axis [0,0,1]

 cryst.   s( 4) = (     1          0          0      )    f =(  0.0000000 )
                  (     0          1          0      )       (  0.0000000 )
                  (     0          0         -1      )       (  0.5000000 )

 cart.    s( 4) = (  1.0000000  0.0000000  0.0000000 )    f =(  0.0000000 )
                  (  0.0000000  1.0000000  0.0000000 )       (  0.0000000 )
                  (  0.0000000  0.0000000 -1.0000000 )       (  0.9298885 )

   Cartesian axes

     site n.     atom                  positions (alat units)
         1           Zn  tau(   1) = (  -0.4291157   0.5438397   1.3948328  )
         2           Zn  tau(   2) = (   0.6821052   0.1209726   0.4649443  )
         3           Sn  tau(   3) = (   0.7617113   0.0906791   1.0541049  )
         4           Sn  tau(   4) = (  -0.5087218   0.5741332   0.8056722  )
         5           Sn  tau(   5) = (  -0.5087218   0.5741332   0.1242164  )
         6           Sn  tau(   6) = (   0.7617113   0.0906791   1.7355607  )
         7           O   tau(   7) = (  -0.3560523   0.5160359   0.4649443  )
         8           O   tau(   8) = (   0.6090418   0.1487763   1.3948328  )
         9           O   tau(   9) = (   0.4649431   0.2036120   0.1125425  )
        10           O   tau(  10) = (  -0.2119536   0.4612002   1.7472345  )
        11           O   tau(  11) = (  -0.2119536   0.4612002   1.0424311  )
        12           O   tau(  12) = (   0.4649431   0.2036120   0.8173460  )
        13           O   tau(  13) = (  -0.6571617   0.6306209   1.1398759  )
        14           O   tau(  14) = (   0.9101513   0.0341913   0.7199011  )
        15           O   tau(  15) = (  -0.6571617   0.6306209   1.6497896  )
        16           O   tau(  16) = (   0.9101513   0.0341913   0.2099874  )

   Crystallographic axes

     site n.     atom                  positions (cryst. coord.)
         1           Zn  tau(   1) = (  0.1819650  0.8180350  0.7500000  )
         2           Zn  tau(   2) = (  0.8180350  0.1819650  0.2500000  )
         3           Sn  tau(   3) = (  0.8636020  0.1363980  0.5667910  )
         4           Sn  tau(   4) = (  0.1363980  0.8636020  0.4332090  )
         5           Sn  tau(   5) = (  0.1363980  0.8636020  0.0667910  )
         6           Sn  tau(   6) = (  0.8636020  0.1363980  0.9332090  )
         7           O   tau(   7) = (  0.2237870  0.7762130  0.2500000  )
         8           O   tau(   8) = (  0.7762130  0.2237870  0.7500000  )
         9           O   tau(   9) = (  0.6937300  0.3062700  0.0605140  )
        10           O   tau(  10) = (  0.3062700  0.6937300  0.9394860  )
        11           O   tau(  11) = (  0.3062700  0.6937300  0.5605140  )
        12           O   tau(  12) = (  0.6937300  0.3062700  0.4394860  )
        13           O   tau(  13) = (  0.0514300  0.9485700  0.6129100  )
        14           O   tau(  14) = (  0.9485700  0.0514300  0.3870900  )
        15           O   tau(  15) = (  0.0514300  0.9485700  0.8870900  )
        16           O   tau(  16) = (  0.9485700  0.0514300  0.1129100  )

     number of k points=    10
                       cart. coord. in units 2pi/alat
        k(    1) = (   0.0000000   0.0000000   0.0000000), wk =   0.0740741
        k(    2) = (   0.0000000   0.0000000   0.1792330), wk =   0.1481481
        k(    3) = (   0.0000000   0.5013947   0.0000000), wk =   0.1481481
        k(    4) = (   0.0000000   0.5013947   0.1792330), wk =   0.2962963
        k(    5) = (   0.3333333   0.3745471   0.0000000), wk =   0.1481481
        k(    6) = (   0.3333333   0.3745471   0.1792330), wk =   0.2962963
        k(    7) = (   0.3333333   0.8759418   0.0000000), wk =   0.1481481
        k(    8) = (   0.3333333   0.8759418   0.1792330), wk =   0.2962963
        k(    9) = (   0.3333333  -0.1268476   0.0000000), wk =   0.1481481
        k(   10) = (   0.3333333  -0.1268476   0.1792330), wk =   0.2962963

                       cryst. coord.
        k(    1) = (   0.0000000   0.0000000   0.0000000), wk =   0.0740741
        k(    2) = (   0.0000000   0.0000000   0.3333333), wk =   0.1481481
        k(    3) = (   0.0000000   0.3333333   0.0000000), wk =   0.1481481
        k(    4) = (   0.0000000   0.3333333   0.3333333), wk =   0.2962963
        k(    5) = (   0.3333333   0.0000000   0.0000000), wk =   0.1481481
        k(    6) = (   0.3333333   0.0000000   0.3333333), wk =   0.2962963
        k(    7) = (   0.3333333   0.3333333   0.0000000), wk =   0.1481481
        k(    8) = (   0.3333333   0.3333333   0.3333333), wk =   0.2962963
        k(    9) = (   0.3333333  -0.3333333   0.0000000), wk =   0.1481481
        k(   10) = (   0.3333333  -0.3333333   0.3333333), wk =   0.2962963

     Check: negative core charge=   -0.000011

     Initial potential from superposition of free atoms

     starting charge     151.9995, renormalised to     156.0000
     Starting wfcs are  102 randomized atomic wfcs +  154 random wfcs
     Checking if some PAW data can be deallocated...

     Self-consistent Calculation

     iteration #  1     ecut=    30.00 Ry     beta= 0.70
     Davidson diagonalization with overlap

     ethr =  1.00E-02,  avg # of iterations =  7.3

     total energy              =   -1906.32495013 Ry
     estimated scf accuracy    <     103.86217728 Ry

[...]

     total energy              =   -1992.32652035 Ry
     estimated scf accuracy    <       0.00000509 Ry

     iteration # 15     ecut=    30.00 Ry     beta= 0.70
     Davidson diagonalization with overlap

     ethr =  2.33E-09,  avg # of iterations =  2.0

     End of self-consistent calculation

          k = 0.0000 0.0000 0.0000 (  4145 PWs)   bands (ev):

  -115.8840-115.8824 -70.0479 -70.0431 -70.0209 -70.0116 -70.0033 -70.0003
   -13.4485 -13.4416 -13.4380 -13.3629 -13.3442 -13.1794 -12.9714 -12.8845
   -12.8251 -12.8237 -12.7666 -12.7538 -12.7489 -12.7455 -12.6917 -12.6865
   -12.6801 -12.6792 -12.6706 -12.6676 -11.3491 -10.9547 -10.1322  -9.5562
    -9.0466  -8.9121  -8.7330  -8.4256  -8.4012  -8.3311   0.8337   0.8566
     1.4948   1.6739   2.0611   2.3203   2.3250   2.5027   2.5330   2.7732
     3.0254   3.0761   3.0896   3.1367   3.1675   3.2666   3.2958   3.4618
     3.7617   3.8632   3.8929   3.9322   4.0987   4.8685   5.0299   5.4889
     5.7204   5.7856   5.9194   5.9281   5.9968   6.2902   6.3058   6.4638
     6.4782   6.5950   6.6264   6.7402   6.8455   7.2240   8.2464  10.7450
    11.2670  12.4824  12.6261  13.2483  14.5812  15.0953  15.4147  15.7321
    16.4958  16.5505  17.3903  17.3909  17.5763  17.5792  17.6227  18.0320
    18.0751  18.1872  18.4087  18.4627  18.8079  19.3296  19.4388  19.6875
    20.3475  20.6445  20.8790  20.9797  21.0326  21.1833  21.9760  22.2893
    23.3353  23.7750  24.4012  24.5547  24.9307  25.1751  25.2575  25.7631
    25.8144  25.9861  26.2483  26.3481  26.3848  27.0556  27.1836  27.2903
    27.4018  27.7229  27.8292  27.8307  27.8338  27.8486  28.5380  28.6503
    29.1082  29.1375  29.4954  29.5734  30.1663  30.3792  30.6178  30.6609
    30.7597  30.7989  31.0842  31.2085  31.2903  31.6834  31.9629  32.9256
    33.0904  33.1546  33.7292  34.0181  34.0879  34.1571  34.6271  35.2212
    35.2967  35.3451  35.3833  35.7295  35.7750  35.8779  36.1729  36.6066
    37.0564  37.0705  37.1131  37.2887  37.4240  37.6114  38.2427  38.4755
    38.8309  38.8981  39.0404  39.0491  39.3403  40.1491  40.3312  40.7542
    41.1140  41.1815  41.1880  41.1936  41.3841  41.5527  41.8334  42.3600
    42.4395  42.4924  42.5151  42.6406  43.0536  43.1395  43.4440  43.4720
    43.6424  43.6567  43.7266  44.0123  44.3743  44.4202  44.5705  45.3389
    45.3464  45.3755  45.4173  45.7847  45.8189  45.8411  45.9448  45.9578
    46.2393  46.2519  46.4935  46.5903  47.0098  47.1250  47.2382  47.2656
    47.5553  47.6337  47.8289  47.9717  48.1579  48.3165  48.3304  48.4426
    48.5203  48.5286  48.7552  48.9519  49.6033  49.6265  49.7323  49.8681
    50.0981  50.5218  50.6598  50.6617  50.7052  50.8459  50.9606  51.1920
    51.2755  51.4254  51.7118  51.8298  51.8321  52.3294  52.7002  53.1237

     occupation numbers
     1.0000   1.0000   1.0000   1.0000   1.0000   1.0000   1.0000   1.0000
     1.0000   1.0000   1.0000   1.0000   1.0000   1.0000   1.0000   1.0000
     1.0000   1.0000   1.0000   1.0000   1.0000   1.0000   1.0000   1.0000
     1.0000   1.0000   1.0000   1.0000   1.0000   1.0000   1.0000   1.0000
     1.0000   1.0000   1.0000   1.0000   1.0000   1.0000   1.0000   1.0000
     1.0000   1.0000   1.0000   1.0000   1.0000   1.0000   1.0000   1.0000
     1.0000   1.0000   1.0000   1.0000   1.0000   1.0000   1.0000   1.0000
     1.0000   1.0000   1.0000   1.0000   1.0000   1.0000   1.0000   1.0000
     1.0000   1.0000   1.0000   1.0000   1.0000   1.0000   1.0000   1.0000
     1.0000   1.0000   1.0000   1.0000   1.0000   1.0000   0.0000   0.0000
     0.0000   0.0000   0.0000   0.0000   0.0000   0.0000   0.0000   0.0000
     0.0000   0.0000   0.0000   0.0000   0.0000   0.0000   0.0000   0.0000
     0.0000   0.0000   0.0000   0.0000   0.0000   0.0000   0.0000   0.0000
     0.0000   0.0000   0.0000   0.0000   0.0000   0.0000   0.0000   0.0000
     0.0000   0.0000   0.0000   0.0000   0.0000   0.0000   0.0000   0.0000
     0.0000   0.0000   0.0000   0.0000   0.0000   0.0000   0.0000   0.0000
     0.0000   0.0000   0.0000   0.0000   0.0000   0.0000   0.0000   0.0000
     0.0000   0.0000   0.0000   0.0000   0.0000   0.0000   0.0000   0.0000
     0.0000   0.0000   0.0000   0.0000   0.0000   0.0000   0.0000   0.0000
     0.0000   0.0000   0.0000   0.0000   0.0000   0.0000   0.0000   0.0000
     0.0000   0.0000   0.0000   0.0000   0.0000   0.0000   0.0000   0.0000
     0.0000   0.0000   0.0000   0.0000   0.0000   0.0000   0.0000   0.0000
     0.0000   0.0000   0.0000   0.0000   0.0000   0.0000   0.0000   0.0000
     0.0000   0.0000   0.0000   0.0000   0.0000   0.0000   0.0000   0.0000
     0.0000   0.0000   0.0000   0.0000   0.0000   0.0000   0.0000   0.0000
     0.0000   0.0000   0.0000   0.0000   0.0000   0.0000   0.0000   0.0000
     0.0000   0.0000   0.0000   0.0000   0.0000   0.0000   0.0000   0.0000
     0.0000   0.0000   0.0000   0.0000   0.0000   0.0000   0.0000   0.0000
     0.0000   0.0000   0.0000   0.0000   0.0000   0.0000   0.0000   0.0000
     0.0000   0.0000   0.0000   0.0000   0.0000   0.0000   0.0000   0.0000
     0.0000   0.0000   0.0000   0.0000   0.0000   0.0000   0.0000   0.0000
     0.0000   0.0000   0.0000   0.0000   0.0000   0.0000   0.0000   0.0000

[...]

          k = 0.3333-0.1268 0.1792 (  4100 PWs)   bands (ev):

  -115.8822-115.8821 -70.0436 -70.0424 -70.0105 -70.0100 -69.9998 -69.9986
   -13.5459 -13.5318 -13.4317 -13.3718 -13.1806 -13.1605 -12.9223 -12.8448
   -12.8373 -12.8367 -12.8333 -12.8236 -12.7207 -12.7190 -12.6915 -12.6896
   -12.6824 -12.6797 -12.6693 -12.6608 -10.9844 -10.7926  -9.9949  -9.8456
    -9.5448  -9.3246  -8.6269  -8.4947  -8.2082  -8.1995   1.2556   1.3385
     1.8226   1.8674   2.0066   2.0960   2.3094   2.5501   2.6768   2.6930
     2.8249   2.8386   3.0853   3.1449   3.1763   3.2520   3.3889   3.6709
     3.8765   3.9715   4.0157   4.0825   4.4369   4.5238   4.7585   4.9942
     5.1566   5.6004   5.6614   5.7100   5.9278   6.0570   6.3866   6.4323
     6.5035   6.5366   6.6307   6.8218   6.8407   7.1377  10.0695  10.7149
    11.6969  12.0940  12.8282  12.9425  13.9098  14.2702  15.0020  15.5138
    16.8924  16.9004  17.0825  17.2763  17.6205  17.6532  17.8144  17.8779
    18.2269  18.4788  18.4873  18.7987  19.0136  19.1397  20.1635  20.5904
    20.6244  20.8297  20.8555  21.0139  21.3752  21.5495  21.7914  21.9887
    22.2360  22.7418  23.0425  23.7054  24.1059  24.2432  24.8193  25.3821
    25.4541  25.9464  26.0085  26.2157  27.3688  27.4191  27.7235  27.8387
    27.8457  27.8484  27.8533  27.9983  28.2427  28.2570  28.4214  28.5719
    29.0253  29.8092  30.1299  30.4213  30.4504  30.6753  30.7963  31.0248
    31.1033  31.3441  31.5868  31.6496  31.6630  31.9382  31.9834  32.7801
    32.8264  33.0026  33.3653  34.1018  34.1529  34.5935  34.8084  35.1894
    35.3858  35.5138  35.5667  36.1852  36.3881  36.4179  36.7921  36.9846
    37.0447  37.2152  37.3717  37.6476  37.8946  37.9798  38.1621  38.5098
    38.6136  38.7692  39.2655  39.2803  39.6019  39.8587  39.8776  40.0310
    40.2643  40.4407  40.7069  40.8555  41.1223  41.3208  41.5415  41.6267
    41.6387  41.7832  41.9684  42.0651  42.3106  42.4925  42.8582  42.9143
    43.0765  43.2906  43.5768  43.6028  43.6564  44.2052  44.2792  44.2850
    44.5730  44.6638  45.1162  45.1713  45.2022  45.4883  45.5605  45.6629
    45.7673  46.3657  46.5450  46.6810  46.7154  46.8170  47.0124  47.1071
    47.2714  47.7239  47.9029  48.0358  48.1483  48.3800  48.5539  48.6437
    48.7625  48.8155  49.1052  49.3171  49.6714  49.7692  49.8007  49.9485
    49.9819  50.3536  50.5581  50.7986  50.8735  51.2730  51.5009  51.7186
    51.7466  51.9374  52.1830  52.2451  52.6745  52.7540  52.9302  53.1879

     occupation numbers
     1.0000   1.0000   1.0000   1.0000   1.0000   1.0000   1.0000   1.0000
     1.0000   1.0000   1.0000   1.0000   1.0000   1.0000   1.0000   1.0000
     1.0000   1.0000   1.0000   1.0000   1.0000   1.0000   1.0000   1.0000
     1.0000   1.0000   1.0000   1.0000   1.0000   1.0000   1.0000   1.0000
     1.0000   1.0000   1.0000   1.0000   1.0000   1.0000   1.0000   1.0000
     1.0000   1.0000   1.0000   1.0000   1.0000   1.0000   1.0000   1.0000
     1.0000   1.0000   1.0000   1.0000   1.0000   1.0000   1.0000   1.0000
     1.0000   1.0000   1.0000   1.0000   1.0000   1.0000   1.0000   1.0000
     1.0000   1.0000   1.0000   1.0000   1.0000   1.0000   1.0000   1.0000
     1.0000   1.0000   1.0000   1.0000   1.0000   1.0000   0.0000   0.0000
     0.0000   0.0000   0.0000   0.0000   0.0000   0.0000   0.0000   0.0000
     0.0000   0.0000   0.0000   0.0000   0.0000   0.0000   0.0000   0.0000
     0.0000   0.0000   0.0000   0.0000   0.0000   0.0000   0.0000   0.0000
     0.0000   0.0000   0.0000   0.0000   0.0000   0.0000   0.0000   0.0000
     0.0000   0.0000   0.0000   0.0000   0.0000   0.0000   0.0000   0.0000
     0.0000   0.0000   0.0000   0.0000   0.0000   0.0000   0.0000   0.0000
     0.0000   0.0000   0.0000   0.0000   0.0000   0.0000   0.0000   0.0000
     0.0000   0.0000   0.0000   0.0000   0.0000   0.0000   0.0000   0.0000
     0.0000   0.0000   0.0000   0.0000   0.0000   0.0000   0.0000   0.0000
     0.0000   0.0000   0.0000   0.0000   0.0000   0.0000   0.0000   0.0000
     0.0000   0.0000   0.0000   0.0000   0.0000   0.0000   0.0000   0.0000
     0.0000   0.0000   0.0000   0.0000   0.0000   0.0000   0.0000   0.0000
     0.0000   0.0000   0.0000   0.0000   0.0000   0.0000   0.0000   0.0000
     0.0000   0.0000   0.0000   0.0000   0.0000   0.0000   0.0000   0.0000
     0.0000   0.0000   0.0000   0.0000   0.0000   0.0000   0.0000   0.0000
     0.0000   0.0000   0.0000   0.0000   0.0000   0.0000   0.0000   0.0000
     0.0000   0.0000   0.0000   0.0000   0.0000   0.0000   0.0000   0.0000
     0.0000   0.0000   0.0000   0.0000   0.0000   0.0000   0.0000   0.0000
     0.0000   0.0000   0.0000   0.0000   0.0000   0.0000   0.0000   0.0000
     0.0000   0.0000   0.0000   0.0000   0.0000   0.0000   0.0000   0.0000
     0.0000   0.0000   0.0000   0.0000   0.0000   0.0000   0.0000   0.0000
     0.0000   0.0000   0.0000   0.0000   0.0000   0.0000   0.0000   0.0000

     highest occupied, lowest unoccupied level (ev):     7.4502    8.2464

!    total energy              =   -1992.32652148 Ry
     estimated scf accuracy    <       0.00000010 Ry

     The total energy is the sum of the following terms:
     one-electron contribution =   -1298.40279786 Ry
     hartree contribution      =     744.05694042 Ry
     xc contribution           =    -349.99153250 Ry
     ewald contribution        =    -992.74075152 Ry
     one-center paw contrib.   =     -95.24838003 Ry
      -> PAW hartree energy AE =       0.00000000 Ry
      -> PAW hartree energy PS =       0.00000000 Ry
      -> PAW xc energy AE      =       0.00000000 Ry
      -> PAW xc energy PS      =       0.00000000 Ry
      -> total E_H with PAW    =     744.05694042 Ry
      -> total E_XC with PAW   =    -349.99153250 Ry

     convergence has been achieved in  15 iterations

     Writing all to output data dir bands_nm/myprefix.save/

     General routines

     Parallel routines

     PAW routines

   This run was terminated on:  22:52:32  15Jul2023

   JOB DONE.