     Program PWSCF v.7.1 starts on 15Jul2023 at 17:58:17

     Reading input from espresso_17965.pwi
Warning: card &CELL ignored
Warning: card / ignored

     Current dimensions of program PWSCF are:
     Max number of different atomic species (ntypx) = 10
     Max number of k-points (npk) =  40000
     Max angular momentum in pseudopotentials (lmaxx) =  4
     file O.pbe-n-kjpaw_psl.0.1.UPF: wavefunction(s)  2P renormalized

     K-points division:     npool     =       2
     R & G space division:  proc/nbgrp/npool/nimage =       4
     Subspace diagonalization in iterative solution of the eigenvalue problem:
     one sub-group per band group will be used

     Using Slab Decomposition

     bravais-lattice index     =            0
     lattice parameter (alat)  =      12.7104  a.u.
     unit-cell volume          =    2053.0580 (a.u.)^3
     number of atoms/cell      =           20
     number of atomic types    =            4
     number of electrons       =       136.00
     number of Kohn-Sham states=          256
     kinetic-energy cutoff     =      30.0000  Ry
     charge density cutoff     =     240.0000  Ry
     scf convergence threshold =      1.0E-06
     mixing beta               =       0.7000
     number of iterations used =            8  plain     mixing
     Exchange-correlation= SLA  PW   PBX  PBC
                           (   1   4   3   4   0   0   0)

     celldm(1)=  12.710352  celldm(2)=   0.000000  celldm(3)=   0.000000
     celldm(4)=   0.000000  celldm(5)=   0.000000  celldm(6)=   0.000000

     crystal axes: (cart. coord. in units of alat)
               a(1) = (   1.000000   0.000000   0.000000 )
               a(2) = (  -0.010439   0.999946   0.000000 )
               a(3) = (  -0.010439  -0.010548   0.999890 )

     reciprocal axes: (cart. coord. in units 2 pi/alat)
               b(1) = (  1.000000  0.010439  0.010550 )
               b(2) = (  0.000000  1.000054  0.010550 )
               b(3) = (  0.000000  0.000000  1.000110 )

     PseudoPot. # 1 for Na read from file:
     /lustre07/scratch/pragov/crystal_structure_design/utils/SSSP/na_pbe_v1.5.uspp.F.UPF
     MD5 check sum: 44600605ef58000f06b90626533354dc
     Pseudo is Ultrasoft, Zval =  9.0
     Generated by new atomic code, or converted to UPF format
     Using radial grid of  819 points,  5 beta functions with:
                l(1) =   0
                l(2) =   0
                l(3) =   1
                l(4) =   1
                l(5) =   2
     Q(r) pseudized with  8 coefficients,  rinner =    1.250   1.250   1.250
                                                       1.250   1.250

     PseudoPot. # 2 for Br read from file:
     /lustre07/scratch/pragov/crystal_structure_design/utils/SSSP/br_pbe_v1.4.uspp.F.UPF
     MD5 check sum: d3ffb7b29f6225aa16fe06858fb2a80b
     Pseudo is Ultrasoft + core correction, Zval =  7.0
     Generated by new atomic code, or converted to UPF format
     Using radial grid of  879 points,  6 beta functions with:
                l(1) =   0
                l(2) =   0
                l(3) =   1
                l(4) =   1
                l(5) =   2
                l(6) =   2
     Q(r) pseudized with  8 coefficients,  rinner =    1.100   1.100   1.100
                                                       1.100   1.100

     PseudoPot. # 3 for Cl read from file:
     /lustre07/scratch/pragov/crystal_structure_design/utils/SSSP/cl_pbe_v1.4.uspp.F.UPF
     MD5 check sum: fc6f6913ecf08c9257cb748ef0700058
     Pseudo is Ultrasoft + core correction, Zval =  7.0
     Generated by new atomic code, or converted to UPF format
     Using radial grid of  909 points,  6 beta functions with:
                l(1) =   0
                l(2) =   0
                l(3) =   1
                l(4) =   1
                l(5) =   2
                l(6) =   2
     Q(r) pseudized with  8 coefficients,  rinner =    1.300   1.300   1.300
                                                       1.300   1.300

     PseudoPot. # 4 for O  read from file:
     /lustre07/scratch/pragov/crystal_structure_design/utils/SSSP/O.pbe-n-kjpaw_psl.0.1.UPF
     MD5 check sum: 0234752ac141de4415c5fc33072bef88
     Pseudo is Projector augmented-wave + core cor, Zval =  6.0
     Generated using "atomic" code by A. Dal Corso  v.5.0.99 svn rev. 10869
     Shape of augmentation charge: BESSEL
     Using radial grid of 1095 points,  4 beta functions with:
                l(1) =   0
                l(2) =   0
                l(3) =   1
                l(4) =   1
     Q(r) pseudized with 0 coefficients

     atomic species   valence    mass     pseudopotential
        Na             9.00    22.98977     Na( 1.00)
        Br             7.00    79.90400     Br( 1.00)
        Cl             7.00    35.45000     Cl( 1.00)
        O              6.00    15.99900     O ( 1.00)

     No symmetry found

                                    s                        frac. trans.

      isym =  1     identity

 cryst.   s( 1) = (     1          0          0      )
                  (     0          1          0      )
                  (     0          0          1      )

 cart.    s( 1) = (  1.0000000  0.0000000  0.0000000 )
                  (  0.0000000  1.0000000  0.0000000 )
                  (  0.0000000  0.0000000  1.0000000 )

   Cartesian axes

     site n.     atom                  positions (alat units)
         1           Na  tau(   1) = (   0.0670366   0.0677401   0.0684585  )
         2           Na  tau(   2) = (   0.5585971   0.9236398   0.4305166  )
         3           Na  tau(   3) = (   0.9177585   0.4244988   0.5727179  )
         4           Na  tau(   4) = (   0.4148956   0.5629587   0.9281298  )
         5           Br  tau(   5) = (   0.4012808   0.4054917   0.4097919  )
         6           Cl  tau(   6) = (   0.9128303   0.5803450   0.0815500  )
         7           Cl  tau(   7) = (   0.5707848   0.0718530   0.9196478  )
         8           Cl  tau(   8) = (   0.0658908   0.9135680   0.5811730  )
         9           O   tau(   9) = (   0.4982477   0.6041789   0.2906410  )
        10           O   tau(  10) = (   0.5989450   0.2853027   0.5075651  )
        11           O   tau(  11) = (   0.2790350   0.5011877   0.6072112  )
        12           O   tau(  12) = (  -0.0010468   0.4048091   0.1936407  )
        13           O   tau(  13) = (   0.0765822   0.6851675   0.9992760  )
        14           O   tau(  14) = (   0.7896312   0.4862235   0.9066492  )
        15           O   tau(  15) = (   0.4779544   0.8982161   0.8041835  )
        16           O   tau(  16) = (   0.4047979   0.1935964   0.0052214  )
        17           O   tau(  17) = (   0.6843307   0.9983371   0.0942666  )
        18           O   tau(  18) = (   0.9911393   0.0869331   0.6956704  )
        19           O   tau(  19) = (   0.8931779   0.7989983   0.4957604  )
        20           O   tau(  20) = (   0.1893603   0.0009300   0.4068292  )

   Crystallographic axes

     site n.     atom                  positions (cryst. coord.)
         1           Na  tau(   1) = (  0.0684660  0.0684660  0.0684660  )
         2           Na  tau(   2) = (  0.5727810  0.9282320  0.4305640  )
         3           Na  tau(   3) = (  0.9282320  0.4305640  0.5727810  )
         4           Na  tau(   4) = (  0.4305640  0.5727810  0.9282320  )
         5           Br  tau(   5) = (  0.4098370  0.4098370  0.4098370  )
         6           Cl  tau(   6) = (  0.9197490  0.5812370  0.0815590  )
         7           Cl  tau(   7) = (  0.5812370  0.0815590  0.9197490  )
         8           Cl  tau(   8) = (  0.0815590  0.9197490  0.5812370  )
         9           O   tau(   9) = (  0.5076210  0.6072780  0.2906730  )
        10           O   tau(  10) = (  0.6072780  0.2906730  0.5076210  )
        11           O   tau(  11) = (  0.2906730  0.5076210  0.6072780  )
        12           O   tau(  12) = (  0.0052220  0.4068740  0.1936620  )
        13           O   tau(  13) = (  0.0942770  0.6957470  0.9993860  )
        14           O   tau(  14) = (  0.8042720  0.4958150  0.9067490  )
        15           O   tau(  15) = (  0.4958150  0.9067490  0.8042720  )
        16           O   tau(  16) = (  0.4068740  0.1936620  0.0052220  )
        17           O   tau(  17) = (  0.6957470  0.9993860  0.0942770  )
        18           O   tau(  18) = (  0.9993860  0.0942770  0.6957470  )
        19           O   tau(  19) = (  0.9067490  0.8042720  0.4958150  )
        20           O   tau(  20) = (  0.1936620  0.0052220  0.4068740  )

     number of k points=    14
                       cart. coord. in units 2pi/alat
        k(    1) = (   0.0000000   0.0000000   0.0000000), wk =   0.0740741
        k(    2) = (   0.0000000   0.0000000   0.3333700), wk =   0.1481481
        k(    3) = (   0.0000000   0.3333515   0.0035166), wk =   0.1481481
        k(    4) = (   0.0000000   0.3333515   0.3368866), wk =   0.1481481
        k(    5) = (   0.0000000   0.3333515  -0.3298534), wk =   0.1481481
        k(    6) = (   0.3333333   0.0034797   0.0035166), wk =   0.1481481
        k(    7) = (   0.3333333   0.0034797   0.3368866), wk =   0.1481481
        k(    8) = (   0.3333333   0.0034797  -0.3298534), wk =   0.1481481
        k(    9) = (   0.3333333   0.3368312   0.0070332), wk =   0.1481481
        k(   10) = (   0.3333333   0.3368312   0.3404032), wk =   0.1481481
        k(   11) = (   0.3333333   0.3368312  -0.3263368), wk =   0.1481481
        k(   12) = (   0.3333333  -0.3298718  -0.0000000), wk =   0.1481481
        k(   13) = (   0.3333333  -0.3298718   0.3333700), wk =   0.1481481
        k(   14) = (   0.3333333  -0.3298718  -0.3333700), wk =   0.1481481

                       cryst. coord.
        k(    1) = (   0.0000000   0.0000000   0.0000000), wk =   0.0740741
        k(    2) = (   0.0000000   0.0000000   0.3333333), wk =   0.1481481
        k(    3) = (   0.0000000   0.3333333  -0.0000000), wk =   0.1481481
        k(    4) = (   0.0000000   0.3333333   0.3333333), wk =   0.1481481
        k(    5) = (   0.0000000   0.3333333  -0.3333333), wk =   0.1481481
        k(    6) = (   0.3333333   0.0000000  -0.0000000), wk =   0.1481481
        k(    7) = (   0.3333333   0.0000000   0.3333333), wk =   0.1481481
        k(    8) = (   0.3333333   0.0000000  -0.3333333), wk =   0.1481481
        k(    9) = (   0.3333333   0.3333333  -0.0000000), wk =   0.1481481
        k(   10) = (   0.3333333   0.3333333   0.3333333), wk =   0.1481481
        k(   11) = (   0.3333333   0.3333333  -0.3333333), wk =   0.1481481
        k(   12) = (   0.3333333  -0.3333333   0.0000000), wk =   0.1481481
        k(   13) = (   0.3333333  -0.3333333   0.3333333), wk =   0.1481481
        k(   14) = (   0.3333333  -0.3333333  -0.3333333), wk =   0.1481481

     Check: negative core charge=   -0.000012

     Initial potential from superposition of free atoms

     starting charge     135.9748, renormalised to     136.0000

     negative rho (up, down):  4.037E-02 0.000E+00
     Starting wfcs are   84 randomized atomic wfcs +  172 random wfcs
     Checking if some PAW data can be deallocated...

     Self-consistent Calculation

     iteration #  1     ecut=    30.00 Ry     beta= 0.70
     Davidson diagonalization with overlap

     ethr =  1.00E-02,  avg # of iterations =  7.8

     negative rho (up, down):  3.023E-02 0.000E+00

     total energy              =   -1024.11897583 Ry
     estimated scf accuracy    <       4.85299249 Ry

[...]

     c_bands:  1 eigenvalues not converged
     ethr =  3.80E-06,  avg # of iterations = 12.7

[...]

     total energy              =   -1026.49873020 Ry
     estimated scf accuracy    <       0.00000239 Ry

     iteration # 10     ecut=    30.00 Ry     beta= 0.70
     Davidson diagonalization with overlap

     ethr =  1.75E-09,  avg # of iterations =  4.0

     negative rho (up, down):  2.803E-02 0.000E+00

     End of self-consistent calculation

          k = 0.0000 0.0000 0.0000 (  5677 PWs)   bands (ev):

   -47.1749 -47.0237 -47.0237 -47.0236 -22.1045 -22.0520 -22.0520 -19.8343
   -19.0959 -19.0954 -19.0954 -18.9640 -18.9577 -18.9577 -18.9476 -18.9475
   -18.9412 -18.9411 -18.9395 -18.9193 -17.1214 -17.1212 -17.1004 -17.0683
   -17.0455 -17.0453 -15.7725 -15.7722  -9.7953  -9.0576  -9.0576  -8.9676
    -4.9527  -4.8697  -4.8696  -4.8358  -4.5842  -4.5842  -4.5701  -4.4819
    -4.4817  -3.7202  -3.7200  -3.5681  -0.8724  -0.8104  -0.8103  -0.6042
    -0.5344  -0.5343   0.0013   0.0014   0.3826   0.4873   0.4873   0.5818
     0.6527   0.6528   0.8691   0.9049   0.9050   1.3507   1.5078   1.5729
     1.5729   1.8050   1.8301   1.8301   6.8469   6.8469   6.9210   7.6668
     7.8103   7.8103   7.9338   8.1608   8.1608   8.3576   8.7721   8.7721
     9.7189  11.2649  11.4003  11.4004  12.0647  12.3790  12.3790  12.7350
    12.7350  12.8089  13.2021  13.2021  13.3650  13.3984  13.3984  13.6300
    14.8021  14.8022  15.1052  15.1782  15.2116  15.2116  15.4322  16.5653
    16.6823  16.6824  16.9621  17.0398  17.0398  17.1793  17.2547  17.9683
    17.9683  18.1248  18.3274  18.3274  19.2323  19.2558  19.2559  19.6087
    19.6087  19.6604  19.7612  19.7612  20.9194  20.9194  20.9417  20.9678
    20.9832  20.9832  21.1488  21.1488  21.2701  22.0314  22.0314  22.3346
    22.6804  22.6805  22.7954  23.8735  23.9623  23.9623  24.2559  24.2559
    24.4543  24.8388  24.8735  24.8735  25.0157  25.2193  25.2194  25.4147
    25.4246  25.4246  25.8709  25.8710  25.9556  26.5984  26.5984  26.6903
    27.3315  27.3398  27.3398  27.7457  27.7458  27.7978  28.1153  28.1153
    28.4600  28.6043  28.6043  28.8543  29.0568  29.1857  29.1857  29.4040
    29.4040  29.5230  29.9949  29.9949  30.4905  30.4905  30.5956  30.7918
    30.8299  30.8299  31.4264  31.4264  31.5176  31.6078  32.0042  32.0042
    32.1023  32.3197  32.3197  33.1161  33.3855  33.3855  33.6518  33.7299
    33.7299  33.8675  33.9420  33.9420  34.4268  34.5435  34.5435  34.8230
    34.8230  34.9685  35.0750  35.0750  35.3498  35.7582  35.7582  36.0636
    36.2208  36.2208  36.5118  36.6578  36.6578  36.7209  36.9386  36.9386
    36.9930  37.3840  37.6466  37.6466  37.9061  37.9061  38.5215  38.7362
    38.7362  38.8591  39.0292  39.2427  39.6356  39.6357  39.7756  40.0972
    40.0972  40.2676  40.2676  40.6365  40.6365  40.8181  40.8591  40.8591
    40.8884  41.1898  41.4902  41.4902  41.7197  41.9985  41.9986  42.1678

     occupation numbers
     1.0000   1.0000   1.0000   1.0000   1.0000   1.0000   1.0000   1.0000
     1.0000   1.0000   1.0000   1.0000   1.0000   1.0000   1.0000   1.0000
     1.0000   1.0000   1.0000   1.0000   1.0000   1.0000   1.0000   1.0000
     1.0000   1.0000   1.0000   1.0000   1.0000   1.0000   1.0000   1.0000
     1.0000   1.0000   1.0000   1.0000   1.0000   1.0000   1.0000   1.0000
     1.0000   1.0000   1.0000   1.0000   1.0000   1.0000   1.0000   1.0000
     1.0000   1.0000   1.0000   1.0000   1.0000   1.0000   1.0000   1.0000
     1.0000   1.0000   1.0000   1.0000   1.0000   1.0000   1.0000   1.0000
     1.0000   1.0000   1.0000   1.0000   0.0000   0.0000   0.0000   0.0000
     0.0000   0.0000   0.0000   0.0000   0.0000   0.0000   0.0000   0.0000
     0.0000   0.0000   0.0000   0.0000   0.0000   0.0000   0.0000   0.0000
     0.0000   0.0000   0.0000   0.0000   0.0000   0.0000   0.0000   0.0000
     0.0000   0.0000   0.0000   0.0000   0.0000   0.0000   0.0000   0.0000
     0.0000   0.0000   0.0000   0.0000   0.0000   0.0000   0.0000   0.0000
     0.0000   0.0000   0.0000   0.0000   0.0000   0.0000   0.0000   0.0000
     0.0000   0.0000   0.0000   0.0000   0.0000   0.0000   0.0000   0.0000
     0.0000   0.0000   0.0000   0.0000   0.0000   0.0000   0.0000   0.0000
     0.0000   0.0000   0.0000   0.0000   0.0000   0.0000   0.0000   0.0000
     0.0000   0.0000   0.0000   0.0000   0.0000   0.0000   0.0000   0.0000
     0.0000   0.0000   0.0000   0.0000   0.0000   0.0000   0.0000   0.0000
     0.0000   0.0000   0.0000   0.0000   0.0000   0.0000   0.0000   0.0000
     0.0000   0.0000   0.0000   0.0000   0.0000   0.0000   0.0000   0.0000
     0.0000   0.0000   0.0000   0.0000   0.0000   0.0000   0.0000   0.0000
     0.0000   0.0000   0.0000   0.0000   0.0000   0.0000   0.0000   0.0000
     0.0000   0.0000   0.0000   0.0000   0.0000   0.0000   0.0000   0.0000
     0.0000   0.0000   0.0000   0.0000   0.0000   0.0000   0.0000   0.0000
     0.0000   0.0000   0.0000   0.0000   0.0000   0.0000   0.0000   0.0000
     0.0000   0.0000   0.0000   0.0000   0.0000   0.0000   0.0000   0.0000
     0.0000   0.0000   0.0000   0.0000   0.0000   0.0000   0.0000   0.0000
     0.0000   0.0000   0.0000   0.0000   0.0000   0.0000   0.0000   0.0000
     0.0000   0.0000   0.0000   0.0000   0.0000   0.0000   0.0000   0.0000
     0.0000   0.0000   0.0000   0.0000   0.0000   0.0000   0.0000   0.0000

[...]

          k = 0.3333-0.3299-0.3334 (  5720 PWs)   bands (ev):

   -47.1752 -47.0240 -47.0240 -47.0239 -22.0875 -22.0711 -22.0619 -19.8655
   -19.0898 -19.0888 -19.0874 -18.9554 -18.9515 -18.9471 -18.9435 -18.9391
   -18.9365 -18.9324 -18.9252 -18.8982 -17.1599 -17.1218 -17.1159 -17.0921
   -17.0515 -17.0447 -15.7930 -15.7830  -9.7803  -9.0948  -9.0021  -8.9301
    -4.9541  -4.9053  -4.8464  -4.7540  -4.6230  -4.5923  -4.5530  -4.5432
    -4.5056  -3.7624  -3.7532  -3.5552  -0.7838  -0.7779  -0.7180  -0.6464
    -0.5743  -0.5361  -0.0187   0.0112   0.2855   0.3749   0.4533   0.5227
     0.6621   0.6945   0.8726   0.9265   1.2047   1.3555   1.4399   1.4921
     1.5595   1.5942   1.7983   1.8256   6.7981   6.8419   7.0087   7.6574
     7.8300   7.9095   8.0285   8.1954   8.2855   8.5337   8.6952   8.7767
    10.0854  10.7407  10.8579  10.9258  11.3873  11.5780  11.7529  12.1571
    13.0345  13.2380  13.4479  13.5444  13.8539  13.9274  14.0534  14.2171
    14.4269  14.7995  14.9203  15.2670  15.7422  15.8767  16.1073  16.5686
    16.6737  16.7776  16.9152  17.0524  17.2106  17.3477  17.6010  17.7729
    17.8575  18.0470  18.2335  18.5847  18.6546  18.7674  18.8633  19.1673
    19.4442  19.6864  19.9001  20.0202  20.4817  20.5538  20.6869  20.7798
    21.1088  21.3016  21.5136  21.6373  21.7589  21.9204  22.1486  22.5441
    22.6913  22.8826  23.1785  23.3045  23.4446  23.5936  23.6593  23.7721
    23.9423  24.4339  24.5450  24.8158  24.8597  24.9716  25.1347  25.2535
    25.3969  25.7902  25.9686  26.1380  26.2668  26.6073  26.7025  26.8895
    27.0430  27.2735  27.3238  27.5562  27.6619  27.8314  27.9704  28.1849
    28.4349  28.6119  28.7890  28.9404  28.9825  29.1735  29.4180  29.4626
    29.7154  29.9021  29.9933  30.2299  30.3010  30.5420  30.7031  30.8513
    30.9741  31.0375  31.2984  31.4441  31.5924  31.6270  31.7660  31.9400
    32.0482  32.2078  32.3508  32.4953  32.9450  33.0373  33.2269  33.4022
    33.5609  33.7967  34.0719  34.2220  34.2946  34.4565  34.5951  34.7816
    34.9617  35.0732  35.3583  35.4733  35.6583  35.7784  35.9276  36.0189
    36.1097  36.2928  36.4486  36.7564  36.8021  37.0047  37.2064  37.3156
    37.5709  37.7857  38.0158  38.0302  38.2889  38.3569  38.4172  38.6061
    38.7137  38.9869  39.1510  39.2576  39.4629  39.6051  39.8215  39.9385
    40.1740  40.2552  40.2959  40.5324  40.7393  40.8350  40.9422  41.1624
    41.1786  41.3534  41.4761  41.6491  41.7590  41.8091  41.9703  42.1602

     occupation numbers
     1.0000   1.0000   1.0000   1.0000   1.0000   1.0000   1.0000   1.0000
     1.0000   1.0000   1.0000   1.0000   1.0000   1.0000   1.0000   1.0000
     1.0000   1.0000   1.0000   1.0000   1.0000   1.0000   1.0000   1.0000
     1.0000   1.0000   1.0000   1.0000   1.0000   1.0000   1.0000   1.0000
     1.0000   1.0000   1.0000   1.0000   1.0000   1.0000   1.0000   1.0000
     1.0000   1.0000   1.0000   1.0000   1.0000   1.0000   1.0000   1.0000
     1.0000   1.0000   1.0000   1.0000   1.0000   1.0000   1.0000   1.0000
     1.0000   1.0000   1.0000   1.0000   1.0000   1.0000   1.0000   1.0000
     1.0000   1.0000   1.0000   1.0000   0.0000   0.0000   0.0000   0.0000
     0.0000   0.0000   0.0000   0.0000   0.0000   0.0000   0.0000   0.0000
     0.0000   0.0000   0.0000   0.0000   0.0000   0.0000   0.0000   0.0000
     0.0000   0.0000   0.0000   0.0000   0.0000   0.0000   0.0000   0.0000
     0.0000   0.0000   0.0000   0.0000   0.0000   0.0000   0.0000   0.0000
     0.0000   0.0000   0.0000   0.0000   0.0000   0.0000   0.0000   0.0000
     0.0000   0.0000   0.0000   0.0000   0.0000   0.0000   0.0000   0.0000
     0.0000   0.0000   0.0000   0.0000   0.0000   0.0000   0.0000   0.0000
     0.0000   0.0000   0.0000   0.0000   0.0000   0.0000   0.0000   0.0000
     0.0000   0.0000   0.0000   0.0000   0.0000   0.0000   0.0000   0.0000
     0.0000   0.0000   0.0000   0.0000   0.0000   0.0000   0.0000   0.0000
     0.0000   0.0000   0.0000   0.0000   0.0000   0.0000   0.0000   0.0000
     0.0000   0.0000   0.0000   0.0000   0.0000   0.0000   0.0000   0.0000
     0.0000   0.0000   0.0000   0.0000   0.0000   0.0000   0.0000   0.0000
     0.0000   0.0000   0.0000   0.0000   0.0000   0.0000   0.0000   0.0000
     0.0000   0.0000   0.0000   0.0000   0.0000   0.0000   0.0000   0.0000
     0.0000   0.0000   0.0000   0.0000   0.0000   0.0000   0.0000   0.0000
     0.0000   0.0000   0.0000   0.0000   0.0000   0.0000   0.0000   0.0000
     0.0000   0.0000   0.0000   0.0000   0.0000   0.0000   0.0000   0.0000
     0.0000   0.0000   0.0000   0.0000   0.0000   0.0000   0.0000   0.0000
     0.0000   0.0000   0.0000   0.0000   0.0000   0.0000   0.0000   0.0000
     0.0000   0.0000   0.0000   0.0000   0.0000   0.0000   0.0000   0.0000
     0.0000   0.0000   0.0000   0.0000   0.0000   0.0000   0.0000   0.0000
     0.0000   0.0000   0.0000   0.0000   0.0000   0.0000   0.0000   0.0000

     highest occupied, lowest unoccupied level (ev):     1.9129    6.7701

!    total energy              =   -1026.49873093 Ry
     estimated scf accuracy    <       0.00000019 Ry

     The total energy is the sum of the following terms:
     one-electron contribution =    -527.06514687 Ry
     hartree contribution      =     320.86360435 Ry
     xc contribution           =    -201.31115767 Ry
     ewald contribution        =    -504.56176007 Ry
     one-center paw contrib.   =    -114.42427068 Ry
      -> PAW hartree energy AE =       0.00000000 Ry
      -> PAW hartree energy PS =       0.00000000 Ry
      -> PAW xc energy AE      =       0.00000000 Ry
      -> PAW xc energy PS      =       0.00000000 Ry
      -> total E_H with PAW    =     320.86360435 Ry
      -> total E_XC with PAW   =    -201.31115767 Ry

     convergence has been achieved in  10 iterations

     Writing all to output data dir bands_nm/myprefix.save/

     General routines

     Parallel routines

     PAW routines

   This run was terminated on:  17:59:30  15Jul2023

   JOB DONE.